
units lj                  # Use reduced LJ style units
atom_style atomic         # Uncharged point particles
atom_modify map hash      # Needed for indexing of clusters etc
                          # Used to be able to find where atoms are in relation to each other.

lattice fcc 1.0 spacing 1 1 1
Lattice spacing in x,y,z = 1.5874011 1.5874011 1.5874011
region box block 0 10 0 10 0 10 units lattice
create_box 2 box
Created orthogonal box = (0.0000000 0.0000000 0.0000000) to (15.874011 15.874011 15.874011)
  3 by 4 by 4 MPI processor grid
create_atoms 1 box
Created 4000 atoms
  using lattice units in orthogonal box = (0.0000000 0.0000000 0.0000000) to (15.874011 15.874011 15.874011)
  create_atoms CPU = 0.012 seconds
set type 1 type/fraction 2 0.06 78393
Setting atom values ...
  252 settings made for type/fraction
mass 1 1.0
mass 2 1.0
pair_style lj/cut  3.5
pair_modify tail  yes
pair_coeff 1  1  1.0  1.0   # Intearaction between 1 and 1 set with epsilon = 1 and sigma = 1
pair_coeff 1  2  1.5  0.8
pair_coeff 2  2  0.5  0.88

write_data data.0
System init for write_data ...
Neighbor list info ...
  update every 1 steps, delay 10 steps, check yes
  max neighbors/atom: 2000, page size: 100000
  master list distance cutoff = 3.8
  ghost atom cutoff = 3.8
  binsize = 1.9, bins = 9 9 9
  1 neighbor lists, perpetual/occasional/extra = 1 0 0
  (1) pair lj/cut, perpetual
      attributes: half, newton on
      pair build: half/bin/atomonly/newton
      stencil: half/bin/3d
      bin: standard
WARNING: Not all mixed pair coeffs generated from mixing. Use write_data with 'pair ij' option to store all pair coeffs. (../write_data.cpp:312)


#############################
#   M E L T   S Y S T E M   #
#############################

velocity all create 2.4 6229865 mom yes dist gaussian # Assign velocities
                                                    # Temperature 2.4, random number seed, zero linear momentum
                                                                                # Gaussian distribution

timestep 0.002   # simulation timestep
thermo 1000       # output thermodynamic data every 1000 steps bf 100

# Define a fix  in this case with index 1 applied to all
# particles in the simulation. This fix is for simulations
# in the anisotropic NPT ensemble. Note that we use the MTK
# correction.
fix 1 all npt temp 2.4 2.4 0.1 iso 5.68 5.68 0.5 mtk yes tchain 5 pchain 5 # Use NPT ensemble
                                                                         # Set temperature and pressure and damping
                                                                         # Numbers of thermostats in chain and in barostat
run 10000          # run for 10000 steps
Per MPI rank memory allocation (min/avg/max) = 3.642 | 3.644 | 3.648 Mbytes
Step Temp E_pair E_mol TotEng Press Volume 
       0          2.4   -7.9704536            0   -4.3713536   -2.7323792         4000 
    1000    2.4031209   -4.5283109            0  -0.92453067    5.4825292    5015.1008 
    2000    2.3698558    -4.514716            0  -0.96082104    5.7112039    4993.1557 
    3000    2.3928609   -4.4581686            0  -0.86977452     5.740194    5014.0866 
    4000    2.3861485   -4.4705646            0  -0.89223655    5.9435678    4977.9178 
    5000    2.4069571   -4.4513625            0  -0.84182946     5.814175    5018.2994 
    6000    2.4161796   -4.4665443            0  -0.84318091    5.9090571    4998.5341 
    7000    2.4459222   -4.5119203            0  -0.84395422    5.9303428    4965.7286 
    8000    2.4239849   -4.5680757            0  -0.93300732    5.4238736     4995.018 
    9000    2.3918507   -4.4759254            0  -0.88904635    5.8130376    4997.5977 
   10000    2.3826311   -4.4735701            0  -0.90051689    5.8742857    4986.4811 
Loop time of 2.11417 on 48 procs for 10000 steps with 4000 atoms

Performance: 817342.876 tau/day, 4729.993 timesteps/s
99.6% CPU use with 48 MPI tasks x no OpenMP threads

MPI task timing breakdown:
Section |  min time  |  avg time  |  max time  |%varavg| %total
---------------------------------------------------------------
Pair    | 0.86852    | 0.93799    | 1.0467     |   3.4 | 44.37
Neigh   | 0.17921    | 0.18748    | 0.21071    |   1.1 |  8.87
Comm    | 0.62233    | 0.73832    | 0.81223    |   4.5 | 34.92
Output  | 0.00024534 | 0.00024994 | 0.00032595 |   0.0 |  0.01
Modify  | 0.19315    | 0.23569    | 0.27943    |   4.9 | 11.15
Other   |            | 0.01444    |            |       |  0.68

Nlocal:        83.3333 ave          92 max          76 min
Histogram: 1 8 0 10 5 11 8 2 2 1
Nghost:        1415.85 ave        1440 max        1395 min
Histogram: 2 1 10 6 7 7 8 5 1 1
Neighs:        7645.33 ave        8744 max        6716 min
Histogram: 2 5 3 5 14 10 5 2 0 2

Total # of neighbors = 366976
Ave neighs/atom = 91.744000
Neighbor list builds = 907
Dangerous builds = 223

# Equilibrate just above the melting temperature to avoid step fn in T

fix 1 all npt temp 1.25 1.25 0.1 iso 5.68 5.68 0.5 mtk yes tchain 5 pchain 5
run 2000
Per MPI rank memory allocation (min/avg/max) = 3.643 | 3.646 | 3.650 Mbytes
Step Temp E_pair E_mol TotEng Press Volume 
   10000    2.3826311   -4.4735701            0  -0.90051689    5.8742857    4986.4811 
   11000    1.2675386   -6.0321545            0    -4.131322    5.8142663     4130.263 
   12000    1.2509762   -6.0748746            0   -4.1988795    5.6922286    4118.4914 
Loop time of 0.462291 on 48 procs for 2000 steps with 4000 atoms

Performance: 747581.412 tau/day, 4326.281 timesteps/s
99.6% CPU use with 48 MPI tasks x no OpenMP threads

MPI task timing breakdown:
Section |  min time  |  avg time  |  max time  |%varavg| %total
---------------------------------------------------------------
Pair    | 0.19862    | 0.21688    | 0.23344    |   1.6 | 46.91
Neigh   | 0.031878   | 0.032911   | 0.035088   |   0.4 |  7.12
Comm    | 0.13878    | 0.15962    | 0.17594    |   1.9 | 34.53
Output  | 4.9873e-05 | 5.18e-05   | 8.32e-05   |   0.0 |  0.01
Modify  | 0.041972   | 0.048443   | 0.054043   |   1.5 | 10.48
Other   |            | 0.004385   |            |       |  0.95

Nlocal:        83.3333 ave          91 max          75 min
Histogram: 3 1 1 10 5 10 10 2 4 2
Nghost:        1612.08 ave        1626 max        1596 min
Histogram: 2 3 4 8 4 4 10 1 7 5
Neighs:        9245.42 ave       10179 max        7943 min
Histogram: 1 1 1 5 10 6 11 5 5 3

Total # of neighbors = 443780
Ave neighs/atom = 110.94500
Neighbor list builds = 144
Dangerous builds = 12

#############################
# L I N E A R  Q U E N C H  #
#############################

# Define solid atoms. This closely follows ten Wolde  Ruiz-Montero and Frenkel  Faraday Discuss  1996  104  93-110
# Compute components of the per-atom q6 vector
compute q6 all orientorder/atom degrees 1 6 components 6 nnn NULL cutoff 1.3 # compute the Q6 parameter.
                                                                             # Use all neighbours within 1.3 unit cell.

# get number of connections
compute coord_number all coord/atom orientorder q6 0.5

# An atom is solid if it has 8 or more connections (of a possible 14)
variable is_solid atom c_coord_number>=8
group solid dynamic all var is_solid    # Must be dynamic to update
dynamic group solid defined

# do clustering
compute cluster solid cluster/atom 1.3 # Create a cluster where all atoms within are solid and max 1.3 units from another member

# define chunks one chunk per cluster
compute clus_chunks solid chunk/atom c_cluster nchunk every compress yes  # Says which atoms are in which chunk

# count the size of each chunk
compute size_chunks solid property/chunk clus_chunks count


# Find the maximum entry in the vector of chunk sizes
variable max_n equal max(c_size_chunks)


# Thermo style which includes this variable
# thermo_style custom step temp pe vol v_max_n

thermo ${N}  # Print the thermo information every 100 steps
thermo 1000  

# Reset the npt fix at a lower temperature (below freezing)
fix 1  all npt temp  ${temp} ${temp}  0.1  iso  5.68  5.68  0.5  mtk yes tchain  5  pchain  5
fix 1  all npt temp  0.45 ${temp}  0.1  iso  5.68  5.68  0.5  mtk yes tchain  5  pchain  5
fix 1  all npt temp  0.45 0.45  0.1  iso  5.68  5.68  0.5  mtk yes tchain  5  pchain  5

dump dmp2 all dcd ${N} traj.dcd
dump dmp2 all dcd 1000 traj.dcd


compute msd all msd com yes
variable twopoint equal c_msd[4]/6/(step*dt+1.0e-6)
fix 9 all vector 10 c_msd[4]
variable fit equal slope(f_9)/6/(10*dt)
thermo_style custom step temp pe c_msd[4] v_twopoint v_fit v_max_n

fix 1 all npt temp 1.25 ${temp} 0.1 iso 5.68 5.68 0.5 mtk yes tchain 5 pchain 5
fix 1 all npt temp 1.25 0.45 0.1 iso 5.68 5.68 0.5 mtk yes tchain 5 pchain 5
run 500000 # 5000000  # Run for this many steps
Neighbor list info ...
  update every 1 steps, delay 10 steps, check yes
  max neighbors/atom: 2000, page size: 100000
  master list distance cutoff = 3.8
  ghost atom cutoff = 3.8
  binsize = 1.9, bins = 9 9 9
  4 neighbor lists, perpetual/occasional/extra = 1 3 0
  (1) pair lj/cut, perpetual
      attributes: half, newton on
      pair build: half/bin/atomonly/newton
      stencil: half/bin/3d
      bin: standard
  (2) compute orientorder/atom, occasional
      attributes: full, newton on
      pair build: full/bin/atomonly
      stencil: full/bin/3d
      bin: standard
  (3) compute coord/atom, occasional
      attributes: full, newton on
      pair build: full/bin/atomonly
      stencil: full/bin/3d
      bin: standard
  (4) compute cluster/atom, occasional
      attributes: full, newton on
      pair build: full/bin/atomonly
      stencil: full/bin/3d
      bin: standard
Per MPI rank memory allocation (min/avg/max) = 9.744 | 9.748 | 9.752 Mbytes
Step Temp PotEng c_msd[4] v_twopoint v_fit v_max_n 
   12000    1.2509762   -6.0748746 8.6498598e-31 6.0068469e-33 8.3333333e+20            2 
   13000    1.2089319   -6.0722921   0.56413349 0.0036162402  0.047245591            2 
   14000    1.2445057   -6.0572884    1.1091859  0.006602297  0.045073689            4 
   15000    1.2279979   -6.0768494    1.6797478 0.0093319322    0.0458406            2 
   16000    1.2585336   -6.0272718    2.2252014   0.01158959  0.046027725            5 
   17000    1.2408481    -6.045314    2.7608276  0.013533468  0.045820412            2 
   18000    1.2138311   -6.0811983    3.2681299   0.01513023  0.045523101            2 
   19000    1.2554403   -6.1073843    3.8372895  0.016830217  0.045426807            1 
   20000    1.2275533    -6.104772    4.4215288  0.018423036  0.045526112            1 
   21000    1.2250296   -6.0814105    4.9677417   0.01971326  0.045710633            7 
   22000    1.2341709   -6.0581823    5.5592442  0.021057743  0.045734533            4 
   23000    1.2638414     -6.09653    6.0731666  0.022004226  0.045865655            2 
   24000    1.2068405   -6.1073737    6.5653681  0.022796416  0.045844442            2 
   25000    1.2335982   -6.1304385    7.0848991   0.02361633  0.045602728            2 
   26000     1.239677   -6.0884037    7.6628931  0.024560554  0.045502565            3 
   27000    1.2303993   -6.1075177      8.24281  0.025440771  0.045522156            3 
   28000    1.2347814   -6.1133589    8.7210089  0.025955383   0.04551204            2 
   29000    1.2158847   -6.0996548    9.2415191  0.026556089  0.045394699            2 
   30000    1.1998501   -6.0869952    9.7353692  0.027042692   0.04526664            2 
   31000    1.2308892   -6.1072651    10.237921  0.027521292  0.045135947            2 
   32000    1.2048582   -6.1303349    10.703138  0.027872756  0.044956424            2 
   33000    1.2212925   -6.0989331    11.283176  0.028492868  0.044798008            2 
   34000    1.1941533   -6.1727484    11.761259  0.028826615  0.044703265            2 
   35000    1.1958844   -6.1091279    12.266861  0.029206811  0.044586958            2 
   36000    1.2206595   -6.1395102    12.667554  0.029323041  0.044398748            4 
   37000    1.2096645   -6.1148325    13.169922  0.029661985  0.044205555            9 
   38000    1.2144246    -6.124078    13.626225  0.029882072  0.044013054            5 
   39000    1.2070832   -6.1471929    14.092032  0.030111178  0.043804055            2 
   40000    1.1720616    -6.146371     14.43424  0.030071333  0.043566718            4 
   41000    1.2011909   -6.1484726    15.158185  0.030809318  0.043417584            3 
   42000    1.2210608   -6.1660972    15.737692   0.03122558  0.043343581            3 
   43000    1.1841513   -6.1627866    16.238714  0.031470375  0.043303894            3 
   44000     1.199326   -6.1520133    16.643908  0.031522553  0.043229648            2 
   45000    1.2140623   -6.1654885    17.149383  0.031758115  0.043137849            3 
   46000    1.1956668   -6.1475357    17.653939  0.031981773  0.043051541            3 
   47000    1.1931973   -6.1458889    18.059126  0.032019727  0.042980758            3 
   48000    1.2081566    -6.160797    18.428234  0.031993461  0.042864516            4 
   49000    1.1929839   -6.1732791    19.015248  0.032338857  0.042743982            3 
   50000    1.2032742   -6.1639914    19.377659  0.032296099  0.042630328            5 
   51000    1.1707606   -6.1550662    19.942406  0.032585631   0.04251365            1 
   52000     1.180283    -6.210073    20.404269  0.032699148  0.042424606            2 
   53000    1.1809246   -6.1323136    20.780616  0.032673925  0.042320638            4 
   54000    1.1782036   -6.1589993    21.190201  0.032700927  0.042180565            3 
   55000    1.1909208   -6.2021007    21.636255  0.032782204  0.042044516            4 
   56000    1.1872951    -6.164605    22.102991  0.032891355  0.041920628            4 
   57000    1.1839784   -6.1588818    22.631999  0.033087718  0.041797124            6 
   58000    1.1959173   -6.1578681    23.074528  0.033153057  0.041693511            2 
   59000    1.1884968   -6.1990845    23.472165  0.033152775  0.041575529            4 
   60000    1.1710686   -6.1626643    23.954617  0.033270301  0.041476976            3 
   61000    1.1584022   -6.2040399    24.400344  0.033333803  0.041376285            3 
   62000    1.1766858   -6.1874677    24.828396    0.0333715   0.04127143            3 
   63000    1.1884395   -6.1928254    25.303396    0.0334701  0.041175434            4 
   64000    1.1640634   -6.1622035    25.843611  0.033650534  0.041080537            2 
   65000    1.1628855   -6.1980862    26.260042   0.03366672    0.0409966            3 
   66000    1.1515213    -6.186739    26.722084  0.033740004  0.040928072            3 
   67000    1.1599821   -6.2191647    27.097485  0.033703339  0.040851121            2 
   68000    1.1751974    -6.220969    27.639978  0.033872522  0.040778084            2 
   69000    1.1336933   -6.2130325    27.995136   0.03381055  0.040698669            2 
   70000    1.1124364    -6.245458    28.305433  0.033696944  0.040612347            4 
   71000    1.1594478    -6.167447     28.80814  0.033812371  0.040518176            3 
   72000    1.1746462   -6.2495511    29.127657  0.033712566  0.040416564            5 
   73000    1.1579809   -6.2065797    29.370745  0.033528247  0.040298655            4 
   74000    1.1640743   -6.2437581    29.852775  0.033617989  0.040174674            9 
   75000    1.1506492   -6.2614713    29.988495   0.03332055  0.040044766            2 
   76000    1.1503101   -6.2059463    30.596777  0.033549097  0.039917087            4 
   77000    1.1392653   -6.2185624    31.043928  0.033597324  0.039805234            3 
   78000    1.1470686   -6.2543574    31.720109  0.033889005  0.039712626            4 
   79000    1.1321846   -6.2114834    32.192581  0.033958418  0.039639386            2 
   80000    1.1546797   -6.2540281    32.458722  0.033811169    0.0395623            6 
   81000    1.1034056   -6.2663477    32.740024  0.033683152  0.039468552            3 
   82000    1.1189588   -6.2471224    33.309709   0.03385133  0.039385406            2 
   83000    1.1270505   -6.2530226    33.621288  0.033756313  0.039304462            3 
   84000     1.110129   -6.2546631    34.049529  0.033779295  0.039217873            6 
   85000    1.1375944   -6.2392289    34.494995  0.033818622  0.039127577            3 
   86000    1.1376092   -6.2764647    34.847767  0.033767216  0.039035854            2 
   87000    1.1314474   -6.2650647    35.409062  0.033916726  0.038950375            5 
   88000    1.1322983   -6.2997452    35.678479  0.033786438  0.038868783            3 
   89000    1.1381228   -6.2589475     36.07044   0.03377382   0.03878684            3 
   90000    1.1257854   -6.2474952    36.608349  0.033896619  0.038710691            2 
   91000    1.1070347   -6.2647812    37.112582  0.033985881  0.038647298            6 
   92000    1.1318387   -6.2745096    37.489022  0.033957447  0.038585653            2 
   93000    1.1094536   -6.3021099    37.822624   0.03389124  0.038517966            2 
   94000     1.102742   -6.2732695    38.267916  0.033925457  0.038450303            4 
   95000    1.1214658   -6.2646586    38.506764  0.033777863  0.038382509            3 
   96000    1.1283329   -6.2828288    38.964512  0.033823361  0.038315513            6 
   97000    1.1189907   -6.3273309     39.21702  0.033691598  0.038240932            3 
   98000    1.0758517   -6.2888009    39.462094  0.033556202  0.038157321            3 
   99000    1.1074616    -6.355442    39.728794  0.033441746  0.038068012            2 
  100000     1.146178   -6.3271294    40.318459  0.033598716  0.037976578            5 
  101000    1.1073881   -6.2879243     40.81967  0.033679596  0.037902442            2 
  102000    1.1289445   -6.3258769    41.119407  0.033594287  0.037833057            2 
  103000    1.1128845    -6.320512    41.723672  0.033757016  0.037761606            8 
  104000    1.0665549   -6.3328926    42.022769   0.03367209  0.037693499            4 
  105000    1.0897841   -6.3111136    42.279744  0.033555352  0.037626829            2 
  106000    1.1042694    -6.316232     42.66973  0.033545385  0.037559735            4 
  107000     1.060822   -6.3714593    43.183033  0.033631645  0.037490729            4 
  108000    1.1055352   -6.3025273    43.796186  0.033793353  0.037429129            4 
  109000    1.0791772   -6.3516684    44.205986  0.033796625     0.037375            7 
  110000    1.0875287   -6.3525345    44.525025  0.033731079  0.037314825            3 
  111000    1.0904315   -6.3454613    44.734092  0.033584153  0.037250465            7 
  112000    1.0752227   -6.3644242    45.047872  0.033517762  0.037182138            3 
  113000    1.0858471   -6.3289373    45.397339  0.033478864  0.037114638            3 
  114000    1.0936116   -6.3068379    45.995225  0.033622241  0.037052388            2 
  115000    1.0831158   -6.3163824    46.214349  0.033488658  0.036988001            3 
  116000    1.0801831   -6.3648995    46.575996  0.033459767  0.036921484            5 
  117000    1.0851695   -6.4136024    46.779512   0.03331874  0.036851645            2 
  118000    1.0691566   -6.3452094    47.309791  0.033410869  0.036778566            2 
  119000    1.0834895   -6.3440447    47.719953  0.033417334  0.036711086            5 
  120000    1.0758332   -6.3420683    48.018108  0.033345909  0.036647045            3 
  121000    1.0706422   -6.3273884    48.426755  0.033351759  0.036582532            1 
  122000    1.0635383   -6.3333467    48.608418  0.033202471  0.036516823            5 
  123000    1.0502775   -6.3372329    48.950661  0.033164404  0.036447283            4 
  124000    1.0689077   -6.3328804    49.101863  0.032998563  0.036376067            2 
  125000    1.0590734   -6.3599496    49.358204  0.032905469  0.036300097            2 
  126000    1.0761825   -6.3761467    49.728926  0.032889501  0.036224387            9 
  127000    1.0752025   -6.3926428    50.153297  0.032908987   0.03614883            4 
  128000    1.0961175   -6.4085186    50.426111  0.032829499  0.036071992            3 
  129000    1.0599959   -6.3807471    50.893266  0.032876787  0.035998985            2 
  130000    1.0610491   -6.3825999    51.151731  0.032789571  0.035925684            4 
  131000    1.0624742   -6.3843795    51.473299  0.032743829  0.035851737            7 
  132000    1.0556655   -6.3572904    51.807067  0.032706481  0.035776935            3 
  133000     1.071684    -6.391698    52.050848  0.032613313  0.035704172            4 
  134000    1.0498753   -6.4569756    52.177402  0.032448633  0.035627267            4 
  135000    1.0498627   -6.4288605    52.661644  0.032507188  0.035549501            3 
  136000    1.0602525   -6.4045544    52.973668  0.032459355  0.035475093            3 
  137000    1.0717386   -6.4243247    53.439704  0.032505902  0.035400585            2 
  138000    1.0310632   -6.4392394     53.46852  0.032287753  0.035325249            9 
  139000    1.0412586   -6.3956535    53.932128   0.03233341  0.035247374            3 
  140000    1.0574608   -6.4433615    53.999117  0.032142331  0.035168496            4 
  141000    1.0449659   -6.4598485    54.224839  0.032047777  0.035086335            5 
  142000    1.0268308   -6.4194456    54.430926  0.031943031  0.034999788            7 
  143000    1.0498664   -6.4402398    54.662691  0.031854715  0.034911562            4 
  144000    1.0516537    -6.428107    55.057472  0.031861963  0.034823022            3 
  145000     1.033504   -6.4309082    55.395458   0.03183647  0.034736625            5 
  146000    1.0371023   -6.4662118    55.635018  0.031755147   0.03465011            4 
  147000    1.0434067   -6.4679792    55.660012  0.031553294   0.03456277            4 
  148000    1.0214113   -6.4609802     56.00744  0.031535721  0.034474021            3 
  149000    1.0212918   -6.4262762    56.362901  0.031522875  0.034386708            3 
  150000    1.0269548   -6.4452151    56.478206  0.031376781  0.034298345            5 
  151000    1.0132948   -6.4235312    57.190067  0.031561847  0.034214146            3 
  152000    1.0356877   -6.4534807    57.469161  0.031507215  0.034134999            5 
  153000    1.0473216   -6.4863737    57.684941  0.031418813    0.0340524            6 
  154000    1.0286134   -6.4660722    58.033697  0.031403515  0.033969509            4 
  155000     1.015438   -6.4496344    58.350264  0.031371109  0.033891048            6 
  156000     1.041956    -6.468787    58.651457  0.031330907  0.033813015            8 
  157000   0.99582348   -6.4364703    59.052168  0.031344038  0.033735722            5 
  158000    1.0404714   -6.5025005    59.277663   0.03126459  0.033659973            3 
  159000    1.0067306   -6.4937174     59.61229  0.031243338  0.033586417            3 
  160000    1.0139824   -6.4747559    59.938963   0.03121821  0.033514368            7 
  161000    1.0020661   -6.4493787    60.344066  0.031233988    0.0334428           10 
  162000   0.99766836   -6.4936162    60.708822  0.031228818  0.033373107            4 
  163000   0.99903376   -6.5189508    60.569559  0.030966032  0.033300061            3 
  164000    1.0107841   -6.5065899    60.801276  0.030894957  0.033224238            3 
  165000    1.0111426   -6.5151068     61.09038  0.030853727  0.033148777            5 
  166000   0.99173236   -6.5253684    61.285018  0.030765571  0.033072644            4 
  167000   0.99958123   -6.4951897     61.78734  0.030832006  0.032997739            6 
  168000   0.98882347   -6.5049302    61.840599    0.0306749  0.032923205            5 
  169000    1.0072566   -6.5113302    62.129237  0.030635718  0.032848137            6 
  170000   0.99277782   -6.4671311    62.442806  0.030609219  0.032772306            4 
  171000   0.97902682   -6.5052701    62.708844  0.030559865  0.032697418            6 
  172000   0.98620838   -6.5321904    62.700159  0.030377984   0.03262011            4 
  173000    1.0249668   -6.5266907    63.047066  0.030369492  0.032541994            7 
  174000   0.98389859   -6.5442159    63.413546  0.030370472  0.032465763            4 
  175000   0.99284522   -6.5138866    63.516909  0.030246147   0.03238933            5 
  176000   0.98847287   -6.5435342    63.765228  0.030191869  0.032311457            9 
  177000   0.97588287    -6.521926    63.944878  0.030105875  0.032232624            4 
  178000   0.97329201   -6.5644899    64.106731  0.030012514  0.032153549            6 
  179000   0.98211085     -6.54972    64.561385  0.030056511  0.032076803            6 
  180000   0.97991646   -6.5607032     64.67211  0.029940792  0.032000872            9 
  181000   0.98404196   -6.5058164    64.829597  0.029847881  0.031922056            4 
  182000   0.98381274   -6.5626275    64.853691  0.029694913  0.031840209            6 
  183000   0.97264636   -6.5952592    65.106728  0.029647873  0.031758117           13 
  184000   0.96656176   -6.5466554    65.396787   0.02961811   0.03167695            9 
  185000   0.96843374   -6.5473556    65.544572  0.029524582  0.031596058            4 
  186000   0.94661079   -6.5578417    65.830267  0.029493847  0.031515043           17 
  187000   0.96461922   -6.5391053    66.049237  0.029433706  0.031436734            4 
  188000   0.97083279   -6.5644981    66.373199  0.029420744   0.03135639            3 
  189000   0.98457207     -6.57232    66.452864  0.029300204  0.031277155            6 
  190000   0.98176668   -6.5612734    66.777038  0.029288174  0.031197337            6 
  191000   0.95718399   -6.5765549    66.942483  0.029207017   0.03111875            2 
  192000   0.95943736   -6.5899708    67.214233  0.029172844  0.031041471            3 
  193000   0.94740334   -6.5710524    67.531962  0.029158878  0.030966364            8 
  194000   0.95666813   -6.6100355    67.879545   0.02915788  0.030891723            3 
  195000   0.97039943   -6.5423179    67.940143  0.029034249  0.030815834            5 
  196000   0.98038149   -6.5974724    67.917313  0.028876409  0.030738007            6 
  197000   0.93225877   -6.6036374    68.351507  0.028913497  0.030659944            9 
  198000   0.95237485   -6.6056094    68.333132  0.028759736  0.030582264            4 
  199000   0.95183749   -6.6200772     68.75248  0.028790821  0.030505895           18 
  200000   0.95460498   -6.5849517    69.121772  0.028800738  0.030431019            5 
  201000   0.94386394   -6.6142468    68.983109  0.028599962   0.03035471            8 
  202000   0.94133847   -6.6039612     69.18375  0.028541151  0.030277051            5 
  203000   0.93863519   -6.6255967    69.232848  0.028420709  0.030197857            4 
  204000   0.94194189   -6.6051285    69.378825  0.028341023  0.030119236            8 
  205000   0.94541178   -6.6323414    69.517318  0.028259072   0.03004073            8 
  206000   0.95898017   -6.6279563    69.848151  0.028255724   0.02996347            5 
  207000   0.92882666   -6.6108755    69.994544  0.028178158   0.02988483           12 
  208000   0.91651887   -6.6096875    70.489045  0.028240803  0.029807215           11 
  209000   0.94320344   -6.6356328    70.656138  0.028172304  0.029731919            4 
  210000   0.92450601   -6.6119289    70.878271  0.028126298  0.029655692            7 
  211000   0.92550892   -6.6318843    71.102963  0.028081739  0.029579739            9 
  212000   0.93931786   -6.6124853    71.444711  0.028083613  0.029505654            3 
  213000    0.9248189   -6.6425538    71.360224  0.027918711  0.029432017            6 
  214000   0.92912287   -6.6193188    71.630714   0.02789358   0.02935829            8 
  215000   0.91962833   -6.6132201    71.889178  0.027864022   0.02928488           10 
  216000   0.92550802   -6.6428782    72.054125  0.027798659  0.029212265            5 
  217000   0.92224851   -6.6599477    72.235547  0.027740225  0.029138768            6 
  218000   0.91996633   -6.6581413    72.616094  0.027758446  0.029065454            6 
  219000   0.91185141   -6.6582561    72.755558  0.027684763  0.028993911            9 
  220000    0.9354489   -6.6455134    72.963894  0.027637839  0.028922608            4 
  221000   0.92250666   -6.6573504    72.846622   0.02746856   0.02884967            5 
  222000   0.90846103   -6.6742897    73.186721  0.027472493  0.028777661           10 
  223000    0.9133217   -6.6653125    73.352585   0.02741128  0.028705123            5 
  224000   0.91019952   -6.6801738    73.637532  0.027394915  0.028633732           12 
  225000   0.92653252   -6.7207079    73.648015  0.027277042  0.028564029            4 
  226000   0.89928711    -6.663795    74.156506  0.027343844   0.02849507            5 
  227000   0.90688265   -6.6864098    74.209124  0.027242703   0.02842582            4 
  228000   0.91503851   -6.6563413    74.584031  0.027260245  0.028359051           12 
  229000   0.88552918   -6.6639165    74.965474  0.027280012  0.028293234            4 
  230000   0.90034365   -6.7188426    74.929998   0.02714855  0.028227122           11 
  231000   0.91912354   -6.6855636    75.274806  0.027155413  0.028161505            5 
  232000   0.89079692   -6.6958041    75.416932  0.027089415  0.028095987           10 
  233000    0.8824295    -6.720432    75.427779  0.026977031  0.028029433            7 
  234000   0.92709946   -6.6843216     75.86288  0.027016695  0.027962949            3 
  235000   0.89957631   -6.7284648    75.737436  0.026857247  0.027896629            4 
  236000   0.89967417   -6.7113478    75.863987  0.026788131    0.0278302            9 
  237000   0.89253738   -6.7343466    75.789861  0.026649037  0.027762993            7 
  238000   0.87762552   -6.7094361    76.163212  0.026667791  0.027694893            7 
  239000   0.86602733   -6.7231145    76.157429  0.026554194  0.027627423            5 
  240000      0.89048   -6.7201964     76.46919  0.026551802   0.02756039            6 
  241000   0.89495479   -6.7242063     76.53677  0.026464996  0.027492973            8 
  242000   0.90143589   -6.7241871    77.044935  0.026530625  0.027426486            5 
  243000   0.88368806   -6.7376742    77.253354   0.02649292  0.027361787            4 
  244000   0.86916732   -6.7560681    77.436866  0.026447017  0.027297253            9 
  245000    0.8664066   -6.7366008    77.592066  0.026391859  0.027233199            8 
  246000    0.8769246   -6.7560222    77.971961  0.026413266  0.027169418            8 
  247000   0.87387181   -6.7754016    77.877645  0.026274509   0.02710643            9 
  248000   0.87245135   -6.7643768    77.838931  0.026155555  0.027041373            6 
  249000   0.86601829   -6.7607282    77.980651  0.026097942  0.026976824           14 
  250000   0.89309977   -6.7429315    78.236631  0.026078877  0.026912603            4 
  251000   0.87288228   -6.7656052    78.420306  0.026035958  0.026847979           11 
  252000   0.85811867   -6.7302941    78.740447  0.026038508  0.026783245           14 
  253000   0.85989631    -6.743499    78.569198  0.025879182   0.02671898            9 
  254000    0.8567784   -6.7923419     78.54811  0.025770377  0.026654062            7 
  255000   0.87082873   -6.7914083    78.859944  0.025771224  0.026588676            6 
  256000   0.86097863   -6.7515076     79.29227  0.025811286  0.026525213           10 
  257000   0.85567032   -6.7684709    79.051004  0.025632621  0.026461178            6 
  258000   0.87334742   -6.7703239    79.163028  0.025569454   0.02639676            6 
  259000   0.85495206   -6.7886602    79.401512  0.025547462  0.026332027            9 
  260000   0.84258543   -6.8019881    79.410249  0.025452003  0.026267688            7 
  261000   0.84044955   -6.8075192    79.425049  0.025359211  0.026202381            9 
  262000   0.84639943   -6.7917773    79.859798  0.025400699  0.026137575            8 
  263000   0.85103663   -6.7782806    79.826391  0.025293533  0.026072927            6 
  264000   0.82915457   -6.7932005    79.843312  0.025203066   0.02600759            6 
  265000   0.86455183   -6.8121883    80.131786  0.025198675  0.025942721            5 
  266000   0.84795089   -6.7866937    80.157438  0.025111979  0.025877397            7 
  267000   0.83302096   -6.8004158    80.277389  0.025055365  0.025811956            5 
  268000   0.83369783   -6.7573053     80.42844  0.025008843  0.025746981            7 
  269000    0.8339641   -6.8272106    80.325423   0.02488396  0.025681444           13 
  270000   0.82065522   -6.8039299    80.423162  0.024821963  0.025615634           11 
  271000   0.85986974   -6.8239784    80.533053  0.024764162  0.025549708           12 
  272000   0.82617826   -6.8372312    80.745741  0.024738279  0.025483613            9 
  273000   0.84224717   -6.8425372    80.637369  0.024614581  0.025417059           16 
  274000   0.82400484   -6.8334669    80.738354   0.02455546  0.025350776           28 
  275000   0.83277451   -6.8412498    80.976797  0.024538423  0.025284829           13 
  276000     0.827174   -6.8206268    81.035077  0.024467113  0.025218684           23 
  277000   0.83013437   -6.8414258    81.319959  0.024464488  0.025152763           12 
  278000   0.82666721   -6.8627761    81.182329  0.024335231  0.025086937           14 
  279000   0.81746096   -6.8366254    81.468777  0.024333565  0.025021202            3 
  280000   0.82573201   -6.8515855    81.647307  0.024299794  0.024955941           24 
  281000   0.81698911   -6.8694268    81.431925  0.024149444  0.024890689            7 
  282000   0.80311809   -6.8590219    81.840523  0.024184552   0.02482581           23 
  283000   0.81730297   -6.8409212    81.727398  0.024065783   0.02476016           13 
  284000   0.82532123    -6.861185    81.860942  0.024020229  0.024694539            8 
  285000   0.81565657    -6.874796     82.08651  0.024001904  0.024629101            5 
  286000   0.79563233   -6.8646542    82.047204  0.023906528  0.024563509           18 
  287000   0.78761106   -6.8892238    81.961983  0.023798485   0.02449831           10 
  288000   0.82379228   -6.8928387    82.262801  0.023802894  0.024432828           15 
  289000   0.82314542   -6.8921025    82.058787  0.023661703  0.024367828            5 
  290000   0.82121375   -6.8755245    82.314835  0.023653688  0.024302718            8 
  291000   0.78082546   -6.8651717    82.367153  0.023587386  0.024237662           14 
  292000   0.78716471   -6.8834436    82.647634  0.023586654  0.024172709           18 
  293000   0.79265231   -6.8940468    82.965853  0.023596659   0.02410867            7 
  294000    0.7896675   -6.9199247    82.745695  0.023453995  0.024044932           15 
  295000   0.80092124   -6.9024146    82.931005  0.023426838  0.023981067           10 
  296000   0.79889995   -6.9065286    83.110317  0.023398175  0.023917709            6 
  297000   0.79933007   -6.8953568    83.195795  0.023343377  0.023854655            8 
  298000    0.8136253   -6.9217507    83.104884  0.023239621  0.023790463           32 
  299000   0.80122959    -6.920802    83.252715  0.023203098  0.023726658           19 
  300000   0.78758324   -6.8978699    83.244769  0.023123547  0.023663032           45 
  301000   0.79234477   -6.9618245     83.40129  0.023090058  0.023598834           18 
  302000   0.80557288   -6.9400401    83.388567   0.02301009  0.023535162            9 
  303000   0.77717904     -6.93129    83.549598  0.022978437  0.023471686           14 
  304000   0.78799081   -6.9160978    83.538221  0.022899732  0.023408656           18 
  305000   0.77752945   -6.9496484    83.454462  0.022801766  0.023344942           21 
  306000   0.77805833    -6.944811    83.574067  0.022759822  0.023280765           16 
  307000   0.78135965   -6.9122816    83.855183  0.022761993  0.023217111           13 
  308000   0.77283741   -6.9307914    83.807232  0.022675117  0.023154104            9 
  309000    0.7820131   -6.9273486    83.764752  0.022590278  0.023090492           11 
  310000   0.77065953   -6.9661808    83.773234  0.022519686  0.023026126            8 
  311000   0.77005648   -6.9714987    83.867143  0.022472439  0.022962141           12 
  312000   0.77450018    -6.945474    83.702489  0.022356434  0.022898063           16 
  313000   0.77276335   -6.9590358     84.13716  0.022400735  0.022834451           15 
  314000   0.74572839   -6.9656108    84.134383  0.022328658  0.022771376           14 
  315000   0.75367464   -6.9530931    84.249696  0.022288279  0.022708534           13 
  316000   0.77444898   -6.9298635    84.430409  0.022265403  0.022646046           16 
  317000   0.77669931   -6.9748805    84.433822  0.022196063  0.022583209           16 
  318000    0.7682409    -7.005131    84.110965  0.022041658  0.022519772           22 
  319000   0.74367513   -6.9833931    84.387513  0.022044805  0.022456897            9 
  320000   0.75582491     -6.98188    84.693144  0.022055506  0.022394909           14 
  321000   0.75284449   -6.9931662     84.78004  0.022009356  0.022333494           34 
  322000   0.74499198   -6.9864603    85.133991  0.022032606  0.022272514            6 
  323000   0.77661017   -6.9888821    84.598841  0.021826326  0.022211561            9 
  324000   0.75311045   -6.9977199    84.862657  0.021826815  0.022150719           11 
  325000   0.75850653    -6.966127    84.962097  0.021785153  0.022089999           14 
  326000   0.76242994   -7.0007925    85.171894  0.021771956  0.022029579           10 
  327000   0.74527258   -6.9891538    85.435529  0.021772561  0.021969963           10 
  328000   0.74304131    -6.983571    85.426554  0.021703901  0.021910413           24 
  329000   0.74335059    -7.013617    85.521567  0.021661998  0.021851487           15 
  330000   0.75199881   -6.9954915    85.585205  0.021612426  0.021792703            7 
  331000   0.73784277     -6.98326    85.433228  0.021508869  0.021733676           15 
  332000   0.74005766   -7.0161858    85.513894  0.021464331  0.021674088            9 
  333000   0.73819058   -7.0135533    85.563333  0.021412245  0.021614664           22 
  334000    0.7380025   -7.0302717    85.595898  0.021356262  0.021555142           20 
  335000   0.74168709   -7.0096319    85.520135  0.021273666  0.021495666           17 
  336000    0.7195276   -7.0343322    85.617795  0.021234572  0.021436035           22 
  337000   0.72737872   -7.0441436    85.641239  0.021177359   0.02137672           13 
  338000   0.72959699   -7.0631134    85.741866  0.021139513  0.021317137           28 
  339000   0.72396277   -7.0711666    85.694292   0.02106546  0.021257541           46 
  340000   0.73585158   -7.0685516     85.69349  0.021003306  0.021197911           24 
  341000   0.72483447   -7.0455381    85.697512  0.020942696  0.021138235           12 
  342000   0.72169218   -7.0474546    85.670431  0.020874861  0.021078679           14 
  343000   0.73526243   -7.0584272    85.820621  0.020850491  0.021019128           24 
  344000   0.72419492   -7.0463414    85.692369   0.02075881  0.020959504           35 
  345000   0.72058998   -7.0777596      85.9488   0.02076058  0.020900107           69 
  346000   0.71525245   -7.0679068    85.976735  0.020707306  0.020840881           31 
  347000   0.70907358   -7.0980857    85.700504  0.020581293  0.020781633           25 
  348000    0.7023934   -7.0742393    86.066295  0.020609745  0.020722639           35 
  349000    0.7089791   -7.0858517    85.954852  0.020524081  0.020663464           32 
  350000    0.7250719   -7.1005623    85.973818  0.020469957  0.020604426           62 
  351000   0.70310187   -7.1139197    86.025296   0.02042386  0.020545385           37 
  352000   0.70552634   -7.1122927    85.917594   0.02034034  0.020486129           58 
  353000    0.6965287   -7.0982854    85.931244   0.02028594  0.020427078           43 
  354000   0.70269948   -7.0801945    86.117672  0.020272522  0.020368073           60 
  355000    0.7102705   -7.0906201    86.086899  0.020208192  0.020309284           57 
  356000      0.69859   -7.1080033    85.928581  0.020114368  0.020250406          108 
  357000   0.69378007   -7.1263526    85.952708  0.020063657  0.020191183           49 
  358000   0.70145289   -7.1286679    86.002626  0.020019233  0.020132346           58 
  359000   0.69367382   -7.1361008    86.080522  0.019981551  0.020073716           54 
  360000   0.70485448   -7.1247083     86.06412   0.01992225   0.02001538           31 
  361000   0.67147666   -7.1241797    86.282948  0.019917578  0.019957425           36 
  362000   0.69514038   -7.1167721    86.120508  0.019825163  0.019899734           22 
  363000   0.68668487   -7.1141218      86.3649  0.019826653  0.019842227           39 
  364000   0.67010401   -7.1175537    86.341632  0.019766857  0.019784886           22 
  365000   0.66789951   -7.1376981    86.488164  0.019746156  0.019727595           11 
  366000    0.6661474   -7.1517731    86.474414  0.019689074  0.019670472           15 
  367000   0.69167748   -7.1315164    86.605785  0.019665256  0.019613635           10 
  368000    0.6821346   -7.1243826    86.524578  0.019593428  0.019556872           34 
  369000   0.68609318   -7.1291028    86.628924  0.019563894  0.019500487           16 
  370000   0.67578767   -7.1840077    86.829672  0.019556232   0.01944419           33 
  371000   0.69311881   -7.1887527    86.524493  0.019434971  0.019388181           19 
  372000   0.67758841   -7.1573979    86.580427  0.019395257  0.019331956           29 
  373000   0.67272145   -7.1426731    86.562617   0.01933928  0.019275813           29 
  374000   0.66063993     -7.15693    86.613995  0.019299019  0.019219781           23 
  375000   0.67949439   -7.1509626    86.584264  0.019240947  0.019163817           44 
  376000   0.65227738   -7.1758379    86.819323  0.019241871  0.019107997           27 
  377000   0.66572324    -7.162416    86.721623  0.019169236  0.019052129           88 
  378000   0.66664729   -7.1611765    86.751101  0.019125022  0.018996536           42 
  379000   0.67483783    -7.182806    86.652143  0.019052802  0.018941059          116 
  380000   0.65959139   -7.2077098    86.848409  0.019045704  0.018885494          117 
  381000   0.66954995   -7.1999893    86.770367  0.018978645  0.018830069           52 
  382000   0.66459669   -7.2074947     86.75277  0.018925124  0.018774539           87 
  383000   0.65278663   -7.1883348    86.636987  0.018850519  0.018719245           69 
  384000   0.65399813   -7.2196414    86.714333  0.018818215  0.018664113           48 
  385000   0.64736985   -7.2031404    86.713767  0.018769214  0.018609087           69 
  386000   0.65165036   -7.2238791    86.635473  0.018703686  0.018554183           77 
  387000   0.64007338   -7.2267692    86.765345  0.018683322  0.018499539          118 
  388000   0.64675554    -7.195198    86.737634  0.018629217   0.01844501           54 
  389000   0.63479225   -7.2448089    86.757132  0.018585504  0.018390487           77 
  390000   0.64117467   -7.2313282    86.777744  0.018542253  0.018336042           93 
  391000   0.64271032   -7.2555625    86.605873    0.0184582  0.018281816           77 
  392000   0.63766447   -7.2413059    86.834217  0.018459655  0.018227541          108 
  393000    0.6310164   -7.2362528    86.786384  0.018402541  0.018173677          106 
  394000    0.6466224   -7.2361824    86.840167   0.01836721  0.018119744          114 
  395000   0.62820679   -7.2323962     86.90227  0.018333812  0.018065911          148 
  396000    0.6434038   -7.2666466    86.834025  0.018273153  0.018012044          140 
  397000   0.63022769   -7.2536041    86.746067  0.018208662  0.017958531          131 
  398000    0.6185993   -7.2388668     86.63308  0.018139255  0.017905107          198 
  399000   0.64792291   -7.2543162    86.844902  0.018138033  0.017851696          142 
  400000   0.63869882   -7.2445121    86.939631  0.018112423  0.017798604          151 
  401000   0.62243963   -7.2749915    86.871617  0.018053121  0.017745653          125 
  402000   0.63592399   -7.2719898     86.99989  0.018034803  0.017692937          124 
  403000    0.6159354   -7.2766582    86.966176   0.01798308  0.017640403          120 
  404000   0.62126906   -7.2771208    86.860013  0.017916669   0.01758789          214 
  405000   0.60445634    -7.276941    86.802485  0.017860594  0.017535505          249 
  406000    0.6145656   -7.2788777    86.794079  0.017814877  0.017483305          189 
  407000   0.62252641   -7.2901087    86.980058  0.017809185  0.017431129          121 
  408000   0.62978343   -7.3102924    86.977058  0.017764922  0.017379131          226 
  409000   0.61650121   -7.2862136    86.912816  0.017708398  0.017327353          292 
  410000   0.60270852   -7.2994819    86.900047  0.017662611   0.01727569          418 
  411000   0.61318206   -7.2895809     87.09318  0.017658796  0.017224087          380 
  412000   0.60962681   -7.3028741    87.011515  0.017599416  0.017172747          472 
  413000   0.60302908   -7.2934902    86.860176  0.017526266  0.017121513          298 
  414000   0.60652671   -7.3204712    86.920877  0.017496151  0.017070389          449 
  415000   0.60279319   -7.3109369    87.036076  0.017477124  0.017019414          141 
  416000   0.60304875   -7.3046085    86.982873  0.017424454   0.01696865          158 
  417000   0.60366088   -7.3059967    86.930844  0.017372271  0.016918061          338 
  418000   0.60305193   -7.3019843    86.863948  0.017317374  0.016867355          570 
  419000   0.60022091    -7.304424    87.006852  0.017304465  0.016816831          556 
  420000   0.59590601   -7.3330704    86.746709  0.017211649  0.016766332          572 
  421000   0.59230376   -7.3168971    86.849036   0.01719102  0.016716003          406 
  422000   0.60419068   -7.3189771    86.913203  0.017162955  0.016665719          409 
  423000   0.59848836   -7.3391136    86.925345  0.017124772  0.016615572          570 
  424000   0.59090471    -7.332948    86.959111   0.01709102  0.016565539          618 
  425000   0.57900166   -7.3368809    86.912751  0.017041716  0.016515617          478 
  426000   0.59384588   -7.3357435    86.949287  0.017008859  0.016466048          429 
  427000   0.59492306   -7.3431125    86.864965  0.016952569  0.016416576          601 
  428000   0.58800849   -7.3587043    86.960128  0.016931489  0.016367293          510 
  429000   0.58846177   -7.3540431    86.768181  0.016854736  0.016318073          492 
  430000   0.57502005   -7.3482066     86.85865  0.016833072  0.016269001          466 
  431000   0.58874331   -7.3446851    86.889641  0.016800008  0.016220089          412 
  432000   0.57446116   -7.3653059    87.036624  0.016789472  0.016171386          501 
  433000   0.58963842   -7.3548815     87.07336  0.016757768  0.016122847          682 
  434000   0.56745177   -7.3479038    86.878337  0.016681708  0.016074556          502 
  435000   0.56956676    -7.374038    86.878039  0.016643303  0.016026282          556 
  436000   0.56965312   -7.3691452    86.751672  0.016580977  0.015978146          518 
  437000   0.56553473   -7.3765799     86.73977  0.016540765  0.015929874          581 
  438000    0.5801109    -7.376465    86.888156  0.016531232  0.015881901          718 
  439000   0.58317151   -7.3659467     86.88041  0.016492105  0.015833957          631 
  440000   0.56331748   -7.3830973    86.842822  0.016447504  0.015786256          768 
  441000   0.56144077   -7.3881415    86.952067  0.016430852  0.015738703          614 
  442000   0.56607376   -7.3904494    86.939063  0.016391226  0.015691294          715 
  443000   0.55881821   -7.3969885     86.85847  0.016339065   0.01564415          725 
  444000   0.56464201   -7.4051018    86.886773  0.016307578  0.015597086          600 
  445000   0.56270601   -7.4034018    86.876051  0.016268923  0.015550234          603 
  446000   0.55683952   -7.4039932    86.888787  0.016234826  0.015503501          740 
  447000     0.546067   -7.3898238    86.863564  0.016193804  0.015456947          760 
  448000   0.54808408   -7.4116177    87.056781  0.016193598  0.015410564          662 
  449000   0.54511336   -7.4143249     86.78166   0.01610647   0.01536429          752 
  450000   0.55583386   -7.4063344    86.796047  0.016073342  0.015318051          686 
  451000   0.53798716   -7.4449551    86.842671  0.016046318  0.015271964          762 
  452000   0.54826787   -7.4041204    86.861952  0.016014372  0.015225954          835 
  453000   0.54876273   -7.4324084    86.754245  0.015959206  0.015180129          863 
  454000    0.5414719   -7.4418489    86.878452  0.015946852  0.015134342          941 
  455000   0.53625749   -7.4189037    86.845356  0.015905743  0.015088703          775 
  456000   0.54281929   -7.4373022    86.752403  0.015853875  0.015043169          869 
  457000   0.53646128   -7.4403573    86.774863  0.015823279  0.014997746          945 
  458000   0.53789455   -7.4347432    86.867109  0.015805515  0.014952513          866 
  459000   0.53477206   -7.4500527    86.736068  0.015747289  0.014907417          987 
  460000   0.52675422   -7.4623079    86.819633  0.015728194  0.014862503          934 
  461000   0.52577804   -7.4658646    86.822733  0.015694637  0.014817648          876 
  462000   0.52441512   -7.4550459    86.915437  0.015677388  0.014772902          919 
  463000   0.52314082   -7.4554609    86.737611  0.015611521  0.014728362          920 
  464000    0.5235654   -7.4619283    86.799198  0.015588936  0.014683928          914 
  465000   0.52869468   -7.4823555    86.739702  0.015544749  0.014639595          951 
  466000   0.52869337   -7.4601765    86.589416  0.015484516  0.014595451          984 
  467000   0.51704197   -7.4641396    86.617605  0.015456389  0.014551353          975 
  468000   0.52094247   -7.4750189    86.811428  0.015457875  0.014507501          979 
  469000   0.51224382   -7.4807779      86.6387  0.015394225  0.014463749          932 
  470000   0.51379036   -7.4877833    86.630273  0.015359977  0.014420101          938 
  471000   0.51446315     -7.46563    86.483801  0.015301451  0.014376551          984 
  472000   0.51302127   -7.5025241    86.547736  0.015280321  0.014333046          986 
  473000   0.51796618   -7.4843691    86.731177  0.015280334  0.014289779         1007 
  474000   0.51647794   -7.4756395    86.454604  0.015199473  0.014246673          918 
  475000   0.51446712   -7.4770054    86.608229  0.015194426  0.014203684          934 
  476000   0.51089431   -7.4990714    86.583509  0.015158177  0.014160928          936 
  477000   0.49342936   -7.4944935    86.575009  0.015124914  0.014118242          994 
  478000   0.50956934   -7.4857724    86.640016  0.015104605  0.014075726         1023 
  479000   0.50553772   -7.5038206    86.534264  0.015054674  0.014033351         1008 
  480000   0.51587077   -7.5063077    86.708296  0.015053524  0.013991115         1069 
  481000   0.50700746   -7.4952739    86.532787   0.01499182   0.01394911          994 
  482000   0.49974553   -7.4990647    86.417358   0.01494076   0.01390714         1036 
  483000   0.51692968    -7.519422    86.546972   0.01493219  0.013865302          944 
  484000   0.50958693   -7.5091481     86.51035  0.014895033  0.013823685         1088 
  485000   0.48831936   -7.5000163    86.598446  0.014879458  0.013782135         1026 
  486000   0.48773149   -7.5042742    86.433671  0.014820588  0.013740809         1052 
  487000   0.49040695   -7.5146691    86.489731  0.014799749  0.013699498         1072 
  488000   0.48747464   -7.5232553    86.479717  0.014767711  0.013658377         1077 
  489000   0.48567652   -7.5181369    86.415417  0.014726554  0.013617417         1061 
  490000   0.48977411   -7.5259784    86.532426  0.014716399  0.013576511          987 
  491000   0.49419771   -7.5291737    86.602351  0.014698295  0.013535787         1065 
  492000   0.47151215   -7.5517591     86.46205  0.014644656  0.013495156         1066 
  493000   0.47924979   -7.5317621    86.525192  0.014625624  0.013454707         1094 
  494000     0.484346   -7.5387708    86.444276  0.014582368  0.013414361         1062 
  495000   0.46927308   -7.5272881    86.368345  0.014540125  0.013374059         1061 
  496000   0.47535967   -7.5499703     86.46855  0.014527646  0.013333927         1102 
  497000   0.48158093   -7.5495133    86.338609  0.014476628  0.013293894         1086 
  498000   0.47455755   -7.5489235    86.300456  0.014441174  0.013254043         1011 
  499000   0.46910545   -7.5532899    86.365797  0.014423146   0.01321435         1137 
  500000   0.46961243   -7.5470579    86.276168  0.014379361  0.013174747         1128 
  501000   0.48253021   -7.5594218    86.299895  0.014354607  0.013135183         1123 
  502000   0.46081908   -7.5547111    86.347381  0.014333895   0.01309586         1131 
  503000   0.47055582   -7.5683165    86.402814  0.014314582  0.013056718         1052 
  504000   0.46332204   -7.5674967     86.43534  0.014291558  0.013017647         1084 
  505000   0.45631379   -7.5538206    86.209659  0.014226016  0.012978731         1168 
  506000   0.46908856   -7.5861722    86.319969  0.014216069  0.012939945         1142 
  507000   0.45834115   -7.5776389    86.228253  0.014172954   0.01290135         1104 
  508000   0.45581576   -7.5755225    86.272444  0.014152304  0.012862868         1154 
  509000   0.45509977   -7.5777463    86.284605  0.014126491    0.0128245         1252 
  510000   0.45329861   -7.5706706    86.246492  0.014092564  0.012786264         1213 
  511000   0.45107684   -7.5800356    86.277668   0.01407007   0.01274817         1137 
  512000   0.44992541   -7.5660552    86.264807  0.014040496   0.01271022         1186 
Loop time of 1067.27 on 48 procs for 500000 steps with 4000 atoms

Performance: 80954.036 tau/day, 468.484 timesteps/s
99.4% CPU use with 48 MPI tasks x no OpenMP threads

MPI task timing breakdown:
Section |  min time  |  avg time  |  max time  |%varavg| %total
---------------------------------------------------------------
Pair    | 66.444     | 70.822     | 77.868     |  31.1 |  6.64
Neigh   | 6.6821     | 6.8114     | 7.2079     |   3.2 |  0.64
Comm    | 55.736     | 62.395     | 68.527     |  36.7 |  5.85
Output  | 0.8845     | 0.88498    | 0.89429    |   0.1 |  0.08
Modify  | 907.43     | 914.4      | 919.44     |   9.2 | 85.68
Other   |            | 11.96      |            |       |  1.12

Nlocal:        83.3333 ave          92 max          77 min
Histogram: 4 3 6 7 13 5 4 2 1 3
Nghost:        1763.85 ave        1785 max        1746 min
Histogram: 5 2 5 7 10 5 8 2 2 2
Neighs:        10760.7 ave       11845 max       10006 min
Histogram: 2 7 12 6 7 3 5 1 1 4
FullNghs:      21521.8 ave       23937 max       19889 min
Histogram: 6 3 9 9 7 6 2 2 1 3

Total # of neighbors = 1033045
Ave neighs/atom = 258.26125
Neighbor list builds = 26975
Dangerous builds = 0

#clear
#
#next RN
#
#jump SELF
Total wall time: 0:17:50
