
units lj                  # Use reduced LJ style units
atom_style atomic         # Uncharged point particles
atom_modify map hash      # Needed for indexing of clusters etc
                          # Used to be able to find where atoms are in relation to each other.

lattice fcc 1.0 spacing 1 1 1
Lattice spacing in x,y,z = 1.5874011 1.5874011 1.5874011
region box block 0 10 0 10 0 10 units lattice
create_box 2 box
Created orthogonal box = (0.0000000 0.0000000 0.0000000) to (15.874011 15.874011 15.874011)
  3 by 4 by 4 MPI processor grid
create_atoms 1 box
Created 4000 atoms
  using lattice units in orthogonal box = (0.0000000 0.0000000 0.0000000) to (15.874011 15.874011 15.874011)
  create_atoms CPU = 0.003 seconds
set type 1 type/fraction 2 0.62 78393
Setting atom values ...
  2494 settings made for type/fraction
mass 1 1.0
mass 2 1.0
pair_style lj/cut  3.5
pair_modify tail  yes
pair_coeff 1  1  1.0  1.0   # Intearaction between 1 and 1 set with epsilon = 1 and sigma = 1
pair_coeff 1  2  1.5  0.8
pair_coeff 2  2  0.5  0.88

write_data data.0
System init for write_data ...
Neighbor list info ...
  update every 1 steps, delay 10 steps, check yes
  max neighbors/atom: 2000, page size: 100000
  master list distance cutoff = 3.8
  ghost atom cutoff = 3.8
  binsize = 1.9, bins = 9 9 9
  1 neighbor lists, perpetual/occasional/extra = 1 0 0
  (1) pair lj/cut, perpetual
      attributes: half, newton on
      pair build: half/bin/atomonly/newton
      stencil: half/bin/3d
      bin: standard
WARNING: Not all mixed pair coeffs generated from mixing. Use write_data with 'pair ij' option to store all pair coeffs. (../write_data.cpp:312)


#############################
#   M E L T   S Y S T E M   #
#############################

velocity all create 2.4 9580093 mom yes dist gaussian # Assign velocities
                                                    # Temperature 2.4, random number seed, zero linear momentum
                                                                                # Gaussian distribution

timestep 0.002   # simulation timestep
thermo 1000       # output thermodynamic data every 1000 steps bf 100

# Define a fix  in this case with index 1 applied to all
# particles in the simulation. This fix is for simulations
# in the anisotropic NPT ensemble. Note that we use the MTK
# correction.
fix 1 all npt temp 2.4 2.4 0.1 iso 5.68 5.68 0.5 mtk yes tchain 5 pchain 5 # Use NPT ensemble
                                                                         # Set temperature and pressure and damping
                                                                         # Numbers of thermostats in chain and in barostat
run 10000          # run for 10000 steps
Per MPI rank memory allocation (min/avg/max) = 3.642 | 3.644 | 3.648 Mbytes
Step Temp E_pair E_mol TotEng Press Volume 
       0          2.4   -4.6132646            0   -1.0141646   -4.0148013         4000 
    1000    2.4130373   -4.2955949            0  -0.67694391    5.8127408    3632.5213 
    2000    2.4431069   -4.3521406            0  -0.68839638    5.6860155    3619.9901 
    3000    2.3762885   -4.2723903            0  -0.70884861    5.7193587    3662.7684 
    4000    2.4141152   -4.3356778            0  -0.71541024    5.6572372    3625.6517 
    5000    2.4245416   -4.3153952            0  -0.67949204    5.7233786    3626.3972 
    6000    2.4158967   -4.3063987            0  -0.68345958    5.6212223    3647.6517 
    7000    2.4004208   -4.3465626            0  -0.74683152    5.9463615    3596.4023 
    8000    2.3728536   -4.3402837            0  -0.78189321    5.2123022    3652.2912 
    9000    2.4135391   -4.3902803            0  -0.77087676    5.6385321    3605.8057 
   10000    2.4146165   -4.3516357            0  -0.73061645    5.4857945     3644.348 
Loop time of 2.71498 on 48 procs for 10000 steps with 4000 atoms

Performance: 636469.708 tau/day, 3683.274 timesteps/s
99.5% CPU use with 48 MPI tasks x no OpenMP threads

MPI task timing breakdown:
Section |  min time  |  avg time  |  max time  |%varavg| %total
---------------------------------------------------------------
Pair    | 1.1912     | 1.264      | 1.3404     |   2.7 | 46.56
Neigh   | 0.21746    | 0.22398    | 0.24057    |   0.8 |  8.25
Comm    | 0.78762    | 0.89285    | 0.98009    |   4.1 | 32.89
Output  | 0.00024867 | 0.00025459 | 0.00042239 |   0.0 |  0.01
Modify  | 0.28726    | 0.31851    | 0.34645    |   2.8 | 11.73
Other   |            | 0.01538    |            |       |  0.57

Nlocal:        83.3333 ave          91 max          71 min
Histogram: 1 0 1 2 7 9 8 10 6 4
Nghost:        1743.83 ave        1780 max        1721 min
Histogram: 6 3 3 12 11 9 1 2 0 1
Neighs:        10476.1 ave       11633 max        8648 min
Histogram: 1 0 1 5 7 6 8 11 7 2

Total # of neighbors = 502855
Ave neighs/atom = 125.71375
Neighbor list builds = 908
Dangerous builds = 214

# Equilibrate just above the melting temperature to avoid step fn in T

fix 1 all npt temp 1.25 1.25 0.1 iso 5.68 5.68 0.5 mtk yes tchain 5 pchain 5
run 2000
Per MPI rank memory allocation (min/avg/max) = 3.644 | 3.646 | 3.650 Mbytes
Step Temp E_pair E_mol TotEng Press Volume 
   10000    2.4146165   -4.3516357            0  -0.73061645    5.4857945     3644.348 
   11000      1.23069   -6.3494974            0    -4.503924    5.6456033    2773.1069 
   12000    1.2387127   -6.4691505            0   -4.6115459    5.3237856    2753.7972 
Loop time of 0.653306 on 48 procs for 2000 steps with 4000 atoms

Performance: 529001.424 tau/day, 3061.351 timesteps/s
99.6% CPU use with 48 MPI tasks x no OpenMP threads

MPI task timing breakdown:
Section |  min time  |  avg time  |  max time  |%varavg| %total
---------------------------------------------------------------
Pair    | 0.29929    | 0.32174    | 0.35209    |   2.0 | 49.25
Neigh   | 0.041492   | 0.043746   | 0.046305   |   0.5 |  6.70
Comm    | 0.20409    | 0.2378     | 0.26719    |   2.7 | 36.40
Output  | 5.2609e-05 | 5.3817e-05 | 7.0323e-05 |   0.0 |  0.01
Modify  | 0.040472   | 0.0451     | 0.048574   |   1.3 |  6.90
Other   |            | 0.004872   |            |       |  0.75

Nlocal:        83.3333 ave          93 max          77 min
Histogram: 2 7 4 15 4 10 3 1 1 1
Nghost:        2116.96 ave        2133 max        2097 min
Histogram: 2 2 4 6 6 7 4 7 7 3
Neighs:        13869.5 ave       15246 max       11878 min
Histogram: 1 1 2 7 3 10 7 8 4 5

Total # of neighbors = 665735
Ave neighs/atom = 166.43375
Neighbor list builds = 144
Dangerous builds = 9

#############################
# L I N E A R  Q U E N C H  #
#############################

# Define solid atoms. This closely follows ten Wolde  Ruiz-Montero and Frenkel  Faraday Discuss  1996  104  93-110
# Compute components of the per-atom q6 vector
compute q6 all orientorder/atom degrees 1 6 components 6 nnn NULL cutoff 1.3 # compute the Q6 parameter.
                                                                             # Use all neighbours within 1.3 unit cell.

# get number of connections
compute coord_number all coord/atom orientorder q6 0.5

# An atom is solid if it has 8 or more connections (of a possible 14)
variable is_solid atom c_coord_number>=8
group solid dynamic all var is_solid    # Must be dynamic to update
dynamic group solid defined

# do clustering
compute cluster solid cluster/atom 1.3 # Create a cluster where all atoms within are solid and max 1.3 units from another member

# define chunks one chunk per cluster
compute clus_chunks solid chunk/atom c_cluster nchunk every compress yes  # Says which atoms are in which chunk

# count the size of each chunk
compute size_chunks solid property/chunk clus_chunks count


# Find the maximum entry in the vector of chunk sizes
variable max_n equal max(c_size_chunks)


# Thermo style which includes this variable
# thermo_style custom step temp pe vol v_max_n

thermo ${N}  # Print the thermo information every 100 steps
thermo 1000  

# Reset the npt fix at a lower temperature (below freezing)
fix 1  all npt temp  ${temp} ${temp}  0.1  iso  5.68  5.68  0.5  mtk yes tchain  5  pchain  5
fix 1  all npt temp  0.45 ${temp}  0.1  iso  5.68  5.68  0.5  mtk yes tchain  5  pchain  5
fix 1  all npt temp  0.45 0.45  0.1  iso  5.68  5.68  0.5  mtk yes tchain  5  pchain  5

dump dmp2 all dcd ${N} traj.dcd
dump dmp2 all dcd 1000 traj.dcd


compute msd all msd com yes
variable twopoint equal c_msd[4]/6/(step*dt+1.0e-6)
fix 9 all vector 10 c_msd[4]
variable fit equal slope(f_9)/6/(10*dt)
thermo_style custom step temp pe c_msd[4] v_twopoint v_fit v_max_n

fix 1 all npt temp 1.25 ${temp} 0.1 iso 5.68 5.68 0.5 mtk yes tchain 5 pchain 5
fix 1 all npt temp 1.25 0.45 0.1 iso 5.68 5.68 0.5 mtk yes tchain 5 pchain 5
run 2000000 # 5000000  # Run for this many steps
Neighbor list info ...
  update every 1 steps, delay 10 steps, check yes
  max neighbors/atom: 2000, page size: 100000
  master list distance cutoff = 3.8
  ghost atom cutoff = 3.8
  binsize = 1.9, bins = 8 8 8
  4 neighbor lists, perpetual/occasional/extra = 1 3 0
  (1) pair lj/cut, perpetual
      attributes: half, newton on
      pair build: half/bin/atomonly/newton
      stencil: half/bin/3d
      bin: standard
  (2) compute orientorder/atom, occasional
      attributes: full, newton on
      pair build: full/bin/atomonly
      stencil: full/bin/3d
      bin: standard
  (3) compute coord/atom, occasional
      attributes: full, newton on
      pair build: full/bin/atomonly
      stencil: full/bin/3d
      bin: standard
  (4) compute cluster/atom, occasional
      attributes: full, newton on
      pair build: full/bin/atomonly
      stencil: full/bin/3d
      bin: standard
Per MPI rank memory allocation (min/avg/max) = 9.847 | 9.852 | 9.857 Mbytes
Step Temp PotEng c_msd[4] v_twopoint v_fit v_max_n 
   12000    1.2387127   -6.4691505 4.5304282e-30 3.1461305e-32 8.3333333e+20            2 
   13000    1.2677718   -6.4153935   0.51417092 0.0032959673  0.042184649            2 
   14000    1.2781181   -6.4699782   0.97548043  0.005806431  0.039881458            2 
   15000    1.2545792   -6.4647666     1.439168 0.0079953776  0.039362665            1 
   16000    1.2428909   -6.4528508    1.8814634 0.0097992883  0.038746035            1 
   17000    1.2603656    -6.469394    2.3559013  0.011548536  0.038527451            3 
   18000    1.2388897   -6.4709525    2.8461421  0.013176583  0.038820381            3 
   19000    1.2163617   -6.4752156    3.3229481  0.014574333   0.03892751            2 
   20000    1.2619668   -6.4041655    3.8212694  0.015921956  0.039155816            1 
   21000    1.2638998   -6.5103142    4.3715062  0.017347246  0.039654899            4 
   22000    1.2735045   -6.5086274    4.9790876   0.01886018  0.040328912            4 
   23000     1.254238   -6.4381944    5.4179462  0.019630239  0.040763716            1 
   24000    1.2450771   -6.4554952    5.8184228  0.020202857  0.040843684            3 
   25000    1.2520105   -6.4972547    6.2256443  0.020752147  0.040584015            2 
   26000    1.2404834    -6.479708    6.8056718   0.02181305  0.040519572            2 
   27000    1.2430442   -6.4931638    7.2906703  0.022502068  0.040566731            3 
   28000    1.2550129   -6.5019418    7.8193787   0.02327196  0.040594246            4 
   29000    1.2505794   -6.5055762    8.2661042  0.023753173    0.0406564            3 
   30000    1.2461097   -6.5026433    8.7822765  0.024395212  0.040675601            3 
   31000    1.2516909   -6.5298045    9.2710455  0.024922165  0.040705074            3 
   32000    1.2344868   -6.5134575     9.722903  0.025320059  0.040704078            2 
   33000    1.2536089   -6.4884507    10.167054  0.025674377  0.040688316            2 
   34000    1.2470324   -6.4872662    10.596184   0.02597104   0.04061349            4 
   35000    1.2426231   -6.5275883    11.072578   0.02636328  0.040523292            2 
   36000    1.2109732   -6.5079355    11.545179  0.026724951  0.040470893            2 
   37000    1.2492184   -6.4781664    12.036616  0.027109496  0.040397298            3 
   38000     1.226059   -6.4841908    12.451606  0.027306154  0.040296424            2 
   39000    1.2124552   -6.4953272    12.931673   0.02763178  0.040205276            4 
   40000    1.2387073   -6.5080439    13.392001  0.027900001  0.040141284            1 
   41000    1.2537382   -6.5297165    13.852116  0.028154706  0.040072669            3 
   42000    1.2356031   -6.4912358    14.384567  0.028540808  0.040016605            4 
   43000    1.2220853   -6.5253494    14.783391  0.028649982  0.039969209            1 
   44000    1.1995187   -6.4911856    15.166698  0.028724807  0.039892718            2 
   45000    1.2290389   -6.4862584    15.708028  0.029088941  0.039827384            2 
   46000    1.2560752   -6.5062984    16.305768  0.029539435  0.039786267            2 
   47000    1.1997664   -6.5288998    16.636401  0.029497164  0.039753918            2 
   48000    1.2153362   -6.5016575    17.118006  0.029718759  0.039715622            1 
   49000      1.24879   -6.5097996    17.487947  0.029741406  0.039645576            3 
   50000    1.2271701   -6.4561623    18.109933  0.030183221  0.039599934            3 
   51000    1.2405657   -6.5097556    18.356287  0.029993933  0.039532488            5 
   52000    1.2605585   -6.5257955    18.838375  0.030189704  0.039455287            2 
   53000    1.2243386   -6.5073406    19.370672  0.030457031  0.039402379            4 
   54000    1.2115574   -6.4696673    19.852737  0.030636939  0.039360997            3 
   55000    1.2526235   -6.5456945     20.19978  0.030605727  0.039315479            4 
   56000    1.2392881    -6.502047    20.862612  0.031045553  0.039275947            5 
   57000    1.2449529   -6.4970605    21.124113  0.030883206  0.039251708            2 
   58000    1.2368587   -6.5024664    21.642215  0.031095136  0.039209446            5 
   59000    1.2397279   -6.5183583    21.948286  0.031000404  0.039144933            3 
   60000    1.2455221   -6.5273351    22.324339  0.031006026   0.03905721            2 
   61000    1.2020671    -6.535109    22.724616  0.031044557  0.038976984            3 
   62000    1.2445779   -6.5267291    23.099855  0.031048192   0.03889306            5 
   63000     1.224332   -6.4879869    23.582053  0.031193192  0.038808029            2 
   64000    1.2457326   -6.5370517    24.066461  0.031336537  0.038724423            2 
   65000    1.2161263    -6.524974    24.552317  0.031477329  0.038661857            1 
   66000    1.2259759   -6.4674801    25.066666   0.03164983  0.038610258            2 
   67000    1.2259925   -6.5850846    25.326296  0.031500368  0.038555917            3 
   68000    1.2485464   -6.5327108    25.841005  0.031667898  0.038494418            3 
   69000    1.2609894   -6.5232266    26.304237  0.031768402  0.038438245            6 
   70000    1.2230388   -6.5124033    26.851308  0.031965842   0.03840246            2 
   71000    1.2089337   -6.4979793    27.302803  0.032045543  0.038377541            2 
   72000    1.2372068   -6.5194802    27.748128  0.032115889  0.038348518            4 
   73000    1.2130649   -6.5690891    28.124477  0.032105567  0.038318563            2 
   74000    1.2270664   -6.4859041    28.794245  0.032425951  0.038306376            1 
   75000    1.2504977   -6.5313521    29.200508  0.032445008  0.038289913            1 
   76000    1.2228937    -6.541951     29.41044  0.032248289  0.038266905            1 
   77000    1.2021489   -6.5224441    29.877065  0.032334485  0.038224494            2 
   78000    1.2147305    -6.458941    30.337227  0.032411567  0.038184652            3 
   79000    1.2123359   -6.5432164    30.576097  0.032253266  0.038143736            1 
   80000    1.2241742   -6.5314419    30.996228  0.032287737  0.038090811            1 
   81000    1.2135941   -6.5443707    31.279337  0.032180388  0.038028267            4 
   82000    1.2039472   -6.5614946    31.619532  0.032133671  0.037962382            5 
   83000    1.2408183   -6.5612241    32.123219  0.032252228  0.037899824            3 
   84000    1.2014187   -6.5155437    32.432973  0.032175568  0.037837258            5 
   85000    1.2236079   -6.5482689    32.838369  0.032194479  0.037771668            2 
   86000    1.2233297   -6.5137965    33.182629   0.03215371  0.037694017            2 
   87000    1.2156037   -6.5611578    33.535419  0.032122049  0.037622193            1 
   88000    1.2270815   -6.5240214    34.034252  0.032229405  0.037547978            2 
   89000    1.2384979   -6.5476949    34.337072  0.032150817  0.037477816            3 
   90000    1.2134461   -6.5208346    34.778426  0.032202246  0.037411087            4 
   91000    1.2423883   -6.5266186    35.338927  0.032361654  0.037355049            2 
   92000    1.2191107   -6.5186868    35.863607  0.032485151  0.037302971            2 
   93000    1.2265686   -6.5430516    36.027255  0.032282487   0.03724657            3 
   94000    1.2022523   -6.5212982    36.438104  0.032303283  0.037184086            4 
   95000    1.2157117   -6.5407159    36.809237  0.032288805  0.037119191            3 
   96000    1.2025093   -6.5361713    37.321509  0.032397143  0.037061719            3 
   97000    1.2562574   -6.5482047    37.788732  0.032464546   0.03701043            2 
   98000    1.1906781   -6.5355831    38.094457  0.032393245  0.036963871            1 
   99000    1.2060793   -6.5696609    38.446306   0.03236221  0.036908421            2 
  100000    1.2078622   -6.5887693    38.842374  0.032368645  0.036851528            3 
  101000    1.2263857   -6.5174867    39.122375  0.032279187  0.036792918            2 
  102000    1.2046927   -6.5747587    39.556107  0.032317081  0.036735813            2 
  103000    1.2277307   -6.5506244    39.978015  0.032344672  0.036678589            1 
  104000    1.2165647   -6.5346533      40.6979  0.032610496  0.036632066            2 
  105000    1.2205004   -6.5349623    41.163418  0.032669379  0.036599726            1 
  106000     1.220963   -6.5503913     41.68657  0.032772461   0.03657035            5 
  107000     1.192367   -6.5575911    42.122232  0.032805477  0.036547386            4 
  108000    1.1948044   -6.5570904    42.620292  0.032886028  0.036531981            4 
  109000    1.2153495   -6.5657229    43.353088  0.033144562  0.036522772            2 
  110000    1.2076019   -6.5218652    43.963202  0.033305456  0.036519164            5 
  111000    1.2061162    -6.553596    44.400326  0.033333578  0.036524299            1 
  112000    1.2432144   -6.5469249    44.833757   0.03335845  0.036525021            3 
  113000    1.2098088   -6.5569783    45.054466  0.033226007  0.036516275            6 
  114000    1.2173392   -6.5386359    45.464559  0.033234326  0.036508418            6 
  115000    1.1948178    -6.562949    45.836858  0.033215114  0.036499382            3 
  116000    1.1914397   -6.5670238     46.40019   0.03333347  0.036490532            4 
  117000    1.2177329   -6.6022672    46.520653  0.033134368   0.03648131            2 
  118000    1.1913431   -6.5597208    47.116013   0.03327402  0.036471827            4 
  119000    1.2120758    -6.586331    47.330105  0.033144331  0.036456333            2 
  120000    1.2119417   -6.5389421    47.626081  0.033073667  0.036435209            1 
  121000    1.1998416   -6.5630185    48.031427  0.033079495  0.036415247            2 
  122000    1.2134172   -6.5500902    48.322604  0.033007243  0.036391425            3 
  123000    1.2009541   -6.5624331     48.78152   0.03304981  0.036364611            3 
  124000     1.225848   -6.5527883    49.183229  0.033053245  0.036346073            4 
  125000    1.2098227   -6.5223781    49.761189  0.033174126  0.036325075            2 
  126000    1.2121821   -6.5410956    49.788915  0.032929177  0.036296118            2 
  127000    1.1985321   -6.5915551    50.220902  0.032953348  0.036258731            6 
  128000    1.1971405   -6.5799408    50.481564  0.032865602  0.036223837            3 
  129000    1.2032391   -6.6203558    50.899895  0.032881069  0.036186528            2 
  130000    1.2217325   -6.5962994     51.46589  0.032990955  0.036153099            2 
  131000    1.1958832   -6.6254202     51.51394  0.032769682  0.036119842            2 
  132000    1.2193427   -6.5809413    52.120729    0.0329045  0.036082122            5 
  133000      1.19423   -6.5826407    52.592088  0.032952436  0.036045483            3 
  134000    1.2073645   -6.6371705    52.463105  0.032626309  0.036007759            3 
  135000    1.1769802   -6.6061305    52.908995  0.032659873  0.035963166            3 
  136000    1.2112406   -6.5956081    53.612947   0.03285107  0.035927591            2 
  137000    1.2021837   -6.6130904    54.082161  0.032896692  0.035894738            4 
  138000    1.1853522    -6.554098    54.750413  0.033061843  0.035866219            3 
  139000    1.1875011    -6.630164     54.59407  0.032730257  0.035836461            1 
  140000    1.1919455   -6.5788613    55.318014  0.032927389  0.035806112            2 
  141000    1.1994693   -6.5879859    55.952538  0.033068876  0.035778192            2 
  142000    1.1958636   -6.6105867    56.429123  0.033115683  0.035758402            3 
  143000    1.2014718   -6.5752852    56.678732  0.033029564  0.035736487            2 
  144000    1.2157149   -6.5972567    57.268579  0.033141539  0.035710152            2 
  145000     1.210364   -6.5719377    57.591439  0.033098528  0.035687898            4 
  146000    1.2161251   -6.6087426    57.953234   0.03307833  0.035665853            5 
  147000    1.2195212   -6.5471219    58.755092  0.033307875   0.03564716            2 
  148000    1.2139313   -6.5939682    58.806966   0.03311203  0.035629268            4 
  149000    1.1842527   -6.6062149     59.59074  0.033328154  0.035615866            2 
  150000    1.2122233   -6.5469975    59.915236  0.033286242  0.035601719            1 
  151000    1.2002162   -6.6560529    60.152338  0.033196654  0.035590855            2 
  152000    1.2028015   -6.6560406    60.852469  0.033362099  0.035584264            5 
  153000    1.1818374   -6.6244771    61.461169  0.033475582  0.035579522            6 
  154000    1.1809775   -6.6615989    61.653263  0.033362155  0.035575092            2 
  155000    1.1659055   -6.6105592    62.261829  0.033474102  0.035570402            3 
  156000    1.2207861   -6.6563122    62.488264  0.033380483  0.035566031            3 
  157000    1.1863648   -6.6743493    62.695932  0.033278095  0.035556839            2 
  158000    1.1791984      -6.6129     63.26901  0.033369731  0.035546948            2 
  159000    1.2205901    -6.625043    63.695939  0.033383616  0.035539952            5 
  160000    1.1971783   -6.6532125    64.047734  0.033358194  0.035530415            5 
  161000    1.1821442   -6.6340302     64.67349  0.033474891  0.035520615            2 
  162000     1.198646   -6.6373836    65.077181  0.033475916  0.035514208            4 
  163000    1.1591819   -6.5804617    65.529876  0.033501982  0.035510089            2 
  164000    1.1964027   -6.6683633    65.923784  0.033497858  0.035503807            3 
  165000    1.1775599   -6.6323972    66.071587  0.033369488  0.035496825            2 
  166000    1.1915292   -6.6518476    66.610682  0.033439097   0.03548546            2 
  167000    1.2020271   -6.6168047    66.819777  0.033343202  0.035475844            3 
  168000    1.1895206   -6.6351009    67.290329   0.03337814  0.035465191            3 
  169000    1.1831153   -6.6051065    67.653724  0.033359824  0.035454037            5 
  170000    1.1902835   -6.6429732     68.45476  0.033556255  0.035446697            3 
  171000    1.1784092   -6.6440589    68.783996  0.033520466  0.035446733            4 
  172000    1.1849075   -6.6188677    69.371336  0.033610143  0.035446116            2 
  173000    1.2003588   -6.6445654    69.514733  0.033484939  0.035443107            1 
  174000    1.1675269   -6.6081855    70.359835  0.033697239  0.035438367            2 
  175000    1.1971402   -6.6789515    70.415137  0.033531017  0.035432836            3 
  176000    1.1723234   -6.5741817    71.025176  0.033629345  0.035428718            2 
  177000    1.2032334   -6.6339659    71.124305  0.033486019  0.035418704            3 
  178000    1.1822109   -6.6377485    71.657311   0.03354743  0.035409615            1 
  179000    1.1769014    -6.573031    71.977314  0.033508992  0.035403763            2 
  180000    1.1868668   -6.6194893    72.584367  0.033603874  0.035398668            2 
  181000    1.1963292   -6.6626188    72.810849   0.03352249  0.035392751            2 
  182000     1.159607   -6.6428712    73.099981  0.033470687  0.035384552            3 
  183000    1.1793934   -6.6659792    73.370881  0.033411148  0.035372892            3 
  184000    1.1715531   -6.6061095    73.852446  0.033447665   0.03536105            2 
  185000    1.1896054    -6.627792    73.919379  0.033297018  0.035348191            2 
  186000     1.178602   -6.6679563    74.090803  0.033194804  0.035334312            2 
  187000    1.1791603   -6.6181983    74.808869  0.033337286  0.035317655            2 
  188000    1.1306533   -6.6558426    75.112268  0.033294445  0.035300465            2 
  189000    1.2004819   -6.6176372    75.453486  0.033268733  0.035282599            4 
  190000    1.1825217   -6.6620783    75.873792  0.033277979  0.035267299            2 
  191000    1.1623852   -6.6804087    76.349262  0.033311196  0.035254113            2 
  192000     1.162143   -6.6895953    76.670679  0.033277204  0.035240708            2 
  193000    1.1768327   -6.6502126    77.125994  0.033301379  0.035228224            4 
  194000     1.158248   -6.6615416    77.624358  0.033343796  0.035213005            4 
  195000    1.1828539   -6.6917665    77.644457  0.033181392  0.035197467            3 
  196000    1.1713585    -6.616976    78.364286  0.033318149  0.035181403            2 
  197000    1.1720396   -6.6308025    78.416348  0.033171044  0.035163993            3 
  198000    1.1820671   -6.6625103    79.091199  0.033287541  0.035148404            4 
  199000    1.1724446   -6.6591772     79.03811  0.033098036  0.035128959            2 
  200000    1.1621423   -6.6482446    79.413114  0.033088798  0.035108344            2 
  201000    1.1655899   -6.6293489    79.879246  0.033117432  0.035087714            3 
  202000    1.1676066   -6.6413316    80.195079  0.033083778   0.03506816            2 
  203000    1.1653243    -6.610769    80.508475  0.033049456  0.035047508            2 
  204000    1.1877006   -6.6549924    80.998888  0.033087781  0.035028375            1 
  205000    1.1692826   -6.6755397    81.429806  0.033101547  0.035010075            4 
  206000     1.193579   -6.6209591    82.138763  0.033227655  0.034991367            1 
  207000    1.1748071   -6.6919245    82.224086  0.033101484  0.034973163            1 
  208000    1.1830281   -6.6606224    82.729178  0.033144703  0.034955364            2 
  209000    1.1635527   -6.6613674    82.755038  0.032996426  0.034937657            2 
  210000    1.1865489   -6.6739575    83.447593  0.033114124  0.034918327            4 
  211000    1.1773746   -6.6402953    83.861249  0.033120556  0.034898653            2 
  212000    1.1850544   -6.7099195     83.84764  0.032958978   0.03487796            3 
  213000    1.1596017   -6.6810254    84.293755  0.032978777  0.034856587            3 
  214000    1.1647506   -6.6697245     84.90842  0.033064026  0.034837266            3 
  215000    1.1837966   -6.6760241    84.997514  0.032944773  0.034816863            5 
  216000    1.1614098   -6.6736841    85.394356  0.032945353  0.034796337            4 
  217000    1.1703981   -6.6891367    85.757107  0.032932837  0.034775321            3 
  218000    1.1634668   -6.6475114    85.957015  0.032858186  0.034753015            2 
  219000    1.1631723   -6.6605882     86.78375  0.033022736   0.03473224            4 
  220000    1.1761229   -6.6989725    86.892887  0.032913972  0.034711388            4 
  221000    1.1473932   -6.6969871    86.945221  0.032784774  0.034690042            5 
  222000    1.1523563   -6.6967182    87.105952  0.032697429  0.034668159            4 
  223000    1.1610666   -6.6976672    87.496267  0.032696662  0.034643008            2 
  224000    1.1629793   -6.7074366    87.897139  0.032699829  0.034619084            3 
  225000    1.1360905   -6.6548911    88.600987   0.03281518  0.034597977            2 
  226000    1.1709043   -6.7300721    88.651329  0.032688543  0.034576529            4 
  227000    1.1744574   -6.6810091    89.560628  0.032878351  0.034555433            3 
  228000    1.1753687   -6.6423127    89.871854    0.0328479  0.034537717            8 
  229000    1.1641342   -6.7070427    90.609959  0.032973056  0.034519456            2 
  230000    1.1660445   -6.6572166    90.943137  0.032950412  0.034502474            1 
  231000    1.1686005   -6.7266344    90.829373  0.032766729  0.034484983            4 
  232000    1.1626979   -6.7143797    91.501021  0.032866746  0.034467714            1 
  233000    1.1520937   -6.6958505    92.023307  0.032912485  0.034451368            3 
  234000    1.1598272   -6.6984117    92.265677  0.032858147    0.0344327            3 
  235000    1.1588703   -6.7218832    92.530993  0.032812409  0.034414135            4 
  236000     1.169092   -6.7018484    92.544912  0.032678288  0.034395089            2 
  237000    1.1648276   -6.7038528    93.286717  0.032801236  0.034375255            4 
  238000    1.1563927   -6.7175717    93.594041  0.032771023  0.034356768            4 
  239000    1.1832367   -6.7246724    94.217615   0.03285133  0.034338463            3 
  240000    1.1524645   -6.7212376    94.445839  0.032793694  0.034321758            2 
  241000    1.1560814   -6.7142763    94.774411  0.032771235  0.034304009            3 
  242000    1.1668338   -6.7219255    94.688351  0.032606182  0.034285502            2 
  243000    1.1522549   -6.7152589    95.182977  0.032641624   0.03426435            2 
  244000    1.1476028   -6.7097475    95.610969  0.032654019  0.034243944            4 
  245000    1.1600827   -6.6571132    96.422021  0.032796606   0.03422748            3 
  246000    1.1180756   -6.7129501    96.442448  0.032670206  0.034211168            4 
  247000    1.1526369   -6.7258772    96.629749   0.03260113  0.034192473            6 
  248000    1.1354969    -6.675102    97.445578   0.03274381  0.034173774            4 
  249000    1.1729298   -6.6986458      98.2822  0.032892302  0.034159962            2 
  250000    1.1336067   -6.7045093    98.674204  0.032891401  0.034146662            2 
  251000    1.1391231   -6.6861095    98.607522  0.032738221  0.034132605            4 
  252000    1.1272404   -6.6961481    98.855259  0.032690231  0.034116187            1 
  253000    1.1721269   -6.7273399    98.634561  0.032488327   0.03409741            1 
  254000    1.1503027   -6.7030331    99.581142  0.032670978  0.034077685            4 
  255000    1.1250788    -6.781362    98.818273  0.032293553  0.034056882            2 
  256000    1.1611441   -6.6831998    99.915248  0.032524495  0.034036521            3 
  257000    1.1764485   -6.7268615    99.898156  0.032392398  0.034014687            2 
  258000     1.169543   -6.6662326    100.77889  0.032551322  0.033993391            2 
  259000    1.1205764   -6.6912404    100.65734  0.032386533  0.033972175            2 
  260000    1.1468413   -6.6792327    100.79938  0.032307494  0.033949023            3 
  261000    1.1642388   -6.6660162    101.38755  0.032371505  0.033926065            2 
  262000      1.15503   -6.7133702    101.23974  0.032200936  0.033902428            1 
  263000    1.1318322   -6.6816198    101.94617  0.032302336  0.033878525            6 
  264000    1.1610947    -6.770518    101.85625  0.032151594  0.033855007            2 
  265000    1.1452395   -6.7333197    102.43186  0.032211277  0.033831496            3 
  266000    1.1489949   -6.6833505    103.37388  0.032385302  0.033808546            3 
  267000    1.1598415   -6.7005926    103.29223  0.032238525  0.033786328            4 
  268000    1.1448668   -6.7036419    103.77572  0.032268571  0.033760401            2 
  269000    1.1406949   -6.7410068    103.57097  0.032085182  0.033735459            2 
  270000    1.1382482   -6.6854032    104.32731  0.032199787   0.03371042            4 
  271000    1.1632702   -6.7543064    104.44244  0.032116372  0.033685666            6 
  272000    1.1396845   -6.7433771    104.82395  0.032115179  0.033661273            3 
  273000    1.1590691   -6.7533348    105.34899   0.03215781  0.033638123            3 
  274000    1.0967901   -6.7224658    105.71314  0.032151198  0.033614141            7 
  275000      1.13126   -6.6959998    105.84033  0.032072827  0.033590923            3 
  276000     1.152444   -6.7286551    106.08934  0.032031804  0.033566833            2 
  277000    1.1314821   -6.7299324    106.43752  0.032020915  0.033542751            4 
  278000    1.1505744    -6.751541     107.1052  0.032105875  0.033519784            2 
  279000    1.1280894   -6.7411662    107.39651   0.03207781  0.033497767            3 
  280000    1.1372861   -6.6897712    107.87743  0.032106376  0.033476589            2 
  281000    1.1388448   -6.7158102    108.16022  0.032075984  0.033455763            2 
  282000    1.1320379   -6.7737819    107.84103  0.031867918  0.033432325            5 
  283000    1.1439984   -6.7278085    108.48824  0.031945888  0.033408573            2 
  284000    1.1437088   -6.7656614    108.69372  0.031893697  0.033383292            4 
  285000    1.1581517   -6.7752639    108.80147  0.031813296  0.033358972            4 
  286000    1.1434183   -6.7203081    109.29221  0.031845049  0.033335496            3 
  287000    1.1526969   -6.7901736    109.42697   0.03177322  0.033310743            2 
  288000    1.1402133   -6.7608525    109.73919  0.031753237  0.033285451            6 
  289000    1.1569853   -6.7244885    110.08552   0.03174323  0.033261135            8 
  290000    1.1428547   -6.7513051    110.51461  0.031757071  0.033235847            2 
  291000    1.1436772   -6.7292744    110.33759  0.031597247   0.03321014            5 
  292000    1.1565126   -6.7488781    111.11279  0.031710271  0.033184978            4 
  293000    1.1446411   -6.7760318    111.09199  0.031596128  0.033159277            2 
  294000    1.1098393   -6.7682595    111.46201  0.031593541  0.033131173            4 
  295000    1.1495299   -6.7903632    111.44767  0.031482391   0.03310344            2 
  296000    1.1169976   -6.7436278    112.01608  0.031536058  0.033075235            2 
  297000    1.1414586   -6.7811814    112.12806  0.031461296  0.033047861            2 
  298000    1.1742952   -6.7584194    112.48225  0.031454769  0.033020354            5 
  299000    1.1439643   -6.7342012    113.54916  0.031646922  0.032995032            2 
  300000    1.1310248   -6.7736982    113.75726  0.031599239  0.032970382            4 
  301000    1.1471622   -6.7655123      113.689   0.03147536  0.032946256            1 
  302000    1.1269157   -6.7310934    113.98393   0.03145252  0.032920776            2 
  303000    1.1264077    -6.700275    114.59319  0.031516278  0.032896082            3 
  304000    1.1454106   -6.7513075    114.87436  0.031489682  0.032872878            2 
  305000    1.1120172   -6.7312682    115.41078  0.031532999  0.032849258            1 
  306000    1.1106179   -6.6944964     116.1313  0.031626171  0.032826186            3 
  307000    1.1397096   -6.7441811    116.52272  0.031629402  0.032803512            1 
  308000    1.1243817   -6.8059667    116.04684  0.031397954  0.032781074            6 
  309000    1.1398944   -6.7555941    116.38025  0.031386259  0.032758344            1 
  310000    1.1192132   -6.7502908    117.30547  0.031533728  0.032735883            3 
  311000    1.1397174    -6.792942    116.92994   0.03133171  0.032713725            3 
  312000    1.1133189   -6.7933106    117.30458  0.031331352  0.032690206            4 
  313000    1.1429903   -6.8046603    117.63422  0.031319015  0.032667772            4 
  314000    1.1236758   -6.7768405    118.21879  0.031374415  0.032645992            2 
  315000    1.1376135   -6.7844489    119.35028  0.031574147   0.03262477            4 
  316000    1.1425035   -6.7892319    119.25322  0.031448635  0.032603844            4 
  317000    1.1368299   -6.7554287    119.50916  0.031416708  0.032582675            4 
  318000    1.1317648   -6.7411607    120.00043  0.031446654  0.032561721            4 
  319000    1.1248693   -6.8252098    119.38462  0.031187205  0.032538491            2 
  320000    1.1349101   -6.7615392    120.43101  0.031362243  0.032515978            3 
  321000    1.1388601   -6.7733056    120.71698  0.031338779  0.032494467            2 
  322000    1.1436012   -6.7243836    120.99322  0.031312946  0.032472008            4 
  323000    1.0987658   -6.8021958     120.9622  0.031207998  0.032449883            3 
  324000    1.1205644   -6.7934307    121.21026  0.031175479  0.032426598            3 
  325000    1.1268779   -6.7873861    121.34176  0.031113271  0.032403185            3 
  326000    1.1234449   -6.7704533    121.47261  0.031051281  0.032378286            1 
  327000    1.1164187   -6.7738893    121.65409   0.03100257   0.03235332            2 
  328000    1.1025296   -6.8038251    121.46459  0.030859905  0.032327613            3 
  329000    1.1041921   -6.7726816    122.13159  0.030935052  0.032300933            4 
  330000    1.1142259   -6.7805999    122.80891   0.03101235  0.032275308            2 
  331000    1.1226773   -6.7728779    123.11551  0.030995849  0.032250195            3 
  332000    1.1471646   -6.7729423    123.32409  0.030954842  0.032225967            2 
  333000    1.1127227    -6.824473    123.44386  0.030891857  0.032201869            3 
  334000    1.1353841   -6.8456346    123.28314  0.030759266  0.032176361            4 
  335000    1.1250031   -6.8062877    124.04638  0.030857308  0.032151514            3 
  336000    1.1102232   -6.7724167    124.50256  0.030878612  0.032126753            3 
  337000    1.1416568   -6.8104283    123.92656  0.030644549  0.032100347            5 
  338000    1.1103801   -6.7909311     124.5269  0.030701899  0.032073723            2 
  339000      1.12983   -6.7851882    125.19487  0.030775534  0.032048019            2 
  340000    1.1200192   -6.8254686    125.35656  0.030724647  0.032022027            4 
  341000    1.1069409   -6.8407505    125.31636  0.030624722  0.031996126            5 
  342000    1.1132941   -6.8032433    125.89696  0.030676648  0.031968792            3 
  343000    1.1001944   -6.8599858    126.45265  0.030722218  0.031942807            4 
  344000    1.1369689   -6.8147046    126.59963  0.030668516  0.031916393            5 
  345000    1.1190007   -6.8014784    127.26885  0.030741268  0.031890788            3 
  346000    1.1303302   -6.8231681    127.38111  0.030679458  0.031865282            3 
  347000    1.0988108   -6.8053919    127.78805  0.030688774  0.031840855            4 
  348000    1.1060721   -6.7994954    128.10362  0.030676154  0.031817187            5 
  349000    1.1094958   -6.7981065    128.60004   0.03070679  0.031793374            3 
  350000    1.1226664   -6.7719353    128.74788  0.030654258  0.031770047            4 
  351000    1.1072334   -6.7919607    129.47046  0.030738476  0.031748347            2 
  352000    1.1100405   -6.7740433    130.14331  0.030810442  0.031725727            5 
  353000    1.1181143   -6.8166639    130.02789  0.030695914  0.031703491            3 
  354000    1.1160287   -6.8092385    130.18888    0.0306471  0.031681491            4 
  355000    1.1174438   -6.8209876    130.30569  0.030588191  0.031660032            3 
  356000    1.0946398   -6.8779268    130.11708  0.030458118  0.031636945            6 
  357000    1.1028075   -6.8044141    131.14909  0.030613701  0.031613945            1 
  358000    1.1056489   -6.8093419    131.11164   0.03051947   0.03159128            5 
  359000    1.0987705    -6.794622    131.98235  0.030636571  0.031570179            1 
  360000     1.123338   -6.8320354    132.15159  0.030590647  0.031548784            5 
  361000    1.1294288    -6.812213    132.85687  0.030668715  0.031527575            5 
  362000     1.108125   -6.8763783    132.45105  0.030490574  0.031505469            1 
  363000    1.0968321   -6.8273447    133.04375  0.030542642    0.0314845            3 
  364000    1.0928744   -6.8064893    133.85256  0.030643902  0.031463255            3 
  365000    1.1135956   -6.8483784     134.3776  0.030679817  0.031444032            6 
  366000     1.117492   -6.8168042    134.02097  0.030514793  0.031424301            4 
  367000      1.11754   -6.8917657     134.1915  0.030470367  0.031403985           12 
  368000    1.0981084   -6.8195322    134.60466  0.030481128  0.031383989            4 
  369000    1.1134744   -6.8300774    135.07324  0.030504345  0.031363467            5 
  370000     1.121821   -6.8442496    135.21894  0.030454717  0.031342486            4 
  371000    1.1136128   -6.8359364     135.6271  0.030464309  0.031323222            2 
  372000    1.0935534   -6.8663798    135.25747  0.030299612  0.031302401            1 
  373000    1.1093474   -6.8035438    136.06307  0.030398363  0.031282556            3 
  374000    1.0886216   -6.8621564    135.75761  0.030249021   0.03126173            4 
  375000    1.0768406   -6.8849373    136.88815  0.030419589  0.031241057            6 
  376000    1.1228433   -6.8564689    136.71242  0.030299738  0.031220331            4 
  377000    1.1015051   -6.9241658    136.85814  0.030251578  0.031199099            5 
  378000     1.095178   -6.8323889    138.25902  0.030480383  0.031178497            2 
  379000    1.0876976   -6.7894877    138.51448  0.030456131  0.031159591            4 
  380000    1.0826184   -6.8140702     138.4089   0.03035283  0.031140594            5 
  381000    1.0981222    -6.839166    138.92406   0.03038584  0.031122153            2 
  382000    1.1072304   -6.8130335    138.97808  0.030318081  0.031103048            4 
  383000    1.0789518   -6.8928722     138.3193  0.030095584  0.031082234            5 
  384000    1.0925603   -6.9092522    138.85646   0.03013378  0.031059796            5 
  385000    1.0996845   -6.8833258    139.43818  0.030181424   0.03103819            2 
  386000    1.1100676   -6.8382317    139.90725  0.030204502  0.031016323            5 
  387000    1.1025259   -6.8647455     139.8193  0.030107515  0.030996049            2 
  388000    1.0978361   -6.8765717    139.63386   0.02999009  0.030974427            3 
  389000    1.0762001   -6.8360649    140.77808  0.030158116  0.030952569            2 
  390000    1.1005299   -6.8455504    140.79305  0.030083985  0.030931601            7 
  391000    1.1000971   -6.8845101    140.43228  0.029930153  0.030909794            3 
  392000    1.1048796   -6.8658981      141.093   0.02999426  0.030887197            4 
  393000    1.1299925   -6.8218829    141.41255  0.029985697  0.030864604            4 
  394000    1.1064743   -6.8697578    141.40126  0.029907204  0.030842778            3 
  395000     1.097989    -6.839573    141.81531  0.029918842  0.030821416            6 
  396000     1.102986   -6.8340896    142.52285  0.029992183  0.030799836            2 
  397000    1.0997287   -6.8913584    142.76318  0.029967082  0.030777973            1 
  398000    1.1138004   -6.8573866    142.39063  0.029813782   0.03075563            5 
  399000    1.0837333   -6.8408261     142.8897  0.029843296  0.030733308            3 
  400000    1.1073368   -6.8338681    142.81627   0.02975339  0.030710849            2 
  401000    1.0998896   -6.8350097    143.48223  0.029817586  0.030688579            5 
  402000    1.0985068   -6.8310911    144.21556  0.029895431  0.030666597            2 
  403000    1.0867444   -6.8209483     144.3396  0.029846898  0.030644831            2 
  404000    1.0845454   -6.8852724    144.07987  0.029719445   0.03062227            2 
  405000    1.0858292   -6.8896483    144.13635  0.029657685   0.03059999            4 
  406000    1.1082357   -6.8287704    144.35682  0.029629889  0.030578223            4 
  407000    1.0981373   -6.8690332    144.78227  0.029644199  0.030556044            5 
  408000    1.0939761   -6.8889184    145.26407  0.029669948  0.030534316            4 
  409000     1.081444   -6.8512648    145.64228  0.029674466  0.030512786            3 
  410000    1.0795858    -6.879783    145.46518  0.029566093  0.030490662            2 
  411000    1.0966148   -6.8535783    146.25425  0.029654146  0.030468426            2 
  412000    1.0894251   -6.8970442    146.56077  0.029644169  0.030446177            2 
  413000    1.0913386   -6.8507453    146.56184  0.029572606  0.030424055            2 
  414000     1.078259   -6.9125595    146.82693  0.029554536  0.030402226            3 
  415000     1.094357   -6.8469439    147.37833  0.029594043  0.030380663            2 
  416000    1.0941432   -6.8689496    147.37258  0.029521751  0.030359581            4 
  417000    1.0837226   -6.8836273    147.62742  0.029501882  0.030337838            2 
  418000    1.0812165   -6.8435344    148.18236  0.029541937  0.030315871            2 
  419000    1.0928722   -6.8757945     148.3591  0.029506584  0.030294518            3 
  420000    1.0621098   -6.8720088    148.71275  0.029506499  0.030273043            6 
  421000    1.0982173   -6.8580199    148.98424  0.029490151    0.0302525            3 
  422000    1.0844997   -6.8938328    148.75322  0.029374648  0.030232078            1 
  423000    1.0824522   -6.9070995    149.10363  0.029374237  0.030210826            2 
  424000    1.0787149   -6.8720692    149.90363  0.029462192  0.030190231            3 
  425000    1.0650693   -6.8770759    149.75647  0.029364015  0.030169206            8 
  426000     1.083655   -6.8735421    149.76714  0.029297171  0.030147464            3 
  427000    1.0853553    -6.906722    150.43268  0.029358446  0.030125174            3 
  428000    1.0709895   -6.8766711     150.0083  0.029207224  0.030102538            5 
  429000    1.0744728   -6.9042776    150.25573  0.029187204  0.030080186            4 
  430000    1.0666814    -6.898521    150.28259  0.029124533  0.030056954            2 
  431000    1.0976851   -6.9024657    151.24423   0.02924289  0.030034416            3 
  432000    1.0950888   -6.8826404    150.99737  0.029127579  0.030011482            4 
  433000    1.0778927   -6.8619972    151.39584  0.029136998  0.029989176            3 
  434000    1.1071692    -6.918322    151.22776  0.029037588  0.029965831            2 
  435000    1.0855679   -6.8926643    152.12689  0.029143083  0.029943135            3 
  436000    1.0720472   -6.8771632     152.4799  0.029143712  0.029920805            4 
  437000    1.1073946   -6.9003222    152.61424  0.029102639  0.029899349            4 
  438000    1.0939344    -6.904375    153.19294  0.029146298  0.029877342            4 
  439000    1.0588058   -6.8731936    153.55954  0.029149495   0.02985609            2 
  440000    1.0756607   -6.9144479    153.70423   0.02911065  0.029834584            1 
  441000    1.0747361   -6.9250882    153.22729  0.028954514  0.029812912            4 
  442000    1.0678572   -6.9561938    153.59484  0.028958303  0.029791014            2 
  443000    1.0622573   -6.9130216    153.99169  0.028967587  0.029768743            4 
  444000    1.0804816   -6.9219792    154.54579  0.029006342  0.029746771            3 
  445000    1.0765785   -6.8980922    155.04022   0.02903375  0.029725723            2 
  446000    1.0949093   -6.8602661    154.91156  0.028944611  0.029704383            3 
  447000    1.0634407   -6.9340265     155.0697   0.02890934  0.029683084            2 
  448000    1.0657344   -6.9328619    155.46923  0.028919127  0.029661296            4 
  449000    1.0625581   -6.8714028     155.8603  0.028927301  0.029639615            4 
  450000    1.0838137   -6.9279403    155.35248  0.028768977  0.029618189            6 
  451000    1.0844517   -6.9480298    155.85766  0.028798533  0.029596145            3 
  452000    1.0734946    -6.925844    156.53928  0.028860487  0.029573712            3 
  453000    1.1047317   -6.9090499    156.64213  0.028815697  0.029551847            4 
  454000    1.0753212   -6.9594592    156.22853  0.028676308  0.029529841            6 
  455000    1.0673724   -6.9037811    157.02137  0.028758493  0.029508109            4 
  456000    1.0921255    -6.957913    156.88978  0.028671379  0.029486353            2 
  457000    1.0821006   -6.8890293    158.18303  0.028844462  0.029464253            2 
  458000    1.0766776   -6.9384479     157.8427  0.028719559  0.029442918            2 
  459000    1.0584691   -6.9058614    158.35207  0.028749468  0.029421283            3 
  460000    1.0756352   -6.9338542    158.41567  0.028698491  0.029400141            4 
  461000     1.055319   -6.9281026    158.69801  0.028687275  0.029378485            5 
  462000    1.0468468   -6.9142564    158.68313  0.028622497  0.029356407            4 
  463000    1.0585017   -6.9512526    158.51739  0.028530848  0.029334322            1 
  464000    1.0587443   -6.9304037    159.12832  0.028579081  0.029311675            3 
  465000    1.0610565   -6.9377499    159.24666  0.028538829  0.029289165            4 
  466000    1.0621107   -6.9517135    159.13315  0.028457286  0.029265821            4 
  467000    1.0828789   -6.9750353    159.45332  0.028453484  0.029243236            5 
  468000    1.0728839   -6.9517793     159.6539    0.0284284  0.029220512            6 
  469000     1.070326   -6.9301068    159.89491  0.028410609  0.029196768            6 
  470000    1.0632241   -6.9619839    160.03454  0.028374918  0.029173575            3 
  471000    1.0840573   -6.9459273     160.7738  0.028445471  0.029150993            3 
  472000    1.0804812   -6.9324499    160.57615  0.028350309  0.029128128            3 
  473000    1.0834639   -6.9067766    160.98993  0.028363271  0.029105846            3 
  474000    1.0734797   -6.9842008    160.77168  0.028265064  0.029083377            3 
  475000    1.0701066   -6.9483685    161.61164   0.02835292  0.029060643            4 
  476000    1.0603967   -6.9790861    161.38586  0.028253826  0.029037976            4 
  477000    1.0715634   -7.0070204    161.17942  0.028158529   0.02901528            4 
  478000    1.0444086   -7.0213741    161.97124  0.028237665  0.028992951            6 
  479000    1.0982582   -6.9336847     162.7788  0.028319207  0.028971402            6 
  480000    1.0498225   -6.9411951    162.81774  0.028266969  0.028950168            3 
  481000    1.0650381   -6.9777455    163.21372  0.028276806  0.028929179            9 
  482000    1.0516098    -6.904922    163.98809  0.028352021   0.02890801            3 
  483000    1.0855725   -6.9839888    163.68709  0.028241389  0.028887054            5 
  484000    1.0677389   -6.9532848    164.31027  0.028290336  0.028865722            5 
  485000    1.0532106   -6.9496265    164.05891  0.028188816  0.028845065            2 
  486000    1.0630447   -6.9422789    164.83097  0.028263197  0.028824095            4 
  487000    1.0518952   -6.9441784    165.51682  0.028322522  0.028803599            7 
  488000    1.0591006   -6.9804817    165.20405  0.028211074   0.02878301            6 
  489000    1.0341781   -6.9247357    165.68884  0.028235999  0.028762345            2 
  490000    1.0573717   -6.9654035    166.00686  0.028232459  0.028742047            2 
  491000     1.045721    -6.999745    165.94389  0.028164271   0.02872141           11 
  492000    1.0419752   -6.9658475    166.06486  0.028127517  0.028701181            4 
  493000    1.0395832   -6.9561513     166.0358   0.02806555  0.028680865           10 
  494000    1.0421185   -6.9855223    166.44395   0.02807759  0.028660122            7 
  495000    1.0672018   -6.9723436    166.85128  0.028089441  0.028639723            3 
  496000    1.0745748   -6.9862326    167.15573  0.028083959  0.028619448            2 
  497000    1.0402632   -6.9681698    168.05853  0.028178827  0.028599476            5 
  498000    1.0668752   -7.0026225    167.91534  0.028098282  0.028579592            3 
  499000    1.0661131   -6.9934602    168.09895  0.028072638  0.028559935            8 
  500000     1.036927   -6.9637812    168.36305  0.028060508  0.028539846            6 
  501000    1.0520463   -6.9655626     168.9714  0.028105689  0.028519622            4 
  502000    1.0571913   -6.9944586    168.46184  0.027965112  0.028499569            6 
  503000    1.0403223   -6.9949819    169.45133  0.028073448  0.028479594            4 
  504000    1.0348473   -6.9483674    169.32591  0.027997009  0.028459928            3 
  505000    1.0441073   -6.9670407    169.62682  0.027991225  0.028439839            8 
  506000    1.0554586    -7.002191    169.39913  0.027898407  0.028419938            4 
  507000    1.0529469   -6.9879143    169.68046  0.027889623  0.028400017            3 
  508000    1.0634344   -6.9990238    169.93012  0.027875675  0.028380255            3 
  509000     1.041977   -6.9966775    170.32482   0.02788553  0.028360606            5 
  510000    1.0687118    -6.997815    170.99197  0.027939864  0.028341348            3 
  511000    1.0402992   -7.0147163    170.90364  0.027870784  0.028321688            5 
  512000    1.0524809   -6.9439261    171.81474  0.027964639  0.028302986            7 
  513000     1.057271   -6.9847282    171.30203   0.02782684  0.028284225            4 
  514000    1.0572083   -7.0141204    171.47343  0.027800491  0.028265316            4 
  515000    1.0277469   -7.0066375    171.13765  0.027692177  0.028245226            3 
  516000    1.0507794   -6.9517543    172.12531  0.027798016  0.028225499            5 
  517000    1.0527749   -6.9888766    172.03912  0.027730354  0.028205658            3 
  518000    1.0435064   -6.9636892    172.73727  0.027789137  0.028186703            2 
  519000    1.0477329   -7.0023491    172.74862  0.027737416  0.028168088            3 
  520000    1.0411768   -7.0099447    172.65929  0.027669757  0.028149412            4 
  521000    1.0531844   -7.0118359    173.49704  0.027750646  0.028130318            2 
  522000    1.0595482   -7.0145883    172.93588  0.027607898  0.028110447            3 
  523000    1.0367318   -7.0258371    173.65566  0.027669799  0.028091019            2 
  524000    1.0546462   -7.0110493    173.98734  0.027669743  0.028071634            4 
  525000    1.0678569   -6.9864551    174.58786  0.027712359  0.028052527            5 
  526000    1.0547614   -7.0064464    174.37148  0.027625392  0.028033328            4 
  527000    1.0475085   -7.0118595    174.63229  0.027614215  0.028014388            2 
  528000    1.0410723   -7.0016484    174.28258   0.02750672  0.027994964            5 
  529000    1.0708932   -7.0091636     174.5352  0.027494518  0.027975558            4 
  530000    1.0220399   -7.0042086    174.96855  0.027510779  0.027955956            3 
  531000    1.0467484   -7.0101291    175.19468  0.027494457  0.027935884            4 
  532000    1.0286806   -7.0376206     175.0778  0.027424467  0.027915666            3 
  533000    1.0460951   -6.9774012    175.65702  0.027463575  0.027895461            3 
  534000    1.0261872   -6.9991221     175.8003  0.027434503  0.027875829            4 
  535000    1.0367167   -7.0289255    175.93689  0.027404501  0.027856542            4 
  536000    1.0259093   -6.9854836    176.23818  0.027400215  0.027837357            6 
  537000    1.0364305   -7.0414442    176.65803  0.027414344  0.027818301            3 
  538000    1.0370265   -7.0179867    176.90526  0.027401681  0.027798932            7 
  539000    1.0126266   -7.0070469    177.06261  0.027375171  0.027779773            4 
  540000    1.0746684   -6.9854546    177.44894  0.027384095  0.027760535            6 
  541000    1.0358636   -7.0136289    177.50506  0.027342123  0.027740972            4 
  542000    1.0386244   -7.0417656    176.96414  0.027208509  0.027721208           13 
  543000    1.0043521   -7.0219051    177.31108  0.027211645  0.027701062            5 
  544000    1.0404129   -7.0333587    177.97128  0.027262758  0.027681058            3 
  545000    1.0218458   -7.0500358    178.07301  0.027228289  0.027661354            6 
  546000    1.0219162   -7.0084462    178.02281  0.027170758  0.027641583            4 
  547000    1.0509362   -7.0453184    178.13343  0.027137938  0.027621694            4 
  548000    1.0396332   -7.0172322    178.23775   0.02710428  0.027601639            4 
  549000    1.0460133   -6.9851911    178.64168  0.027116223  0.027581659            3 
  550000    1.0282404   -6.9765317    179.25411  0.027159713  0.027561647            6 
  551000    1.0447532   -7.0378757    178.62227  0.027014862  0.027541134            5 
  552000    1.0139084   -7.0006417     179.1881  0.027051343  0.027520839            5 
  553000    1.0504797   -7.0202315    179.99527  0.027124061  0.027500406            2 
  554000    1.0464437   -7.0452282    179.04752   0.02693254  0.027480147            4 
  555000    1.0451132   -7.0133924    179.97852  0.027023802  0.027460372            4 
  556000   0.99844196   -7.0433756    180.17423  0.027004531  0.027440216            3 
  557000    1.0583673   -7.0300139    180.82157  0.027052897  0.027420314            5 
  558000    1.0267112   -7.0435559    180.81231  0.027003033  0.027400779            4 
  559000    1.0333608   -7.0514096    180.62915  0.026927422  0.027381254            2 
  560000    1.0266627   -7.0323973    181.05644  0.026942923  0.027361837            2 
  561000    1.0242096   -7.0166963    181.14511  0.026908067  0.027342597            4 
  562000    1.0269407    -7.053678    181.48366  0.026910388  0.027323725            8 
  563000     1.051346   -7.0509389    182.35244  0.026991185  0.027304453            5 
  564000    1.0149315   -7.0844893    181.35585  0.026796077  0.027285264            7 
  565000    1.0192497   -7.0583955     182.3007  0.026888009  0.027266032            5 
  566000    1.0569513    -7.048012    182.87683  0.026925329   0.02724706            3 
  567000    1.0343328   -7.0475226    182.87038  0.026876892  0.027228767            3 
  568000    1.0222077     -7.10057    182.70069  0.026804679  0.027209754            9 
  569000    1.0117791   -7.0741261    183.64119  0.026895312  0.027190781            5 
  570000    1.0410111   -7.0961153    183.54519  0.026834093  0.027171893            5 
  571000    1.0163117   -7.0697176     183.7905  0.026822898  0.027152616            3 
  572000    1.0264661   -7.0754669    183.88396  0.026789621  0.027133222            4 
  573000    1.0214151   -7.0572948    184.25483  0.026796805   0.02711369            3 
  574000    1.0409203   -7.0901856    183.36792  0.026621359  0.027094001            6 
  575000    1.0302141   -7.0514141    184.15427  0.026689024   0.02707428            4 
  576000    1.0079526   -7.0360713    184.93915  0.026756243  0.027054591            3 
  577000    1.0055192   -7.0519935    184.18549  0.026601024  0.027034919            3 
  578000    1.0170149   -7.0628243    184.11074  0.026544224  0.027014304            3 
  579000    1.0351023   -7.0717034    184.48601  0.026552391  0.026994415            8 
  580000    1.0324268   -7.0748543    185.38288  0.026635471  0.026975064            2 
  581000    1.0090387   -7.0519673    185.90648  0.026664727  0.026955615            2 
  582000    1.0096596   -7.0668398    185.34072  0.026537904  0.026936546            2 
  583000    1.0170312   -7.0767467    185.90037  0.026572381   0.02691779            2 
  584000    1.0327869   -7.0288942    186.42557  0.026601823   0.02689909            3 
  585000    1.0318292   -7.0616177    186.41065  0.026554223  0.026880012            4 
  586000    0.9908693   -7.1055221    186.22199  0.026482081  0.026860838            5 
  587000    1.0277974   -7.0594742    186.63477  0.026495566  0.026841499            8 
  588000    1.0219929   -7.0521011    187.33987  0.026550435  0.026822247            5 
  589000    1.0206095   -7.0572066    186.95066  0.026450291  0.026803146            3 
  590000    1.0192637   -7.0913899    187.21773  0.026443182    0.0267841            9 
  591000    1.0184321   -7.0637459    187.54645   0.02644479  0.026764835            2 
  592000    1.0101959   -7.0831282    187.87154  0.026445881  0.026745849            4 
  593000    1.0023956   -7.0444182    188.49697  0.026489175  0.026727376            4 
  594000    1.0099639   -7.0380419    188.58835  0.026457401  0.026708899            3 
  595000    1.0123914   -7.0445945    188.63001  0.026418769  0.026690264            3 
  596000    1.0479991    -7.046187    188.74855  0.026391016  0.026671588            5 
  597000    1.0172732   -7.0490346    188.98122  0.026379289  0.026652335            4 
  598000    1.0306454   -7.0802341    188.97107  0.026333761  0.026633052            9 
  599000   0.98700901   -7.0927275    188.49401  0.026223429  0.026613404            3 
  600000    1.0189927   -7.1018193    189.01983  0.026252754  0.026593913            5 
  601000    1.0282855   -7.1236945    188.77855  0.026175617  0.026574364            3 
  602000   0.99607957   -7.1029281    188.99043  0.026161465  0.026554723            3 
  603000    1.0281806   -7.0965782    189.34072  0.026166489  0.026535312            4 
  604000    1.0170089   -7.1385057    188.78805  0.026046917  0.026515449            3 
  605000    1.0313092   -7.0409103    189.63988  0.026121196  0.026495396            3 
  606000    1.0267766   -7.0831861    189.71552  0.026088493  0.026475131            3 
  607000    1.0187606   -7.0969756     189.4863  0.026014045  0.026454346            5 
  608000   0.99835317   -7.0746089    189.60753  0.025987874  0.026433528            4 
  609000    1.0016057   -7.0818292    190.08314  0.026010282  0.026412696            5 
  610000    1.0120061   -7.1221859    189.32055  0.025863463  0.026391512            2 
  611000    1.0124121   -7.0710402    189.54942  0.025852349  0.026370637            4 
  612000    1.0060895   -7.1025891    189.57014  0.025812928  0.026349555            7 
  613000   0.99543592   -7.0898762    189.59075  0.025773621   0.02632825            4 
  614000     1.016529    -7.075769    189.36804  0.025701417  0.026306804            4 
  615000    1.0173081    -7.108192    189.87625  0.025728489   0.02628523            2 
  616000     1.028719   -7.1131932    189.99195  0.025702374  0.026263392            4 
  617000    1.0244664   -7.1161144    189.62524  0.025611189  0.026241131            4 
  618000   0.99831598   -7.0629542    190.60374  0.025701691  0.026219348            2 
  619000    0.9883915   -7.0897826    190.45367  0.025639966  0.026197764            2 
  620000     1.012646   -7.1246112    190.27623  0.025574763  0.026176021            4 
  621000   0.99832938   -7.1094516     190.8267  0.025607448  0.026154029            3 
  622000   0.99995479   -7.0981976    191.35492  0.025637047  0.026131895            2 
  623000   0.99677972    -7.105588    190.54725  0.025487861  0.026109937            4 
  624000    1.0152392   -7.0962795    191.46532   0.02556962  0.026088099            3 
  625000    1.0109884   -7.1347058    191.05019  0.025473359  0.026066107            2 
  626000    1.0002226   -7.1558347    191.04656  0.025432184  0.026044037            2 
  627000    1.0006589   -7.1446099    191.81035  0.025493135  0.026021896            4 
  628000    1.0132996   -7.1186375    191.66716  0.025433541  0.025999789            2 
  629000    1.0026924   -7.1182399    191.52202  0.025373876  0.025977512            5 
  630000    0.9904084   -7.1137028     191.4942  0.025329921  0.025955065            4 
  631000   0.99962975   -7.1443195    191.62053  0.025306462  0.025932665            3 
  632000   0.99689083   -7.1234655    192.31971  0.025358611  0.025910405            4 
  633000   0.99252214   -7.1310806    192.50114  0.025342436  0.025888002            8 
  634000   0.98455167   -7.1440783    192.06079  0.025244584  0.025865772           12 
  635000    1.0213526    -7.142003    192.37585  0.025246174   0.02584358            5 
  636000    1.0028766   -7.1610909    192.56535  0.025231309  0.025821432            7 
  637000    1.0292858   -7.1701151    192.29516  0.025156352  0.025799335            4 
  638000    1.0119445    -7.113898    193.43942  0.025266382  0.025777344            5 
  639000   0.99006002   -7.1209733    193.67775  0.025257922  0.025755574            5 
  640000   0.99046735    -7.132307    193.22422  0.025159404  0.025733801            4 
  641000   0.99782234   -7.1261506    193.91132  0.025209479  0.025711802            3 
  642000    1.0052386   -7.1426199    193.75614   0.02515007  0.025689846            4 
  643000   0.98355718   -7.1597173    193.23796    0.0250438  0.025667428            7 
  644000    1.0126416   -7.1735715     193.5404  0.025044048  0.025644934            7 
  645000    1.0184297   -7.1703691    194.13067  0.025081482  0.025622598            5 
  646000    1.0044604   -7.1270529    193.91064  0.025014273  0.025600238            6 
  647000    0.9912212   -7.1752808     194.0993  0.024999909  0.025577663            5 
  648000    1.0305815   -7.1281694    194.69361  0.025037758  0.025555676            4 
  649000     1.003894   -7.1213744    194.87367    0.0250223  0.025533753            3 
  650000   0.99085032   -7.1181117    194.90638  0.024987997  0.025511799            4 
  651000   0.97256496   -7.1187097    195.01886  0.024964011  0.025489687            4 
  652000   0.99055449    -7.128595     195.3098  0.024962909  0.025467685            4 
  653000    0.9723492   -7.1550109    194.61396  0.024835881  0.025445771            5 
  654000    1.0175296   -7.1910445    195.52068  0.024913441   0.02542348            3 
  655000   0.98418579   -7.1786693    194.77001  0.024779899  0.025400845            4 
  656000    1.0137405    -7.181698    194.89687  0.024758241   0.02537816            4 
  657000   0.98234548   -7.1893863    195.24108  0.024764216  0.025355563            2 
  658000   0.97300241    -7.161136    195.80713  0.024798268  0.025333028            7 
  659000    1.0111425   -7.1990243    195.21303  0.024685512  0.025310816            5 
  660000   0.97049771   -7.1269745    196.36519  0.024793584  0.025288874            5 
  661000    1.0128092   -7.1574236    196.34755  0.024753851  0.025267055            4 
  662000   0.99138629   -7.1843619    196.39718  0.024722706  0.025245054            5 
  663000    0.9958441   -7.1707482    196.68186  0.024721199  0.025223029            5 
  664000   0.98630216   -7.1878428    197.21198  0.024750499  0.025201277            6 
  665000    1.0177551   -7.1958873    197.62283  0.024764765  0.025179733            3 
  666000    1.0086104   -7.1530594    198.06433  0.024782824   0.02515842            8 
  667000   0.98365794   -7.1725649    197.66337  0.024695573  0.025136669           11 
  668000   0.96667358   -7.1646109    197.26674  0.024609124  0.025114973            6 
  669000   0.99927797   -7.2259231    197.46378  0.024596883  0.025093466            3 
  670000    1.0014632   -7.1722813    197.97958  0.024624325  0.025071771            5 
  671000    0.9804408   -7.1939562    197.85106  0.024571667  0.025050407            3 
  672000   0.98521186   -7.1667246    198.35831  0.024598005  0.025029053            3 
  673000   0.98851493   -7.1860204    198.51591   0.02458097  0.025007786           14 
  674000   0.99529201   -7.1754982    198.59776  0.024554619  0.024986531            4 
  675000   0.98139464   -7.2039107     197.8387  0.024424531  0.024965115            9 
  676000   0.96559962   -7.1481467    198.95112  0.024525533  0.024943561            6 
  677000    1.0170076   -7.1638068    199.28738  0.024530697  0.024921985            4 
  678000   0.98814737    -7.212738    198.65106  0.024416305  0.024900218            6 
  679000   0.98015943   -7.2013128    199.12222  0.024438172   0.02487838            3 
  680000   0.98067722   -7.1918474    199.53421  0.024452721  0.024857175            3 
  681000    1.0028367    -7.215664    198.62388  0.024305419  0.024835841            3 
  682000   0.97556107   -7.1923071    199.49201  0.024375856  0.024814535            6 
  683000   0.98276943   -7.2157297    199.63652  0.024357799  0.024793038            3 
  684000   0.99845552   -7.2318609    199.57214  0.024314345  0.024771692            3 
  685000   0.97306758   -7.1815327     199.9966  0.024330487  0.024750448            6 
  686000   0.96682224   -7.2068606    199.24535   0.02420376  0.024729177            8 
  687000   0.96088728   -7.2409725    199.79929  0.024235722  0.024707356            2 
  688000   0.98661806   -7.1749639    200.24244  0.024254172  0.024685633            4 
  689000   0.98464885   -7.2018374    200.76773  0.024282502  0.024663856            6 
  690000    0.9858316   -7.2361572    199.78432  0.024128541  0.024642057            4 
  691000   0.99150848   -7.1991043    200.62802  0.024195371  0.024620235            7 
  692000   0.99259461   -7.1885609     201.1442  0.024222567  0.024598749            4 
  693000   0.95453375   -7.1755816    201.58111  0.024240152  0.024577569            8 
  694000   0.97144916   -7.1741475    201.12551  0.024150518  0.024556218           10 
  695000   0.95774018   -7.1795545    200.72307  0.024067514  0.024534828            5 
  696000   0.96914607   -7.2109392    200.58317  0.024016184  0.024513204            5 
  697000   0.97286872   -7.2016546    201.44376   0.02408462  0.024491392            6 
  698000   0.97119874   -7.1572552    201.42234  0.024047558  0.024469697            8 
  699000   0.99936185   -7.2294461    200.87991  0.023948487  0.024448051            7 
  700000   0.98316135   -7.2179044    201.12253  0.023943159  0.024426066            6 
  701000   0.96963465   -7.1930446    201.40985  0.023943159  0.024404226            4 
  702000    0.9907562   -7.1796572    202.44967  0.024032487  0.024383149            8 
  703000   0.95978166   -7.2120062    201.88657  0.023931552  0.024361936            5 
  704000    0.9790337   -7.1677257    203.27451   0.02406185  0.024340883            6 
  705000   0.95791194   -7.1702983    203.36684  0.024038633  0.024320076            6 
  706000   0.96609393    -7.208931    202.33105  0.023882324  0.024299456            6 
  707000   0.97012763   -7.2014693     203.0827   0.02393714  0.024278762            3 
  708000   0.97409412   -7.1829365    203.48515  0.023950701   0.02425803           10 
  709000   0.98525049   -7.2116685    203.35719  0.023901879  0.024237003            6 
  710000   0.96721532   -7.2063952    203.40506  0.023873834  0.024216027            4 
  711000   0.97832786   -7.2042051    203.16808   0.02381248  0.024194882            3 
  712000   0.95735846    -7.186294    203.80897  0.023854046  0.024174104            3 
  713000   0.95339813   -7.2227368    203.95602  0.023837777  0.024153524            4 
  714000   0.96362514   -7.2287507    203.41836  0.023741639  0.024132865            8 
  715000   0.96878422   -7.2343746    203.77931  0.023750502  0.024112297            4 
  716000   0.95624027    -7.196769    204.38715  0.023788076  0.024091619            6 
  717000   0.93809401   -7.2067246     204.6368  0.023783914  0.024071266           11 
  718000   0.98890122   -7.1722105    204.74574  0.023763434  0.024050959            5 
  719000   0.94192122   -7.2138627    204.98566  0.023758189  0.024030684            3 
  720000   0.97466169   -7.2050631     205.3314  0.023765208  0.024010334            5 
  721000   0.98938635   -7.2418616    204.95371  0.023688593  0.023989915           15 
  722000   0.97131933    -7.201444    205.08885  0.023671382  0.023969684            8 
  723000   0.98435548   -7.2512445    205.43701  0.023678771  0.023949405            2 
  724000   0.96869564   -7.2282027    205.65532  0.023671193  0.023929134            2 
  725000   0.97069211   -7.2374694    205.87868  0.023664216  0.023908926            4 
  726000   0.95368024   -7.2417146    205.96188  0.023641171  0.023888629            9 
  727000   0.95150434   -7.2528766    205.77002   0.02358666  0.023868361            5 
  728000   0.94660419   -7.2853651     205.3769  0.023509261  0.023847908            7 
  729000   0.95620339    -7.296284    205.20464   0.02345732  0.023827165            9 
  730000   0.95863654   -7.2148506    206.56827  0.023580853  0.023806668           10 
  731000   0.98363304   -7.2536738    205.85095   0.02346682   0.02378621            4 
  732000   0.98197994   -7.2184632      206.759  0.023538138  0.023765822            4 
  733000   0.95490079   -7.2114707    207.15165  0.023550665  0.023745592            4 
  734000    0.9384892   -7.2026286    206.46437   0.02344055  0.023725272            4 
  735000   0.95015492   -7.2693445    206.10996  0.023368476  0.023704739            5 
  736000   0.96024536   -7.2335419    206.95532  0.023432441  0.023684322            4 
  737000    0.9764626    -7.224356    206.77395  0.023380139  0.023664182            9 
  738000   0.96039183    -7.243883    207.48247  0.023428463  0.023643937            3 
  739000   0.94507131   -7.2554034    207.62145  0.023412432  0.023623849            6 
  740000   0.96266473   -7.2540577    207.50708  0.023367915  0.023603798            3 
  741000   0.94479687   -7.2416461    207.93079  0.023384029  0.023583691            5 
  742000   0.95490527   -7.2543114    207.37003  0.023289536  0.023563594            4 
  743000   0.95283127   -7.2292214    207.82952  0.023309726  0.023543871            5 
  744000   0.95601118   -7.2677253    208.62189  0.023367148  0.023523766            4 
  745000   0.94603456   -7.2762696    207.91064  0.023256224  0.023503526            5 
  746000   0.97712739   -7.2421335    207.96592  0.023231224  0.023483325            6 
  747000   0.96078936   -7.2356747    208.32756  0.023240468  0.023463087            9 
  748000   0.97173331   -7.2602469    207.96781  0.023169319  0.023442912            3 
  749000   0.95967821    -7.274244    208.27842  0.023172944  0.023422467           14 
  750000   0.95593242   -7.2659319    208.33693  0.023148548  0.023401965            9 
  751000   0.93037142   -7.2524099    208.52828  0.023138957  0.023381627            4 
  752000   0.95800767   -7.2914629    208.52202  0.023107494   0.02336128            4 
  753000   0.93771842   -7.3013456    208.54595  0.023079455  0.023340943            5 
  754000   0.96788736    -7.249921    208.95749  0.023094329  0.023320541            6 
  755000   0.95050404   -7.2675143    208.54534   0.02301825  0.023300279            7 
  756000   0.95558659   -7.3180962     208.6088  0.022994797  0.023279767            3 
  757000   0.94434825   -7.2449191    209.22475  0.023032227   0.02325935            8 
  758000   0.96054758   -7.2264151    209.43211  0.023024638  0.023239164            5 
  759000   0.95085161   -7.2764748    209.29385  0.022979122  0.023218985            2 
  760000   0.94697252   -7.2751069    209.05759  0.022922981  0.023198789            4 
  761000   0.95465859   -7.2654543    209.47526  0.022938596  0.023178401            6 
  762000    0.9350476   -7.2588763    209.33875  0.022893564  0.023158351            6 
  763000   0.93892906   -7.2895122    209.98223  0.022933839  0.023138194            4 
  764000   0.97100091   -7.3095058    209.56527  0.022858341  0.023117913            4 
  765000   0.97946374   -7.2661708    209.73521  0.022846972  0.023097874            7 
  766000   0.94159305   -7.2693905    210.52787   0.02290338  0.023077901            7 
  767000   0.93851555   -7.2739056    210.30411  0.022849208  0.023057725            6 
  768000   0.95204388    -7.279769    210.35571  0.022825055  0.023037569            5 
  769000   0.93167868   -7.3233623     209.9752   0.02275414  0.023017361            6 
  770000   0.96826485   -7.3045008    210.38381   0.02276881  0.022997124            4 
  771000    0.9305484   -7.2809822    210.82197  0.022786637  0.022977073            2 
  772000      0.94392   -7.2653749    210.67713  0.022741486  0.022957303            3 
  773000    0.9651535    -7.323496    210.13782  0.022653927  0.022937199            9 
  774000   0.94723196   -7.3145297    210.74089  0.022689588  0.022916918            5 
  775000    0.9415065   -7.2613576    210.99828  0.022687987  0.022896716            8 
  776000   0.95174038   -7.3260155    210.47818  0.022602897  0.022876395            4 
  777000    0.9220085   -7.2864953    211.04494  0.022634592  0.022856047            3 
  778000   0.97072044   -7.3093781    211.28805  0.022631539  0.022835967            3 
  779000   0.94101097   -7.3163232    210.94553  0.022565846  0.022816134            4 
  780000   0.94973123   -7.3219912     211.2099  0.022565161  0.022796092            7 
  781000   0.92798617   -7.2934867    211.52403  0.022569785  0.022776075            4 
  782000   0.93704294   -7.2967499    211.69782  0.022559444  0.022756269            4 
  783000   0.95178453   -7.2819163    212.31057  0.022595846  0.022736293            8 
  784000   0.94072039   -7.2981771    212.18235  0.022553396  0.022716422            8 
  785000   0.94829199   -7.2590602    212.88249  0.022598991  0.022696603            7 
  786000   0.95062395    -7.280266    212.45354   0.02252476  0.022676848            6 
  787000   0.95679772   -7.3200343     212.3313  0.022483195  0.022657018            8 
  788000   0.93703631   -7.3054548    212.40048   0.02246198  0.022637147            3 
  789000   0.92347356   -7.2270021    212.69015  0.022464105  0.022617319            8 
  790000   0.92655549   -7.3022542    212.75146  0.022442137  0.022597534            4 
  791000   0.94830817   -7.3061773    212.41472  0.022378289   0.02257767            4 
  792000   0.95900837   -7.2903676    213.50562  0.022464817  0.022558026            9 
  793000   0.92855123   -7.3015787      212.627  0.022344158  0.022538071            7 
  794000   0.94481389   -7.3100106     212.5254  0.022305353  0.022518052           11 
  795000   0.91236603   -7.2493702     213.1205  0.022339675  0.022498261            8 
  796000   0.94837681   -7.3287117    212.82038   0.02228019  0.022478543            5 
  797000   0.94665772   -7.3454962    213.06898  0.022278229  0.022459169            3 
  798000   0.94509006   -7.3087925    213.31688  0.022276199  0.022439546            3 
  799000   0.93562121    -7.355006    213.52636  0.022270167  0.022419887           18 
  800000   0.92438203    -7.336796    213.42906  0.022232194  0.022400234            5 
  801000   0.93738797   -7.3391429    213.58647  0.022220815  0.022380522            5 
  802000    0.9356782   -7.3457751    213.90714  0.022226427  0.022360536            6 
  803000   0.93986882   -7.3299819    213.91039  0.022199085   0.02234073            7 
  804000    0.9409595   -7.3455567    214.00294  0.022181068  0.022321002           11 
  805000   0.96609427    -7.312738    213.84547  0.022137212  0.022301496           13 
  806000   0.93477858   -7.3112168    214.76816  0.022205145   0.02228213            5 
  807000   0.94306133   -7.3090736    214.86967  0.022188111  0.022262766            4 
  808000   0.93394554    -7.285674    215.23306  0.022198129  0.022243527            5 
  809000   0.92862806   -7.3282775    214.75867  0.022121825  0.022224209            8 
  810000   0.92943348   -7.3373179    214.43576  0.022061292  0.022204763            8 
  811000   0.93849603   -7.3608066    214.76873  0.022068304  0.022185201            3 
  812000   0.93719037   -7.3238962    215.05206  0.022070203  0.022165726            6 
  813000   0.94218604   -7.3677968    214.90083  0.022027555  0.022146226            9 
  814000   0.93393253   -7.3281674    215.16364  0.022027399   0.02212688            6 
  815000   0.91984132   -7.3137606    214.95236  0.021978769  0.022107483            9 
  816000   0.93752161   -7.3024566    215.53814  0.022011657  0.022088177           11 
  817000   0.92333721   -7.3392891     215.2748  0.021957854  0.022068844           10 
  818000   0.93346521   -7.3925842    215.48744  0.021952673  0.022049534            4 
  819000   0.91964987   -7.3331135    215.25358  0.021902074  0.022030057           12 
  820000   0.92632393    -7.360766      216.008  0.021952033  0.022010537            6 
  821000   0.93774711   -7.3594382    215.87307  0.021911598  0.021990981            6 
  822000   0.94835549   -7.3173778    215.58848   0.02185609  0.021971488            5 
  823000   0.92526498   -7.3435606    215.54615  0.021825248  0.021952056            8 
  824000   0.90571221   -7.3194696    216.45815  0.021890994  0.021932658            3 
  825000    0.9361471   -7.3503387    215.47741  0.021765395  0.021913055            5 
  826000   0.92357598   -7.3664989    215.46257  0.021737547    0.0218934            6 
  827000   0.93673738   -7.3579447    215.71774  0.021736975   0.02187386           10 
  828000   0.92491793   -7.3584501    215.75009  0.021713978  0.021854208            8 
  829000   0.93037366   -7.3958418    215.06028  0.021618444  0.021834393           17 
  830000   0.91354011   -7.3110692    216.40177  0.021727085  0.021814571            4 
  831000   0.91641267   -7.3685295    215.87922  0.021648538  0.021794849            3 
  832000   0.91322045   -7.3410184    215.94416  0.021629022  0.021775111            4 
  833000   0.93796186   -7.3467448    216.18543  0.021627194  0.021755237            7 
  834000   0.93242798   -7.3316599    216.71856  0.021654532  0.021735515            6 
  835000   0.91538078   -7.3549452    216.68164  0.021624914  0.021715669            4 
  836000   0.91349901   -7.3495236    216.05897  0.021536979  0.021695801            4 
  837000   0.91537219   -7.3984197    215.86745  0.021492179  0.021675863            4 
  838000    0.9221211   -7.3576583    216.89353  0.021568569  0.021655818            6 
  839000   0.94726525    -7.365987    216.65974  0.021519641  0.021636001            8 
  840000   0.92751751   -7.3556512    216.66705  0.021494747  0.021616259           15 
  841000   0.90812632   -7.3443309    216.88897  0.021491178  0.021596629            6 
  842000   0.92870231   -7.3999459    216.74856  0.021451758  0.021577057           11 
  843000   0.89918171   -7.3947726     216.9621   0.02144742    0.0215575           12 
  844000   0.90621381   -7.3761124    216.99579  0.021425335  0.021537941            7 
  845000   0.90108837   -7.3856168    216.62076  0.021362994  0.021518374            6 
  846000   0.86846156   -7.3599321    217.09095  0.021384058  0.021498586            4 
  847000   0.91067458   -7.3989038    216.92862  0.021342839  0.021478848            6 
  848000   0.91306992    -7.341075    217.72721  0.021396149  0.021459347           12 
  849000   0.90409815   -7.3643755    217.94886  0.021392703  0.021440019            4 
  850000   0.89974403    -7.385724    217.61236  0.021334545  0.021420587            4 
  851000   0.91290385   -7.3759463     217.7237  0.021320378   0.02140135            7 
  852000   0.90492292   -7.3801127     218.0978  0.021331944  0.021382114            6 
  853000   0.90678992   -7.3538344    218.07298  0.021304512  0.021362928            6 
  854000   0.92852676   -7.3383354    219.16456  0.021386081  0.021343962           13 
  855000   0.91630149   -7.4052197    217.64877  0.021213331  0.021324697            5 
  856000   0.90286855   -7.4224271    217.87454  0.021210528  0.021305236            4 
  857000   0.91267382   -7.3974837    217.55516  0.021154722  0.021285687           10 
  858000   0.90609678   -7.3986442    217.77733  0.021151644   0.02126628            7 
  859000   0.92243999   -7.3468439    218.69037  0.021215597  0.021246919            3 
  860000    0.8974269   -7.3920703    218.23052  0.021146368  0.021227709            4 
  861000   0.90608603   -7.3838455    218.09656  0.021108842  0.021208365            6 
  862000   0.90961904   -7.3924452    218.28733  0.021102797  0.021188944            5 
  863000   0.91635531   -7.4142687    217.57132  0.021009205  0.021169416            8 
  864000   0.88943323   -7.3769307    218.25647  0.021050971  0.021149944           16 
  865000   0.89244034   -7.4026312    218.74295  0.021073502  0.021130566            4 
  866000    0.8943734   -7.3766097    218.74334  0.021049205  0.021111166            5 
  867000   0.91677976   -7.3989685    218.87898  0.021037964   0.02109174            5 
  868000   0.90436261   -7.3655342    219.02054  0.021027318  0.021072424            7 
  869000   0.91714626   -7.3894039      218.369  0.020940641  0.021053104            5 
  870000   0.89760636   -7.3692582    219.12748  0.020989222  0.021033739            5 
  871000   0.90469579   -7.3481954    218.56359  0.020911173  0.021014589            4 
  872000   0.89999195   -7.3742151    219.37455  0.020964693  0.020995478            5 
  873000   0.90646966   -7.3842774    218.84364      0.02089  0.020976261            5 
  874000   0.90805392   -7.4101158    219.04858  0.020885639   0.02095681            6 
  875000   0.90584948   -7.4396868    218.86721  0.020844497  0.020937447            7 
  876000     0.879187   -7.4252242    218.83495  0.020817632  0.020917856            5 
  877000   0.91661942   -7.3999763    218.61472  0.020772969  0.020898391           13 
  878000   0.89873442   -7.3916191    218.91845  0.020778137  0.020878869            4 
  879000   0.90881885   -7.4204739    218.11069  0.020677919  0.020859274            7 
  880000   0.89811214   -7.4053126    218.90723  0.020729852   0.02083971            3 
  881000   0.90286083   -7.4395156    219.25412  0.020739133  0.020820018            5 
  882000   0.88659907   -7.4094393    219.14941  0.020705726  0.020800345            8 
  883000   0.90041782   -7.3980253    219.51548  0.020716825  0.020780799            8 
  884000   0.88019238   -7.4525918    218.72945  0.020619292  0.020761048           11 
  885000   0.88756845   -7.4540976    218.98458  0.020620017  0.020741428            4 
  886000   0.90259173   -7.4284564    219.94685  0.020687251  0.020721903           12 
  887000   0.90451975    -7.437605    219.78561  0.020648779  0.020702408            5 
  888000   0.89513104   -7.4341705    219.79838  0.020626725  0.020683005            9 
  889000   0.88074834   -7.4498689    219.45973  0.020571779  0.020663571           10 
  890000    0.9091908    -7.398536    219.37506  0.020540736  0.020644155            8 
  891000   0.89112385   -7.4539097    219.24913  0.020505904  0.020624768           10 
  892000   0.87036259   -7.4240189    219.94306  0.020547745  0.020605348            8 
  893000   0.89190867   -7.4347169    220.25685  0.020554018  0.020585911           10 
  894000   0.89846272    -7.432568    220.53939  0.020557363  0.020566774            7 
  895000    0.9043099   -7.4493125    219.58122  0.020445179  0.020547659            8 
  896000   0.89582956   -7.4364192    221.04784  0.020558765  0.020528574            9 
  897000   0.88758933   -7.4428002    220.86815  0.020519152  0.020509506            4 
  898000   0.88570952   -7.4360182    220.36831  0.020449918  0.020490171            3 
  899000   0.92016684   -7.4662592     220.4302  0.020432907  0.020470961            7 
  900000    0.9125669   -7.4535036    219.99656  0.020370052  0.020451799           13 
  901000   0.88391063   -7.4369806    220.97181  0.020437644  0.020432611            5 
  902000   0.89098268   -7.4368538    220.82638   0.02040155  0.020413531           10 
  903000   0.89481641   -7.4289177    221.32372  0.020424854  0.020394492           14 
  904000   0.91750933   -7.3991425    221.18551   0.02038952  0.020375633            5 
  905000   0.89572792     -7.45528    220.91938  0.020342484  0.020356661            5 
  906000   0.87832618   -7.4938603     220.7954  0.020308628  0.020337554           11 
  907000   0.87249981   -7.4499227    221.10211  0.020314416  0.020318434            8 
  908000   0.87548754   -7.4524176    221.25747  0.020306302  0.020299401           15 
  909000   0.90417546   -7.4961261    221.27559  0.020285624  0.020280355            4 
  910000   0.90542308   -7.4539766    221.06567  0.020244109  0.020261562            9 
  911000     0.869189    -7.434875    221.86477  0.020294984  0.020242739            6 
  912000   0.90109207   -7.4768267     221.3878  0.020229149  0.020224041            8 
  913000   0.88394157    -7.476141    221.83383  0.020247703  0.020205238            6 
  914000   0.91381285   -7.4489391    221.62778  0.020206764  0.020186332           16 
  915000    0.8896401   -7.4714781    221.65308  0.020186984  0.020167527           12 
  916000   0.90185812   -7.4620924     221.3694  0.020139138  0.020148675            5 
  917000   0.90550889   -7.4313859    222.03125  0.020177322  0.020129949            8 
  918000   0.89680777   -7.4463569    221.99401  0.020151961  0.020111136            4 
  919000    0.8860819   -7.4509795    222.01876  0.020132278  0.020092411            7 
  920000   0.88423874   -7.5187048    221.78242  0.020088987  0.020073569           26 
  921000   0.88260519   -7.4605742    221.56886  0.020047852  0.020054645            6 
  922000   0.88347559   -7.4430826    221.93832  0.020059501  0.020035799           13 
  923000   0.88292075   -7.4818191    222.04143  0.020047078  0.020016982           19 
  924000   0.89208192   -7.4552426    221.56242  0.019982181  0.019998064           29 
  925000   0.91019336   -7.4794893    221.61866  0.019965645  0.019979153            8 
  926000   0.87655354   -7.4682656    222.24759  0.020000683  0.019960494            7 
  927000   0.86366919   -7.4900105    221.59835  0.019920744  0.019941854            7 
  928000   0.88498425   -7.4546335    222.31104  0.019963276  0.019923061            8 
  929000   0.87590224   -7.4917962    222.36098  0.019946266  0.019904372           10 
  930000   0.88245682   -7.4694877    222.73594  0.019958418  0.019885638           15 
  931000    0.8732668    -7.501764    222.16794  0.019886139  0.019866912           13 
  932000   0.88171201   -7.4692796     223.2446  0.019961069  0.019848243           17 
  933000   0.87891686   -7.5056566    222.14381  0.019841355  0.019829527            4 
  934000   0.88200385   -7.5312801    222.48796  0.019850818  0.019810563            6 
  935000   0.87979114   -7.5107204    222.13195  0.019797857  0.019791888            6 
  936000   0.89422023   -7.5067953    222.27905  0.019789802  0.019773188            6 
  937000   0.89661251   -7.4898148    222.91509  0.019825249  0.019754516            6 
  938000   0.87205273   -7.5167505    222.17612  0.019738461  0.019735733           10 
  939000   0.89000712   -7.4767017    222.86522  0.019778596  0.019717058           12 
  940000   0.88036345   -7.4932718    223.33313  0.019799037  0.019698457            6 
  941000   0.88193142   -7.4941736    222.78943  0.019729847  0.019679858            4 
  942000   0.88667926   -7.4992928    223.25572  0.019750153  0.019661322           10 
  943000   0.87756624   -7.5128023    222.90822    0.0196985   0.01964284           17 
  944000   0.86745514   -7.5255627    222.53004  0.019644248  0.019624126           13 
  945000   0.87695421   -7.5064836    223.38188  0.019698579  0.019605556           11 
  946000   0.85534395   -7.5398696    222.65143   0.01961341  0.019586817           12 
  947000   0.87634275   -7.4980125    223.21885   0.01964263  0.019568265            8 
  948000   0.86433629   -7.5571469    222.78275  0.019583575  0.019549663            7 
  949000   0.88846587   -7.5107674    223.70798  0.019644185   0.01953119            5 
  950000   0.87631823    -7.533003    223.40163  0.019596634  0.019512766            4 
  951000   0.86648038    -7.510411    223.88363  0.019618264  0.019494356           11 
  952000   0.88917691   -7.4989339    224.12288  0.019618599  0.019476171           10 
  953000   0.86295518   -7.5318127    223.62608  0.019554572  0.019458026            8 
  954000   0.87236702   -7.4991877    223.52951  0.019525639  0.019439773            8 
  955000   0.86213118   -7.5239277    223.79128  0.019528035  0.019421495            7 
  956000    0.8628514   -7.5181244    223.92929  0.019519638  0.019403416            6 
  957000   0.88336794   -7.4883525    224.49352  0.019548373   0.01938548            6 
  958000   0.86678386   -7.5187418    223.87145  0.019473856  0.019367463            9 
  959000   0.89395834   -7.5320414    224.14932  0.019477696  0.019349417           10 
  960000   0.86792996   -7.4948111    224.80947  0.019514711  0.019331417            9 
  961000   0.86063065   -7.5174238    225.05899  0.019516042  0.019313559            5 
  962000   0.85990534   -7.5233009    224.82955  0.019475879  0.019295717            7 
  963000   0.87727664   -7.5184168    224.99401  0.019469887  0.019277754           11 
  964000     0.871691   -7.5193919    224.90977  0.019442407  0.019259749            6 
  965000   0.86182474   -7.5140735    224.99785  0.019429866  0.019241945            7 
  966000   0.84947426   -7.4870709    225.59357  0.019461143  0.019224319            8 
  967000   0.86563284   -7.5471276    225.15754  0.019403442  0.019206629            4 
  968000   0.86142184   -7.5098163    225.83477  0.019441699  0.019189055           16 
  969000   0.88009495   -7.5767915    225.15529    0.0193632  0.019171509            7 
  970000   0.87510696   -7.5303999    225.18912  0.019346145  0.019153894            5 
  971000   0.87337313   -7.5472971     225.7724  0.019376279  0.019136342            6 
  972000   0.88894498   -7.5194442     225.7385  0.019353438  0.019118835           10 
  973000   0.85058138   -7.5419305    225.90495  0.019347803  0.019101388           10 
  974000   0.87180723   -7.5688885    225.44182  0.019288314   0.01908371            7 
  975000   0.84837497   -7.5331563     225.1523  0.019243787  0.019066132            5 
  976000   0.87506668   -7.5487753    226.09813  0.019304827  0.019048482            6 
  977000   0.85862447    -7.550384    225.83317  0.019262468  0.019030877            9 
  978000    0.8749765   -7.5582737    225.41058  0.019206764  0.019013265            8 
  979000   0.86158181    -7.531917    226.04405  0.019241066   0.01899577           13 
  980000   0.86742391   -7.5452461    225.77246  0.019198339  0.018978303           11 
  981000    0.8527898   -7.5313816    226.13057  0.019209189  0.018960859           16 
  982000   0.86214477   -7.5674864    225.31735  0.019120617  0.018943403           10 
  983000   0.85030146    -7.542693     226.5033  0.019201704  0.018926019            8 
  984000   0.84948339   -7.5250873    225.91432  0.019132311  0.018908566           16 
  985000   0.85931149    -7.538161     226.4037   0.01915429  0.018891119            9 
  986000   0.88596163   -7.5734664    225.71768  0.019076883   0.01887355           10 
  987000   0.85612525   -7.5250763    226.60173  0.019132196  0.018856125            9 
  988000   0.85761045   -7.5707426     226.5204  0.019105972  0.018838765            5 
  989000   0.88113587   -7.5772794    226.33114  0.019070706  0.018821334            7 
  990000   0.86009723   -7.5862036    225.96196  0.019020367  0.018803867           10 
  991000   0.87051977   -7.5556094    226.72122   0.01906502  0.018786718            4 
  992000   0.86464175   -7.5621045    227.24461  0.019089769  0.018769566           10 
  993000    0.8411304   -7.5180989    227.31979  0.019076854  0.018752462           10 
  994000    0.8412475   -7.5749248    226.70465  0.019006091  0.018735259           10 
  995000   0.87202343   -7.5863187     226.0168   0.01892938  0.018717924           12 
  996000   0.84028063   -7.6062919    226.64944  0.018963306  0.018700596           12 
  997000   0.85420833   -7.5954986    226.84585  0.018960703  0.018683339           29 
  998000   0.85664607   -7.5548719    227.12443  0.018964965  0.018666156           23 
  999000     0.851646    -7.575149    227.08728  0.018942883  0.018648921            8 
 1000000   0.86214198   -7.5722816    227.20868  0.018934057  0.018631763           34 
 1001000   0.84951945   -7.5801078    227.04238  0.018901297  0.018614654           26 
 1002000   0.85142664   -7.5510675    228.06954  0.018967859  0.018597599           15 
 1003000   0.84820233   -7.5503525    228.09475  0.018951043  0.018580687            8 
 1004000   0.83413405   -7.5626147    227.49353  0.018882265  0.018563637           13 
 1005000   0.85443008   -7.5648158    227.37655  0.018853777  0.018546637           15 
 1006000   0.84596787    -7.556275    226.92669  0.018797771  0.018529628           11 
 1007000   0.85952949    -7.582026     227.4977  0.018826357  0.018512699           12 
 1008000   0.85822893   -7.5847029    227.65947  0.018821054  0.018495793            5 
 1009000   0.85880835   -7.5886961    227.23009  0.018766938  0.018478732            7 
 1010000   0.85340087   -7.5942632    227.44398  0.018766005  0.018461766           12 
 1011000   0.85454594    -7.582743    227.04189    0.0187143  0.018444703           13 
 1012000   0.84590091   -7.6123074    226.88622  0.018682989  0.018427563           17 
 1013000   0.86611822   -7.5997898    227.65576  0.018727851  0.018410372           14 
 1014000   0.85050012   -7.6245492    227.13344  0.018666456  0.018393219           13 
 1015000   0.84109103   -7.5931893     227.6175  0.018687808  0.018376025           13 
 1016000   0.86400594   -7.6035726    227.15529  0.018631504  0.018358916           12 
 1017000   0.85674737   -7.6248172    227.51099   0.01864233  0.018341796            9 
 1018000   0.84696096   -7.6198376    228.17234  0.018678155  0.018324757           12 
 1019000    0.8674951   -7.5946932    227.70091  0.018621272  0.018307791            7 
 1020000   0.84621581   -7.6077864    227.59233  0.018594145   0.01829091           16 
 1021000   0.85860675   -7.6145016    227.67407  0.018582604  0.018273967            7 
 1022000   0.83628141   -7.5988096    227.99272  0.018590405  0.018257013            6 
 1023000      0.83373   -7.5794457    227.87478  0.018562625  0.018240098           10 
 1024000   0.83315676   -7.5634993    228.08566  0.018561658  0.018223273           10 
 1025000    0.8303236   -7.5619766    227.92056  0.018530127  0.018206332            6 
 1026000   0.83150075   -7.6003433    227.75452  0.018498581  0.018189455           10 
 1027000   0.83419798   -7.5980292    228.34729  0.018528667  0.018172592           10 
 1028000   0.82319679    -7.601297     227.6213  0.018451792  0.018155852           21 
 1029000   0.84743933    -7.599321    228.53266  0.018507666  0.018138946           14 
 1030000   0.83585449   -7.6086646     228.0446   0.01845021  0.018122059           29 
 1031000   0.84380186   -7.6268689    227.74515  0.018408111  0.018105122           27 
 1032000   0.84752133   -7.5982864    228.12718  0.018421123  0.018088226           16 
 1033000   0.84564159   -7.6387864    228.37494  0.018423277  0.018071326           23 
 1034000   0.83270563   -7.6357797     228.3844  0.018406222  0.018054435           16 
 1035000    0.8457934   -7.6309853    228.76199   0.01841884  0.018037521            4 
 1036000   0.82876355   -7.6567683    228.24605   0.01835956  0.018020794           17 
 1037000    0.8290105   -7.6418179    228.04993  0.018326095   0.01800393           25 
 1038000   0.83785229   -7.6434579    228.78498  0.018367452  0.017987141           11 
 1039000   0.83150826   -7.6141953     228.6689  0.018340464  0.017970381           11 
 1040000   0.83472781   -7.6667381    228.46863  0.018306781  0.017953634           21 
 1041000   0.83888179   -7.6782762    228.02277  0.018253504  0.017936763            9 
 1042000   0.83434607   -7.6275538    228.58281  0.018280775  0.017919904            5 
 1043000   0.84808451   -7.6298007    228.74347  0.018276084  0.017903262            5 
 1044000    0.8076026   -7.6330894     228.7055  0.018255548  0.017886598           24 
 1045000   0.83663515   -7.6185596    228.40524  0.018214134  0.017869928           16 
 1046000   0.85530433   -7.6259618    228.54044  0.018207492  0.017853359            8 
 1047000   0.82691685   -7.6285507    228.71903  0.018204317  0.017836736            9 
 1048000   0.84207615   -7.6443319    228.84288  0.018196794  0.017820103            7 
 1049000   0.84140273   -7.6369603    228.59585  0.018159823   0.01780356           14 
 1050000   0.83109588   -7.6430431    229.24312  0.018193899  0.017787002            8 
 1051000   0.83923134   -7.6365189    228.68062  0.018131987  0.017770574            8 
 1052000   0.82772434   -7.6622741    229.21568  0.018157136  0.017754038           11 
 1053000   0.83155111   -7.6747246    228.84948  0.018110911  0.017737609            9 
 1054000   0.82945121   -7.6522024    229.42393  0.018139147  0.017721052            5 
 1055000   0.82558487   -7.6362789    229.75032  0.018147735  0.017704537            6 
 1056000   0.85766762    -7.682258    228.58962  0.018038954  0.017688024           14 
 1057000   0.83702261   -7.6467869    229.04567  0.018057842  0.017671467           13 
 1058000   0.83443369   -7.6464857    228.89389   0.01802882  0.017654981            9 
 1059000   0.83994559   -7.6629707    229.44994  0.018055551  0.017638523           12 
 1060000    0.8427622    -7.647012    229.13455  0.018013723  0.017622045           11 
 1061000   0.82797899   -7.6233173    229.18032  0.018000339  0.017605685            5 
 1062000   0.82754641    -7.616099    230.41651  0.018080392  0.017589454            7 
 1063000   0.83099923   -7.6577945     229.6134  0.018000423  0.017573165            7 
 1064000   0.84146832   -7.6439134    229.00445  0.017935812  0.017556766           12 
 1065000   0.81783176   -7.6383975    229.73564  0.017976185  0.017540407            8 
 1066000   0.83653691   -7.6299678      229.847  0.017968027  0.017524101            7 
 1067000   0.83066607   -7.6384661    229.35863  0.017913045  0.017507784            4 
 1068000   0.82690379   -7.6354935    229.82031  0.017932297   0.01749154            7 
 1069000   0.84031827   -7.6542918    229.69282  0.017905583  0.017475301            7 
 1070000   0.83649204   -7.6580614    229.56447  0.017878853  0.017458935           10 
 1071000   0.83263489   -7.6356226    229.59249  0.017864339  0.017442647            7 
 1072000    0.8373413   -7.6635136    229.56397  0.017845458  0.017426381           10 
 1073000   0.80995122    -7.630194    229.80099  0.017847235  0.017410198           16 
 1074000   0.82326834   -7.6402678    229.73892    0.0178258  0.017393878            7 
 1075000   0.80176285   -7.6557834    229.52207  0.017792409  0.017377583            7 
 1076000   0.83821699   -7.6708601    229.81597  0.017798634  0.017361332           10 
 1077000   0.82279099   -7.6781568    229.48892  0.017756803  0.017344943           17 
 1078000   0.82430906   -7.6846926    229.89842  0.017771987  0.017328519           12 
 1079000   0.82523117   -7.6962212     229.2503   0.01770546  0.017312203           14 
 1080000   0.81138828   -7.6702061    230.00648  0.017747413  0.017295909           38 
 1081000   0.82972385   -7.6971663    229.89727  0.017722577  0.017279698           11 
 1082000   0.82545216   -7.7181615    229.71536  0.017692187  0.017263468           22 
 1083000   0.83501148   -7.6772988    230.09666  0.017705191  0.017247266           20 
 1084000   0.82786559   -7.6798678     229.4934  0.017642481  0.017231136           47 
 1085000   0.81087631   -7.6887095    230.00441  0.017665469  0.017214967           47 
 1086000   0.81448654   -7.7188995    230.16675   0.01766166  0.017198759           49 
 1087000   0.81359238   -7.7114712    229.33053  0.017581304  0.017182497           40 
 1088000   0.81983767   -7.7047532    230.14732  0.017627705  0.017166345           25 
 1089000   0.82491656   -7.6937652    229.73993  0.017580344  0.017150176           12 
 1090000   0.81432066   -7.6854345    230.41653  0.017615943  0.017134076            7 
 1091000   0.83767657    -7.693199    230.26134  0.017587942   0.01711805           13 
 1092000   0.81332501   -7.6695388    230.31743  0.017576117  0.017102058           13 
 1093000   0.80889276    -7.701063    230.22674  0.017553121  0.017086041           12 
 1094000   0.81211531   -7.7196134    229.87461  0.017510254  0.017069918           21 
 1095000   0.82799656   -7.6865559    230.19049  0.017518302  0.017053825           13 
 1096000    0.8341555   -7.6743757    230.18187  0.017501663  0.017037771            7 
 1097000   0.80689555   -7.6950117    230.22182  0.017488743    0.0170217           17 
 1098000   0.80668566   -7.7087265    230.40235  0.017486517  0.017005714            9 
 1099000   0.82021651   -7.7192178    230.72024  0.017494711  0.016989633           10 
 1100000   0.81648961   -7.6798945    230.35489  0.017451128  0.016973623           11 
 1101000   0.80611472   -7.7193886    230.39912  0.017438626    0.0169576            6 
 1102000    0.8053545   -7.7412373     229.7064  0.017370417  0.016941524           16 
 1103000   0.80009394   -7.7175835    229.92706   0.01737134  0.016925388           11 
 1104000   0.81367688    -7.702159    229.89947  0.017353523  0.016909402           15 
 1105000   0.80012291   -7.7100404     230.4132  0.017376561  0.016893487           24 
 1106000   0.81459871   -7.7109157    230.21831  0.017346165  0.016877599           25 
 1107000   0.81091574   -7.7199648    230.75694  0.017371044  0.016861698           24 
 1108000   0.81603947   -7.6979621    230.29724  0.017320791  0.016845739           13 
 1109000   0.80623768   -7.7249493    229.94305  0.017278558   0.01682982           13 
 1110000   0.81210844   -7.7090111    230.40851  0.017297936  0.016813873           10 
 1111000   0.81825313    -7.758604    229.66299  0.017226447  0.016797989           23 
 1112000   0.79416003   -7.7110194    230.32586  0.017260631  0.016782093           10 
 1113000   0.81483969   -7.7200847     230.8854  0.017287017  0.016766235           18 
 1114000   0.79958057   -7.7161529     229.9022   0.01719795  0.016750399           15 
 1115000   0.78694157   -7.7465236    230.13502  0.017199926  0.016734488           24 
 1116000   0.79293931   -7.7557695    230.82999  0.017236409  0.016718595           57 
 1117000   0.80093979   -7.7323614    230.19992  0.017173972  0.016702729           14 
 1118000   0.80725557    -7.754513    230.52259  0.017182662  0.016686984           31 
 1119000   0.81090191   -7.7489832    229.95211  0.017124822  0.016671215           13 
 1120000   0.79143984   -7.7149834    230.81838  0.017173987  0.016655391           14 
 1121000   0.81792635    -7.694302    230.59803  0.017142286  0.016639665            9 
 1122000   0.81970819    -7.731124    230.72001  0.017136067  0.016623982           19 
 1123000   0.81301765   -7.7357522    230.36581  0.017094525  0.016608272           20 
 1124000   0.80868499   -7.7063215    231.37656  0.017154253  0.016592603            5 
 1125000   0.81799702   -7.6792975    231.77048  0.017168184  0.016577096            4 
 1126000    0.8000916   -7.7532734    230.53351  0.017061391  0.016561506           12 
 1127000   0.80243246   -7.7245205    231.32218  0.017104569  0.016545862           14 
 1128000   0.80949405   -7.7368012    230.67852  0.017041853  0.016530133            4 
 1129000   0.80485004   -7.7411998    231.03669  0.017053195  0.016514491           13 
 1130000   0.81429617   -7.7409494    230.75353  0.017017222  0.016498924           12 
 1131000   0.81387493   -7.7637729    231.27217   0.01704039  0.016483343           13 
 1132000   0.78741965   -7.7097744    230.93636  0.017000615   0.01646772           10 
 1133000   0.81205922   -7.7321124    230.88351  0.016981723  0.016452069           10 
 1134000   0.80175702   -7.7465777    231.47842  0.017010466  0.016436489           11 
 1135000   0.79868722   -7.7798144    230.98536  0.016959277  0.016420947           15 
 1136000   0.80138473   -7.7533162    230.82316   0.01693245  0.016405389           10 
 1137000    0.8072704   -7.7565486     231.1577  0.016942077  0.016389856            5 
 1138000   0.80094898   -7.7491938    231.45389  0.016948879  0.016374512            6 
 1139000   0.78258531   -7.7750465    231.35883  0.016927043  0.016359115           13 
 1140000   0.80054896   -7.7570791    231.05625  0.016890077  0.016343736            6 
 1141000   0.80452858   -7.7340074    231.44113  0.016903384  0.016328356            9 
 1142000   0.80324362   -7.7688765    231.09569  0.016863375  0.016312907           11 
 1143000   0.78256266   -7.7559602    231.41929  0.016872214  0.016297535           24 
 1144000   0.80454724   -7.7450266     231.6523  0.016874439  0.016282238           16 
 1145000   0.80199547   -7.7324322    231.43787  0.016844095  0.016266921           12 
 1146000   0.79793606   -7.7379141     231.7766  0.016854029  0.016251632           10 
 1147000    0.8155353   -7.7268362      231.214   0.01679846  0.016236291           12 
 1148000   0.80187314   -7.7434958    231.36799  0.016795005  0.016220959            8 
 1149000   0.78701329   -7.7702114    230.92436  0.016748213  0.016205594           21 
 1150000   0.78977024    -7.795892    230.95522  0.016735885  0.016190256           19 
 1151000   0.80392188   -7.7806335    232.12253   0.01680586  0.016174891           13 
 1152000   0.78917845   -7.7720145    231.01367  0.016711058  0.016159587           15 
 1153000   0.79287449   -7.7682986    231.36128  0.016721688  0.016144304           12 
 1154000   0.80282242   -7.7733958    232.10782  0.016761108  0.016129045           14 
 1155000   0.80241369   -7.7629001    231.27008  0.016686153  0.016113834           18 
 1156000   0.78360184   -7.7714381    231.82612  0.016711802  0.016098613           17 
 1157000   0.79656337   -7.7945732    231.38638  0.016665685  0.016083346           17 
 1158000    0.7863979    -7.775496    231.60348  0.016666917   0.01606811           15 
 1159000   0.78357326   -7.7586958    231.85262   0.01667045  0.016052919           10 
 1160000   0.79573454   -7.7804574    231.74052  0.016648026  0.016037782           12 
 1161000   0.79209008   -7.7878287    231.81909  0.016639326  0.016022711           10 
 1162000   0.77636531   -7.7735623    231.85532  0.016627605  0.016007612           10 
 1163000   0.78845348     -7.79603    231.65083  0.016598655  0.015992584           22 
 1164000   0.77908037   -7.8024978    231.68995  0.016587196  0.015977446           16 
 1165000   0.77414834   -7.7685016    231.97859  0.016593605  0.015962377           14 
 1166000   0.77862405   -7.7470621    232.17608  0.016593488  0.015947294           16 
 1167000   0.79357741   -7.7770459    231.77614   0.01655071  0.015932275           17 
 1168000   0.79647736    -7.760414    232.15254  0.016563395  0.015917269           17 
 1169000   0.78057088    -7.805997    231.94543  0.016534462  0.015902248           18 
 1170000    0.7989155   -7.7843701      231.961  0.016521438  0.015887191           14 
 1171000   0.78155079   -7.8049758    231.48598  0.016473526  0.015872095           20 
 1172000   0.78150733   -7.8168829    231.42211  0.016454928   0.01585696           24 
 1173000    0.7840007   -7.8435962     231.7092  0.016461296   0.01584193            8 
 1174000    0.7959307   -7.7929129    232.35043  0.016492791  0.015826936           16 
 1175000   0.77805327   -7.8143529    232.12418  0.016462708  0.015811975           28 
 1176000   0.80178588   -7.7990584    231.97458  0.016438108  0.015797026           11 
 1177000   0.81383096   -7.7855907    232.21318  0.016441035  0.015782152           16 
 1178000   0.76151205   -7.7811132    232.26788  0.016430948  0.015767324           17 
 1179000    0.7872649   -7.7979009    232.18655  0.016411263  0.015752434            7 
 1180000   0.77849981   -7.8011593    232.60161  0.016426667  0.015737542           26 
 1181000   0.76918093   -7.8196863    232.36827  0.016396293  0.015722725           17 
 1182000   0.80216805   -7.8139018    232.39767  0.016384494  0.015707995           18 
 1183000   0.77506263   -7.7912541     232.8423  0.016401965  0.015693334           23 
 1184000   0.79440893   -7.7909875    232.64507  0.016374231   0.01567869           43 
 1185000   0.76451239   -7.8167938    232.30956  0.016336819  0.015663984           27 
 1186000    0.7842478   -7.8034345    232.80048  0.016357538  0.015649344           39 
 1187000   0.77607396   -7.8181803    232.92524  0.016352516  0.015634697           42 
 1188000   0.76989156   -7.8133318    232.58948  0.016315199  0.015620033           34 
 1189000   0.80227852   -7.8263901    232.49669  0.016294974  0.015605363           45 
 1190000   0.78232964   -7.8310797    232.49113  0.016280891   0.01559064           46 
 1191000   0.78141404   -7.8235623    232.58256  0.016273619  0.015575995           57 
 1192000   0.77307915   -7.7976292    232.72353  0.016269822  0.015561432           74 
 1193000   0.77849488   -7.8216427    232.73923   0.01625728  0.015546888           22 
 1194000   0.78237896   -7.8291339    232.22388  0.016207697  0.015532316           45 
 1195000   0.78338737   -7.8193244    232.62337  0.016221992  0.015517711           27 
 1196000    0.7880571    -7.824365    232.77947  0.016219305  0.015503094           23 
 1197000   0.76301445   -7.7968681    232.30269  0.016172562   0.01548848           38 
 1198000   0.77695122   -7.8693806    232.03553  0.016140479  0.015473901           34 
 1199000   0.77867421   -7.8655298    231.96514  0.016122125  0.015459274           59 
 1200000   0.76323922   -7.8391457    232.27964  0.016130531  0.015444664           33 
 1201000   0.77817064   -7.8126632    232.82574  0.016154992  0.015430063           38 
 1202000   0.76906568    -7.857564    232.36097   0.01610933  0.015415444           31 
 1203000   0.78673539   -7.8443658    232.77272  0.016124461   0.01540087           11 
 1204000   0.77074759   -7.8516749    231.63183  0.016032104  0.015386213           23 
 1205000   0.76900594   -7.8415862    232.25369  0.016061805  0.015371559           38 
 1206000   0.77146779    -7.864198    231.63755  0.016005911  0.015356924           32 
 1207000   0.78631531   -7.8462308    232.67746  0.016064448  0.015342378           38 
 1208000   0.77055049   -7.8596944    232.64023  0.016048581  0.015327839           16 
 1209000   0.75280197   -7.8527025    232.77233  0.016044412  0.015313356           39 
 1210000   0.77461572   -7.8610189    232.68413  0.016025078  0.015298841           33 
 1211000   0.76195465   -7.8738528    232.19264  0.015978024  0.015284315           35 
 1212000   0.74778126   -7.8681134    232.46881  0.015983829  0.015269789           15 
 1213000   0.75860544   -7.8302601    232.92152  0.016001753  0.015255366           19 
 1214000   0.75206359   -7.8528101    232.31665  0.015947052  0.015240915           23 
 1215000   0.76322712   -7.8655886    232.89682  0.015973719  0.015226557           50 
 1216000   0.77228842   -7.8643348    232.70135  0.015947187  0.015212213           21 
 1217000   0.76834856   -7.8382837    233.17077  0.015966227  0.015197831           12 
 1218000   0.76849141   -7.8613047    232.37635  0.015898765  0.015183516           34 
 1219000   0.77840431   -7.8392999    232.98412  0.015927271  0.015169209           43 
 1220000   0.76757108   -7.8548596    233.28238  0.015934589  0.015154905           12 
 1221000   0.76458714   -7.8634043    232.48035    0.0158668  0.015140637           18 
 1222000   0.77829907   -7.8694695    232.89304  0.015881959   0.01512637           36 
 1223000   0.75023695   -7.8770519    233.13202  0.015885256  0.015112059           25 
 1224000   0.75306647   -7.8779023    232.73692  0.015845379  0.015097833           36 
 1225000   0.75958494     -7.89734    232.12344   0.01579071  0.015083616           34 
 1226000   0.75729809   -7.8793365    233.42643  0.015866397  0.015069351           30 
 1227000   0.76725422   -7.9066218    232.19048  0.015769525  0.015055103           25 
 1228000   0.76477811   -7.9039896    232.60034  0.015784497  0.015040867           46 
 1229000   0.75700361   -7.8987447      233.125  0.015807228  0.015026621           36 
 1230000   0.78117959   -7.9050334    232.68105  0.015764299   0.01501238           61 
 1231000   0.76500217    -7.883623    233.00464  0.015773398  0.014998196           43 
 1232000   0.74686034   -7.9007686    233.11517  0.015768072  0.014984031           40 
 1233000   0.76292457   -7.8613051    233.39163  0.015773968  0.014969894           32 
 1234000   0.75658184   -7.8963313    232.90401  0.015728256  0.014955812           44 
 1235000   0.76751442   -7.8985752    232.90518  0.015715599    0.0149417           38 
 1236000    0.7696167   -7.9070314    232.82517   0.01569749  0.014927525           44 
 1237000   0.75175517   -7.9116751    232.84111  0.015685874  0.014913376           41 
 1238000   0.77090136   -7.8712777    232.71556  0.015664752  0.014899289           60 
 1239000   0.75986923    -7.905019    232.90145  0.015664612  0.014885224           73 
 1240000   0.74688594   -7.8834858    232.69243  0.015637932  0.014871177           35 
 1241000   0.75362836   -7.9271792    232.40854  0.015606268   0.01485712           66 
 1242000   0.74257719   -7.9226611     233.1102  0.015640781  0.014843013           54 
 1243000   0.76359649   -7.9097933     232.9355  0.015616486  0.014828951           41 
 1244000   0.74725247   -7.9040076    232.83314  0.015597076  0.014814917           31 
 1245000   0.75073319   -7.9190264    232.50497  0.015562582  0.014800916           51 
 1246000   0.76746049   -7.9253961    233.38047  0.015608646  0.014786923           45 
 1247000   0.76183146   -7.9201043     232.7923  0.015556823  0.014772857           55 
 1248000   0.73598847   -7.9155651    233.02454  0.015559865  0.014758818           46 
 1249000   0.76843915   -7.9288713    232.83997  0.015535093  0.014744784           48 
 1250000    0.7617545   -7.9178982    233.26317  0.015550878  0.014730782           42 
 1251000   0.74599441   -7.9190824    233.16764  0.015532084  0.014716839           47 
 1252000   0.74596327   -7.9404919    232.24745   0.01545843  0.014702875           31 
 1253000   0.74934897   -7.9215094    233.09675  0.015502577  0.014688893           33 
 1254000   0.73953647    -7.909952    232.74861  0.015467079  0.014674903           65 
 1255000   0.74355899   -7.9395417    233.20109    0.0154848  0.014660949           45 
 1256000   0.75297817    -7.935303      232.556  0.015429671  0.014646961           37 
 1257000   0.74766781   -7.9517703    231.92058  0.015375271  0.014633005           54 
 1258000   0.74662336   -7.9299293    233.07894  0.015439781  0.014619026           19 
 1259000   0.75371505   -7.9409561    232.44316  0.015385435  0.014605099           56 
 1260000     0.755416    -7.954262    232.58237  0.015382432  0.014591104           51 
 1261000   0.74782845   -7.9335255    232.37096  0.015356262  0.014577184          102 
 1262000   0.75379554   -7.9688405    232.78885  0.015371689  0.014563187           35 
 1263000   0.77075449   -7.9432267    232.81877  0.015361492   0.01454927           60 
 1264000   0.74760623   -7.9342297    232.49626  0.015328076  0.014535302           62 
 1265000   0.75360704   -7.9709621    231.97495  0.015281617  0.014521308           63 
 1266000   0.74246569   -7.9529795    232.47532  0.015302483  0.014507306           72 
 1267000   0.74353448   -7.9408292    232.35954   0.01528279  0.014493307           39 
 1268000   0.74796384   -7.9690206     232.4317   0.01527548  0.014479329           72 
 1269000   0.75493551   -7.9821062    232.41329  0.015262233  0.014465354           65 
 1270000    0.7557096   -7.9634306    232.37541   0.01524773  0.014451385           41 
 1271000   0.77110403   -7.9678821    232.01716  0.015212245  0.014437443           57 
 1272000   0.74585365   -7.9747221    232.23875  0.015214803  0.014423514           64 
 1273000   0.73253427   -7.9889558    232.49162  0.015219404  0.014409606           88 
 1274000   0.74738991   -7.9715912    232.42287  0.015202961  0.014395688           67 
 1275000   0.75818152   -7.9532546    231.57089  0.015135352   0.01438175           52 
 1276000     0.745905   -7.9724732    232.25123  0.015167922  0.014367884           59 
 1277000    0.7340903   -7.9403639     232.1607  0.015150137  0.014353993           83 
 1278000   0.73149709     -7.96823    232.21585  0.015141878  0.014340085           60 
 1279000    0.7468871   -7.9755621    232.93219  0.015176713  0.014326219           64 
 1280000   0.74280426   -7.9610513    232.18258  0.015116053   0.01431237           80 
 1281000   0.73180045   -7.9697354    232.18971  0.015104717  0.014298497           75 
 1282000   0.74081603   -8.0054432    231.81752  0.015068741  0.014284644           75 
 1283000   0.73655133   -7.9904307    232.46151  0.015098825  0.014270776           59 
 1284000   0.75178445   -7.9968916    231.99389  0.015056717  0.014256905           77 
 1285000   0.74055319   -7.9945275    232.29012   0.01506421  0.014243089           54 
 1286000   0.72696877   -7.9835687    231.79522  0.015020426   0.01422926           71 
 1287000   0.74002501   -7.9926292    232.24615  0.015037953  0.014215451           70 
 1288000   0.74415951   -7.9817708    232.22495  0.015024906  0.014201641          126 
 1289000   0.75218878   -8.0060907    231.94879  0.014995396  0.014187797          103 
 1290000   0.73035893   -7.9690865    232.28124  0.015005248  0.014173972           77 
 1291000   0.72487332   -8.0024547    231.99481  0.014975136   0.01416021          120 
 1292000   0.74814149   -7.9955299    231.42742  0.014926949   0.01414642           65 
 1293000    0.7352566   -7.9839164    232.02479  0.014953905  0.014132672           67 
 1294000    0.7243653   -8.0104708    232.41508  0.014967484  0.014118978           61 
 1295000   0.72736075   -8.0181576    231.94818   0.01492588  0.014105302           81 
 1296000   0.74465141   -7.9968108    232.49998  0.014949844  0.014091648           71 
 1297000   0.74082676   -7.9692685    231.91282  0.014900592  0.014077991           94 
 1298000   0.73216736   -7.9842045    232.26479  0.014911709  0.014064332           87 
 1299000   0.72865894   -7.9915258    232.43548   0.01491118  0.014050723          105 
 1300000   0.72844546   -8.0024635    231.63393  0.014848329  0.014037134          159 
 1301000   0.74729775   -7.9585649    232.64622  0.014901757  0.014023597           94 
 1302000   0.71862259   -8.0014746     231.9922  0.014848451  0.014010074          115 
 1303000    0.7464479   -7.9992175    232.19463  0.014850002  0.013996508          152 
 1304000   0.73184584   -7.9843999    232.67996   0.01486963  0.013982978          131 
 1305000   0.71145031   -7.9944586    232.48485  0.014845776  0.013969446          127 
 1306000   0.72202409   -8.0061865    232.36086  0.014826497  0.013955922          117 
 1307000   0.72616993   -7.9992983    232.02337  0.014793635  0.013942389           77 
 1308000    0.7158993    -7.991106    231.99172  0.014780309  0.013928819           66 
 1309000    0.7215152   -8.0141978    231.85808  0.014760509  0.013915323          107 
 1310000   0.72540051   -7.9938959    232.11704  0.014765715  0.013901759           98 
 1311000   0.72472082   -8.0079459    231.79535  0.014734004  0.013888225          127 
 1312000   0.72213371   -8.0135805     232.1259  0.014743769  0.013874713          105 
 1313000   0.73820727   -7.9986559    231.60159  0.014699263  0.013861195          115 
 1314000   0.73821663    -8.010567    232.43705  0.014741061  0.013847716          183 
 1315000   0.72389549   -7.9800901    231.84381  0.014692256  0.013834275          100 
 1316000   0.73216857   -7.9914349    231.95812  0.014688331  0.013820849           83 
 1317000     0.717237   -7.9990514    232.30074  0.014698857  0.013807436           98 
 1318000   0.72607704   -7.9963722    232.16146  0.014678898   0.01379401           73 
 1319000   0.72795273   -8.0113324    231.55379  0.014629378   0.01378057           88 
 1320000   0.71406748   -7.9976664    231.92517   0.01464174  0.013767144          105 
 1321000   0.73058997   -8.0172068    231.62066  0.014611447  0.013753715          105 
 1322000   0.72844344   -8.0086389     232.0305  0.014626229  0.013740334           76 
 1323000   0.72433876   -8.0477929    232.04537   0.01461611   0.01372695          115 
 1324000   0.73272009   -8.0428308    231.62207  0.014578428  0.013713601          210 
 1325000    0.7224345   -8.0247528    232.21571  0.014604762  0.013700268          202 
 1326000   0.72564333   -8.0288477    232.29264  0.014598582  0.013686966          121 
 1327000    0.7117904   -8.0153599    232.33139  0.014590014    0.0136737          124 
 1328000   0.71313641   -8.0414211    231.64588  0.014536011   0.01366041          142 
 1329000    0.7278886   -8.0408303    231.91938  0.014542224  0.013647111          102 
 1330000   0.72981472   -8.0292374     232.1802  0.014547631  0.013633827          135 
 1331000   0.73007111   -8.0443084    232.57749  0.014561576  0.013620533          147 
 1332000   0.72106531    -8.027445    231.89737  0.014508094  0.013607274          140 
 1333000    0.7322219   -8.0477073    232.08485   0.01450893  0.013594029          233 
 1334000   0.72176264   -8.0395131     232.3695  0.014515836  0.013580794          134 
 1335000   0.71926385   -8.0112965    232.36818   0.01450488  0.013567562          400 
 1336000   0.72591746   -8.0603058    231.63454  0.014448262  0.013554328          381 
 1337000   0.71719776   -8.0533471    232.01075  0.014460904  0.013541078          229 
 1338000   0.72376895   -8.0740982     231.4211  0.014413372  0.013527834          323 
 1339000    0.7193204   -8.0761754    231.82906  0.014427997  0.013514577          313 
 1340000    0.7344414   -8.0684123    231.79966  0.014415402  0.013501314          378 
 1341000    0.7219086   -8.0750397    231.91718  0.014411955  0.013488074          226 
 1342000   0.72785637   -8.0703817    231.96384  0.014404113  0.013474856          163 
 1343000   0.71096016   -8.0801114    231.99948  0.014395599  0.013461644          212 
 1344000    0.7231215   -8.0921636    231.45304  0.014351007  0.013448466          327 
 1345000    0.7201021   -8.0629328    231.89447  0.014367687   0.01343528          361 
 1346000   0.72243596   -8.0639616    231.57951  0.014337513  0.013422178          212 
 1347000   0.72439502   -8.0954735    231.91664  0.014347726  0.013409042          182 
 1348000   0.71257092   -8.0801542    231.21084  0.014293449  0.013395919          201 
 1349000   0.71428522   -8.0644069    231.94616  0.014328278  0.013382822          260 
 1350000   0.71271404   -8.0661206    232.08057  0.014325961  0.013369756          217 
 1351000   0.72501867   -8.0507764    232.09464  0.014316225  0.013356699          194 
 1352000   0.70041059   -8.0756107    231.93793  0.014295977  0.013343664          475 
 1353000   0.71500859   -8.0696343    231.95956  0.014286743  0.013330597          194 
 1354000   0.71009831   -8.0683216    231.91294  0.014273322   0.01331754          142 
 1355000   0.70575695   -8.0815557    231.33093  0.014226994  0.013304465          236 
 1356000   0.72196409   -8.0856346    231.97837  0.014256291  0.013291379          361 
 1357000    0.6901689   -8.1047942    231.35296  0.014207379  0.013278291          436 
 1358000   0.70497081   -8.0951887    231.77051   0.01422254  0.013265217          449 
 1359000   0.72152555   -8.1085482    231.42618   0.01419096  0.013252129          329 
 1360000   0.71915635   -8.0682728    231.66568  0.014195201  0.013239083          257 
 1361000   0.71460173   -8.1046957    231.54203    0.0141772  0.013226062          250 
 1362000    0.7213456   -8.0947186    231.45206  0.014161286  0.013213045          225 
 1363000   0.69241961   -8.0976303    231.10896  0.014129919  0.013200036          264 
 1364000   0.70776419   -8.0850034    231.34793   0.01413416  0.013187051          198 
 1365000   0.71903426   -8.0885541    231.80616   0.01415178  0.013174059          453 
 1366000   0.70195232   -8.0759252    231.59064  0.014128272  0.013161133          288 
 1367000   0.69693107   -8.0908381    231.65183  0.014121667  0.013148179          204 
 1368000   0.71901965   -8.1003878    231.38067  0.014094827  0.013135254          233 
 1369000   0.70605848   -8.0884653    231.13649  0.014069667  0.013122336          212 
 1370000   0.68834773   -8.0852347    231.32959  0.014071143  0.013109369          214 
 1371000    0.7133335    -8.099608     230.9084  0.014035278  0.013096461          238 
 1372000   0.70882492   -8.1260005    231.54401  0.014063655  0.013083576          194 
 1373000   0.70552091   -8.1181393    231.43128   0.01404657    0.0130707          228 
 1374000   0.71302028   -8.1020775    231.53678  0.014042745  0.013057813          223 
 1375000   0.70118063   -8.0859259    231.18284  0.014011081  0.013044969          201 
 1376000   0.70666635    -8.090947    231.68101  0.014031069  0.013032147          198 
 1377000   0.69996983   -8.1122715    231.01346   0.01398048  0.013019341          358 
 1378000   0.69700059   -8.1028624    231.17836  0.013980307  0.013006508          385 
 1379000   0.71040483   -8.0937684    231.63113  0.013997531    0.0129937          209 
 1380000   0.69393069   -8.1220097    231.00902   0.01394982  0.012980899          273 
 1381000   0.71274803   -8.1016949     231.1249  0.013946711   0.01296813          215 
 1382000   0.68759588   -8.0946137    231.63526  0.013967394   0.01295537          419 
 1383000   0.71026944   -8.0979133    231.03457  0.013921099   0.01294261          242 
 1384000   0.69615089   -8.0908381    230.68087  0.013889744  0.012929883          417 
 1385000   0.70603001   -8.0856944     231.3825  0.013921931  0.012917134          504 
 1386000   0.69585069   -8.1006268    231.06116  0.013892566  0.012904442          253 
 1387000   0.68563914   -8.1235422    231.12871  0.013886608  0.012891737          360 
 1388000    0.7080065   -8.1171265    230.81786  0.013857941  0.012879045          537 
 1389000   0.69086428   -8.1161483    231.24091  0.013873345   0.01286635          453 
 1390000    0.6878748   -8.1203577    231.07959  0.013853692  0.012853632          202 
 1391000   0.68552853   -8.1328031    231.26021  0.013854553  0.012840968          258 
 1392000   0.69425386   -8.1191264    230.93556  0.013825165  0.012828292          342 
 1393000   0.69057621   -8.1320024    230.79201  0.013806653  0.012815637          339 
 1394000    0.6794252   -8.1258678    231.33725  0.013829343   0.01280298          276 
 1395000   0.70070305   -8.1257777    231.27336  0.013815613  0.012790358          273 
 1396000   0.69362955   -8.1301438    230.62967  0.013767291  0.012777714          336 
 1397000   0.70701384   -8.1250817    231.20806  0.013791939  0.012765098          262 
 1398000   0.69201503   -8.1403421    231.12533  0.013777142  0.012752489          431 
 1399000   0.69778821   -8.1334457    231.31642  0.013778677  0.012739881          260 
 1400000   0.70265563   -8.1371335    231.00086  0.013750051  0.012727283          267 
 1401000   0.68794548   -8.1486094    230.49188  0.013709962  0.012714738          495 
 1402000   0.70891038    -8.130391    231.56496  0.013763966  0.012702206          453 
 1403000   0.69112733    -8.133827    231.10161  0.013726634  0.012689679          243 
 1404000   0.67896748   -8.1576428     231.1155  0.013717682  0.012677147          311 
 1405000   0.68719521   -8.1360386    230.95981  0.013698684  0.012664668          219 
 1406000   0.68833497   -8.1445155    231.27626  0.013707697  0.012652191          234 
 1407000   0.69717606   -8.1419013    231.05652  0.013684939  0.012639705          479 
 1408000   0.67907791    -8.154827    231.01856  0.013672973  0.012627222          591 
 1409000   0.69176282   -8.1160548    231.47853  0.013690474  0.012614785          269 
 1410000   0.70951814   -8.1659024    230.98162  0.013651396  0.012602357          339 
 1411000   0.69319836   -8.1449561    230.65782  0.013622597  0.012589904          368 
 1412000   0.69218012   -8.1275356    231.14155  0.013641499  0.012577517          243 
 1413000   0.68085889   -8.1638644    231.24061  0.013637686  0.012565127          301 
 1414000   0.67852778   -8.1597677    230.55111  0.013587406   0.01255274          576 
 1415000   0.68644857   -8.1392576    231.06955  0.013608336  0.012540365          251 
 1416000   0.68375504    -8.144135    230.74862  0.013579839  0.012528008          285 
 1417000   0.68441384   -8.1361582    231.42594  0.013610088  0.012515679          442 
 1418000   0.69054117   -8.1663929    230.85763  0.013567092  0.012503376          273 
 1419000   0.67682647   -8.1704997      230.844   0.01355673  0.012491063          369 
 1420000   0.67781658   -8.1910906     230.5326  0.013528909  0.012478746          500 
 1421000   0.68422411   -8.1609693    231.02583  0.013548313  0.012466473          301 
 1422000   0.68661333   -8.1363772    231.16337  0.013546846  0.012454221          452 
 1423000   0.68842672   -8.1679513    230.82338  0.013517415  0.012441968          333 
 1424000   0.66930797   -8.1564036    230.67083  0.013498995  0.012429725          327 
 1425000   0.68328624   -8.1571198    231.03154  0.013510616    0.0124175          531 
 1426000   0.69437877   -8.1582993    230.65659   0.01347923  0.012405275          299 
 1427000   0.68729602   -8.1639088    231.66543  0.013528698  0.012393093          554 
 1428000   0.68929517   -8.1621034    230.83371  0.013470688  0.012380915          362 
 1429000   0.69056541    -8.171582    231.02294  0.013472297  0.012368756          349 
 1430000   0.69965172    -8.151703    231.03614  0.013463645  0.012356615          575 
 1431000      0.67459   -8.1418929     231.0542  0.013455288  0.012344479          366 
 1432000    0.6868241   -8.1483986    231.19349  0.013453997  0.012332351          279 
 1433000   0.68117761   -8.1511574    230.85312  0.013424815  0.012320232          377 
 1434000   0.69466176   -8.1577341    230.89896  0.013418117   0.01230811          312 
 1435000   0.67518058   -8.1369334    231.23313  0.013428173  0.012296009          518 
 1436000    0.6750774   -8.1568038    230.43137  0.013372294  0.012283908          539 
 1437000   0.67589798   -8.1545151    230.89486  0.013389866  0.012271829          446 
 1438000   0.68480369    -8.179893    230.74826  0.013372059  0.012259765          482 
 1439000   0.67323703   -8.1598568    231.10878  0.013383645  0.012247742          359 
 1440000   0.66757963    -8.172208    230.91478  0.013363124   0.01223572          289 
 1441000   0.68286089   -8.1641965    230.92526  0.013354456  0.012223711          550 
 1442000   0.68314346   -8.1569589     230.8814  0.013342661  0.012211716          476 
 1443000   0.68695843   -8.1720353    231.43632  0.013365461  0.012199714          553 
 1444000   0.67002044   -8.1502299    230.72755  0.013315302  0.012187721          434 
 1445000   0.67260698    -8.171014    231.08973  0.013326974  0.012175748          376 
 1446000   0.68479944   -8.1699335    230.56819  0.013287701  0.012163758          349 
 1447000   0.67575006   -8.1856424    231.22734  0.013316479  0.012151767          348 
 1448000   0.68861986   -8.1702115    230.64708  0.013273888  0.012139807          278 
 1449000   0.68016341   -8.1722144    230.41688  0.013251488   0.01212787          556 
 1450000   0.67238396   -8.1591746    230.80675  0.013264756  0.012115997          606 
 1451000   0.67199584   -8.1674185    230.60841  0.013244223  0.012104103          511 
 1452000   0.67099433   -8.1872536    230.84236  0.013248529  0.012092227          418 
 1453000   0.68907588   -8.1726502      230.155  0.013199988  0.012080362          611 
 1454000   0.65680347   -8.1752412    230.61342  0.013217184   0.01206849          380 
 1455000   0.65859956   -8.1750002    230.42451   0.01319728  0.012056628          640 
 1456000   0.65270254    -8.172841    230.59707  0.013198092  0.012044779          332 
 1457000   0.65811255   -8.1754784    230.90762  0.013206796  0.012032926          531 
 1458000   0.68109976   -8.1958709    230.57317  0.013178622  0.012021074          632 
 1459000   0.67270831   -8.1764167    230.70641  0.013177199  0.012009242          408 
 1460000   0.65933311   -8.1909492     230.1038  0.013133778  0.011997428          428 
 1461000   0.66750037   -8.2068621    230.15703  0.013127825  0.011985619          551 
 1462000   0.67867751   -8.2044065    230.50073  0.013138436  0.011973814          436 
 1463000   0.67467128   -8.1972319    231.04061  0.013160208  0.011962009          479 
 1464000   0.66339096   -8.2016455    230.19866  0.013103294  0.011950229          690 
 1465000   0.65676074   -8.1912486    230.52447  0.013112882  0.011938455          668 
 1466000   0.67767523    -8.188474    230.49056   0.01310201  0.011926698          673 
 1467000   0.66830496   -8.1848679    230.27591  0.013080886   0.01191496          598 
 1468000   0.67869259   -8.1904085    230.25245  0.013070643  0.011903228          364 
 1469000   0.66710326   -8.1956181    230.58486  0.013080602  0.011891501          562 
 1470000   0.66116897   -8.2035047    229.94558  0.013035464  0.011879781          595 
 1471000   0.65444023   -8.2144514    230.02646  0.013031184  0.011868068          498 
 1472000   0.66510918   -8.2068666     230.1184  0.013027536  0.011856372          745 
 1473000   0.66104766   -8.1981729    229.78878  0.013000044    0.0118447          638 
 1474000   0.67643045   -8.2210927    229.68261  0.012985222  0.011833042          769 
 1475000   0.67231529   -8.1990971    230.28952  0.013010707   0.01182139          741 
 1476000   0.66847136   -8.1989626    230.29135  0.013001996   0.01180975          478 
 1477000   0.67543648   -8.1921572    229.80428  0.012965712  0.011798115          691 
 1478000   0.68456177   -8.2196702    229.84651  0.012959321  0.011786479          709 
 1479000   0.66049033   -8.2249867    230.21034  0.012971058  0.011774857          681 
 1480000    0.6530294   -8.2143067    229.87422  0.012943368  0.011763249          554 
 1481000   0.67038831   -8.1932585    230.54664  0.012972465  0.011751658          599 
 1482000    0.6622426   -8.2015605     230.5531  0.012964074  0.011740082          650 
 1483000   0.67088345   -8.2004289    230.43989  0.012948971  0.011728505          362 
 1484000   0.67111116   -8.2260547    230.23997  0.012929019  0.011716944          356 
 1485000   0.67184186   -8.2037496    230.06709  0.012910611  0.011705401          474 
 1486000   0.65786674   -8.2086531    230.12116  0.012904955  0.011693884          687 
 1487000   0.65830413   -8.2274221    230.01517  0.012890337  0.011682371          557 
 1488000   0.66407017   -8.2375471    230.12534  0.012887844  0.011670844          464 
 1489000   0.65718617   -8.1864764      230.105   0.01287805   0.01165935          675 
 1490000   0.66380045   -8.2278236    229.55945  0.012838896  0.011647871          565 
 1491000   0.65886759   -8.2095786    230.09461  0.012860195  0.011636386          645 
 1492000   0.64578252   -8.2103827    230.25463  0.012860513  0.011624942          436 
 1493000   0.64522506   -8.2310102    230.33565  0.012856421  0.011613498          642 
 1494000   0.64608003   -8.2297389     229.9651  0.012827147   0.01160206          546 
 1495000   0.64170736   -8.2194108    229.89096  0.012814435  0.011590629          616 
 1496000    0.6608289   -8.2335591     229.7022  0.012795355  0.011579198          663 
 1497000   0.65539331   -8.2237986    230.48569  0.012830422  0.011567791          671 
 1498000   0.65391086   -8.2263398    229.81935  0.012784788  0.011556398          665 
 1499000   0.67222456    -8.203527    229.69447  0.012769317  0.011545012          627 
 1500000   0.65551159   -8.2388271    229.94153  0.012774529  0.011533642          353 
 1501000   0.66102998   -8.2089118    229.80976  0.012758703  0.011522273          478 
 1502000    0.6505639    -8.217046    230.16559  0.012769951  0.011510945          476 
 1503000   0.64527364    -8.236657    229.95251   0.01274964   0.01149962          496 
 1504000   0.66607323   -8.2269058    229.98171  0.012742781  0.011488298          594 
 1505000   0.65728521   -8.2446157    229.68391  0.012717824  0.011477001          465 
 1506000   0.65981582   -8.2383662    229.92891  0.012722937    0.0114657          577 
 1507000   0.64084836   -8.2379288    229.87728  0.012711639  0.011454413          642 
 1508000   0.66155662   -8.2344186    230.31491  0.012727393  0.011443183          647 
 1509000   0.65090686   -8.2595896    229.49024  0.012673417   0.01143194          661 
 1510000   0.64969277   -8.2384154    230.02554  0.012694566  0.011420718          685 
 1511000   0.64721435   -8.2615085    229.56029  0.012660506  0.011409499          718 
 1512000   0.64342611   -8.2378692    229.54335  0.012651199  0.011398275          653 
 1513000   0.64739299   -8.2348439    229.91223  0.012663155  0.011387074          715 
 1514000     0.651377   -8.2423606    229.50615  0.012632439  0.011375888          754 
 1515000   0.64885679     -8.24647    229.96436  0.012649305  0.011364695          545 
 1516000   0.63653892   -8.2493618    229.53515  0.012617367  0.011353544          658 
 1517000   0.64687632   -8.2605548    229.91748  0.012630053  0.011342399          712 
 1518000   0.65138888   -8.2439606    229.48667  0.012598082   0.01133126          537 
 1519000   0.63735701   -8.2443081    229.80368   0.01260718  0.011320143          539 
 1520000   0.65219776   -8.2572071    229.87888  0.012603009  0.011309019          689 
 1521000   0.64907477   -8.2491141    229.41039  0.012569055  0.011297922          661 
 1522000   0.64466539   -8.2446914    229.59835  0.012571088  0.011286823          664 
 1523000   0.64264119   -8.2496404    229.46715  0.012555655  0.011275767          715 
 1524000   0.64298638      -8.2434    229.56177   0.01255259   0.01126472          692 
 1525000   0.63661028   -8.2663122    229.76941  0.012555705  0.011253663          505 
 1526000   0.64637064    -8.259418    229.72313   0.01254495  0.011242622          717 
 1527000   0.65217918   -8.2342592     229.7997  0.012540913  0.011231591          598 
 1528000   0.64210059   -8.2498743    230.19377  0.012554198  0.011220587          664 
 1529000   0.62885603   -8.2692583     229.2647  0.012495351   0.01120959          659 
 1530000   0.63939958   -8.2536472    229.60672  0.012505813  0.011198618          679 
 1531000   0.64284015   -8.2393828    229.58865  0.012496661  0.011187641          663 
 1532000    0.6466678    -8.279253     229.4549  0.012481228  0.011176679          583 
 1533000   0.63754029   -8.2687747     229.6603  0.012484252  0.011165722          546 
 1534000   0.64213821   -8.2484764     229.8769   0.01248788  0.011154784          730 
 1535000   0.63385412   -8.2518086    230.09482  0.012491575  0.011143878          506 
 1536000   0.64754695   -8.2514523    229.70024  0.012462036  0.011132995          500 
 1537000   0.65235815   -8.2652524    229.24974  0.012429502  0.011122108          577 
 1538000   0.63502909   -8.2609661    229.39001  0.012429021  0.011111247          562 
 1539000   0.62992094   -8.2705921    229.78255    0.0124422  0.011100381          719 
 1540000   0.63415563   -8.2513878     229.3765  0.012412148  0.011089519          667 
 1541000   0.63929886   -8.2402039    229.53022  0.012412407  0.011078666          610 
 1542000   0.63535014   -8.2523503    230.09533  0.012434897  0.011067836          707 
 1543000   0.66076751   -8.2157984    230.14182  0.012429348  0.011057034          680 
 1544000   0.63511536   -8.2737092    229.87453  0.012406873  0.011046256          754 
 1545000   0.64319909   -8.2640034    229.34537  0.012370301  0.011035471          792 
 1546000   0.62808662    -8.284101    229.56578   0.01237418  0.011024695          711 
 1547000   0.63825947   -8.2665711     229.4523  0.012360068  0.011013932          731 
 1548000   0.62959338   -8.2639662    229.49564  0.012354416  0.011003183          811 
 1549000   0.64330677   -8.2490692    229.68904  0.012356845  0.010992444          655 
 1550000    0.6412165   -8.2469943     229.6867  0.012348747  0.010981726          538 
 1551000   0.63640692   -8.2462554    230.04644  0.012360114  0.010971019          778 
 1552000   0.63309752   -8.2565561    229.42861  0.012318976  0.010960317          716 
 1553000   0.63648609    -8.269431    229.25098  0.012301512  0.010949615          717 
 1554000   0.64480048   -8.2818144    229.41343  0.012302308  0.010938917          528 
 1555000   0.64538803   -8.2740734    229.55181  0.012301812  0.010928223          701 
 1556000   0.63556451   -8.2686817    229.48492  0.012290324  0.010917554          757 
 1557000   0.63349332   -8.2737708    229.06308  0.012259852  0.010906888          501 
 1558000   0.61903674   -8.2663674    229.53491   0.01227722  0.010896211          798 
 1559000   0.63143951   -8.3014738    228.95696  0.012238452  0.010885549          712 
 1560000   0.62455921   -8.2834554    228.97458  0.012231548   0.01087491          689 
 1561000   0.62881694   -8.2879344    229.22628  0.012237149  0.010864288          557 
 1562000   0.64258908   -8.2928966    229.82212  0.012261103  0.010853692          711 
 1563000   0.61649695   -8.2855045    229.18976  0.012219544   0.01084309          817 
 1564000   0.62952057   -8.2694459    229.56387  0.012231664  0.010832503          640 
 1565000   0.64113373   -8.3051129    229.12836  0.012200658  0.010821933          741 
 1566000   0.61779802   -8.2713358    229.37379  0.012205928  0.010811377          766 
 1567000   0.63482841   -8.3022814    229.49237  0.012204444  0.010800841          703 
 1568000   0.61070647   -8.2869057    229.03712  0.012172466  0.010790315          652 
 1569000   0.61784181   -8.3017362    228.96194  0.012160715  0.010779777          745 
 1570000   0.61621304   -8.2908822    229.35127  0.012173634  0.010769255          570 
 1571000   0.63697232    -8.307563    229.56412  0.012177176  0.010758759          773 
 1572000   0.61366636   -8.3076714     229.4877  0.012165379  0.010748282          509 
 1573000   0.64345419   -8.3093397     228.7315  0.012117583  0.010737802          769 
 1574000    0.6284371   -8.3025503    229.55022  0.012153231  0.010727334          594 
 1575000   0.60401255   -8.2849072    229.47555  0.012141563  0.010716874          806 
 1576000   0.62541244   -8.2981087    229.39919  0.012129822  0.010706443          715 
 1577000   0.63157468    -8.297553    229.59485  0.012132469  0.010696014          718 
 1578000   0.62997287   -8.3127915    229.41792  0.012115437    0.0106856          723 
 1579000   0.62173279   -8.2758569    229.29108   0.01210107  0.010675209          798 
 1580000   0.61341512   -8.2908012    229.36272   0.01209719  0.010664824          776 
 1581000   0.62560775   -8.2851561    229.55092  0.012099458  0.010654452          768 
 1582000    0.6151093   -8.3074996    229.31209  0.012079229  0.010644101          445 
 1583000    0.6349087   -8.2695258    228.72398  0.012040639  0.010633757          671 
 1584000   0.63866858   -8.2974869    228.93677  0.012044232  0.010623428          706 
 1585000   0.62688802   -8.3163383    229.02433  0.012041237  0.010613116          723 
 1586000   0.63328774   -8.3072967    229.02013  0.012033424   0.01060281          587 
 1587000   0.61718948   -8.2992766    229.28482  0.012039741  0.010592532          590 
 1588000   0.60850026    -8.325637    229.28916  0.012032387  0.010582254          728 
 1589000   0.61227662   -8.2988866    229.27656  0.012024153  0.010571984          709 
 1590000   0.61515009   -8.2810453     229.5913  0.012033087  0.010561743          784 
 1591000   0.61964696   -8.3017584    228.98861  0.011993956  0.010551499          603 
 1592000    0.6212676   -8.2934899    229.06786   0.01199057  0.010541274          775 
 1593000    0.6078192     -8.32085    229.27879  0.011994078  0.010531063          819 
 1594000   0.61291383   -8.3108413    229.24899  0.011984995  0.010520857          705 
 1595000   0.63263146    -8.295858    228.93095  0.011960865  0.010510659          522 
 1596000   0.61429397   -8.3102941    229.01418  0.011957716  0.010500472          818 
 1597000   0.62194788   -8.3016034    229.19231  0.011959524  0.010490276          803 
 1598000   0.62908974   -8.3146968    228.92195  0.011937941  0.010480102          757 
 1599000   0.61958945   -8.3025348    229.09514  0.011939501  0.010469939          840 
 1600000   0.61589681   -8.3040339    229.12809  0.011933755  0.010459784          740 
 1601000   0.60227837   -8.3142832    229.02118  0.011920736  0.010449665          700 
 1602000   0.62890523   -8.3138165    228.89802  0.011906888  0.010439551          776 
 1603000   0.59848692   -8.3108241    228.82945  0.011895896  0.010429444          786 
 1604000   0.60936568   -8.3191906    229.33898  0.011914951   0.01041936          739 
 1605000   0.61718936   -8.2955054    229.31896  0.011906488  0.010409275          854 
 1606000   0.61945347   -8.3268787    229.17891  0.011891807   0.01039922          780 
 1607000    0.6160244   -8.3478316    229.23877  0.011887512  0.010389168          638 
 1608000   0.61039978   -8.3300488    229.07613   0.01187169  0.010379133          604 
 1609000   0.60067604   -8.3243901    229.07269  0.011864133  0.010369099          645 
 1610000   0.60282825   -8.3045144    229.19989  0.011863348  0.010359079          876 
 1611000   0.60784145   -8.3299378    229.02514  0.011846945  0.010349078          862 
 1612000   0.61036948   -8.3355758    229.34338  0.011856047  0.010339104          746 
 1613000   0.61608087   -8.3279926    229.01952  0.011831965  0.010329129          764 
 1614000   0.60332135   -8.3246979    229.03576  0.011825473  0.010319169          524 
 1615000   0.60431841   -8.3432158    229.02233  0.011817458  0.010309228          922 
 1616000   0.60220272   -8.3304025    228.96312  0.011807091   0.01029929          805 
 1617000   0.61171576   -8.3303627     229.0346  0.011803474  0.010289373          625 
 1618000    0.6035098   -8.3183209    229.32399  0.011811083  0.010279466          857 
 1619000   0.61046726   -8.3289848    229.08336  0.011791402  0.010269577          549 
 1620000   0.61117035    -8.329485    229.37752  0.011799255   0.01025971          565 
 1621000   0.61889159    -8.319099    229.40074   0.01179317  0.010249856          620 
 1622000    0.6130439   -8.3330219    229.23401  0.011777333  0.010239997          755 
 1623000   0.61176954   -8.3127485    229.46891  0.011782137  0.010230131          681 
 1624000   0.60231247   -8.3230748    229.26306   0.01176432  0.010220291          776 
 1625000   0.62362956   -8.3135685    228.99004  0.011743079   0.01021046          670 
 1626000   0.60364939   -8.3396949    228.77807  0.011724994  0.010200623          595 
 1627000   0.59292759   -8.3327409    229.04499  0.011731458  0.010190795          836 
 1628000   0.60925238   -8.3437988    229.03867  0.011723929  0.010180974          827 
 1629000   0.60449701   -8.3462702    228.52683  0.011690548   0.01017117          568 
 1630000   0.60721372   -8.3289221    228.59146   0.01168668  0.010161386          557 
 1631000   0.60427724   -8.3474401    228.86894  0.011693692  0.010151624          837 
 1632000   0.60508526   -8.3305799    228.89499  0.011687857   0.01014186          829 
 1633000   0.59865701   -8.3302941    229.49664  0.011711402  0.010132124          838 
 1634000    0.6039223   -8.3332669    228.98908   0.01167835  0.010122392          584 
 1635000   0.60590392   -8.3384379    228.82294  0.011662739  0.010112677          777 
 1636000   0.59877374   -8.3383428    228.70128  0.011649413  0.010102966          437 
 1637000   0.60391109   -8.3321065    229.01417  0.011658225  0.010093267          727 
 1638000   0.59787553   -8.3391738    229.07759  0.011654334   0.01008356          467 
 1639000   0.59121426   -8.3226462    228.59325  0.011622598  0.010073863          647 
 1640000   0.61370669   -8.3684904    228.94198   0.01163323  0.010064194          742 
 1641000   0.59676203   -8.3378928    228.94974  0.011626535  0.010054525          846 
 1642000   0.60607299   -8.3494191    229.04961  0.011624524   0.01004487          840 
 1643000   0.59967701   -8.3562918    229.19329  0.011624736  0.010035229          529 
 1644000   0.60326553   -8.3339775    228.73087  0.011594225  0.010025601          561 
 1645000   0.60234076   -8.3562293    228.82282  0.011591835   0.01001599          621 
 1646000   0.58001085    -8.330434    229.05821   0.01159671  0.010006388          849 
 1647000   0.58537242   -8.3689984    228.14751   0.01154359 0.0099967984          772 
 1648000   0.61107411   -8.3364173    228.86427  0.011572829 0.0099872223          757 
 1649000    0.5866364   -8.3437834    229.20042  0.011582798 0.0099776622          590 
 1650000   0.59965819   -8.3486454    228.77756  0.011554422 0.0099681017          481 
 1651000   0.59217131   -8.3570426     229.2725  0.011572405 0.0099585543          587 
 1652000   0.58957171   -8.3454075    228.59224  0.011531086 0.0099490126          606 
 1653000   0.58333346   -8.3356519    228.67284  0.011528173 0.0099394836          752 
 1654000   0.57907907   -8.3625811    228.61932  0.011518506 0.0099299634          850 
 1655000   0.59953428   -8.3643464    228.14551  0.011487689  0.009920451          863 
 1656000    0.5961928   -8.3792428    228.44305  0.011495725 0.0099109544          535 
 1657000   0.58810216   -8.3461603    228.73471  0.011503455 0.0099014665          876 
 1658000   0.59746125   -8.3628504    228.68315  0.011493926 0.0098919846          882 
 1659000   0.58691438   -8.3555345    228.64827  0.011485245 0.0098825267          831 
 1660000   0.59230077    -8.349187    229.03655  0.011497819 0.0098730871          856 
 1661000   0.59626146   -8.3665744    228.80419  0.011479239 0.0098636433          583 
 1662000   0.58664129   -8.3560349    228.52408  0.011458287  0.009854199          557 
 1663000   0.59999879   -8.3583124    228.57286  0.011453841 0.0098447777          443 
 1664000   0.58131977   -8.3569684    228.80578  0.011458623 0.0098353769          569 
 1665000   0.59100784   -8.3786345    229.05279  0.011464103 0.0098259679          613 
 1666000   0.59548814   -8.3663604    228.59309  0.011434228 0.0098165814          435 
 1667000    0.5862646   -8.3524895    228.47104  0.011421268 0.0098072016          863 
 1668000   0.58490376   -8.3618413    228.63819  0.011422771 0.0097978317          811 
 1669000   0.58722673    -8.371685    228.77063   0.01142254 0.0097884722          621 
 1670000   0.58702673   -8.3787546    228.58187  0.011406281 0.0097791236          820 
 1671000   0.58996035   -8.3620065    228.55163  0.011397947 0.0097697891          877 
 1672000    0.6003862   -8.3640856    228.17861  0.011372538 0.0097604673          867 
 1673000   0.58679539   -8.3618481    228.56274  0.011384874 0.0097511609          811 
 1674000    0.5806381   -8.3575969    228.92248  0.011395982 0.0097418782          906 
 1675000   0.59182018   -8.3720394    228.42509  0.011364432 0.0097325893          862 
 1676000   0.58551555   -8.3734117     228.2841  0.011350642 0.0097233043          832 
 1677000   0.57558211   -8.3668088    228.65685  0.011362395 0.0097140393          554 
 1678000   0.59845366   -8.3793267    228.11083  0.011328508 0.0097047786          854 
 1679000   0.58769008   -8.3578978     228.5453  0.011343324 0.0096955394          947 
 1680000   0.57716304   -8.3966888     228.4206  0.011330387 0.0096863112          946 
 1681000   0.57696689    -8.385193    228.78376   0.01134165 0.0096770911          849 
 1682000   0.58479773   -8.3804732    228.83418  0.011337405 0.0096678749          884 
 1683000   0.58521409   -8.3813107     228.3156  0.011304991  0.009658687          854 
 1684000   0.58115282   -8.3969204    228.63397  0.011314033 0.0096495035          836 
 1685000   0.59145904   -8.3742832    228.36839  0.011294184 0.0096403133          977 
 1686000   0.57123913   -8.3859907     228.7127  0.011304503 0.0096311413          890 
 1687000   0.57396915   -8.3705019    228.18485  0.011271727 0.0096219773          833 
 1688000    0.5787484   -8.3813638    228.67551  0.011289273 0.0096128387          582 
 1689000   0.58955671   -8.3839641    228.77247  0.011287373 0.0096036966          976 
 1690000   0.57548838   -8.3692109    228.63168  0.011273751 0.0095945684          957 
 1691000   0.59470373   -8.3893753    228.31659  0.011251557 0.0095854463          968 
 1692000    0.5811924   -8.3795918    228.29677  0.011243931 0.0095763332          821 
 1693000   0.58544467    -8.376173    228.30886  0.011237884  0.009567235          801 
 1694000    0.5681186   -8.3861977    228.30493  0.011231057 0.0095581478          922 
 1695000   0.58637891   -8.4008334    228.13785  0.011216217 0.0095490624          905 
 1696000   0.57740207   -8.3782465    228.27655  0.011216419 0.0095399964          951 
 1697000   0.57242173   -8.3797446    228.88499  0.011239687 0.0095309391          599 
 1698000   0.57823406   -8.3906946    228.38374  0.011208468 0.0095218958          907 
 1699000   0.57651563   -8.3865021    228.31459  0.011198479 0.0095128469          967 
 1700000   0.56092492   -8.4001253    228.28674  0.011190527 0.0095038206          781 
 1701000   0.58957093   -8.3954568    228.10913  0.011175247 0.0094947974          866 
 1702000     0.561306   -8.3828365      228.258  0.011175969 0.0094857965          950 
 1703000   0.57680706   -8.3853416     228.2154  0.011167322 0.0094767984          962 
 1704000   0.57697559   -8.4015847    228.19949  0.011159991 0.0094678258          916 
 1705000   0.57499912   -8.4127732    228.26877  0.011156831 0.0094588563          881 
 1706000   0.58881062   -8.3857228    228.54873  0.011163967 0.0094499098          836 
 1707000   0.56047023   -8.3754948    228.08214  0.011134648 0.0094409697          460 
 1708000   0.58375047   -8.3975309    228.28266  0.011137913 0.0094320419          623 
 1709000   0.57098654   -8.4068547    228.05697  0.011120391 0.0094231085          974 
 1710000   0.57251345   -8.3958536    228.46922  0.011133978 0.0094141839          921 
 1711000   0.57113397   -8.4059227    228.22146  0.011115403 0.0094052823          884 
 1712000   0.56350738   -8.3995448    228.19348  0.011107549 0.0093963933          928 
 1713000   0.57627019   -8.3894915    228.51889  0.011116895 0.0093875029          883 
 1714000   0.56894961   -8.3934798     227.8536  0.011078063 0.0093786404          605 
 1715000   0.56999287   -8.4106105    227.93043  0.011075337 0.0093697859          781 
 1716000   0.57464935   -8.4007906    228.14842  0.011079469 0.0093609445          989 
 1717000   0.58132632   -8.3892052    228.13126  0.011072183 0.0093521181          859 
 1718000   0.56059269    -8.393609    227.89074  0.011054072 0.0093432905          583 
 1719000   0.56454089   -8.4090062    227.91071  0.011048609  0.009334472          944 
 1720000   0.56849217   -8.4046374    228.12538  0.011052586 0.0093256665          923 
 1721000   0.56576092   -8.3935475    227.92258  0.011036344 0.0093168663          817 
 1722000   0.55847329    -8.407672    228.09854  0.011038451 0.0093080846          800 
 1723000   0.56080574   -8.4081822    228.43681  0.011048404 0.0092993062          890 
 1724000   0.55873418    -8.407912    228.21855  0.011031446 0.0092905286          929 
 1725000   0.56297256   -8.4200485    228.17546  0.011022969 0.0092817741          588 
 1726000   0.57371905   -8.3798421    228.24421  0.011019902  0.009273041          914 
 1727000   0.56618304   -8.3994967    228.19398  0.011011097  0.009264312          604 
 1728000   0.55553318   -8.4154211    228.06039  0.010998282 0.0092555909          844 
 1729000    0.5548612   -8.4023833    227.90774  0.010984564 0.0092468718          892 
 1730000   0.56807705   -8.4153724    228.32886    0.0109985 0.0092381696          852 
 1731000   0.57490998   -8.4148369    228.23474  0.010987615 0.0092294793          620 
 1732000   0.56453683   -8.4030637    228.14686  0.010977043 0.0092208022          862 
 1733000   0.56240228   -8.4325391    227.46209  0.010937781 0.0092121264          862 
 1734000   0.55560094   -8.4090833    228.15145  0.010964603 0.0092034558          499 
 1735000   0.56254472   -8.4174093    228.25539  0.010963275 0.0091947992          848 
 1736000   0.55582939   -8.4055944    227.65802  0.010928285 0.0091861556          904 
 1737000   0.55979843   -8.4065472    228.01772   0.01093925 0.0091775285          833 
 1738000   0.55846578   -8.3990686    228.16196  0.010939872 0.0091689166          807 
 1739000   0.55725854   -8.3956163    228.25627    0.0109381  0.009160304          839 
 1740000   0.56321596   -8.4199689    227.98546  0.010918844 0.0091517057          771 
 1741000    0.5636994   -8.4151711     228.3285  0.010928992 0.0091431165          894 
 1742000   0.54848021   -8.4228739    227.86249  0.010900425 0.0091345359          980 
 1743000     0.556891   -8.4198311     228.2153  0.010911039 0.0091259719          889 
 1744000   0.54675887   -8.4205484    228.30161  0.010908907 0.0091174153          917 
 1745000   0.55492924    -8.411889    228.09538  0.010892807 0.0091088699          867 
 1746000   0.55053078   -8.4174775    227.48442  0.010857408 0.0091003257          894 
 1747000   0.56464676   -8.4160651    227.51083  0.010852453 0.0090917869          603 
 1748000   0.55483806   -8.4361461    227.85087  0.010862455 0.0090832657          882 
 1749000   0.55045746   -8.4167967     227.4947  0.010839275 0.0090747476          887 
 1750000   0.54857712   -8.4055593    228.03913  0.010859006 0.0090662323          958 
 1751000   0.54734511   -8.4120213    227.68748  0.010836069 0.0090577444          853 
 1752000   0.54532626   -8.4166392    228.16155  0.010852433 0.0090492624         1013 
 1753000   0.54269821   -8.4423298    227.62392  0.010820685  0.009040789          787 
 1754000   0.55925235   -8.4298778    227.78095  0.010821976 0.0090323115          832 
 1755000   0.55138278   -8.4213894    227.62419  0.010808366 0.0090238438          938 
 1756000   0.54673798   -8.4331703    227.53366  0.010797915 0.0090153891          561 
 1757000   0.53789766   -8.4456735    227.87733  0.010808069 0.0090069481          742 
 1758000    0.5504717    -8.417267    227.78942  0.010797754 0.0089985161          927 
 1759000    0.5459972   -8.4412453    227.61869  0.010783527 0.0089900979          988 
 1760000   0.55746782   -8.4377367    227.88178  0.010789857 0.0089816882          920 
 1761000   0.55060889   -8.4425198    227.57285  0.010769111 0.0089732826          926 
 1762000   0.54527899   -8.4423643    227.91564  0.010779211 0.0089648904          968 
 1763000   0.54466277   -8.4539265     227.4823  0.010752614 0.0089564945          951 
 1764000   0.55778882   -8.4444973     227.4085  0.010743032 0.0089481251          929 
 1765000   0.55326124   -8.4454651    227.82249  0.010756492 0.0089397616          944 
 1766000   0.54749207   -8.4274839    227.77067  0.010747955 0.0089314175          962 
 1767000   0.54650137   -8.4188469    227.82127  0.010744259 0.0089230728          988 
 1768000    0.5451534   -8.4405763    227.58905  0.010727237 0.0089147492          884 
 1769000   0.55350962   -8.4413023    228.05101  0.010742934 0.0089064272          918 
 1770000   0.54379858    -8.432076    227.91143  0.010730293 0.0088981126          918 
 1771000   0.55001343   -8.4414214    227.62371  0.010710696 0.0088898094          946 
 1772000   0.53055398   -8.4467625    227.60348    0.0107037 0.0088815207          968 
 1773000   0.53299401   -8.4186086    227.46845  0.010691316 0.0088732418          949 
 1774000   0.55188378   -8.4274311    227.57368  0.010690233 0.0088649688         1004 
 1775000   0.56494782   -8.4302088    227.61594  0.010686195 0.0088567023          950 
 1776000   0.53909792   -8.4499818    227.32834  0.010666682 0.0088484511          987 
 1777000   0.53657735   -8.4327747    227.71039  0.010678596 0.0088402125          966 
 1778000   0.54356305   -8.4488268     227.5522  0.010665176 0.0088319755          853 
 1779000   0.53297139    -8.440078    227.51756  0.010657559 0.0088237454          998 
 1780000    0.5392546    -8.461139    227.69366  0.010659815 0.0088155259          955 
 1781000   0.54391085   -8.4503271    227.82771  0.010660102 0.0088073181          956 
 1782000   0.53430121   -8.4505822      227.605  0.010643706  0.008799132          975 
 1783000    0.5400386   -8.4375294    228.13842  0.010662667 0.0087909486          922 
 1784000   0.54637824   -8.4632269    227.51478  0.010627559 0.0087827717          982 
 1785000    0.5410502   -8.4491263    227.71576  0.010630988 0.0087746048          942 
 1786000   0.53758029   -8.4466811    227.78897  0.010628452  0.008766438          968 
 1787000   0.54631258      -8.4516    227.57183  0.010612378 0.0087582959          972 
 1788000   0.53479566   -8.4416359    227.32659  0.010595012 0.0087501525          948 
 1789000   0.53256661   -8.4381602    227.83926  0.010612971 0.0087420189          982 
 1790000   0.55377783   -8.4454835    227.11041   0.01057311 0.0087338925          981 
 1791000    0.5462892   -8.4717667    227.43182  0.010582162 0.0087257809         1028 
 1792000   0.54652869   -8.4577869    227.24033  0.010567352 0.0087176824          989 
 1793000   0.53361306   -8.4394019    227.69939  0.010582794 0.0087095868         1048 
 1794000   0.54063728   -8.4280885    227.84301  0.010583566 0.0087015063          989 
 1795000   0.54272341   -8.4317663    227.26735  0.010550945 0.0086934271          961 
 1796000   0.53569681   -8.4506497    227.46533  0.010554256 0.0086853554          996 
 1797000   0.54346379   -8.4633705    227.78334   0.01056313  0.008677301          977 
 1798000   0.53409234   -8.4520363    227.21058  0.010530709 0.0086692602         1012 
 1799000    0.5409206   -8.4533576    227.62061  0.010543849 0.0086612136          957 
 1800000   0.56122407   -8.4545135    227.35764  0.010525817 0.0086531848         1014 
 1801000   0.53704181   -8.4520477    227.44022  0.010523793 0.0086451697         1008 
 1802000    0.5367655   -8.4592752     227.3009   0.01051151 0.0086371575          952 
 1803000    0.5321667   -8.4618376    227.23899  0.010502819 0.0086291781          918 
 1804000   0.52583882   -8.4738999    227.35985   0.01050258 0.0086211879          996 
 1805000   0.52629896   -8.4456637    227.54028  0.010505091 0.0086132094         1028 
 1806000   0.53873776   -8.4699018    227.97064  0.010519132  0.008605241         1040 
 1807000   0.52896306   -8.4717242    227.31442  0.010483048 0.0085972817         1021 
 1808000   0.53331157   -8.4519227    227.78563  0.010498969 0.0085893319         1002 
 1809000    0.5301896   -8.4588449    227.54508  0.010482084 0.0085813992         1009 
 1810000   0.53129968   -8.4529681    227.00725  0.010451531  0.008573463         1007 
 1811000   0.52626066    -8.469534    227.09666  0.010449874 0.0085655505          986 
 1812000   0.53426744    -8.468516    227.24644  0.010450995 0.0085576328         1046 
 1813000   0.53823974   -8.4505433    227.56079   0.01045968 0.0085497277         1012 
 1814000   0.53410044   -8.4697884    227.45502  0.010449055 0.0085418445         1042 
 1815000   0.52584623   -8.4823681    227.49431  0.010445101 0.0085339567         1011 
 1816000    0.5236814   -8.4695314    227.32394  0.010431532 0.0085260855          976 
 1817000   0.52490306   -8.4679901    227.62072  0.010439402 0.0085182089          972 
 1818000   0.52459557   -8.4771457    227.67032  0.010435933 0.0085103629         1001 
 1819000   0.52839009   -8.4698173    227.37919  0.010416858 0.0085025178          898 
 1820000   0.52758303   -8.4696924    227.01843  0.010394617 0.0084946769         1041 
 1821000   0.52225352   -8.4659731    227.15381  0.010395104 0.0084868439          945 
 1822000    0.5102244   -8.4652728    227.23096  0.010392927 0.0084790233         1000 
 1823000   0.52614146   -8.4716565    227.44645  0.010397077 0.0084712128         1003 
 1824000   0.51952374   -8.4769176    227.78094  0.010406658 0.0084634087         1044 
 1825000   0.51296505   -8.4737399    227.38686  0.010382962 0.0084556216         1057 
 1826000   0.52347371    -8.479099    227.00066   0.01035965 0.0084478301         1009 
 1827000   0.52660025    -8.476379    227.42044  0.010373127 0.0084400524         1062 
 1828000   0.53030838   -8.4669951    227.13293  0.010354346 0.0084322841          990 
 1829000   0.51914903   -8.4718037    227.03587  0.010344262 0.0084245309         1096 
 1830000   0.53168155   -8.4858933    227.23689  0.010347764 0.0084167889         1065 
 1831000    0.5131856   -8.4831069    227.56325  0.010356966 0.0084090503          919 
 1832000   0.52437117   -8.4713144    227.17817  0.010333796 0.0084013161         1013 
 1833000   0.51968438    -8.453307    227.06406  0.010322971 0.0083936002         1052 
 1834000   0.51247237   -8.4824016    227.48114  0.010336293 0.0083858964         1044 
 1835000    0.5051273   -8.4883098    226.95542  0.010306785  0.008378191          936 
 1836000   0.52426992   -8.4790979     227.5674  0.010328949 0.0083704954          986 
 1837000   0.53001329   -8.4854795    227.35729  0.010313795 0.0083628111          981 
 1838000   0.52113137   -8.4652326    227.27853  0.010304613 0.0083551348          984 
 1839000   0.52472805   -8.4858489    227.08647  0.010290306 0.0083474657         1039 
 1840000   0.51492185   -8.4899747     227.2017  0.010289932  0.008339806         1016 
 1841000   0.51627556   -8.4781512    227.50461  0.010298054 0.0083321565         1070 
 1842000   0.51647141   -8.4772303    227.17559  0.010277578 0.0083245132         1043 
 1843000    0.5135917   -8.5085672    227.09108  0.010268181 0.0083168911         1034 
 1844000   0.50869268   -8.4781665    227.02487   0.01025962 0.0083092764         1007 
 1845000   0.51492127   -8.4857514    226.98567  0.010252289 0.0083016679         1086 
 1846000   0.52942603   -8.4899401    226.97629  0.010246311 0.0082940676         1093 
 1847000   0.51527945   -8.4934337    226.98797  0.010241291 0.0082864703          987 
 1848000   0.51529064   -8.5022513    227.02288  0.010237323 0.0082788924          994 
 1849000   0.51307084   -8.4953805    227.09899  0.010235217 0.0082713198         1023 
 1850000   0.51850003   -8.4582259     227.1071   0.01023005 0.0082637649         1011 
 1851000   0.50315504   -8.4827933    226.71758  0.010206986  0.008256211          972 
 1852000   0.50564468   -8.4994027    226.84991  0.010207429 0.0082486621          981 
 1853000   0.51058577   -8.4889243    226.85837  0.010202301  0.008241128         1123 
 1854000   0.52554531   -8.4968531    226.96293  0.010201498 0.0082335944          974 
 1855000   0.50169439   -8.4943571    227.22539  0.010207789 0.0082260756         1085 
 1856000   0.50284247   -8.4962034    227.01472  0.010192831  0.008218569         1015 
 1857000   0.50424452   -8.4997664    226.56313  0.010167077 0.0082110623         1016 
 1858000    0.5280911   -8.4817616    226.91958  0.010177592 0.0082035649          963 
 1859000   0.50991653   -8.4890776    227.06533   0.01017865 0.0081960742          942 
 1860000    0.5099905    -8.504909    226.67709  0.010155783 0.0081885892          579 
 1861000   0.50659015   -8.5171482    226.95415  0.010162733 0.0081811163         1080 
 1862000    0.5126525   -8.4989503     226.8775  0.010153844 0.0081736493          912 
 1863000   0.50495475     -8.50076    226.58833  0.010135459 0.0081661912         1082 
 1864000   0.50980879   -8.5022143    226.77722  0.010138466 0.0081587465         1118 
 1865000   0.51481942   -8.5157886    227.10552    0.0101477 0.0081513153          991 
 1866000   0.50588443    -8.508971    226.97694  0.010136519 0.0081438855         1011 
 1867000   0.50102447   -8.4922574    226.67662  0.010117685 0.0081364605         1049 
 1868000   0.50549543   -8.5067766     227.0209  0.010127628 0.0081290492         1029 
 1869000   0.50617438   -8.4937189     226.7717  0.010111098 0.0081216416          981 
 1870000   0.50226702   -8.5057311    226.34743  0.010086784 0.0081142427         1020 
 1871000   0.49997964   -8.5137982     226.9985  0.010110391 0.0081068552          926 
 1872000   0.50432891   -8.5055351    226.96058  0.010103302 0.0080994745          936 
 1873000   0.51771788   -8.5093608    226.85803  0.010093345 0.0080921013         1027 
 1874000   0.50882381    -8.498126    227.05232  0.010096599 0.0080847319         1014 
 1875000    0.4997053   -8.5133524    226.86576  0.010082923 0.0080773728          852 
 1876000   0.50104944   -8.5204782    226.74375  0.010072128 0.0080700212          952 
 1877000   0.50429596   -8.5223212    226.75694  0.010067348  0.008062686         1020 
 1878000   0.49968346    -8.519782    226.39053  0.010045728 0.0080553611         1022 
 1879000    0.5010403   -8.4995924    226.60967  0.010050101 0.0080480426          933 
 1880000   0.50590954   -8.5246537    226.83781  0.010054868  0.008040731         1067 
 1881000   0.50696058   -8.5049777    226.91862  0.010053102 0.0080334245         1031 
 1882000   0.50908505   -8.5118022    226.94647  0.010048993 0.0080261327          982 
 1883000   0.49889615   -8.5225843    226.70769  0.010033089 0.0080188474          945 
 1884000   0.50225658   -8.5143726      226.649  0.010025168 0.0080115702         1057 
 1885000   0.49172117   -8.5303679    226.81224  0.010027066 0.0080042975          942 
 1886000    0.5044491   -8.4952142    226.68078  0.010015941  0.007997043         1077 
 1887000   0.50531513   -8.5089823    226.77386  0.010014744 0.0079897989          968 
 1888000   0.49797151   -8.5147724    226.50147 0.0099974164 0.0079825581         1058 
 1889000   0.49999645   -8.5192071    226.91932  0.010010558  0.007975332          929 
 1890000   0.48930774   -8.5318403     226.7024 0.0099956966 0.0079681008          908 
 1891000   0.50148009   -8.5323665     227.0853  0.010007284  0.007960882          900 
 1892000   0.49290334   -8.5243781    226.68716 0.0099844592 0.0079536786         1021 
 1893000   0.50024675   -8.5225594    226.91491 0.0099892107 0.0079464778          950 
 1894000   0.49327457   -8.5041383    226.42365  0.009962322 0.0079392864          981 
 1895000   0.49421374   -8.5286214    226.63498  0.009966358  0.007932108         1028 
 1896000   0.50101529   -8.5299418    226.26716 0.0099449348  0.007924936          917 
 1897000   0.50142621   -8.5146359    226.50977 0.0099503501 0.0079177649          976 
 1898000   0.50416242    -8.525659    226.65272 0.0099513837 0.0079106084          977 
 1899000   0.49717624   -8.5301566    226.70731 0.0099485391 0.0079034483          985 
 1900000   0.50458055    -8.513411    227.11914 0.0099613658 0.0078963177          995 
 1901000   0.49462468   -8.5259119    226.93327 0.0099479779 0.0078891806         1018 
 1902000   0.49400765   -8.5186973    226.78238 0.0099361365  0.007882049         1028 
 1903000    0.4921408   -8.5235382    226.18878 0.0099049211 0.0078749317         1060 
 1904000   0.49462574   -8.5176874     226.8528 0.0099287813 0.0078678219          949 
 1905000     0.494915   -8.5317346    226.92675 0.0099268045 0.0078607183          856 
 1906000   0.49934081   -8.5303563    226.51795 0.0099037228 0.0078536276          970 
 1907000   0.49028277   -8.5424519    226.51113 0.0098982317 0.0078465418         1002 
 1908000   0.49392319    -8.533691    226.56256 0.0098952898 0.0078394611          986 
 1909000   0.48302933   -8.5248497    226.55925 0.0098899622 0.0078323965          934 
 1910000   0.49800907    -8.543271    226.26713 0.0098720387 0.0078253322         1030 
 1911000   0.48930929   -8.5302816    226.61956 0.0098822413  0.007818277          877 
 1912000   0.49522113   -8.5284554    226.45487 0.0098698948 0.0078112365          948 
 1913000   0.47591729   -8.5348047    226.30198 0.0098580753 0.0078041993          952 
 1914000    0.4810848   -8.5399444    226.35965 0.0098554357 0.0077971734         1028 
 1915000   0.49638389     -8.53647    226.22442 0.0098444048 0.0077901541         1009 
 1916000   0.48627939   -8.5426761     226.5047 0.0098514571 0.0077831442          961 
 1917000    0.4929302   -8.5410434    226.34393 0.0098393294 0.0077761419          963 
 1918000   0.48615407   -8.5473227    226.41231 0.0098371704 0.0077691407          974 
 1919000   0.48237791   -8.5312306    226.21547 0.0098234962 0.0077621504         1032 
 1920000   0.48829649   -8.5390073    226.14176 0.0098151807 0.0077551657          983 
 1921000   0.49456364   -8.5434316     225.8083 0.0097956055 0.0077481913          996 
 1922000   0.49543364   -8.5386204    226.53641 0.0098220779 0.0077412239          936 
 1923000   0.49670786   -8.5323612     226.7126 0.0098246056 0.0077342678          992 
 1924000   0.47952603   -8.5624075    226.47262 0.0098091053 0.0077273228          939 
 1925000   0.48291379   -8.5330819    226.49537 0.0098049945 0.0077203767          939 
 1926000   0.48224503   -8.5320514    226.59322 0.0098041371   0.00771344          892 
 1927000   0.48051556   -8.5390969     226.6634 0.0098020843 0.0077065165          919 
 1928000   0.47564895   -8.5529719    226.27648 0.0097802767 0.0076995968          953 
 1929000   0.47833962   -8.5460341     226.2357 0.0097734449 0.0076926833          968 
 1930000   0.48393026   -8.5424378    226.79955 0.0097927267  0.007685785          952 
 1931000    0.4800125   -8.5340851    226.61152 0.0097795409 0.0076788963          949 
 1932000   0.48047451   -8.5505716    226.65243 0.0097762435 0.0076720108          882 
 1933000    0.4798874   -8.5629825     226.5747 0.0097678348  0.007665132          968 
 1934000   0.48149081   -8.5399518    226.52145 0.0097604897 0.0076582608          950 
 1935000   0.48544973   -8.5599567    226.51956 0.0097553642 0.0076513969         1024 
 1936000   0.47920669   -8.5634837    226.63204 0.0097551671 0.0076445379          898 
 1937000   0.47842129   -8.5446545    226.66327 0.0097514745 0.0076376976          948 
 1938000   0.47659599   -8.5390104    226.59581 0.0097435417  0.007630857          962 
 1939000   0.48402224   -8.5453781    226.50381  0.009734563   0.00762403         1036 
 1940000   0.48972231   -8.5706905    226.60484 0.0097338847 0.0076172135          957 
 1941000   0.46798624   -8.5381468    226.37631 0.0097190584 0.0076104023         1011 
 1942000   0.48262382   -8.5558905     226.4336 0.0097165123 0.0076036009         1001 
 1943000   0.47631162   -8.5525031    226.12752 0.0096983841 0.0075968028          919 
 1944000   0.47937531   -8.5315929    226.47987 0.0097084992 0.0075900196          975 
 1945000   0.48113203   -8.5554062    226.69949 0.0097129175 0.0075832409          995 
 1946000   0.47175582   -8.5711678     225.9806 0.0096771411 0.0075764711         1020 
 1947000   0.48103594   -8.5485114    226.11759 0.0096780342 0.0075697125         1051 
 1948000   0.47588338    -8.553043      226.398 0.0096850615 0.0075629559         1031 
 1949000     0.482829   -8.5608413    226.01799 0.0096638442 0.0075562021         1093 
 1950000   0.47765228   -8.5727636    226.52839 0.0096807002  0.007549456          987 
 1951000   0.47963559   -8.5554598    226.24534 0.0096636487 0.0075427207          961 
 1952000   0.47029748   -8.5590111    226.06151 0.0096508498 0.0075359965          998 
 1953000   0.47018634   -8.5557131    226.22787 0.0096530071 0.0075292759          910 
 1954000   0.46485489   -8.5730729    225.71456 0.0096261756 0.0075225615         1002 
 1955000   0.46715541   -8.5537874    226.17505 0.0096408803 0.0075158555         1015 
 1956000   0.47768479   -8.5720108    226.28139 0.0096404819 0.0075091633         1030 
 1957000   0.47960553   -8.5634881    226.02284 0.0096245462 0.0075024775         1050 
 1958000    0.4742047   -8.5578466      226.291 0.0096310434 0.0074957978         1015 
 1959000   0.48028808   -8.5661086    226.39714 0.0096306422 0.0074891293         1006 
 1960000   0.47421753   -8.5777671    226.33503 0.0096230882 0.0074824701          981 
 1961000   0.47401256   -8.5506429    226.21443  0.009613056 0.0074758154         1050 
 1962000   0.48175972   -8.5722038    226.30058 0.0096118153 0.0074691699         1072 
 1963000   0.46357308   -8.5691335    225.81299 0.0095862198 0.0074625332         1008 
 1964000   0.46513647   -8.5681774    226.07148 0.0095923065 0.0074558964         1017 
 1965000   0.46994139   -8.5707607    226.08074 0.0095878177 0.0074492708         1074 
 1966000   0.46883607   -8.5739432    226.19483 0.0095877769 0.0074426532         1001 
 1967000   0.46271474   -8.5774554    226.24871 0.0095851851 0.0074360455         1005 
 1968000   0.45501605   -8.5704981    226.04734 0.0095717876 0.0074294512          966 
 1969000   0.47204038   -8.5703863    226.02126 0.0095658226 0.0074228558         1062 
 1970000   0.47147925   -8.5616837    226.21499 0.0095691618 0.0074162717         1010 
 1971000   0.47109623   -8.5775589     226.2615 0.0095662734 0.0074096902         1092 
 1972000   0.46132859   -8.5566124    226.17098 0.0095575972  0.007403116         1068 
 1973000   0.45785739   -8.5675811    226.17712 0.0095530125 0.0073965552         1009 
 1974000   0.47038433   -8.5831649    225.77918 0.0095313736  0.007390003         1053 
 1975000   0.46080816   -8.5665754    226.13048 0.0095413703 0.0073834458         1031 
 1976000   0.46701735   -8.5685192    225.84509  0.009524506 0.0073769025         1076 
 1977000    0.4591603    -8.577292     226.1647 0.0095331607 0.0073703673         1052 
 1978000   0.46415365   -8.5842248    226.08657 0.0095250492 0.0073638369         1038 
 1979000    0.4684261   -8.5950775    226.04888 0.0095186492 0.0073573172         1067 
 1980000   0.45951585   -8.5754628    226.03846 0.0095134033 0.0073508142         1037 
 1981000    0.4734918   -8.5688577    225.61246 0.0094906805 0.0073443137         1024 
 1982000   0.46794571   -8.5758683    226.06314 0.0095048409 0.0073378193          946 
 1983000   0.45469715   -8.5663747    226.54247 0.0095201912 0.0073313338         1006 
 1984000   0.45569712    -8.559238    226.28889 0.0095047416 0.0073248555         1021 
 1985000   0.47182806   -8.5789383    226.21797 0.0094969761 0.0073183844         1029 
 1986000   0.46091055   -8.5844745    225.94085  0.009480566 0.0073119204         1033 
 1987000   0.45943645   -8.5916518    226.27527 0.0094898201 0.0073054605          985 
 1988000   0.45229801   -8.5785635    225.89609 0.0094691518 0.0072990111         1022 
 1989000    0.4633763   -8.5829246    225.80347 0.0094605108 0.0072925655         1054 
 1990000   0.46346084   -8.5760499    225.64451 0.0094490999 0.0072861322         1042 
 1991000   0.45267924   -8.5812753    226.04075 0.0094609388 0.0072797072          974 
 1992000   0.45921672   -8.5703894    225.95723 0.0094526955 0.0072732896         1054 
 1993000   0.46062558   -8.5838198    225.86258 0.0094439947 0.0072668779         1061 
 1994000   0.45716979   -8.5824376    225.88564 0.0094402222 0.0072604777         1054 
 1995000   0.45570344   -8.5982038    226.20452 0.0094488102 0.0072540824         1069 
 1996000   0.45625938    -8.604745    225.97368 0.0094344387 0.0072476978         1033 
 1997000   0.46099666   -8.5891742    225.93026 0.0094279025 0.0072413215          997 
 1998000   0.46565915   -8.5957164    225.86834 0.0094206016 0.0072349506         1106 
 1999000   0.45786569   -8.5630892    225.77547 0.0094120174 0.0072285929         1057 
 2000000   0.45719312   -8.5835184    226.22737 0.0094261402 0.0072222375         1096 
 2001000   0.44875034   -8.5913945    225.95755 0.0094101928 0.0072158832         1000 
 2002000   0.45015575   -8.5938075    225.91046 0.0094035325 0.0072095403         1018 
 2003000   0.45512953    -8.597316    226.36798 0.0094178723 0.0072032072         1040 
 2004000   0.44655032   -8.5890713    225.96962 0.0093966076 0.0071968834         1041 
 2005000   0.45874689   -8.5952428    225.77314 0.0093837547 0.0071905626         1006 
 2006000   0.45369238   -8.5930941    225.92354 0.0093853248 0.0071842535          881 
 2007000   0.44320205   -8.5854984    225.59535 0.0093670218 0.0071779459         1113 
 2008000   0.44975817   -8.5969565    225.90318 0.0093751318 0.0071716498          976 
 2009000   0.44597965    -8.593072    225.80161 0.0093662523 0.0071653595          914 
 2010000   0.44930244   -8.5824235    225.70669 0.0093576572 0.0071590738          961 
 2011000   0.44605347   -8.5833696    225.63577  0.009350065 0.0071527992         1053 
 2012000   0.45690941   -8.5847076    225.76405 0.0093507312 0.0071465311         1033 
Loop time of 5301.44 on 48 procs for 2000000 steps with 4000 atoms

Performance: 65189.868 tau/day, 377.256 timesteps/s
99.4% CPU use with 48 MPI tasks x no OpenMP threads

MPI task timing breakdown:
Section |  min time  |  avg time  |  max time  |%varavg| %total
---------------------------------------------------------------
Pair    | 383.06     | 428.51     | 465.33     | 102.1 |  8.08
Neigh   | 36.711     | 38.294     | 39.93      |  13.1 |  0.72
Comm    | 337.31     | 376.76     | 422.76     | 111.5 |  7.11
Output  | 5.306      | 5.3082     | 5.3595     |   0.3 |  0.10
Modify  | 4383.9     | 4402.6     | 4425.5     |  13.7 | 83.05
Other   |            | 49.96      |            |       |  0.94

Nlocal:        83.3333 ave          90 max          77 min
Histogram: 2 4 4 13 2 9 5 3 2 4
Nghost:        2425.58 ave        2442 max        2410 min
Histogram: 5 2 10 1 5 5 8 7 2 3
Neighs:        16825.4 ave       20270 max       14505 min
Histogram: 2 9 9 6 5 5 7 4 0 1
FullNghs:      33650.5 ave       36356 max       30887 min
Histogram: 2 4 4 8 7 9 1 7 2 4

Total # of neighbors = 1615222
Ave neighs/atom = 403.80550
Neighbor list builds = 106496
Dangerous builds = 0

#clear
#
#next RN
#
#jump SELF
Total wall time: 1:28:25
