
units lj                  # Use reduced LJ style units
atom_style atomic         # Uncharged point particles
atom_modify map hash      # Needed for indexing of clusters etc
                          # Used to be able to find where atoms are in relation to each other.

lattice fcc 1.0 spacing 1 1 1
Lattice spacing in x,y,z = 1.5874011 1.5874011 1.5874011
region box block 0 10 0 10 0 10 units lattice
create_box 2 box
Created orthogonal box = (0.0000000 0.0000000 0.0000000) to (15.874011 15.874011 15.874011)
  3 by 4 by 4 MPI processor grid
create_atoms 1 box
Created 4000 atoms
  using lattice units in orthogonal box = (0.0000000 0.0000000 0.0000000) to (15.874011 15.874011 15.874011)
  create_atoms CPU = 0.020 seconds
set type 1 type/fraction 2 0.57 78393
Setting atom values ...
  2292 settings made for type/fraction
mass 1 1.0
mass 2 1.0
pair_style lj/cut  3.5
pair_modify tail  yes
pair_coeff 1  1  1.0  1.0   # Intearaction between 1 and 1 set with epsilon = 1 and sigma = 1
pair_coeff 1  2  1.5  0.8
pair_coeff 2  2  0.5  0.88

write_data data.0
System init for write_data ...
Neighbor list info ...
  update every 1 steps, delay 10 steps, check yes
  max neighbors/atom: 2000, page size: 100000
  master list distance cutoff = 3.8
  ghost atom cutoff = 3.8
  binsize = 1.9, bins = 9 9 9
  1 neighbor lists, perpetual/occasional/extra = 1 0 0
  (1) pair lj/cut, perpetual
      attributes: half, newton on
      pair build: half/bin/atomonly/newton
      stencil: half/bin/3d
      bin: standard
WARNING: Not all mixed pair coeffs generated from mixing. Use write_data with 'pair ij' option to store all pair coeffs. (../write_data.cpp:312)


#############################
#   M E L T   S Y S T E M   #
#############################

velocity all create 2.4 5833274 mom yes dist gaussian # Assign velocities
                                                    # Temperature 2.4, random number seed, zero linear momentum
                                                                                # Gaussian distribution

timestep 0.002   # simulation timestep
thermo 1000       # output thermodynamic data every 1000 steps bf 100

# Define a fix  in this case with index 1 applied to all
# particles in the simulation. This fix is for simulations
# in the anisotropic NPT ensemble. Note that we use the MTK
# correction.
fix 1 all npt temp 2.4 2.4 0.1 iso 5.68 5.68 0.5 mtk yes tchain 5 pchain 5 # Use NPT ensemble
                                                                         # Set temperature and pressure and damping
                                                                         # Numbers of thermostats in chain and in barostat
run 10000          # run for 10000 steps
Per MPI rank memory allocation (min/avg/max) = 3.642 | 3.644 | 3.648 Mbytes
Step Temp E_pair E_mol TotEng Press Volume 
       0          2.4   -4.8904957            0   -1.2913957   -4.1230707         4000 
    1000    2.4030956   -4.6134365            0   -1.0096942    5.7623227    3628.4848 
    2000     2.374423   -4.5922074            0   -1.0314634    5.6759088    3645.7262 
    3000    2.3542574   -4.5688286            0   -1.0383253    5.7258975    3646.7245 
    4000    2.4063752   -4.5792484            0  -0.97058792    5.7231467    3649.1282 
    5000    2.3848198   -4.6621597            0   -1.0858244    5.6685829    3607.6051 
    6000    2.4453655   -4.7087233            0   -1.0415921    5.4973562    3607.0967 
    7000    2.4096742   -4.6246385            0   -1.0110309    5.8508377    3609.8049 
    8000     2.432776   -4.6572964            0   -1.0090447     5.413368    3635.4974 
    9000    2.3792413   -4.6230728            0    -1.055103    5.5986734    3623.3201 
   10000    2.3713324   -4.6455447            0   -1.0894353    5.2708363    3639.8683 
Loop time of 2.67766 on 48 procs for 10000 steps with 4000 atoms

Performance: 645340.083 tau/day, 3734.607 timesteps/s
99.6% CPU use with 48 MPI tasks x no OpenMP threads

MPI task timing breakdown:
Section |  min time  |  avg time  |  max time  |%varavg| %total
---------------------------------------------------------------
Pair    | 1.1858     | 1.2778     | 1.3818     |   3.4 | 47.72
Neigh   | 0.21933    | 0.226      | 0.24484    |   1.1 |  8.44
Comm    | 0.8227     | 0.90698    | 1.0069     |   4.7 | 33.87
Output  | 0.00025059 | 0.00025553 | 0.00032613 |   0.0 |  0.01
Modify  | 0.2122     | 0.25102    | 0.29679    |   4.4 |  9.37
Other   |            | 0.01556    |            |       |  0.58

Nlocal:        83.3333 ave          92 max          73 min
Histogram: 1 1 4 8 7 7 8 6 4 2
Nghost:        1747.79 ave        1781 max        1724 min
Histogram: 4 5 5 10 7 8 4 2 2 1
Neighs:        10488.1 ave       11853 max        9248 min
Histogram: 3 5 7 4 5 7 8 3 4 2

Total # of neighbors = 503429
Ave neighs/atom = 125.85725
Neighbor list builds = 911
Dangerous builds = 238

# Equilibrate just above the melting temperature to avoid step fn in T

fix 1 all npt temp 1.25 1.25 0.1 iso 5.68 5.68 0.5 mtk yes tchain 5 pchain 5
run 2000
Per MPI rank memory allocation (min/avg/max) = 3.644 | 3.646 | 3.649 Mbytes
Step Temp E_pair E_mol TotEng Press Volume 
   10000    2.3713324   -4.6455447            0   -1.0894353    5.2708363    3639.8683 
   11000    1.2569926   -6.7110996            0    -4.826082    5.6513125    2798.4052 
   12000     1.261747   -6.8272006            0   -4.9350532    5.3511092    2774.8648 
Loop time of 0.665962 on 48 procs for 2000 steps with 4000 atoms

Performance: 518948.671 tau/day, 3003.175 timesteps/s
99.7% CPU use with 48 MPI tasks x no OpenMP threads

MPI task timing breakdown:
Section |  min time  |  avg time  |  max time  |%varavg| %total
---------------------------------------------------------------
Pair    | 0.29189    | 0.32553    | 0.37287    |   2.4 | 48.88
Neigh   | 0.041294   | 0.044152   | 0.049454   |   0.6 |  6.63
Comm    | 0.19464    | 0.24606    | 0.2872     |   3.1 | 36.95
Output  | 5.2309e-05 | 5.3947e-05 | 6.9986e-05 |   0.0 |  0.01
Modify  | 0.039267   | 0.045284   | 0.050494   |   1.7 |  6.80
Other   |            | 0.004883   |            |       |  0.73

Nlocal:        83.3333 ave          88 max          78 min
Histogram: 2 4 4 3 3 8 8 5 3 8
Nghost:        2104.71 ave        2130 max        2084 min
Histogram: 4 3 2 10 8 9 9 2 0 1
Neighs:        13765.8 ave       15338 max       12337 min
Histogram: 3 4 7 3 8 6 8 4 4 1

Total # of neighbors = 660760
Ave neighs/atom = 165.19000
Neighbor list builds = 144
Dangerous builds = 13

#############################
# L I N E A R  Q U E N C H  #
#############################

# Define solid atoms. This closely follows ten Wolde  Ruiz-Montero and Frenkel  Faraday Discuss  1996  104  93-110
# Compute components of the per-atom q6 vector
compute q6 all orientorder/atom degrees 1 6 components 6 nnn NULL cutoff 1.3 # compute the Q6 parameter.
                                                                             # Use all neighbours within 1.3 unit cell.

# get number of connections
compute coord_number all coord/atom orientorder q6 0.5

# An atom is solid if it has 8 or more connections (of a possible 14)
variable is_solid atom c_coord_number>=8
group solid dynamic all var is_solid    # Must be dynamic to update
dynamic group solid defined

# do clustering
compute cluster solid cluster/atom 1.3 # Create a cluster where all atoms within are solid and max 1.3 units from another member

# define chunks one chunk per cluster
compute clus_chunks solid chunk/atom c_cluster nchunk every compress yes  # Says which atoms are in which chunk

# count the size of each chunk
compute size_chunks solid property/chunk clus_chunks count


# Find the maximum entry in the vector of chunk sizes
variable max_n equal max(c_size_chunks)


# Thermo style which includes this variable
# thermo_style custom step temp pe vol v_max_n

thermo ${N}  # Print the thermo information every 100 steps
thermo 1000  

# Reset the npt fix at a lower temperature (below freezing)
fix 1  all npt temp  ${temp} ${temp}  0.1  iso  5.68  5.68  0.5  mtk yes tchain  5  pchain  5
fix 1  all npt temp  0.45 ${temp}  0.1  iso  5.68  5.68  0.5  mtk yes tchain  5  pchain  5
fix 1  all npt temp  0.45 0.45  0.1  iso  5.68  5.68  0.5  mtk yes tchain  5  pchain  5

dump dmp2 all dcd ${N} traj.dcd
dump dmp2 all dcd 1000 traj.dcd


compute msd all msd com yes
variable twopoint equal c_msd[4]/6/(step*dt+1.0e-6)
fix 9 all vector 10 c_msd[4]
variable fit equal slope(f_9)/6/(10*dt)
thermo_style custom step temp pe c_msd[4] v_twopoint v_fit v_max_n

fix 1 all npt temp 1.25 ${temp} 0.1 iso 5.68 5.68 0.5 mtk yes tchain 5 pchain 5
fix 1 all npt temp 1.25 0.45 0.1 iso 5.68 5.68 0.5 mtk yes tchain 5 pchain 5
run 5000000 # 5000000  # Run for this many steps
Neighbor list info ...
  update every 1 steps, delay 10 steps, check yes
  max neighbors/atom: 2000, page size: 100000
  master list distance cutoff = 3.8
  ghost atom cutoff = 3.8
  binsize = 1.9, bins = 8 8 8
  4 neighbor lists, perpetual/occasional/extra = 1 3 0
  (1) pair lj/cut, perpetual
      attributes: half, newton on
      pair build: half/bin/atomonly/newton
      stencil: half/bin/3d
      bin: standard
  (2) compute orientorder/atom, occasional
      attributes: full, newton on
      pair build: full/bin/atomonly
      stencil: full/bin/3d
      bin: standard
  (3) compute coord/atom, occasional
      attributes: full, newton on
      pair build: full/bin/atomonly
      stencil: full/bin/3d
      bin: standard
  (4) compute cluster/atom, occasional
      attributes: full, newton on
      pair build: full/bin/atomonly
      stencil: full/bin/3d
      bin: standard
Per MPI rank memory allocation (min/avg/max) = 9.844 | 9.849 | 9.852 Mbytes
Step Temp PotEng c_msd[4] v_twopoint v_fit v_max_n 
   12000     1.261747   -6.8272006 1.686979e-30 1.1715132e-32 8.3333333e+20            1 
   13000    1.2275494   -6.8070966   0.47987717 0.0030761356  0.039780947            2 
   14000    1.2244634   -6.7961754   0.91667043 0.0054563714  0.037053148            3 
   15000    1.2518836   -6.8679087    1.3375237 0.0074306871  0.036618513            1 
   16000    1.2305708   -6.8205013    1.7755337 0.0092475712  0.036174631            3 
   17000    1.2314028   -6.8484152    2.1858978  0.010715185  0.036061928            3 
   18000    1.2584878   -6.8698036    2.5907414  0.011994173  0.035467799            3 
   19000    1.2688044   -6.8539812     2.992093  0.013123215  0.035211478            2 
   20000    1.2378016    -6.805972    3.3995707  0.014164878  0.034981836            2 
   21000    1.2401935   -6.8578328    3.8037823  0.015094374   0.03476008            2 
   22000    1.2525978   -6.8656321    4.2500462  0.016098659  0.034675058            3 
   23000    1.2236899   -6.7885792    4.7009021  0.017032254  0.034745904            2 
   24000      1.25305   -6.8358957    5.0386079  0.017495166  0.034747189            1 
   25000     1.243707   -6.8839437    5.4353171  0.018117723  0.034647593            4 
   26000     1.222661   -6.8729857    5.8573541  0.018773571  0.034561506            6 
   27000     1.263851   -6.8412545    6.3459867  0.019586378  0.034602518            4 
   28000    1.2585224    -6.886747     6.722666  0.020007934   0.03460231            5 
   29000    1.2356502   -6.8870621    7.0951861  0.020388466   0.03455104            2 
   30000    1.2482795   -6.8348311    7.6545479  0.021262633  0.034619058            1 
   31000    1.2758762    -6.839874     8.146738  0.021899833  0.034841146            1 
   32000    1.2565053   -6.8512696    8.6255618    0.0224624  0.034996865            2 
   33000    1.2601048   -6.8609893    9.1396671  0.023079967  0.035222554            4 
   34000    1.2434138   -6.8316928    9.5330059   0.02336521  0.035402123            1 
   35000    1.2387202   -6.8139953     9.979711  0.023761216  0.035581054            1 
   36000    1.2492801    -6.878278    10.505152  0.024317482  0.035774282            1 
   37000    1.2413979   -6.8102103    10.870139  0.024482296  0.035909256            4 
   38000    1.2492516   -6.8605183    11.319024  0.024822421   0.03600252            1 
   39000    1.2540538   -6.8122747    11.736476   0.02507794  0.036086581            2 
   40000    1.2444913   -6.8594862    12.244609  0.025509603  0.036166316            2 
   41000    1.2511627   -6.8495266    12.623439  0.025657396  0.036222161            3 
   42000    1.2298142    -6.827391    12.978367  0.025750727  0.036224686            2 
   43000    1.2495091   -6.8725359    13.373125  0.025916908  0.036225792            2 
   44000    1.2128505   -6.8542459    13.797301  0.026131252  0.036201463            1 
   45000     1.257073   -6.8683881     14.32861  0.026534462  0.036203907            7 
   46000    1.2250233   -6.8346214    14.855487  0.026912113  0.036220131            3 
   47000    1.2486164   -6.9188038    15.204107  0.026957637  0.036263117            9 
   48000     1.243338   -6.9076669    15.515838  0.026937219   0.03627334            3 
   49000    1.2641767   -6.8826945    16.037206   0.02727416  0.036265387            2 
   50000    1.2144867   -6.8447893    16.425549  0.027375914  0.036253393            2 
   51000    1.2360172   -6.8700889    16.829933  0.027499891  0.036234703            2 
   52000      1.24564   -6.7970589    17.513476  0.028066468  0.036253693            3 
   53000    1.2342689    -6.804124    18.003895   0.02830801  0.036289274            4 
   54000    1.1977415    -6.804712    18.454702  0.028479478  0.036347849            1 
   55000    1.2553909   -6.8503978    18.720827  0.028364889  0.036369008            3 
   56000    1.2551586   -6.8771409    19.038469  0.028331055  0.036358185            5 
   57000    1.2491133   -6.8349739    19.416831  0.028387179  0.036339283            2 
   58000    1.2272186   -6.8081865    19.886751  0.028572918  0.036302422            3 
   59000    1.2144011   -6.8827946    20.240143  0.028587772  0.036261223            2 
   60000    1.2230411   -6.8093146    20.747529  0.028816012  0.036232438            1 
   61000    1.2517111   -6.8277337    21.239881  0.029016231  0.036218395            4 
   62000    1.2373939   -6.8242525    21.756239  0.029242256  0.036223909            2 
   63000    1.2341421   -6.8061397    21.995335  0.029094359  0.036215708            2 
   64000    1.2803036   -6.8777963    22.385785  0.029148158  0.036199468            2 
   65000    1.2471166   -6.8672792    22.802836  0.029234405  0.036178932            2 
   66000    1.2195303   -6.9098309    23.065341  0.029122905   0.03614928            3 
   67000    1.2641323    -6.822962    23.557992  0.029300985  0.036103998            1 
   68000     1.269409   -6.8389536    23.972393  0.029377932  0.036056644            2 
   69000    1.2332622   -6.8676453    24.374891  0.029438273  0.036023482            5 
   70000    1.2698488   -6.8281323    24.686505  0.029388696  0.035979229            5 
   71000    1.2135997   -6.8814484    25.118353  0.029481635  0.035923203            3 
   72000    1.2287419   -6.9229092    25.446234   0.02945166   0.03588188            6 
   73000    1.2188798   -6.8660831    25.818323  0.029472971  0.035826123            1 
   74000     1.269716   -6.8576096    26.307149  0.029625168  0.035779215            2 
   75000    1.2332262   -6.8846421    26.704163  0.029671292  0.035731587            3 
   76000    1.2242325   -6.8706586    27.049364  0.029659391  0.035681638            2 
   77000    1.2289455   -6.8775957    27.383811  0.029636159  0.035622897            1 
   78000    1.2463521   -6.8643915    27.889167  0.029796119  0.035573348            2 
   79000     1.233949   -6.8638157    28.323603  0.029877219  0.035529469            2 
   80000    1.2311681    -6.840391    28.868242  0.030071085  0.035496267            1 
   81000    1.2594916   -6.8835379     29.13637  0.029975689   0.03546069            2 
   82000    1.2163774   -6.8818421    29.546149  0.030026574   0.03542647            3 
   83000    1.2210941   -6.8911395    29.796053  0.029915716  0.035388681            4 
   84000    1.2859127   -6.8505034    30.171925  0.029932465   0.03534304            2 
   85000    1.2455922   -6.8581177    30.384243  0.029788473  0.035283102            2 
   86000    1.2402907   -6.8336426    30.819899  0.029864243  0.035216626            3 
   87000    1.2395622   -6.8338899    30.999418  0.029692929  0.035151828            3 
   88000    1.2088486   -6.8524261    31.451665  0.029783773  0.035088945            3 
   89000    1.2334505   -6.8782357    31.800975  0.029776194  0.035023627            2 
   90000    1.2198619    -6.882981    32.245929  0.029857342  0.034973417            4 
   91000    1.2572099   -6.8796922    32.635904  0.029886359  0.034915635            2 
   92000    1.2487297   -6.8715428    33.166779  0.030042372  0.034857948            3 
   93000      1.23412   -6.8756573    33.415791  0.029942465  0.034807983            2 
   94000    1.2250638   -6.8565593    33.896646  0.030050218  0.034762145            6 
   95000    1.2234921   -6.8655662    34.456512   0.03022501  0.034719876            5 
   96000    1.2562986   -6.7927906    35.060641  0.030434584   0.03468978            1 
   97000    1.2186434   -6.8378171    35.555027  0.030545556  0.034673851            1 
   98000    1.2218462   -6.8318762    35.980474  0.030595641  0.034664246            2 
   99000    1.2212826   -6.8662368    36.374003  0.030617848  0.034656082            3 
  100000    1.2424367   -6.8772123    36.861493  0.030717911  0.034648152            2 
  101000    1.2351987   -6.8792304    37.289253   0.03076671  0.034640349            3 
  102000    1.2335251   -6.7980889    38.178852  0.031191872  0.034646267            1 
  103000    1.2470622    -6.841919    38.585402  0.031217963  0.034660898            2 
  104000    1.2323353   -6.9051792    38.772809  0.031067955  0.034670764            7 
  105000    1.2238127   -6.9053209    39.304671  0.031194183  0.034677725            2 
  106000    1.2111031   -6.8702368      39.5895  0.031123821   0.03468332            2 
  107000    1.2282871   -6.8665035    39.972328  0.031131096  0.034688504            9 
  108000    1.2656343   -6.8508638    40.378768  0.031156457  0.034685207            2 
  109000    1.2306891   -6.9101577     40.82761  0.031213769  0.034684252            2 
  110000    1.2271102   -6.9029347      41.0319  0.031084772   0.03468453            3 
  111000     1.216227   -6.8339437    41.404895  0.031084756  0.034679369            2 
  112000    1.2222223   -6.8239064    41.946048  0.031209857  0.034676369            4 
  113000    1.2443051   -6.8705569    42.420524  0.031283572  0.034672752            5 
  114000     1.226641   -6.8399526    42.590701  0.031133553  0.034668092            4 
  115000     1.196824    -6.858727    43.321183  0.031392161   0.03466143            2 
  116000     1.251116   -6.8877962    43.587903  0.031313149  0.034658964            4 
  117000    1.2446222   -6.8534942    44.047769  0.031373054  0.034655987            1 
  118000    1.2115459   -6.9271549    44.206872  0.031219542  0.034649369            1 
  119000    1.2185676   -6.8816518    44.642443  0.031262215  0.034641461            2 
  120000    1.2248757   -6.9087038    44.985481  0.031239917  0.034639301            3 
  121000    1.2098991   -6.8776317    45.580526  0.031391546  0.034632376            1 
  122000    1.2170626    -6.894624    45.935726  0.031376862  0.034627538            2 
  123000     1.236271   -6.8294538    46.382359  0.031424362  0.034622401            1 
  124000     1.235513   -6.9105248    46.851983  0.031486547  0.034619531            3 
  125000    1.2486732   -6.8944089    47.361733  0.031574488  0.034616081            2 
  126000    1.2386396   -6.8524075    47.528368  0.031434106  0.034610129            2 
  127000    1.2276355    -6.910953    47.946215  0.031460771  0.034603341            2 
  128000    1.2176558   -6.8418703    48.259478  0.031418931  0.034588723            1 
  129000    1.2428799    -6.909881    48.656719  0.031431989  0.034578876            3 
  130000    1.2489952    -6.904446    49.045759  0.031439589  0.034566429            2 
  131000    1.2231113   -6.8985186    49.549224  0.031519863  0.034557153            3 
  132000    1.2403436   -6.8848461    50.176995  0.031677396  0.034552283            2 
  133000    1.2240699   -6.8693084    50.493766  0.031637698  0.034551366            2 
  134000     1.246075   -6.8985377    50.985125  0.031707167   0.03454991            2 
  135000    1.2474255   -6.8651504    51.335405  0.031688521  0.034547251            3 
  136000    1.2472259   -6.9261725    51.612091  0.031625056  0.034545045            3 
  137000    1.2103203    -6.956469    52.096237  0.031688709  0.034544053            2 
  138000    1.2465457   -6.8297178    52.917976  0.031955299  0.034548646            1 
  139000     1.212641   -6.8858671    52.994356  0.031771197  0.034550225            3 
  140000    1.2309629   -6.9061502     53.17585  0.031652292  0.034548659            3 
  141000     1.237576   -6.8871091    53.803544  0.031798785  0.034544974            3 
  142000    1.2346263    -6.914263     54.03442   0.03171034  0.034538481            3 
  143000    1.2213704   -6.8848479    54.379493  0.031689681  0.034530022            2 
  144000    1.2213831   -6.8600429    54.772247  0.031696902  0.034520427            2 
  145000    1.2412664   -6.8374755    55.308569  0.031786534  0.034514749            3 
  146000    1.2265821   -6.9364731    55.210494  0.031512839  0.034503249            1 
  147000    1.2032807   -6.8716382    55.522892  0.031475562  0.034485229            1 
  148000    1.2026969   -6.8491303    56.150571  0.031616313  0.034465669            2 
  149000    1.2222882   -6.9111758    56.320511  0.031499167  0.034444674            2 
  150000    1.2140489   -6.8880662    56.680754  0.031489308  0.034422055            3 
  151000    1.2420048   -6.9125894    56.889307  0.031395864  0.034396914            2 
  152000    1.2220865   -6.8986778    56.993016  0.031246171  0.034365948            1 
  153000    1.2310968   -6.9025843    57.270954   0.03119333  0.034336408            2 
  154000    1.1972498   -6.8631003    57.992079  0.031380995  0.034307178            2 
  155000    1.2308256   -6.9147816    58.104775  0.031239126  0.034278258            4 
  156000    1.2306602   -6.9511065    58.349993  0.031169868  0.034248669            2 
  157000    1.2317316    -6.872664    58.955098  0.031292515  0.034219272            2 
  158000    1.2145374   -6.8763448    59.462829  0.031362252  0.034190714            2 
  159000    1.2460221   -6.7742829    60.029553   0.03146203  0.034164565            2 
  160000    1.2466716   -6.8873303    60.224016  0.031366675  0.034140115            3 
  161000    1.2139566   -6.8993772    60.574665  0.031353346  0.034111418            2 
  162000    1.2272849   -6.8955695    61.052937  0.031405832  0.034085654            3 
  163000    1.2400926   -6.8755946    61.172104  0.031274082  0.034059741            2 
  164000     1.233297   -6.9033591    61.571543  0.031286353  0.034033943            2 
  165000    1.2099526   -6.8559465    62.265225  0.031447083  0.034012559            3 
  166000    1.2236904   -6.8813508    62.642052  0.031446813   0.03399448            3 
  167000    1.2203012   -6.8757219    63.026666  0.031450432  0.033978009            1 
  168000    1.2259274   -6.8527528    63.494799  0.031495436  0.033961615            3 
  169000    1.2456849    -6.903602    64.029959  0.031572958  0.033944245            1 
  170000    1.2327725    -6.905351     64.38862  0.031563049  0.033929146            3 
  171000    1.2441176   -6.8375627    64.748992   0.03155409  0.033913096            3 
  172000     1.224259     -6.84832    65.098194  0.031539822  0.033896083            2 
  173000    1.2309786   -6.9088755    65.239813  0.031425729  0.033876955            4 
  174000    1.2344125   -6.8939712    65.751325  0.031490098  0.033857912            2 
  175000    1.2031364   -6.8930036     65.92484  0.031392781  0.033839462            4 
  176000    1.2368684   -6.8807192    66.366071  0.031423329  0.033816244            2 
  177000    1.2195649   -6.8878937    66.708627  0.031407075  0.033795348            2 
  178000    1.2166839   -6.8941331    67.010038   0.03137174  0.033773315            4 
  179000    1.2367971   -6.8799282    67.648598   0.03149376  0.033753958            4 
  180000     1.219238   -6.9121265    68.085425   0.03152103  0.033734698            4 
  181000    1.2029967   -6.8548477    68.148046  0.031375712  0.033716134            2 
  182000    1.2138559   -6.8430394    68.580663  0.031401402  0.033694844            2 
  183000    1.2145516   -6.8551174    69.127093   0.03147864  0.033674671            2 
  184000    1.2370458   -6.9034811    69.103846  0.031297032  0.033654347            5 
  185000    1.2247718   -6.8934089    69.409073  0.031265348  0.033635158            3 
  186000    1.2258965   -6.9246239    69.877595  0.031307166  0.033613671            5 
  187000    1.2323314   -6.8974365    70.504053  0.031418918  0.033593896            4 
  188000    1.2161873   -6.9096852    70.686846  0.031332822  0.033575809            2 
  189000    1.2145176   -6.9278821    71.336047  0.031453284   0.03355792            4 
  190000    1.2428264   -6.9046766    71.690549  0.031443223  0.033540877            1 
  191000    1.2226859   -6.9378537    71.965093  0.031398383  0.033524641            2 
  192000     1.226419   -6.9163779    72.290345  0.031376018  0.033509493            3 
  193000      1.21651   -6.9124043    72.372514  0.031248927  0.033491671            2 
  194000    1.1962961   -6.8990574    73.165213  0.031428356  0.033472855            2 
  195000    1.2308012   -6.9241054    73.380295    0.0313591  0.033454708            4 
  196000    1.2430147   -6.9201303    73.999625  0.031462425  0.033439254            3 
  197000    1.2125254   -6.9674666    74.417616  0.031479533  0.033424247            2 
  198000    1.2226023   -6.9551566    74.629183  0.031409589  0.033409653            2 
  199000    1.2300951   -6.8887814    75.339982  0.031549406  0.033397431            1 
  200000    1.1923015   -6.9175053    75.596202  0.031498418  0.033386251            4 
  201000    1.2011035   -6.8711463    76.076279  0.031540746  0.033375126            3 
  202000    1.2164526   -6.8732511     76.55047  0.031580227   0.03336316            3 
  203000    1.2324252   -6.8687153    76.991906  0.031605873  0.033350833            2 
  204000    1.2409396   -6.8846057    77.074242  0.031484576  0.033338228            2 
  205000    1.2236547   -6.9110426    77.246032  0.031400826  0.033325135            3 
  206000    1.2160908   -6.9306226    77.607323  0.031394548  0.033310042            7 
  207000    1.2280394    -6.934119    77.863746  0.031346113  0.033296731            4 
  208000    1.2173076   -6.9182563    78.386121  0.031404696    0.0332837            2 
  209000    1.2252833   -6.9225263    78.670907  0.031367985  0.033269976            2 
  210000    1.2378275   -6.9079322    78.915509  0.031315678  0.033252172            3 
  211000    1.2175175   -6.9277662     79.24829  0.031298693  0.033236433            4 
  212000    1.2082602   -6.9353243    79.816786  0.031374523  0.033220116            2 
  213000    1.2392503   -6.9188078    80.098096  0.031337283  0.033202651            3 
  214000    1.2327039   -6.9207689    80.585098   0.03138049  0.033186947            2 
  215000    1.2188693   -6.9265211    80.975617  0.031385898  0.033172595            3 
  216000    1.2061984   -6.9304618    81.018221   0.03125703  0.033158052            2 
  217000    1.2127863   -6.9369678    81.693332  0.031372247  0.033144269            4 
  218000    1.2265027   -6.9229748    82.216616   0.03142837  0.033131399            2 
  219000    1.2139412   -6.8446893    82.740725  0.031484294  0.033115735            1 
  220000    1.2309673   -6.9207524    82.880193  0.031394013  0.033101289            1 
  221000    1.2177762   -6.9497121    82.883842  0.031253334  0.033087794            4 
  222000    1.2157264   -6.9495328    83.602335  0.031382258  0.033073343            2 
  223000    1.2081928   -6.9425089    83.891858  0.031349723  0.033059415            2 
  224000    1.1932395   -6.9314279    84.442981  0.031414799  0.033046464            2 
  225000    1.2210028   -6.9015915    84.830465  0.031418691   0.03303524            2 
  226000    1.2378648   -6.9228139    85.057868  0.031363521  0.033023243            2 
  227000     1.186754   -6.8617604    85.582487  0.031417947  0.033009576            2 
  228000    1.2159291   -6.8784541    85.717803  0.031329606  0.032995538            3 
  229000    1.2115883   -6.9547225     85.75444  0.031206128  0.032979174            3 
  230000    1.2075106   -6.9800381    86.237787  0.031245575  0.032962985            3 
  231000    1.2267443   -6.9172149    87.206838  0.031459898   0.03295022            2 
  232000    1.2038453   -6.9012496    87.206347  0.031324119   0.03293871            2 
  233000    1.2219698   -6.8993423    87.601832  0.031331127  0.032927533            1 
  234000    1.1926876   -6.9495614    88.034066  0.031351163  0.032916138            1 
  235000      1.21226   -6.9120634    88.411761  0.031351688  0.032903401            3 
  236000    1.2165185   -6.9041709    88.852249  0.031374382  0.032891617            3 
  237000     1.249461   -6.9314609    88.804631  0.031225257  0.032880705            3 
  238000    1.2058997   -6.8972132    89.716029  0.031413175  0.032869913            2 
  239000    1.2203256   -6.9194585    90.096158  0.031414281  0.032858587            2 
  240000    1.1865169     -6.85587    90.515054  0.031428838  0.032848627            1 
  241000     1.206166   -6.9247548    90.762777  0.031384086  0.032837315            3 
  242000    1.2032391   -6.9348958    90.587379  0.031194001  0.032823045            3 
  243000    1.2103069   -6.9370828     91.21851  0.031282068  0.032809639            2 
  244000     1.228534   -6.9739568    91.361907  0.031202837  0.032794426            3 
  245000    1.2335268   -6.9614844     91.52749  0.031131799  0.032779186            4 
  246000    1.1988165   -6.8949164    92.534609  0.031346412  0.032764886            5 
  247000    1.2440602   -6.8833855    93.128946  0.031420022   0.03275257            2 
  248000    1.2408507   -6.9342899     92.97159  0.031240454  0.032740038            3 
  249000    1.2095443   -6.9507345    93.359851   0.03124493  0.032726219            3 
  250000    1.2319224    -6.905807     93.78293  0.031260977  0.032711497            2 
  251000    1.2085295   -6.9099407      93.9335  0.031186421  0.032696715            1 
  252000    1.2478988    -6.926745    94.243434  0.031165157  0.032680541            2 
  253000    1.2322989   -6.9125726    94.693839  0.031190329   0.03266625            3 
  254000    1.2027576   -6.9132482     94.97822  0.031160833  0.032653206            3 
  255000    1.2116424   -6.9475638    95.225599  0.031119477    0.0326379            2 
  256000    1.1813789   -6.9856215    95.573285  0.031111095  0.032622355            3 
  257000    1.2189142   -6.9312418    96.100784  0.031161084    0.0326076            2 
  258000    1.2049618   -6.9502915    96.438574   0.03114941  0.032594977            6 
  259000     1.208147   -6.9093039    96.722212  0.031120403  0.032582956            3 
  260000    1.2234071   -6.8903053    97.153954  0.031139088  0.032570141            3 
  261000    1.2037677   -6.9528018    97.494237  0.031128428  0.032558131            1 
  262000     1.228206    -6.954019    98.005108  0.031172108  0.032545282            2 
  263000    1.2238666   -6.9501417    98.384803  0.031173892  0.032533555            4 
  264000    1.1981925   -6.8901441    99.031586   0.03125997  0.032522015            1 
  265000    1.2101808   -6.9177511    99.079483   0.03115707  0.032510936            1 
  266000    1.2037397   -6.9605169    99.778798  0.031259022  0.032498433            2 
  267000    1.1898186   -6.9037395     100.2521  0.031289669  0.032487045            2 
  268000    1.2065915   -6.9398871     100.2962   0.03118663  0.032476462            2 
  269000    1.2536281    -6.925454    100.92601  0.031265804  0.032465934            3 
  270000    1.2304015   -6.9109457    101.51657  0.031332274  0.032457753            2 
  271000    1.1873219   -6.9750506    101.15516  0.031105523   0.03244758            3 
  272000    1.2018344   -6.9915916    101.51852  0.031102486  0.032437791            3 
  273000    1.2054026    -6.920614     102.3586  0.031244993  0.032427464            3 
  274000    1.2294419    -6.889042     102.5261  0.031181904  0.032415406            1 
  275000    1.2082558   -6.9187546    102.74414  0.031134587  0.032404737            2 
  276000    1.2137943   -6.9149081    103.48793  0.031246356  0.032393879            2 
  277000    1.1759607   -6.9064584    103.98776  0.031283924  0.032383447            3 
  278000    1.2207162   -6.9297942    104.05116  0.031190397  0.032373633            2 
  279000    1.1912269   -6.9327628    104.30979  0.031155852  0.032364684            2 
  280000    1.2207916   -6.9319612    104.83742  0.031201614  0.032355101            1 
  281000    1.2432051   -6.9607682       104.95  0.031123963  0.032343584            2 
  282000    1.2243593   -6.9650257    105.49124  0.031173535  0.032334304            4 
  283000    1.2185512    -6.942041    105.93942  0.031195353   0.03232535            1 
  284000    1.2127147   -6.9384943    106.29358   0.03118943  0.032317177            3 
  285000    1.1974207   -6.9107316    106.84961  0.031242575  0.032309482            2 
  286000    1.2053503   -6.9274261    107.12668  0.031214067  0.032301504            1 
  287000    1.1855997   -6.9548228    107.90979  0.031332693  0.032293674            2 
  288000    1.1846125   -6.9594946    107.98027  0.031244291  0.032286304            2 
  289000    1.2191169   -6.9934516    107.72805  0.031063452  0.032279652            2 
  290000    1.2235018   -6.9751421    108.87566   0.03128611   0.03227342            3 
  291000    1.2100824   -6.9286506    109.50995  0.031360239  0.032267912            1 
  292000    1.1997676   -6.9245753    110.04251  0.031404825  0.032262433            3 
  293000    1.2068637   -6.9207253    110.65386  0.031471519  0.032257309            2 
  294000    1.2036437   -6.9596414    110.72235  0.031383885  0.032251795            2 
  295000    1.1763859   -6.9287184    111.27323  0.031433115  0.032247054            3 
  296000    1.1966602    -6.965445    111.44119  0.031374208  0.032241474            2 
  297000     1.202574    -6.959181    111.37423  0.031249784  0.032235944            2 
  298000    1.2055857   -6.8905154    112.06664  0.031338545  0.032231232            3 
  299000    1.1840939   -6.9042587     112.9504  0.031480044  0.032227164            2 
  300000    1.2247384   -6.9144193    113.06756  0.031407657  0.032223262            2 
  301000    1.2108519   -6.8987317    113.89741  0.031533059  0.032220804            2 
  302000    1.1865415   -6.9313653    114.20252  0.031512837  0.032218672            3 
  303000    1.1987264   -6.8981899    115.07733  0.031649431  0.032218177            3 
  304000    1.2166992   -6.9578337    114.67393  0.031434739  0.032217305            2 
  305000    1.1955047   -6.9629179    114.68818   0.03133557  0.032214582            2 
  306000    1.2126265   -6.9519002    115.64689  0.031494251  0.032210673            1 
  307000    1.2173617   -6.9882042    115.38988  0.031321901  0.032206773            2 
  308000    1.2301155   -6.9717567     115.3854  0.031218994  0.032200538            2 
  309000    1.1781929   -6.9637323    115.69493  0.031201436  0.032192698            3 
  310000    1.1789699   -6.9556422    115.99119  0.031180427   0.03218531            1 
  311000    1.2025442   -6.9918603    116.15003   0.03112273  0.032177234            1 
  312000    1.2302729   -6.9709434    116.99073  0.031247525  0.032168778            2 
  313000    1.2194208   -6.9839592    117.40014  0.031256692  0.032162983            7 
  314000    1.2157103   -6.9263557     117.4507  0.031170567  0.032157322            2 
  315000    1.2127676   -6.9487383    117.92932  0.031198233  0.032151359            9 
  316000    1.2092622    -6.918166     118.7436  0.031314242   0.03214645            5 
  317000    1.1903084   -6.9623153     118.6559  0.031192403  0.032141215            2 
  318000    1.1869148   -6.9710042    119.58838  0.031338674  0.032136494            6 
  319000    1.1845277   -6.9525211    119.87567  0.031315484  0.032131242            2 
  320000    1.1990614     -6.94749    120.19316  0.031300302  0.032125627            2 
  321000    1.2195842   -6.9639079    120.33848  0.031240519  0.032118621            3 
  322000    1.1932147    -6.997905    120.52453  0.031191649  0.032112173            3 
  323000    1.1684519   -6.9450814    121.04757  0.031230023   0.03210485            2 
  324000    1.1933382   -7.0030326     120.7016  0.031044649  0.032097364            3 
  325000    1.2118798   -6.9622464    121.24847  0.031089351  0.032088792            2 
  326000     1.198757   -7.0083937    121.36689  0.031024257  0.032079523            6 
  327000    1.1947497   -6.9717569    121.90289  0.031065975  0.032070729            2 
  328000    1.2097665   -6.9378818    122.84187  0.031209824   0.03206207            3 
  329000    1.2024898   -6.9481089    122.86738  0.031121423  0.032054424            3 
  330000    1.1898792   -6.9604214    123.34364  0.031147383  0.032046901            2 
  331000    1.1929218   -6.9432579    123.87898  0.031188061  0.032039588            2 
  332000    1.1762549   -6.9386631    123.97572  0.031118404  0.032032128            1 
  333000    1.1874051   -6.9621465    124.14498  0.031067312  0.032024016            4 
  334000    1.1818901   -7.0064214     123.9973   0.03093745  0.032015136            2 
  335000    1.2101577   -6.9869203    124.44488  0.030956437  0.032006599            2 
  336000    1.2105659   -6.9551055    125.19842  0.031051195  0.031999417            4 
  337000     1.216744   -6.9732171     125.4419  0.031019263   0.03199176            1 
  338000     1.199186   -6.9698664    126.07872  0.031084498  0.031984851            2 
  339000    1.1769052   -6.9798584    126.46407  0.031087529  0.031978241            4 
  340000    1.1944233   -6.9557818    127.18153  0.031171944  0.031970983            2 
  341000    1.2065993   -6.9736072    127.26854  0.031101793  0.031964301            2 
  342000    1.1868609   -6.9121731    127.99979  0.031189032  0.031958037            2 
  343000    1.2002042   -7.0110748    127.95971  0.031088364  0.031952101            1 
  344000     1.197002   -6.9636217    128.55191  0.031141451  0.031946029            2 
  345000    1.1707925   -6.9314225    129.00131  0.031159736   0.03193882            2 
  346000    1.1869616    -7.008537    128.71204   0.03100001  0.031931474            4 
  347000    1.2057915   -6.9832775    129.30662  0.031053464  0.031923787            1 
  348000    1.1952843   -6.9664291    129.85398  0.031095301  0.031915803            4 
  349000    1.1880419   -6.9513166    130.22496  0.031094786  0.031909624            4 
  350000    1.2355938   -6.9898545    130.56711  0.031087407  0.031903367            2 
  351000    1.1797428   -6.9886181    131.42703     0.031203  0.031896425            2 
  352000    1.2088099      -6.9552    131.03622  0.031021832  0.031890577            4 
  353000    1.1736542    -7.016203    131.70472  0.031091767  0.031884754            2 
  354000    1.1773325   -6.9591608    132.44938  0.031179232  0.031879118            3 
  355000    1.1911325   -6.9726258    132.26176  0.031047361  0.031873555            3 
  356000    1.1814234   -6.9814641    132.80891  0.031088229   0.03186714            3 
  357000    1.2188838   -6.9386104    133.57736  0.031180522  0.031861732            4 
  358000    1.2036863   -6.9406386    133.84666  0.031156114  0.031855904            2 
  359000    1.2152469   -6.9604472     134.3286  0.031181198  0.031849478            2 
  360000    1.2018756   -6.9315383    134.72869  0.031187197  0.031844032            6 
  361000    1.1788811   -6.9693714    134.46618  0.031040207   0.03183876            3 
  362000    1.2069376   -6.9976301    135.38163    0.0311652  0.031832904            2 
  363000    1.1835739   -6.9888896    135.52305  0.031111812  0.031827883            3 
  364000    1.1956964   -6.9817685    136.17793  0.031176267   0.03182211            1 
  365000    1.1879318   -6.9575612    136.81929   0.03123728  0.031816635            3 
  366000    1.1963215   -6.9867101    136.31582  0.031037299  0.031812201            3 
  367000    1.1839927   -6.9818336    137.11692  0.031134632  0.031807554            2 
  368000    1.2071138   -6.9670276    137.67793  0.031177068  0.031804336            3 
  369000    1.1938982   -6.9689735    138.21591  0.031214071  0.031801703            3 
  370000    1.1985804   -6.9802075    138.64924  0.031227306  0.031797027            2 
  371000    1.1811863   -6.9908546     138.2717  0.031058334  0.031792777            3 
  372000    1.1806078   -7.0187828    138.51477  0.031029295  0.031788262            2 
  373000    1.2024402   -6.9641935    139.48212  0.031162224  0.031783825            3 
  374000    1.1820969   -7.0319271    139.61609  0.031108755  0.031780143            2 
  375000    1.2103137   -6.9755574     140.3283  0.031184066  0.031775683            2 
  376000    1.2094732   -6.9997944    140.48248  0.031135301  0.031772444            3 
  377000    1.1867318   -6.9501889    141.03732  0.031175359    0.0317685            1 
  378000    1.1864605   -7.0235193    141.09737  0.031106122  0.031764805            6 
  379000    1.2014253   -6.9721107    141.82056  0.031183061  0.031761959            2 
  380000    1.1906896   -6.9500769    142.21795  0.031188148  0.031758201            2 
  381000    1.1650661   -6.9609765    142.38436  0.031142686  0.031754152            3 
  382000    1.1800135   -6.9930356    142.81185  0.031154417  0.031749979            4 
  383000     1.164175   -6.9395386    143.46993  0.031216259  0.031746047            1 
  384000     1.189638   -6.9800419     142.8543  0.031001366   0.03174179            4 
  385000    1.1998627   -6.9743211    143.60389  0.031083092  0.031737045            2 
  386000    1.1567164   -7.0173217    143.90742  0.031068096  0.031732719            3 
  387000     1.168106   -7.0146461     144.6319  0.031143819  0.031728811            6 
  388000    1.1845867   -6.9713629    144.87213  0.031115149  0.031725376            4 
  389000     1.161764     -7.02206    144.68706  0.030995515  0.031720526            3 
  390000     1.156481   -6.9731248    145.86055  0.031166785  0.031716569            3 
  391000    1.1882465    -6.974355    146.19986  0.031159389  0.031712361            3 
  392000     1.202109   -6.9945982    146.35008  0.031111837  0.031709431            4 
  393000    1.2021793   -6.9917424    146.46872  0.031057828  0.031705886            3 
  394000    1.1783097   -6.9944521    147.15211  0.031123543  0.031702394            3 
  395000    1.1953593   -7.0127807    147.57718  0.031134425  0.031698754            1 
  396000    1.1943942   -6.9965258    148.15283  0.031176942  0.031694654            4 
  397000    1.1669923    -7.000308    148.37947  0.031145985  0.031690941            4 
  398000    1.1819791   -7.0410286    148.02143  0.030992762  0.031686748            3 
  399000    1.1666066   -7.0000475    149.09738  0.031139804  0.031683065            2 
  400000    1.1943105    -6.960053    149.10608  0.031063766  0.031679557            2 
  401000    1.2025215   -6.9958539    149.79052  0.031128537  0.031675968            2 
  402000    1.2008252   -7.0128487     149.5544  0.031002156  0.031671243            2 
  403000    1.1958079   -6.9541778    149.98162   0.03101357  0.031666976            4 
  404000    1.1679969   -6.9896704    150.82881  0.031111554  0.031661565            2 
  405000    1.1837077   -7.0258881    150.64841  0.030997616  0.031656303            7 
  406000    1.1913078    -6.994737    151.28385  0.031051693  0.031651586            1 
  407000    1.1947966   -6.9758318    152.12454  0.031147531  0.031648194            8 
  408000    1.2017324   -6.9699965    151.60743  0.030965571  0.031643029            3 
  409000     1.162491   -6.9661025    151.93753  0.030957117  0.031637789            4 
  410000    1.1891949   -6.9699705    152.06283  0.030907079  0.031631786            1 
  411000    1.1630964   -7.0068708     152.1445  0.030848439  0.031626106            2 
  412000    1.1777097   -6.9872888    152.50802  0.030847091  0.031619491            2 
  413000    1.1737446   -7.0001052    153.52821  0.030978251  0.031613513            5 
  414000    1.1779952   -6.9891851    153.66759   0.03093148  0.031607671            2 
  415000    1.1933666   -6.9543466    154.31865   0.03098768  0.031602149            7 
  416000     1.168867   -6.9897201    153.96594  0.030842535  0.031595964            2 
  417000    1.1797565   -7.0258009    154.24661  0.030824661  0.031589578            2 
  418000    1.1741996   -7.0045732    154.23734  0.030749071  0.031582429            4 
  419000    1.1530196    -7.007813    155.16248  0.030859682  0.031575454            9 
  420000    1.2013477   -7.0209208    155.00094  0.030754155  0.031568252            2 
  421000    1.1606426   -6.9854871    155.77198  0.030833726  0.031561114            4 
  422000    1.2071543   -6.9847862    155.68605   0.03074369  0.031553209            4 
  423000    1.1692035   -6.9741549    156.37331  0.030806405   0.03154535            3 
  424000    1.2037088   -6.9789662    157.15001  0.030886402  0.031537663            3 
  425000     1.176162    -7.013793     156.6261  0.030711001  0.031530519            6 
  426000    1.1628293   -7.0128279    157.26719  0.030764318  0.031522865            2 
  427000    1.1973803    -6.967978    158.27319  0.030888601  0.031516079            1 
  428000    1.1808755   -6.9944299    158.41098  0.030843259  0.031509514            9 
  429000    1.1757899   -7.0239521    158.04814  0.030700881  0.031502895            3 
  430000    1.1956097   -7.0084995    159.24263  0.030860974   0.03149597            2 
  431000    1.1730612   -6.9764234    159.67354  0.030872687   0.03148961            2 
  432000    1.1696307   -7.0025975    160.04501   0.03087288   0.03148465            6 
  433000    1.1561587    -7.012753    160.43454  0.030876547  0.031478532            1 
  434000    1.1717881   -7.0280899    160.41603  0.030801848  0.031472462            2 
  435000     1.184025   -7.0248384    160.39131  0.030726305  0.031466344            3 
  436000     1.185865   -6.9862336    161.16881  0.030804436  0.031460027            5 
  437000     1.204787   -7.0579898    161.50007  0.030797116  0.031453496            2 
  438000    1.1910805   -6.9907485    161.70644  0.030766065  0.031446642            2 
  439000    1.1761356   -6.9917642    161.70703  0.030696096  0.031439317            2 
  440000    1.1927718   -7.0106123     162.2171  0.030722936  0.031432143            2 
  441000    1.1666397   -7.0304576    162.27385  0.030663992  0.031425114            3 
  442000    1.2064423   -7.0332081    162.74534   0.03068351  0.031417994            2 
  443000     1.185588   -6.9882493     163.7306  0.030799586  0.031411759            3 
  444000    1.1777895    -6.983804    163.93504  0.030768588  0.031405946            4 
  445000    1.2070035   -6.9900855    164.25458  0.030759285  0.031400075            4 
  446000    1.1845037   -7.0037532    164.10922  0.030663157  0.031393236            3 
  447000    1.1701933    -7.009007    164.68446  0.030701801  0.031387179            2 
  448000    1.1675865   -6.9909366    165.19814   0.03072882  0.031381204            2 
  449000    1.1666731   -7.0288499    165.46072  0.030709116   0.03137556            3 
  450000    1.1898301   -6.9951202     166.0358  0.030747371  0.031369445            3 
  451000     1.178039   -6.9854077    166.12446  0.030695577  0.031363661            1 
  452000    1.1550305   -7.0285463    166.49274  0.030695564  0.031357406            3 
  453000    1.1754543   -6.9661444    167.85593  0.030878574  0.031351594            3 
  454000    1.1915198   -7.0337942    167.27528  0.030703979  0.031346768            2 
  455000    1.1543915   -7.0296956    168.04326  0.030777153   0.03134026            6 
  456000    1.1836286   -7.0236631    168.14935  0.030729048  0.031334109            2 
  457000    1.1891414   -7.0202927    168.13818   0.03065977  0.031327914            3 
  458000    1.1712345   -7.0302639    168.54935   0.03066764  0.031321405            3 
  459000    1.1546927   -6.9946417    169.60428  0.030792353  0.031314755            3 
  460000    1.1809352   -7.0079413    169.21948  0.030655703  0.031308443            5 
  461000    1.1779325   -7.0205176    170.27319   0.03077968  0.031301558            2 
  462000    1.1700286   -7.0546694    169.54544  0.030581789  0.031294111            1 
  463000    1.1803701   -7.0613045    170.12263  0.030619625  0.031286767            2 
  464000    1.1995217   -7.0477639     170.8674  0.030687392  0.031280337            2 
  465000     1.189342   -7.0604214    171.28868  0.030696897  0.031274561            1 
  466000    1.1682025   -7.0802006    170.96611  0.030573339   0.03126792            1 
  467000    1.1890526    -7.017279    171.75736  0.030649065  0.031260632            2 
  468000     1.185667   -6.9908427    171.67924  0.030569666  0.031253106            2 
  469000    1.1691898   -7.0595847    172.48872  0.030648315  0.031245884            4 
  470000    1.1857318   -7.0537626    171.78879  0.030459006  0.031238164            4 
  471000    1.1763853   -7.0478132    172.38547  0.030499906  0.031230084            2 
  472000    1.1677051   -7.0046069    173.38474  0.030611712  0.031222481            3 
  473000    1.1802786   -7.0282394    173.01371  0.030481626  0.031214964            2 
  474000    1.1764079     -7.06264    173.22071  0.030453711  0.031207538            1 
  475000    1.1893372   -7.0317693    173.87789  0.030504894  0.031200327            4 
  476000    1.1589005   -7.0247397    174.41123  0.030534179  0.031192942            2 
  477000    1.1891365   -7.0096469    173.81046   0.03036521  0.031185242            1 
  478000    1.1700387   -7.0068233    174.89278  0.030490374   0.03117737            3 
  479000    1.1910874   -7.0028048    174.52874  0.030363386  0.031169212            3 
  480000    1.2075955   -7.0248134    175.51584    0.0304715  0.031160316            6 
  481000    1.1739716   -7.0409234    174.97943  0.030315216   0.03115089            2 
  482000    1.1761179    -7.041794    175.44731  0.030333213   0.03114235            2 
  483000    1.1834291   -7.0563035    176.17536  0.030396025  0.031133646            3 
  484000    1.1421057   -7.0405498    176.24519  0.030345247  0.031125278            2 
  485000    1.1605885   -7.0126827    176.47411  0.030322011  0.031116823            3 
  486000    1.1510407   -7.0796176    176.47749  0.030260201  0.031107933            3 
  487000    1.1698812   -7.0840463    177.46845  0.030367634  0.031098761            3 
  488000    1.1724843   -7.0560137    177.22584  0.030263976   0.03108977            3 
  489000    1.1423594    -7.028041    178.01241  0.030336129     0.031081            2 
  490000    1.1734415   -6.9769395    179.02228  0.030445966  0.031072848            3 
  491000    1.1769082   -7.0446062    178.60352  0.030312885  0.031064783            1 
  492000    1.1997825   -7.0647193    179.07193  0.030330612  0.031056477            3 
  493000    1.1832705   -7.0308453    179.60344  0.030358931  0.031048743            3 
  494000    1.1592189   -7.0677743    179.34128  0.030253252  0.031040649            3 
  495000    1.1811276   -7.0496687    179.95068  0.030294727   0.03103214            1 
  496000    1.1744742   -7.0236604    180.95305  0.030402058  0.031024032            2 
  497000    1.1872988   -7.0440998    180.97022  0.030343767  0.031015982            2 
  498000    1.1826317   -7.0391386    180.95814  0.030280813  0.031007799            2 
  499000     1.176122   -7.0339427    181.54622  0.030318339   0.03099971            7 
  500000    1.1890864   -7.0789122    181.41873  0.030236455   0.03099185            3 
  501000    1.1759988   -7.0164189    182.21234  0.030308108  0.030983666            1 
  502000    1.1509445   -7.0598468    182.23079  0.030250795  0.030975305            4 
  503000    1.1667354   -7.0306957    182.65844  0.030261505  0.030966364            2 
  504000    1.1675793   -7.0265651    183.39728  0.030323624  0.030958234            3 
  505000    1.1526652   -7.0442744      184.002  0.030363366   0.03095089            3 
  506000    1.1742471    -7.063922    184.15184  0.030328037  0.030943832            1 
  507000    1.1789532   -7.0440804      184.997  0.030407133  0.030936707            2 
  508000    1.1703694   -7.0819946    185.08165  0.030361162  0.030929577            7 
  509000    1.1754206   -7.0160005    185.45629  0.030362851  0.030922436            1 
  510000    1.1723989   -7.0455288    185.94159  0.030382613  0.030915609            2 
  511000    1.1746855   -7.0093512    185.63303  0.030272837  0.030908654            7 
  512000    1.1795616   -7.0435216    185.51978  0.030195276  0.030900812            6 
  513000    1.1846037   -7.0085437    185.73153  0.030170814  0.030892482            6 
  514000     1.199839   -7.0809705    185.37883  0.030054933  0.030883181            3 
  515000    1.1984529   -7.0330423    186.55858  0.030187473  0.030873878            2 
  516000    1.1600851   -7.0429476    186.71922  0.030154913  0.030865371            3 
  517000    1.1335113   -7.0330322    187.34035  0.030196703  0.030857233            2 
  518000    1.1735949   -7.0319947    186.98432  0.030081133   0.03084906            7 
  519000    1.1669405   -7.0692659    186.56705  0.029956174  0.030840099            2 
  520000    1.1637976   -6.9742207    188.54163  0.030215005  0.030831393            4 
  521000    1.1922842   -7.0174115    188.52687   0.03015465  0.030822534            3 
  522000    1.1835108   -7.0356102    188.56912  0.030103627   0.03081369            5 
  523000     1.192873   -7.0117955    189.50855  0.030195754  0.030805561            2 
  524000    1.1649393   -7.0463415    189.30799  0.030106233  0.030796858            3 
  525000    1.1730645   -7.0724695     188.5646  0.029930889  0.030787785            5 
  526000    1.1670323    -7.028769    189.47449  0.030018138  0.030779076            4 
  527000    1.1404947   -7.0609575    189.88566  0.030026195  0.030769845            1 
  528000    1.1716471   -7.0738619    190.47643  0.030062567  0.030761017            8 
  529000    1.1644538   -7.0417055    190.91799  0.030075298  0.030752026            3 
  530000    1.1429751   -7.0858693    191.23682  0.030068682  0.030742486            2 
  531000     1.157757   -7.0148419    191.20965  0.030007792   0.03073318            2 
  532000    1.1619657   -7.0871961    191.10019   0.02993424  0.030724076            3 
  533000    1.1741707   -7.1005224    191.29838  0.029909065  0.030714936            5 
  534000    1.1692896   -7.0337164    191.83436  0.029936698  0.030705325            3 
  535000    1.1549997   -7.0231426    192.35988  0.029962598   0.03069565            1 
  536000    1.1627466   -7.0315784     193.0183  0.030009064  0.030686332            2 
  537000    1.1790025   -7.0392667    192.57591   0.02988453  0.030676799            5 
  538000    1.1799749   -6.9907639    193.41318  0.029958672  0.030667272            3 
  539000    1.1667084   -7.0323118    193.42153   0.02990438  0.030657834            2 
  540000    1.1723258   -7.0196732     194.1296  0.029958271  0.030647657            4 
  541000    1.1548846   -7.0563177    193.45103  0.029798372  0.030637614            4 
  542000    1.1822812   -7.0641276    194.20596  0.029859464  0.030626986            5 
  543000    1.1493857    -7.013386    194.92078  0.029914178  0.030617189            1 
  544000    1.1533101   -7.0431261     194.9142   0.02985818  0.030607871            1 
  545000    1.1324391   -7.0498526    195.26216  0.029856599  0.030598261            5 
  546000     1.140619   -7.0436565    195.75686   0.02987742  0.030588558            2 
  547000    1.1594971    -7.015854    196.58585  0.029949093  0.030579027            7 
  548000    1.1755597   -7.0253717    196.21543  0.029838113  0.030569664            1 
  549000    1.1671115   -7.0807867     195.6766  0.029701973  0.030559671            2 
  550000    1.1897397   -7.0811276    196.68084  0.029800127  0.030549585            2 
  551000    1.1645613   -7.0702814    197.08477  0.029807135  0.030539784            4 
  552000    1.1552658   -7.0848196    197.41982  0.029803717  0.030530222            2 
  553000    1.1617232   -7.0522441     198.1185  0.029855109  0.030521591            4 
  554000     1.135321   -6.9958367    199.37211  0.029989789  0.030513529            2 
  555000    1.1947105   -7.0070665    198.55363  0.029812857  0.030505391            2 
  556000    1.1609277   -7.0559664    199.33744  0.029876715  0.030497012            3 
  557000    1.1671491   -7.0840925    199.08695  0.029785599  0.030488325            4 
  558000    1.1605661   -7.0816578    199.91452  0.029855812  0.030479931            6 
  559000     1.137954   -7.0588055    200.34436  0.029866482  0.030471636            2 
  560000    1.1395851    -7.042115    201.19438  0.029939641  0.030463226            4 
  561000    1.1463744   -7.0538983    201.30631  0.029902898  0.030455374            2 
  562000    1.1777269   -7.0497733    201.06352  0.029813689  0.030447694            3 
  563000    1.1476622   -7.0411906    201.54497  0.029831996  0.030440028            4 
  564000    1.1293183   -7.1251912     201.7444   0.02980857  0.030431826            2 
  565000    1.1579793   -7.1109373    202.55987  0.029876087  0.030423538            4 
  566000    1.1525058   -7.0527567     202.5173  0.029817035  0.030415864            2 
  567000    1.1795066    -7.072724    202.66944  0.029786808  0.030407741            2 
  568000     1.164121    -7.128563    202.62579  0.029727962  0.030399199            3 
  569000    1.1684017   -7.0808377    203.24012  0.029765688  0.030390496            2 
  570000    1.1558268   -7.0037904    204.29643  0.029867899  0.030382263            2 
  571000    1.1480412   -7.0923398    203.51359  0.029701341  0.030374523            2 
  572000    1.1657164   -7.1065967    204.25093  0.029756837   0.03036645            5 
  573000    1.1681557   -7.0513308    205.73236  0.029920355  0.030358649            7 
  574000    1.1249664   -7.1019596    204.18203  0.029643152  0.030350182            5 
  575000    1.1551537   -7.0763333    204.68808   0.02966494  0.030341234            2 
  576000    1.1580933   -7.0528898    205.55026  0.029738174    0.0303323            4 
  577000    1.1804089   -7.1074088    205.54684   0.02968614  0.030323222            2 
  578000    1.1510441   -7.0926206    205.89085  0.029684378   0.03031398            3 
  579000    1.1498253   -7.1128457    206.10826  0.029664402  0.030305173            3 
  580000    1.1524483   -7.0523192    206.84871  0.029719642  0.030296426            1 
  581000    1.1378463   -7.1366647    206.17733  0.029572193  0.030287697            3 
  582000    1.1712172    -7.105952    207.15609  0.029661525  0.030278678            2 
  583000     1.164123   -7.1181956    207.30859  0.029632445  0.030270177            3 
  584000    1.1501039   -7.0563577    207.84047  0.029657601  0.030261893            2 
  585000    1.1505719   -7.1079302     207.7166  0.029589259  0.030253094            4 
  586000    1.1660247   -7.0779218    207.98196  0.029576502  0.030244413            1 
  587000    1.1606477   -7.0807653    208.99763  0.029670305   0.03023542            2 
  588000    1.1983702   -7.0606345    209.42129  0.029679888  0.030227306            3 
  589000    1.1697644    -7.099145    208.71262  0.029529233  0.030219116            4 
  590000    1.1953478   -7.1069316     209.1738  0.029544322  0.030210649            3 
  591000    1.1742909   -7.0557083    210.32781  0.029657051  0.030201668            3 
  592000    1.1474022   -7.0676622    210.60857  0.029646477  0.030193163            3 
  593000    1.1657866   -7.0699126     210.8959  0.029636861  0.030184455            3 
  594000    1.1586569   -7.0760188    210.81903  0.029576183  0.030175745            1 
  595000    1.1823049   -7.0618566    210.71184  0.029511462  0.030167108            2 
  596000    1.1553438   -7.0400719    211.35092  0.029551304  0.030158908            2 
  597000    1.1554746   -7.0467543    212.23444  0.029625132  0.030150693            3 
  598000    1.1590745   -7.0481343    212.36149  0.029593295  0.030142477            3 
  599000    1.1664779   -7.0688476     212.6978  0.029590679  0.030134571            2 
  600000    1.1726436    -7.119847    211.93584  0.029435534  0.030126202            2 
  601000     1.155099   -7.1005166     212.9352  0.029525124  0.030117764            3 
  602000    1.1733741   -7.1204885      212.635  0.029434524   0.03010891            3 
  603000    1.1704967   -7.0648803    213.48971  0.029503829   0.03010034            4 
  604000    1.1784987   -7.0620073    213.71996  0.029486749  0.030091518            4 
  605000    1.1662835   -7.1024904    212.88685  0.029323258  0.030082049            4 
  606000    1.1393299   -7.0871486    213.53793  0.029364402  0.030073089            3 
  607000    1.1604395   -7.1236985    214.38788  0.029432712  0.030064117            4 
  608000      1.14535   -7.0873495    214.32507  0.029375695  0.030054769            4 
  609000    1.1496617   -7.0615001    214.98913  0.029418327   0.03004535            2 
  610000    1.1766496   -7.0966617     215.6197  0.029456243  0.030036258            3 
  611000    1.1274986   -7.0409335    216.55146  0.029535115  0.030027503            2 
  612000    1.1600112   -7.0751588    216.05762  0.029419611  0.030018952            2 
  613000    1.1355254   -7.0443277    217.33067  0.029544681  0.030010507            2 
  614000     1.176497   -7.0683517     216.8738  0.029434555  0.030001819            2 
  615000    1.1214193   -7.0977669    216.98683   0.02940201  0.029992895            2 
  616000    1.1563784   -7.1038888    217.86386  0.029472924   0.02998423            2 
  617000    1.1394671    -7.083338    218.05167  0.029450522  0.029975726            3 
  618000    1.1387136   -7.0338926    218.76742  0.029499382  0.029967416            5 
  619000    1.1476099    -7.095463    217.96006  0.029343034   0.02995905            3 
  620000    1.1670924   -7.0396232     218.4905  0.029367003  0.029950533            4 
  621000    1.1427063   -7.1112994    218.99335  0.029387192  0.029942016            5 
  622000     1.173116   -7.1158271    218.47525  0.029270532  0.029933464            3 
  623000    1.1183786   -7.0744396    220.15727  0.029448538  0.029924768            3 
  624000     1.157397   -7.0436452    220.34232  0.029426058  0.029916292            2 
  625000     1.181183    -7.099691    219.73202  0.029297603   0.02990792            1 
  626000    1.1497738   -7.0714833    220.22785  0.029316806  0.029899179            2 
  627000    1.1555716   -7.0458181    220.85387  0.029353252  0.029890684            2 
  628000    1.1692647   -7.0938332    221.74373  0.029424593  0.029881999            4 
  629000    1.1727732    -7.105228    221.35324  0.029326078   0.02987367            5 
  630000    1.1472036    -7.086933    222.07855  0.029375469  0.029865084            3 
  631000    1.1324375   -7.0927826    221.19925   0.02921279  0.029856002            2 
  632000    1.1413081   -7.1042593    221.35747   0.02918743  0.029846716            2 
  633000    1.1584168   -7.1090531    221.86686  0.029208381  0.029837813            2 
  634000    1.1683639     -7.05601    223.18737   0.02933588  0.029829051            3 
  635000    1.1668548   -7.0727998    223.19426  0.029290585  0.029820236            2 
  636000     1.151375   -7.1012286    222.55295  0.029160501  0.029810883            4 
  637000    1.1577083   -7.1012713     222.4088  0.029095866  0.029801615            2 
  638000     1.161499    -7.082455    222.97604  0.029124353  0.029791151            3 
  639000    1.1466564   -7.0970979    222.85345  0.029062787  0.029780741            3 
  640000    1.1413584   -7.0970293    222.87568   0.02902027  0.029770015            5 
  641000    1.1120665   -7.1231102    222.80211  0.028965433  0.029759225            5 
  642000    1.1699992   -7.0473388    224.21306   0.02910346   0.02974847            1 
  643000    1.1606934   -7.1060216    223.43055  0.028956785  0.029738013            3 
  644000    1.1537312   -7.0363502     224.7425  0.029081587  0.029727696            1 
  645000    1.1321616   -7.0896051    224.52046  0.029007812  0.029717634            4 
  646000    1.1376124   -7.0889414    224.66611  0.028981697  0.029707532            2 
  647000    1.1728575   -7.0698246    224.99934  0.028979822  0.029696942            1 
  648000    1.1444984   -7.0642002    225.16823   0.02895682  0.029686375            4 
  649000     1.127731   -7.0911012    225.34139  0.028934436   0.02967578            7 
  650000    1.1591372   -7.0852901    225.67572  0.028932784  0.029665186            2 
  651000    1.1706123   -7.0929073    225.74598  0.028897335  0.029655248            3 
  652000    1.1511827   -7.1356906    226.08988  0.028896968  0.029644742            2 
  653000    1.1433092   -7.0971744    227.09838  0.028981417  0.029634392            4 
  654000    1.1554777   -7.0832547    227.35067   0.02896925  0.029624406            1 
  655000    1.1611449    -7.141266    227.16242  0.028901071  0.029613614            4 
  656000    1.1529979   -7.1220449    227.57228   0.02890908  0.029602881            3 
  657000    1.1485721   -7.0823984    227.64664   0.02887451  0.029592648            2 
  658000    1.1583363   -7.0659707    228.76438  0.028972186  0.029582373            4 
  659000    1.1680769   -7.0731903    228.46553  0.028890431  0.029572479            2 
  660000    1.1389844   -7.1523696     227.8856  0.028773435  0.029562022            3 
  661000    1.1520922   -7.0802114    228.95019  0.028864119  0.029551632            4 
  662000    1.1515668   -7.1278559    228.33514  0.028743094  0.029540821            2 
  663000    1.1437232   -7.1491569    227.89524  0.028644449  0.029530103            4 
  664000    1.1552076   -7.1188281    229.47195  0.028799191   0.02951916            4 
  665000    1.1186533   -7.1254905    229.03437  0.028701049   0.02950825            1 
  666000    1.1232884   -7.1111587     230.5469  0.028847209  0.029497668            2 
  667000    1.1370955   -7.0808959    230.52758  0.028801547  0.029487627            3 
  668000    1.1313838   -7.1118382    230.13578  0.028709553  0.029477285            2 
  669000    1.1412191   -7.1161393    231.30559  0.028812356  0.029466858            4 
  670000    1.1424704   -7.1275492     230.7102  0.028695298  0.029456465            3 
  671000    1.1374048   -7.1129938    230.61848  0.028641142  0.029446284            6 
  672000    1.1456945   -7.1088758    231.99144   0.02876878  0.029435835            5 
  673000    1.1376397   -7.0652312    232.52356  0.028791922  0.029425512            4 
  674000    1.1329653   -7.0846661    233.41479  0.028859395  0.029415668            4 
  675000     1.137245   -7.1297551    233.38284  0.028812696  0.029405585            3 
  676000    1.1353777   -7.0945971    232.83877  0.028703004  0.029395568            4 
  677000    1.1673523   -7.0992631    233.58728  0.028752743  0.029385463            5 
  678000    1.1261562   -7.1443117    233.66358  0.028719713  0.029375496            3 
  679000    1.1416245   -7.1218327    234.61322  0.028793964  0.029365756            8 
  680000    1.1715751   -7.0653367    234.67141  0.028758751  0.029356154            1 
  681000    1.1227014    -7.082572    236.01324  0.028880719  0.029346967            1 
  682000     1.117672   -7.0946429    235.70517  0.028800729  0.029337765            3 
  683000    1.1335838   -7.1224141    235.59756  0.028745431   0.02932828            2 
  684000    1.1296938   -7.1450738    236.02204  0.028755121  0.029318562            2 
  685000    1.1346734   -7.0803089    236.03982  0.028715306  0.029308892            4 
  686000     1.124957   -7.1112109    236.36933  0.028713476  0.029299255            2 
  687000    1.1440156   -7.1248752    236.08348  0.028637006  0.029289361            4 
  688000    1.1415364   -7.0950372    237.47183  0.028763545  0.029280303            3 
  689000    1.1235976   -7.1473101    236.76732  0.028636589  0.029271024            4 
  690000    1.1479024   -7.0867122    238.00563  0.028744641  0.029261547            5 
  691000    1.1438753   -7.1622058    237.55513  0.028648713  0.029251718            8 
  692000    1.1344004   -7.1161723     238.2838  0.028695063  0.029241991            1 
  693000    1.1309252   -7.0866425    239.41748   0.02878998   0.02923225            3 
  694000     1.131951   -7.1352949    238.22217  0.028604968  0.029223066            8 
  695000    1.1338343   -7.1405755    238.76481  0.028628874  0.029213484            2 
  696000    1.1186172   -7.1683071      238.418  0.028546216  0.029203767            2 
  697000    1.1127522   -7.1462518    239.04739   0.02858051  0.029194196            3 
  698000    1.1403632   -7.1434237    240.34388  0.028694351  0.029184671            2 
  699000    1.1536284   -7.1557914    240.22238  0.028638815  0.029175168            3 
  700000    1.1372549   -7.1006521    240.55049  0.028636963  0.029165936            2 
  701000    1.1473761   -7.1759834    239.43172  0.028463114  0.029156258            4 
  702000    1.1307901   -7.1007659    240.72263   0.02857581  0.029146786            3 
  703000    1.1724635   -7.1012854    241.10228  0.028580166  0.029137221            3 
  704000     1.135567   -7.1264426    240.79963  0.028503745   0.02912747            4 
  705000    1.1693915   -7.1136437    240.96876  0.028483305  0.029117604            9 
  706000    1.1144922   -7.1040954    241.61766  0.028519554  0.029107981            2 
  707000    1.1134984   -7.1238983    242.50262  0.028583524  0.029098083            3 
  708000    1.1464849   -7.1053887    242.33337  0.028523231  0.029088538            4 
  709000    1.1495337   -7.0863962    242.57321   0.02851119  0.029078443            3 
  710000    1.1436166   -7.1395088    242.75137  0.028491944  0.029068255            3 
  711000    1.1568449    -7.111367    243.49831  0.028539417  0.029058651            5 
  712000    1.1325356   -7.0971172    243.42921  0.028491247  0.029049197            2 
  713000    1.1304188   -7.1598681    242.99413  0.028400436   0.02903976            3 
  714000    1.1539066   -7.1005168    244.58658  0.028546519  0.029029936            2 
  715000    1.1218571   -7.1364644    244.00707  0.028439053  0.029020517            5 
  716000    1.1417573   -7.1256348    244.60077  0.028468432  0.029010986            4 
  717000     1.143793   -7.1521858    243.91664  0.028349215  0.029001352            4 
  718000    1.1428955   -7.1803488    244.37609  0.028363056  0.028991547            5 
  719000    1.1402977   -7.0618387    245.93322  0.028504082  0.028981747            3 
  720000    1.1287099   -7.1215346    244.97818  0.028353956  0.028971758            1 
  721000    1.1133325    -7.136543    244.68536  0.028280785  0.028961452            2 
  722000    1.1521392   -7.1560838    245.31038  0.028313755  0.028950984            3 
  723000    1.1347484   -7.1454388    245.55324  0.028302586  0.028940627            1 
  724000    1.1447569   -7.1459042    245.50442  0.028257875   0.02893014            5 
  725000    1.1421607   -7.1595739    246.29368  0.028309618  0.028919572            1 
  726000     1.126463   -7.1554868    245.87615  0.028222699  0.028909438            1 
  727000    1.1671013   -7.1210034    246.58813  0.028265489   0.02889883            5 
  728000    1.1294677   -7.1261164    246.14754   0.02817623  0.028888383            4 
  729000    1.1334698   -7.1058378    247.13261  0.028250184  0.028877735            2 
  730000    1.1602302   -7.1207807    247.45751  0.028248574  0.028866935            2 
  731000    1.1476103   -7.1302118     248.1326   0.02828689  0.028856441            2 
  732000    1.1576958   -7.0776484    248.42062  0.028281035  0.028846286            6 
  733000    1.1562184   -7.1399718    248.67658  0.028271553  0.028835701            3 
  734000    1.1332699   -7.1705156    248.28486  0.028188563  0.028825296            3 
  735000    1.0998506   -7.0987084    249.45431  0.028282801  0.028814872            2 
  736000    1.1398544   -7.1382564    249.35759  0.028233423  0.028804414            4 
  737000     1.144081   -7.1282764    249.77777  0.028242624  0.028794505            3 
  738000    1.1476554   -7.1092022    250.06061  0.028236293  0.028784375            7 
  739000    1.1228378   -7.1856586    249.34941  0.028117886  0.028773953            2 
  740000    1.1374898   -7.1551718    249.82281  0.028133199  0.028763418            3 
  741000    1.1076949   -7.1538252    250.35427  0.028155001   0.02875252            3 
  742000    1.1226129   -7.1319456    250.74761  0.028161232  0.028742071            3 
  743000    1.1363236   -7.1368111     251.0495  0.028157189  0.028731583            5 
  744000    1.1017553    -7.149487    251.42936   0.02816189  0.028721171            3 
  745000    1.1160651   -7.1452685    250.96354  0.028071985  0.028710679            2 
  746000    1.1373744   -7.0992267    252.20101  0.028172589  0.028700529            4 
  747000     1.125701   -7.1337799    251.04551   0.02800597  0.028690059            5 
  748000    1.1198733    -7.162189      250.715  0.027931707  0.028679267            3 
  749000    1.1151449   -7.1603974    251.58066  0.027990728  0.028668118            1 
  750000    1.1112671   -7.1621108    251.92719   0.02799191  0.028656894            4 
  751000    1.1383882   -7.1002353    252.83406  0.028055267  0.028645936            2 
  752000    1.1144802    -7.171092    251.43621  0.027863055  0.028634489            3 
  753000    1.1466996   -7.1231119    252.88991  0.027986931  0.028623176            6 
  754000    1.1110238   -7.1725122    252.41352  0.027897161  0.028612035            3 
  755000    1.1364422   -7.1635646     252.3109  0.027848886  0.028600695            2 
  756000     1.141291   -7.1188338     252.9214  0.027879343  0.028589843            2 
  757000    1.1204419   -7.1089542    253.45958  0.027901759  0.028578942            3 
  758000    1.1056686   -7.1497101    253.57823  0.027877993  0.028568048            1 
  759000    1.1060766   -7.0895319    254.59816  0.027953245  0.028557255            2 
  760000    1.1421782   -7.1488039    253.80448  0.027829439  0.028546537            6 
  761000      1.13108   -7.1182931    254.49519  0.027868505  0.028535398            3 
  762000    1.1364734   -7.1418881    254.47009  0.027829188  0.028524777            3 
  763000    1.1157492   -7.1475395    255.54735  0.027910371  0.028514207            1 
  764000    1.1269273   -7.1601732    255.34893  0.027852195  0.028503851            5 
  765000    1.1119086   -7.1786355    254.67294   0.02774215  0.028493148            4 
  766000    1.1264673   -7.1985644    256.28966  0.027881817  0.028482758            4 
  767000    1.1263441   -7.1488407    256.82129  0.027903226  0.028472343            4 
  768000    1.1278455   -7.1322229    256.93685  0.027879432  0.028462292            5 
  769000    1.1440275   -7.1510546    257.36468   0.02788954  0.028452535            4 
  770000    1.1275386   -7.1387555    257.60541  0.027879374  0.028442463            7 
  771000    1.1078819   -7.1926513    257.64667  0.027847673  0.028432429            5 
  772000    1.1108324   -7.1404754    257.97908  0.027847483  0.028421925            2 
  773000    1.1100355   -7.1402783    257.51439  0.027761361  0.028411564            2 
  774000    1.1369815   -7.1544505    258.07872  0.027786253  0.028401096            1 
  775000    1.1308249   -7.1369213    259.12322  0.027862711  0.028390958            6 
  776000    1.1463379   -7.1741761    258.52299  0.027762348  0.028380608            2 
  777000    1.1312506   -7.1151403    259.83832  0.027867687   0.02837041            2 
  778000    1.1291981   -7.1623847    258.79851  0.027720492  0.028360548            2 
  779000    1.1276063   -7.1155552     259.2899  0.027737473  0.028350087            3 
  780000    1.1358935   -7.1466897    260.31063  0.027810965  0.028339822            4 
  781000    1.1088643   -7.1581668    260.43294  0.027788406   0.02832935            3 
  782000    1.1125372   -7.2021281    259.85266  0.027691034  0.028318863            1 
  783000    1.1269622   -7.1766056    260.15938  0.027688312  0.028308368            4 
  784000    1.1251057   -7.1753498    261.21775  0.027765492  0.028297798            3 
  785000    1.1345174   -7.1240297    261.95956   0.02780887  0.028287514            2 
  786000    1.1103428   -7.1630434    260.67263  0.027637047  0.028277038            5 
  787000    1.1464908   -7.1582952    261.33585  0.027672157  0.028266595            7 
  788000     1.141198   -7.1637002    261.03145  0.027604849  0.028256065           12 
  789000    1.1265385    -7.196776    260.80302  0.027545735  0.028245096            2 
  790000    1.1222269   -7.1691011    262.70516  0.027711515  0.028234094            1 
  791000    1.1480176   -7.1911099     261.8927  0.027590887  0.028223355            3 
  792000    1.1074771   -7.1518858    261.82274  0.027548689  0.028212516            6 
  793000    1.1219644   -7.1817633    261.98076  0.027530555  0.028201461            6 
  794000    1.1583056   -7.1161517    263.12857  0.027616348  0.028190625            5 
  795000    1.1304311   -7.1456289    263.76437  0.027648257  0.028179489            3 
  796000    1.1394253   -7.1638652     262.8043  0.027513013  0.028168643            2 
  797000    1.1324243   -7.1427118    263.46558  0.027547634  0.028157785            4 
  798000    1.1019574   -7.1135023    264.18431  0.027588169    0.0281474            2 
  799000    1.1493938   -7.1131347     265.2912  0.027669087  0.028137216            3 
  800000    1.1281699   -7.1086424    265.28148  0.027633488  0.028127086            2 
  801000    1.1193721   -7.1438905    265.17977  0.027588407  0.028116819            3 
  802000    1.1471376   -7.1686264    265.24021  0.027560287  0.028106086            4 
  803000    1.1086679    -7.169667    265.71688  0.027575434  0.028095421            2 
  804000    1.0978731   -7.1547241    265.44875  0.027513345   0.02808498            2 
  805000    1.1371798   -7.1516713    266.39817   0.02757745  0.028074893            4 
  806000    1.1318716   -7.1340217    265.41488  0.027441572  0.028064387            2 
  807000    1.1216923     -7.15586    266.33143  0.027502213  0.028054179            4 
  808000    1.1129941   -7.1846048    265.40335  0.027372458  0.028044089            2 
  809000    1.1279928   -7.1757289    267.61032  0.027565958  0.028034044            2 
  810000    1.1024766   -7.1833177    266.90152  0.027459005  0.028023864            4 
  811000    1.1309871   -7.1629317    267.39342   0.02747569  0.028013608            3 
  812000    1.1352529    -7.138852    268.14106  0.027518582  0.028003481            5 
  813000    1.1224571   -7.1496011    267.59437  0.027428698  0.027993149            4 
  814000    1.1249385   -7.1879864    266.82239  0.027315969  0.027982555            4 
  815000    1.1077373     -7.19743    268.28792  0.027432302  0.027971707            2 
  816000     1.113472   -7.1485642    267.60007  0.027328439   0.02796121            2 
  817000    1.1515564   -7.1928634    268.61165  0.027398169  0.027950976            1 
  818000    1.1010107   -7.1628367    269.85004  0.027490835   0.02794088            3 
  819000    1.1089235   -7.1938455    269.05766  0.027376644  0.027930704            2 
  820000     1.129036   -7.1846619    269.34196  0.027372151  0.027920363            3 
  821000    1.1087979   -7.1312387     270.0799  0.027413713  0.027910215            1 
  822000    1.1245658   -7.1616367    271.23428  0.027497392  0.027900229            2 
  823000    1.1042838   -7.1407399    270.55333  0.027395031  0.027890238            2 
  824000    1.0998074   -7.1840333    269.88209  0.027293901  0.027879901            1 
  825000      1.12966    -7.144149     271.1616   0.02739006  0.027869654            3 
  826000    1.1254962   -7.1738702    270.64682  0.027304966  0.027859575            2 
  827000    1.1165811   -7.1509476    271.67463  0.027375517  0.027849211            2 
  828000     1.122227   -7.1560649    271.99421  0.027374618  0.027839375            1 
  829000    1.1017431   -7.1784804    272.25706   0.02736802  0.027829404            3 
  830000    1.0982593   -7.1805674    272.02674  0.027311921  0.027819586            4 
  831000    1.0964743   -7.2198426    272.77327  0.027353918  0.027809215            2 
  832000    1.1246488    -7.214147    271.26307  0.027169778  0.027798882            5 
  833000    1.1234409   -7.2088443    273.05199  0.027316125  0.027788748            5 
  834000      1.12525   -7.1724974     273.8013  0.027358243  0.027778676            5 
  835000     1.124348   -7.1542286     274.9002  0.027435149  0.027769033            5 
  836000      1.11808   -7.1727914    274.18948  0.027331488  0.027759553            3 
  837000    1.1209018   -7.2058843    274.13477  0.027293386  0.027749709            3 
  838000    1.0931547   -7.1780791    274.67179  0.027314219  0.027740003            2 
  839000     1.126157   -7.1092516    276.12006  0.027425513  0.027730582            6 
  840000    1.1408732   -7.2047118    274.53589  0.027235704  0.027721199            2 
  841000    1.1154378   -7.1788032    275.93913  0.027342363  0.027711492            3 
  842000    1.1156578   -7.1542701    275.99757  0.027315674  0.027701966            3 
  843000    1.1459909   -7.2135022    275.38999   0.02722321  0.027692247            1 
  844000     1.114132   -7.2027162    275.72228  0.027223764  0.027682668            4 
  845000    1.1097478   -7.1767436    275.93913  0.027212932  0.027673222            2 
  846000    1.1165099   -7.2031288    276.90873  0.027276274  0.027663984            4 
  847000    1.1139981   -7.1796827    277.53949  0.027306129  0.027654606            3 
  848000    1.0966945   -7.1699435    278.38358  0.027356877  0.027645166            3 
  849000    1.0940495   -7.1992385    277.72204  0.027259721  0.027636063            2 
  850000    1.1175209   -7.2348787    277.01291  0.027158128  0.027626622            5 
  851000    1.1485456   -7.2035426    277.46726  0.027170707  0.027617174            3 
  852000    1.1148417    -7.172465    278.33861  0.027224042  0.027608069            3 
  853000    1.0956768   -7.1821381     278.6487  0.027222421  0.027598706            2 
  854000    1.1093774   -7.1464875    279.63557  0.027286843  0.027589537            1 
  855000     1.102778   -7.1634971    279.60318  0.027251772  0.027580568            2 
  856000    1.1130218   -7.1545959    280.40255  0.027297756  0.027571748            4 
  857000    1.1311447   -7.2346088    280.03984  0.027230634  0.027562732            3 
  858000    1.1105475   -7.1312249    281.68882  0.027359054  0.027554278            5 
  859000      1.12013   -7.1650714    280.93711   0.02725428  0.027545642            3 
  860000    1.0975202   -7.2152011    281.85315  0.027311352  0.027537101            3 
  861000    1.1260056   -7.1763087    282.36472  0.027329145  0.027528719            3 
  862000    1.1060884   -7.1848997    281.71979  0.027235092  0.027520206            4 
  863000    1.1030511   -7.1880794    282.96509  0.027323783  0.027511695            4 
  864000    1.0980809   -7.1628184    282.18738  0.027217147  0.027503149            2 
  865000    1.0978202    -7.189255     282.7161  0.027236618  0.027494516            4 
  866000    1.1298901   -7.2337381    281.85508  0.027122313  0.027485727            7 
  867000    1.1189135   -7.1832561    282.77262  0.027179222  0.027476977            2 
  868000    1.0974952   -7.1737918    283.46465  0.027214348  0.027468113            2 
  869000    1.1163475   -7.1585571    283.32536  0.027169674  0.027459439            3 
  870000    1.1063565   -7.1643885     283.8892  0.027192452  0.027450648            2 
  871000    1.1241121   -7.1979339     283.6414  0.027137524  0.027442142            2 
  872000    1.0949225   -7.1769331    284.17489  0.027157386  0.027433591            2 
  873000    1.1068915   -7.2245693    284.15167  0.027124062  0.027425198            3 
  874000    1.1363416   -7.2485539    283.80781  0.027060241  0.027416581            2 
  875000    1.0993907   -7.1935899    284.75623  0.027119641  0.027407978            2 
  876000    1.1054982   -7.1787848    285.82676  0.027190522  0.027399859            2 
  877000    1.1425774   -7.2247397    285.58944  0.027136967  0.027391577            4 
  878000    1.1167584   -7.1911085    286.71176  0.027212582  0.027383063            2 
  879000    1.0904689    -7.176025    287.41332  0.027248134  0.027374966            4 
  880000      1.09296   -7.2227456    286.77415  0.027156643  0.027366981            3 
  881000    1.1139941   -7.2286524    287.05866   0.02715273   0.02735882            8 
  882000    1.1234841   -7.1945996    287.98235  0.027209216  0.027350244            2 
  883000    1.1131823   -7.2204517    287.43968  0.027127187  0.027342125            2 
  884000    1.1294558   -7.1711409    288.63913  0.027209571  0.027334231            4 
  885000    1.1197385   -7.1534969    289.22038  0.027233557  0.027326395            2 
  886000    1.1000464    -7.172316     288.9057  0.027173223  0.027318545            1 
  887000    1.1002612   -7.2318573    287.41463  0.027002502  0.027310165            1 
  888000    1.0988283   -7.1802706     288.9285  0.027114161  0.027301913            4 
  889000    1.0915213   -7.2192778    288.03726  0.027000118  0.027293528            4 
  890000    1.1299521   -7.1702051    289.20502  0.027079122  0.027285136            4 
  891000    1.1109313   -7.2126455    289.31427  0.027058947  0.027276718            2 
  892000    1.1301862   -7.1996216    288.95465  0.026995016  0.027268399            3 
  893000    1.0932075   -7.2190875    289.30449  0.026997433  0.027259926            3 
  894000     1.128435   -7.1926478    289.58368  0.026993259  0.027251076            2 
  895000    1.1101392   -7.2324404    288.72834  0.026883458  0.027242264            3 
  896000    1.0887214   -7.1976018    288.93775  0.026872931  0.027233445            3 
  897000    1.0918758    -7.163973    289.94877  0.026936898  0.027224526            3 
  898000     1.124331   -7.1632734    290.30827  0.026940263  0.027215721            3 
  899000    1.1052664   -7.1828989    290.89078  0.026964291  0.027206982            4 
  900000    1.0970791   -7.1915391     290.6335  0.026910509  0.027198123            3 
  901000    1.1168165   -7.1846401    290.40267  0.026859293  0.027189215            3 
  902000    1.0721593   -7.1827831    291.19355  0.026902582  0.027180413            3 
  903000     1.108637   -7.2333438    291.32842  0.026885236  0.027171701            7 
  904000    1.1018228   -7.2529798    291.47655  0.026869151  0.027162844            3 
  905000    1.1102558   -7.1707195    292.64634  0.026947177  0.027154448            3 
  906000    1.1235828   -7.2151529    291.47434  0.026809634  0.027145905            3 
  907000    1.0999358   -7.3179922    290.04939  0.026649154  0.027136798            3 
  908000    1.0939825   -7.2407037    292.47976  0.026842856  0.027127865            3 
  909000    1.0764293   -7.2097449    293.53735  0.026910282  0.027119319            3 
  910000    1.0841046    -7.186439    295.11142  0.027024855   0.02711095            2 
  911000    1.0968411    -7.187826    294.77784  0.026964676  0.027102448            3 
  912000    1.1142471   -7.2244126    294.32621  0.026893842  0.027094229            2 
  913000    1.1400281   -7.2291252    294.78793  0.026906529  0.027086075            2 
  914000    1.1226263   -7.1959449    296.07999  0.026994893  0.027077911            5 
  915000    1.1157962   -7.1905348    295.45779  0.026908724  0.027069896            2 
  916000    1.1262916   -7.1960747    295.99006  0.026927771  0.027062052            8 
  917000    1.1190756   -7.1872674    296.85607  0.026977105  0.027054067            3 
  918000    1.1166166   -7.2232835    295.44761  0.026819863  0.027045826            2 
  919000    1.0968437    -7.197647    296.01774  0.026842378  0.027037656            3 
  920000    1.1095446    -7.254252     295.5403  0.026769955  0.027029335            2 
  921000     1.096506   -7.2199985    295.46782   0.02673433  0.027020921            3 
  922000    1.0884398   -7.2172089    296.22514  0.026773783  0.027012551            2 
  923000    1.1039843   -7.2388367    296.72134  0.026789576  0.027003938            3 
  924000    1.1337422   -7.2132413    296.28204  0.026720963  0.026995378            6 
  925000    1.0735283   -7.2300397    297.02612   0.02675911  0.026986505            2 
  926000    1.0860944    -7.209108     296.3058  0.026665389  0.026977911            3 
  927000    1.1118497   -7.2714152    297.27005  0.026723305  0.026969191            4 
  928000    1.1285474    -7.199828     298.3067  0.026787598  0.026960567            2 
  929000    1.1056117   -7.2153245    297.65198  0.026700034  0.026952047            3 
  930000    1.0893186   -7.2112672    298.46813  0.026744457  0.026943577            3 
  931000    1.1189453   -7.2115819    297.51643  0.026630543  0.026935109            2 
  932000    1.1119582   -7.2788553     297.5874  0.026608315  0.026926199            3 
  933000    1.1039618   -7.2474952    297.77342  0.026596411   0.02691721            2 
  934000    1.0804481   -7.1835968    298.38575  0.026622569  0.026908214            2 
  935000    1.1055429   -7.2369424    298.58376  0.026611743  0.026899246            8 
  936000    1.1350576    -7.208053    299.01188  0.026621428  0.026890447            3 
  937000    1.0772151    -7.234103    298.79306  0.026573556   0.02688167            7 
  938000     1.100174   -7.2046793    299.30214  0.026590453  0.026872867            3 
  939000    1.1062645   -7.2460129     299.0592  0.026540575  0.026863919            9 
  940000    1.0965499   -7.2010411    300.38196  0.026629606  0.026855277            6 
  941000    1.1074936   -7.1984769    300.49514  0.026611331  0.026846688            2 
  942000     1.106375   -7.2219666    299.42054  0.026488016  0.026838133            3 
  943000    1.0710136   -7.1958877    301.52358  0.026645774  0.026829558            4 
  944000    1.0925152   -7.2180842    301.08404  0.026578747  0.026820842            4 
  945000    1.0913538   -7.2144629    299.97215   0.02645257  0.026812056           12 
  946000    1.1072083   -7.2158598    301.29337  0.026540994  0.026803147            3 
  947000    1.0959837   -7.2446284    300.74759  0.026464941  0.026794108            3 
  948000    1.0952325   -7.2272323    301.52102  0.026505012  0.026784946            3 
  949000    1.0849196    -7.219097    301.79373   0.02650103   0.02677595            1 
  950000    1.0763917   -7.2074229    302.31128  0.026518533  0.026767077            1 
  951000    1.0794986   -7.2123408    301.83461  0.026448879  0.026758259            4 
  952000    1.1305183   -7.1916255    302.45596  0.026475487  0.026749479            3 
  953000    1.0778765   -7.2293189    303.38512  0.026528954  0.026740844            2 
  954000    1.1064842   -7.2199256    304.05426  0.026559596  0.026732407            2 
  955000    1.0749568   -7.2327926    303.49065  0.026482605  0.026723913            3 
  956000    1.1051798   -7.2463294    303.44675  0.026451077   0.02671531            6 
  957000    1.0891706   -7.2564211    304.23724  0.026492271  0.026706522            3 
  958000    1.1138351   -7.2509231    304.03842  0.026447322     0.026698            3 
  959000    1.1038414   -7.2260796    304.43732  0.026454407  0.026689415            6 
  960000    1.1035357   -7.2292122    305.22838  0.026495519    0.0266808            3 
  961000    1.1096104   -7.2465678    305.23044  0.026468127  0.026672236            3 
  962000    1.0855154   -7.2594409    305.15475  0.026434056  0.026663777            2 
  963000    1.0866377   -7.1721568    306.08173  0.026486823  0.026655563            3 
  964000    1.0705141   -7.2194113    306.72789  0.026515205  0.026647458            3 
  965000    1.1075022   -7.2483216    305.32332  0.026366435  0.026639091            1 
  966000    1.1005776   -7.2084884    306.38678  0.026430882  0.026630739            3 
  967000    1.1336585   -7.2700067    305.99872  0.026370106  0.026622539            4 
  968000    1.0790037   -7.2816847    305.75273  0.026321688  0.026614169            4 
  969000     1.099722   -7.2013616    306.28764  0.026340526  0.026605747            4 
  970000    1.0912606   -7.2238541    307.61563   0.02642746  0.026597578            3 
  971000    1.0967021   -7.1905175    309.71563   0.02658047  0.026589392            4 
  972000    1.1111732   -7.1824944    308.75404  0.026470683  0.026581299            7 
  973000    1.0913217   -7.2010657    309.46442  0.026504318  0.026573273            4 
  974000    1.1146792    -7.263906    308.08184  0.026358816  0.026565233            2 
  975000    1.0911429   -7.2578164    308.95443  0.026406361  0.026556999            4 
  976000    1.0925161   -7.2761684     307.9798   0.02629609  0.026548875            4 
  977000    1.1054008   -7.2658246    308.30392   0.02629682  0.026540588            5 
  978000    1.0962351    -7.267171    308.21287  0.026262173  0.026532103            7 
  979000    1.0963908   -7.2377105    309.26085  0.026324553  0.026523588            2 
  980000    1.1008556   -7.2263882    309.00116  0.026275609  0.026515225            2 
  981000    1.0971569   -7.2500482     309.8535  0.026321228  0.026506811            5 
  982000    1.0973445   -7.2641372    310.26507  0.026329351   0.02649831            2 
  983000     1.086062   -7.2363061    309.50597  0.026238214  0.026489567            2 
  984000    1.0743261   -7.2503237    309.19264  0.026185013  0.026481016            3 
  985000    1.0811084   -7.2286093    309.77547  0.026207739  0.026472436            4 
  986000    1.1059348   -7.2230479    311.51328  0.026328032  0.026463941            2 
  987000    1.1103084    -7.254186    311.59406  0.026308178  0.026455407            6 
  988000    1.1065034   -7.2316344    311.56835  0.026279382   0.02644708            3 
  989000    1.1052874   -7.2579776    311.86815  0.026278071  0.026438906            2 
  990000    1.0960812   -7.2599269    311.14409   0.02619058  0.026430796            1 
  991000    1.0808863   -7.2237861    311.79278    0.0262187  0.026422547            3 
  992000    1.0948931   -7.2299121    312.46269  0.026248546  0.026414169            3 
  993000    1.1035082   -7.2651242    312.83212  0.026253115  0.026405958            2 
  994000    1.0931942   -7.2678067    312.49827  0.026198715  0.026397743            2 
  995000     1.098419   -7.2634072    312.76436   0.02619467  0.026389391            3 
  996000     1.092385   -7.2119639    313.26904  0.026210596     0.026381            4 
  997000    1.0849717   -7.2159972    313.49942  0.026203562  0.026372812            7 
  998000    1.0950518   -7.2921105    313.45391  0.026173507  0.026364651            2 
  999000    1.0951848   -7.2476755    314.65404  0.026247417  0.026356477            4 
 1000000    1.0991499   -7.2765865    314.24339  0.026186949  0.026348108            3 
 1001000    1.0729438   -7.2310947    313.71654  0.026116928  0.026340031            3 
 1002000    1.0917668   -7.2128048    314.91902   0.02619087  0.026332061            3 
 1003000    1.0745486   -7.2519325    315.74041  0.026233002  0.026324187            4 
 1004000    1.0851198   -7.2516537    315.93686  0.026223179  0.026316051            3 
 1005000     1.066883   -7.3157129     315.6489  0.026173209  0.026308038            4 
 1006000    1.0838977   -7.2489483    316.63946  0.026229247  0.026300121            2 
 1007000    1.1046992   -7.2892231    315.99363  0.026149754  0.026292059            4 
 1008000     1.101812   -7.2253941    316.66735   0.02617951  0.026284036            4 
 1009000    1.1129276   -7.2688323    316.86323  0.026169741  0.026276212            3 
 1010000    1.0807133    -7.293047      317.554  0.026200825  0.026268701            2 
 1011000    1.1045388   -7.2466581    317.88572  0.026202252  0.026261016            4 
 1012000     1.090995   -7.2484336    317.89744  0.026177325  0.026253326            4 
 1013000    1.0780152   -7.2535846     317.4748  0.026116716  0.026245599            4 
 1014000    1.0915016   -7.2409893    319.56507  0.026262744  0.026237947            3 
 1015000    1.0987055   -7.2642492    318.26693   0.02613029  0.026230336            2 
 1016000    1.0819739   -7.2346749    319.18015  0.026179474   0.02622286            3 
 1017000    1.0916802   -7.2598218    318.63172  0.026108794  0.026215113            4 
 1018000    1.0820112    -7.318124    318.60111  0.026080641  0.026207289            3 
 1019000    1.0977186   -7.2874297    318.93426  0.026082292  0.026199418            2 
 1020000    1.0973853    -7.225747    320.29412  0.026167821  0.026191399            2 
 1021000    1.0882299   -7.2698138      320.428  0.026153118  0.026183698            4 
 1022000    1.0765463   -7.2610124    319.51887  0.026053397  0.026175961            3 
 1023000     1.102431   -7.2530067     320.6572  0.026120659  0.026168287            2 
 1024000    1.1090519   -7.2126615    322.28283  0.026227444  0.026160571            4 
 1025000    1.0885993   -7.2423609    319.89184  0.026007467  0.026152815            5 
 1026000    1.0796889   -7.2780798    320.74114  0.026051099  0.026145129            3 
 1027000    1.0797779   -7.2427938    320.92741  0.026040848  0.026137319            2 
 1028000     1.044345   -7.2925637    321.22785  0.026039871  0.026129373            5 
 1029000    1.1155458   -7.2687655    320.87945   0.02598635  0.026121436            4 
 1030000    1.0827852   -7.2809243    321.22991  0.025989475  0.026113739            3 
 1031000    1.0841026   -7.3248928     320.8438  0.025933058  0.026105765            3 
 1032000    1.0827389   -7.2722904    321.05443  0.025924938  0.026097694            3 
 1033000    1.0677234   -7.2811362    321.44506  0.025931354  0.026089509            3 
 1034000    1.0723273    -7.292292    321.34012  0.025897818  0.026081175            7 
 1035000    1.0708826   -7.2378043     321.6649  0.025898945  0.026072884            2 
 1036000    1.0809364   -7.2790593     322.1135  0.025910031  0.026064641            4 
 1037000     1.089937   -7.2637131    323.20661  0.025972887    0.0260565            3 
 1038000    1.0885997   -7.2520809     323.1563  0.025943826  0.026048425            4 
 1039000     1.105182    -7.271262     323.2028  0.025922586  0.026040358            2 
 1040000    1.0841891   -7.2510923    325.01449  0.026042828  0.026032425            2 
 1041000    1.0675793   -7.3093029    323.18447  0.025871315  0.026024418            4 
 1042000    1.1084353   -7.2940953    324.51023  0.025952513  0.026016178            3 
 1043000    1.0997789   -7.2863448    324.66351  0.025939877  0.026008231            3 
 1044000     1.104127   -7.2642087    324.83241  0.025928513  0.026000527            7 
 1045000    1.0979523   -7.3294748    322.59118  0.025724974  0.025992386            4 
 1046000    1.0822946   -7.3602455    323.63541  0.025783573  0.025984203            4 
 1047000    1.1103738   -7.3024451    323.73238  0.025766665  0.025976068            5 
 1048000    1.0852413     -7.28858    324.79384  0.025826482  0.025967904            2 
 1049000    1.0784534   -7.2504395    326.07456  0.025903604  0.025959746            2 
 1050000    1.0772034   -7.2716858     326.0592  0.025877715  0.025951788            5 
 1051000    1.1000795   -7.2820771    325.99086  0.025847674  0.025943776            5 
 1052000    1.0839379   -7.2723561    327.44006  0.025937901  0.025935974            2 
 1053000    1.0966032   -7.2664375    327.30662  0.025902708  0.025928154            4 
 1054000     1.085381    -7.275127    327.60337  0.025901595  0.025920483            3 
 1055000    1.1015473   -7.2319649    327.87349   0.02589838  0.025912724            4 
 1056000    1.0924742   -7.2927967    326.83072  0.025791566  0.025904905            5 
 1057000    1.0808538    -7.266776    327.41058  0.025812881  0.025897009            3 
 1058000    1.0914172   -7.3016326    326.70022  0.025732531  0.025888882            3 
 1059000    1.1133437   -7.2500367      327.433  0.025765895  0.025880787            2 
 1060000    1.0931253   -7.2400458    327.59834  0.025754586  0.025872822            2 
 1061000    1.0720774   -7.2806728    327.51401  0.025723689  0.025864962            3 
 1062000    1.0835161   -7.2587794    327.66559  0.025711362  0.025857006            4 
 1063000    1.0818585   -7.2887283    327.90719  0.025706114  0.025849096            4 
 1064000    1.0689598   -7.2527002    329.47223  0.025804529  0.025841372            2 
 1065000    1.0709534   -7.3155254    328.15502  0.025677231  0.025833406            2 
 1066000    1.0637001   -7.2822125    329.32274  0.025744429  0.025825461            6 
 1067000    1.0670241   -7.2629426     329.6869  0.025748743  0.025817443            4 
 1068000    1.0729193   -7.2744918    328.97565  0.025669137  0.025809478            3 
 1069000    1.0865098   -7.2616494    329.42627  0.025680252  0.025801712            1 
 1070000    1.0660216   -7.2878569    329.89272   0.02569258  0.025793514            2 
 1071000    1.0742233   -7.3013198    329.81517  0.025662556  0.025785636            2 
 1072000    1.0687621    -7.319807    330.09593  0.025660442  0.025777595            2 
 1073000    1.0949339   -7.2830942     330.4601  0.025664811  0.025769843            5 
 1074000    1.0608626   -7.3042134    331.01251  0.025683776  0.025762066            1 
 1075000    1.0869166   -7.3062862    331.31624   0.02568343  0.025754224            2 
 1076000    1.0806756   -7.2588206    332.97318  0.025787886  0.025746447            4 
 1077000    1.0847089   -7.2491428    333.99134  0.025842722  0.025739113            2 
 1078000     1.104169   -7.2691755    332.28978  0.025687213  0.025731605            2 
 1079000    1.0799202   -7.2613132    333.16258  0.025730814   0.02572408            2 
 1080000     1.079201   -7.3122267    332.21095  0.025633561  0.025716575            5 
 1081000    1.0727037   -7.2596043    332.80262  0.025655459   0.02570914            3 
 1082000    1.0896774    -7.256712    333.52484  0.025687372   0.02570173            2 
 1083000    1.0614963   -7.2206884    334.30468   0.02572366  0.025694506            3 
 1084000    1.0472093   -7.2408777    334.60687  0.025723161  0.025687142            3 
 1085000    1.0761706     -7.29052     334.3122  0.025676821   0.02567985            5 
 1086000    1.0893354   -7.2879685    334.95286  0.025702337    0.0256725            5 
 1087000    1.0633862   -7.2423012     335.4339   0.02571557  0.025665492            3 
 1088000    1.0764906   -7.2951472    334.81792  0.025644755  0.025658165            3 
 1089000     1.086157    -7.249278    335.81539  0.025697535  0.025651068            2 
 1090000    1.0745101   -7.3294235    334.36496  0.025563071  0.025643866            4 
 1091000    1.0660843   -7.2309945     337.7851  0.025800878  0.025636856            1 
 1092000    1.0792876   -7.2800457    336.71223  0.025695378  0.025629774            4 
 1093000     1.066041   -7.3305973    336.10888  0.025625868  0.025622583            4 
 1094000    1.0855471   -7.2633728    337.09904  0.025677867  0.025615425            2 
 1095000    1.0853735   -7.2316313    337.63923  0.025695527  0.025608442            5 
 1096000    1.0620331   -7.2782651    336.75205  0.025604626  0.025601549            3 
 1097000    1.0809455   -7.2804886    337.80096  0.025660966  0.025594691           10 
 1098000     1.082478    -7.324898    338.07059  0.025658059  0.025587872            4 
 1099000     1.071633   -7.2541151    339.33984  0.025730956  0.025580847            2 
 1100000    1.0713496   -7.3224833    338.17936  0.025619649  0.025573953            3 
 1101000    1.0726538   -7.2878761    337.89062  0.025574525  0.025566982            2 
 1102000    1.0439706   -7.3019132    337.93384  0.025554586  0.025559967            2 
 1103000    1.0878551   -7.2741413    338.63707  0.025584547  0.025552922            2 
 1104000     1.095379   -7.3113643    338.83845  0.025576574  0.025545789            2 
 1105000    1.0605756   -7.3176194    339.21773  0.025582031   0.02553868            6 
 1106000    1.0821068   -7.3195659    339.17476  0.025555663  0.025531514           18 
 1107000    1.0738254   -7.3125426    339.04406  0.025522738  0.025524358            6 
 1108000    1.0713538   -7.2969905    339.38402  0.025525272  0.025517176            7 
 1109000    1.0743331   -7.2983957    339.82476  0.025535374  0.025510106            2 
 1110000    1.0812765   -7.2889301    340.00452  0.025525865  0.025503121            6 
 1111000    1.0771554   -7.2993411    341.63553  0.025625227  0.025496021            3 
 1112000    1.0340682   -7.2915755    342.75485  0.025686065  0.025489104            6 
 1113000    1.0776758   -7.2779139    341.97615  0.025604683  0.025482011            3 
 1114000    1.0522572   -7.3092017    341.10637  0.025516634  0.025475061            1 
 1115000    1.0861233   -7.3299256    342.05571  0.025564702  0.025467942            4 
 1116000    1.0606813   -7.3010161    342.11685   0.02554636  0.025461019            3 
 1117000    1.0696039   -7.2519841       343.51  0.025627425  0.025454259            3 
 1118000    1.0601826   -7.2707499    343.63293  0.025613665  0.025447898            4 
 1119000    1.0654231   -7.2860992    342.38031  0.025497491  0.025441172            1 
 1120000    1.0676558   -7.3023259    343.12285  0.025529974  0.025434392            6 
 1121000    1.0654351    -7.270304    343.47348  0.025533265  0.025427752            5 
 1122000    1.0802111   -7.2864784    343.84633    0.0255382  0.025420911            4 
 1123000    1.0550627   -7.2480265    344.37187  0.025554457  0.025414011            4 
 1124000    1.0978816   -7.2939721    342.91616  0.025423796  0.025407134            5 
 1125000    1.0559734   -7.2869905    344.34429  0.025506984  0.025400187            3 
 1126000    1.0608331    -7.263576    344.23608  0.025476323  0.025393554            4 
 1127000    1.0441406   -7.3376284    342.18472  0.025302035  0.025386637            7 
 1128000    1.0628989   -7.2569761    345.26478   0.02550715  0.025379755            2 
 1129000    1.0671246    -7.320769    344.30841  0.025413966  0.025372788            3 
 1130000    1.0899622   -7.2972577    344.16664  0.025381021   0.02536579            4 
 1131000    1.0652845   -7.2619594    345.11371  0.025428361  0.025358949            3 
 1132000    1.0805223   -7.3439284    344.68224  0.025374134  0.025351951            2 
 1133000    1.0802564   -7.2731457    346.13325  0.025458462  0.025345079            2 
 1134000    1.0559829   -7.2920789    345.89878  0.025418782  0.025338038            3 
 1135000    1.0708869   -7.3136856    345.64265  0.025377581  0.025330876            6 
 1136000    1.0757176   -7.3403494    345.48891  0.025343963  0.025323794            5 
 1137000    1.0711715   -7.3368826    345.12073  0.025294689   0.02531667            2 
 1138000    1.0644596   -7.3159206    346.29545  0.025358483  0.025309659            3 
 1139000    1.0810053    -7.255643    347.96405    0.0254583  0.025302855            5 
 1140000    1.0808977   -7.3009943    347.66004  0.025413746  0.025295954            2 
 1141000    1.0827682    -7.343821    346.96109  0.025340425  0.025289161            2 
 1142000    1.0737098   -7.3224424    347.17058  0.025333522  0.025282253            4 
 1143000    1.0656475   -7.3169651    348.22279  0.025388072   0.02527527            2 
 1144000    1.0797169   -7.2985039    348.13134  0.025359218  0.025268457            4 
 1145000    1.0510025    -7.328604     348.1378   0.02533754  0.025261666            2 
 1146000    1.0873864   -7.3642479    348.48006  0.025340318  0.025254871            5 
 1147000    1.0457469   -7.3216825    348.58897  0.025326138  0.025247939            2 
 1148000     1.091722   -7.3213313    348.76048  0.025316527  0.025241227            3 
 1149000    1.0611831   -7.3881019    347.39428  0.025195408  0.025234514            5 
 1150000    1.0643354   -7.3494541    348.54434  0.025256836   0.02522751            4 
 1151000     1.101985    -7.319783    350.20445  0.025355086  0.025220686            2 
 1152000    1.0650266   -7.3204834    350.08521  0.025324451  0.025213877            2 
 1153000    1.0595781   -7.3121165    349.89564  0.025288786  0.025207001            7 
 1154000    1.0640178   -7.3545089    350.04402  0.025277587  0.025200191            3 
 1155000    1.0842685   -7.2949104    351.03369  0.025327106  0.025193334            5 
 1156000    1.0662059   -7.3181925    350.88694  0.025294618  0.025186718            5 
 1157000    1.0703532   -7.3146833    351.24697  0.025298687  0.025180228            4 
 1158000    1.0627226   -7.2647401    351.47758  0.025293436  0.025173637            2 
 1159000    1.0769743   -7.2947468    351.67746  0.025285983   0.02516694            3 
 1160000    1.0773211   -7.2670081    352.26097  0.025306104  0.025160308            2 
 1161000    1.0720232   -7.2762155     353.1357  0.025347093  0.025153678            4 
 1162000    1.0757289   -7.3234022    351.95142  0.025240348   0.02514706            3 
 1163000    1.0802903   -7.3152761     352.3473  0.025247012  0.025140315            4 
 1164000    1.0897179   -7.3144287    351.46391  0.025162079  0.025133596            3 
 1165000    1.0675601   -7.3230941    352.52641  0.025216482  0.025126817            6 
 1166000    1.0746702   -7.3329529    353.40886  0.025257923  0.025120003            3 
 1167000    1.0724203   -7.3528831    352.74704  0.025189021  0.025113306            4 
 1168000    1.0603186   -7.3254823    352.04484  0.025117355  0.025106587            7 
 1169000    1.0529653   -7.3378966    352.23735  0.025109592  0.025099809            6 
 1170000     1.057453   -7.2946713    353.86046  0.025203736  0.025092901            7 
 1171000    1.0695186   -7.3155752    354.11165  0.025200089  0.025086201            2 
 1172000    1.0758542    -7.328791    354.85413   0.02523138  0.025079422            6 
 1173000    1.0666707   -7.3243905    353.36163  0.025103839  0.025072529            3 
 1174000    1.0692728   -7.2918774    354.91766  0.025192906  0.025065627            5 
 1175000    1.0501484   -7.3172656     355.1358  0.025186936  0.025058719            3 
 1176000    1.0692401    -7.338441    353.80708  0.025071363  0.025051866            3 
 1177000     1.054903   -7.3485897    354.63291  0.025108532     0.025045            2 
 1178000    1.0760003   -7.3029958    355.51784  0.025149819  0.025038078            1 
 1179000    1.0709337   -7.3077757    356.14677  0.025172941  0.025031273            5 
 1180000    1.0602689   -7.3046938    355.88457  0.025133091  0.025024671            8 
 1181000    1.0707251   -7.3697739    354.92044  0.025043779  0.025017872            5 
 1182000    1.0602946   -7.3332253    354.87551  0.025019424  0.025010992            3 
 1183000    1.0847963    -7.311133    356.38351  0.025104502  0.025004181            4 
 1184000    1.0648809   -7.3177636    356.58565  0.025097526  0.024997489            3 
 1185000     1.060471   -7.2740884    357.83991  0.025164551  0.024990904            3 
 1186000    1.0259266   -7.3671851    356.94077  0.025080156  0.024984219            3 
 1187000    1.0701465   -7.3338176    357.85149  0.025122963  0.024977393            3 
 1188000    1.0655376   -7.3262677    358.16686  0.025123938  0.024970769            2 
 1189000    1.0405995    -7.350748    357.52491  0.025057816  0.024963859            7 
 1190000     1.076403   -7.3214659    358.34278  0.025094032  0.024957009            2 
 1191000     1.036502   -7.3957145    356.32747  0.024931953  0.024950147            5 
 1192000    1.0605032   -7.3121176    359.02739   0.02509979  0.024943311            3 
 1193000     1.088471   -7.3820219    358.24607  0.025024174  0.024936341            5 
 1194000    1.0355862   -7.3298528     356.7205  0.024896741  0.024929263            4 
 1195000    1.0892718   -7.3485746    357.54129  0.024933144  0.024922178            8 
 1196000    1.0834759   -7.3470997    357.12151  0.024883048  0.024915125            4 
 1197000    1.0421622   -7.3705659    358.25732  0.024941334  0.024908101            5 
 1198000    1.0578154   -7.3585432    359.10969  0.024979806  0.024901235            2 
 1199000    1.0447199   -7.3484852    360.11797   0.02502905  0.024894327            4 
 1200000    1.0449184   -7.3729589    359.16276  0.024941858  0.024887303            1 
 1201000    1.0727645   -7.3687317    359.12077  0.024918178  0.024880275            5 
 1202000     1.051461   -7.3450679    359.10519  0.024896366  0.024873034            3 
 1203000    1.0692814   -7.3847053    359.29899  0.024889096  0.024865785           10 
 1204000     1.070459    -7.349519    360.67989  0.024964001  0.024858804            3 
 1205000    1.0521535   -7.3081105    360.34849  0.024920366  0.024851852            3 
 1206000    1.0529828   -7.3492724    360.20082  0.024889498  0.024844837            3 
 1207000    1.0572505    -7.363616    359.90132    0.0248482  0.024837647            3 
 1208000    1.0532731   -7.3463683    360.59557  0.024875522  0.024830418            1 
 1209000    1.0673373   -7.3759954    360.68018  0.024860779  0.024823377            2 
 1210000    1.0464926   -7.3859485     361.0293  0.024864277   0.02481625            3 
 1211000    1.0658112   -7.3584097    360.28547  0.024792559  0.024809033            4 
 1212000    1.0718553   -7.3769382    360.60748  0.024794243  0.024801933            7 
 1213000    1.0734691   -7.2926859    362.07985  0.024874955  0.024794948            4 
 1214000    1.0394239   -7.3215142    362.96827   0.02491545  0.024788141            6 
 1215000    1.0513436   -7.3161389    363.00767  0.024897645  0.024781339            2 
 1216000    1.0502104   -7.3708873    361.70983  0.024788229  0.024774339            6 
 1217000    1.0566995   -7.3806993    361.80013  0.024774043  0.024767137            7 
 1218000     1.074047   -7.3585587    363.20326  0.024849703  0.024760167            4 
 1219000    1.0517896   -7.3138985    363.39294  0.024842284  0.024753246            4 
 1220000    1.0405568   -7.3467862    363.13461  0.024804277  0.024746291            3 
 1221000    1.0817058   -7.3734517    362.79653  0.024760888  0.024739328            2 
 1222000    1.0528091   -7.3774494    363.43403  0.024784099  0.024732281            6 
 1223000    1.0419847   -7.3578632    363.10129  0.024741162  0.024725403            2 
 1224000    1.0460367   -7.3438847    364.18958  0.024795042   0.02471848            6 
 1225000    1.0598151    -7.353162    364.44733  0.024792336  0.024711721            4 
 1226000     1.069024    -7.307751    365.44026  0.024839605  0.024704989            2 
 1227000    1.0424655   -7.3088565    366.47894  0.024889904  0.024698195            4 
 1228000    1.0286544   -7.3308894    364.76437  0.024753282  0.024691418            3 
 1229000    1.0579131   -7.3648821    364.28687  0.024700764  0.024684724            4 
 1230000    1.0603345   -7.3591456    365.38122  0.024754825  0.024677948            4 
 1231000    1.0625563   -7.3148638    367.46341  0.024875671  0.024671195            2 
 1232000    1.0735644   -7.3278178    366.24401  0.024772998  0.024664403            4 
 1233000     1.056837   -7.3878487    364.86895  0.024659972  0.024657524            2 
 1234000    1.0421462   -7.3345067    367.02577  0.024785641  0.024650539            3 
 1235000    1.0359887   -7.3581761    365.98705  0.024695483  0.024643678            6 
 1236000    1.0595425   -7.3858515    366.87093  0.024735095  0.024636902            4 
 1237000    1.0625688   -7.3818528    366.90951  0.024717698  0.024629916            5 
 1238000     1.044334   -7.3418445    367.21899  0.024718564  0.024622848            4 
 1239000    1.0511896   -7.3340662    367.03774  0.024686423  0.024616039            4 
 1240000    1.0612455   -7.3375514     367.5988  0.024704221  0.024609217            3 
 1241000    1.0600309   -7.3324482    367.55378  0.024681291   0.02460249            7 
 1242000    1.0568118   -7.3700261    367.28651  0.024643485  0.024595684            3 
 1243000    1.0527586   -7.3877627    367.26103  0.024621952  0.024588705            4 
 1244000    1.0424428   -7.3694463    367.81975  0.024639586  0.024581748            3 
 1245000    1.0478602   -7.3493829    369.17253  0.024710343  0.024574728            4 
 1246000    1.0554487   -7.3407021    368.39001  0.024638176  0.024567858            2 
 1247000    1.0376106    -7.325189    367.01957  0.024526836  0.024560714            3 
 1248000    1.0335588   -7.3620218      367.908  0.024566506  0.024553475            2 
 1249000    1.0497554   -7.3572281    368.80007  0.024606357  0.024546467            2 
 1250000    1.0524015   -7.3319976    369.17889  0.024611926  0.024539392            5 
 1251000    1.0531056   -7.3518355    368.61484  0.024554679  0.024532309            7 
 1252000     1.054243   -7.3593686    369.11836  0.024568581  0.024525109            4 
 1253000    1.0599068    -7.372649    368.86752  0.024532291  0.024517857            7 
 1254000    1.0298512   -7.3942731    369.12731  0.024529992  0.024510535            3 
 1255000    1.0505308   -7.3825584    369.90438  0.024562044  0.024503384            5 
 1256000    1.0743389   -7.3581609    369.73997  0.024531579  0.024496266            5 
 1257000    1.0567891   -7.3223258    371.31734  0.024616636  0.024489133            2 
 1258000    1.0388669   -7.4043994    370.68458  0.024555152  0.024482057           13 
 1259000    1.0454882   -7.3946558    370.97591  0.024554932  0.024474901            5 
 1260000    1.0431395   -7.4002463    370.19425  0.024483747  0.024467705            3 
 1261000     1.052046   -7.3732608    370.63223  0.024493274  0.024460661            4 
 1262000    1.0429397   -7.3717393    370.38608  0.024457612  0.024453652            3 
 1263000     1.057223   -7.4276901    369.94045  0.024408845  0.024446397            4 
 1264000    1.0598134   -7.3983542    372.43978   0.02455431  0.024439185            4 
 1265000    1.0132982   -7.4011616    370.64717  0.024416809  0.024431927            5 
 1266000    1.0416783   -7.3885831    371.06256  0.024424866  0.024424586            3 
 1267000     1.044849   -7.3690676    370.89541  0.024394594  0.024417441            4 
 1268000    1.0443945   -7.3600461    372.33196  0.024469766  0.024410122            6 
 1269000    1.0778477   -7.3582166    372.22188  0.024443254  0.024402794            3 
 1270000    1.0416888   -7.3536278    371.49851  0.024376543  0.024395474            3 
 1271000    1.0563039    -7.377903    371.32165  0.024345768   0.02438825            5 
 1272000    1.0334132   -7.3671131    371.77116  0.024356077   0.02438091            3 
 1273000     1.039658   -7.3263912    372.44295  0.024380921  0.024373669            2 
 1274000    1.0927051   -7.3887913    372.12634  0.024341074  0.024366328            2 
 1275000    1.0611535   -7.3642365    372.48642  0.024345518  0.024358792            3 
 1276000     1.046136    -7.373429    372.83196  0.024349005  0.024351409            3 
 1277000    1.0735872   -7.3980198    372.55146  0.024311633  0.024343971            7 
 1278000    1.0496733   -7.3890191    371.70757  0.024237583  0.024336393            3 
 1279000    1.0389027   -7.3526273    373.08737  0.024308533  0.024328849            5 
 1280000    1.0451318    -7.370567     373.3509  0.024306699  0.024321218            4 
 1281000    1.0557184   -7.3631956    373.05642  0.024268568  0.024313767            5 
 1282000     1.061073   -7.3836874    373.18222  0.024257814  0.024306255           12 
 1283000    1.0292231   -7.3383493      373.581  0.024264809  0.024298787            2 
 1284000    1.0585037   -7.3436261     374.1907  0.024285482  0.024291339            3 
 1285000    1.0503244   -7.3824553    373.13587  0.024198175  0.024283937            4 
 1286000    1.0624733   -7.3535916    375.30093  0.024319656  0.024276442            4 
 1287000    1.0432342    -7.376553    374.92604  0.024276486  0.024269033            4 
 1288000    1.0596863   -7.3601481     374.9545  0.024259478  0.024261737            3 
 1289000    1.0692698   -7.3626859    374.81635  0.024231727  0.024254265            3 
 1290000     1.024026   -7.3861138    374.55468  0.024196039  0.024246772            2 
 1291000    1.0528374   -7.3815106    376.37704  0.024294929  0.024239282            3 
 1292000    1.0516682   -7.4132252    374.45458  0.024152127  0.024231696            4 
 1293000    1.0363359   -7.3586545    375.50025  0.024200841  0.024224093            3 
 1294000    1.0569316   -7.4102145    374.81414  0.024137953  0.024216573            4 
 1295000    1.0504339   -7.3687146    376.55477  0.024231324  0.024209133            4 
 1296000     1.052157   -7.3560572    376.17232  0.024188035  0.024201545            9 
 1297000    1.0452816   -7.3837901    375.72005  0.024140327  0.024193909            3 
 1298000    1.0526764   -7.3689459    375.15877  0.024085694  0.024186389            3 
 1299000    1.0641881   -7.3731592    376.50837  0.024153732  0.024178691            2 
 1300000    1.0452564    -7.400602    375.39041  0.024063488  0.024171115            4 
 1301000    1.0729615   -7.4080539    375.48718   0.02405119  0.024163469            8 
 1302000     1.045909   -7.3819102    374.89086  0.023994551  0.024155865            8 
 1303000    1.0579694   -7.3892015    376.89961  0.024104605  0.024148333            3 
 1304000    1.0398114   -7.3830845    376.77836  0.024078372  0.024140692            4 
 1305000    1.0405682    -7.431751    376.06061  0.024014088  0.024132928            3 
 1306000    1.0312276   -7.4130458    376.72962  0.024038388  0.024125093            4 
 1307000    1.0635997   -7.3633514    376.96168  0.024034792  0.024117355            4 
 1308000    1.0349077   -7.3693798     377.5877  0.024056301   0.02410961            2 
 1309000     1.053749   -7.3713574    376.91815  0.023995299  0.024102116            4 
 1310000    1.0328305   -7.3914206    376.93038  0.023977759   0.02409448            5 
 1311000    1.0322794   -7.3728251    378.89816  0.024084551  0.024086841            4 
 1312000    1.0457273   -7.3983537    379.08825  0.024078268  0.024079192            3 
 1313000    1.0403676   -7.3834135    377.61546  0.023966454  0.024071495            2 
 1314000    1.0372931   -7.3893284    378.20488  0.023985596  0.024063755            3 
 1315000     1.050471   -7.3543556    377.57629  0.023927522  0.024055969            6 
 1316000    1.0561065    -7.367201    377.40119  0.023898251  0.024048207            3 
 1317000    1.0460074   -7.4182829    377.69918  0.023898961  0.024040498            4 
 1318000    1.0334787   -7.4081522    379.04036  0.023965627  0.024032833            5 
 1319000    1.0208213   -7.4306125    379.30914  0.023964439  0.024025273            4 
 1320000    1.0459056   -7.4175163    379.73429  0.023973124  0.024017686            4 
 1321000    1.0386382   -7.3623041    380.82869  0.024024015  0.024010136            2 
 1322000    1.0415391   -7.4087248    380.61913  0.023992633  0.024002671            3 
 1323000    1.0409042   -7.3886505    380.28755  0.023953612  0.023995121            4 
 1324000    1.0614693    -7.405442    380.59314  0.023954755  0.023987536            2 
 1325000    1.0384601   -7.4107915    381.39318  0.023986993  0.023979951            2 
 1326000    1.0515121   -7.3991858    380.71993  0.023926592  0.023972444            8 
 1327000    1.0577691   -7.3780027    381.98997  0.023988318  0.023965055            4 
 1328000    1.0498069   -7.3509121    382.76639  0.024018975  0.023957671            8 
 1329000    1.0259191   -7.4131949    381.11483  0.023897344  0.023950189            8 
 1330000    1.0186439   -7.3715951    381.07028  0.023876584   0.02394268            3 
 1331000     1.051865   -7.3591713    382.67393  0.023959049  0.023935288            3 
 1332000    1.0646264    -7.382813    381.70276  0.023880303  0.023927958            4 
 1333000    1.0499781   -7.3624298     382.7792  0.023929683  0.023920505            6 
 1334000    1.0271005   -7.4020654    382.05106  0.023866258  0.023913058            5 
 1335000    1.0297231   -7.3866757    382.03324  0.023847268  0.023905496            3 
 1336000     1.033402   -7.4143738    383.07769  0.023894566  0.023897955            2 
 1337000     1.044041   -7.3974579    381.98928  0.023808855   0.02389044            5 
 1338000    1.0311338   -7.4069204     383.1804  0.023865247  0.023882933            5 
 1339000     1.027952   -7.4119675    382.89426  0.023829615  0.023875316            3 
 1340000    1.0416959   -7.3884229    384.29964  0.023899232  0.023867787            3 
 1341000    1.0299896   -7.3781781    385.05105  0.023928104  0.023860467            4 
 1342000    1.0473725   -7.3693614     384.2808  0.023862444  0.023853167            7 
 1343000    1.0331347   -7.3786485    385.45231  0.023917368  0.023845877            5 
 1344000    1.0427692   -7.4547775    383.71668  0.023791957  0.023838528            4 
 1345000    1.0411568   -7.3959812      384.604  0.023829244  0.023831109            2 
 1346000    1.0439297   -7.3914291    384.72541  0.023819057  0.023823912            4 
 1347000    1.0221932   -7.4491391    384.96498  0.023816195  0.023816666            3 
 1348000    1.0472638   -7.3838037    384.48651  0.023768949  0.023809299            3 
 1349000    1.0412702   -7.4228011    384.11583   0.02372843  0.023801769            2 
 1350000    1.0357925   -7.3921478    384.56912  0.023738834  0.023794185            4 
 1351000    1.0337484   -7.4174843    385.91194  0.023804092  0.023786526            3 
 1352000    1.0372542   -7.3850399    385.30742  0.023749225  0.023779069            6 
 1353000    1.0455901   -7.4146656     385.8793  0.023766894  0.023771551            4 
 1354000    1.0510974   -7.4222313    384.93636  0.023691307  0.023763937            6 
 1355000    1.0412352   -7.4430352    384.56027  0.023650693   0.02375617            3 
 1356000    1.0411783   -7.4244185    385.64831  0.023700117  0.023748455            3 
 1357000     1.016218   -7.4241784    385.62705  0.023681347  0.023740849            2 
 1358000    1.0336748   -7.4065431    386.63497  0.023725759  0.023733456            4 
 1359000    1.0479049   -7.3866391     388.0808  0.023796959  0.023726198            5 
 1360000    1.0293368    -7.429289    387.67265  0.023754451  0.023718974            3 
 1361000    1.0195365   -7.4353128    387.09205  0.023701448  0.023711546            8 
 1362000     1.052892   -7.4570397    387.02084  0.023679689  0.023704111            6 
 1363000    1.0326945   -7.4555531    387.10338  0.023667363  0.023696669            4 
 1364000    1.0349196   -7.4514219    386.97092  0.023641918  0.023689314            6 
 1365000    1.0197338   -7.4413764    388.09933  0.023693488  0.023681925            5 
 1366000     1.026364   -7.4627835     386.9283  0.023604704  0.023674464            3 
 1367000    1.0659383    -7.389052    388.08566   0.02365799  0.023666976            5 
 1368000    1.0513647   -7.4217786    387.95961  0.023633017  0.023659547            4 
 1369000    1.0337481   -7.4153329    387.15998  0.023567079  0.023652067            5 
 1370000    1.0392636   -7.4209646     388.7452  0.023646302  0.023644571           10 
 1371000    1.0507414   -7.4453195    388.44985  0.023611102  0.023637205            4 
 1372000    1.0488827   -7.4357252    388.91573   0.02362219  0.023629906            3 
 1373000    1.0099545    -7.426682     389.1148  0.023617067  0.023622505            2 
 1374000    1.0344624    -7.404636    390.08979  0.023659012  0.023615271            6 
 1375000    1.0338677   -7.3763429    389.74073   0.02362065  0.023608033            6 
 1376000    1.0250027   -7.4266588    388.92681  0.023554191  0.023600693            7 
 1377000    1.0278129   -7.4301251    388.40587   0.02350556  0.023593253            4 
 1378000    1.0374623   -7.3884033    390.84809  0.023636193  0.023585936            4 
 1379000    1.0311445   -7.4571795    389.15376  0.023516664  0.023578695            8 
 1380000    1.0131167   -7.4293399      389.909  0.023545229   0.02357125           16 
 1381000    1.0242674   -7.4172268    390.31155  0.023552471  0.023563899           10 
 1382000    1.0210252   -7.3972253    390.27606  0.023533288    0.0235565            3 
 1383000    1.0361678    -7.405192    391.94157  0.023616629  0.023549175            4 
 1384000    1.0363028   -7.4182553     391.0134  0.023543677  0.023541835            3 
 1385000    1.0132847   -7.4186111    391.12047  0.023533121  0.023534504            6 
 1386000    1.0339792   -7.4287501    390.75743  0.023494314  0.023527156            5 
 1387000    1.0464146   -7.4462103    390.63915  0.023470269  0.023519588            2 
 1388000    1.0238304   -7.4107102    392.50693  0.023565498  0.023512019            5 
 1389000    1.0194338   -7.4121567    391.27405  0.023474565  0.023504542            3 
 1390000    1.0385839    -7.426562    391.03861  0.023443562  0.023497173            5 
 1391000    1.0324189   -7.4626516    389.94317  0.023361081  0.023489733            6 
 1392000    1.0315316   -7.4458313    391.11238  0.023414295  0.023482207            2 
 1393000    1.0228438   -7.4234102    391.76864  0.023436745  0.023474748            2 
 1394000    1.0423587   -7.4520936    392.84933  0.023484537  0.023467369            9 
 1395000    1.0428243   -7.4213929    391.40699   0.02338154  0.023459927            5 
 1396000    1.0491276   -7.3862803    392.44236  0.023426598  0.023452598            5 
 1397000     1.016687   -7.4358602    392.80257  0.023431315  0.023445324            5 
 1398000    1.0142584   -7.4699365    392.32282  0.023385957  0.023437761            4 
 1399000    1.0257271   -7.4447458    392.39884  0.023373769  0.023430136            8 
 1400000    1.0288924   -7.4485033    391.63892   0.02331184  0.023422478            4 
 1401000    1.0464456   -7.4174315     393.0437  0.023378759  0.023414856            3 
 1402000    1.0365307    -7.421622    393.76843  0.023405161  0.023407303            2 
 1403000    1.0365038   -7.4529572    392.44449  0.023309841  0.023399792            3 
 1404000    1.0581078   -7.4114723    394.62472  0.023422645  0.023392304            5 
 1405000    1.0210391   -7.4330653    393.52425  0.023340703  0.023384861            4 
 1406000   0.99326563   -7.4016658    394.40425  0.023376259  0.023377368            5 
 1407000    1.0333875   -7.4165018    394.72943  0.023378905  0.023369857            8 
 1408000    0.9982465   -7.4354621    393.37224  0.023281974  0.023362144            4 
 1409000    1.0222975   -7.4304443    394.67932  0.023342756  0.023354556            2 
 1410000    1.0421379   -7.4409739    395.21859  0.023358073  0.023346918            5 
 1411000    1.0289654   -7.4619078    394.33684  0.023289443  0.023339174            7 
 1412000    1.0431182   -7.4426787    394.39687  0.023276491  0.023331557            5 
 1413000    1.0189178   -7.4810639    392.93287  0.023173677  0.023323877            5 
 1414000    1.0355383   -7.4353889    394.67059    0.0232597  0.023316103            5 
 1415000    1.0438671   -7.4494994    395.15751  0.023271938  0.023308461            6 
 1416000   0.98678015   -7.3687843     397.0035  0.023364142  0.023300997            7 
 1417000    1.0242524   -7.4516658    395.67133  0.023269309  0.023293526            3 
 1418000    1.0460616   -7.4378839     395.8436  0.023263023  0.023286048            2 
 1419000    1.0204892   -7.4271477    396.02376  0.023257209  0.023278552            3 
 1420000   0.99988992   -7.4015493    396.47443  0.023267279  0.023271114            4 
 1421000     1.025026   -7.4030277    396.73437  0.023266149   0.02326358            2 
 1422000    1.0148002   -7.4766109    394.41315  0.023113757  0.023256099            4 
 1423000    1.0102226   -7.3864929     397.2012  0.023260787  0.023248532            2 
 1424000    1.0236452   -7.4316037    397.13574  0.023240621  0.023241037            3 
 1425000    1.0293886   -7.4270318    396.98774  0.023215657  0.023233562            3 
 1426000     1.019414   -7.4131297     396.7251  0.023184029  0.023226054            7 
 1427000     1.021621   -7.3894664    397.58656  0.023218089  0.023218416            6 
 1428000    1.0279822   -7.4853191    394.29356  0.023009661  0.023210809            2 
 1429000    1.0177327   -7.4480754    396.71373  0.023134694  0.023203053            3 
 1430000    1.0058396   -7.4588462    396.96611  0.023133223  0.023195441            2 
 1431000     1.027166   -7.4507072    396.86443  0.023111136  0.023187826           13 
 1432000     1.021011   -7.4729467    396.67957  0.023084239  0.023180229            3 
 1433000    1.0417297   -7.4137094    398.89789  0.023197132  0.023172682            5 
 1434000    1.0256341   -7.4478359    398.58706  0.023162893  0.023165164            4 
 1435000    1.0374336   -7.4250059    399.20943  0.023182894  0.023157634            4 
 1436000   0.99559024   -7.4297101    398.62949  0.023133095  0.023150076            3 
 1437000    1.0294728   -7.4627363    398.33245  0.023099771  0.023142477            4 
 1438000    1.0333595    -7.446194    399.20887  0.023134496   0.02313491            5 
 1439000    1.0279586   -7.4545369    397.04241  0.022992959  0.023127311            3 
 1440000    1.0109781   -7.4682172    398.03854  0.023034638  0.023119584            5 
 1441000    1.0333381   -7.4699896    397.43779  0.022983911  0.023111994            5 
 1442000    1.0143675   -7.4389562    399.86319  0.023108136  0.023104397            4 
 1443000    1.0256953   -7.4564191    398.81258   0.02303145   0.02309679            6 
 1444000    1.0138175    -7.446867    399.36232  0.023047225  0.023089307            2 
 1445000    1.0153306   -7.4433091    399.93111  0.023064078   0.02308176            3 
 1446000    1.0055968    -7.471467    399.93025  0.023048078  0.023074148            4 
 1447000    1.0251122   -7.4185634    401.19934  0.023105237  0.023066676            1 
 1448000    1.0219806   -7.4474116    399.86094  0.023012255  0.023059223            4 
 1449000    1.0120254   -7.4632904    400.09463  0.023009813  0.023051706            3 
 1450000    1.0310673   -7.4722189    400.38951  0.023010891  0.023044225            5 
 1451000      1.03195    -7.386707    401.59371  0.023064192  0.023036802            7 
 1452000    1.0184792   -7.4321223    401.69916  0.023054359  0.023029416            2 
 1453000    1.0285724   -7.4248462    400.68164  0.022980135  0.023021981            7 
 1454000    1.0315849   -7.4857831    400.50728  0.022954337  0.023014399            5 
 1455000    1.0228343   -7.4309627    401.26441  0.022981925  0.023006793            7 
 1456000   0.99742786   -7.4078226    402.38844  0.023030474  0.022999287            5 
 1457000    1.0261705   -7.4755934    401.63143   0.02297137  0.022991634            6 
 1458000    1.0418009   -7.4714992    400.95943  0.022917206   0.02298399            8 
 1459000    1.0302331   -7.4336242    401.98953  0.022960334  0.022976522            4 
 1460000    1.0125204   -7.4745238    402.34597  0.022964953  0.022968994            5 
 1461000    1.0194902   -7.4306888    401.70366  0.022912597  0.022961388            3 
 1462000    1.0158894   -7.4372455    403.92165   0.02302335  0.022953898            2 
 1463000    1.0139089   -7.4781323    401.66708  0.022879191  0.022946245            4 
 1464000    1.0158842   -7.4116126    402.07133  0.022886574  0.022938615            2 
 1465000    1.0114523     -7.45149    401.80178  0.022855619  0.022931019            6 
 1466000    1.0390288   -7.4622637    402.20626  0.022863021  0.022923416            3 
 1467000    1.0323233   -7.4088398    404.68979  0.022988513  0.022915838            5 
 1468000    1.0288859   -7.4691272    402.61982  0.022855349  0.022908384            4 
 1469000    1.0285232   -7.4679547    401.06033  0.022751323  0.022900727            5 
 1470000    1.0011521   -7.4527947    403.03924  0.022848029  0.022892983            3 
 1471000    1.0052494   -7.4539958    403.12996  0.022837637  0.022885226            1 
 1472000     1.034176   -7.5020282    402.37933  0.022779627  0.022877587            5 
 1473000   0.98156445   -7.4562415    402.88335  0.022792676  0.022869912            8 
 1474000    1.0154803    -7.509193    402.39615  0.022749669  0.022862201            4 
 1475000    1.0080634   -7.4971919     403.6397  0.022804503  0.022854433            9 
 1476000    1.0253173   -7.4600119     403.0261  0.022754409  0.022846726            4 
 1477000    1.0160144   -7.4868243    402.76341  0.022724182  0.022838983           11 
 1478000    1.0138912   -7.4523373    403.44608  0.022747298  0.022831355            7 
 1479000    1.0017823   -7.4989534    402.07882   0.02265488  0.022823634            5 
 1480000    1.0266428    -7.483631    404.01386  0.022748528   0.02281602            9 
 1481000    1.0192553   -7.4340051    404.46997  0.022758833  0.022808282            5 
 1482000    1.0203676   -7.4405344    404.78001  0.022760909  0.022800635            2 
 1483000   0.99161126   -7.4734159    403.71215  0.022685556  0.022793049            2 
 1484000    1.0179745   -7.4346988     406.0224       0.0228  0.022785522            4 
 1485000    1.0126991   -7.4385935    405.40211  0.022749838  0.022778046            2 
 1486000    1.0181923   -7.5019729    405.84634  0.022759441  0.022770565            3 
 1487000    1.0041832   -7.4510704    406.78126  0.022796529  0.022763184            9 
 1488000    1.0196596    -7.465835    405.08141  0.022686011  0.022755817            3 
 1489000    0.9977205   -7.4550813    406.47197  0.022748599  0.022748435            7 
 1490000    1.0076868   -7.4242841    407.19571  0.022773809  0.022740964            3 
 1491000    1.0008952   -7.4369014    407.62681   0.02278263  0.022733651            2 
 1492000    1.0134879   -7.4639897    406.66344  0.022713552  0.022726268            6 
 1493000    1.0188039   -7.5069449    405.42582   0.02262926  0.022718833            7 
 1494000    1.0177751    -7.453953    406.83467  0.022692697  0.022711461            6 
 1495000    1.0121825   -7.4502581    406.50578  0.022659185  0.022704135            4 
 1496000    1.0141509   -7.5220381    405.80843  0.022605193   0.02269661            5 
 1497000    1.0043636   -7.4765389    407.35195  0.022676016  0.022689155            3 
 1498000    1.0076567   -7.5173992    407.08784  0.022646186  0.022681652            2 
 1499000    1.0011434    -7.485007    407.99249   0.02268137  0.022674157            8 
 1500000   0.98621757   -7.4827725    408.39931   0.02268885  0.022666687           14 
 1501000     1.013012   -7.4912462    407.62321  0.022630647  0.022659217            6 
 1502000    1.0001484   -7.4933213    407.83604  0.022627388  0.022651923            6 
 1503000    1.0153724    -7.442015    407.41091  0.022588762  0.022644468            4 
 1504000   0.99826857    -7.472065    408.80559  0.022651019   0.02263709            5 
 1505000   0.99971403   -7.4577691    409.50276  0.022674571  0.022629749            8 
 1506000     1.027674   -7.4494646     409.5242  0.022660702  0.022622404            5 
 1507000    1.0257758   -7.4471816    410.67403  0.022709247  0.022615057            2 
 1508000    1.0031989   -7.5283979    407.72086  0.022530994  0.022607641            5 
 1509000    1.0068493   -7.4837914     409.4462  0.022611343  0.022600157            6 
 1510000    1.0210664   -7.5127061    408.99385  0.022571404  0.022592751            5 
 1511000   0.99187623   -7.5033634       408.88  0.022550187  0.022585436            3 
 1512000    1.0202946   -7.4924858    410.27456  0.022612134  0.022578134            5 
 1513000    1.0186312   -7.5022297     411.2624  0.022651597  0.022570917            2 
 1514000   0.99875643   -7.5170276    409.79937  0.022556108   0.02256371            3 
 1515000    1.0178201   -7.5159365      409.951   0.02254956  0.022556325            9 
 1516000   0.99360437   -7.5139549    410.72588   0.02257728  0.022548932            8 
 1517000   0.98556525   -7.4924767    410.72553  0.022562378  0.022541633            6 
 1518000    1.0133766   -7.5023679    411.37222  0.022583016  0.022534484            5 
 1519000    1.0194892   -7.4970295    412.52368  0.022631319  0.022527429            4 
 1520000    1.0055496   -7.4716455    411.99953  0.022587694  0.022520387            2 
 1521000    1.0174501   -7.4868668    411.51161  0.022546111  0.022513284            2 
 1522000    1.0199193   -7.4468034    412.96703  0.022610985  0.022506121            3 
 1523000   0.99974369   -7.4837644    413.29115  0.022613873  0.022499145            6 
 1524000    1.0231337   -7.4793183    413.36849  0.022603264  0.022492177            4 
 1525000    1.0059215   -7.4616375     412.3762  0.022534218  0.022485129            5 
 1526000   0.98896715   -7.4622632     413.2054  0.022564734  0.022478087            3 
 1527000    1.0122171   -7.5153011    412.22584  0.022496499  0.022471026            4 
 1528000    1.0367109   -7.5296287    413.36874  0.022544107   0.02246384            6 
 1529000    1.0133658    -7.497535    411.96635  0.022452929  0.022456716            5 
 1530000    1.0162369   -7.4698082    414.35947  0.022568599  0.022449578            2 
 1531000    1.0030324   -7.4652273    414.49219  0.022561081  0.022442505            4 
 1532000   0.98934576    -7.521316    414.02942  0.022521182  0.022435506            3 
 1533000   0.99467081   -7.4336423    415.92253    0.0226094  0.022428476            2 
 1534000    1.0097227   -7.4906984    413.46699  0.022461266   0.02242151            4 
 1535000    1.0074851   -7.4423415     416.0584  0.022587318  0.022414633            3 
 1536000    1.0152944    -7.484383    415.49152  0.022541858   0.02240777            8 
 1537000    1.0048362   -7.5019854     415.5155  0.022528492  0.022400674            7 
 1538000    1.0132477   -7.4605675    416.24457  0.022553347  0.022393677            4 
 1539000    1.0075268   -7.4740097    414.61429  0.022450416  0.022386612            4 
 1540000     1.011808   -7.5139792    415.50608  0.022484095  0.022379646            3 
 1541000    1.0137941   -7.5344696    415.48229  0.022468218  0.022372574            3 
 1542000   0.99550525   -7.5046792    415.70565  0.022465718  0.022365495            3 
 1543000    1.0049108   -7.4963991    415.02588  0.022414446   0.02235839            4 
 1544000    1.0167019   -7.5359947    415.27216  0.022413221   0.02235131            7 
 1545000    0.9949279    -7.500081    415.63002  0.022418016  0.022344168            3 
 1546000    1.0069833   -7.5202768    416.63652  0.022457768  0.022337011            9 
 1547000   0.99960977   -7.5104048    415.51366  0.022382766   0.02232995            4 
 1548000    1.0087736   -7.4858913    415.72958   0.02237993  0.022322905            3 
 1549000    1.0090238   -7.5274149    416.16147  0.022388717  0.022315791            6 
 1550000    1.0245103   -7.5382069    415.37738  0.022332117  0.022308667            4 
 1551000    1.0360421   -7.4760926    417.16065  0.022413531  0.022301648            4 
 1552000   0.99682131   -7.4851742    417.67907  0.022426926  0.022294612            2 
 1553000   0.99877102   -7.5098387    417.10093  0.022381462   0.02228747            3 
 1554000    1.0072094   -7.5033746    416.49669  0.022334658   0.02228028            2 
 1555000   0.99879526   -7.5096695    417.01729  0.022348193  0.022273035            4 
 1556000    0.9959159   -7.5113885     417.6253  0.022366394  0.022265869            6 
 1557000    1.0128675   -7.4965753    416.94638  0.022315691  0.022258617            5 
 1558000    1.0305877   -7.5248009    416.56208  0.022280813   0.02225135            3 
 1559000   0.99594537   -7.5188924    416.39393  0.022257533   0.02224407            3 
 1560000   0.97037907   -7.5087172    417.13149  0.022282665  0.022236834            6 
 1561000   0.99170249   -7.4753036    417.98603   0.02231401  0.022229531            5 
 1562000     1.015569   -7.4736308    417.66018   0.02228234  0.022222427            3 
 1563000     1.018764   -7.5031676    416.79874  0.022222155  0.022215231            5 
 1564000    1.0096707   -7.4999839    418.18581  0.022281853  0.022207916            2 
 1565000    1.0193053   -7.5033695    417.24355  0.022217441  0.022200544           11 
 1566000    1.0223127   -7.4904855    417.73617  0.022229468  0.022193218            3 
 1567000   0.98959518   -7.4986707    418.55945  0.022259064  0.022186043            3 
 1568000   0.97924133   -7.4908628    418.32256  0.022232279  0.022178934            4 
 1569000    1.0301885    -7.520758     417.8933   0.02219531  0.022171794            7 
 1570000    1.0164268   -7.5392887    418.70714   0.02222437  0.022164527            4 
 1571000   0.99734703   -7.5076236    418.14468  0.022180388  0.022157263            6 
 1572000   0.98061005   -7.5356196    418.01888   0.02215961  0.022149861            2 
 1573000     1.000265   -7.5438882    417.90216  0.022139339  0.022142443            5 
 1574000   0.98419429   -7.5397242    417.62265  0.022110475  0.022135018           11 
 1575000   0.99536752    -7.559372    417.07183  0.022067292  0.022127476           10 
 1576000    0.9879307   -7.5742118    416.75443  0.022036507  0.022119851            3 
 1577000    1.0100325    -7.541669    417.60409  0.022067432  0.022112204            7 
 1578000    1.0138006   -7.4738967    419.53982  0.022155673  0.022104853            4 
 1579000   0.98847553   -7.5084784    418.40382  0.022081688  0.022097383            3 
 1580000   0.99568995   -7.5097947    418.42787  0.022068981  0.022089902            4 
 1581000     0.989571   -7.5282379    418.23038  0.022044612  0.022082427            5 
 1582000    1.0046306    -7.535313    418.91194  0.022066579  0.022074956           18 
 1583000   0.99791448   -7.4898911    420.10922  0.022115668  0.022067608            6 
 1584000    1.0048944   -7.5028765    418.77911  0.022031729   0.02206019            5 
 1585000   0.99643261   -7.4906522    419.90603  0.022077078   0.02205276            5 
 1586000    1.0245184   -7.5125022     420.7273  0.022106311   0.02204545            3 
 1587000    1.0076665   -7.4994192    420.52182  0.022081591  0.022038058            3 
 1588000    1.0037521    -7.527659    419.45738  0.022011827  0.022030604            6 
 1589000    1.0066341   -7.5429116    419.42673  0.021996367  0.022023036            4 
 1590000    1.0174113    -7.526029    419.85329  0.022004889  0.022015564            5 
 1591000   0.97212263   -7.5384213    419.82741  0.021989703   0.02200801            3 
 1592000     1.015031   -7.5074329    421.28725  0.022052306  0.022000518            7 
 1593000    1.0275668   -7.5215531    420.82203  0.022014126  0.021993064            6 
 1594000    1.0047804   -7.5179533    419.88755  0.021951461  0.021985631            6 
 1595000    1.0071417   -7.5522983    420.46505  0.021967871  0.021978183            5 
 1596000    1.0098561   -7.5045201    422.70605  0.022071118  0.021970801            2 
 1597000   0.98971944   -7.4879965    421.50745  0.021994753  0.021963435            2 
 1598000   0.99765978   -7.5068781     421.5962  0.021985617   0.02195607            7 
 1599000   0.98796722   -7.5389375    421.27036  0.021954886  0.021948656            3 
 1600000   0.98737285   -7.5538371     420.1953  0.021885172  0.021941242            5 
 1601000    1.0117346   -7.5339217    420.26919  0.021875348  0.021933768            5 
 1602000      1.00871   -7.5272358    421.68346  0.021935261   0.02192637           11 
 1603000   0.98397245   -7.5231395    422.11514  0.021944019  0.021918914            5 
 1604000    1.0025536   -7.5217206    421.87876  0.021918057  0.021911521            5 
 1605000   0.99327396   -7.5123117    422.16265  0.021919141  0.021904141            8 
 1606000    1.0109119   -7.5137975     421.6019  0.021876396  0.021896857            4 
 1607000   0.98818173   -7.4691448    422.03898  0.021885448   0.02188958            2 
 1608000   0.99675641   -7.5361261    422.12796  0.021876449    0.0218823            5 
 1609000    0.9930786   -7.5316696     423.1492  0.021915745  0.021874865            4 
 1610000    0.9953395   -7.5075418    422.38015  0.021862327  0.021867534            2 
 1611000    0.9998266   -7.5489299    422.38866  0.021849196  0.021860169            6 
 1612000   0.98451107    -7.515786    424.33846  0.021936438  0.021852726            5 
 1613000    1.0110685   -7.5222604    422.85064  0.021845972  0.021845205            4 
 1614000    1.0220592   -7.5507224    421.49188  0.021762282  0.021837667           12 
 1615000   0.99901452   -7.5260368    422.99697  0.021826469  0.021830144            3 
 1616000   0.96853847   -7.5184942    421.79721  0.021751094  0.021822487            4 
 1617000    1.0067093   -7.5119911    422.85241  0.021792023  0.021814887            7 
 1618000   0.99048552    -7.549819    422.45824  0.021758253  0.021807343           12 
 1619000   0.97099143   -7.5301707      421.862  0.021714124  0.021799777            4 
 1620000   0.97562499   -7.5444253    423.50191  0.021785078  0.021792169            4 
 1621000   0.98333243    -7.505561    422.86395  0.021738842  0.021784597            2 
 1622000    1.0058096   -7.5470228    420.80775  0.021619798   0.02177691            5 
 1623000    1.0098019   -7.5772996    422.39191  0.021687816  0.021769235            5 
 1624000   0.98842748    -7.527063    423.20037  0.021715947  0.021761573            4 
 1625000   0.97286989   -7.5314137     421.9398  0.021637938  0.021753959            7 
 1626000    1.0134821   -7.5379022    421.84019  0.021619526  0.021746267            4 
 1627000    1.0221266   -7.5111061    423.77357  0.021705264  0.021738669            7 
 1628000   0.98720674   -7.5166122    424.02685  0.021704896  0.021731185            7 
 1629000   0.97496266   -7.5103642    424.50338  0.021715949  0.021723725            5 
 1630000    1.0031239   -7.4792398     425.1012   0.02173319  0.021716286           10 
 1631000   0.99995783   -7.5214258    424.61823  0.021695189  0.021708856           19 
 1632000   0.99707089   -7.5340703    423.82146   0.02164121   0.02170138           13 
 1633000    1.0008683   -7.5425011    424.34913  0.021654885  0.021693863            7 
 1634000    1.0082816   -7.5643959    425.02668  0.021676187   0.02168641            5 
 1635000    1.0163721   -7.5096224    425.35256  0.021679539  0.021678971            2 
 1636000   0.99334975   -7.5089065    427.23785  0.021762319  0.021671553            6 
 1637000   0.98953208   -7.4964705    426.35309  0.021703985  0.021664152            5 
 1638000   0.98548054   -7.5658429    425.92297  0.021668853  0.021656804            8 
 1639000   0.98205096   -7.5706075    425.62504  0.021640484   0.02164932            5 
 1640000    1.0084657   -7.5026221    426.30227  0.021661701  0.021641955            4 
 1641000   0.98567991   -7.5574901    426.42899  0.021654936  0.021634707            6 
 1642000   0.97921556   -7.5365411    425.81333  0.021610502  0.021627315            6 
 1643000   0.99368605   -7.5032796    427.76851  0.021696516  0.021619991            5 
 1644000   0.97021853   -7.5412084     427.6412  0.021676866  0.021612716            4 
 1645000    1.0083773   -7.5424906     425.9163  0.021576307  0.021605375            4 
 1646000   0.99548527   -7.5464657    427.53516  0.021645158  0.021598031            6 
 1647000   0.98182016   -7.5213838    428.35719  0.021673608  0.021590706            6 
 1648000   0.98741373   -7.5528612    426.99422  0.021591536  0.021583337            2 
 1649000   0.97822816   -7.5583782    427.22568  0.021590139  0.021575936           10 
 1650000    0.9926689   -7.5798417    427.16788  0.021574135  0.021568531            3 
 1651000   0.96484158   -7.5162569    428.40159  0.021623339  0.021561164            5 
 1652000   0.95344763   -7.5828169    426.40659  0.021509614  0.021553767            8 
 1653000   0.97953965   -7.5821779    427.72172  0.021562902  0.021546328            3 
 1654000   0.98538775   -7.5265886    427.88643  0.021558163  0.021538963           10 
 1655000   0.98478913   -7.5726529    427.01839   0.02150143  0.021531549            4 
 1656000   0.99802297   -7.5443527    428.23116  0.021549475  0.021524232            5 
 1657000   0.99235841   -7.5297823    429.28824  0.021589632  0.021516932            4 
 1658000   0.99274378   -7.5275068    428.79165  0.021551651   0.02150954            6 
 1659000   0.97871363    -7.537412    428.66125   0.02153211  0.021502146            5 
 1660000    1.0083054    -7.535975    428.22752  0.021497366  0.021494793            2 
 1661000   0.99361748   -7.5661333    428.71445  0.021508852  0.021487325            9 
 1662000   0.97081247   -7.5421896    430.24621  0.021572714  0.021479908            3 
 1663000   0.97454717   -7.5418734    428.04876  0.021449627  0.021472549            5 
 1664000    0.9699887   -7.5242573     428.6483  0.021466762  0.021465262            2 
 1665000    1.0062692   -7.5385665    429.13379  0.021478168  0.021457852            4 
 1666000    1.0035062   -7.5674092    430.11043  0.021514127  0.021450416            6 
 1667000   0.98984585   -7.5711771    428.98533  0.021444977  0.021442929            5 
 1668000    1.0079312   -7.5860188    430.48889  0.021507239  0.021435514            8 
 1669000   0.98369735   -7.5586295    430.18824  0.021479341  0.021428171            6 
 1670000    1.0135369   -7.5297427    430.37076  0.021475587  0.021420922            3 
 1671000   0.99175587   -7.5492556    430.86461  0.021487363  0.021413707            4 
 1672000   0.99370634   -7.5577751    430.48954  0.021455818  0.021406461            5 
 1673000    0.9993639   -7.5989798    429.90154  0.021413705  0.021399143            3 
 1674000   0.99010996   -7.5505184     430.3765  0.021424557  0.021391873            3 
 1675000   0.99623467   -7.5459189    430.37327  0.021411606  0.021384535            5 
 1676000   0.99712889   -7.5062972    431.78674   0.02146911  0.021377244            6 
 1677000   0.98103084    -7.545677    431.18438  0.021426376   0.02137003            8 
 1678000   0.98078494   -7.5422891    430.88947   0.02139896  0.021362818            3 
 1679000   0.98614317   -7.5997829     431.3206  0.021407614  0.021355539           15 
 1680000   0.98325948   -7.5457992    431.15966  0.021386888  0.021348218            5 
 1681000   0.97108123    -7.558071    431.80496  0.021406155  0.021341044            7 
 1682000    1.0102533   -7.5731461    430.95089  0.021351114  0.021333804            6 
 1683000    0.9783092   -7.6020506    431.58408   0.02136978  0.021326526            3 
 1684000   0.97931444   -7.5617339    431.90097  0.021372772  0.021319189            7 
 1685000   0.98113625   -7.5923429    431.91162  0.021360614   0.02131188            7 
 1686000   0.98245328   -7.5730678    431.29402  0.021317419  0.021304577            4 
 1687000   0.98300727   -7.5485906    433.45964  0.021411758  0.021297351            9 
 1688000   0.98438935   -7.5777422    432.41003  0.021347256  0.021290013            8 
 1689000   0.98119845   -7.5761484    431.32032  0.021280853  0.021282599           15 
 1690000   0.99061143   -7.5565694    432.30141  0.021316637   0.02127529            7 
 1691000    1.0078844   -7.5605412    432.74616  0.021325949  0.021267969            4 
 1692000   0.99278659   -7.5762314    431.32127  0.021243167  0.021260618            3 
 1693000   0.96682694   -7.5760044    431.28409   0.02122879   0.02125323            3 
 1694000   0.95197874   -7.6032622    430.73677  0.021189333  0.021245776            4 
 1695000   0.98268934   -7.5816822    431.53634  0.021216143  0.021238311            4 
 1696000   0.97864562   -7.5695716     431.8608  0.021219575   0.02123085            5 
 1697000   0.98437214   -7.5661761    431.99589  0.021213705  0.021223442            2 
 1698000    0.9655142    -7.634037    431.33969  0.021169007  0.021215985            6 
 1699000   0.98633108   -7.5764008    432.49964  0.021213441  0.021208532            2 
 1700000    1.0027454   -7.5627641    433.51942  0.021250952  0.021201188            2 
 1701000   0.97192689   -7.5729908    433.93815  0.021258973  0.021193836            8 
 1702000   0.97804552   -7.5908163    432.02821  0.021152968  0.021186407            4 
 1703000   0.98121044   -7.5772703     433.9068  0.021232472  0.021179054            4 
 1704000   0.98228096   -7.5996834    433.03542  0.021177397  0.021171778            3 
 1705000   0.97528455   -7.6206911    432.95877   0.02116123    0.0211645            5 
 1706000   0.96671839   -7.5933466    432.70021  0.021136196  0.021157225            2 
 1707000   0.99201628   -7.5980291    434.12367  0.021193305  0.021149978            4 
 1708000   0.99015545   -7.6110323    434.23486  0.021186322  0.021142694            7 
 1709000   0.97486689     -7.57525     434.6192  0.021192666  0.021135381            5 
 1710000   0.98742033   -7.5686892    434.13436  0.021156645   0.02112811            7 
 1711000    1.0005597   -7.5946075    435.09459  0.021191048  0.021120925            3 
 1712000   0.95678065    -7.587049    435.25732  0.021186591  0.021113729            7 
 1713000   0.97954703   -7.5630597    436.07055  0.021213784  0.021106509            2 
 1714000   0.95685415   -7.6028744     435.3536   0.02116655  0.021099349            3 
 1715000   0.99075498   -7.5971173    435.49769  0.021161209  0.021092229            8 
 1716000   0.98147449   -7.5774813    436.29304  0.021187502  0.021085129            5 
 1717000   0.97062122   -7.5850134    436.52805  0.021186568  0.021078066            9 
 1718000   0.97618575   -7.5978235    435.95298  0.021146342  0.021071024            4 
 1719000   0.98124207   -7.6030586     436.0114  0.021136872  0.021063943            4 
 1720000   0.96799516   -7.5946388    436.68797  0.021157363   0.02105681            5 
 1721000   0.98721703   -7.5902735    436.50373  0.021136148  0.021049599            4 
 1722000   0.99273545   -7.6628974    434.43611  0.021023815   0.02104239           12 
 1723000   0.97986114   -7.5955386    436.94844  0.021133122  0.021035192            4 
 1724000   0.96962591   -7.6043505    436.53214  0.021100741  0.021028058            2 
 1725000    1.0141769    -7.595176    437.17023  0.021119335   0.02102101            8 
 1726000   0.96724245   -7.5769381    437.88174  0.021141451  0.021013872           13 
 1727000    0.9772289   -7.5918397    436.95051  0.021084275  0.021006717            5 
 1728000   0.99634497   -7.5701472    438.41894  0.021142888  0.020999513            6 
 1729000   0.98637339   -7.5669812    437.37526  0.021080357  0.020992373           12 
 1730000   0.97351096   -7.5569589    436.85727  0.021043221  0.020985249            6 
 1731000   0.97189402   -7.5831465    437.48657   0.02106136  0.020978049            8 
 1732000   0.96632531   -7.5990584    435.49578  0.020953415  0.020970841            2 
 1733000   0.95208562   -7.6399633    436.83235  0.021005595  0.020963623            5 
 1734000   0.97972898   -7.5865537    437.68534  0.021034474  0.020956413            4 
 1735000     0.987662   -7.5824468    438.05857  0.021040277  0.020949196            8 
 1736000   0.98398923   -7.6008523    437.69755  0.021010827  0.020942055            8 
 1737000   0.98359133    -7.576726    438.17336  0.021021558  0.020934907            5 
 1738000   0.97598598   -7.6116946    437.44962  0.020974761  0.020927813            9 
 1739000   0.96553649   -7.6035624    438.37968  0.021007269  0.020920639            3 
 1740000   0.96621728   -7.5987531    438.60622  0.021006045  0.020913459            3 
 1741000   0.96324331   -7.5978014    438.41247  0.020984706  0.020906245            7 
 1742000   0.96444023   -7.6272088    437.38381   0.02092345  0.020899023           11 
 1743000   0.99769655   -7.5647831    439.92373  0.021032881  0.020891876            4 
 1744000   0.96800099   -7.6116453    438.28428  0.020942483  0.020884694            6 
 1745000   0.98286326   -7.5765455    439.97488  0.021011217  0.020877481            4 
 1746000   0.98429607   -7.5872984    439.68593  0.020985392  0.020870381            5 
 1747000   0.98720354   -7.6225945    437.99349  0.020892649  0.020863275           13 
 1748000   0.96593053   -7.6236257    440.14531  0.020983281  0.020856105            4 
 1749000   0.97818421   -7.5793326    439.43148  0.020937273   0.02084907            7 
 1750000   0.98129326   -7.5872135    438.94597  0.020902189  0.020841944           10 
 1751000   0.96738682   -7.6066497    438.18034  0.020853814  0.020834844            6 
 1752000   0.96777623   -7.5802258    439.87838  0.020922678   0.02082782            4 
 1753000   0.97481351    -7.602039    440.56153  0.020943218  0.020820841            7 
 1754000    0.9770957   -7.6130004    440.90418  0.020947557  0.020813813            3 
 1755000   0.97620768   -7.5885086    442.02803  0.020988985  0.020806796            4 
 1756000   0.96841714    -7.601848    441.52508  0.020953164   0.02079978            6 
 1757000   0.98387317   -7.6427175    438.74662  0.020809458  0.020792669            6 
 1758000     0.982913   -7.6270087    440.71653     0.020891   0.02078557            5 
 1759000    0.9494108   -7.6143291    440.19027  0.020854191   0.02077849           10 
 1760000   0.97694852   -7.5569335    441.92986  0.020924709  0.020771407            5 
 1761000   0.95611193   -7.6115716    440.53582  0.020846859  0.020764333            5 
 1762000   0.95605636   -7.6197062     439.8182  0.020801088  0.020757273            4 
 1763000   0.98147613   -7.6112594    440.01739  0.020798704  0.020750134           11 
 1764000   0.96816589   -7.5770866    441.24082   0.02084471  0.020743009            6 
 1765000   0.96571518   -7.6072389    443.05655  0.020918628  0.020735955            8 
 1766000   0.97420943   -7.5726832    442.18093  0.020865465   0.02072893            3 
 1767000   0.95112966   -7.6069845    441.87563  0.020839258  0.020721957           13 
 1768000   0.95595144   -7.6053676     441.1598  0.020793731  0.020715016            3 
 1769000   0.96859139   -7.5910323    442.36237  0.020838627  0.020708027            5 
 1770000   0.98074992   -7.5651278    442.90072  0.020852199  0.020701092            5 
 1771000   0.96676362    -7.577452    442.86998  0.020838979  0.020694186            2 
 1772000   0.96597186   -7.5956299    442.84834  0.020826201  0.020687279            4 
 1773000   0.95547815   -7.6189279     442.2316  0.020785467  0.020680321            4 
 1774000   0.95133879   -7.5867104    442.68021  0.020794824  0.020673397            5 
 1775000   0.95807209   -7.5692995    443.92605  0.020841599  0.020666459            4 
 1776000   0.97093367   -7.5430835       444.08  0.020837087  0.020659566            5 
 1777000   0.96174676   -7.6059522    443.02376  0.020775828  0.020652749            6 
 1778000   0.96713762      -7.6238    443.64271  0.020793153  0.020645903            3 
 1779000   0.97053164   -7.5751393    444.27311  0.020810994    0.0206391            4 
 1780000   0.97620477   -7.6222301    443.54473  0.020765203  0.020632265            5 
 1781000   0.95253933   -7.6024873    444.03989  0.020776712  0.020625358            5 
 1782000   0.95749824    -7.610495    445.06607  0.020813041  0.020618453            9 
 1783000   0.96829312   -7.5802015    444.64163  0.020781531  0.020611662            4 
 1784000   0.96075815   -7.6146817    443.61762  0.020722049  0.020604844            9 
 1785000   0.94660574   -7.6504601    443.99244  0.020727938  0.020597947            4 
 1786000   0.96484621   -7.6648687    443.70372  0.020702861  0.020590962            5 
 1787000   0.96971637   -7.6309748     444.3051   0.02071932  0.020583993            4 
 1788000   0.98525052   -7.6379975    443.25967  0.020659008  0.020577028            8 
 1789000   0.95976514   -7.6183189    444.00837  0.020682335  0.020570044            5 
 1790000   0.97498905   -7.5968462     443.9365  0.020667435  0.020563175            7 
 1791000   0.98708139   -7.5874081    445.88552  0.020746581  0.020556304            9 
 1792000   0.97251276   -7.6363619    444.52768   0.02067186  0.020549418            4 
 1793000   0.95219592   -7.5896582    446.49333  0.020751689  0.020542539            3 
 1794000   0.96422988   -7.6055147    444.31847  0.020639097  0.020535671            3 
 1795000   0.98291064    -7.605975    445.53312  0.020683989  0.020528803            3 
 1796000   0.94707919   -7.6058125    446.97135  0.020739205   0.02052206            4 
 1797000    0.9442109   -7.5949233    446.51795  0.020706638  0.020515311            5 
 1798000   0.96498307   -7.6159181    446.36865  0.020688202  0.020508496            7 
 1799000   0.96194353   -7.6019933     446.9108  0.020701816  0.020501696            6 
 1800000   0.96848115   -7.5930418    446.97929  0.020693486  0.020494905            4 
 1801000   0.96244623   -7.6211451    446.62938  0.020665805  0.020488192            5 
 1802000   0.97686383   -7.6028355     446.7822  0.020661404  0.020481406            5 
 1803000   0.95912651   -7.6355417    446.01737  0.020614595  0.020474577            4 
 1804000   0.97240585   -7.6487899    446.45814  0.020623528  0.020467774            7 
 1805000   0.96919689   -7.6216187    447.47231  0.020658925  0.020460971            7 
 1806000   0.95704445   -7.6157139    447.57197  0.020652084  0.020454153            3 
 1807000   0.96481813   -7.6188242    447.51872    0.0206382   0.02044734            5 
 1808000   0.95159092   -7.6240078    447.50873  0.020626324  0.020440627           18 
 1809000   0.95897733   -7.6258894    446.90349  0.020587041   0.02043391            4 
 1810000   0.93849129   -7.6111483    448.03969  0.020627978   0.02042711            8 
 1811000   0.96648927   -7.6429519    448.28419  0.020627839  0.020420343            6 
 1812000   0.96312449    -7.611971    448.12245  0.020609016  0.020413529            3 
 1813000   0.97411147   -7.6795339     447.2997  0.020559832  0.020406786            4 
 1814000   0.94454001   -7.6297136    448.29197  0.020594082  0.020400032            4 
 1815000   0.97985335    -7.605113    448.08821   0.02057338  0.020393317            5 
 1816000   0.97402627   -7.5966358    448.93194  0.020600768  0.020386659            3 
 1817000   0.94890666   -7.6278104    448.01079  0.020547183  0.020380065            5 
 1818000   0.96832794   -7.6591179    448.89205  0.020576277  0.020373377            3 
 1819000   0.96147245   -7.6241775    450.92424  0.020658065  0.020366658            4 
 1820000   0.98132041   -7.6185555    448.55288  0.020538136  0.020359933            2 
 1821000   0.98275995   -7.6598456    448.95196   0.02054512  0.020353238            5 
 1822000    0.9602478   -7.6397103    449.62975  0.020564844  0.020346529            8 
 1823000   0.95950781   -7.7050051    449.96976  0.020569106  0.020339853            6 
 1824000   0.95483066   -7.6890668    448.87758   0.02050793  0.020333147            6 
 1825000   0.94478141   -7.6648574     449.7112  0.020534758  0.020326458            3 
 1826000    0.9611771   -7.6118995     452.1947  0.020636852    0.0203198            4 
 1827000   0.97483736   -7.6133078    450.26458   0.02053752  0.020313236           12 
 1828000   0.94575974   -7.6686277    449.33741  0.020484017  0.020306529            9 
 1829000   0.96537432    -7.678218    449.93416  0.020500007  0.020299858            7 
 1830000   0.96046881   -7.6625843    448.79582  0.020436968  0.020293178            5 
 1831000   0.96685429   -7.6816235    449.95341  0.020478491  0.020286446            5 
 1832000   0.95400551   -7.6424083    450.33279   0.02048457   0.02027978            4 
 1833000   0.93785781   -7.6447999    449.83921  0.020450955  0.020273114            2 
 1834000   0.94085008   -7.6395206    451.67213  0.020523089  0.020266517            4 
 1835000   0.98384449   -7.6691406    451.49679  0.020503941  0.020259978            3 
 1836000   0.94660291   -7.5939079    452.32838  0.020530518  0.020253559            2 
 1837000   0.96304599   -7.6019263    452.15615  0.020511529    0.0202471            3 
 1838000   0.98892759   -7.6080683    453.56644  0.020564311  0.020240634            2 
 1839000   0.96064456   -7.6177905    453.93952  0.020570034  0.020234186            4 
 1840000   0.95987517   -7.6522126    452.33296  0.020486094  0.020227752            6 
 1841000   0.94718717   -7.6483674    453.83194  0.020542818  0.020221268           12 
 1842000   0.95576977   -7.6658854    451.85442  0.020442201  0.020214738            5 
 1843000   0.96284185   -7.6078307    452.40052  0.020455802  0.020208314           23 
 1844000   0.93284974   -7.6143594    453.80524   0.02050819  0.020201899           11 
 1845000    0.9628228   -7.6405178    453.35065  0.020476542  0.020195479            7 
 1846000   0.96011631   -7.6157779    453.02422  0.020450714  0.020189064           15 
 1847000    0.9806603   -7.6491596    454.85829  0.020522392  0.020182716            3 
 1848000   0.95369512   -7.6248366    455.27905   0.02053026   0.02017633            4 
 1849000   0.95914027   -7.6573115    454.19725  0.020470401  0.020170021            7 
 1850000   0.95289101   -7.6584876    454.05005  0.020452705  0.020163595            9 
 1851000   0.94956819   -7.6792387    453.37333  0.020411189  0.020157079           10 
 1852000   0.98125806   -7.6638971    454.18394  0.020436642   0.02015058            9 
 1853000   0.93276095   -7.6774133    454.11924  0.020422704  0.020144089            9 
 1854000   0.95418192   -7.6889735    451.67255  0.020301715  0.020137606            5 
 1855000   0.95090707   -7.6328447    455.43761   0.02045991  0.020131163            4 
 1856000   0.96649083   -7.6759327    454.56951   0.02040991  0.020124703            5 
 1857000   0.95809112    -7.649054    454.61654   0.02040103  0.020118293            4 
 1858000   0.95244547   -7.6670966    454.67182  0.020392529  0.020111881            7 
 1859000   0.95433483   -7.6863713    453.75911  0.020340645  0.020105437            6 
 1860000   0.94391609    -7.613354    457.08347   0.02047865  0.020099073            8 
 1861000   0.94211054   -7.6633419     455.7315  0.020407106  0.020092704            6 
 1862000   0.94168672   -7.6287953    456.62358  0.020436072  0.020086358            8 
 1863000   0.94236635   -7.6295791    456.24888  0.020408341  0.020080031            6 
 1864000   0.96428343   -7.6349381    455.59209   0.02036803  0.020073731            4 
 1865000   0.96180262   -7.6535957    456.13103   0.02038119   0.02006744            7 
 1866000   0.93724189   -7.6227185    456.87686  0.020403575  0.020061131            5 
 1867000   0.94171329   -7.6629411    456.14622  0.020360035  0.020054864            6 
 1868000   0.95909052   -7.6250047    457.32914  0.020401906  0.020048588            1 
 1869000   0.93678854   -7.6626067    456.85541  0.020369868  0.020042314           10 
 1870000    0.9626499   -7.6594042    455.92243  0.020317399  0.020035945            6 
 1871000   0.94932257   -7.6589238    456.85477  0.020348066  0.020029621            7 
 1872000   0.94684226   -7.5770095      458.567  0.020413417  0.020023302            3 
 1873000   0.93950387   -7.6518413    457.26615  0.020344641  0.020017066            4 
 1874000   0.93469844   -7.6041948    457.22544  0.020331975  0.020010823            3 
 1875000   0.96555058   -7.6487226     457.8686  0.020349715  0.020004571            4 
 1876000   0.98000283   -7.6583025    457.26433  0.020312026  0.019998239           12 
 1877000   0.94251422    -7.639975    457.84554  0.020327009  0.019991898            5 
 1878000   0.92881834   -7.6751895    457.57244  0.020304066  0.019985535            8 
 1879000   0.94574511    -7.695148    455.68799  0.020209686  0.019979088            3 
 1880000   0.94700999   -7.6925664    457.11391  0.020262141  0.019972677            3 
 1881000   0.95971887   -7.7061342    457.40861  0.020264425  0.019966229           11 
 1882000    0.9470512    -7.663651    458.04731  0.020281939  0.019959936            2 
 1883000   0.93523979   -7.6684966    456.92924  0.020221687  0.019953604            5 
 1884000   0.96870474   -7.6553862    457.98655  0.020257721  0.019947261            8 
 1885000   0.95912891   -7.6043454    458.18445  0.020255723  0.019940939            5 
 1886000   0.96691242   -7.7186114     457.7048  0.020223789  0.019934571            5 
 1887000   0.97429262    -7.697834    456.61854  0.020165101  0.019928101           14 
 1888000   0.93553291   -7.6353239    458.72934  0.020247588   0.01992177            3 
 1889000   0.97328786   -7.6715584    458.29605  0.020217754  0.019915399            8 
 1890000   0.94599629   -7.6455637    458.70177  0.020224946  0.019908992           11 
 1891000   0.95698416   -7.6354138    458.67473  0.020213059  0.019902643            3 
 1892000   0.93925951   -7.6687474    459.51581  0.020239421  0.019896268            9 
 1893000   0.95613639   -7.7052792    457.62336   0.02014542  0.019889879            3 
 1894000   0.96057925   -7.6954042    457.76384  0.020140964  0.019883438            5 
 1895000   0.95823496   -7.6314026    460.33542  0.020243422  0.019877095            4 
 1896000   0.96266994   -7.6902592    457.81634  0.020122026  0.019870766           17 
 1897000    0.9749525   -7.6932136    459.04617  0.020165444  0.019864385           13 
 1898000   0.94636152   -7.6797432    459.91101  0.020192791  0.019857976            8 
 1899000   0.96348305   -7.6866424    459.57626  0.020167468  0.019851663            8 
 1900000   0.95631688   -7.6671117    458.85209  0.020125092   0.01984531            5 
 1901000   0.95575341   -7.6788128    458.43104  0.020096048  0.019838898            4 
 1902000   0.97974299   -7.6838241    457.90155  0.020062283  0.019832489            6 
 1903000   0.95128527   -7.6674567    460.83948  0.020180394  0.019826121            3 
 1904000   0.95250316    -7.675387    459.99056   0.02013264   0.01981983           12 
 1905000   0.94619272   -7.6514203    458.68082  0.020064778  0.019813526            6 
 1906000   0.92619609   -7.6799919    459.93069  0.020108897  0.019807177            4 
 1907000   0.94825938   -7.6844941    459.40479  0.020075371   0.01980081            6 
 1908000   0.96381668   -7.7216769    458.79961  0.020038418  0.019794328            6 
 1909000   0.93855377   -7.7134539    458.33999  0.020007857  0.019787839            7 
 1910000   0.95008133   -7.6725973    458.86917   0.02002047  0.019781269            3 
 1911000   0.95978768   -7.6656348    459.58357  0.020041147  0.019774756            5 
 1912000   0.94101635   -7.6563698    460.55674   0.02007308  0.019768254            7 
 1913000   0.93846718    -7.663882    459.17458  0.020002378  0.019761772            4 
 1914000    0.9380494   -7.7325021    457.74241  0.019929572  0.019755226            7 
 1915000   0.95853693   -7.7168361    458.72731  0.019962024  0.019748665            4 
 1916000    0.9585146   -7.6806759    460.73838  0.020039074  0.019742189            6 
 1917000   0.94213454   -7.6440538     460.9873  0.020039441   0.01973585           11 
 1918000   0.96406288   -7.6353567    461.62356  0.020056637  0.019729523            4 
 1919000   0.93145398   -7.6852657    461.31891  0.020032956  0.019723139            5 
 1920000   0.95205433   -7.6921044    460.42383  0.019983673  0.019716725            6 
 1921000   0.94207175   -7.6753547    460.84914  0.019991721  0.019710302            6 
 1922000   0.95371846   -7.6792322    460.48918  0.019965712  0.019703917            5 
 1923000   0.94087931   -7.6606649    462.05149  0.020023032  0.019697633            4 
 1924000   0.93388286   -7.7076763    460.85592  0.019960842  0.019691204            6 
 1925000   0.95832523   -7.7264075    461.29912  0.019969659  0.019684817            5 
 1926000   0.94861955   -7.6742052    462.13433  0.019995428  0.019678466            5 
 1927000   0.94292788   -7.6699253    461.75437   0.01996862   0.01967209            3 
 1928000   0.95614975   -7.7417236    462.08276  0.019972457  0.019665685            4 
 1929000    0.9467993   -7.7036851    463.17757  0.020009399  0.019659289            4 
 1930000   0.95739146   -7.6680054    462.46613  0.019968313  0.019652954            5 
 1931000    0.9477328   -7.6854948    461.74933  0.019927038  0.019646628            9 
 1932000   0.95482717   -7.6491249    462.91535  0.019967018   0.01964035            4 
 1933000   0.92733035   -7.7150557    461.73721  0.019905898  0.019633993            4 
 1934000   0.92126471   -7.6743632     463.5585  0.019974082  0.019627585            9 
 1935000   0.95612475   -7.6808591     462.9563  0.019937825  0.019621255           18 
 1936000   0.92615334   -7.7259327    461.72217  0.019874405  0.019614898            4 
 1937000   0.92323839    -7.724051    462.02203  0.019877045  0.019608558           10 
 1938000   0.93662729   -7.7085022    462.50825  0.019887696  0.019602225            9 
 1939000   0.97276381   -7.7043215    463.30813  0.019911816  0.019595869            9 
 1940000   0.95352292   -7.6819709    464.43447  0.019949934  0.019589495            3 
 1941000   0.95504585   -7.6773845    465.01638  0.019964639  0.019583228            3 
 1942000   0.95336487     -7.65326    464.98045  0.019952817  0.019576934            3 
 1943000   0.93989339   -7.6892783    463.30081   0.01987051  0.019570665            7 
 1944000   0.94197466   -7.6754867    463.06062  0.019849992  0.019564418            3 
 1945000   0.92421128   -7.6918563    463.84129  0.019873235  0.019558102            9 
 1946000   0.94920552    -7.712893    463.43062  0.019845436  0.019551801           12 
 1947000    0.9335804   -7.7068824    464.49079  0.019880619  0.019545468            6 
 1948000   0.94663165   -7.7021271    463.23685  0.019816772  0.019539099           10 
 1949000   0.94731001   -7.7012633    464.25232  0.019850022  0.019532742            3 
 1950000   0.93141712   -7.6689392    464.35707  0.019844319  0.019526465            5 
 1951000   0.94391429   -7.7145374    462.76551  0.019766167  0.019520076            9 
 1952000   0.92549831   -7.6889151    463.86188  0.019802847  0.019513681            4 
 1953000   0.97117167   -7.7176944    463.99689  0.019798468  0.019507304            5 
 1954000   0.92348821   -7.7066611    464.50515  0.019810012  0.019500875            6 
 1955000   0.94660533    -7.734828    463.52717  0.019758191  0.019494419            7 
 1956000   0.94618373   -7.7062214    464.42954  0.019786535  0.019487996           11 
 1957000   0.93219745   -7.7235939    464.10378  0.019762552  0.019481568            4 
 1958000   0.93116137   -7.7134848    464.06058  0.019750621  0.019475143            2 
 1959000   0.91159033   -7.6981508    464.49385  0.019758969  0.019468692            5 
 1960000   0.91219117   -7.6771718     464.6666  0.019756233  0.019462362            6 
 1961000   0.94255064   -7.6962115    464.05449  0.019720147  0.019456081            4 
 1962000   0.95257624   -7.7153656    463.91302  0.019704087  0.019449742            5 
 1963000   0.93286198   -7.7111405    464.87619  0.019734937  0.019443408           11 
 1964000   0.94093542   -7.7216199    464.77243  0.019720487  0.019437076            5 
 1965000    0.9395898   -7.6850762    466.36533  0.019778004  0.019430675            7 
 1966000    0.9354717   -7.7009959    464.56773  0.019691748    0.0194243            7 
 1967000   0.93825366   -7.6765419    465.61124  0.019725946   0.01941795            6 
 1968000   0.94391029   -7.6790009    466.69802  0.019761942  0.019411687            6 
 1969000   0.93488142   -7.6714909    466.66466  0.019750494  0.019405491           13 
 1970000   0.95119305   -7.7252881    466.31209  0.019725554  0.019399192            8 
 1971000   0.92503493   -7.6967463    466.12805  0.019707765  0.019392854            6 
 1972000   0.91495637    -7.719428    465.85313  0.019686153  0.019386498            3 
 1973000   0.96335349   -7.6879465    465.47642  0.019660265  0.019380173            2 
 1974000   0.96747979   -7.6878305    465.95753  0.019670615  0.019373819            6 
 1975000   0.91651862   -7.7026882    466.92293  0.019701389  0.019367459            4 
 1976000   0.92538217   -7.7508355    464.25139  0.019578753  0.019361061            3 
 1977000   0.93638163   -7.7246394    466.54792  0.019665652  0.019354681            8 
 1978000   0.95134208   -7.6924151     465.9677  0.019631265  0.019348335           10 
 1979000   0.93126569   -7.6784851    465.85435  0.019616572  0.019342008            5 
 1980000   0.93652303   -7.6985082    466.60883  0.019638419  0.019335747            6 
 1981000   0.93428214   -7.6929264     468.1809  0.019694637  0.019329496            8 
 1982000   0.93007145   -7.7145079    466.33128  0.019606932  0.019323245            4 
 1983000    0.9327041     -7.71848     468.2454  0.019677483  0.019316986            3 
 1984000   0.93900591   -7.7238635     466.7578  0.019605082  0.019310752            5 
 1985000   0.93758449   -7.7270874    468.23768  0.019657333  0.019304481            6 
 1986000   0.90843471   -7.6976347    467.97541   0.01963643  0.019298273            5 
 1987000   0.94302769   -7.6785231     468.1015  0.019631836  0.019292036            8 
 1988000   0.93075424   -7.7004851    468.54176  0.019640416  0.019285784            5 
 1989000   0.93821805    -7.713003    467.46884  0.019585589  0.019279509            9 
 1990000   0.92806104   -7.7370394    467.40984  0.019573276  0.019273227            9 
 1991000   0.93777384   -7.7420918    467.11074  0.019550927  0.019266957            5 
 1992000   0.93380121   -7.6830642    468.75624   0.01960995  0.019260716            5 
 1993000   0.92199731   -7.7085839    469.17508  0.019617623  0.019254483            4 
 1994000    0.9211175   -7.6828997     469.1663  0.019607418  0.019248253            5 
 1995000   0.93881502    -7.700752    469.36764     0.019606  0.019242065            3 
 1996000   0.94196788   -7.7599761     469.0991  0.019584966  0.019235885            8 
 1997000   0.96056646   -7.7291064    468.65937  0.019556809  0.019229659            8 
 1998000   0.94462406   -7.7164433    469.05332  0.019563452  0.019223452            5 
 1999000   0.94475975   -7.7261696    468.74385  0.019540764  0.019217268           13 
 2000000    0.9318572   -7.7269053    469.50689  0.019562787  0.019211078            8 
 2001000   0.94718374   -7.6743724    470.00694  0.019573835  0.019204942            4 
 2002000   0.91840597   -7.7304848    468.73586   0.01951115  0.019198748            4 
 2003000   0.94360039   -7.7348774    469.73609  0.019543023  0.019192528            6 
 2004000   0.91515332   -7.7164225    469.30241  0.019515237  0.019186351            3 
 2005000   0.90726883   -7.7265846    469.16941  0.019499975  0.019180236            4 
 2006000   0.93512305   -7.7390287    470.38068  0.019540573  0.019174161            5 
 2007000   0.91212596   -7.7312892    470.29232  0.019527168  0.019168038            7 
 2008000   0.93564983   -7.7356067    470.92746  0.019543802   0.01916196            4 
 2009000   0.93175157   -7.7238186    471.36119  0.019552065  0.019155841            7 
 2010000    0.9278295   -7.7281251    470.76284  0.019517531  0.019149733            7 
 2011000   0.91456923   -7.7140297    469.59187  0.019459302  0.019143593            5 
 2012000   0.92356507   -7.7102764    470.80349  0.019499813  0.019137463            4 
 2013000   0.92446617   -7.7490162    469.43066  0.019433295  0.019131345            6 
 2014000   0.93303183     -7.72633    470.33725  0.019461157  0.019125219            7 
 2015000   0.95024794   -7.7256893     471.4457  0.019497341  0.019119047            7 
 2016000   0.92133294   -7.7264291    471.12924  0.019474588  0.019112886           11 
 2017000   0.92332473   -7.7079917    470.32599  0.019431746  0.019106715            8 
 2018000   0.93952751   -7.7094183    470.44733  0.019427128  0.019100588            5 
 2019000   0.91851343   -7.7026613    471.73007   0.01947045  0.019094449            9 
 2020000   0.93881955   -7.7243402    471.00007  0.019430696   0.01908827            5 
 2021000   0.93165581   -7.7763107    471.13048  0.019426459  0.019082057            5 
 2022000   0.93591529    -7.725398     472.4715  0.019472119  0.019075888            7 
 2023000   0.92105814   -7.7614715    470.56547  0.019383979  0.019069649           10 
 2024000   0.93507816   -7.7480457    471.09914  0.019396374  0.019063365            7 
 2025000   0.92996011   -7.7331905    470.89147   0.01937825  0.019057122            7 
 2026000   0.93009109   -7.7490326    471.66372  0.019400449  0.019050818            4 
 2027000   0.92620361   -7.7249394      471.253  0.019373993  0.019044585           11 
 2028000   0.92093535   -7.7215245    471.85998  0.019389381  0.019038413            5 
 2029000    0.9302408   -7.7503882    472.00491  0.019385777  0.019032219            5 
 2030000   0.94390324   -7.7544858    470.16856  0.019300844  0.019026017            7 
 2031000   0.95051257   -7.7418508    471.60043  0.019350091  0.019019802            7 
 2032000   0.93649634   -7.7251119    472.95501  0.019396121   0.01901362           10 
 2033000   0.92797635   -7.7356702     472.5659   0.01937063  0.019007447            5 
 2034000   0.90603349   -7.7050721    472.20472  0.019346309  0.019001272            4 
 2035000   0.93096346   -7.7235788    473.14355  0.019375248  0.018995098            8 
 2036000   0.94198226   -7.7129799    472.88548  0.019355169  0.018988921            8 
 2037000   0.93016444   -7.7998157    471.53373  0.019290367  0.018982745           11 
 2038000   0.91546371   -7.7177396    471.92239  0.019296794  0.018976527           13 
 2039000   0.90753185   -7.7420787    472.56418   0.01931356  0.018970324            4 
 2040000    0.9235267   -7.7482487    472.65552  0.019307824  0.018964123           17 
 2041000   0.90897656   -7.7148521    473.87717  0.019348243  0.018957993           18 
 2042000   0.94278936   -7.7078075    472.72353  0.019291688  0.018951851            6 
 2043000   0.92955638   -7.6976339    474.18202  0.019341737  0.018945787            3 
 2044000    0.9228131   -7.7176274    472.48622  0.019263137   0.01893972            5 
 2045000   0.94814358   -7.7306321    473.97825  0.019314517  0.018933654           11 
 2046000   0.92472539   -7.7474909    473.55334   0.01928777  0.018927512            9 
 2047000   0.91971946   -7.7238124    473.44233  0.019273829  0.018921368            2 
 2048000   0.92025131   -7.7394008    472.11583  0.019210442  0.018915215            5 
 2049000   0.91772759   -7.7415759    473.44664  0.019255191  0.018909067            3 
 2050000   0.90225013    -7.759033    473.38994  0.019243493  0.018902906            5 
 2051000   0.93398617   -7.7807588    472.43028   0.01919512   0.01889671            5 
 2052000   0.93874963   -7.7424561    472.98466  0.019208279  0.018890482            6 
 2053000   0.93275213   -7.7449496    473.77093  0.019230838  0.018884272            4 
 2054000   0.93401792   -7.7730663    471.98893  0.019149178  0.018877999            4 
 2055000   0.93296865   -7.7833852    472.68597  0.019168125  0.018871755            7 
 2056000   0.92083296   -7.7814076    472.97949  0.019170699  0.018865515            5 
 2057000    0.9254258   -7.7556805    472.64442  0.019147805  0.018859303            6 
 2058000   0.92389596   -7.7442199     474.1687  0.019200223   0.01885313            6 
 2059000    0.9189631   -7.7773597     473.4776  0.019162927  0.018846893            5 
 2060000   0.92502562   -7.7506984    473.38843  0.019150017  0.018840724            5 
 2061000   0.91548637   -7.7562966     473.9406  0.019163052   0.01883453            9 
 2062000   0.91932819   -7.7539863    473.74691  0.019145931  0.018828353            5 
 2063000   0.90434409    -7.745635     475.6732  0.019214461  0.018822153            4 
 2064000   0.92900121   -7.7842759    472.61518  0.019081685  0.018815926            8 
 2065000   0.93968336   -7.7641155    473.87937  0.019123461  0.018809679            8 
 2066000   0.91894869   -7.7562409    473.98176  0.019118335  0.018803446            5 
 2067000   0.91713993   -7.7358866    475.95116  0.019188484  0.018797297           11 
 2068000    0.8860972   -7.7262869     475.3864  0.019156448  0.018791192            4 
 2069000   0.92704308   -7.7330139    474.69257  0.019119243  0.018785064            3 
 2070000   0.93436421   -7.7306496    475.47892  0.019141663  0.018779005            7 
 2071000   0.91417044   -7.7126644    477.09337  0.019197383  0.018772939           18 
 2072000   0.92333362   -7.7598486    475.25247  0.019114079   0.01876682            6 
 2073000   0.93953864   -7.7667155     474.8367  0.019088145  0.018760637            4 
 2074000   0.91961185   -7.7231017    475.81795  0.019118368  0.018754481            4 
 2075000   0.92887174   -7.7667189    475.46083  0.019094812  0.018748305            4 
 2076000   0.93144659   -7.7520176    475.82952  0.019100414  0.018742107           11 
 2077000   0.90379538   -7.7860597    475.26779   0.01906868  0.018735904            4 
 2078000   0.91619366    -7.746325    474.57148   0.01903158  0.018729742           12 
 2079000   0.91143744   -7.7860504    475.80361  0.019071814   0.01872358            8 
 2080000   0.93172206   -7.7698665    475.88027  0.019065716  0.018717393            4 
 2081000    0.9187397   -7.7586542    475.95641  0.019059603  0.018711246            9 
 2082000   0.92153134   -7.7709777    475.72499  0.019041186  0.018705055            8 
 2083000   0.91891233   -7.7760567    476.29408  0.019054812  0.018698881            6 
 2084000   0.92810496   -7.7837149    475.79945   0.01902589  0.018692665            8 
 2085000   0.91267768    -7.749778    477.65657   0.01909099  0.018686471            4 
 2086000   0.92189224   -7.7848151     475.6292  0.019000847  0.018680289            6 
 2087000    0.9063815   -7.7908952    476.09722   0.01901043  0.018674082            8 
 2088000   0.93609178   -7.8083596    474.45345  0.018935722  0.018667873           11 
 2089000   0.90588002   -7.7865021     476.9674  0.019026943  0.018661678            6 
 2090000   0.93188737   -7.7407659    476.22383  0.018988191  0.018655557            7 
 2091000   0.91367052   -7.7871872     477.4015  0.019026044  0.018649409           14 
 2092000   0.89950814   -7.7869536    474.70747  0.018909635  0.018643203           30 
 2093000   0.92186559   -7.7844893    476.63749  0.018977444  0.018637052           17 
 2094000   0.90425676   -7.7708086    477.39062  0.018998353  0.018630841           24 
 2095000    0.9073646   -7.7880146    476.26112  0.018944357  0.018624618           19 
 2096000   0.91911222   -7.8129948     476.4778  0.018943933  0.018618381            9 
 2097000    0.9119629   -7.7858456     476.2423   0.01892554  0.018612155           27 
 2098000   0.90190419   -7.8078039    476.61323  0.018931253  0.018605878            9 
 2099000   0.90916402   -7.7890056    476.59106  0.018921354  0.018599636           21 
 2100000   0.89605748   -7.8330968     474.8824   0.01884454  0.018593405           13 
 2101000   0.93083137   -7.8080385    476.22428  0.018888794  0.018587185           31 
 2102000   0.93028742    -7.814062    477.15056   0.01891653  0.018580994           36 
 2103000   0.91104316   -7.8137623    476.45858  0.018880115  0.018574767           28 
 2104000   0.91239182   -7.7926472    476.68233  0.018880004  0.018568529           11 
 2105000   0.93681763   -7.7983705    477.47603  0.018902456  0.018562295           11 
 2106000   0.92410001   -7.7869772    477.13741  0.018880081   0.01855608           11 
 2107000   0.93634068   -7.8433665    476.37373  0.018840916  0.018549842           11 
 2108000   0.91469247   -7.7953278    477.66253  0.018882927  0.018543657           12 
 2109000   0.93513128   -7.7956466    477.27688  0.018858736  0.018537493           14 
 2110000   0.89981665   -7.8002732    477.45539  0.018856848  0.018531299            6 
 2111000   0.89077792   -7.8314591    477.40195  0.018845806  0.018525113            7 
 2112000   0.88842928   -7.8294024    476.32725  0.018794478  0.018518884            8 
 2113000   0.89181077   -7.8176758     477.6578  0.018838058  0.018512704            4 
 2114000   0.89882056   -7.7818174    478.12173  0.018847435  0.018506481            8 
 2115000   0.93787466    -7.784205    477.78759  0.018825358  0.018500323           11 
 2116000   0.93388969   -7.8255583    476.93659  0.018782947  0.018494168            6 
 2117000   0.91532256   -7.8238388    477.12157  0.018781356  0.018487967            7 
 2118000   0.89971504   -7.7922244    478.39243  0.018822491  0.018481771           19 
 2119000   0.92300585   -7.7836073    478.79049  0.018829262  0.018475587            4 
 2120000   0.91264019    -7.753166    479.90994  0.018864384  0.018469461            5 
 2121000   0.90765118   -7.7676202    478.92522  0.018816801  0.018463303            6 
 2122000   0.89106376   -7.8125624    478.70101  0.018799129  0.018457132           13 
 2123000   0.91950582   -7.8184668    478.47412  0.018781368  0.018450962            8 
 2124000   0.90833505   -7.7676781    479.19208  0.018800694  0.018444852            7 
 2125000    0.9034799   -7.7314479    479.55293  0.018805997  0.018438733           14 
 2126000   0.90038718   -7.7791529    477.68618   0.01872398  0.018432622            7 
 2127000   0.91463208   -7.7723972    480.58806  0.018828869  0.018426546           14 
 2128000   0.90788991   -7.7569674     480.5294  0.018817724  0.018420512           10 
 2129000   0.91154313   -7.7430357    480.53081   0.01880894  0.018414447           10 
 2130000   0.92206693   -7.8153878     479.5505  0.018761757  0.018408339           11 
 2131000   0.91633592   -7.8161519    478.36261    0.0187065  0.018402207            7 
 2132000   0.94056739   -7.7871038    479.73615  0.018751413   0.01839607            6 
 2133000   0.89327202   -7.7723426    480.01877  0.018753663  0.018390036            9 
 2134000   0.91485074   -7.7611166    480.74834  0.018773365  0.018383978            6 
 2135000   0.91397678   -7.8026167    480.93352    0.0187718  0.018377914            6 
 2136000   0.89390311   -7.8066238     479.7902  0.018718407  0.018371872            5 
 2137000     0.923106   -7.8027868    480.90917  0.018753282  0.018365859            6 
 2138000   0.91066404   -7.7946194    479.18937  0.018677478  0.018359814            4 
 2139000    0.9048588    -7.767172    481.37634  0.018753948  0.018353785            3 
 2140000   0.92629106   -7.7775973    480.32942  0.018704417  0.018347773           12 
 2141000    0.9239007   -7.7770488     481.7047   0.01874921  0.018341718            6 
 2142000   0.90581161   -7.7855725    481.14786  0.018718793  0.018335678            6 
 2143000   0.91877312   -7.7951276    479.65448  0.018651986  0.018329671            4 
 2144000   0.90623152   -7.7980181     481.1981  0.018703284  0.018323608           11 
 2145000   0.91522582    -7.775395    482.08574   0.01872905  0.018317537           12 
 2146000   0.91327237   -7.7662433    481.82265  0.018710106  0.018311526            9 
 2147000   0.92374157    -7.798614     481.3133  0.018681622  0.018305514            5 
 2148000   0.91250584   -7.8155101    479.98388  0.018621348  0.018299437            4 
 2149000   0.90447593   -7.8130311    480.64233  0.018638217  0.018293348            8 
 2150000    0.9063102    -7.759263    481.15059  0.018649247  0.018287268            5 
 2151000   0.89567066   -7.8108838    480.55603  0.018617543    0.0182812            9 
 2152000   0.88312311   -7.7951913    481.58795  0.018648852  0.018275129           19 
 2153000   0.90368041   -7.7869321     481.3014  0.018629099  0.018269061            6 
 2154000   0.89894245   -7.7962634     481.8016  0.018639802  0.018263015            9 
 2155000   0.90012499   -7.8062375    480.90324  0.018596413  0.018256954            7 
 2156000   0.94358097   -7.8048969    481.73036  0.018619757  0.018250846            5 
 2157000   0.91080471   -7.7788597    482.99269  0.018659894  0.018244797            9 
 2158000   0.90758801   -7.7917484    482.06827   0.01861555  0.018238721            5 
 2159000   0.94233685   -7.7623265    481.91103  0.018600858  0.018232669           16 
 2160000   0.89835608   -7.8003367    481.26527  0.018567333  0.018226557           13 
 2161000   0.90660932   -7.7558097    482.23398  0.018596097  0.018220443            8 
 2162000   0.89522811   -7.7857167    480.02715  0.018502434  0.018214319            8 
 2163000   0.90887412   -7.7989262    482.86303  0.018603137  0.018208202            5 
 2164000   0.90334202   -7.7696186     481.9323  0.018558699  0.018202093           14 
 2165000   0.90572991   -7.7697323    482.40044  0.018568146  0.018196012           13 
 2166000    0.9256168   -7.7563281    482.82641  0.018575962  0.018189962            4 
 2167000   0.90031412   -7.7970606    482.40651  0.018551242  0.018183916            9 
 2168000   0.90376291   -7.8108479    481.30164  0.018500217  0.018177817            6 
 2169000   0.89696749   -7.8023051    481.34119  0.018493207  0.018171722            8 
 2170000   0.90123144   -7.7896184    482.86867  0.018543344   0.01816556           20 
 2171000   0.91770847   -7.8045225    482.30755  0.018513264  0.018159437           10 
 2172000   0.92520305   -7.8144756    482.44535  0.018510027  0.018153248           13 
 2173000   0.90935445   -7.8274448    483.25755  0.018532657  0.018147071            8 
 2174000   0.92995441   -7.8087215    482.75289  0.018504787  0.018140901           10 
 2175000   0.89051293   -7.8442589    482.32596  0.018479922  0.018134758            7 
 2176000   0.90352721   -7.7841791    482.95974  0.018495701  0.018128667            5 
 2177000   0.92041214   -7.8033552    481.99845  0.018450408  0.018122568            7 
 2178000   0.89732024   -7.7890253    482.06101   0.01844433  0.018116459           12 
 2179000   0.90676923   -7.7934461    482.37581  0.018447905  0.018110375            8 
 2180000   0.89988945   -7.7748806    483.93992  0.018499232  0.018104323            3 
 2181000   0.90339522   -7.7815715    483.30806  0.018466608  0.018098235            7 
 2182000   0.91648867    -7.823081    482.44788  0.018425293  0.018092108            7 
 2183000   0.91180797   -7.8142135      482.047   0.01840155  0.018085979            5 
 2184000   0.88788439    -7.783126    483.25587   0.01843925  0.018079853            7 
 2185000   0.91718361   -7.7908549    482.41367  0.018398691   0.01807376            3 
 2186000   0.89980706   -7.7716522    484.20108  0.018458413  0.018067617            6 
 2187000   0.91001398   -7.8129676     482.1137  0.018370435  0.018061524            5 
 2188000   0.91869236   -7.8031323    484.22487  0.018442446   0.01805542            5 
 2189000   0.92760998    -7.813469     482.6636  0.018374585  0.018049291            5 
 2190000   0.91203267   -7.8086132    482.94978  0.018377084  0.018043205            6 
 2191000   0.90883164   -7.8081742    483.76632  0.018399754  0.018037066            4 
 2192000   0.89782161    -7.813205    482.35299  0.018337629  0.018030942           11 
 2193000   0.89830612   -7.8021271    483.96092  0.018390368  0.018024839            5 
 2194000   0.90066079   -7.7997124    483.55582  0.018366599  0.018018748            3 
 2195000   0.91811333   -7.7998445    484.21993  0.018383445  0.018012664            8 
 2196000   0.91261985   -7.7948813     483.4225  0.018344813  0.018006597            5 
 2197000   0.90553125   -7.8276488    482.92242  0.018317494  0.018000453            7 
 2198000   0.88574618   -7.7933484    483.50318  0.018331179  0.017994285           11 
 2199000   0.88174416    -7.813629    484.42322  0.018357709  0.017988178            3 
 2200000   0.90901865   -7.8114955    484.02126  0.018334138  0.017982086            6 
 2201000   0.91736525   -7.8233548    484.46281  0.018342526  0.017975963            8 
 2202000   0.92786957   -7.8447437    484.59768  0.018339301  0.017969874            4 
 2203000   0.88949209   -7.7819762    485.22312  0.018354634  0.017963763           13 
 2204000   0.88399269   -7.8397073    484.77157  0.018329234   0.01795765            9 
 2205000   0.90278752   -7.8372142    484.04169  0.018293337  0.017951501            7 
 2206000   0.92450712    -7.830052    483.60153  0.018268417  0.017945357            9 
 2207000   0.90941475   -7.8152141    484.39285  0.018290019  0.017939233           15 
 2208000   0.89472276   -7.8099365    485.01661  0.018305277  0.017933159            7 
 2209000   0.90899771   -7.8496555    484.24608  0.018267922  0.017927061           11 
 2210000   0.89124044    -7.818699     484.9223  0.018285155  0.017920975            7 
 2211000   0.90290782   -7.8176458    485.12977  0.018284704  0.017914907            9 
 2212000   0.90207984   -7.8012661     484.9051  0.018267974  0.017908818            5 
 2213000    0.9147578   -7.8084786     484.9367  0.018260909  0.017902779            7 
 2214000   0.88997342   -7.8213382    484.67827  0.018242934  0.017896732           16 
 2215000   0.89612768   -7.7965714    484.96055  0.018245318  0.017890643            5 
 2216000   0.88421295   -7.8055946    486.38194  0.018290536  0.017884544            9 
 2217000    0.8850563   -7.8172152    484.93798   0.01822801   0.01787848            7 
 2218000   0.89687102   -7.8265302    484.69974  0.018210841  0.017872335           11 
 2219000   0.90337992   -7.8169791    485.30226  0.018225261  0.017866222            7 
 2220000   0.91115324    -7.818494    485.97322  0.018242238  0.017860125            5 
 2221000   0.89659364   -7.8269693    485.34922  0.018210612  0.017854039            6 
 2222000   0.89005963   -7.8314805    484.50143  0.018170621   0.01784789            7 
 2223000   0.92237903   -7.8433787    483.94092  0.018141435  0.017841704            6 
 2224000   0.88411566   -7.8054829     484.7889  0.018165052  0.017835575            5 
 2225000   0.89494743   -7.8278792    484.49426  0.018145853  0.017829483            7 
 2226000    0.8998605   -7.8276394    484.82168  0.018149958  0.017823376           13 
 2227000   0.89732258    -7.826702    486.05667  0.018188021   0.01781727            6 
 2228000    0.8854822   -7.8267985    484.04557  0.018104637  0.017811139            8 
 2229000   0.88498681   -7.8320477    485.27962  0.018142651  0.017805013            4 
 2230000   0.90752307   -7.8307259    485.29034  0.018134915  0.017798895           15 
 2231000   0.90575007     -7.82516    485.58661  0.018137853  0.017792768           15 
 2232000   0.88129368   -7.8601359    485.08349  0.018110943  0.017786598            9 
 2233000   0.91627141    -7.799427    486.36414  0.018150625  0.017780472            5 
 2234000   0.90318004   -7.8196922    486.61719  0.018151939  0.017774354           10 
 2235000   0.88081832   -7.8263603    485.25687  0.018093097  0.017768213           10 
 2236000   0.88374446   -7.8355468    485.12652  0.018080148    0.0177621            7 
 2237000   0.89350105   -7.8562911    486.36549   0.01811822  0.017756006           11 
 2238000   0.88508207   -7.8401352    485.26159   0.01806902  0.017749904           10 
 2239000   0.89624692   -7.8690707    487.73472  0.018152997  0.017743766            9 
 2240000   0.90411342   -7.8575025    486.11383  0.018084592  0.017737688            6 
 2241000   0.90991929   -7.8342764    487.31308  0.018121117   0.01773161            4 
 2242000    0.8788107   -7.8636157    486.92968  0.018098784  0.017725568            8 
 2243000   0.89539817   -7.8928214    486.42853  0.018072096  0.017719523            9 
 2244000   0.89152822   -7.8526819    485.75889  0.018039174   0.01771342           17 
 2245000   0.91506919   -7.8267307    486.72622  0.018067046  0.017707393           14 
 2246000   0.88904366   -7.8628555     486.3265  0.018044171  0.017701352            4 
 2247000   0.89133115   -7.8499037    487.82534  0.018091728  0.017695295           12 
 2248000   0.89446604   -7.8687286    487.64331  0.018076932  0.017689237            7 
 2249000   0.88634684   -7.8676392    487.01098  0.018045464  0.017683154            5 
 2250000   0.86937965   -7.8420666    486.95633   0.01803542  0.017677071           15 
 2251000   0.89710187   -7.8761874    487.85458  0.018060661  0.017670985            4 
 2252000   0.89255567   -7.8733607    486.82337  0.018014482  0.017664927           28 
 2253000   0.90340756   -7.8256827    487.64908  0.018037028  0.017658917            7 
 2254000   0.90223439   -7.8341797    487.66153  0.018029486  0.017652952           13 
 2255000   0.88193622   -7.8272756    487.98493  0.018033441  0.017647012           11 
 2256000   0.89381021   -7.8115419    489.39196  0.018077422  0.017641095            6 
 2257000    0.8974929   -7.8604481    487.32207  0.017992987  0.017635193            4 
 2258000   0.89233356   -7.8656954    488.34813  0.018022886   0.01762924           11 
 2259000   0.89852477   -7.8328492    489.07512  0.018041726  0.017623236            6 
 2260000   0.91156045   -7.8723475    487.00573  0.017957438  0.017617267           10 
 2261000   0.89187814    -7.846671    488.62009  0.018008996  0.017611324            6 
 2262000   0.86488239   -7.8290769    488.34852   0.01799103  0.017605362           16 
 2263000   0.89323695   -7.8593557    488.80327  0.017999826    0.0175994           13 
 2264000   0.90337834   -7.8739038    488.11974  0.017966716  0.017593433            8 
 2265000   0.89640837   -7.8679977     488.5344   0.01797404   0.01758743           12 
 2266000   0.88350718   -7.8416246    489.29905  0.017994228  0.017581504           14 
 2267000   0.90055323   -7.8446322    489.11076  0.017979369  0.017575535           11 
 2268000   0.89987562    -7.877249    488.48491  0.017948446  0.017569518            5 
 2269000   0.86928058   -7.8644564    487.53662  0.017905708  0.017563496           14 
 2270000   0.91051029   -7.8741978    487.54064  0.017897968  0.017557435            8 
 2271000   0.88016804   -7.8985349    487.65824  0.017894402  0.017551421            9 
 2272000   0.89867394   -7.8744807    489.10743   0.01793968  0.017545385           17 
 2273000   0.88163169   -7.8550447    488.91063  0.017924572  0.017539394           13 
 2274000     0.900828   -7.8712217    488.73273   0.01791017  0.017533425            5 
 2275000   0.89132112   -7.8636209    489.54671  0.017932114  0.017527446            5 
 2276000   0.87185586   -7.8980865    489.38764  0.017918411  0.017521452           10 
 2277000   0.88969071   -7.8900255    488.94288  0.017894264  0.017515421           14 
 2278000   0.91788778   -7.8711339    488.31219  0.017863337  0.017509372            5 
 2279000   0.89140715   -7.9015261    488.91329  0.017877479  0.017503334           16 
 2280000   0.89021198   -7.8545536    488.10742  0.017840183  0.017497281            9 
 2281000   0.87627425   -7.8535048    490.24615  0.017910498  0.017491262           17 
 2282000   0.90236105   -7.8323707    489.16972   0.01786334  0.017485229           13 
 2283000   0.88548998   -7.8826128    488.28233  0.017823125  0.017479224            8 
 2284000   0.87958445   -7.8645531    489.64651  0.017865094  0.017473259            8 
 2285000   0.87411622   -7.8548574     489.7258  0.017860168  0.017467272           14 
 2286000   0.87797982   -7.8693812    490.16688  0.017868434   0.01746131            7 
 2287000   0.88967014   -7.8458632    490.91273  0.017887798  0.017455329            9 
 2288000      0.87352   -7.8565259    489.74962  0.017837617   0.01744939           12 
 2289000   0.88881246   -7.8661235    489.57893   0.01782361  0.017443437            7 
 2290000   0.89069413   -7.8522194    490.35054  0.017843906  0.017437457           10 
 2291000   0.88872492   -7.8710166     490.2511    0.0178325   0.01743146            7 
 2292000   0.89298014   -7.8709357    488.26454  0.017752492  0.017425428           25 
 2293000   0.88052607   -7.8691096    488.71112   0.01776098  0.017419422           35 
 2294000   0.88567207   -7.8817462    489.98156  0.017799388  0.017413416           14 
 2295000   0.86124076   -7.8524304    490.17915  0.017798807   0.01740742           15 
 2296000   0.88211561   -7.8991335    488.14274  0.017717144  0.017401426           11 
 2297000    0.8840484   -7.8931082      489.651  0.017764149  0.017395423           12 
 2298000   0.87287981   -7.8662762    490.70617  0.017794683  0.017389427            6 
 2299000    0.8849949   -7.8768661    490.33969  0.017773658  0.017383412            8 
 2300000   0.90954828   -7.8562635    490.53735  0.017773092  0.017377392           23 
 2301000   0.88047073   -7.8970487    489.93034  0.017743385  0.017371373           23 
 2302000   0.90726003    -7.853421    491.58564    0.0177956  0.017365386            6 
 2303000   0.87585318   -7.8603902    489.38907   0.01770839  0.017359416            8 
 2304000   0.91234963   -7.8450801    491.22293  0.017767033  0.017353436           10 
 2305000   0.87077196   -7.8709275    489.57838  0.017699869   0.01734747           10 
 2306000   0.88031247   -7.8795228    490.06881  0.017709917  0.017341464            9 
 2307000   0.88764905   -7.8793236    490.84285    0.0177302  0.017335484           12 
 2308000   0.87222039   -7.8716803    491.58595  0.017749348  0.017329539           11 
 2309000    0.8834672   -7.8791926    491.02305  0.017721346  0.017323528            5 
 2310000   0.88539169   -7.8448264    490.94271  0.017710776  0.017317542            6 
 2311000   0.89781909   -7.8923254    490.10354  0.017672852  0.017311528            6 
 2312000   0.89549304   -7.8461479    490.34302   0.01767384  0.017305546            2 
 2313000   0.87949695    -7.872106    490.92071  0.017687012  0.017299608           10 
 2314000   0.89780205   -7.9454002    489.71386  0.017635907  0.017293661            7 
 2315000   0.87602414   -7.8667647    491.30127  0.017685431  0.017287694            7 
 2316000   0.88207231   -7.8141557    492.77518  0.017730828  0.017281736            9 
 2317000   0.89292607   -7.8632786    491.89594  0.017691553  0.017275826            3 
 2318000   0.86587967   -7.8661467     491.5398  0.017671117  0.017269858            7 
 2319000   0.88538787   -7.8543116    490.48745  0.017625681  0.017263902            4 
 2320000   0.87426457   -7.8560117    491.09931  0.017640061  0.017257943           15 
 2321000    0.8618805   -7.8578161    490.89606  0.017625164  0.017251918           14 
 2322000   0.87539559   -7.8483186    491.43278  0.017636835  0.017245925            3 
 2323000   0.87098677   -7.8659253    492.36963  0.017662851  0.017239927           15 
 2324000   0.86930336    -7.887185    491.29657  0.017616773  0.017233934           10 
 2325000   0.87971957   -7.8409548    491.82034  0.017627969  0.017227933            4 
 2326000   0.86293203   -7.9141484    490.84606  0.017585485  0.017221909           14 
 2327000   0.87988182   -7.8719037    491.26139  0.017592801  0.017215907            7 
 2328000   0.89183523   -7.8935367    490.43384  0.017555621  0.017209896            8 
 2329000   0.88001851   -7.9247081    491.52614  0.017587167  0.017203872            8 
 2330000   0.88077961   -7.8949632    490.52375  0.017543768  0.017197879            7 
 2331000   0.87439436   -7.8783009    490.43689  0.017533137  0.017191879            2 
 2332000   0.88281659   -7.8702288    491.48134  0.017562941  0.017185894            9 
 2333000   0.86464759   -7.8611275    492.25577  0.017583075  0.017179917            9 
 2334000   0.88694363   -7.8439389    492.26615  0.017575912  0.017173954           10 
 2335000   0.87644208   -7.8560428    492.31888  0.017570267  0.017168041           12 
 2336000   0.86750167   -7.8555577    492.63132  0.017573891  0.017162085            6 
 2337000   0.87780747   -7.8646762    492.32455  0.017555432  0.017156179           11 
 2338000   0.90219807   -7.8589001    492.73725  0.017562634  0.017150285           17 
 2339000   0.87229926   -7.8646754    492.94563  0.017562549   0.01714437           13 
 2340000   0.86744236   -7.8820359    493.40115  0.017571266  0.017138395            3 
 2341000   0.85864707   -7.8934408    492.20567  0.017521204  0.017132395            4 
 2342000   0.89210699   -7.9158734    492.27626  0.017516235  0.017126416            7 
 2343000    0.8759352   -7.9061397    491.99119   0.01749862  0.017120454            8 
 2344000   0.88224734   -7.8895981    492.19946  0.017498559  0.017114466            5 
 2345000   0.86603471   -7.9021256    492.28673  0.017494198  0.017108512            7 
 2346000   0.87579684   -7.8641653    492.54286  0.017495839  0.017102572            5 
 2347000   0.89086544   -7.8856689    492.99288  0.017504363  0.017096656            6 
 2348000   0.86493513   -7.9094519    492.90972  0.017493957  0.017090728            7 
 2349000    0.8766818   -7.9127691    492.40311  0.017468537  0.017084783           10 
 2350000   0.85791221    -7.911902    491.74607  0.017437804  0.017078844           13 
 2351000   0.87308596   -7.9351596    492.12688  0.017443885  0.017072854           13 
 2352000    0.8804207   -7.9691088    491.72718  0.017422306  0.017066825           15 
 2353000   0.88826536   -7.9207928    490.33008  0.017365423  0.017060825           17 
 2354000   0.87422259   -7.9095032    493.08408   0.01745554  0.017054837           11 
 2355000   0.88215618   -7.9106763    492.49438   0.01742726  0.017048852           25 
 2356000   0.90808627   -7.8899272    493.81667  0.017466634  0.017042913           15 
 2357000    0.8913598   -7.9130698    494.39363  0.017479622  0.017037013           15 
 2358000   0.85036271   -7.9064241    493.42955  0.017438138    0.0170311           10 
 2359000    0.8902533   -7.9041298    493.39637  0.017429573  0.017025198           20 
 2360000   0.85064665   -7.9148233    494.29783   0.01745402  0.017019304           20 
 2361000   0.88043864    -7.895623     495.1561   0.01747692  0.017013422           11 
 2362000    0.8637797   -7.9020918    492.90366  0.017390053  0.017007566           23 
 2363000   0.88474087   -7.8942338    494.30511  0.017432117  0.017001659           10 
 2364000   0.87199176   -7.9269869    492.53641  0.017362395   0.01699571           20 
 2365000   0.88771814   -7.9228852    493.03236  0.017372528   0.01698976           12 
 2366000   0.86874172   -7.9142292    492.56871  0.017348855  0.016983806           14 
 2367000   0.89585695   -7.9056719    494.13418  0.017396641   0.01697781           10 
 2368000   0.89614482   -7.9563126     491.5176  0.017297213  0.016971801            7 
 2369000   0.87894886   -7.9269676    492.43159  0.017322062  0.016965781            8 
 2370000   0.85513884   -7.9365938    492.92405  0.017332069   0.01695978            6 
 2371000   0.86546154    -7.912679    493.67539  0.017351167  0.016953776            5 
 2372000   0.86967039   -7.9171853     492.1538  0.017290395  0.016947774            7 
 2373000   0.87522874   -7.8987871    494.10344  0.017351574  0.016941791            8 
 2374000   0.87710955   -7.9241316    494.21523   0.01734819  0.016935778            6 
 2375000   0.88865441   -7.8974685    493.90593  0.017330033  0.016929844           14 
 2376000   0.84857433   -7.8894001    493.97552  0.017325179   0.01692392            9 
 2377000   0.87470049   -7.9328011     493.6138   0.01730521  0.016917973            8 
 2378000   0.86561718   -7.9063161    494.61859  0.017333144  0.016912004           10 
 2379000   0.87456834   -7.9168911    492.99841  0.017269105  0.016906089            3 
 2380000    0.8925819   -7.9139157    493.40518  0.017276092  0.016900141            8 
 2381000   0.83744601   -7.9211649    494.23393  0.017297842  0.016894205            6 
 2382000   0.89496023   -7.9192556    493.06088  0.017249541  0.016888279           29 
 2383000   0.86310768   -7.9076986    492.99645  0.017240049  0.016882306            7 
 2384000   0.85422575   -7.9099288    494.86256  0.017298048  0.016876361           12 
 2385000    0.8641078   -7.9265164    494.22056  0.017268363  0.016870448           16 
 2386000   0.86438514   -7.9181449    494.23459  0.017261616   0.01686455            5 
 2387000   0.85500001   -7.8903964    494.93033  0.017278674  0.016858658            5 
 2388000   0.87102614   -7.8680215    495.86099  0.017303915  0.016852793            4 
 2389000   0.86276189   -7.8995005    494.50083  0.017249227  0.016846903            7 
 2390000   0.84817795   -7.8932715    494.52013  0.017242682  0.016841019            3 
 2391000   0.86912456   -7.8717273    496.42329  0.017301801  0.016835148            7 
 2392000   0.86595104   -7.9081738    495.07199  0.017247491  0.016829271           15 
 2393000   0.85284285    -7.932344    493.59104  0.017188711  0.016823339           12 
 2394000    0.8777834   -7.9351618    494.64426  0.017218193  0.016817412            8 
 2395000   0.85026317   -7.8977529    495.17676  0.017229532  0.016811504           12 
 2396000   0.84260535   -7.9183207    495.01451  0.017216698   0.01680558           18 
 2397000   0.89418571   -7.9041353    495.11834  0.017213126   0.01679968           31 
 2398000   0.87773558   -7.9556749    493.52605  0.017150613  0.016793744           15 
 2399000   0.86078259   -7.9427735     495.2258  0.017202508  0.016787794            6 
 2400000   0.87155792   -7.9487539    495.65077  0.017210096  0.016781853            8 
 2401000   0.85153302   -7.9368138    495.41584  0.017194774  0.016775932            9 
 2402000   0.86470858   -7.9576272    493.72352  0.017128904  0.016769986           11 
 2403000   0.85283746    -7.949594    494.77009  0.017158069  0.016764078           22 
 2404000   0.85103604   -7.9086185    495.59057  0.017179373  0.016758165           12 
 2405000   0.86967438   -7.9380048    494.45792  0.017132984  0.016752207           26 
 2406000   0.87555138   -7.9627041    494.79047  0.017137381  0.016746235           25 
 2407000   0.86749354   -7.9594152     492.5701  0.017053389  0.016740231            9 
 2408000   0.86932268   -7.9514632    494.22832  0.017103693  0.016734248           21 
 2409000   0.87686152   -7.9357415    494.36944  0.017101475  0.016728261           12 
 2410000   0.88742907   -7.9206989    493.73219  0.017072344  0.016722292           13 
 2411000   0.84424155     -7.94277    494.22877  0.017082427  0.016716304            9 
 2412000    0.8679797   -7.9395995    494.38638   0.01708079  0.016710308            9 
 2413000   0.85487816   -7.9537396    494.69896  0.017084506  0.016704324            5 
 2414000   0.85458698   -7.9588154    494.35229  0.017065461  0.016698316           10 
 2415000   0.88177823   -7.9522692     493.8956  0.017042636  0.016692285            7 
 2416000   0.88055381   -7.9634793    494.37927  0.017052265  0.016686239            7 
 2417000   0.86833649   -7.9148549    494.31937  0.017043145  0.016680254           16 
 2418000   0.87332163    -7.933419    494.74049   0.01705061  0.016674288           15 
 2419000   0.86212035   -7.9312567    495.45921   0.01706832  0.016668344           14 
 2420000   0.88569596   -7.9340403    494.26592  0.017020176  0.016662398            9 
 2421000   0.86055036   -7.9209487    495.16713  0.017044167  0.016656493            8 
 2422000   0.86387824   -7.9219659    494.78878  0.017024112  0.016650554            6 
 2423000   0.86618437   -7.8771708    496.10524  0.017062362   0.01664463            8 
 2424000   0.87955895   -7.8825315    496.77717  0.017078423  0.016638749            7 
 2425000   0.86693242   -7.9385189    495.33533  0.017021833  0.016632892           12 
 2426000     0.877398    -7.894094     495.9363   0.01703546  0.016626974            8 
 2427000   0.85536792   -7.9297658    494.69224  0.016985725  0.016621059            6 
 2428000   0.87496147    -7.918755    496.26915  0.017032851  0.016615109            9 
 2429000   0.87663081   -7.9378948    495.07595  0.016984903  0.016609141           21 
 2430000   0.85051593   -7.9356001    494.66328  0.016963761  0.016603197           20 
 2431000   0.86958604   -7.9180455    493.95424  0.016932478  0.016597209           10 
 2432000   0.86946706   -7.8859199    496.19687   0.01700236  0.016591245           13 
 2433000   0.84241579   -7.9107391    494.62663  0.016941589   0.01658529           20 
 2434000    0.8653005   -7.9057013    495.33648  0.016958932  0.016579338           33 
 2435000   0.85298021   -7.9490786    494.86275  0.016935755  0.016573361           47 
 2436000   0.84648674   -7.9602315    495.10284  0.016937016  0.016567333           29 
 2437000   0.85668835   -7.9816267    493.60569  0.016878871  0.016561303           24 
 2438000   0.87310256   -7.9299997    494.56483  0.016904732  0.016555214           18 
 2439000   0.86337138   -7.9382368    493.19295  0.016850928  0.016549155           28 
 2440000    0.8737658    -7.959651    494.15207  0.016876778  0.016543065           24 
 2441000    0.8356402   -7.9653166    493.88818  0.016860855  0.016536984           10 
 2442000   0.83845307   -7.9740291    494.28844   0.01686761  0.016530866            9 
 2443000   0.88238038   -7.9881478    494.43369   0.01686566  0.016524774           21 
 2444000   0.86429361   -7.9947186    493.32712  0.016821028   0.01651866            9 
 2445000   0.87657896   -8.0058026    493.47807  0.016819293  0.016512567           10 
 2446000   0.85080296   -7.9769293    494.19208  0.016836743  0.016506469           19 
 2447000   0.84383149   -7.9556346    494.41787  0.016837552  0.016500397           14 
 2448000   0.85740726   -7.9750533    494.30002  0.016826662  0.016494304           13 
 2449000   0.87121004   -7.9547284    494.16331  0.016815139  0.016488245           10 
 2450000    0.8673749   -7.9633701    493.69361    0.0167923  0.016482157           17 
 2451000   0.86335294   -7.9650291    494.03562  0.016797077  0.016476044           13 
 2452000   0.85403294   -7.9920458    494.42609  0.016803497  0.016469935           14 
 2453000   0.86355132   -7.9810801    494.25805  0.016790938  0.016463804           15 
 2454000    0.8714582   -7.9602683    492.88642  0.016737518  0.016457711           21 
 2455000   0.84227145   -7.9692268    494.21786  0.016775895   0.01645163           10 
 2456000   0.85944699   -7.9694675    493.62647  0.016748998  0.016445547           11 
 2457000   0.85425497   -7.9853778    494.51032  0.016772159  0.016439431            6 
 2458000   0.85780784    -7.955573     494.6553   0.01677025  0.016433356           11 
 2459000   0.86762065   -7.9467497    494.20077  0.016748027  0.016427311           10 
 2460000   0.85171698   -7.9760681    493.77085  0.016726655  0.016421263           15 
 2461000   0.85987814   -7.9769963     495.0008  0.016761506   0.01641523            6 
 2462000   0.87865481   -7.9578096    494.85764  0.016749852  0.016409185           10 
 2463000   0.84653361    -7.928757    495.59117   0.01676787  0.016403172           12 
 2464000   0.85822904   -7.9084405    495.40303  0.016754702  0.016397157            6 
 2465000   0.85270083   -7.9741681    494.78425  0.016726986  0.016391138            9 
 2466000   0.85086495   -7.8908943     495.9593  0.016759912    0.0163851           21 
 2467000   0.86510583   -7.9352894     495.9872   0.01675406  0.016379087            8 
 2468000   0.86669141   -7.9503851    494.58736  0.016700005  0.016373053            6 
 2469000   0.85730725   -7.9450626    496.36019  0.016753078  0.016367033           10 
 2470000   0.84503901   -7.9475253    496.33879  0.016745573   0.01636101            6 
 2471000   0.84331484    -7.959706    495.14815  0.016698643  0.016354953            5 
 2472000   0.85903293   -7.9596003    496.41736  0.016734674  0.016348933           19 
 2473000   0.84711113   -7.9527185    494.33011  0.016657572  0.016342873            6 
 2474000    0.8523784   -7.9276641     495.7194  0.016697635  0.016336865            7 
 2475000    0.8493311   -7.9480164    494.50617  0.016650039  0.016330845            6 
 2476000   0.85078035   -7.9475568    495.64985  0.016681807  0.016324838           12 
 2477000   0.86206498   -7.9485418    496.94428  0.016718621  0.016318846            9 
 2478000   0.87208142   -7.9491085    496.10384  0.016683611  0.016312871           15 
 2479000   0.88308348   -7.9533904    495.82216  0.016667411  0.016306875            8 
 2480000   0.85905235   -7.9596318    494.86918  0.016628669  0.016300869           15 
 2481000   0.85921072   -7.9354704    496.81664  0.016687379  0.016294857           16 
 2482000   0.84649767   -7.9370308    496.34537  0.016664832  0.016288847           11 
 2483000   0.85609143   -7.9408036    495.88913  0.016642809  0.016282867           18 
 2484000   0.84523237   -7.9557254     496.5419  0.016658008  0.016276878            7 
 2485000   0.84466677   -8.0015403    494.44991   0.01658115  0.016270809            6 
 2486000    0.8539781   -8.0110406    494.58938  0.016579156  0.016264772           16 
 2487000   0.86001232   -7.9633308    494.63197  0.016573917  0.016258732            5 
 2488000   0.85844524   -7.9776985    494.98292   0.01657901  0.016252678            4 
 2489000   0.85657479   -8.0362316    494.08016  0.016542124  0.016246641            7 
 2490000   0.86718045   -7.9599706    495.43519   0.01658083  0.016240626            5 
 2491000   0.87019879   -7.9793295    495.49748  0.016576257  0.016234617            8 
 2492000   0.84547844   -7.9912803    495.16409  0.016558457   0.01622858            7 
 2493000   0.84066472   -8.0100232    494.83577   0.01654084   0.01622254            7 
 2494000   0.86819864   -7.9854646    495.63851   0.01656103  0.016216498            5 
 2495000   0.85091219   -7.9734811    495.88242  0.016562539   0.01621049            9 
 2496000     0.849445    -8.024825     495.3901  0.016539467  0.016204467            6 
 2497000   0.83595457   -8.0161217    495.92896  0.016550826  0.016198415            6 
 2498000   0.84378831    -8.012365    495.67314  0.016535667   0.01619234            6 
 2499000   0.85696202   -7.9945542    495.24637  0.016514818  0.016186285           12 
 2500000   0.87234902   -8.0003327    495.50816  0.016516939  0.016180254           17 
 2501000   0.86024793   -8.0215409     495.4973  0.016509973  0.016174202           10 
 2502000   0.84536495   -8.0014137    496.16229  0.016525523  0.016168154           12 
 2503000   0.86468449   -8.0192039    495.46036  0.016495551  0.016162127           13 
 2504000   0.85130996   -7.9848471    496.56162  0.016525613  0.016156118            8 
 2505000   0.84718236   -8.0044301    495.78475  0.016493172  0.016150131           12 
 2506000   0.84994655   -7.9700676    495.99975   0.01649374  0.016144147            8 
 2507000   0.85553523   -7.9982329    497.02901  0.016521374  0.016138173           28 
 2508000   0.83837893   -8.0037394    495.89485  0.016477102  0.016132188            7 
 2509000   0.83486541   -7.9697221    495.78046  0.016466735  0.016126187           14 
 2510000   0.85298649   -7.9643432    497.35884  0.016512578  0.016120201           16 
 2511000   0.85428574    -7.956694    496.03913  0.016462204  0.016114253           10 
 2512000   0.85157775   -7.9743009    496.54039  0.016472279  0.016108322            7 
 2513000   0.85751814   -7.9820349    495.77806  0.016440445  0.016102327           18 
 2514000   0.84977273   -7.9776833    496.36032  0.016453206  0.016096356            9 
 2515000   0.85729075   -7.9419307    498.10526  0.016504482  0.016090386            6 
 2516000   0.85098543   -7.9608112    496.50382   0.01644488  0.016084428           12 
 2517000   0.85922653   -7.9820975    497.58659  0.016474195  0.016078475            5 
 2518000   0.83878532   -7.9627626    496.50588  0.016431886  0.016072526            8 
 2519000     0.827195    -7.964755    497.90493  0.016471646  0.016066588            5 
 2520000   0.84304158   -7.9416538    497.02647   0.01643606  0.016060679            5 
 2521000   0.85223633   -7.9632298    495.30376  0.016372596  0.016054729            3 
 2522000   0.84754939   -7.9414527    497.01559  0.016422667  0.016048768            3 
 2523000    0.8530366   -7.9685995    496.17111  0.016388265  0.016042783           10 
 2524000    0.8809153   -7.9691423     496.8836  0.016405296  0.016036825            4 
 2525000   0.84526008    -7.950864    496.00912  0.016369938  0.016030863            8 
 2526000   0.84477664   -7.9734508    495.75362  0.016355028  0.016024897            9 
 2527000   0.85129675   -7.9730665    497.02698  0.016390548  0.016018896           11 
 2528000   0.84100764   -7.9806052    496.54522  0.016368184  0.016012869            9 
 2529000    0.8641241   -7.9814531    495.50988  0.016327596  0.016006847           10 
 2530000   0.84539571   -7.9765071    494.98992  0.016304016  0.016000838            5 
 2531000   0.83043381   -7.9587779    496.32125  0.016341408  0.015994856           12 
 2532000   0.84254231   -7.9960332    496.40328  0.016337654  0.015988868           10 
 2533000   0.86463038   -8.0017752    495.15708  0.016290205  0.015982857            6 
 2534000   0.84296973   -7.9583489    496.52846  0.016328876  0.015976848            7 
 2535000   0.86662475   -7.9882807    496.03446  0.016306195  0.015970824            8 
 2536000   0.85007308   -7.9699765    497.25771  0.016339962   0.01596482            7 
 2537000   0.83684519   -8.0006434    494.96541  0.016258225  0.015958801           12 
 2538000    0.8422749   -7.9642701    496.27105  0.016294689  0.015952763            6 
 2539000   0.86094492   -7.9870967    496.28681  0.016288789  0.015946761            5 
 2540000   0.83674257   -8.0032411    496.13035  0.016277242  0.015940752            8 
 2541000   0.86554956   -8.0294307    495.56844  0.016252408  0.015934707            4 
 2542000   0.85040208   -7.9680498    497.22449  0.016300304  0.015928702           12 
 2543000   0.84634083   -7.9945723    495.44146  0.016235465  0.015922719            8 
 2544000   0.85216305   -7.9727299    497.40391  0.016293367  0.015916707            4 
 2545000   0.86598115   -7.9698162    496.00035  0.016241007  0.015910689            7 
 2546000   0.84980309   -7.9982222    496.31477  0.016244919  0.015904702            4 
 2547000    0.8495904   -7.9732606    497.48968  0.016276982  0.015898682            9 
 2548000   0.83689671   -7.9783525    495.57726  0.016208048  0.015892675           13 
 2549000   0.84703853   -8.0440651    495.94816  0.016213814  0.015886645           10 
 2550000   0.80998171   -8.0078088    495.51605  0.016193335  0.015880594           16 
 2551000   0.85266193   -7.9899836    497.50574  0.016251984  0.015874553           28 
 2552000    0.8163886   -7.9878554    497.70274  0.016252049  0.015868524           22 
 2553000   0.83975413   -7.9895111    496.56349  0.016208496  0.015862502           14 
 2554000   0.82779268   -7.9871832    496.14856  0.016188611   0.01585647           10 
 2555000   0.84663189   -8.0377999    495.45852  0.016159769  0.015850418           29 
 2556000   0.83281988   -8.0393618    495.91707  0.016168397  0.015844389           31 
 2557000   0.87702521   -7.9984848    496.84256  0.016192236  0.015838353           25 
 2558000   0.82977226   -8.0119178    495.31532  0.016136152  0.015832311           36 
 2559000   0.85343707   -8.0044444    496.11802  0.016155986  0.015826272           33 
 2560000   0.84873229    -7.981753    496.26381  0.016154421  0.015820261           28 
 2561000    0.8380381   -8.0119441    495.33708  0.016117958   0.01581423           20 
 2562000   0.84378181   -8.0282823    496.44745  0.016147783  0.015808186           23 
 2563000   0.84249436   -8.0223709    494.95001  0.016092795  0.015802147           38 
 2564000   0.85514932   -7.9968155    496.95028   0.01615153  0.015796118           28 
 2565000   0.84652629   -8.0153834     496.6352  0.016134997  0.015790128           30 
 2566000   0.84695781   -8.0016461    496.23165  0.016115603  0.015784115           69 
 2567000   0.84709323   -8.0019014    496.12418  0.016105836  0.015778078           35 
 2568000   0.83802027   -7.9973833     497.4232  0.016141719  0.015772072           45 
 2569000   0.84218519   -8.0376696    495.91952  0.016086659  0.015766049           34 
 2570000   0.85637858   -8.0473884    496.22791  0.016090399  0.015760007           12 
 2571000   0.85301777   -8.0321621      496.267  0.016085408  0.015753957           45 
 2572000   0.82610403   -8.0070449    496.12442  0.016074534  0.015747894           30 
 2573000   0.83215007   -8.0408879    495.78001  0.016057132   0.01574181           43 
 2574000   0.82983431   -8.0421558    496.35443  0.016069491  0.015735725           40 
 2575000   0.82861021    -8.025216    495.67373  0.016041221  0.015729622           56 
 2576000   0.84844851   -8.0240062    495.91301  0.016042735  0.015723552           76 
 2577000   0.85036387   -8.0075895    496.13109  0.016043561  0.015717492           60 
 2578000   0.84912132   -8.0249034    496.09611  0.016036207  0.015711438           72 
 2579000   0.84297943   -8.0420726    496.12985   0.01603108  0.015705376           50 
 2580000   0.83169851   -8.0247143    496.44336  0.016034992   0.01569932           20 
 2581000   0.83818088   -8.0679232    495.11687  0.015985951  0.015693248           50 
 2582000   0.83667683    -8.047637    496.46902    0.0160234  0.015687172           40 
 2583000   0.84178963   -8.0574152    494.61204  0.015957286  0.015681101           53 
 2584000   0.84541021   -8.0254848    496.02354  0.015996631  0.015675035           63 
 2585000   0.83331593   -8.0239455    497.20618  0.016028568  0.015668972           95 
 2586000   0.83598509   -8.0363097    496.02164  0.015984198  0.015662936           91 
 2587000   0.83134129   -8.0302187     496.9617  0.016008301  0.015656934           59 
 2588000   0.85367357   -8.0420764    496.42863  0.015984951  0.015650916           58 
 2589000   0.84572044   -8.0478217    495.05958   0.01593471  0.015644918           80 
 2590000   0.85028903    -8.029688    497.13226  0.015995247  0.015638896           67 
 2591000   0.83663309   -8.0235832    497.41209  0.015998073  0.015632879           55 
 2592000   0.83554882   -8.0539802    496.34346  0.015957544  0.015626886           88 
 2593000   0.84527749    -8.060642    495.69279  0.015930479  0.015620862           85 
 2594000   0.82961095   -8.0535907    496.94043  0.015964419  0.015614837           93 
 2595000    0.8362843   -8.0469844    495.84244  0.015923007  0.015608829           98 
 2596000   0.83398648   -8.0707267    496.35122  0.015933206  0.015602788          123 
 2597000   0.83550623   -8.0512448    495.09066  0.015886621  0.015596753          117 
 2598000   0.84310228   -8.0608294    496.30615  0.015919494  0.015590709          137 
 2599000   0.82721582   -8.0536249     496.9019  0.015932471   0.01558466          113 
 2600000   0.83616416   -8.0559112    496.48094  0.015912851  0.015578633          110 
 2601000   0.83497062   -8.0381302    497.43447  0.015937283  0.015572614          148 
 2602000   0.85257855   -8.0684298    496.57598  0.015903663  0.015566618          160 
 2603000   0.83372555   -8.0390709    496.46617  0.015894038  0.015560603          162 
 2604000    0.8438285   -8.0475267    496.33517  0.015883742  0.015554634          170 
 2605000   0.82977113   -8.0476247    495.80925   0.01586082  0.015548627          130 
 2606000    0.8159238   -8.0223826    496.88763  0.015889218  0.015542637          176 
 2607000   0.83534452   -8.0438868    495.70923  0.015845455  0.015536652          186 
 2608000   0.85073746   -8.0497162    495.48548   0.01583223  0.015530685          141 
 2609000   0.83925072   -8.0341249    497.42935  0.015888251  0.015524696          208 
 2610000   0.81996107   -8.0704904    495.98122  0.015835927  0.015518709          209 
 2611000   0.83926274   -8.0676726    495.85685  0.015825892    0.0155127          214 
 2612000   0.84730627   -8.0474627    496.16726  0.015829736  0.015506692          200 
 2613000   0.84410887    -8.037706    497.36599  0.015861908   0.01550071          164 
 2614000   0.83434027   -8.0632649    497.14044   0.01584865  0.015494729          207 
 2615000   0.83583046   -8.0628505    495.78566  0.015799415  0.015488735          239 
 2616000    0.8271997   -8.0854526     496.5403  0.015817415  0.015482745          244 
 2617000   0.83584299   -8.0968333    495.49343  0.015778036  0.015476737          274 
 2618000   0.85397451   -8.0790232    496.13461  0.015792418  0.015470744          255 
 2619000   0.83488174   -8.0826176    496.94786  0.015812265  0.015464752          325 
 2620000   0.83457167   -8.0811209    496.69975  0.015798338  0.015458793          312 
 2621000   0.83776222   -8.0793309    496.19064  0.015776124  0.015452793          354 
 2622000   0.81977977   -8.1121066     495.7924   0.01575745  0.015446763          387 
 2623000   0.81947081   -8.1082209    497.45998  0.015804422  0.015440726          365 
 2624000   0.83757603   -8.1132408    495.61189  0.015739707  0.015434688          400 
 2625000   0.82762509   -8.1007399    495.00466  0.015714434  0.015428646          420 
 2626000   0.83495074   -8.1159939    495.71888  0.015731114  0.015422599          443 
 2627000   0.83419919   -8.1034312    496.04249  0.015735392  0.015416514          437 
 2628000   0.83562364   -8.1059485    495.61498  0.015715848  0.015410464          506 
 2629000   0.81887298   -8.1429088     495.2778  0.015699182  0.015404392          541 
 2630000   0.82847363   -8.1375683     495.3669  0.015696036  0.015398334          618 
 2631000   0.83787683   -8.1409108    494.90851  0.015675551  0.015392279          543 
 2632000   0.82477023   -8.1009109    496.29687  0.015713553  0.015386267          562 
 2633000   0.82188051   -8.0982624    497.05471  0.015731571  0.015380249          570 
 2634000   0.82163155    -8.120198    495.15343  0.015665446  0.015374201          559 
 2635000   0.83504556   -8.1508107    494.91545  0.015651975  0.015368157          607 
 2636000   0.82835601   -8.1481275    496.07273  0.015682623  0.015362088          630 
 2637000   0.83680544   -8.1567141    496.21667  0.015681225   0.01535601          650 
 2638000   0.83650623   -8.1803396    494.08789  0.015608033  0.015349887          610 
 2639000   0.81249838   -8.1608457    495.32588  0.015641211  0.015343774          668 
 2640000   0.85209572   -8.1445385    494.63533  0.015613489  0.015337677          659 
 2641000   0.81692185   -8.1650297    495.21694  0.015625929  0.015331587          667 
 2642000   0.81959505   -8.1396201    494.81945  0.015607477  0.015325503          709 
 2643000   0.83266985   -8.1769789    495.67161   0.01562844  0.015319416          707 
 2644000   0.84310943   -8.1648338    494.88271  0.015597665  0.015313296          654 
 2645000   0.83929667   -8.1810921     495.3947  0.015607899  0.015307184          753 
 2646000   0.83770761   -8.1643406    493.99588  0.015557945  0.015301055          741 
 2647000   0.82737566    -8.146578    494.62512  0.015571878  0.015294963          783 
 2648000   0.82517884   -8.1955453    495.40413  0.015590513  0.015288867          799 
 2649000    0.8206755   -8.1983576    494.35025  0.015551474  0.015282759          819 
 2650000   0.80579467   -8.1868235    495.13989  0.015570437  0.015276655          783 
 2651000   0.83158676   -8.1595185    495.71047  0.015582499   0.01527055          830 
 2652000   0.83022015   -8.2084975    494.80642  0.015548216  0.015264442          925 
 2653000   0.82648033   -8.1933752    494.38658  0.015529168  0.015258294          961 
 2654000   0.83593229   -8.1892036     494.0474  0.015512666  0.015252114         1017 
 2655000   0.83050088    -8.201447    495.06977  0.015538913  0.015245954         1029 
 2656000   0.84316909   -8.2515664    492.92349  0.015465722  0.015239771         1138 
 2657000   0.83188141   -8.2502951    493.21349  0.015468997   0.01523356         1132 
 2658000   0.82934603   -8.2543392    494.01937  0.015488443   0.01522735         1140 
 2659000   0.82465659   -8.2572465    492.60028  0.015438144  0.015221135         1192 
 2660000    0.8331357   -8.2714779    492.88772  0.015441345  0.015214913         1211 
 2661000   0.84450531    -8.264015    492.58662  0.015426112  0.015208667         1148 
 2662000   0.82128376   -8.2722829    493.15121  0.015437992  0.015202422         1320 
 2663000   0.82001928   -8.2956332    491.98109  0.015395578  0.015196135         1362 
 2664000   0.83745471   -8.3065996    492.58329  0.015408636  0.015189827         1423 
 2665000   0.82053212   -8.3437441    491.34642  0.015364178  0.015183494         1412 
 2666000   0.82249149   -8.3337357    492.72045  0.015401365  0.015177205         1476 
 2667000   0.79998142   -8.3284176    491.66178   0.01536251  0.015170856         1481 
 2668000   0.82700369    -8.296378    491.37116  0.015347675  0.015164522         1535 
 2669000    0.8131822    -8.346287    490.28745  0.015308088  0.015158186         1496 
 2670000   0.82348228   -8.3239737    491.58625  0.015342892  0.015151858         1503 
 2671000   0.83715061   -8.3630988    490.90672  0.015315947  0.015145502         1615 
 2672000   0.84037998   -8.3410972    489.99391  0.015281746  0.015139153         1614 
 2673000   0.81464831   -8.3403873    491.20399  0.015313755  0.015132787         1646 
 2674000   0.81901071   -8.4052299    490.68695  0.015291914  0.015126401         1675 
 2675000   0.82617682   -8.3763254    491.14282  0.015300399  0.015120014         1744 
 2676000   0.80653033   -8.4010864    490.54229  0.015275981  0.015113607         1872 
 2677000   0.84892816   -8.3863383    491.32726   0.01529471   0.01510722         1771 
 2678000   0.82056097   -8.3886594    490.00131  0.015247738  0.015100822         1884 
 2679000   0.80770462   -8.3920666    490.45593  0.015256188  0.015094419         1924 
 2680000    0.8263731   -8.4299737    491.44597   0.01528128  0.015087999         2022 
 2681000   0.82489802       -8.426    490.12253  0.015234444  0.015081564         2017 
 2682000   0.82423927   -8.4331182     489.7304   0.01521658  0.015075111         2088 
 2683000   0.82103294   -8.4191642    487.48619  0.015141204  0.015068651         2042 
 2684000   0.81950567   -8.4255844    488.45731  0.015165714  0.015062183         2078 
 2685000   0.82284637   -8.4404985    489.19789  0.015183051  0.015055709         2150 
 2686000   0.81154327   -8.4357944    488.39841  0.015152594  0.015049221         2160 
 2687000   0.84019062   -8.4807731    487.72079  0.015125939  0.015042696         2259 
 2688000   0.81931928    -8.490444    487.94237  0.015127182  0.015036152         2292 
 2689000   0.81637304   -8.4841723    488.06381   0.01512532  0.015029583         2341 
 2690000   0.83731196   -8.5029704    488.47512  0.015132439  0.015023019         2377 
 2691000   0.82705857    -8.507464    487.86608  0.015107955  0.015016436         2454 
 2692000    0.8267458   -8.5283608    486.71023  0.015066562   0.01500984         2493 
 2693000   0.81434656   -8.5565487    485.86414  0.015034786  0.015003229         2717 
 2694000   0.81422062   -8.5227747     486.4817  0.015048308  0.014996594         2671 
 2695000   0.81052139   -8.5474151    486.05282  0.015029463  0.014989947         2633 
 2696000   0.82054953   -8.5828963    485.92739  0.015020011  0.014983279         2713 
 2697000    0.8224682   -8.5952366    485.71158  0.015007773  0.014976614         2797 
 2698000    0.8177307   -8.5548556    486.12842  0.015015086   0.01496995         2825 
 2699000   0.82552113   -8.5849634    485.70236  0.014996368  0.014963277         2853 
 2700000   0.83840543   -8.5621962    486.48245  0.015014891  0.014956593         2847 
 2701000   0.81693888   -8.5986199    485.04547  0.014964997  0.014949896         2920 
 2702000   0.80332385   -8.5978359    485.14757  0.014962607  0.014943189         2966 
 2703000    0.8185152   -8.5902379    485.92629  0.014981079  0.014936474         2967 
 2704000   0.80659505   -8.6208231    484.41663  0.014929013  0.014929743         3054 
 2705000     0.821099   -8.6036514    484.39788  0.014922917  0.014923017         3030 
 2706000   0.82488582   -8.6260166    484.61785  0.014924176  0.014916286         3107 
 2707000   0.81389462   -8.6267621    484.48923  0.014914704  0.014909546         3087 
 2708000   0.82000537   -8.6510796    483.90499  0.014891217  0.014902792         3165 
 2709000   0.83139029   -8.6560034     483.8412  0.014883758  0.014896025         3221 
 2710000   0.80977606   -8.6597731    484.48853  0.014898171  0.014889245         3267 
 2711000   0.80809338    -8.690476    482.33227  0.014826394  0.014882446         3309 
 2712000   0.82837835   -8.6843003    484.58337  0.014890099  0.014875653         3250 
 2713000   0.82690661   -8.6635637    483.53255  0.014852333  0.014868853         3289 
 2714000   0.83035162   -8.6945267    483.85415  0.014856735  0.014862044         3346 
 2715000    0.8312763     -8.67983    482.75854  0.014817635  0.014855238         3310 
 2716000   0.80275144    -8.676637    483.54613  0.014836344  0.014848439         3376 
 2717000   0.81552538   -8.7071279    482.46376  0.014797686  0.014841623         3377 
 2718000   0.81202812   -8.7130395    482.74039  0.014800723  0.014834808         3372 
 2719000   0.81874608   -8.7067258    483.73936  0.014825897  0.014827989         3370 
 2720000   0.81455175   -8.7149056     482.2839  0.014775855  0.014821169         3471 
 2721000    0.8227469   -8.7216922    481.67716  0.014751842  0.014814319         3530 
 2722000   0.82053665   -8.7355983    482.67285  0.014776906  0.014807463         3521 
 2723000   0.80945425   -8.7756681    481.45559  0.014734227  0.014800587         3587 
 2724000   0.81114596   -8.7269545    482.36966  0.014756781  0.014793715         3566 
 2725000   0.81361879   -8.7372815    482.33934  0.014750438  0.014786834         3545 
 2726000   0.80495758   -8.7293004    481.51986  0.014719976  0.014779955         3576 
 2727000   0.80561897   -8.7687847    481.20522  0.014704963  0.014773077         3665 
 2728000   0.81583366    -8.746274    482.83496  0.014749357  0.014766201         3685 
 2729000   0.80930867   -8.7868451    480.73157  0.014679723  0.014759323         3632 
 2730000   0.79520761   -8.7480995    481.94364  0.014711344  0.014752434         3653 
 2731000    0.8112483   -8.7452337    481.87087  0.014703737   0.01474555         3618 
 2732000   0.80625208   -8.7579172    482.32204  0.014712117  0.014738673         3614 
 2733000   0.79156593   -8.7460646    481.35469  0.014677238  0.014731799         3676 
 2734000   0.81810055   -8.7563897    481.20148  0.014667199  0.014724908         3653 
 2735000   0.83222854   -8.7594067    481.10646  0.014658941  0.014718033         3666 
 2736000   0.82058128    -8.782896    480.98931  0.014650015  0.014711144         3649 
 2737000   0.80909628   -8.7542951    480.94074  0.014643184  0.014704264         3658 
 2738000   0.83111706   -8.7672577    480.87626  0.014635874  0.014697381         3639 
 2739000   0.82827868   -8.7752425    481.82717  0.014659461  0.014690493         3699 
 2740000   0.80002926   -8.7748346    480.46076  0.014612554  0.014683605         3655 
 2741000   0.79513809   -8.7773116    480.77596  0.014616805  0.014676727         3719 
 2742000   0.80065286   -8.7907632    481.13835  0.014622488  0.014669841         3697 
 2743000   0.82670478   -8.7702316    481.10905  0.014616267   0.01466296         3720 
 2744000   0.81802604   -8.7987914    480.60381  0.014595597  0.014656083         3712 
 2745000    0.7881897   -8.7794476    480.33857  0.014582227  0.014649209         3741 
 2746000   0.80299859   -8.8072073    480.03253   0.01456763  0.014642326         3705 
 2747000   0.81184472   -8.7855771    480.49784  0.014576442  0.014635459         3716 
 2748000   0.79180893   -8.7725362    480.70667  0.014577471  0.014628586         3686 
 2749000    0.7976644    -8.777552    481.58386  0.014598759  0.014621729         3715 
 2750000   0.81993828   -8.7861176    481.05148  0.014577317  0.014614861         3755 
 2751000   0.79039878   -8.8171171    480.36544  0.014551237  0.014607995         3716 
 2752000   0.81390822   -8.7996435    480.17001  0.014540032  0.014601141         3754 
 2753000   0.82232688   -8.7800348    481.00166  0.014559924  0.014594292         3729 
 2754000   0.80425293   -8.8055586    480.76922  0.014547604  0.014587444         3732 
 2755000   0.81231787   -8.7964717     480.7046  0.014540369  0.014580611         3687 
 2756000   0.82266973   -8.7932034    479.40389  0.014495764  0.014573774         3690 
 2757000   0.80324236   -8.7927484    480.80314    0.0145328   0.01456693         3730 
 2758000   0.77733949   -8.7958567     480.0623  0.014505146  0.014560083         3741 
 2759000   0.80257881   -8.8082581    480.29938  0.014507049  0.014553238         3746 
 2760000   0.81286285   -8.8086987    480.90936   0.01452021  0.014546391         3758 
 2761000   0.79839916   -8.8057424    480.10823  0.014490771  0.014539543         3787 
 2762000   0.81019107   -8.8071687    479.61805  0.014470735  0.014532697         3751 
 2763000   0.79667119   -8.7967475    479.76981  0.014470075  0.014525849         3764 
 2764000   0.80041189   -8.7891291     480.2703  0.014479929  0.014519014         3737 
 2765000   0.80548495   -8.7713149    481.43601  0.014509825   0.01451218         3753 
 2766000   0.79181579   -8.8262944    479.49062  0.014445969  0.014505344         3790 
 2767000   0.80305804   -8.8145077    479.54144  0.014442279  0.014498507         3780 
 2768000   0.81214116   -8.8098471    479.48342  0.014435315   0.01449167         3748 
 2769000   0.80805354   -8.7880286    481.92376  0.014503544  0.014484856         3748 
 2770000    0.8150611   -8.7971069    480.55337  0.014457081  0.014478044         3754 
 2771000   0.81276789   -8.8200665    480.15931  0.014440013  0.014471221         3722 
 2772000   0.79018221   -8.7985142    480.52234  0.014445717  0.014464415         3761 
 2773000   0.80229705   -8.7918417    480.93206  0.014452821  0.014457615         3772 
 2774000    0.8138673   -8.7765414    481.48029   0.01446408  0.014450813         3763 
 2775000   0.80405479   -8.8134605    480.29947  0.014423407  0.014444009         3753 
 2776000   0.80313282   -8.7926496    480.49765  0.014424161  0.014437214         3780 
 2777000   0.80036543   -8.8182491    479.93653  0.014402128  0.014430411         3763 
 2778000   0.80198392   -8.7885526    481.56671  0.014445846  0.014423612         3786 
 2779000   0.82530439   -8.7800468    481.30656  0.014432846  0.014416821         3715 
 2780000   0.80487601   -8.8157958    480.03248  0.014389463  0.014410033         3743 
 2781000   0.81119289   -8.8154024    479.80065  0.014377342  0.014403245         3743 
 2782000   0.81566202    -8.795771    480.22139  0.014384777  0.014396468         3753 
 2783000   0.81150051   -8.8058149    479.48235  0.014357478   0.01438968         3747 
 2784000   0.80498058   -8.7701936     481.3557  0.014408396  0.014382914         3755 
 2785000   0.81375468   -8.8346357    481.40095  0.014404577  0.014376131         3794 
 2786000   0.81203597   -8.8400423    479.62963  0.014346423   0.01436936         3768 
 2787000   0.81159283   -8.8416213     480.3423  0.014362585  0.014362583         3726 
 2788000   0.78820526   -8.7900443     480.5429  0.014363429  0.014355809         3764 
 2789000   0.80961465   -8.8017044    480.07922  0.014344425  0.014349041         3752 
 2790000   0.81679856   -8.8133659    479.64766  0.014326394  0.014342278         3736 
 2791000   0.81051269   -8.8103004    480.43864  0.014344878  0.014335517         3746 
 2792000    0.8104913   -8.8065171    480.70048  0.014347555  0.014328754         3766 
 2793000     0.801665    -8.813937    480.13667  0.014325596  0.014321997         3763 
 2794000   0.82755052   -8.8082273    480.35744  0.014327053  0.014315242         3754 
 2795000     0.810023   -8.8121195    479.18098  0.014286851  0.014308487         3755 
 2796000   0.80715643   -8.7831869    480.39755     0.014318  0.014301732         3763 
 2797000   0.80193915   -8.8162352    479.62982  0.014290008  0.014294988         3788 
 2798000   0.78838678   -8.8197931    480.13731  0.014300015  0.014288243         3793 
 2799000   0.79247312   -8.8170086    480.45041  0.014304228  0.014281494         3774 
 2800000   0.79686635   -8.8253345    480.41655  0.014298112  0.014274748         3762 
 2801000   0.79103607   -8.7975544    480.11278  0.014283969  0.014268007         3735 
 2802000   0.79922749   -8.8337967     479.6442  0.014264936  0.014261277         3824 
 2803000    0.8156548   -8.8357016    479.76309  0.014263381  0.014254545         3795 
 2804000   0.80047608   -8.8290699    479.36275  0.014246397  0.014247817         3815 
 2805000   0.79175211   -8.8250286    480.79012  0.014283723  0.014241084         3776 
 2806000   0.82037635   -8.8248347    479.61727  0.014243801   0.01423436         3788 
 2807000   0.80280775   -8.8166594    479.27371  0.014228527  0.014227642         3775 
 2808000    0.7872295   -8.8053238    479.95459  0.014243667  0.014220923         3779 
 2809000   0.81491699   -8.8357682    479.21609  0.014216687  0.014214211         3787 
 2810000    0.8058593   -8.8405014    479.26711  0.014213141  0.014207503         3789 
 2811000   0.82325689    -8.868605    478.25046  0.014177946  0.014200801         3811 
 2812000   0.78975202   -8.8240415    481.01651  0.014254875    0.0141941         3785 
 2813000   0.80241976   -8.8375015    479.12915  0.014193896  0.014187403         3719 
 2814000   0.80808988   -8.8178428    480.36008  0.014225304  0.014180712         3774 
 2815000   0.80528316   -8.8360742    480.12538  0.014213303  0.014174017         3721 
 2816000   0.79331131   -8.8191383    479.88025  0.014201002  0.014167328         3784 
 2817000   0.79591352   -8.8242621    478.57439   0.01415733  0.014160636         3768 
 2818000   0.79483451   -8.8084477    479.81518  0.014188999  0.014153938         3793 
 2819000   0.77853775   -8.8409607    479.36075  0.014170532  0.014147255         3789 
 2820000   0.80694488   -8.8463074    480.26709   0.01419229  0.014140567         3805 
 2821000   0.78231995   -8.8233737    479.60447  0.014167685  0.014133883         3743 
 2822000   0.78985823   -8.8194607    480.32537  0.014183953    0.0141272         3781 
 2823000   0.80204842   -8.8334724    479.25143  0.014147226  0.014120516         3778 
 2824000   0.82460606   -8.8652754     479.4614  0.014148412  0.014113838         3729 
 2825000   0.81325179   -8.8500267    480.15993   0.01416401  0.014107161         3775 
 2826000   0.78647479   -8.8247458    478.87414  0.014121082  0.014100491         3735 
 2827000   0.78589119   -8.8500686    479.19183  0.014125452  0.014093826         3805 
 2828000   0.79830232   -8.8267518    480.56517  0.014160926  0.014087155         3796 
 2829000   0.80307803   -8.8501127    479.23186  0.014116645  0.014080488         3806 
 2830000   0.80608994   -8.8343299    479.15337  0.014109345  0.014073822         3760 
 2831000   0.78650199   -8.8479915    479.98608  0.014128873  0.014067163         3801 
 2832000   0.78592231   -8.8244525    480.50729  0.014139221  0.014060509         3760 
 2833000   0.81506431    -8.830584    479.29521  0.014098577  0.014053859         3825 
 2834000   0.79261769    -8.858829    479.42085  0.014097296  0.014047204         3810 
 2835000   0.80881412   -8.8501504    480.21577   0.01411569  0.014040552         3821 
 2836000   0.79196797   -8.8667513    479.72216  0.014096208  0.014033897         3789 
 2837000   0.79414695    -8.800354    479.68457  0.014090135  0.014027239         3826 
 2838000   0.81328038   -8.8541725     479.8806  0.014090927  0.014020595         3794 
 2839000   0.77014701   -8.8533914    479.11841  0.014063591  0.014013945         3806 
 2840000   0.79621129   -8.8277729    480.54739  0.014100569  0.014007302         3792 
 2841000   0.78713801   -8.8611853    480.16618  0.014084424  0.014000666         3803 
 2842000   0.80229275   -8.8458267    479.56089   0.01406172  0.013994031         3774 
 2843000   0.78450395   -8.8374214    479.45256  0.014053598    0.0139874         3734 
 2844000   0.81584063   -8.8577758    480.21983  0.014071139  0.013980771         3827 
 2845000   0.80111409   -8.8455877    479.92529  0.014057566  0.013974149         3796 
 2846000   0.79619694   -8.8124281    479.89694  0.014051796  0.013967526         3786 
 2847000    0.7876263   -8.8657079     479.1397  0.014024696  0.013960913         3765 
 2848000   0.78269372   -8.8463728    479.79057  0.014038816  0.013954301         3784 
 2849000   0.80385763   -8.8530567    480.21683  0.014046356  0.013947684         3781 
 2850000   0.79462808   -8.8588731    479.45039  0.014019017   0.01394108         3760 
 2851000   0.79003051   -8.8277235    480.29225  0.014038707  0.013934469         3810 
 2852000   0.79369788   -8.8800256    478.73559    0.0139883  0.013927872         3798 
 2853000   0.81186904   -8.8440334     479.4663  0.014004741  0.013921277         3790 
 2854000   0.77742987   -8.8544062    478.55481  0.013973219  0.013914685         3839 
 2855000   0.77753693   -8.8468768    479.55469   0.01399751  0.013908097         3789 
 2856000   0.80904138   -8.8775701     479.3075  0.013985396  0.013901511         3787 
 2857000   0.78144954    -8.843111    479.66536  0.013990939  0.013894926         3813 
 2858000   0.79094735   -8.8558316     478.6796  0.013957301  0.013888349         3727 
 2859000   0.79996336   -8.8388938    479.56367  0.013978188  0.013881775         3811 
 2860000   0.78180901   -8.8589045    478.88408  0.013953499  0.013875201         3814 
 2861000   0.80062256   -8.8453723     479.3887   0.01396332  0.013868628         3734 
 2862000   0.78683109   -8.8629668    478.28539  0.013926316  0.013862061         3804 
 2863000   0.79735212   -8.8596589    479.76314  0.013964465  0.013855492         3752 
 2864000   0.78464264   -8.8470875    479.20972  0.013943486  0.013848928         3796 
 2865000   0.80662841    -8.867432    479.40802  0.013944387  0.013842363         3761 
 2866000   0.80458319   -8.8849534    478.89094  0.013924486  0.013835815         3790 
 2867000   0.79969048   -8.8436069    479.25022  0.013930073  0.013829255         3785 
 2868000   0.80860464   -8.8617986    479.13424  0.013921846  0.013822708         3818 
 2869000   0.80132042   -8.8537535    479.16072  0.013917762  0.013816173         3792 
 2870000    0.8003294   -8.8350698    479.47149  0.013921936  0.013809639         3810 
 2871000   0.79972333   -8.8661966    479.13949  0.013907451    0.0138031         3773 
 2872000   0.79715937   -8.8751237    479.63307   0.01391693   0.01379657         3816 
 2873000   0.78384951   -8.8624886    479.25284  0.013901057  0.013790041         3744 
 2874000   0.79734874   -8.8788614    479.11971   0.01389236  0.013783517         3814 
 2875000   0.80393554   -8.8591459    478.61829  0.013872994  0.013776988         3780 
 2876000   0.80010383   -8.8258421    480.28409  0.013916437  0.013770468         3789 
 2877000   0.77191366    -8.857873    479.87896  0.013899865  0.013763954         3804 
 2878000   0.78706642   -8.8668962    479.47527  0.013883347  0.013757436         3813 
 2879000   0.79488865   -8.8668002    479.32832  0.013874271  0.013750915         3795 
 2880000   0.78501056   -8.8730806    479.71369  0.013880604   0.01374441         3786 
 2881000   0.80213122   -8.8594698    478.97575  0.013854442  0.013737901         3757 
 2882000   0.80273069   -8.8782793    479.30689  0.013859209  0.013731409         3803 
 2883000   0.78077331   -8.8757377    478.49926  0.013831057  0.013724909         3778 
 2884000   0.78239702   -8.8727999    478.77139  0.013834125  0.013718413         3798 
 2885000   0.79592321   -8.8655207    479.05739  0.013837591  0.013711913         3798 
 2886000   0.79503507    -8.855256    480.08034  0.013862334  0.013705428         3783 
 2887000   0.79912318   -8.8833318    479.36049  0.013836753  0.013698949         3808 
 2888000   0.78366732   -8.8753122    479.09038  0.013824168  0.013692464         3779 
 2889000   0.78674067    -8.882214    479.29644  0.013825327  0.013685982         3829 
 2890000   0.78061628   -8.8639701    479.12689  0.013815654  0.013679506         3779 
 2891000   0.79454531   -8.9081728    479.19503   0.01381284  0.013673034         3801 
 2892000   0.77459274   -8.8708146    479.54524  0.013818155  0.013666567         3792 
 2893000     0.783918   -8.8705657    479.10122  0.013800588  0.013660104         3822 
 2894000   0.77541708   -8.8352028    480.19753  0.013827388  0.013653646         3768 
 2895000   0.79194894    -8.862756    479.77509  0.013810452  0.013647187         3751 
 2896000   0.79924037   -8.8800785    478.41493  0.013766544  0.013640735         3817 
 2897000   0.79177258   -8.8986799    477.91938  0.013747537  0.013634285         3795 
 2898000   0.79635333   -8.8709498    479.42743  0.013786158  0.013627826         3729 
 2899000   0.76171386   -8.8683961    479.83042  0.013792987  0.013621376         3796 
 2900000   0.77887824   -8.8612536     478.9776  0.013763724  0.013614927         3779 
 2901000   0.78479332   -8.8721571    478.43308  0.013743338   0.01360848         3778 
 2902000   0.78930893   -8.8591625    477.99365  0.013725984  0.013602051         3793 
 2903000   0.78753078   -8.8519956    479.27655  0.013758082  0.013595618         3758 
 2904000   0.79161391   -8.8588225    479.74758  0.013766861  0.013589186         3822 
 2905000   0.76983165     -8.87657    479.48797  0.013754675  0.013582764         3778 
 2906000   0.79878194   -8.8511703    479.45001  0.013748853  0.013576339         3786 
 2907000   0.77999344   -8.8482271    478.37342  0.013713262  0.013569915         3761 
 2908000   0.78510313   -8.8612411     479.1588  0.013731052  0.013563509         3760 
 2909000   0.79127885   -8.8546075    479.21455  0.013727929    0.0135571         3823 
 2910000   0.78648063    -8.880781    478.07087   0.01369046  0.013550693         3785 
 2911000   0.79878249   -8.8783728    479.28712  0.013720575  0.013544292         3771 
 2912000    0.7697797   -8.8637799    478.49017  0.013693057  0.013537882         3759 
 2913000   0.78622605   -8.8667378    479.51124  0.013717566  0.013531483         3818 
 2914000   0.77923701   -8.8805037    479.07781  0.013700464  0.013525077         3767 
 2915000   0.77333687   -8.8848961    478.28446  0.013673083  0.013518688         3782 
 2916000   0.79606838   -8.8749838    479.35384  0.013698955  0.013512288         3785 
 2917000   0.77761214   -8.8444164    479.07265  0.013686226  0.013505895         3732 
 2918000    0.7792557   -8.9039677    478.14964  0.013655176  0.013499504         3786 
 2919000   0.78393322   -8.8482794    479.65094  0.013693358  0.013493121         3753 
 2920000   0.78429007   -8.9044001    478.44501  0.013654253  0.013486739         3794 
 2921000   0.78348385   -8.8860603    478.66143  0.013655752  0.013480369         3797 
 2922000   0.79277701   -8.8801578    478.38208  0.013643112  0.013473995         3813 
 2923000   0.77367379   -8.8529424    479.18252  0.013661265  0.013467635         3780 
 2924000   0.78928204   -8.8891095    479.05097  0.013652844   0.01346127         3774 
 2925000   0.77538992   -8.8827458    479.93586  0.013673386  0.013454905         3808 
 2926000   0.79119887    -8.864584     479.6208   0.01365974  0.013448541         3813 
 2927000   0.76682109   -8.8835693    479.34775    0.0136473  0.013442174         3780 
 2928000   0.78178176   -8.8398959    478.57779  0.013620725  0.013435825         3780 
 2929000    0.7784758   -8.8964608    478.20204  0.013605384   0.01342947         3750 
 2930000   0.78015817   -8.8844659    478.57259  0.013611279  0.013423127         3806 
 2931000    0.7920536   -8.8654921    478.85605  0.013614695  0.013416781         3789 
 2932000   0.78175581   -8.8790984    479.33871   0.01362377   0.01341044         3839 
 2933000   0.77984129   -8.8694996    478.88619  0.013606267  0.013404104         3759 
 2934000   0.78721303   -8.8851018    478.34976  0.013586394  0.013397772         3800 
 2935000   0.77307198   -8.8618255    478.53231  0.013586948  0.013391438         3775 
 2936000   0.76997423   -8.8886139    479.23172  0.013602172  0.013385115         3822 
 2937000   0.80117836   -8.8680938    480.30038  0.013627862  0.013378791         3771 
 2938000   0.77412432   -8.8802775    477.65498   0.01354819  0.013372467         3787 
 2939000   0.80632297   -8.8792313    478.43796  0.013565781  0.013366146         3826 
 2940000   0.77796612   -8.8618652    479.55572  0.013592849  0.013359825         3739 
 2941000   0.76470081   -8.8937518    478.04674   0.01354547    0.0133535         3810 
 2942000   0.79424658   -8.9092902    479.02415  0.013568552  0.013347193         3803 
 2943000   0.78912625   -8.9010069    479.19906  0.013568894  0.013340885         3787 
 2944000   0.78538856   -8.8884912    479.01587    0.0135591  0.013334574         3794 
 2945000   0.76653356   -8.8733971    479.46056  0.013567079   0.01332827         3768 
 2946000   0.79353318   -8.8798614    478.87546  0.013545923  0.013321973         3779 
 2947000   0.79750912   -8.8666897    478.76918  0.013538321  0.013315674         3813 
 2948000   0.78479185   -8.8904842    478.46347  0.013525087   0.01330938         3815 
 2949000   0.77432939   -8.8861461    478.60422  0.013524478  0.013303092         3803 
 2950000   0.77721021   -8.8753989    479.09514  0.013533761  0.013296794         3819 
 2951000   0.77772726   -8.8904865    477.86246  0.013494365  0.013290505         3809 
 2952000   0.78456945   -8.8857306    478.51435  0.013508196  0.013284222         3762 
 2953000   0.77027841   -8.9263112    479.03559  0.013518331  0.013277941         3812 
 2954000   0.77332953   -8.8604308    479.50677  0.013527047  0.013271659         3788 
 2955000   0.77464408    -8.905009    479.15017  0.013512413  0.013265381         3825 
 2956000   0.81035161   -8.8950049    478.29114  0.013483625  0.013259107         3809 
 2957000   0.76998881   -8.8950852    478.47948  0.013484373  0.013252846         3793 
 2958000   0.78359419   -8.8646965    479.92392  0.013520507  0.013246582         3800 
 2959000   0.77234887   -8.8840467    478.48974  0.013475548  0.013240326         3819 
 2960000   0.78643945    -8.887927    478.34488  0.013466917  0.013234063         3814 
 2961000   0.76746563   -8.8801014    479.36613   0.01349111  0.013227806         3818 
 2962000   0.77539858   -8.8893821    478.90391  0.013473552  0.013221559         3786 
 2963000   0.77678269   -8.9054923     479.4298  0.013483795  0.013215304         3809 
 2964000   0.75932173   -8.8841434    479.25035    0.0134742   0.01320907         3797 
 2965000   0.79013267   -8.8680025    479.47105  0.013475859  0.013202831         3780 
 2966000   0.76940297   -8.9034415    478.32025  0.013438982  0.013196592         3785 
 2967000   0.76641246   -8.8782088    478.27457  0.013433169  0.013190355         3790 
 2968000   0.76435342   -8.8912103    478.43585  0.013433172  0.013184126         3782 
 2969000   0.77911534   -8.8775552    479.39614  0.013455601  0.013177902         3794 
 2970000   0.76947225   -8.8858838    478.38158  0.013422603   0.01317168         3778 
 2971000   0.79739897   -8.8902348    478.86977  0.013431779  0.013165454         3789 
 2972000   0.78469901   -8.9176985    479.15568  0.013435276  0.013159233         3780 
 2973000   0.77643988   -8.8829702     478.4421  0.013410755  0.013153016         3799 
 2974000   0.77778607    -8.904365    479.40381  0.013433194    0.0131468         3779 
 2975000   0.77047789   -8.9015092    478.84231   0.01341295  0.013140583         3831 
 2976000   0.76720161   -8.9314707    478.08396  0.013387208  0.013134369         3830 
 2977000   0.77805343   -8.9074926    477.59138  0.013368922  0.013128157         3785 
 2978000    0.7872378   -8.9200148    477.80315  0.013370359  0.013121953         3802 
 2979000   0.77004034   -8.9251014    478.23748  0.013378021  0.013115746         3799 
 2980000   0.79322693   -8.8918877    478.00628  0.013367066  0.013109538         3801 
 2981000   0.78424386   -8.8554921    478.39478  0.013373442  0.013103341         3779 
 2982000   0.76991916   -8.8820873    478.60541  0.013374844  0.013097148         3806 
 2983000   0.77198842   -8.9345014    478.28357  0.013361369  0.013090948         3838 
 2984000   0.77168862   -8.9041504    477.73632  0.013341609   0.01308475         3799 
 2985000   0.77286076   -8.9008712    478.86967  0.013368779  0.013078563         3812 
 2986000   0.78466431    -8.909213    478.53274  0.013354899  0.013072379         3795 
 2987000   0.75738866   -8.8962989    479.31805  0.013372337    0.0130662         3807 
 2988000   0.76999933   -8.9088725    477.93714  0.013329349  0.013060021         3807 
 2989000   0.78859138   -8.8958241    479.19552  0.013359973  0.013053847         3832 
 2990000    0.7780598   -8.9171454    477.34079  0.013303812   0.01304768         3820 
 2991000    0.7966063   -8.9310967    478.13746  0.013321561  0.013041516         3837 
 2992000    0.7696202   -8.9104992    478.59058  0.013329729  0.013035352         3847 
 2993000   0.77842312   -8.9157191    477.88652  0.013305672   0.01302919         3801 
 2994000   0.79170955   -8.9103049    478.31906  0.013313267  0.013023039         3859 
 2995000   0.76476836   -8.9099239    478.31869  0.013308811  0.013016888         3820 
 2996000   0.77321386    -8.900335    478.15731  0.013299881  0.013010737         3818 
 2997000   0.77474438   -8.9032283    477.45892  0.013276024  0.013004588         3822 
 2998000   0.77852806   -8.8777669     478.8817  0.013311144  0.012998443         3839 
 2999000   0.78469449   -8.9090561    477.39722  0.013265456  0.012992298         3824 
 3000000   0.76973419   -8.9289514    477.81104  0.013272529   0.01298616         3811 
 3001000   0.76189157   -8.9200726     477.1077  0.013248575  0.012980023         3839 
 3002000   0.77539706    -8.918728    477.74834  0.013261946  0.012973888         3805 
 3003000   0.76139349   -8.9140706     477.7328  0.013257099  0.012967756         3815 
 3004000   0.77405908   -8.9213432    477.72684   0.01325252  0.012961621         3818 
 3005000    0.7609444   -8.9060629    478.63652  0.013273337  0.012955492         3822 
 3006000   0.76216484   -8.9052833     478.3087  0.013259833  0.012949368         3765 
 3007000   0.77764979    -8.918273    478.30083  0.013255205  0.012943247         3778 
 3008000   0.76233463   -8.8973957    479.27121  0.013277682   0.01293713         3802 
 3009000   0.75970708   -8.9209268    478.46473  0.013250934   0.01293101         3798 
 3010000    0.7834222   -8.9161309    478.13285  0.013237344  0.012924894         3814 
 3011000   0.80131564   -8.9293341    477.50334  0.013215525  0.012918779         3819 
 3012000   0.78033872    -8.933956    477.69747  0.013216508  0.012912668         3849 
 3013000   0.75923994   -8.9142432    478.13048  0.013224098  0.012906573         3817 
 3014000   0.76216865   -8.9251755    477.33396  0.013197687  0.012900474         3793 
 3015000   0.77086804   -8.9114227    478.04176  0.013212873  0.012894374         3795 
 3016000   0.77120655   -8.9103021    477.74913  0.013200407  0.012888277         3858 
 3017000   0.76997337   -8.9286752    476.93555   0.01317356  0.012882186         3825 
 3018000   0.75748067   -8.9145541    477.69641  0.013190204  0.012876096         3808 
 3019000   0.75570366   -8.9214585    477.84146  0.013189838  0.012870013         3851 
 3020000   0.76271557   -8.9277306    478.21853  0.013195876  0.012863932         3843 
 3021000   0.77720225   -8.9110561    478.36223  0.013195471  0.012857849         3814 
 3022000    0.7526725    -8.924213     476.8592  0.013149658  0.012851767         3825 
 3023000   0.76898893   -8.9247004     477.3605  0.013159127  0.012845693         3812 
 3024000   0.77221662   -8.9385581    477.24993  0.013151729  0.012839615         3829 
 3025000   0.78093179   -8.9142285    477.82053    0.0131631  0.012833551         3857 
 3026000   0.75309986    -8.906414    477.74142  0.013156571  0.012827482         3788 
 3027000   0.77558668   -8.9128093    477.71154  0.013151402  0.012821425         3831 
 3028000   0.76385866   -8.9154107    477.11528   0.01313065  0.012815364         3827 
 3029000   0.78572942   -8.9025236    477.73334  0.013143319   0.01280931         3750 
 3030000    0.7716793   -8.9225607    477.16633  0.013123386  0.012803256         3821 
 3031000   0.76489779   -8.9100925    477.82889  0.013137273  0.012797205         3796 
 3032000   0.76504053   -8.9103469    478.80165  0.013159676   0.01279116         3813 
 3033000   0.75598784   -8.9174749    477.92289  0.013131193  0.012785112         3777 
 3034000   0.75623535   -8.9192462    478.16761  0.013133586   0.01277908         3847 
 3035000   0.76634951    -8.942586    478.18156  0.013129642  0.012773042         3789 
 3036000   0.77175241   -8.9418749    477.55283   0.01310806  0.012767011         3806 
 3037000   0.76364171   -8.9381554    479.28754  0.013151343  0.012760987         3840 
 3038000   0.77397499   -8.9112524    477.18559  0.013089357   0.01275496         3803 
 3039000   0.76962453   -8.9334886    477.65508  0.013097924  0.012748937         3817 
 3040000   0.76111478   -8.9425114    477.16664  0.013080226  0.012742917         3812 
 3041000     0.773154   -8.9340083    477.13079  0.013074942  0.012736892         3817 
 3042000   0.75642927   -8.9166085    477.04218  0.013068217  0.012730882         3807 
 3043000   0.75835856   -8.9171749    477.59628  0.013079096  0.012724868         3834 
 3044000   0.76696602   -8.9455779    476.67741  0.013049644  0.012718856         3824 
 3045000   0.76438382   -8.9488578    478.11382  0.013084669  0.012712848         3826 
 3046000   0.76436258   -8.9065835    478.57127  0.013092889  0.012706853         3822 
 3047000   0.76612486   -8.9367208    476.63867  0.013035736  0.012700859         3809 
 3048000   0.76386622   -8.9180276      477.952  0.013067367   0.01269487         3840 
 3049000   0.76621533   -8.9391252     478.1637  0.013068867  0.012688879         3846 
 3050000   0.77425011   -8.9107288     477.7757  0.013053981  0.012682892         3849 
 3051000   0.77376413   -8.9077188    478.72782  0.013075708  0.012676908         3790 
 3052000   0.76816132   -8.9291549    477.63787  0.013041663  0.012670926         3796 
 3053000   0.75329619   -8.9287978    477.07081  0.013021913  0.012664947         3794 
 3054000   0.76575956   -8.9403591    477.25143  0.013022578  0.012658976         3835 
 3055000   0.75414255    -8.913458    478.01567  0.013039162  0.012653007         3852 
 3056000    0.7543904   -8.9154993    477.78639  0.013028643  0.012647035         3813 
 3057000   0.75984947   -8.9422211    477.62237   0.01301991  0.012641067         3830 
 3058000   0.75830654   -8.9241771    477.78765  0.013020156  0.012635108         3827 
 3059000   0.76920666   -8.9290924    477.23349  0.013000803  0.012629142         3828 
 3060000   0.77933476   -8.8899568    478.15143  0.013021553  0.012623193         3846 
 3061000   0.76280766    -8.945666    478.18213  0.013018135  0.012617243         3797 
 3062000   0.76482419   -8.9492901    477.56749  0.012997156  0.012611298         3844 
 3063000   0.76189699   -8.9126853    478.75043  0.013025096  0.012605353         3821 
 3064000   0.75401048   -8.9325602     476.5208  0.012960205  0.012599417         3826 
 3065000   0.75734146   -8.9043385    479.49147  0.013036745  0.012593482         3829 
 3066000   0.74451508   -8.9447496    477.44299  0.012976815  0.012587548         3808 
 3067000   0.76085459   -8.9103386    478.48073  0.013000781  0.012581617         3854 
 3068000   0.76031175   -8.9107434    478.14117   0.01298732  0.012575693         3824 
 3069000   0.76495444   -8.9201227     477.7983  0.012973778  0.012569765         3856 
 3070000   0.76054351   -8.9281611    477.37998  0.012958197  0.012563848         3791 
 3071000   0.75393684   -8.9180493    478.22421  0.012976886  0.012557925         3796 
 3072000    0.7487736   -8.9318853    476.98007  0.012938913  0.012552012         3800 
 3073000   0.74096477   -8.9303207    478.12267  0.012965687  0.012546097         3805 
 3074000   0.77556765   -8.9363788    477.58802  0.012946975  0.012540188         3857 
 3075000   0.75182409   -8.9328419    478.41925  0.012965291  0.012534282         3841 
 3076000   0.76671533   -8.9263329    477.88197  0.012946521  0.012528374         3797 
 3077000   0.75658724   -8.9432116    476.28232   0.01289899  0.012522464         3801 
 3078000   0.76636731   -8.9267879    477.89389  0.012938431  0.012516561         3812 
 3079000   0.75374388    -8.944661     476.8002  0.012904628  0.012510666         3820 
 3080000   0.74581244   -8.9536423    477.11723  0.012909016  0.012504769         3805 
 3081000     0.747031   -8.9408235    477.81153  0.012923605  0.012498875         3818 
 3082000   0.75493431   -8.9473283    476.69748  0.012889289  0.012492984         3840 
 3083000   0.76359052   -8.9659298    476.67747  0.012884568  0.012487101         3837 
 3084000    0.7678484   -8.9339401    477.47548  0.012901953  0.012481212         3821 
 3085000   0.74861234   -8.9448323    477.90468  0.012909365  0.012475331         3850 
 3086000   0.76647171   -8.9570766    477.85378  0.012903807  0.012469457         3831 
 3087000   0.75703352   -8.9121217    478.08992  0.012906002  0.012463575         3774 
 3088000   0.73639292   -8.9423332    477.72652  0.012892015  0.012457704         3815 
 3089000   0.75561149   -8.9745534    476.59592  0.012857341  0.012451827         3818 
 3090000   0.78007159    -8.944266    477.17353  0.012868758  0.012445961         3818 
 3091000   0.73959702   -8.9326325    477.40523  0.012870841  0.012440098         3830 
 3092000   0.75937829   -8.9467645    476.53134  0.012843126   0.01243424         3817 
 3093000   0.76518815   -8.9830853    476.94902  0.012850227   0.01242838         3828 
 3094000   0.77802017   -8.9449294    477.19166  0.012852609  0.012422527         3821 
 3095000   0.74682582   -8.9441826    477.56092  0.012858399  0.012416679         3826 
 3096000   0.76571151   -8.9283823    477.31255   0.01284756  0.012410836         3827 
 3097000   0.75014121   -8.9486254    477.68307  0.012853381   0.01240499         3798 
 3098000   0.77326012   -8.9473951    477.25875  0.012837819   0.01239914         3803 
 3099000   0.75450544    -8.979227     476.3386  0.012808933  0.012393298         3847 
 3100000   0.75405668   -8.9403126    476.85682  0.012818732  0.012387465         3839 
 3101000   0.73827081   -8.9661162    476.71058  0.012810668  0.012381633         3803 
 3102000   0.74611018   -8.9726178    477.79775  0.012835744  0.012375801         3818 
 3103000   0.75470402   -8.9487637    477.42604  0.012821625  0.012369979         3826 
 3104000   0.76690254   -8.9422876    477.66889  0.012824014   0.01236416         3851 
 3105000   0.74857069   -8.9384157    477.72407  0.012821365  0.012358348         3790 
 3106000   0.75934498   -8.9389394    478.15914   0.01282891  0.012352535         3841 
 3107000   0.77789893   -8.9285501    476.43078  0.012778425   0.01234673         3800 
 3108000   0.75803919   -8.9434055    477.14787   0.01279354  0.012340926         3807 
 3109000   0.76241809    -8.957025    476.85043  0.012781452  0.012335126         3812 
 3110000   0.75904172   -8.9134467    476.70516   0.01277345  0.012329323         3799 
 3111000    0.7501253   -8.9270737    477.84057  0.012799758  0.012323525         3830 
 3112000   0.73524624   -8.9516381    477.20889   0.01277873  0.012317731         3858 
 3113000   0.74241679   -8.9584864    477.36813  0.012778888  0.012311943         3782 
 3114000   0.75054521   -8.9695453    477.31341   0.01277332  0.012306149         3825 
 3115000   0.74925979   -8.9577651    476.84181  0.012756603  0.012300364         3790 
 3116000   0.76685968   -8.9736103    476.58315  0.012745591  0.012294581         3836 
 3117000    0.7674422   -8.9492832    476.45939  0.012738193  0.012288808         3832 
 3118000   0.76893873    -8.960086    476.75888  0.012742112  0.012283026         3848 
 3119000   0.74505223   -8.9405782     477.5193  0.012758344  0.012277253         3820 
 3120000   0.75756024   -8.9148337    476.88123  0.012737212  0.012271484         3831 
 3121000   0.77095052   -8.9573131    476.38699  0.012719935  0.012265721         3823 
 3122000   0.75326649   -8.9435554    476.85916  0.012728464  0.012259957         3824 
 3123000   0.74674915   -8.9523303    477.23343  0.012734375  0.012254191         3853 
 3124000   0.74704041   -8.9446316    477.36596  0.012733834  0.012248429         3811 
 3125000   0.73162902   -8.9583103    476.97025  0.012719207  0.012242676         3842 
 3126000   0.74663248   -8.9712203    476.91671   0.01271371  0.012236922         3851 
 3127000   0.75626932   -8.9728574    477.30966  0.012720117  0.012231175         3813 
 3128000   0.76684901   -8.9572317    477.21464  0.012713519  0.012225426         3819 
 3129000    0.7576889   -8.9528645    475.52833  0.012664545  0.012219686         3826 
 3130000   0.74225795   -8.9392046    475.96531  0.012672133  0.012213944         3802 
 3131000   0.74297985   -8.9394401     476.8987  0.012692928  0.012208205         3832 
 3132000   0.74797769   -8.9370334    476.92692  0.012689626  0.012202467         3823 
 3133000   0.75415488   -8.9450457     476.8558  0.012683684  0.012196731         3820 
 3134000   0.74260539   -8.9539917    477.72734  0.012702812  0.012191002         3858 
 3135000   0.75319455   -8.9515548    477.30016  0.012687405  0.012185272         3825 
 3136000   0.74449055   -8.9337893    478.29246  0.012709727   0.01217955         3821 
 3137000   0.74506685   -8.9597923    476.78978  0.012665758   0.01217383         3846 
 3138000   0.75174544   -8.9866332    476.51408    0.0126544  0.012168112         3835 
 3139000    0.7407616   -8.9705856    476.84896  0.012659259  0.012162395         3829 
 3140000   0.73751846   -8.9501605    477.67034  0.012677026  0.012156689         3838 
 3141000   0.76115969    -8.973375    477.65967  0.012672707  0.012150978         3841 
 3142000   0.74812713   -8.9658882    476.17219  0.012629222  0.012145276         3843 
 3143000   0.73731507    -8.942838    476.05883  0.012622198  0.012139572         3827 
 3144000   0.75060997   -8.9835602    475.90807  0.012614188  0.012133877         3830 
 3145000    0.7542922   -8.9779714    476.54761  0.012627123  0.012128178         3850 
 3146000   0.76340952   -8.9669904    477.46969  0.012647534  0.012122484         3843 
 3147000   0.73212786   -8.9798424    476.69937  0.012623116  0.012116793         3850 
 3148000   0.76690845   -8.9408911    475.90976  0.012598204  0.012111109         3827 
 3149000   0.76482273   -8.9635032    477.43248    0.0126345  0.012105427         3858 
 3150000     0.746875   -8.9464615    477.68416  0.012637147   0.01209975         3813 
 3151000   0.74912456   -8.9622677    476.13048  0.012592047  0.012094077         3816 
 3152000     0.730601   -8.9426172    476.47951   0.01259728  0.012088408         3865 
 3153000   0.73627406   -8.9552934    476.65353  0.012597884  0.012082736         3844 
 3154000   0.72523616   -8.9638366    477.32216  0.012611556   0.01207707         3810 
 3155000   0.75858662   -8.9682524    476.44156  0.012584299  0.012071412         3835 
 3156000   0.74610335    -8.969888    477.06286  0.012596717  0.012065754         3801 
 3157000   0.73877185   -8.9472083    476.48944  0.012577591  0.012060098         3831 
 3158000    0.7729335     -8.97898       476.89  0.012584178  0.012054441         3834 
 3159000   0.75080312   -8.9741087    475.69303  0.012548619  0.012048791         3860 
 3160000   0.74233747   -8.9678221    476.72965  0.012571985  0.012043144         3795 
 3161000   0.73058534   -8.9717814    476.28794  0.012556362  0.012037496         3806 
 3162000   0.73914643   -8.9496887    476.50373  0.012558079  0.012031851         3849 
 3163000   0.74030095   -8.9625082     477.3426  0.012576209  0.012026208         3848 
 3164000   0.75590228   -8.9747668    477.09578  0.012565734  0.012020574         3833 
 3165000   0.74559621    -8.967281    476.43885  0.012544467   0.01201494         3825 
 3166000   0.72940778   -8.9485755    477.51205  0.012568753   0.01200931         3812 
 3167000    0.7383834   -8.9852616    476.91508  0.012549076  0.012003688         3842 
 3168000   0.74080132   -8.9649984    476.17053   0.01252553  0.011998069         3839 
 3169000   0.74018237     -8.97781    476.39193  0.012527399   0.01199245         3831 
 3170000   0.74844368   -8.9633501    476.98423  0.012539018  0.011986836         3845 
 3171000   0.75205048   -8.9474763    475.74476   0.01250249  0.011981225         3823 
 3172000   0.73952408   -8.9801278    476.89361  0.012528731  0.011975615         3851 
 3173000   0.72804506   -8.9842385    476.61813  0.012517547  0.011970008         3840 
 3174000   0.74076021    -8.965205    476.39983  0.012507872  0.011964402         3837 
 3175000   0.73648508   -8.9590136     476.9075  0.012517257  0.011958804         3822 
 3176000   0.74929599   -8.9646979    476.38367  0.012499572  0.011953207         3867 
 3177000   0.76079955   -9.0009746     476.9023  0.012509241  0.011947612         3833 
 3178000   0.74510268   -8.9523373    476.34714  0.012490747  0.011942025         3857 
 3179000   0.73130622   -8.9630059     476.8792  0.012500765  0.011936434         3815 
 3180000    0.7475298   -8.9926756    476.35149  0.012483006  0.011930851         3834 
 3181000   0.74724668   -8.9643869     476.4429  0.012481476   0.01192527         3830 
 3182000   0.73690626   -8.9823676    477.20967  0.012497634  0.011919685         3829 
 3183000   0.73921284   -8.9676569    477.14958  0.012492135   0.01191412         3864 
 3184000   0.73776415   -8.9808644    476.37972  0.012468062  0.011908547         3838 
 3185000   0.73750218   -8.9616055    476.88601  0.012477394  0.011902972         3835 
 3186000   0.74565319   -8.9722565    476.62679  0.012466698  0.011897415         3842 
 3187000   0.74409282   -8.9583247     476.7807   0.01246681  0.011891854         3818 
 3188000   0.74072657   -8.9586698    475.87798  0.012439303  0.011886296         3823 
 3189000   0.74435497   -8.9561867    476.97714  0.012464125  0.011880747         3840 
 3190000   0.74666004   -8.9818367    477.00283  0.012460889    0.0118752         3846 
 3191000   0.72775171   -8.9659338    476.41288  0.012441577  0.011869657         3823 
 3192000    0.7369946   -8.9787206    476.64898  0.012443843  0.011864119         3864 
 3193000   0.73733107    -8.977993    476.68798  0.012440964  0.011858572         3841 
 3194000   0.76785661   -8.9787669    476.15342  0.012423122  0.011853032         3853 
 3195000   0.75243477   -8.9603921    477.22941  0.012447298  0.011847498         3823 
 3196000   0.71928779   -8.9786417    476.98497   0.01243703  0.011841965         3829 
 3197000   0.73856766   -8.9887716    476.12677   0.01241077   0.01183643         3847 
 3198000    0.7454814   -9.0097325    475.35501  0.012386778  0.011830902         3859 
 3199000   0.74089237   -8.9567114    475.53039  0.012387475  0.011825371         3853 
 3200000   0.73500382   -8.9799266    476.32772  0.012404368  0.011819847         3850 
 3201000   0.74436362   -8.9592303    477.15104  0.012421926  0.011814334         3843 
 3202000   0.73648426   -8.9760503     476.9781  0.012413546  0.011808823         3845 
 3203000   0.72609425   -8.9612251    476.32893  0.012392781  0.011803304         3822 
 3204000   0.75336502   -8.9854806    475.34514  0.012363326  0.011797794         3855 
 3205000   0.71860862   -8.9610925    476.41287   0.01238723  0.011792291         3827 
 3206000   0.73938774   -8.9903587    476.36363  0.012382087  0.011786786         3841 
 3207000   0.75361723   -8.9756924    475.49945   0.01235577  0.011781289         3807 
 3208000   0.73161628    -8.974845    476.70497  0.012383234  0.011775791         3852 
 3209000   0.73469707   -8.9909288    476.35311  0.012370238  0.011770295         3826 
 3210000   0.74691548    -8.976597    476.38877   0.01236731  0.011764804         3814 
 3211000   0.74061276   -8.9590257    477.39811  0.012389653  0.011759321         3856 
 3212000   0.72586394    -8.967184    476.95111  0.012374199  0.011753839         3840 
 3213000    0.7459147   -8.9741877     476.2026  0.012350934  0.011748361         3836 
 3214000   0.74188355   -8.9851508    475.76184  0.012335663  0.011742886         3856 
 3215000    0.7535419    -8.969929    476.86645  0.012360457  0.011737415         3857 
 3216000   0.73784376   -8.9829916    476.37962  0.012343999  0.011731945         3856 
 3217000   0.73063437   -8.9784445    475.54287  0.012318487  0.011726476         3839 
 3218000   0.73003795   -8.9655789    476.18334  0.012331244  0.011721008         3833 
 3219000    0.7363928   -8.9783667    476.48736  0.012335284  0.011715546         3848 
 3220000   0.73123286   -9.0110118    475.59449  0.012308346  0.011710083         3833 
 3221000   0.74685301   -8.9957027    475.22341  0.012294924  0.011704625         3870 
 3222000   0.72737735   -8.9761826    476.54937  0.012325403  0.011699175         3838 
 3223000   0.75225836   -8.9791119    476.97062   0.01233247  0.011693722         3820 
 3224000   0.74923457   -8.9850137     477.0001  0.012329407  0.011688279         3840 
 3225000   0.72091539   -8.9962899    476.93497  0.012323901  0.011682835         3820 
 3226000   0.74257397   -8.9787058     476.5767  0.012310826  0.011677392         3820 
 3227000    0.7547757   -8.9889892    475.55703  0.012280679  0.011671943         3876 
 3228000   0.72650966   -8.9579307    476.91768  0.012312001  0.011666506         3862 
 3229000   0.72845658   -8.9929922    475.49486  0.012271469  0.011661074         3828 
 3230000   0.72570269   -8.9899828    476.46319  0.012292652  0.011655648         3827 
 3231000   0.73011103   -8.9666274    477.34851  0.012311681  0.011650221         3831 
 3232000   0.74879497   -8.9682756    476.26664  0.012279977  0.011644796         3838 
 3233000   0.74584108   -8.9919683    476.69082  0.012287113  0.011639378         3801 
 3234000   0.74368094    -9.008116    475.74162  0.012258854  0.011633962         3839 
 3235000   0.73817154   -8.9859036    475.79757  0.012256506  0.011628543         3874 
 3236000   0.73926922     -8.98223    476.25048  0.012264382  0.011623126         3869 
 3237000   0.72726739   -8.9546391    477.41071  0.012290462  0.011617715         3831 
 3238000   0.71734722   -8.9705983    476.30601  0.012258236  0.011612314         3829 
 3239000   0.73586481   -8.9847956    475.94797  0.012245239  0.011606919         3814 
 3240000   0.73051617    -8.973225    476.33815  0.012251496  0.011601523         3765 
 3241000   0.74072914   -9.0052696    475.77664  0.012233278  0.011596126         3836 
 3242000   0.73846089   -9.0033901    475.62863    0.0122257  0.011590727         3835 
 3243000   0.72583465   -8.9998513    475.34082  0.012214534  0.011585334         3834 
 3244000   0.72946973   -8.9868422     475.8944   0.01222499  0.011579943         3845 
 3245000   0.72635371    -8.996824    476.91023  0.012247309  0.011574565         3855 
 3246000    0.7194528   -8.9913289    475.73057  0.012213251  0.011569186         3819 
 3247000    0.7257264   -8.9871257    475.77842  0.012210718  0.011563809         3852 
 3248000   0.71506225   -8.9912065    476.92482  0.012236372  0.011558427         3842 
 3249000   0.73513507   -8.9899082    477.00533   0.01223467  0.011553056         3798 
 3250000   0.73498232   -9.0113239    476.68644  0.012222729  0.011547687         3848 
 3251000   0.73000637   -8.9970441    476.18233  0.012206048  0.011542315         3856 
 3252000   0.72545259    -8.982533    476.19303  0.012202569  0.011536952         3813 
 3253000   0.73724437   -8.9767614    476.28309  0.012201124  0.011531595         3853 
 3254000   0.73225717   -8.9602235    476.72791  0.012208766  0.011526241         3830 
 3255000   0.73347212    -9.003235    475.19775  0.012165841  0.011520886         3884 
 3256000   0.73898091   -8.9991386    476.17373  0.012187084  0.011515533         3840 
 3257000   0.73352283   -9.0064076    475.99681  0.012178815  0.011510179         3871 
 3258000   0.73051021   -8.9889518    475.94734  0.012173812  0.011504831         3845 
 3259000   0.74766008    -8.965874    475.00325  0.012145936  0.011499492         3875 
 3260000   0.72793932   -8.9934481     476.2083  0.012173014  0.011494147         3843 
 3261000    0.7212515   -8.9845099    475.98967  0.012163694  0.011488815         3840 
 3262000   0.75806437   -8.9772193    475.07028  0.012136478  0.011483479         3856 
 3263000   0.75695627   -9.0116552    476.06381  0.012158132   0.01147815         3878 
 3264000   0.73616704    -8.992672    476.70861  0.012170869  0.011472823         3833 
 3265000   0.73269551   -8.9748356    477.03614  0.012175501  0.011467496         3856 
 3266000   0.71355745   -8.9776981    476.71144  0.012163489  0.011462173         3834 
 3267000   0.72920511   -9.0070515    475.04319  0.012117212  0.011456854         3874 
 3268000   0.71773488   -9.0104998    475.84906  0.012134054  0.011451536         3868 
 3269000   0.72024425   -8.9970144    475.27548   0.01211572  0.011446219         3863 
 3270000   0.74004913   -8.9977457    476.37263  0.012139975  0.011440908         3876 
 3271000   0.73794831   -8.9962898    475.98204  0.012126313  0.011435601         3876 
 3272000   0.72599855   -8.9930492    476.05316  0.012124418  0.011430292         3808 
 3273000   0.72251271   -8.9770662    476.60803  0.012134841  0.011424991         3834 
 3274000   0.72890458   -8.9892313    475.68766  0.012107709  0.011419698         3863 
 3275000   0.73100379   -9.0045593    474.92427  0.012084587  0.011414402         3821 
 3276000   0.72467542   -9.0066805    475.45658  0.012094439  0.011409115         3845 
 3277000   0.72514731    -9.002881    475.29912  0.012086744  0.011403825         3820 
 3278000    0.7323104   -8.9941468    476.47916  0.012113056  0.011398538         3830 
 3279000   0.72171176   -8.9858662    476.49018  0.012109642  0.011393249         3825 
 3280000   0.72790116   -9.0131124     475.9034  0.012091042  0.011387975         3828 
 3281000   0.73345245   -8.9829176     475.9416  0.012088327  0.011382702         3825 
 3282000   0.72311415   -8.9982581    476.49203   0.01209862  0.011377424         3826 
 3283000   0.73666989   -9.0213552    475.81782  0.012077821  0.011372151         3832 
 3284000    0.7198613   -8.9983698    475.24325  0.012059563  0.011366878         3838 
 3285000   0.72424346   -9.0079712    476.12911  0.012078364  0.011361616         3869 
 3286000   0.72285644   -9.0051831    476.15551  0.012075358  0.011356353         3818 
 3287000   0.72265087   -8.9904458    476.42647  0.012078554  0.011351092         3828 
 3288000   0.70782527   -9.0292314    475.55997  0.012052919  0.011345828         3851 
 3289000   0.72698663   -9.0081864    475.41892  0.012045681  0.011340567         3861 
 3290000   0.73197348   -9.0200792    474.73578  0.012024716  0.011335312         3823 
 3291000   0.72355356   -9.0015803    475.54121  0.012041457  0.011330071         3863 
 3292000   0.73563745   -8.9982042    476.04616  0.012050581  0.011324825         3835 
 3293000   0.72274716     -9.01059    474.86612  0.012017059  0.011319578         3858 
 3294000   0.71126726   -9.0165331    475.20009   0.01202186  0.011314331         3875 
 3295000   0.71088633   -8.9971008      475.928  0.012036621  0.011309093         3843 
 3296000   0.71901256    -9.000216    475.10068  0.012012052  0.011303861         3871 
 3297000   0.73405252   -9.0082438    476.02664  0.012031813   0.01129863         3856 
 3298000   0.71882612   -8.9917059    475.51241  0.012015171    0.0112934         3857 
 3299000   0.72451126   -9.0002653    476.15298   0.01202771  0.011288171         3841 
 3300000   0.72193525   -8.9843222    476.05722  0.012021647  0.011282955         3860 
 3301000    0.7144611   -8.9984629    475.93027    0.0120148  0.011277742         3848 
 3302000   0.72665492   -9.0014528    476.29613  0.012020395  0.011272525         3851 
 3303000   0.71399019   -9.0119384    476.53637  0.012022817  0.011267313         3835 
 3304000   0.73489223    -9.000734    475.14307  0.011984036  0.011262105         3867 
 3305000   0.73855736   -8.9766452    476.57302  0.012016465  0.011256902         3844 
 3306000   0.73533187   -8.9912872    475.70635  0.011990985  0.011251703         3837 
 3307000   0.71497955   -9.0015359    475.48899  0.011981882  0.011246504         3854 
 3308000   0.73975965   -9.0026556    475.35806  0.011974961  0.011241312         3872 
 3309000   0.72237671   -8.9987684    476.15302  0.011991363  0.011236119         3854 
 3310000   0.71927394   -9.0036137    475.42316  0.011969365  0.011230928         3868 
 3311000   0.72196862   -9.0070565    475.76006  0.011974229  0.011225745         3861 
 3312000   0.73620463   -9.0061673     476.1652  0.011980807  0.011220564         3866 
 3313000    0.7248526    -8.993687    475.62395  0.011963577  0.011215381         3855 
 3314000   0.71073768   -9.0155041    475.62889  0.011960091    0.0112102         3817 
 3315000   0.71102518   -9.0229172     474.1077  0.011918243  0.011205019         3845 
 3316000   0.73697444   -9.0047102    475.58663  0.011951815  0.011199844         3864 
 3317000   0.71680185   -9.0118365    475.46486  0.011945153  0.011194673         3830 
 3318000   0.71889542   -9.0014001    475.47065  0.011941698  0.011189509         3824 
 3319000   0.71796146    -9.026445    475.20067  0.011931322  0.011184341         3878 
 3320000   0.73231505   -9.0077716    475.73817  0.011941219  0.011179179         3843 
 3321000   0.72200902   -8.9791562    475.86055  0.011940694  0.011174025         3880 
 3322000   0.72010706   -8.9909287    475.71518  0.011933453  0.011168872         3855 
 3323000   0.71487279    -9.009952    475.67385  0.011928826  0.011163721         3863 
 3324000   0.72273575   -9.0249088    475.90426  0.011931013  0.011158573         3861 
 3325000   0.71857548   -8.9910002    477.32826  0.011963114  0.011153432         3825 
 3326000   0.72593434   -9.0169129     475.8453  0.011922362  0.011148294         3874 
 3327000   0.73331303   -9.0043771    476.21725  0.011928095  0.011143157         3832 
 3328000   0.71555915   -9.0140708    475.01055  0.011894295  0.011138018         3846 
 3329000   0.71142938   -9.0282315    475.10015  0.011892965  0.011132881         3855 
 3330000   0.72269117   -8.9987085    476.20259  0.011916982   0.01112775         3857 
 3331000   0.71227287   -9.0021354    475.36987  0.011892572  0.011122623         3869 
 3332000   0.70630122   -9.0228503    474.34312  0.011863323  0.011117496         3879 
 3333000   0.70318814   -8.9744677    475.88802   0.01189839  0.011112376         3821 
 3334000    0.7210008   -9.0072025    476.05542  0.011899006  0.011107256         3837 
 3335000   0.71517551   -9.0235865    475.85195  0.011890354  0.011102143         3875 
 3336000   0.70885199   -9.0192991    475.05967  0.011866998  0.011097026         3857 
 3337000   0.72094878   -8.9836561    476.63579  0.011902802  0.011091914         3848 
 3338000    0.7094896   -9.0302821    475.48985  0.011870627   0.01108681         3863 
 3339000   0.71143102   -9.0028816    474.05891  0.011831359  0.011081706         3818 
 3340000   0.73248573   -9.0460024    474.50537  0.011838956  0.011076605         3846 
 3341000   0.71384851   -9.0332651    475.26099   0.01185426  0.011071506         3859 
 3342000   0.70935282   -9.0035817     475.5378  0.011857615   0.01106641         3851 
 3343000   0.71881525    -8.974095    476.29358  0.011872908  0.011061315         3824 
 3344000    0.7145487   -9.0228608    476.18288  0.011866599  0.011056227         3859 
 3345000   0.71375473   -9.0310993    475.76133  0.011852549  0.011051139         3865 
 3346000   0.70563625   -9.0186736    475.23418  0.011835878  0.011046052         3839 
 3347000   0.71423259   -9.0204374    474.97657  0.011825928  0.011040968         3870 
 3348000   0.71709404   -9.0154055    474.75983  0.011817001  0.011035891         3876 
 3349000   0.72357926   -9.0007016    475.98235  0.011843893  0.011030813         3831 
 3350000   0.71780331   -9.0086386    475.26619  0.011822542  0.011025739         3851 
 3351000   0.69722408   -8.9998255    475.35462  0.011821213  0.011020672         3835 
 3352000   0.73106483   -8.9830644    475.39159  0.011818606  0.011015604         3833 
 3353000   0.71856382   -9.0076312     475.9326  0.011828527  0.011010541         3865 
 3354000   0.71410766   -9.0301733    475.16724  0.011805984  0.011005474         3846 
 3355000   0.71470265    -9.013065    476.33347  0.011831432  0.011000411         3826 
 3356000   0.70220746   -9.0159452    475.55447  0.011808564   0.01099536         3856 
 3357000   0.70497267   -9.0384919    474.49221  0.011778677  0.010990305         3862 
 3358000   0.70695046   -9.0149264    475.09528  0.011790135  0.010985252         3879 
 3359000   0.72329615   -9.0083933     474.9939   0.01178411  0.010980208         3859 
 3360000   0.70237405     -8.99802    475.41214  0.011790976  0.010975165         3865 
 3361000   0.70915266   -9.0135494    476.39901  0.011811936  0.010970119         3843 
 3362000   0.71039957   -9.0202694    474.81833  0.011769243  0.010965085         3866 
 3363000   0.72143618   -9.0069018    474.18164  0.011749966  0.010960046         3878 
 3364000    0.7111267   -9.0427273    475.92009  0.011789538  0.010955018         3847 
 3365000   0.71165127   -9.0362273    475.12072  0.011766239  0.010949988         3838 
 3366000   0.70527397   -8.9789018    475.84601  0.011780699  0.010944958         3855 
 3367000   0.70474014   -9.0134754    474.94075  0.011754795  0.010939932         3810 
 3368000   0.72352226   -9.0132627    474.81136  0.011748104  0.010934912         3850 
 3369000   0.70861527   -9.0435928    475.84353  0.011770148  0.010929895         3880 
 3370000   0.70355103   -9.0014554    475.46064  0.011757187  0.010924881         3855 
 3371000   0.72467476   -9.0165489    475.37832  0.011751664  0.010919868         3821 
 3372000   0.71799661   -9.0283939    475.75792   0.01175756  0.010914857         3846 
 3373000   0.70767824   -9.0448029    475.85836  0.011756556  0.010909849         3856 
 3374000   0.71084661   -9.0247965     476.1888  0.011761233  0.010904849         3862 
 3375000   0.72210521    -9.017036    474.32289  0.011711676  0.010899854         3862 
 3376000   0.70824746   -9.0317235     476.0569   0.01175101  0.010894856         3855 
 3377000   0.72924236   -9.0278308    475.42559  0.011731951   0.01088986         3867 
 3378000    0.7128207    -9.024665    476.09665  0.011745033  0.010884866         3852 
 3379000   0.70626961   -9.0268739    475.87045  0.011735978  0.010879883         3835 
 3380000   0.70082878   -9.0325667    474.55874  0.011700166  0.010874893         3853 
 3381000   0.71693923   -9.0180837    475.48515  0.011719539  0.010869912         3854 
 3382000   0.71608491   -8.9883047    476.22872  0.011734396  0.010864933         3834 
 3383000   0.70023578   -9.0387358    475.63792  0.011716374   0.01085996         3850 
 3384000   0.72898318   -9.0344562    474.57566  0.011686753   0.01085498         3853 
 3385000   0.71905793    -9.018124    474.93452  0.011692135  0.010850009         3861 
 3386000    0.7080917   -9.0282401    474.89535  0.011687718  0.010845035         3866 
 3387000   0.70751908   -9.0122877    475.31343  0.011694553  0.010840073         3851 
 3388000   0.71643027    -9.032675      475.132  0.011686639   0.01083511         3833 
 3389000   0.70615348   -9.0123171    475.57363   0.01169405  0.010830153         3868 
 3390000    0.7109971   -9.0116058    475.47736  0.011688234   0.01082519         3861 
 3391000   0.72214326   -9.0278894    475.01328  0.011673383  0.010820233         3854 
 3392000   0.69900448   -9.0324345    475.50896  0.011682119  0.010815287         3876 
 3393000   0.71052085   -9.0147304     474.9502  0.011664952  0.010810342         3887 
 3394000   0.71750495   -9.0278542    474.84919  0.011659035  0.010805393         3875 
 3395000   0.71122848    -9.027188    474.65758  0.011650898   0.01080045         3828 
 3396000   0.72472448    -9.043143    475.15718  0.011659727  0.010795504         3871 
 3397000   0.71251535   -9.0053859    475.23764  0.011658268  0.010790572         3842 
 3398000   0.70673162   -9.0378591    475.36306  0.011657913  0.010785633         3894 
 3399000   0.70848296   -9.0205289    474.09518  0.011623398  0.010780703         3824 
 3400000   0.71522696   -9.0135917    475.56263  0.011655947  0.010775774         3829 
 3401000   0.71099358   -9.0555448    474.74523  0.011632491  0.010770849         3835 
 3402000   0.70434938   -9.0472514    474.41199  0.011620909   0.01076592         3870 
 3403000   0.70719608   -9.0474127    474.48055  0.011619173  0.010761002         3844 
 3404000   0.70924788   -9.0261309     475.2936  0.011635664   0.01075608         3845 
 3405000   0.71060129    -9.028837    475.72003  0.011642683  0.010751164         3866 
 3406000   0.68898815   -9.0138447    475.38155  0.011630983  0.010746249         3859 
 3407000   0.70555349   -9.0184805    474.68959  0.011610645   0.01074134         3874 
 3408000   0.69281826   -9.0209877    474.54831  0.011603783  0.010736432         3864 
 3409000    0.6952844   -9.0209346    475.02853  0.011612118   0.01073153         3835 
 3410000   0.70557778   -9.0246219    474.94109  0.011606576   0.01072663         3865 
 3411000   0.70061437   -9.0565023    474.14286  0.011583672  0.010721733         3883 
 3412000   0.69968483   -9.0299862    474.90404  0.011598868   0.01071684         3891 
 3413000   0.69997814   -9.0176313    474.49044  0.011585371  0.010711945         3849 
 3414000   0.71187985   -9.0445765    474.28647  0.011576998  0.010707055         3875 
 3415000   0.70440179   -9.0335848    474.62141  0.011581782  0.010702167         3838 
 3416000   0.71598464   -9.0305836    475.45517  0.011598731  0.010697286         3840 
 3417000   0.70453065   -9.0292829    475.02519   0.01158485  0.010692403         3840 
 3418000   0.72233436   -9.0339885    474.59785  0.011571042   0.01068753         3894 
 3419000   0.70944652   -9.0351259    474.72376  0.011570726  0.010682655         3831 
 3420000   0.70530944   -9.0400171      475.088  0.011576218  0.010677779         3863 
 3421000   0.72380151   -9.0791084    474.73511  0.011564238  0.010672911         3888 
 3422000   0.70572877   -9.0544449    474.79304   0.01156227  0.010668046         3865 
 3423000    0.7113263   -9.0367093    473.97897  0.011539073  0.010663182         3851 
 3424000     0.708946   -9.0561519    474.07498   0.01153804  0.010658313         3871 
 3425000   0.72409475   -9.0260766    474.47899  0.011544501  0.010653449         3837 
 3426000   0.70389972   -9.0200228    474.85776  0.011550344  0.010648592         3849 
 3427000   0.70588416   -9.0287904    474.86073  0.011547046   0.01064374         3862 
 3428000   0.68452184   -9.0636288    474.74334  0.011540824  0.010638888         3848 
 3429000   0.68554428   -9.0496682    474.99976   0.01154369  0.010634037         3861 
 3430000   0.70799047   -9.0422219    474.68019  0.011532561   0.01062919         3873 
 3431000   0.69676629   -9.0337321    474.69926  0.011529662  0.010624348         3822 
 3432000   0.69969913   -9.0285272    474.90258   0.01153124  0.010619508         3859 
 3433000   0.72291355   -9.0540341     474.7749  0.011524781  0.010614675         3887 
 3434000   0.70782941   -9.0164847    475.40565  0.011536732  0.010609841         3830 
 3435000    0.7025409   -9.0409479     474.3826  0.011508554  0.010605011         3846 
 3436000   0.69461192   -9.0352348    475.80178  0.011539624   0.01060018         3885 
 3437000   0.70319839   -9.0400275    475.00777  0.011517015  0.010595354         3875 
 3438000   0.72012961   -9.0430955    474.97038  0.011512759  0.010590527         3862 
 3439000   0.68872817   -9.0558738    474.81365  0.011505613  0.010585704         3871 
 3440000   0.69235999   -9.0090144    475.11474  0.011509562  0.010580888         3850 
 3441000    0.6800455   -9.0524355    474.71001  0.011496416  0.010576073         3856 
 3442000   0.69352595   -9.0300657    475.03703  0.011500993  0.010571263         3874 
 3443000    0.7074494   -9.0396422    474.74348  0.011490548  0.010566459         3874 
 3444000   0.70502908   -9.0241695    475.15374  0.011497138  0.010561655         3893 
 3445000   0.68021816   -9.0125433    474.89256  0.011487483  0.010556854         3802 
 3446000   0.70506025   -9.0512465    474.32052  0.011470316  0.010552058         3865 
 3447000   0.71074704   -9.0327626    475.19219  0.011488062  0.010547261         3877 
 3448000   0.70087506   -9.0325253    474.19958   0.01146074  0.010542463         3884 
 3449000   0.68218402   -9.0148237    475.00758   0.01147694  0.010537673         3841 
 3450000    0.7069156    -9.049254    475.01892  0.011473887   0.01053289         3844 
 3451000   0.70779512   -9.0427933    474.69958  0.011462851  0.010528105         3864 
 3452000   0.71230052   -9.0351515    474.53934  0.011455662  0.010523322         3859 
 3453000   0.68997691   -9.0477421    475.56105  0.011477002  0.010518535         3860 
 3454000   0.71114742   -9.0397418    475.20476  0.011465083  0.010513754         3869 
 3455000   0.69928531   -9.0522647    474.15659  0.011436483  0.010508978         3861 
 3456000   0.69887471   -9.0432053    474.86677  0.011450298  0.010504206         3866 
 3457000   0.70041547   -9.0314647     475.1445  0.011453681  0.010499431         3864 
 3458000   0.70247704   -9.0534198    474.78472  0.011441698  0.010494663         3863 
 3459000   0.68920052   -9.0571283     475.3739  0.011452585  0.010489899         3856 
 3460000   0.69683671   -9.0388113    474.83428  0.011436278  0.010485133         3849 
 3461000   0.67862187   -9.0663911    475.23822    0.0114427  0.010480371         3850 
 3462000   0.68978991   -9.0341889    475.25259  0.011439741  0.010475615         3864 
 3463000   0.70302772   -9.0465063    474.22852  0.011411794  0.010470862         3858 
 3464000   0.70833134   -9.0365681    474.59131  0.011417228  0.010466111         3871 
 3465000   0.69992063   -9.0364745    474.74143  0.011417543  0.010461364         3884 
 3466000   0.69476315   -9.0697664    473.96345  0.011395544  0.010456615         3873 
 3467000   0.68683527   -9.0338346    475.54319  0.011430228  0.010451875         3847 
 3468000   0.69056738   -9.0457478    475.20101  0.011418709  0.010447136         3867 
 3469000   0.69055264   -9.0449386    474.58209   0.01140055  0.010442397         3880 
 3470000   0.69650413   -9.0565406    474.19695  0.011388015  0.010437666         3894 
 3471000   0.71781086   -9.0432256    474.35804  0.011388602   0.01043293         3849 
 3472000   0.71003553   -9.0459302    474.41362  0.011386656  0.010428197         3901 
 3473000   0.68990086   -9.0286573    475.15144  0.011401081  0.010423468         3847 
 3474000   0.68490927   -9.0514633      474.692  0.011386778  0.010418744         3872 
 3475000   0.69134973   -9.0571773    474.03074  0.011367644  0.010414026         3884 
 3476000   0.71586027   -9.0526398    474.83784  0.011383723  0.010409304         3902 
 3477000   0.69347017   -9.0266937    475.32964  0.011392236  0.010404585         3887 
 3478000   0.69296675   -9.0521464    475.42565  0.011391261  0.010399871         3828 
 3479000   0.69809643   -9.0239096    474.73469  0.011371436  0.010395162         3852 
 3480000   0.69655423   -9.0453536    475.01156  0.011374798  0.010390456         3880 
 3481000    0.7006579   -9.0459371    474.68451  0.011363701  0.010385748         3862 
 3482000   0.67996596   -9.0254099    475.26617  0.011374358  0.010381043         3846 
 3483000   0.67354739   -9.0302762    474.64347  0.011356194  0.010376338         3852 
 3484000   0.68384321   -9.0438508    475.33206  0.011369404   0.01037164         3846 
 3485000   0.68916122   -9.0455082    474.71112  0.011351294  0.010366943         3849 
 3486000    0.6936626   -9.0368012    473.72489  0.011324462  0.010362246         3867 
 3487000   0.68887542   -9.0756528    474.07578    0.0113296  0.010357556         3865 
 3488000   0.69518927   -9.0559216    474.29972  0.011331702  0.010352865         3881 
 3489000   0.68964595   -9.0435649    475.80266  0.011364351   0.01034818         3887 
 3490000    0.7070985   -9.0524023    474.70053  0.011334779  0.010343497         3853 
 3491000   0.68796731   -9.0452442    475.24188  0.011344454  0.010338824         3846 
 3492000   0.69508839   -9.0627266    474.37508   0.01132052  0.010334148         3859 
 3493000   0.70248279   -9.0350512    474.95507  0.011331116  0.010329476         3872 
 3494000   0.70494558   -9.0800054    473.30113  0.011288426  0.010324805         3850 
 3495000   0.68104989   -9.0579525     474.1064  0.011304397  0.010320136         3832 
 3496000   0.69274966     -9.06252    474.47377   0.01130992  0.010315473         3868 
 3497000   0.70100319   -9.0482574     474.5368  0.011308188  0.010310809         3841 
 3498000   0.68775191   -9.0541142    473.60199  0.011282685  0.010306151         3847 
 3499000   0.69018627   -9.0654112    474.58569  0.011302889  0.010301491         3848 
 3500000   0.67831074   -9.0665007    474.62821  0.011300672  0.010296839         3838 
 3501000   0.68527444   -9.0377166    474.99176  0.011306097  0.010292188         3854 
 3502000   0.69032764   -9.0583788     474.6241   0.01129412  0.010287538         3857 
 3503000   0.69592582   -9.0373504    475.91573  0.011321623  0.010282893         3849 
 3504000   0.68647279    -9.038543    474.53495  0.011285553   0.01027825         3869 
 3505000   0.70390802   -9.0602458    474.52619  0.011282125  0.010273609         3862 
 3506000   0.68989097   -9.0510587     474.8064  0.011285568  0.010268964         3870 
 3507000   0.69869141   -9.0422694    475.28112   0.01129363  0.010264334         3849 
 3508000   0.68587685   -9.0599998    475.14006   0.01128706  0.010259702         3871 
 3509000   0.68361163   -9.0485237    475.46666  0.011291599  0.010255071         3875 
 3510000   0.69134212   -9.0525183    474.66221  0.011269283  0.010250449         3836 
 3511000   0.69360693   -9.0628349    474.74439  0.011268024  0.010245822         3897 
 3512000   0.69859069   -9.0477505    474.97038  0.011270178  0.010241206         3887 
 3513000   0.68817364   -9.0402534    474.44454  0.011254496   0.01023659         3877 
 3514000   0.67701132   -9.0482961    474.84852  0.011260874  0.010231976         3865 
 3515000   0.67355658   -9.0474974    474.05859  0.011238942  0.010227365         3878 
 3516000   0.70034351   -9.0676046    474.13544  0.011237567  0.010222752         3872 
 3517000    0.6844911   -9.0735456    474.31652  0.011238663  0.010218143         3881 
 3518000   0.69240257    -9.083608    474.09455   0.01123021  0.010213536         3848 
 3519000    0.6920553   -9.0477295    474.89261  0.011245918  0.010208932         3850 
 3520000   0.68890086   -9.0811406    473.67091    0.0112138  0.010204331         3868 
 3521000   0.70031053   -9.0364347     475.4637  0.011253046  0.010199733         3834 
 3522000   0.69608157   -9.0518008    474.89572  0.011236412  0.010195136         3847 
 3523000    0.6821229     -9.06568    474.72138  0.011229099  0.010190545         3849 
 3524000   0.69728324   -9.0584425    474.38581  0.011217977  0.010185954         3848 
 3525000   0.69128842   -9.0527643    474.21502  0.011210757  0.010181364         3860 
 3526000   0.68178163   -9.0656048     473.8347  0.011198589  0.010176777         3885 
 3527000   0.69008287   -9.0421284    475.12338  0.011225862  0.010172191         3834 
 3528000   0.68391353   -9.0313128     474.6487  0.011211468  0.010167612         3840 
 3529000   0.68884422   -9.0531589    474.83889  0.011212782  0.010163033         3863 
 3530000   0.68310457   -9.0309647    474.71741  0.011206738  0.010158458         3846 
 3531000   0.68013857   -9.0430028    474.41113  0.011196336  0.010153887         3861 
 3532000   0.69479771   -9.0639176    474.18217  0.011187764  0.010149317         3852 
 3533000   0.68686381   -9.0811468    473.82602  0.011176196  0.010144747         3871 
 3534000   0.68863754   -9.0711291    473.35257   0.01116187  0.010140176         3874 
 3535000   0.67354434   -9.0546336    474.59869  0.011188088  0.010135613         3878 
 3536000   0.68443449      -9.0496    475.04759  0.011195503  0.010131055         3863 
 3537000    0.6842919   -9.0424546    474.03716  0.011168532  0.010126495         3874 
 3538000   0.68814009    -9.072245    473.77745  0.011159258  0.010121939         3877 
 3539000   0.68583035    -9.077559     474.4791  0.011172627  0.010117388         3866 
 3540000   0.67316121   -9.0748727     474.2267  0.011163529  0.010112833         3860 
 3541000   0.67229202   -9.0521348    474.39939   0.01116444  0.010108284         3856 
 3542000   0.68652811    -9.075067    474.97251  0.011174772  0.010103739         3873 
 3543000    0.6772487   -9.0573748    474.20477   0.01115356  0.010099197         3869 
 3544000   0.67929508   -9.0695565    474.33531  0.011153483  0.010094655         3865 
 3545000   0.67455601   -9.0630726    473.83598  0.011138598  0.010090118         3892 
 3546000    0.6972709   -9.0682658    474.61373  0.011153735  0.010085585         3832 
 3547000   0.68552984   -9.0539751    475.00983  0.011159896  0.010081052         3813 
 3548000   0.66701268   -9.0690822    474.56718  0.011146354  0.010076526         3871 
 3549000   0.68610875   -9.0841538    474.56727  0.011143216  0.010072001         3868 
 3550000   0.67528705   -9.0766611    474.28113   0.01113336  0.010067478         3828 
 3551000   0.68152536   -9.0473352    474.58382  0.011137328  0.010062955         3850 
 3552000   0.68940259   -9.0444232    474.01414  0.011120827  0.010058436         3845 
 3553000   0.69171751   -9.0508369    474.09922  0.011119693  0.010053923         3855 
 3554000   0.67856624   -9.0579075    474.11896  0.011117027  0.010049408         3865 
 3555000   0.67806208   -9.0698879    474.28077  0.011117693  0.010044897         3821 
 3556000   0.69535053    -9.069061    475.10485  0.011133878   0.01004039         3833 
 3557000   0.67614916   -9.0705356    473.71606  0.011098211  0.010035883         3874 
 3558000   0.67634525   -9.0707278    473.41694  0.011088086  0.010031381         3841 
 3559000   0.69087045   -9.0609422    474.31176  0.011105923  0.010026882         3857 
 3560000   0.68690974   -9.0659749    473.89755  0.011093107  0.010022388         3853 
 3561000   0.67688856   -9.0607132    474.98637  0.011115473  0.010017894         3842 
 3562000   0.69544509   -9.0602096    473.72598  0.011082865  0.010013397         3870 
 3563000   0.67663619   -9.0438555    474.64111  0.011101158  0.010008904         3866 
 3564000   0.68322912   -9.0585905    473.67436  0.011075439  0.010004422         3840 
 3565000   0.67793123   -9.0738811    475.40747  0.011112844 0.0099999383         3849 
 3566000   0.69548097    -9.058359    475.12069  0.011103026 0.0099954502         3864 
 3567000   0.67932493   -9.0660712    473.72067  0.011067206 0.0099909719         3850 
 3568000   0.69268737   -9.0743806    473.67454  0.011063027 0.0099864968         3821 
 3569000   0.68570153   -9.0792056    474.28143  0.011074097 0.0099820189         3841 
 3570000    0.6799678   -9.0521426    473.63434   0.01105589 0.0099775446         3856 
 3571000   0.68821579   -9.0719371    474.20576  0.011066129 0.0099730712         3856 
 3572000   0.69899137   -9.0625122     475.0107   0.01108181 0.0099686046         3874 
 3573000   0.68365996   -9.0557463    474.99773  0.011078406 0.0099641416         3849 
 3574000   0.68375556     -9.05268    473.46094  0.011039473 0.0099596769         3849 
 3575000   0.68552594   -9.0975799    473.43124  0.011035693 0.0099552178         3873 
 3576000   0.68032234   -9.0696715    474.51326  0.011057822 0.0099507624         3852 
 3577000   0.65840766   -9.0952074    473.22922  0.011024816 0.0099463051         3883 
 3578000   0.68601031     -9.10028    475.06934  0.011064592 0.0099418561         3873 
 3579000   0.67892942   -9.0508872    474.17873  0.011040764 0.0099374044         3879 
 3580000   0.68334811   -9.0828382     473.2651  0.011016413 0.0099329581         3846 
 3581000   0.66667855   -9.0595244    473.71648  0.011023841  0.009928516         3871 
 3582000   0.67020224   -9.0641767    473.66968  0.011019674 0.0099240738         3857 
 3583000   0.67864492   -9.0743671     473.6803  0.011016846 0.0099196343         3866 
 3584000   0.67390553   -9.0987724    474.33263   0.01102894 0.0099151963         3895 
 3585000   0.68793202   -9.0797316    473.84221  0.011014463 0.0099107594         3866 
 3586000   0.67423285   -9.0805546    474.51105  0.011026935 0.0099063345         3824 
 3587000   0.66653924    -9.092872    474.44691   0.01102237 0.0099019056         3859 
 3588000   0.66610148   -9.0802146    474.62523   0.01102344 0.0098974808         3841 
 3589000   0.67895848   -9.0899182    474.11642  0.011008554 0.0098930551         3867 
 3590000   0.67504968   -9.0689435    474.85065  0.011022531 0.0098886388         3859 
 3591000   0.66923263   -9.0752732    473.35766  0.010984815 0.0098842213         3888 
 3592000   0.67694633   -9.0586434    474.57404  0.011009977 0.0098798041         3860 
 3593000   0.67122417   -9.0595581     474.2658  0.010999763 0.0098753886         3890 
 3594000   0.68375144   -9.0754521    474.66459  0.011005949 0.0098709752         3861 
 3595000    0.6609208   -9.0523803    474.05627  0.010988787 0.0098665662         3858 
 3596000   0.67173312   -9.0528242    474.69329  0.011000493 0.0098621634         3880 
 3597000   0.67145345   -9.0928208    474.18509  0.010985661 0.0098577609         3854 
 3598000   0.68305792   -9.0851749    473.98487  0.010977971 0.0098533614         3877 
 3599000   0.67872455   -9.0762324    473.93087   0.01097367 0.0098489589         3860 
 3600000   0.67263291   -9.0821831    473.60563  0.010963093  0.009844561         3865 
 3601000   0.68978926    -9.078446      474.182  0.010973387 0.0098401705         3868 
 3602000   0.67318777   -9.0642379    474.79837    0.0109846 0.0098357805         3858 
 3603000   0.67800932   -9.0499776    473.77419  0.010957864  0.009831389         3854 
 3604000   0.67016221   -9.0926674    473.82807  0.010956069 0.0098270075         3861 
 3605000   0.66953238   -9.0792828    473.73916  0.010950975 0.0098226273         3861 
 3606000   0.66976376   -9.0881108    474.25717  0.010959909 0.0098182446         3859 
 3607000   0.66442517   -9.0819652    474.01481  0.010951271 0.0098138694         3860 
 3608000   0.69565708   -9.0819654    474.25347  0.010953748 0.0098094881         3867 
 3609000   0.66055974   -9.0631134    474.18013  0.010949019  0.009805117         3840 
 3610000   0.67301685   -9.0738368    473.58483  0.010932244 0.0098007423         3866 
 3611000   0.66964725   -9.0905345    473.90049  0.010936502 0.0097963787         3881 
 3612000   0.65714013    -9.084906    473.89008  0.010933234 0.0097920166         3881 
 3613000   0.66935236    -9.078535    473.97933  0.010932266  0.009787653         3837 
 3614000   0.68821517   -9.0744598    473.74789  0.010923905 0.0097832889         3858 
 3615000   0.67447693   -9.0786542    473.71775  0.010920188 0.0097789321         3855 
 3616000   0.67941941   -9.0731671     473.2407  0.010906174 0.0097745782         3853 
 3617000   0.68128001   -9.0832265    474.00837  0.010920845 0.0097702262         3859 
 3618000   0.66644877   -9.0614277    474.05725  0.010918953 0.0097658776         3834 
 3619000   0.69212776    -9.078676    473.77963  0.010909543 0.0097615297         3851 
 3620000   0.68529746   -9.0712063    474.20041  0.010916216 0.0097571826         3858 
 3621000   0.66670952   -9.0871954    473.89217  0.010906107 0.0097528399         3884 
 3622000   0.66612862   -9.0741025    473.33029  0.010890169 0.0097484976         3915 
 3623000   0.66248766   -9.0746519    474.01238  0.010902852 0.0097441634         3835 
 3624000    0.6717161   -9.0606688    473.47504  0.010887487 0.0097398298         3856 
 3625000   0.66050257   -9.1079713    473.34968  0.010881602 0.0097354982         3875 
 3626000   0.67720531   -9.0749581     474.1484  0.010896957 0.0097311685         3857 
 3627000   0.65325481   -9.0756424    473.40118  0.010876785 0.0097268377         3873 
 3628000    0.6802204   -9.1086374    472.62835  0.010856035 0.0097225108         3881 
 3629000   0.66368846   -9.0839161    473.27441  0.010867879 0.0097181878         3859 
 3630000   0.69178064   -9.0843116    475.06123  0.010905905 0.0097138698         3889 
 3631000   0.66309379   -9.0676107    475.59846  0.010915231 0.0097095549         3871 
 3632000   0.66173946   -9.1066894    473.98666  0.010875245 0.0097052432         3877 
 3633000   0.66548823   -9.0998311    474.41645   0.01088211 0.0097009348         3888 
 3634000   0.67894364   -9.0840112    473.76586  0.010864196 0.0096966289         3903 
 3635000   0.67672176   -9.0771381    474.69041  0.010882403 0.0096923229         3886 
 3636000   0.67907103   -9.0874904    474.48244  0.010874643 0.0096880171         3907 
 3637000   0.66480216   -9.0862444    473.66027  0.010852815 0.0096837164         3853 
 3638000   0.65326825   -9.0774731    473.92319  0.010855855 0.0096794215         3875 
 3639000   0.66274543   -9.0895024    473.01612    0.0108321 0.0096751228         3881 
 3640000   0.65463658   -9.0732864    472.94119  0.010827408 0.0096708239         3878 
 3641000   0.66138787   -9.0772076    473.79547  0.010843987 0.0096665308         3861 
 3642000   0.66684742   -9.0892175    474.48836  0.010856863 0.0096622406         3847 
 3643000   0.66087165   -9.0905121    473.79019  0.010837913  0.009657954         3858 
 3644000   0.66370204   -9.0646114    474.74853  0.010856855  0.009653666         3851 
 3645000   0.66261026   -9.0912018    473.83441  0.010832977 0.0096493854         3855 
 3646000   0.65426089   -9.0949148    472.58372   0.01080142 0.0096451031         3889 
 3647000   0.67941529   -9.0916279    472.84762  0.010804488 0.0096408257         3883 
 3648000   0.65661519    -9.097191    473.26801  0.010811129 0.0096365484         3862 
 3649000   0.67100104   -9.1198488    473.93661  0.010823436 0.0096322783         3848 
 3650000      0.66617    -9.084638    473.93213  0.010820368 0.0096280053         3897 
 3651000   0.65604494   -9.0849318    472.89704  0.010793779 0.0096237381         3886 
 3652000   0.66425613   -9.0761153    473.91677  0.010814092 0.0096194734         3894 
 3653000   0.66686422   -9.0787293    474.69246  0.010828827 0.0096152124         3880 
 3654000   0.66162637   -9.0919113    474.03107   0.01081078 0.0096109514         3849 
 3655000   0.66886681   -9.0853699    474.09373  0.010809251 0.0096066933         3874 
 3656000   0.66619331   -9.1014481    473.12412  0.010784193 0.0096024384         3878 
 3657000   0.66500143   -9.0921105    474.18143  0.010805338 0.0095981888         3862 
 3658000   0.68539334   -9.0919672    472.60673   0.01076651 0.0095939402         3873 
 3659000   0.65626446   -9.0917412    472.38833  0.010758594  0.009589689         3868 
 3660000   0.66056876    -9.097704    473.62572  0.010783828 0.0095854423         3832 
 3661000   0.67205966   -9.1105283    473.52484  0.010778586 0.0095811933         3897 
 3662000   0.67091363    -9.089594    473.82275  0.010782422 0.0095769538         3891 
 3663000   0.66545869   -9.1079418    472.92467  0.010759047 0.0095727171         3858 
 3664000    0.6664776    -9.086879    473.67509  0.010773178 0.0095684781         3865 
 3665000   0.66833478   -9.0822564     473.7128  0.010771096 0.0095642416         3858 
 3666000   0.66979154   -9.1086199     473.2884  0.010758511 0.0095600093         3892 
 3667000   0.67051893   -9.0734185    474.15822  0.010775344 0.0095557791         3885 
 3668000   0.67009126   -9.0812927    473.72281  0.010762514  0.009551551         3887 
 3669000   0.66963228   -9.0969633     473.2676  0.010749241 0.0095473229         3887 
 3670000     0.661923   -9.1142145    473.06471  0.010741706 0.0095431014         3866 
 3671000   0.67781495   -9.0809227    474.60151  0.010773666 0.0095388827         3871 
 3672000   0.66599969   -9.1003611    474.10753  0.010759521 0.0095346668         3860 
 3673000   0.66290201    -9.092508    473.95875  0.010753216 0.0095304534         3865 
 3674000   0.66687852    -9.094593    474.03782  0.010752083  0.009526243         3871 
 3675000   0.65609947   -9.1126638     474.0117  0.010748565 0.0095220308         3866 
 3676000   0.64926146   -9.1065053    473.45217  0.010732956 0.0095178248         3848 
 3677000   0.65957761   -9.1044848    473.79706  0.010737854 0.0095136184         3883 
 3678000   0.66968212   -9.1179268    473.10054  0.010719153 0.0095094188         3875 
 3679000   0.66493695   -9.1028377    473.79057  0.010731869 0.0095052176         3877 
 3680000   0.66443194   -9.1002355    474.21642  0.010738596 0.0095010178         3884 
 3681000    0.6488492    -9.095899    473.29765  0.010714879 0.0094968193         3891 
 3682000   0.65750838   -9.0788671    473.84125  0.010724272 0.0094926272         3868 
 3683000   0.67629617   -9.0940947    473.98807  0.010724683 0.0094884395         3859 
 3684000   0.64579466   -9.1193182    473.44942  0.010709587 0.0094842512         3901 
 3685000   0.66435637   -9.0873897    473.65385  0.010711304 0.0094800631         3881 
 3686000   0.67484661   -9.1079892    473.47967   0.01070446 0.0094758768         3863 
 3687000   0.65610693    -9.112111    474.30688  0.010720253 0.0094716929         3893 
 3688000   0.65193516   -9.0983822    473.74462  0.010704642 0.0094675136         3846 
 3689000   0.66837787   -9.1144722    472.68373  0.010677775 0.0094633338         3878 
 3690000   0.65804283   -9.0956831    472.95579  0.010681025 0.0094591599         3875 
 3691000   0.65654109   -9.1051402    473.10601  0.010681523 0.0094549899         3863 
 3692000   0.66621317   -9.0819395    473.69935  0.010692022 0.0094508241         3872 
 3693000   0.66759958    -9.107228    474.15881  0.010699495 0.0094466581         3880 
 3694000   0.66724671   -9.0861364    473.02784  0.010671085 0.0094424924         3885 
 3695000   0.66157615   -9.0931759    474.21577  0.010694988 0.0094383284         3852 
 3696000   0.65595055   -9.1131199     473.0764  0.010666405 0.0094341695         3892 
 3697000    0.6612456   -9.1135875     472.7343  0.010655809 0.0094300101         3858 
 3698000   0.65982129    -9.103733    473.73991  0.010675588 0.0094258558         3879 
 3699000   0.64842871   -9.1061598    473.54501  0.010668311 0.0094217009         3866 
 3700000   0.65030951   -9.0972205    473.02618  0.010653743 0.0094175504         3852 
 3701000    0.6566921   -9.0762847    473.32647  0.010657626 0.0094134009         3857 
 3702000   0.65412019    -9.089923    472.64845  0.010639484 0.0094092532         3878 
 3703000   0.67771192    -9.115785    473.62762  0.010658647 0.0094051103         3889 
 3704000   0.64893392   -9.1027524    473.12325  0.010644422 0.0094009672         3884 
 3705000   0.65821715   -9.1091677    473.29579  0.010645429 0.0093968244         3883 
 3706000   0.66544637   -9.0931907    473.71808  0.010652053 0.0093926871         3866 
 3707000   0.65846109    -9.115256    473.29141  0.010639587 0.0093885554         3872 
 3708000    0.6568178    -9.114132    472.84727  0.010626737 0.0093844226         3865 
 3709000   0.66632556   -9.1010792    472.83757  0.010623654 0.0093802959         3871 
 3710000   0.67334588   -9.0969103    473.94551  0.010645676 0.0093761732         3857 
 3711000   0.65681614   -9.1076725    473.00778   0.01062175 0.0093720481         3899 
 3712000   0.65054455   -9.0962023      473.126  0.010621543 0.0093679276         3876 
 3713000   0.66515309   -9.1138537    472.76296  0.010610534 0.0093638059         3872 
 3714000   0.64412708   -9.1113411    473.13733  0.010616077 0.0093596867         3876 
 3715000   0.65214082   -9.1044536    472.56244  0.010600324 0.0093555738         3893 
 3716000   0.65823758   -9.0981514    473.01198  0.010607552 0.0093514593         3889 
 3717000   0.66721118   -9.1068015    473.86836  0.010623898 0.0093473495         3881 
 3718000   0.65951524   -9.1058133    473.24838  0.010607145 0.0093432415         3862 
 3719000   0.64473054   -9.1200141    473.58812  0.010611905 0.0093391367         3884 
 3720000   0.64803653   -9.1141565    473.60434  0.010609416 0.0093350354         3848 
 3721000   0.64629597   -9.0975827    473.43675  0.010602812 0.0093309305         3874 
 3722000   0.66012606   -9.1036982    473.11373  0.010592731  0.009326835         3883 
 3723000   0.65255267   -9.1231207    472.59823  0.010578347 0.0093227376         3881 
 3724000   0.64843429   -9.1107717    472.91493  0.010582593 0.0093186448         3851 
 3725000   0.64719029   -9.0959882    474.02777  0.010604648  0.009314554         3865 
 3726000   0.63905888   -9.1258544    472.78033  0.010573903 0.0093104634         3910 
 3727000   0.65171579   -9.1140373    473.42152  0.010585402 0.0093063769         3859 
 3728000   0.65563313   -9.1104621    473.38908  0.010581837 0.0093022923         3862 
 3729000   0.66676526    -9.107079    474.01398  0.010592965 0.0092982092         3894 
 3730000   0.65741815   -9.1146184    473.26732  0.010573443 0.0092941265         3872 
 3731000   0.65336311   -9.1152492    472.69876   0.01055791   0.00929005         3879 
 3732000   0.65529845   -9.0927664    473.15525  0.010565274 0.0092859742         3863 
 3733000   0.65334637   -9.1103148    473.38384  0.010567547 0.0092819059         3851 
 3734000   0.64682045    -9.113991    472.88916  0.010553677 0.0092778378         3886 
 3735000   0.64976146   -9.1090252    472.89405  0.010550961 0.0092737681         3865 
 3736000   0.64657841    -9.113212    473.73451  0.010566883 0.0092697045         3878 
 3737000   0.66167293   -9.1184082    473.08355  0.010549539 0.0092656398         3897 
 3738000   0.63966355   -9.1027747    472.84339  0.010541363 0.0092615769         3883 
 3739000   0.65607545   -9.1094738    473.88193  0.010561691 0.0092575194         3863 
 3740000   0.65406921   -9.1091926     474.2539  0.010567155 0.0092534638         3888 
 3741000   0.65618112    -9.101735     472.7674  0.010531217 0.0092494099         3874 
 3742000   0.65161327   -9.1009325    473.47449  0.010544149 0.0092453598         3877 
 3743000   0.64480265   -9.1221615    472.95421  0.010529749   0.00924131         3866 
 3744000   0.64751958   -9.0970015    473.87256  0.010547377 0.0092372615         3859 
 3745000   0.66216065   -9.0970789    472.41433  0.010512112 0.0092332185         3902 
 3746000   0.62762028   -9.0966193    472.31033  0.010506993 0.0092291778         3879 
 3747000   0.63600032   -9.1236736    473.17726  0.010523469  0.009225136         3883 
 3748000   0.64219525   -9.1144512    474.49447  0.010549948 0.0092210996         3844 
 3749000   0.64910062   -9.1141024    473.36163  0.010521953 0.0092170674         3870 
 3750000   0.64293132   -9.1178915    472.42918  0.010498426  0.009213037         3870 
 3751000   0.64145278   -9.1042374    472.94941  0.010507185 0.0092090087         3864 
 3752000   0.65452768   -9.1098951    472.69481   0.01049873 0.0092049816         3882 
 3753000   0.64089315   -9.1235404    472.96931  0.010502028 0.0092009558         3882 
 3754000   0.64931265   -9.1053162    473.20388  0.010504437 0.0091969332         3850 
 3755000   0.64871976   -9.1220091    473.07944  0.010498878 0.0091929136         3856 
 3756000   0.65841729   -9.1264109    473.33676  0.010501792 0.0091888931         3894 
 3757000   0.65146126   -9.1020136    473.81912  0.010509696 0.0091848758         3887 
 3758000   0.63706285   -9.1250541    473.41391  0.010497913  0.009180863         3894 
 3759000   0.64041904   -9.1020542    473.31645   0.01049296  0.009176848         3859 
 3760000   0.65009397   -9.1145999    472.69996  0.010476506 0.0091728395         3890 
 3761000   0.64496578   -9.1133659    473.42487  0.010489783 0.0091688273         3898 
 3762000   0.64132734   -9.1317194    472.70034  0.010470945 0.0091648227         3875 
 3763000    0.6576364   -9.1176245    473.14118  0.010477925 0.0091608205         3876 
 3764000   0.66084699   -9.1047438    472.99745  0.010471959 0.0091568206         3841 
 3765000    0.6731958   -9.1244807    473.45965  0.010479408 0.0091528219         3900 
 3766000   0.65643266   -9.1228304    473.67002   0.01048128  0.009148827         3875 
 3767000   0.65273417   -9.1085473    473.86746  0.010482866 0.0091448364         3890 
 3768000   0.65484679   -9.1176367    472.95674  0.010459942 0.0091408432         3891 
 3769000   0.66159785   -9.1305338    473.38552  0.010466647 0.0091368555         3883 
 3770000   0.65546091     -9.11774    474.06157  0.010478815 0.0091328681         3884 
 3771000    0.6498486   -9.1231677    473.18925  0.010456759 0.0091288845         3867 
 3772000   0.64276645   -9.1294241    473.35876  0.010457732 0.0091249005         3891 
 3773000   0.64738529   -9.1047103    473.27345  0.010453076 0.0091209205         3879 
 3774000   0.64010358   -9.1431391    472.90363   0.01044214 0.0091169438         3892 
 3775000    0.6354534     -9.10771    473.32442  0.010448663 0.0091129684         3867 
 3776000   0.65643258    -9.112856     472.2783  0.010422809 0.0091089964         3847 
 3777000   0.65149062   -9.1106843    473.05139  0.010437106 0.0091050261         3897 
 3778000   0.64454554   -9.1085905    473.46707  0.010443512  0.009101055         3860 
 3779000   0.62986879   -9.1250751    472.63992  0.010422508 0.0090970897         3881 
 3780000   0.64304408   -9.1204013    472.43379  0.010415207 0.0090931276         3886 
 3781000   0.63372579   -9.1135833    473.41782   0.01043414 0.0090891698         3869 
 3782000   0.64846821   -9.1169555    472.13312  0.010403074 0.0090852083         3883 
 3783000   0.64150169   -9.1179147    472.73717  0.010413631 0.0090812554         3876 
 3784000   0.65443852   -9.1281171     472.8983  0.010414427 0.0090773021         3866 
 3785000   0.64815131   -9.1288189    473.49395   0.01042479 0.0090733484         3903 
 3786000   0.63788057   -9.1309893    472.62209  0.010402846 0.0090693983         3869 
 3787000   0.65382367    -9.130323    472.81684  0.010404384 0.0090654491         3888 
 3788000   0.64752851   -9.1329889    472.80662  0.010401413 0.0090615044         3874 
 3789000   0.64394187   -9.1145967    473.05381  0.010404104 0.0090575603         3843 
 3790000   0.64466382   -9.1237828    472.72349  0.010394096   0.00905362         3894 
 3791000   0.64545976   -9.1305543    472.58953   0.01038841 0.0090496797         3884 
 3792000   0.66030565   -9.1186893    472.31826  0.010379709 0.0090457445         3890 
 3793000   0.64546148   -9.1347199    472.86879  0.010389067 0.0090418091         3877 
 3794000   0.65570682   -9.1242459    472.38957  0.010375803 0.0090378738         3881 
 3795000   0.64910919   -9.1623596    472.36498  0.010372529 0.0090339421         3900 
 3796000   0.63831668   -9.0950242    473.00892  0.010383933 0.0090300089         3858 
 3797000    0.6442514   -9.1305698    472.06722  0.010360531 0.0090260798         3900 
 3798000   0.64124634   -9.1458843    471.44412  0.010344131 0.0090221535         3875 
 3799000   0.63318952   -9.1361853    472.77785  0.010370664 0.0090182288         3866 
 3800000   0.63672708   -9.1268757    472.57161  0.010363413 0.0090143081         3905 
 3801000   0.64857113   -9.1240974     473.9162  0.010390165 0.0090103885         3869 
 3802000   0.62867049   -9.1265846    472.68888  0.010360531 0.0090064707         3883 
 3803000   0.63308613   -9.1110129    473.08076  0.010366394 0.0090025565         3877 
 3804000   0.65253092   -9.1144469    473.00661  0.010362045 0.0089986451         3905 
 3805000   0.66172804   -9.1301893     472.2377  0.010342481 0.0089947345         3899 
 3806000   0.65161527   -9.1235268    472.46741  0.010344794 0.0089908254         3861 
 3807000   0.63184166   -9.1391205    473.13054  0.010356592 0.0089869179         3864 
 3808000   0.63853015   -9.1275711      473.017  0.010351387 0.0089830153         3896 
 3809000   0.63363384   -9.1380598    473.06118  0.010349636 0.0089791101         3869 
 3810000   0.63770173   -9.1278909    472.78736  0.010340931 0.0089752082         3895 
 3811000   0.64576671   -9.1483303    473.38866  0.010351366 0.0089713083         3881 
 3812000   0.64521234   -9.1578182    472.38241  0.010326653 0.0089674114         3855 
 3813000   0.63953596   -9.1361645    472.64712   0.01032973 0.0089635146         3878 
 3814000   0.63424835   -9.1258897    472.95009  0.010333641 0.0089596256         3880 
 3815000   0.64296476   -9.1577656    472.79284  0.010327498 0.0089557359         3871 
 3816000   0.64655809   -9.1552284    472.67598  0.010322239 0.0089518502         3904 
 3817000   0.63117281    -9.128219    472.96588  0.010325864 0.0089479671         3879 
 3818000   0.64015404   -9.1525243    472.49935  0.010312977 0.0089440873         3887 
 3819000   0.63880678   -9.1291324    472.86829  0.010318327 0.0089402092         3854 
 3820000   0.63152533   -9.1375337    472.87115  0.010315688 0.0089363335         3872 
 3821000   0.64307028   -9.1431998    471.45653  0.010282137 0.0089324579         3879 
 3822000   0.63814826   -9.1384905    472.08415  0.010293131  0.008928585         3851 
 3823000   0.63910555     -9.13954    472.97514   0.01030986 0.0089247113         3871 
 3824000   0.63425979   -9.1333236    473.13303  0.010310605  0.008920847         3868 
 3825000   0.64347385   -9.1510483    472.92012  0.010303271 0.0089169758         3879 
 3826000   0.64085791   -9.1432928    473.01393  0.010302621  0.008913114         3853 
 3827000   0.63224241   -9.1197656    472.91968  0.010297876 0.0089092527         3878 
 3828000   0.64101888   -9.1253836    472.13975  0.010278208 0.0089053922         3889 
 3829000   0.63308676   -9.1458685    472.34462  0.010279982 0.0089015376         3884 
 3830000    0.6408019   -9.1608209    472.56824  0.010282164 0.0088976809         3876 
 3831000   0.63902792   -9.1447767    472.68821  0.010282089 0.0088938284         3875 
 3832000   0.63085129   -9.1452776    473.22596    0.0102911 0.0088899744         3865 
 3833000   0.64031338   -9.1443361     472.1265  0.010264512 0.0088861246         3881 
 3834000   0.64239575   -9.1389347    472.50825  0.010270132 0.0088822813         3856 
 3835000   0.62793936   -9.1451054    471.79243    0.0102519  0.008878439         3881 
 3836000   0.63761636   -9.1307107    473.48009   0.01028589 0.0088745974         3865 
 3837000   0.63713171   -9.1352447     472.7409  0.010267155 0.0088707596         3884 
 3838000   0.63608241   -9.1415912    473.04888  0.010271167   0.00886692         3884 
 3839000   0.63364468   -9.1267069    473.07266  0.010269008  0.008863082         3870 
 3840000   0.64774297    -9.129398    473.00532  0.010264872 0.0088592496         3882 
 3841000   0.62244113   -9.1367981    470.98114  0.010218284 0.0088554163         3886 
 3842000   0.62861389   -9.1439052    472.17445  0.010241507  0.008851585         3880 
 3843000   0.64661379    -9.138204    472.51957  0.010246326 0.0088477598         3869 
 3844000   0.62583369   -9.1440197    472.95498    0.0102531 0.0088439327         3896 
 3845000   0.64491788   -9.1449529    472.20676  0.010234217 0.0088401099         3903 
 3846000   0.63918498    -9.116894    472.70445  0.010242339 0.0088362884         3888 
 3847000   0.63324051   -9.1614337    471.77045  0.010219445 0.0088324723         3883 
 3848000    0.6391996   -9.1421679      472.452  0.010231549 0.0088286579         3899 
 3849000   0.64737094   -9.1393203    472.51337  0.010230219 0.0088248447         3895 
 3850000    0.6382655   -9.1376037     473.1821  0.010242037 0.0088210342         3889 
 3851000   0.62940838   -9.1475629    471.53025  0.010203632 0.0088172246         3874 
 3852000   0.63402575   -9.1336476    471.91151  0.010209231 0.0088134151         3884 
 3853000   0.62785045   -9.1480304    471.69092  0.010201811 0.0088096097         3859 
 3854000   0.64592072   -9.1301486    473.12689  0.010230213 0.0088058059         3841 
 3855000   0.63609344   -9.1271637    472.18944  0.010207294  0.008802006         3874 
 3856000   0.63848793   -9.1490069    471.68275  0.010193697  0.008798207         3902 
 3857000   0.64631943   -9.1477929    472.25558  0.010203431 0.0087944087         3885 
 3858000   0.64956161    -9.104974    472.26913  0.010201079 0.0087906155         3897 
 3859000   0.63694685   -9.1499686    472.13656  0.010195572 0.0087868252         3886 
 3860000   0.63586153   -9.1404495    472.52296  0.010201273 0.0087830369         3869 
 3861000   0.63068248   -9.1532744    472.15411   0.01019067  0.008779248         3873 
 3862000   0.63342171    -9.142427    471.57543  0.010175544  0.008775461         3891 
 3863000   0.63309051   -9.1545345    472.31498  0.010188864 0.0087716774         3891 
 3864000   0.63172498   -9.1532301    472.57986   0.01019194 0.0087678955         3863 
 3865000   0.63410307   -9.1453945     471.7871   0.01017221 0.0087641166         3902 
 3866000   0.63392306   -9.1517136    472.21501  0.010178803 0.0087603341         3884 
 3867000   0.63564212   -9.1599287    472.30991  0.010178216 0.0087565528         3887 
 3868000     0.637408   -9.1375054      472.168  0.010172527 0.0087527785         3859 
 3869000   0.62652345   -9.1429573    471.41807  0.010153745 0.0087490018         3911 
 3870000    0.6406495    -9.164021    471.69817  0.010157153 0.0087452267         3896 
 3871000   0.64593919   -9.1428189    472.17407  0.010164774 0.0087414559         3889 
 3872000   0.62796387   -9.1578214    471.92471  0.010156782 0.0087376897         3883 
 3873000   0.61697873    -9.157741    472.04416  0.010156729 0.0087339248         3887 
 3874000   0.62844767   -9.1244404    472.36434  0.010160995 0.0087301636         3900 
 3875000   0.62518957   -9.1544181    472.07158  0.010152077  0.008726403         3915 
 3876000   0.62011621   -9.1302828    472.26793  0.010153679 0.0087226444         3865 
 3877000   0.62823272   -9.1693918    471.40504  0.010132513 0.0087188878         3890 
 3878000   0.63222157   -9.1442798    470.97635  0.010120688 0.0087151331         3898 
 3879000   0.63043546   -9.1317233    471.96463  0.010139311 0.0087113786         3878 
 3880000   0.65186575   -9.1528938    471.57779  0.010128389 0.0087076295         3891 
 3881000   0.62995566    -9.153399    471.21692  0.010118031 0.0087038828         3898 
 3882000   0.63054912    -9.152959    472.14257  0.010135295 0.0087001372         3867 
 3883000   0.62305913   -9.1348308    471.89901  0.010127457 0.0086963931         3891 
 3884000   0.63913112   -9.1770308    472.26086  0.010132614 0.0086926508         3896 
 3885000    0.6299943   -9.1668144    471.86776  0.010121574 0.0086889102         3880 
 3886000   0.62990982   -9.1562108    472.00634  0.010121941 0.0086851759         3876 
 3887000   0.62945593   -9.1491785    472.15398  0.010122502 0.0086814424         3871 
 3888000   0.63020106   -9.1453955    472.25831  0.010122135 0.0086777083         3897 
 3889000   0.63040088   -9.1553561     471.9538  0.010113007 0.0086739785         3900 
 3890000   0.62620075   -9.1703424    471.93926  0.010110095 0.0086702485         3887 
 3891000   0.63173964   -9.1697266    472.87469  0.010127531  0.008666523         3882 
 3892000   0.62822399   -9.1259071    472.26018  0.010111772  0.008662797         3897 
 3893000   0.63053132   -9.1629831    472.43374  0.010112889 0.0086590764         3885 
 3894000   0.62747581   -9.1488439    473.08765  0.010124286 0.0086553552         3891 
 3895000   0.63244472   -9.1721199    472.09508  0.010100451 0.0086516389         3884 
 3896000   0.61806504   -9.1665814    472.01947  0.010096241 0.0086479252         3892 
 3897000   0.63884309    -9.154535    471.58671  0.010084396 0.0086442109         3883 
 3898000   0.62450306   -9.1366309      471.774  0.010085813 0.0086404997         3886 
 3899000    0.6260066   -9.1483745     473.0588  0.010110686  0.008636791         3904 
 3900000   0.62440595   -9.1423689    472.39193  0.010093845 0.0086330834         3904 
 3901000   0.62860247   -9.1458975    472.16374  0.010086383 0.0086293784         3904 
 3902000   0.62614234   -9.1360733    472.31791   0.01008709 0.0086256768         3883 
 3903000   0.62702013   -9.1583372    471.93058  0.010076236 0.0086219745         3880 
 3904000   0.62588254   -9.1579091    472.42188  0.010084142 0.0086182745         3899 
 3905000   0.61719342   -9.1636419    472.78618  0.010089334 0.0086145781         3906 
 3906000   0.63321924   -9.1549381    472.23176  0.010074922 0.0086108809         3874 
 3907000   0.61387044   -9.1596719    471.16336  0.010049556 0.0086071861         3875 
 3908000   0.62523414   -9.1530374    471.75417  0.010059582 0.0086034961         3895 
 3909000   0.62596067    -9.150711    472.28213  0.010068264 0.0085998066         3872 
 3910000   0.63491816   -9.1490711    473.24551  0.010086222  0.008596121         3892 
 3911000   0.62787311   -9.1561356    472.04442   0.01005805 0.0085924415         3895 
 3912000   0.63161011    -9.154064    472.13376  0.010057382 0.0085887569         3894 
 3913000   0.64162591   -9.1636547    471.67045  0.010044945 0.0085850777         3883 
 3914000   0.63033722    -9.165302    471.80428  0.010045228 0.0085814011         3897 
 3915000   0.62055995   -9.1626551    471.82716   0.01004315 0.0085777261         3882 
 3916000   0.63528474   -9.1554676    472.28942  0.010050422 0.0085740531         3893 
 3917000   0.62704724   -9.1673311    471.00227  0.010020472 0.0085703826         3891 
 3918000   0.62148592   -9.1688035    471.53497  0.010029245 0.0085667125         3906 
 3919000   0.64470189   -9.1683174    472.45471  0.010046243 0.0085630451         3896 
 3920000   0.62220258    -9.175546     472.0602  0.010035293  0.008559379         3892 
 3921000   0.63049117   -9.1714037    472.40263  0.010040012 0.0085557152         3903 
 3922000   0.62540153   -9.1651393    471.98549  0.010028588 0.0085520531         3891 
 3923000   0.63245383   -9.1510843    472.02363  0.010026842 0.0085483908         3870 
 3924000   0.60616087   -9.1455665    472.13821   0.01002672 0.0085447321         3898 
 3925000   0.62151593   -9.1551991    472.14841  0.010024382 0.0085410773         3920 
 3926000   0.63283362    -9.159562    473.27694  0.010045783 0.0085374247         3883 
 3927000    0.6318435   -9.1786507    471.87018  0.010013373  0.008533774         3877 
 3928000   0.64187221   -9.1689334    472.13405  0.010016422 0.0085301272         3905 
 3929000   0.62779338   -9.1543358    472.12614  0.010013705 0.0085264792         3891 
 3930000   0.63033732   -9.1906349    471.26976 0.0099929975 0.0085228349         3907 
 3931000   0.63390017     -9.14195    472.26061   0.01001146 0.0085191948         3875 
 3932000    0.6351674   -9.1652554    471.88665  0.010000989 0.0085155557         3881 
 3933000   0.62209373   -9.1474965    471.04137 0.0099805358 0.0085119157         3898 
 3934000   0.61557672   -9.1439521    471.85094 0.0099951478 0.0085082777         3882 
 3935000    0.6250974   -9.1851061    471.91262 0.0099939139 0.0085046421         3892 
 3936000   0.61810138   -9.1667756    470.87356 0.0099693759 0.0085010144         3871 
 3937000   0.61552355   -9.1727152    471.92071 0.0099890084 0.0084973831         3874 
 3938000   0.61708129   -9.1641085    473.03162   0.01000998 0.0084937537         3897 
 3939000   0.63312403   -9.1690337    471.70235 0.0099793169 0.0084901275         3926 
 3940000   0.61972443   -9.1653199    471.36445 0.0099696373 0.0084865011         3899 
 3941000   0.62115839   -9.1693547    472.31832 0.0099872774 0.0084828776         3864 
 3942000   0.61926295   -9.1519663    472.64193 0.0099915848 0.0084792576         3894 
 3943000   0.61952488   -9.1793187    472.35768 0.0099830434 0.0084756389         3877 
 3944000   0.61138522   -9.1771251    472.19511 0.0099770773 0.0084720207         3852 
 3945000   0.61503892    -9.176251    471.36422 0.0099569967 0.0084684056         3897 
 3946000   0.59702003   -9.1750442    471.75851    0.0099628 0.0084647925         3908 
 3947000   0.61938651   -9.1531968      470.842 0.0099409256  0.008461181         3907 
 3948000    0.6206501   -9.1668795    471.14299 0.0099447609 0.0084575725         3899 
 3949000   0.63057128   -9.1407691    471.48996 0.0099495644  0.008453966         3876 
 3950000   0.63057066   -9.1817495    471.83454 0.0099543151 0.0084503619         3907 
 3951000    0.6197105   -9.1729572    471.64187 0.0099477321 0.0084467601         3896 
 3952000   0.62148683   -9.1604694    471.84237 0.0099494427 0.0084431608         3887 
 3953000   0.61818984   -9.1895553    471.86911 0.0099474896 0.0084395641         3883 
 3954000   0.62041522   -9.1774108    471.25156 0.0099319585  0.008435968         3910 
 3955000   0.62692962   -9.1670614    471.01109 0.0099243803 0.0084323753         3901 
 3956000   0.62464323   -9.1588752    472.21269 0.0099471834 0.0084287861         3886 
 3957000   0.62337098   -9.1656001    472.42011 0.0099490377 0.0084251934         3902 
 3958000   0.62440361   -9.1699411    472.52461 0.0099487243 0.0084216072         3868 
 3959000   0.62613797   -9.1884014    471.59989 0.0099267469  0.008418027         3898 
 3960000   0.62756699   -9.1616155     471.0018 0.0099116541 0.0084144455         3865 
 3961000    0.6140639   -9.1554209    471.87768  0.009927579 0.0084108651         3891 
 3962000   0.62625622   -9.1840997    471.77395 0.0099228915 0.0084072882         3905 
 3963000   0.61371396   -9.1733449    472.09581 0.0099271556 0.0084037093         3909 
 3964000   0.62899471   -9.1845711    471.89477 0.0099204249 0.0084001354         3897 
 3965000   0.62789589   -9.1547996    470.45934  0.009887754 0.0083965662         3914 
 3966000   0.62554316   -9.1830746    472.15148 0.0099208161 0.0083929942         3902 
 3967000   0.61861654   -9.1632668    470.73434 0.0098885459 0.0083894245         3902 
 3968000   0.61989241     -9.16777    471.34385 0.0098988544 0.0083858562         3862 
 3969000   0.63079101   -9.1774753    471.76981 0.0099053038 0.0083822907         3918 
 3970000   0.61574289   -9.1765624    472.18572  0.009911539 0.0083787317         3893 
 3971000    0.6170707   -9.1740952    471.68986 0.0098986372 0.0083751698         3879 
 3972000    0.6177703   -9.1874714    471.19908 0.0098858484 0.0083716119         3902 
 3973000   0.61995118   -9.1808224    472.40471 0.0099086481 0.0083680553         3889 
 3974000   0.62234489   -9.1716834    471.77066 0.0098928591 0.0083645003         3905 
 3975000    0.6370543   -9.1779743    471.39532 0.0098825015 0.0083609463         3904 
 3976000   0.61512514   -9.1893619    471.15912 0.0098750653 0.0083573983         3883 
 3977000   0.61575873    -9.190504    471.21942 0.0098738459 0.0083538523         3886 
 3978000   0.61166825    -9.183066    472.10373 0.0098898887 0.0083503044         3890 
 3979000   0.61389176   -9.1714111     471.6211 0.0098772953 0.0083467593         3904 
 3980000   0.61336536   -9.1444555      472.325 0.0098895519 0.0083432196         3876 
 3981000   0.61321251   -9.1798855     471.7229  0.009874464 0.0083396827         3891 
 3982000   0.60835119   -9.1856872     471.5619 0.0098686149 0.0083361457         3894 
 3983000   0.61227222   -9.1745744    471.98039 0.0098748931 0.0083326093         3892 
 3984000   0.61561258   -9.1780345    471.67357 0.0098659967 0.0083290749         3909 
 3985000   0.61658269   -9.1662148    472.65665 0.0098840788 0.0083255443         3876 
 3986000   0.61106622   -9.1783429    471.63442  0.009860228   0.00832202         3875 
 3987000   0.61252199   -9.1670931    472.13273   0.00986817 0.0083184899         3881 
 3988000   0.62246146   -9.1710978    472.24265 0.0098679925 0.0083149642         3921 
 3989000    0.6077977   -9.1615881    471.67312 0.0098536208 0.0083114425         3908 
 3990000   0.60571817   -9.1876522    471.90278 0.0098559477 0.0083079183         3915 
 3991000   0.62016763   -9.1774392    471.44628 0.0098439465 0.0083044005         3881 
 3992000    0.6116272   -9.1952556    471.33579 0.0098391741  0.008300882         3889 
 3993000   0.61140034   -9.1821019    471.81535 0.0098467181 0.0082973646         3884 
 3994000   0.61291467   -9.1539448    472.07631 0.0098496978 0.0082938493         3866 
 3995000   0.59104173   -9.1892502    471.43902 0.0098339388 0.0082903372         3907 
 3996000   0.61979998   -9.1867657    471.82089 0.0098394414 0.0082868293         3879 
 3997000   0.59045088   -9.1662434    470.70625 0.0098137404  0.008283321         3869 
 3998000   0.59815785    -9.188831    472.76949 0.0098542916 0.0082798161         3907 
 3999000   0.61367553   -9.1615108    471.13931 0.0098178568 0.0082763129         3911 
 4000000   0.61441451   -9.1913723    471.88484 0.0098309341 0.0082728106         3891 
 4001000   0.60971708   -9.1625775    471.11931 0.0098125326 0.0082693085         3874 
 4002000   0.61656441   -9.1896616    471.19695 0.0098116973 0.0082658089         3900 
 4003000   0.58408034   -9.1842542    471.79641 0.0098217256 0.0082623135         3887 
 4004000   0.62459814   -9.1713104    471.58637 0.0098149012 0.0082588182         3890 
 4005000   0.61907301   -9.1793464    472.05875 0.0098222794 0.0082553249         3900 
 4006000   0.60000626   -9.1918414    471.25767 0.0098031633 0.0082518325         3913 
 4007000   0.61179465    -9.178289    471.08109 0.0097970445 0.0082483405         3885 
 4008000   0.61477089   -9.1789716      471.192 0.0097969062 0.0082448571         3898 
 4009000   0.61603045   -9.1668942    471.36641 0.0097980879 0.0082413696         3903 
 4010000   0.58589042    -9.201538    471.05074 0.0097890844 0.0082378862         3898 
 4011000   0.61583228   -9.1685313    470.89777 0.0097834657 0.0082344022         3898 
 4012000   0.61640039   -9.1672294    472.39091 0.0098120411  0.008230923         3892 
 4013000   0.60037267   -9.2000282     471.3677 0.0097883483 0.0082274462         3892 
 4014000   0.61495529   -9.1670939     471.4659 0.0097879485 0.0082239753         3880 
 4015000   0.60950167   -9.1841357     471.1958 0.0097799046 0.0082204995         3887 
 4016000   0.60543745   -9.1777571    471.88826  0.009791838 0.0082170311         3899 
 4017000     0.605494   -9.1855843    470.72626 0.0097652946 0.0082135623         3894 
 4018000   0.61041745   -9.1816297     471.1134 0.0097708935 0.0082100917         3909 
 4019000   0.59878603   -9.1776634    471.49572 0.0097763896 0.0082066257         3903 
 4020000   0.60852196   -9.1792622    471.48333 0.0097737009  0.008203164         3893 
 4021000   0.59479446   -9.1808265    471.64669 0.0097746559 0.0081997037         3902 
 4022000   0.60814347   -9.1935872    471.29062 0.0097648479 0.0081962433         3901 
 4023000   0.60598657   -9.1715426    471.13285 0.0097591526 0.0081927857         3882 
 4024000     0.605338   -9.1744903    472.55892   0.00978626 0.0081893311         3896 
 4025000     0.607696   -9.1991672    471.52458 0.0097624136 0.0081858766         3891 
 4026000   0.60425169   -9.2078213    471.45928 0.0097586372 0.0081824236         3901 
 4027000   0.61244389   -9.2014382    470.85463 0.0097437014 0.0081789725         3889 
 4028000   0.60039133   -9.1789277    471.40596 0.0097526888 0.0081755289         3887 
 4029000   0.59897731   -9.1811827     471.4512 0.0097512038 0.0081720832         3891 
 4030000   0.60758636   -9.1852762    471.49772 0.0097497461 0.0081686408         3885 
 4031000   0.60280634   -9.2036215    470.96901 0.0097363974 0.0081651994         3930 
 4032000   0.60105475   -9.1629691    471.84132 0.0097520114 0.0081617596         3859 
 4033000     0.599615   -9.2018636    471.18715 0.0097360764 0.0081583174         3887 
 4034000   0.62097492   -9.1834183    471.40308 0.0097381234 0.0081548788         3890 
 4035000   0.61774044   -9.1630038    471.70701  0.009741987 0.0081514454         3892 
 4036000   0.60773447    -9.178366    471.77502 0.0097409774 0.0081480144         3922 
 4037000   0.59886404   -9.2033398    470.94881 0.0097215096 0.0081445827         3909 
 4038000   0.61408764   -9.1853232    471.75216  0.009735681 0.0081411518         3889 
 4039000    0.6226889   -9.2045411    470.51699 0.0097077863 0.0081377249         3917 
 4040000    0.5959081   -9.1771876    471.52991  0.009726277 0.0081342979         3908 
 4041000   0.61260163   -9.1920787    471.64988 0.0097263442 0.0081308774         3898 
 4042000    0.6035882    -9.191686    471.17776 0.0097142042 0.0081274622         3876 
 4043000   0.60081964   -9.1760917    471.40167 0.0097164167 0.0081240439         3888 
 4044000   0.61421585   -9.1811685    470.92926 0.0097042792 0.0081206266         3882 
 4045000     0.601999   -9.2031232    471.05484 0.0097044672 0.0081172129         3907 
 4046000    0.6069677   -9.1978827    471.28806 0.0097068723 0.0081138007         3910 
 4047000   0.60877805    -9.158577    471.39596 0.0097066956 0.0081103909         3890 
 4048000   0.61722706    -9.190543    471.62915 0.0097090981 0.0081069843         3886 
 4049000   0.61317596   -9.1901966    471.47126 0.0097034507 0.0081035754         3907 
 4050000   0.59282395    -9.188746    471.42568 0.0097001168 0.0081001705         3892 
 4051000    0.6167811   -9.1976479    470.59125 0.0096805573  0.008096765         3915 
 4052000    0.6016527   -9.1842259    471.70258 0.0097010237 0.0080933623         3918 
 4053000   0.59759253    -9.193687    471.07063 0.0096856368  0.008089958         3910 
 4054000   0.59057804   -9.2084337    471.46455 0.0096913449 0.0080865614         3885 
 4055000   0.61232658   -9.1850566    470.91396 0.0096776399 0.0080831653         3856 
 4056000   0.60760429   -9.2039435    471.24044 0.0096819617 0.0080797705         3881 
 4057000   0.59757662   -9.1993672    471.20242 0.0096787942 0.0080763796         3900 
 4058000   0.60384593   -9.1764623    471.56734 0.0096839029 0.0080729892         3896 
 4059000   0.59623624   -9.1886481    471.35695 0.0096771977 0.0080695994         3901 
 4060000   0.61082813   -9.2098326    470.87668 0.0096649564 0.0080662091         3898 
 4061000   0.60540088   -9.1999018    470.74362  0.009659846 0.0080628241         3912 
 4062000   0.59147931   -9.2147429    470.49532 0.0096523741 0.0080594375         3903 
 4063000   0.61326308   -9.1979171    471.66696 0.0096740291  0.008056053         3898 
 4064000   0.59651599   -9.1882049    470.87645 0.0096554389 0.0080526739         3915 
 4065000   0.59586312   -9.2005747    471.21719 0.0096600491 0.0080492923         3924 
 4066000    0.5813553   -9.1791455    473.05103  0.009695258 0.0080459183         3877 
 4067000   0.58722203   -9.1938648    471.41006 0.0096592505 0.0080425465         3891 
 4068000   0.60190687   -9.1928575    470.44676 0.0096371427 0.0080391708         3882 
 4069000   0.61263338   -9.2027736    470.93987 0.0096448732 0.0080358009         3900 
 4070000   0.60932283   -9.1787724     472.3108 0.0096705733 0.0080324313         3893 
 4071000   0.61159818   -9.1883581    471.69569 0.0096556066 0.0080290665         3884 
 4072000    0.6206463   -9.2074453    471.52635 0.0096497697 0.0080257013         3893 
 4073000   0.59448961   -9.2136765    470.47174 0.0096258234 0.0080223375         3892 
 4074000   0.59934662   -9.1945287    470.89984 0.0096322173 0.0080189764         3906 
 4075000   0.59053175   -9.1969448    471.37777 0.0096396272 0.0080156138         3901 
 4076000    0.5983114    -9.197858    470.37136 0.0096166863 0.0080122582         3909 
 4077000   0.59228503   -9.2298427    470.76756 0.0096224258 0.0080088989         3887 
 4078000   0.59476518    -9.191445    471.60132  0.009637104 0.0080055435         3869 
 4079000   0.60606932   -9.2040254    471.00929 0.0096226462 0.0080021921         3899 
 4080000   0.60543119   -9.1996255     470.6841 0.0096136458  0.007998842         3872 
 4081000   0.60672524   -9.1983661    470.93302  0.009616373 0.0079954913         3915 
 4082000   0.62130054   -9.1999611    470.46281 0.0096044181 0.0079921422         3883 
 4083000   0.60098677   -9.1919262    471.43945 0.0096219987 0.0079887966         3892 
 4084000   0.60911177   -9.2051209    470.25343 0.0095954421 0.0079854527         3887 
 4085000   0.60028391   -9.1968944    471.45716 0.0096176492 0.0079821115         3909 
 4086000   0.59154417   -9.1787181    470.90889 0.0096041135 0.0079787724         3864 
 4087000   0.60342844   -9.2151637    470.42329 0.0095918622 0.0079754347         3895 
 4088000   0.58743823   -9.1981378    471.55971 0.0096126817 0.0079721019         3910 
 4089000   0.58757527   -9.2054153    470.92747 0.0095974458 0.0079687685         3923 
 4090000   0.60967073   -9.1996204     471.1054 0.0095987245 0.0079654381         3921 
 4091000   0.59304271   -9.1974223    471.20796 0.0095984674 0.0079621063         3908 
 4092000   0.60624913   -9.2063734    470.88958 0.0095896379 0.0079587797         3882 
 4093000   0.58429289   -9.2090684    470.15148 0.0095722672 0.0079554548         3904 
 4094000   0.59745812   -9.2014466    470.67745 0.0095806353 0.0079521316         3880 
 4095000   0.58045585   -9.2125939    470.83779 0.0095815586 0.0079488077         3926 
 4096000   0.60340596   -9.2068145    470.52893 0.0095729357 0.0079454885         3888 
 4097000    0.5927789   -9.1899468    471.19986 0.0095842458   0.00794217         3893 
 4098000   0.59526183   -9.2196861    471.14513 0.0095807941 0.0079388554         3907 
 4099000   0.59462495   -9.2048282    471.18036  0.009579173 0.0079355419         3882 
 4100000   0.59282989   -9.2167412    470.90886 0.0095713182 0.0079322275         3877 
 4101000   0.60929325   -9.1990339     470.7762 0.0095662887  0.007928914         3886 
 4102000   0.57313502   -9.2077039    471.00261 0.0095685561 0.0079256031         3918 
 4103000   0.59353156   -9.1974322      471.043 0.0095670444 0.0079222961         3898 
 4104000   0.59226583   -9.1945201    471.15931 0.0095670749 0.0079189893         3881 
 4105000   0.59840841   -9.2084976    470.94173 0.0095603274  0.007915688         3874 
 4106000   0.59576547     -9.19845    471.39726 0.0095672442 0.0079123847         3902 
 4107000   0.60786989   -9.2285933    471.21949 0.0095613078  0.007909083         3912 
 4108000   0.59214865   -9.2084615      470.884 0.0095521746 0.0079057858         3912 
 4109000   0.57235546   -9.1815089    471.22981 0.0095568631 0.0079024906         3908 
 4110000   0.59102284   -9.2143353    470.75795 0.0095449706 0.0078991961         3894 
 4111000   0.59686406   -9.2319815    470.94293 0.0095463986 0.0078959041         3911 
 4112000   0.60677428   -9.2063519    470.60028 0.0095371327 0.0078926136         3909 
 4113000   0.59551974   -9.2075485    471.19873 0.0095469392  0.007889324         3893 
 4114000   0.60088109   -9.2038377    471.80274 0.0095568535  0.007886037         3910 
 4115000   0.58894259   -9.2158498    470.95861 0.0095374364 0.0078827492         3900 
 4116000   0.58989236   -9.1881678    471.62697  0.009548651 0.0078794654         3894 
 4117000   0.59818792   -9.2131595     469.7861 0.0095090701 0.0078761821         3908 
 4118000    0.5886395   -9.2199681    470.32322 0.0095176304  0.007872902         3898 
 4119000   0.60550961   -9.2060561     470.7235 0.0095234178 0.0078696244         3909 
 4120000   0.59091939   -9.2130706    470.99969 0.0095266928 0.0078663479         3904 
 4121000   0.59762147    -9.202864    471.47038 0.0095338991 0.0078630711         3893 
 4122000   0.59174624   -9.1816678    471.39667  0.009530096 0.0078597985         3904 
 4123000   0.58828983   -9.2197125    470.88876 0.0095175188 0.0078565281         3914 
 4124000   0.57881705   -9.2056713    470.85668 0.0095145628 0.0078532577         3906 
 4125000   0.58006483   -9.1915524    470.78484 0.0095108049 0.0078499911         3868 
 4126000   0.58754489   -9.1940584    470.59605 0.0095046868 0.0078467231         3912 
 4127000   0.58435541   -9.2088665    472.26494 0.0095360824 0.0078434594         3881 
 4128000   0.58519284   -9.2089499    470.87838 0.0095057813 0.0078401963         3909 
 4129000   0.60527133   -9.2083194    471.20442 0.0095100594 0.0078369338         3917 
 4130000   0.60040819    -9.201954    471.62045 0.0095161512  0.007833678         3903 
 4131000   0.58831293   -9.2233998    470.86507 0.0094986096  0.007830422         3896 
 4132000   0.59441985   -9.2118397    470.60724 0.0094911108 0.0078271704         3902 
 4133000   0.58092616    -9.217955    470.86542   0.00949402 0.0078239174         3894 
 4134000   0.59230775   -9.2252277    470.36739 0.0094816842 0.0078206652         3893 
 4135000   0.57755181   -9.2037274    470.86797 0.0094894794 0.0078174145         3893 
 4136000    0.5810189    -9.191909    471.65269 0.0095029958  0.007814168         3910 
 4137000   0.59084414   -9.2087392    470.54736 0.0094784336 0.0078109228         3905 
 4138000   0.58794098   -9.2040572    470.59871 0.0094771771  0.007807679         3889 
 4139000   0.59236687   -9.2267572    471.06948 0.0094843658 0.0078044362         3856 
 4140000   0.58592027   -9.2038035    470.80982 0.0094768481 0.0078011968         3889 
 4141000   0.58801599    -9.210778    470.06125 0.0094594954 0.0077979579         3890 
 4142000   0.58300903   -9.2084474    470.73146 0.0094706958 0.0077947204         3926 
 4143000   0.59130008   -9.2012467     470.9693 0.0094731937 0.0077914835         3920 
 4144000   0.59208698   -9.2366443    470.28779 0.0094572031   0.00778825         3924 
 4145000   0.58073968    -9.221414     470.8381 0.0094659851 0.0077850193         3906 
 4146000   0.59076882   -9.2409377    470.77839 0.0094625017 0.0077817877         3918 
 4147000   0.58751405   -9.2145665    470.55918  0.009455815   0.00777856         3897 
 4148000    0.5812972     -9.20286    470.87686 0.0094599177 0.0077753306         3898 
 4149000   0.58948826    -9.189588    471.32676 0.0094666738 0.0077721071         3874 
 4150000   0.58045844   -9.1981534    471.22048 0.0094622585 0.0077688851         3911 
 4151000   0.58593086    -9.218134     470.8693  0.009452929 0.0077656638         3917 
 4152000   0.58501515   -9.2240633     469.8448 0.0094300898 0.0077624442         3892 
 4153000   0.57983814   -9.2170449    470.02465 0.0094314281 0.0077592251         3887 
 4154000   0.58528085   -9.2097953    470.85374 0.0094457899 0.0077560103         3897 
 4155000   0.57865205   -9.2054636    470.70135 0.0094404603 0.0077527953         3913 
 4156000   0.58391685    -9.236998    469.72096 0.0094185306 0.0077495831         3912 
 4157000   0.58585113   -9.2197356     470.8081 0.0094380583 0.0077463745         3908 
 4158000   0.58737927   -9.2215857    471.44758 0.0094486048 0.0077431674         3893 
 4159000   0.58542531   -9.2024528    470.41401 0.0094256234 0.0077399592         3930 
 4160000   0.58449366   -9.2226445    471.14621  0.009438025  0.007736757         3905 
 4161000   0.58121018   -9.2291362    470.72376 0.0094272964 0.0077335526         3907 
 4162000   0.58280606   -9.2130105    470.20847 0.0094147139 0.0077303524         3897 
 4163000   0.59209436   -9.2333133    470.67851 0.0094218613 0.0077271553         3929 
 4164000   0.57689092   -9.2247156     471.3843 0.0094337236 0.0077239547         3910 
 4165000   0.59590066   -9.2051833    470.43839 0.0094125328   0.00772076         3924 
 4166000   0.59327327   -9.2088749    471.08068 0.0094231213 0.0077175673         3901 
 4167000   0.59091373   -9.2274554    469.53343 0.0093899175 0.0077143754         3894 
 4168000   0.58540319   -9.2276765    470.77496 0.0094124872 0.0077111864         3901 
 4169000   0.58983518    -9.210451     471.3411  0.009421546 0.0077079966         3889 
 4170000   0.57040659   -9.2326273    470.84698  0.009409412 0.0077048099         3892 
 4171000    0.5963592   -9.1993305    471.59703 0.0094221415 0.0077016247         3907 
 4172000   0.59311254   -9.2108167    470.69023 0.0094017704 0.0076984421         3906 
 4173000   0.58653025   -9.2230241    469.86309 0.0093829996 0.0076952603         3898 
 4174000   0.59444451   -9.2079188    471.22749 0.0094079917 0.0076920808         3903 
 4175000   0.58278396   -9.2140982    470.50363 0.0093912899 0.0076889017         3869 
 4176000   0.58084429   -9.2424867    470.25791 0.0093841377 0.0076857256         3903 
 4177000   0.57978336   -9.2138547    470.21706 0.0093810761 0.0076825489         3900 
 4178000   0.58863776   -9.2138182    471.16902 0.0093978184 0.0076793722         3910 
 4179000   0.59669968   -9.2389346    470.46235 0.0093814779    0.0076762         3887 
 4180000   0.58229662   -9.2135589    470.64961 0.0093829667 0.0076730319         3908 
 4181000    0.5879587   -9.2252288    470.79825 0.0093836852 0.0076698625         3908 
 4182000   0.58459223   -9.2048175    470.22099 0.0093699385 0.0076666942         3888 
 4183000   0.58916872   -9.2303933    469.91542 0.0093616109 0.0076635321         3889 
 4184000   0.57834044    -9.202502    470.88927 0.0093787697 0.0076603686         3921 
 4185000   0.56904369    -9.202113    470.13561 0.0093615215 0.0076572074         3881 
 4186000   0.57492862   -9.2267854    469.42519 0.0093451424 0.0076540498         3898 
 4187000    0.5876035    -9.225814    470.45734 0.0093634532 0.0076508914         3900 
 4188000   0.57028259   -9.2333211    470.26585 0.0093574071  0.007647733         3918 
 4189000    0.5826581   -9.2354594    470.65342 0.0093628834 0.0076445773         3929 
 4190000   0.59223745   -9.2296947    470.33245 0.0093542651 0.0076414262         3891 
 4191000   0.58332029   -9.2218927    470.54121 0.0093561841 0.0076382746         3893 
 4192000   0.57540551   -9.2349661    470.11207 0.0093454213 0.0076351254         3917 
 4193000   0.57073897   -9.2145985    471.05323 0.0093618973 0.0076319777         3884 
 4194000   0.58456419   -9.2377668    470.43973 0.0093474752 0.0076288315         3899 
 4195000   0.58582742   -9.2294488    469.67145 0.0093299851 0.0076256852         3920 
 4196000   0.58158939   -9.2309472    470.33222 0.0093408845 0.0076225441         3922 
 4197000   0.57959473    -9.219577    470.57304 0.0093434405 0.0076194027         3905 
 4198000   0.58259517   -9.2301099    469.99315 0.0093297037 0.0076162647         3908 
 4199000   0.58606096   -9.2370527    469.96127  0.009326849 0.0076131298         3903 
 4200000   0.58700532   -9.2628365    469.97592  0.009324919 0.0076099922         3894 
 4201000   0.56501793   -9.2287809    469.97984 0.0093227771 0.0076068576         3916 
 4202000   0.57777388   -9.2449818    470.13483 0.0093236323 0.0076037255         3906 
 4203000   0.58125356   -9.2333444    470.38193 0.0093263132 0.0076005964         3921 
 4204000    0.5757303   -9.2408761    470.95783 0.0093355103 0.0075974695         3913 
 4205000    0.5756972   -9.2272093    469.49769 0.0093043537 0.0075943426         3905 
 4206000   0.57805112   -9.2304346    470.00782 0.0093122487 0.0075912198         3887 
 4207000   0.57238201   -9.2408998    469.84446 0.0093067994  0.007588096         3903 
 4208000   0.58311468   -9.2275417    471.05448 0.0093285504 0.0075849735         3902 
 4209000   0.58414979   -9.2312962    470.28432 0.0093110858  0.007581852         3897 
 4210000    0.5902553   -9.2343934    469.86377 0.0093005496 0.0075787313         3882 
 4211000   0.58095365   -9.2354796    470.11285 0.0093032702 0.0075756142         3928 
 4212000    0.5834255   -9.2162957    470.18592 0.0093025071 0.0075725011         3896 
 4213000   0.57683005     -9.22563    469.93433 0.0092953226 0.0075693893         3898 
 4214000   0.57827119   -9.2512083    470.08087 0.0092960147 0.0075662776         3923 
 4215000   0.58103081   -9.2425913    469.70182 0.0092863151  0.007563167         3849 
 4216000   0.57223615   -9.2248019    470.24131  0.009294776 0.0075600594         3888 
 4217000   0.57317774   -9.2150823    469.60859 0.0092800687 0.0075569524         3928 
 4218000   0.57169871   -9.2256201    470.97162 0.0093047974 0.0075538475         3908 
 4219000   0.57380797   -9.2261143    470.11402 0.0092856526 0.0075507458         3913 
 4220000   0.57692721   -9.2367687    469.63325 0.0092739584 0.0075476445         3905 
 4221000    0.5671385   -9.2246968    470.03814 0.0092797549 0.0075445441         3902 
 4222000   0.56936503   -9.2288785    470.21121  0.009280973 0.0075414467         3899 
 4223000   0.58241657   -9.2589166    469.64986 0.0092676979   0.00753835         3928 
 4224000   0.57222554   -9.2307955    470.04667 0.0092733323 0.0075352547         3905 
 4225000   0.58963958   -9.2534512     470.5119 0.0092803136  0.007532162         3896 
 4226000   0.57077943   -9.2446013    470.09303 0.0092698579   0.00752907         3905 
 4227000   0.56233548   -9.2140825    470.42125 0.0092741355 0.0075259809         3885 
 4228000   0.56946773   -9.2214449     471.0906 0.0092851348 0.0075228919         3894 
 4229000    0.5842455   -9.2416616    470.55454  0.009272376 0.0075198039         3900 
 4230000   0.57223184   -9.2411811    469.89897 0.0092572688 0.0075167179         3906 
 4231000    0.5744904   -9.2250316    469.95817 0.0092562469 0.0075136353         3902 
 4232000   0.57473339   -9.2255325    470.36382 0.0092620474 0.0075105554         3906 
 4233000   0.56635912   -9.2179209    469.67816 0.0092463612  0.007507474         3888 
 4234000   0.57018489   -9.2357969    470.47929 0.0092599451 0.0075043969         3903 
 4235000   0.58273166   -9.2421188    469.99616 0.0092482519 0.0075013221         3909 
 4236000   0.56036805   -9.2342565    470.57259 0.0092574085 0.0074982463         3932 
 4237000   0.57623851   -9.2382626    469.68174 0.0092377025 0.0074951731         3915 
 4238000   0.57132489   -9.2417291    470.63729  0.009254312 0.0074921023         3886 
 4239000    0.5735979   -9.2317849    469.81867 0.0092360359 0.0074890317         3883 
 4240000   0.57644788   -9.2447842    470.15458 0.0092404595  0.007485964         3901 
 4241000   0.56831597   -9.2345266    470.74857 0.0092499522 0.0074828997         3912 
 4242000   0.56931041   -9.2266961    470.75521 0.0092479021 0.0074798376         3921 
 4243000   0.56170233   -9.2162644    469.95652 0.0092300362 0.0074767755         3894 
 4244000   0.56897116   -9.2397794    470.18223 0.0092322933  0.007473714         3915 
 4245000   0.57782548   -9.2448438    469.91731 0.0092249177 0.0074706551         3936 
 4246000   0.56597385   -9.2311925    470.03771 0.0092251081 0.0074675966         3931 
 4247000   0.58267808   -9.2482742    470.31049 0.0092282884 0.0074645379         3914 
 4248000   0.58343025   -9.2435796    469.92722 0.0092185973 0.0074614836         3923 
 4249000   0.57266002   -9.2450579    470.25777 0.0092229108 0.0074584325         3891 
 4250000   0.57945537   -9.2337701    469.79811 0.0092117277 0.0074553802         3895 
 4251000   0.56723998    -9.243019    470.48115 0.0092229504 0.0074523305         3909 
 4252000   0.56862803   -9.2207308       470.74 0.0092258545 0.0074492825         3893 
 4253000    0.5753754   -9.2332118    470.48392 0.0092186675 0.0074462378         3894 
 4254000    0.5656077   -9.2384533    470.26115 0.0092121365 0.0074431916         3904 
 4255000   0.58190317   -9.2353192    470.31633 0.0092110524 0.0074401496         3903 
 4256000   0.57214207   -9.2532699    469.66765 0.0091961868 0.0074371111         3906 
 4257000   0.55394343   -9.2508582    470.03068  0.009201133 0.0074340722         3903 
 4258000   0.58071046   -9.2414297    470.78652 0.0092137646 0.0074310354         3915 
 4259000   0.56890607   -9.2410663    469.00009 0.0091766473 0.0074279979         3916 
 4260000   0.56241664    -9.245264    469.58181 0.0091858726 0.0074249668         3895 
 4261000   0.56578318   -9.2463516    470.15945  0.009195014 0.0074219373         3909 
 4262000   0.56165084   -9.2649477    470.26939 0.0091950061 0.0074189047         3907 
 4263000   0.57183712   -9.2543042    470.84302 0.0092040625 0.0074158765         3897 
 4264000   0.56662471   -9.2484508    469.92889 0.0091840386 0.0074128483         3900 
 4265000   0.55850567   -9.2327131    469.94274  0.009182156 0.0074098227         3900 
 4266000   0.56342683   -9.2287693    469.65152 0.0091743147 0.0074067988         3904 
 4267000    0.5543271   -9.2520955    470.13372  0.009181582 0.0074037771         3908 
 4268000   0.56995419   -9.2306524    469.59626 0.0091689366 0.0074007581         3909 
 4269000   0.56260648   -9.2534208    469.82207 0.0091711968 0.0073977401         3903 
 4270000   0.56625187   -9.2367956    469.02573 0.0091535076 0.0073947198         3903 
 4271000   0.56588664     -9.23995    469.96638 0.0091697179 0.0073917073         3906 
 4272000   0.57021724   -9.2425519    470.21868  0.009172493 0.0073886944         3900 
 4273000   0.56690072   -9.2348785    470.03072 0.0091666808  0.007385682         3909 
 4274000   0.56788066   -9.2448407    469.46343  0.009153475 0.0073826685         3920 
 4275000   0.56861767   -9.2534447    469.85995 0.0091590634 0.0073796601         3903 
 4276000   0.57297439   -9.2595478    469.77147  0.009155197  0.007376654         3916 
 4277000   0.56696826   -9.2381478    469.54556 0.0091486548 0.0073736478         3883 
 4278000   0.55948431   -9.2316224    469.22861 0.0091403423 0.0073706428         3891 
 4279000   0.55831186   -9.2473342    469.65747 0.0091465583 0.0073676407         3909 
 4280000   0.56914585   -9.2514666    469.77894 0.0091467862 0.0073646389         3912 
 4281000   0.56456076   -9.2469188      469.027 0.0091300124 0.0073616381         3916 
 4282000   0.56797903   -9.2528273    470.71959 0.0091608202 0.0073586388         3915 
 4283000   0.56825409   -9.2506929    469.94851 0.0091436787 0.0073556408         3911 
 4284000   0.56673456   -9.2594305    470.08885 0.0091442743 0.0073526484         3914 
 4285000   0.56151778   -9.2466571    470.18255 0.0091439624 0.0073496539         3913 
 4286000   0.56987437   -9.2521911    469.33856 0.0091254193 0.0073466627         3889 
 4287000   0.57118217   -9.2554053    469.59896 0.0091283523 0.0073436754         3893 
 4288000   0.56400816   -9.2495896    470.79962 0.0091495572 0.0073406854         3906 
 4289000   0.55333263   -9.2445584    469.97631 0.0091314274 0.0073376969         3916 
 4290000   0.57543687   -9.2512394    468.80274 0.0091065023 0.0073347133         3918 
 4291000   0.56046013   -9.2715869     469.4526 0.0091170006 0.0073317308         3902 
 4292000   0.56468064   -9.2489278    469.91659 0.0091238853 0.0073287492         3901 
 4293000   0.56913035   -9.2464757    469.29149  0.009109626 0.0073257684         3913 
 4294000   0.57321141   -9.2516331    469.92041   0.00911971  0.007322792         3890 
 4295000   0.57350385   -9.2298208    469.85916  0.009116398 0.0073198157         3894 
 4296000   0.57470224   -9.2487673    469.88027 0.0091146856 0.0073168429         3927 
 4297000   0.56809444   -9.2357335    470.45648 0.0091237391 0.0073138705         3906 
 4298000   0.56753985   -9.2671397    469.42525 0.0091016219 0.0073108997         3904 
 4299000   0.55514046   -9.2501703    469.55418  0.009102004 0.0073079289         3886 
 4300000   0.56657414   -9.2401361    469.94717 0.0091075032 0.0073049608         3906 
 4301000    0.5700522   -9.2633907    469.40362 0.0090948543 0.0073019964         3902 
 4302000   0.56217897    -9.237354     469.9279  0.009102896 0.0072990319         3884 
 4303000   0.55523857   -9.2533776    469.50022 0.0090924978 0.0072960669         3909 
 4304000   0.56254834   -9.2528869    469.91532 0.0090984224 0.0072931055         3912 
 4305000   0.55378927   -9.2649244     469.3701 0.0090857549 0.0072901447         3927 
 4306000   0.56282429   -9.2574301    469.61918 0.0090884653 0.0072871887         3916 
 4307000   0.56904913   -9.2590638    469.64916 0.0090869352 0.0072842334         3921 
 4308000   0.56823457     -9.25669    469.55997 0.0090831006 0.0072812776         3914 
 4309000   0.55759318    -9.269147    469.47711 0.0090793901 0.0072783222         3910 
 4310000   0.55072145   -9.2598845    469.10976  0.009070181 0.0072753688         3908 
 4311000   0.54944221   -9.2587071    469.50177 0.0090756548 0.0072724173         3902 
 4312000   0.55733867    -9.253133    469.36507 0.0090709082 0.0072694698         3910 
 4313000   0.56482655   -9.2633942    470.82397 0.0090969931 0.0072665229         3911 
 4314000   0.56720083   -9.2702214    469.69611 0.0090730975 0.0072635756         3917 
 4315000   0.57703311   -9.2651547     470.0444 0.0090777211 0.0072606311         3888 
 4316000   0.56103783   -9.2620543    470.20735 0.0090787642 0.0072576869         3895 
 4317000   0.56299862   -9.2522559    469.86085 0.0090699725 0.0072547475         3904 
 4318000   0.56307698   -9.2596006    469.69388 0.0090646496 0.0072518072         3893 
 4319000   0.56276051   -9.2691222    470.22827 0.0090728617 0.0072488704         3911 
 4320000   0.56359368    -9.269869    469.11575 0.0090493007 0.0072459346         3902 
 4321000   0.55656339   -9.2509718    469.86917 0.0090617367 0.0072429983         3910 
 4322000   0.56189419   -9.2692471    469.82372 0.0090587637 0.0072400628         3919 
 4323000   0.54949613   -9.2557972    470.09708 0.0090619377 0.0072371309         3911 
 4324000   0.56709566   -9.2772354    469.15719 0.0090417281 0.0072342037         3922 
 4325000   0.55819695   -9.2610871    469.38067 0.0090439436  0.007231275         3900 
 4326000     0.563748   -9.2627803    469.77806  0.009049508 0.0072283482         3904 
 4327000   0.56177056   -9.2559611    469.47376 0.0090415562 0.0072254243         3924 
 4328000   0.56116592   -9.2617007    469.65079 0.0090428756 0.0072224994         3906 
 4329000   0.57007845   -9.2556443    469.71683  0.009042058 0.0072195757         3918 
 4330000   0.55805192   -9.2638202    469.74289 0.0090404712 0.0072166543         3903 
 4331000   0.55084677   -9.2776626    468.49986 0.0090144666  0.007213733         3907 
 4332000   0.57098326   -9.2636939    469.25854 0.0090269802 0.0072108136         3893 
 4333000   0.57193057   -9.2486359     469.7371 0.0090341007 0.0072079001         3881 
 4334000   0.55259793   -9.2723582    469.60742 0.0090295228 0.0072049867         3908 
 4335000   0.55684407   -9.2544284    469.81365 0.0090314043 0.0072020748         3908 
 4336000   0.55192295   -9.2410626    469.19907 0.0090175098  0.007199162         3919 
 4337000   0.56160859   -9.2557717    469.22099 0.0090158517 0.0071962541         3873 
 4338000   0.55782594   -9.2745431     469.5265 0.0090196424 0.0071933455         3910 
 4339000   0.56800007   -9.2714028    468.31207 0.0089942396 0.0071904407         3910 
 4340000   0.55638925   -9.2458057    469.89727  0.009022605 0.0071875363         3913 
 4341000   0.57137212    -9.265769    469.31312 0.0090093128 0.0071846346         3925 
 4342000    0.5658543   -9.2638361     469.7726 0.0090160563 0.0071817333         3886 
 4343000   0.56030424   -9.2688195    469.31034 0.0090051106 0.0071788332         3910 
 4344000   0.55197034     -9.24464    469.60985 0.0090087833 0.0071759365         3904 
 4345000    0.5510848   -9.2675389    470.30036 0.0090199532 0.0071730407         3912 
 4346000   0.54859159   -9.2651673    469.59319 0.0090043179 0.0071701463         3893 
 4347000   0.55991801   -9.2669209    470.19903 0.0090138607 0.0071672537         3928 
 4348000   0.56723104   -9.2625906    469.93923 0.0090068083 0.0071643634         3909 
 4349000   0.55616483   -9.2576515    469.60726 0.0089983762 0.0071614729         3930 
 4350000   0.54625293   -9.2668362    469.41785  0.008992679 0.0071585838         3912 
 4351000   0.54772561   -9.2623721    470.02096 0.0090021635 0.0071556972         3892 
 4352000   0.55591369   -9.2689647    468.98983 0.0089803506 0.0071528123         3915 
 4353000   0.55291008    -9.272295    469.47091 0.0089874973 0.0071499286         3894 
 4354000   0.56369499   -9.2732783    469.77238 0.0089912032  0.007147046         3914 
 4355000   0.55378041    -9.290313    469.12455 0.0089767423 0.0071441624         3902 
 4356000     0.536527   -9.2540855    469.28763 0.0089778014 0.0071412831         3898 
 4357000   0.55312221   -9.2725252     469.2299 0.0089746366 0.0071384046         3925 
 4358000    0.5556876   -9.2793114    470.45862 0.0089960727 0.0071355286         3908 
 4359000   0.56394864   -9.2520243    468.79447 0.0089621945 0.0071326535         3914 
 4360000   0.55387988   -9.2435101    469.39973 0.0089717073 0.0071297811         3917 
 4361000   0.55133134   -9.2508902    468.53895 0.0089532017 0.0071269105         3913 
 4362000   0.56107092   -9.2555855     469.0413 0.0089607463 0.0071240421         3908 
 4363000   0.56083315   -9.2819447     470.1224 0.0089793415 0.0071211723         3902 
 4364000   0.54942016   -9.2678854    469.47966 0.0089650103 0.0071183069         3910 
 4365000    0.5539577    -9.284244     468.5158 0.0089445551 0.0071154418         3910 
 4366000   0.56834426   -9.2697116    469.32204 0.0089578952 0.0071125775         3900 
 4367000   0.54886374   -9.2403199    469.62903 0.0089617019 0.0071097144         3893 
 4368000   0.55692495   -9.2797619    469.35949 0.0089545081 0.0071068552         3907 
 4369000   0.55015107   -9.2609609    469.23102 0.0089500081 0.0071039977         3924 
 4370000   0.56287471   -9.2424378    469.24844 0.0089482922 0.0071011407         3909 
 4371000   0.56186408   -9.2712222    470.35507 0.0089673428 0.0070982877         3919 
 4372000   0.55042048   -9.2574427    469.79027 0.0089545263 0.0070954343         3907 
 4373000   0.55084291   -9.2778901    468.97174 0.0089368804 0.0070925799         3914 
 4374000   0.54537959   -9.2794695    469.11687 0.0089376023 0.0070897306         3893 
 4375000   0.55063899   -9.2830647    468.86005 0.0089306677 0.0070868804         3926 
 4376000   0.55707377   -9.2818971    469.15644  0.008934271 0.0070840331         3916 
 4377000   0.56002387   -9.3073915    469.77384 0.0089439846 0.0070811868         3898 
 4378000   0.55023976   -9.2879745    468.94622 0.0089261882 0.0070783407         3915 
 4379000   0.54077653   -9.2758887    468.41918 0.0089141201 0.0070754983         3907 
 4380000   0.55400396   -9.2640413    469.35501 0.0089298899 0.0070726571         3924 
 4381000   0.56678574   -9.2644791    469.47032 0.0089300448 0.0070698181         3907 
 4382000   0.55910402   -9.2636681    469.30741  0.008924909 0.0070669801         3921 
 4383000     0.540197    -9.284469    469.40985 0.0089248202 0.0070641425         3913 
 4384000   0.54475288   -9.2655861    468.87625 0.0089126416 0.0070613059         3885 
 4385000   0.55684173   -9.2763813    469.15401 0.0089158876 0.0070584721         3894 
 4386000   0.55751234   -9.2674373    469.29271 0.0089164901 0.0070556398         3924 
 4387000   0.54921592   -9.2585238    469.56665 0.0089196614 0.0070528094         3901 
 4388000   0.54134796   -9.2499439    469.51057 0.0089165636 0.0070499802         3911 
 4389000   0.55978018   -9.2784288    470.59344 0.0089350922  0.007047151         3915 
 4390000   0.55543539    -9.291358    468.61269 0.0088954574 0.0070443226         3905 
 4391000    0.5543805   -9.2751009    469.52563 0.0089107574 0.0070414967         3901 
 4392000   0.55690085   -9.2705744    469.36748 0.0089057277  0.007038674         3915 
 4393000   0.54568262   -9.2727066    469.02683 0.0088972385 0.0070358508         3900 
 4394000   0.54162317   -9.2729148     469.3702 0.0089017259 0.0070330294         3897 
 4395000   0.55317941   -9.2804555    468.85887 0.0088900051 0.0070302129         3927 
 4396000   0.53714238   -9.2840305    469.87616 0.0089072671  0.007027395         3918 
 4397000   0.54217984   -9.2572214    469.51904 0.0088984732  0.007024577         3898 
 4398000   0.55560757   -9.2783448    469.63149 0.0088985805 0.0070217632         3898 
 4399000   0.55446193   -9.2785925    469.28121 0.0088899221 0.0070189499         3921 
 4400000   0.55166947    -9.284368    469.17557  0.008885901  0.007016137         3902 
 4401000   0.54679576   -9.2673296     469.4482 0.0088890442 0.0070133266         3898 
 4402000   0.54396462   -9.2836642    468.67772 0.0088724391 0.0070105195         3897 
 4403000   0.53685684   -9.2779251    468.92261 0.0088750589 0.0070077145         3899 
 4404000   0.54538942   -9.2909888    469.53445 0.0088846209 0.0070049097         3905 
 4405000   0.55410089    -9.278895    469.84974 0.0088885687 0.0070021061         3886 
 4406000   0.55095366   -9.3025889    469.03591 0.0088711588 0.0069993041         3922 
 4407000   0.54705235   -9.2854366    469.30928  0.008874315 0.0069965023         3924 
 4408000   0.53768931   -9.2675851    470.02919 0.0088859119 0.0069937028         3897 
 4409000    0.5442607   -9.2805298    469.28492 0.0088698291 0.0069909052         3903 
 4410000   0.54718974     -9.28371    469.42951   0.00887055   0.00698811         3911 
 4411000   0.54800902   -9.2717662    468.40759 0.0088492328 0.0069853181         3922 
 4412000   0.55499955   -9.2848661    469.54366  0.008868685 0.0069825234         3914 
 4413000   0.54762001   -9.2774458    468.90961 0.0088547022 0.0069797314         3897 
 4414000   0.54135441   -9.2636738    469.35658 0.0088611347  0.006976943         3891 
 4415000   0.54313615   -9.2898486    469.40062 0.0088599588 0.0069741513         3906 
 4416000   0.55376655   -9.2674466    469.03984 0.0088511443 0.0069713645         3890 
 4417000   0.54324707   -9.2819414     469.5513 0.0088587899 0.0069685801         3899 
 4418000   0.54128537   -9.2833309    469.74886 0.0088605111  0.006965795         3889 
 4419000    0.5415072   -9.2839761    469.54386 0.0088546403 0.0069630117         3923 
 4420000   0.54672808   -9.2726789    468.64941 0.0088357733 0.0069602306         3925 
 4421000   0.53979115   -9.2756096    468.90952 0.0088386775 0.0069574498         3884 
 4422000   0.53966831   -9.2719816    469.67743 0.0088511502 0.0069546698         3885 
 4423000   0.55282729   -9.2767705    468.95557 0.0088355485 0.0069518922         3920 
 4424000   0.54686231   -9.2918158    469.33363 0.0088406727 0.0069491144         3919 
 4425000   0.53705398   -9.2852384    469.02248 0.0088328151 0.0069463418         3906 
 4426000   0.55370419   -9.2700523     468.7586 0.0088258511 0.0069435679         3889 
 4427000   0.54728265   -9.2830653    469.67541 0.0088411154  0.006940798         3914 
 4428000   0.53769335    -9.291875    469.59356 0.0088375783 0.0069380297         3904 
 4429000    0.5347576   -9.2822562    469.27252 0.0088295424 0.0069352615         3920 
 4430000   0.54663744   -9.2847472     468.5971 0.0088148438  0.006932495         3934 
 4431000   0.53654387   -9.2867099    469.43364 0.0088285873 0.0069297317         3925 
 4432000   0.54141039   -9.3013649    468.58383 0.0088106165  0.006926968         3899 
 4433000   0.54190347   -9.2884585    468.52166 0.0088074603 0.0069242052         3917 
 4434000   0.52813952   -9.3004043    469.09059 0.0088161666 0.0069214449         3914 
 4435000   0.54800187   -9.2901821    469.10839 0.0088145132 0.0069186851         3916 
 4436000   0.53428395   -9.2842836    468.70401 0.0088049295 0.0069159312         3912 
 4437000   0.54172291   -9.2916599    468.24852 0.0087943903  0.006913177         3928 
 4438000   0.54972741   -9.2795588    469.68206 0.0088193266 0.0069104214         3911 
 4439000    0.5427596   -9.2668817    469.25117 0.0088092508 0.0069076695         3900 
 4440000   0.54972476   -9.2889812     469.2738 0.0088076914  0.006904919         3914 
 4441000   0.54545475   -9.2896877    468.51226 0.0087914183 0.0069021686         3925 
 4442000    0.5399443   -9.2992591     468.7416 0.0087937416 0.0068994186         3920 
 4443000   0.54164455   -9.2904646    469.07472 0.0087980104 0.0068966706         3916 
 4444000    0.5248664    -9.284922    468.36875 0.0087827924 0.0068939249         3918 
 4445000    0.5389731   -9.2810077    468.88225 0.0087904434 0.0068911812         3924 
 4446000   0.54656122    -9.318907    468.81563 0.0087872176 0.0068884367         3895 
 4447000   0.53623501   -9.3047149     468.5224 0.0087797467 0.0068856939         3909 
 4448000   0.54471709   -9.2842568    469.61256  0.008798197  0.006882956         3916 
 4449000   0.53491211   -9.2917905    467.89155 0.0087639834 0.0068802181         3912 
 4450000   0.54594948   -9.2750982    469.03363 0.0087834012 0.0068774809         3894 
 4451000   0.53530735   -9.2684157     468.8458 0.0087779113 0.0068747462         3908 
 4452000   0.55049985   -9.2845911    468.49736 0.0087694176 0.0068720105         3915 
 4453000   0.54249733   -9.2850956    469.46949 0.0087856406 0.0068692764         3927 
 4454000   0.53170408   -9.2988806    469.26794 0.0087798971 0.0068665454         3910 
 4455000   0.52545345   -9.3029977    469.06344  0.008774101 0.0068638172         3922 
 4456000   0.53190905   -9.2940915    468.54535 0.0087624429  0.006861087         3941 
 4457000   0.55046624   -9.3002605    468.53863 0.0087603514 0.0068583593         3914 
 4458000   0.54210842   -9.2756352    468.46081 0.0087569316 0.0068556358         3918 
 4459000   0.52650375   -9.3025431    468.72598 0.0087599234 0.0068529114         3915 
 4460000   0.53458679   -9.2723688    468.55796 0.0087548199 0.0068501863         3920 
 4461000   0.54044401   -9.2947568    469.12316 0.0087634156 0.0068474638         3910 
 4462000   0.54588772    -9.295157    469.06091  0.008760289 0.0068447453         3912 
 4463000   0.54225115   -9.2804441    468.79712 0.0087534005 0.0068420275         3924 
 4464000   0.53642901   -9.2959428    468.85232 0.0087524702 0.0068393101         3926 
 4465000   0.53319441   -9.2887807    468.86655 0.0087507755 0.0068365933         3916 
 4466000   0.54487857   -9.2786152    469.20963 0.0087552178  0.006833879         3901 
 4467000   0.53472709   -9.2824807    468.33723  0.008736983 0.0068311657         3919 
 4468000   0.54569361   -9.2916141    468.94283 0.0087463225 0.0068284545         3883 
 4469000   0.53347637   -9.3046733    468.53725 0.0087368027 0.0068257442         3916 
 4470000    0.5346774   -9.2886043    468.86236 0.0087409091 0.0068230366         3925 
 4471000   0.53406567   -9.3004957     469.1036 0.0087434503 0.0068203298         3906 
 4472000   0.54062609   -9.2918276     468.4717   0.00872972 0.0068176244         3909 
 4473000   0.52941523   -9.2739849    469.37072 0.0087445174 0.0068149213         3918 
 4474000   0.53063852   -9.3035978     468.8196 0.0087322977 0.0068122165         3901 
 4475000   0.53288776   -9.3068719    469.22692 0.0087379315 0.0068095147         3915 
 4476000   0.52912409   -9.2915719    468.78692 0.0087277874  0.006806815         3915 
 4477000   0.51612164   -9.2856525    469.00827 0.0087299581 0.0068041172         3924 
 4478000   0.53027376   -9.3095495    468.84463 0.0087249633 0.0068014193         3922 
 4479000   0.52133696   -9.3011361      468.474 0.0087161196  0.006798723         3921 
 4480000   0.53632784    -9.295919     468.9442 0.0087229203 0.0067960296         3926 
 4481000   0.53004002   -9.2767215    468.68918 0.0087162311 0.0067933372         3913 
 4482000   0.53545617   -9.2929867    468.18389 0.0087048915 0.0067906461         3908 
 4483000   0.52142203   -9.3035748    468.45654 0.0087080181 0.0067879565         3918 
 4484000   0.53289527   -9.2887474    469.58349   0.00872702 0.0067852697         3919 
 4485000   0.52306436   -9.2980413    468.55536 0.0087059711 0.0067825838         3920 
 4486000    0.5319843   -9.2838983    469.06456 0.0087134894 0.0067798982         3913 
 4487000    0.5280521   -9.2925118    469.30397 0.0087159938 0.0067772136         3917 
 4488000    0.5455783   -9.2865311    469.06526 0.0087096193 0.0067745328         3894 
 4489000   0.54568176   -9.2988833     468.3677 0.0086947298  0.006771853         3908 
 4490000     0.530343   -9.3012448    469.63445 0.0087163038 0.0067691742         3913 
 4491000   0.52348853   -9.2785915    468.90397 0.0087008084 0.0067664962         3906 
 4492000   0.53577644   -9.2894275    469.08932   0.00870231 0.0067638201         3918 
 4493000   0.52471237   -9.2810186    468.82374 0.0086954474 0.0067611441         3912 
 4494000   0.53244567    -9.296291     468.5752 0.0086889038 0.0067584705         3912 
 4495000   0.52202652   -9.3012472    468.49995 0.0086855757 0.0067557992         3909 
 4496000   0.52531388   -9.3094233    468.69766 0.0086873083 0.0067531293         3919 
 4497000   0.52927609   -9.3094797    468.83817 0.0086879804 0.0067504603         3910 
 4498000   0.53038939   -9.2841352    469.05016 0.0086899763 0.0067477933         3908 
 4499000   0.53884345    -9.298255    468.04544 0.0086694347 0.0067451273         3943 
 4500000   0.53354048   -9.3005994    468.40105 0.0086740936 0.0067424643         3919 
 4501000   0.54457871   -9.2812457    468.87376 0.0086809182 0.0067398033         3899 
 4502000   0.52699268    -9.287521    468.69628 0.0086757048 0.0067371422         3934 
 4503000   0.53178195   -9.3037255    468.71636 0.0086741498 0.0067344831         3915 
 4504000   0.51730095   -9.3000379    468.93331 0.0086762379 0.0067318247         3898 
 4505000   0.52560025   -9.2955448    469.12297 0.0086778203 0.0067291661         3927 
 4506000   0.52562218   -9.2985599    468.31584 0.0086609676 0.0067265091         3931 
 4507000   0.54762169   -9.2926631    468.61317 0.0086645435 0.0067238523         3918 
 4508000   0.53236425   -9.3361709    467.67327 0.0086452467 0.0067211994         3910 
 4509000   0.53898997   -9.3030292    468.94991 0.0086669238 0.0067185472         3909 
 4510000   0.53848355   -9.2995894    468.70858 0.0086605429 0.0067158984         3914 
 4511000   0.53187309   -9.2976372    468.65487 0.0086576308 0.0067132473         3900 
 4512000   0.53815348   -9.2946379    468.99656 0.0086620228 0.0067105997         3896 
 4513000   0.53536554    -9.300457    468.93134 0.0086588991 0.0067079535         3917 
 4514000   0.53495138   -9.3032275    468.07111 0.0086411002 0.0067053092         3902 
 4515000   0.53070493   -9.2995199    469.06611  0.008657551 0.0067026636         3902 
 4516000   0.52994093    -9.293455    468.77938 0.0086503429 0.0067000207         3921 
 4517000   0.52805546   -9.2958263    468.78442 0.0086485208 0.0066973799         3912 
 4518000   0.53620272   -9.2962691    468.64756 0.0086440821 0.0066947399         3921 
 4519000   0.54070984   -9.2982507    468.58593 0.0086410329 0.0066921029         3918 
 4520000   0.52928562   -9.3093661    468.54983 0.0086384555  0.006689467         3918 
 4521000   0.52448996   -9.3145827    468.69465 0.0086392143 0.0066868325         3897 
 4522000   0.53110157   -9.3001557    468.77534 0.0086387907 0.0066841995         3920 
 4523000   0.52734324   -9.2934756    469.53474 0.0086508721 0.0066815686         3922 
 4524000   0.52703963   -9.3032462    468.45207  0.008629017 0.0066789374         3911 
 4525000   0.53812564   -9.3218465    468.81711 0.0086338326  0.006676305         3918 
 4526000   0.52478995   -9.3050628     468.6911 0.0086296048 0.0066736749         3893 
 4527000   0.52773605   -9.3108491    468.67728 0.0086274442 0.0066710481         3918 
 4528000   0.52607712   -9.3148476    467.96107 0.0086123577 0.0066684238         3892 
 4529000   0.53320777   -9.3264841    468.14396 0.0086138212 0.0066657987         3908 
 4530000   0.51126847   -9.2991057    468.63045 0.0086208692 0.0066631733         3912 
 4531000   0.52104554   -9.3108238    468.29446 0.0086127871 0.0066605541         3906 
 4532000   0.53520931   -9.3046439    468.15214 0.0086082697 0.0066579332         3914 
 4533000   0.53504284   -9.2970939    468.58657 0.0086143572 0.0066553137         3924 
 4534000   0.53618674   -9.2992707    469.05471 0.0086210614 0.0066526977         3898 
 4535000   0.52004074   -9.3045341    469.20942 0.0086220033 0.0066500819         3915 
 4536000   0.52337436   -9.3109589    468.59522 0.0086088187 0.0066474667         3914 
 4537000   0.52208627   -9.3036589    468.44428 0.0086041489 0.0066448539         3913 
 4538000   0.51282722   -9.2917596    467.97916 0.0085937117 0.0066422428         3913 
 4539000   0.54591758   -9.3018332    468.46302 0.0086007017 0.0066396343         3915 
 4540000   0.53799296   -9.3120931    468.19096 0.0085938134 0.0066370253         3906 
 4541000   0.52254596   -9.3110807     469.0407 0.0086075149 0.0066344182         3907 
 4542000   0.52761955   -9.3056354    468.12391 0.0085887992 0.0066318109         3907 
 4543000   0.53015034    -9.306263    468.33497 0.0085907801 0.0066292056         3914 
 4544000   0.51434956   -9.2981012    467.94091 0.0085816629  0.006626602         3911 
 4545000     0.517996   -9.3165922     467.8587 0.0085782674 0.0066240001         3900 
 4546000   0.52805677   -9.3011493    467.94958 0.0085780462 0.0066214008         3920 
 4547000   0.52995932   -9.3045374    467.97122 0.0085765563 0.0066188006         3923 
 4548000   0.53430485   -9.3048899    468.56839 0.0085856125 0.0066162024         3916 
 4549000   0.52822078   -9.3313442    468.28019 0.0085784457 0.0066136048         3920 
 4550000   0.52109504   -9.3133735     467.8453 0.0085685952 0.0066110092         3902 
 4551000   0.52319478   -9.3214569    467.96866 0.0085689712 0.0066084138         3896 
 4552000   0.52392075   -9.3131243    467.26661 0.0085542364 0.0066058203         3930 
 4553000   0.53088057   -9.3276803    468.46181 0.0085742333 0.0066032308         3908 
 4554000   0.52671927   -9.3064067    467.90686 0.0085621956 0.0066006388         3922 
 4555000   0.51348931   -9.3201394    468.78722  0.008576422 0.0065980497         3906 
 4556000   0.52412421   -9.3133924    467.89671 0.0085582512 0.0065954609         3905 
 4557000    0.5309173   -9.3121897    468.48308 0.0085670961 0.0065928744         3928 
 4558000   0.51730729   -9.3047969    468.16445 0.0085593911 0.0065902904         3920 
 4559000    0.5263326   -9.3106394    468.64389 0.0085662772 0.0065877066         3903 
 4560000   0.52054024   -9.3108527    468.02999 0.0085531797 0.0065851256         3923 
 4561000   0.51889022   -9.3150273    468.12482  0.008553037 0.0065825443         3911 
 4562000   0.52090947   -9.3019817    468.31842 0.0085546986 0.0065799648         3926 
 4563000    0.5355652   -9.3144966    468.51375 0.0085563912 0.0065773885         3919 
 4564000   0.52409464   -9.3129498    468.12672 0.0085474496 0.0065748143         3906 
 4565000   0.50434132     -9.30683    468.07538 0.0085446401 0.0065722376         3926 
 4566000   0.52373258   -9.3004323    468.83402 0.0085566144 0.0065696641         3908 
 4567000   0.49985413   -9.3236845    468.21843 0.0085435083 0.0065670899         3910 
 4568000   0.51797378   -9.3001562    468.34433 0.0085439348  0.006564518         3925 
 4569000   0.51747298   -9.3122598    467.83063 0.0085326955  0.006561948         3907 
 4570000   0.51131576   -9.3027397    468.21556 0.0085378476 0.0065593785         3911 
 4571000   0.52207507   -9.3079664    469.00272 0.0085503304 0.0065568132         3908 
 4572000   0.51043434   -9.3164017    467.87327 0.0085278739 0.0065542497         3922 
 4573000   0.51551128    -9.335136    468.18103 0.0085316172 0.0065516844         3901 
 4574000   0.52413593   -9.3287605    467.72739 0.0085214872 0.0065491213         3926 
 4575000   0.52148145   -9.3071619    468.80216 0.0085392014 0.0065465587         3908 
 4576000   0.51734205   -9.3124363     468.4635  0.008531168 0.0065440003         3906 
 4577000   0.50994584   -9.3252818    468.93117  0.008537819  0.006541444         3907 
 4578000   0.52619624   -9.3292311    468.55581 0.0085291214 0.0065388877         3908 
 4579000   0.51443008   -9.3116544    468.08166 0.0085186296 0.0065363307         3922 
 4580000   0.52276133     -9.31901    468.61735 0.0085265165 0.0065337772         3919 
 4581000   0.53068962   -9.3192418    468.96382 0.0085309579  0.006531224         3900 
 4582000   0.52242845   -9.3028973    468.52476 0.0085211109 0.0065286723         3897 
 4583000   0.51571573   -9.3165802    469.02466 0.0085283413 0.0065261232         3930 
 4584000   0.50770679   -9.3215363    467.94343  0.008506825 0.0065235733         3936 
 4585000   0.52330048     -9.32587    468.46214 0.0085143972 0.0065210246         3909 
 4586000   0.52183788   -9.3306873    468.79506 0.0085185902  0.006518478         3910 
 4587000   0.51953472   -9.3152164    468.09946  0.008504096 0.0065159318         3921 
 4588000   0.50576763   -9.3182193    467.71461 0.0084952523 0.0065133886         3920 
 4589000    0.5120739   -9.3193778    468.30243 0.0085040754 0.0065108454         3926 
 4590000   0.52099958   -9.3201198    468.16903 0.0084998008 0.0065083073         3923 
 4591000   0.52208644   -9.3209296    468.18146 0.0084981751 0.0065057688         3933 
 4592000   0.51933835   -9.3220398    468.49007 0.0085019249 0.0065032304         3922 
 4593000    0.5283424   -9.3036638    468.09824 0.0084929647 0.0065006945         3907 
 4594000   0.51804997   -9.3324979    468.32541 0.0084952367   0.00649816         3919 
 4595000   0.51852395   -9.3261535    468.90664 0.0085039289 0.0064956278         3915 
 4596000   0.51854218   -9.3246683    467.93514 0.0084844637 0.0064930964         3912 
 4597000   0.51677596   -9.3302051    468.42958 0.0084915812 0.0064905677         3917 
 4598000   0.51400408   -9.3174388    467.72781 0.0084770155 0.0064880396         3935 
 4599000   0.51522655   -9.3126911    468.18782 0.0084835077 0.0064855108         3913 
 4600000   0.51208562   -9.3122194    468.36723 0.0084849137  0.006482983         3929 
 4601000   0.51000401   -9.3124444    468.54643 0.0084863152 0.0064804554         3905 
 4602000   0.51878189   -9.3106741    468.21623 0.0084784917 0.0064779307         3926 
 4603000   0.51647877   -9.3360011    467.53783  0.008464368 0.0064754055         3910 
 4604000   0.51148894   -9.3226554    467.94811 0.0084699556 0.0064728853         3915 
 4605000   0.52380965   -9.3087348    467.98185  0.008468727 0.0064703656         3922 
 4606000   0.51007416   -9.3234034    468.38743 0.0084742263  0.006467846         3924 
 4607000   0.51183413   -9.3194121    468.33709 0.0084714762 0.0064653282         3905 
 4608000   0.51731961   -9.3134883    467.60914 0.0084564732 0.0064628108         3920 
 4609000   0.52094861   -9.3245533    467.08068 0.0084450834 0.0064602968         3912 
 4610000   0.51051068   -9.3170979    467.57521 0.0084521911 0.0064577806         3901 
 4611000    0.5142388   -9.3161844    468.39386 0.0084651533 0.0064552689         3916 
 4612000   0.50354646   -9.3275604    468.49812 0.0084652016 0.0064527576         3914 
 4613000   0.51323604   -9.3376722    468.93207 0.0084712058 0.0064502477         3943 
 4614000   0.50023134    -9.303091    467.89455 0.0084506313 0.0064477359         3915 
 4615000   0.50763106    -9.325819    468.34689 0.0084569681 0.0064452292         3904 
 4616000   0.51269345   -9.3157432    468.34154 0.0084550393 0.0064427239         3916 
 4617000   0.52134508    -9.322986    468.06646 0.0084482431 0.0064402166         3909 
 4618000   0.50477735   -9.3233877    468.27814 0.0084502334 0.0064377112         3930 
 4619000   0.51297238   -9.3297322    467.36902 0.0084320022 0.0064352086         3928 
 4620000   0.51177542   -9.3150897    468.23861 0.0084458624 0.0064327087         3932 
 4621000   0.51499587   -9.3361555    469.16701 0.0084607771 0.0064302075         3918 
 4622000   0.52203942   -9.3295743    467.71747 0.0084328118 0.0064277071         3912 
 4623000   0.50467844   -9.3296133    467.69528 0.0084305877 0.0064252104         3905 
 4624000    0.5211509    -9.327418    467.97147  0.008433742 0.0064227137         3905 
 4625000   0.50678745   -9.3181901    467.37527 0.0084211761 0.0064202176         3916 
 4626000   0.51495345   -9.3302763    468.36182 0.0084371275 0.0064177232         3926 
 4627000   0.51474056   -9.3339325    467.97063 0.0084282585 0.0064152312         3912 
 4628000   0.51091806   -9.3065222    468.58849 0.0084375629 0.0064127394         3914 
 4629000   0.52290842   -9.3275175    467.62276 0.0084183545 0.0064102509         3911 
 4630000   0.51059975    -9.330141    468.24105 0.0084276646 0.0064077627         3902 
 4631000   0.50984555   -9.3276664    467.71536 0.0084163852 0.0064052762         3927 
 4632000   0.51315036   -9.3230666    468.14378 0.0084222758 0.0064027906         3928 
 4633000   0.51787033   -9.3135461    468.19203 0.0084213259 0.0064003068         3907 
 4634000   0.49663476   -9.3337607    468.01013 0.0084162375 0.0063978256         3912 
 4635000   0.51364794   -9.3380668    467.67876 0.0084084638 0.0063953436         3930 
 4636000   0.51533615   -9.3205758     468.3193 0.0084181641 0.0063928637         3916 
 4637000   0.51513495   -9.3212078    468.42046 0.0084181666 0.0063903843         3920 
 4638000   0.51858104   -9.3270454    469.47983 0.0084353858 0.0063879079         3927 
 4639000   0.50169771   -9.3368121    468.12999 0.0084093193  0.006385433         3922 
 4640000    0.5063242   -9.3413002    467.49743 0.0083961463 0.0063829586         3899 
 4641000   0.51209222   -9.3228184    468.03979 0.0084040758 0.0063804826         3898 
 4642000   0.51594414   -9.3164798    467.88042 0.0083994043 0.0063780094         3903 
 4643000   0.50222559   -9.3438306    468.07198 0.0084010335 0.0063755381         3919 
 4644000    0.5069323   -9.3382397    468.21535 0.0084017972 0.0063730679         3934 
 4645000   0.52523662   -9.3416884    468.37489 0.0084028505 0.0063705989         3911 
 4646000   0.50830621   -9.3544049    468.05058 0.0083952248 0.0063681316         3913 
 4647000   0.51505169   -9.3358519    467.84375 0.0083897094 0.0063656647         3928 
 4648000   0.51696455   -9.3264283    467.88559 0.0083886545 0.0063632004         3906 
 4649000   0.50858883   -9.3210645    468.10232  0.008390735 0.0063607376         3928 
 4650000   0.49923986   -9.3443702    467.34965 0.0083754417 0.0063582743         3914 
 4651000   0.49932114   -9.3425263    468.09406 0.0083869787 0.0063558114         3917 
 4652000   0.50467472   -9.3261573     467.4968 0.0083744769  0.006353353         3915 
 4653000   0.51713567   -9.3373229    467.91555 0.0083801768 0.0063508953         3916 
 4654000    0.5060177   -9.3244927    467.33309 0.0083679467 0.0063484385         3906 
 4655000    0.5124333   -9.3225646      468.428 0.0083857501 0.0063459828         3914 
 4656000    0.5099319   -9.3359502    467.68343 0.0083706226 0.0063435283         3904 
 4657000   0.49921848   -9.3303962     467.9606 0.0083737849 0.0063410749         3922 
 4658000   0.50410165   -9.3247653    467.81116 0.0083693137 0.0063386231         3929 
 4659000    0.5058538   -9.3387052    467.95592 0.0083701065 0.0063361725         3919 
 4660000   0.50237054   -9.3434951    468.61596 0.0083801138 0.0063337219         3909 
 4661000   0.49779438   -9.3305319    467.91215 0.0083657324 0.0063312735         3920 
 4662000    0.5091242    -9.345355    467.17426 0.0083507483  0.006328827         3908 
 4663000   0.50572606   -9.3440333    467.02896 0.0083463608   0.00632638         3921 
 4664000   0.49693396    -9.335324     467.8418 0.0083590944 0.0063239353         3918 
 4665000   0.51363606   -9.3288645    467.76577 0.0083559444 0.0063214906         3915 
 4666000   0.51404664   -9.3298961    468.83587 0.0083732652 0.0063190513         3913 
 4667000    0.5115452   -9.3408976    468.33606 0.0083625466 0.0063166098         3923 
 4668000   0.49809812    -9.340001    467.90457 0.0083530521 0.0063141703         3916 
 4669000   0.50951518   -9.3328618    467.83181 0.0083499645 0.0063117329         3925 
 4670000     0.501209    -9.339031     468.2274 0.0083552356  0.006309296         3917 
 4671000   0.49857515    -9.330172    467.05497 0.0083325299 0.0063068602         3918 
 4672000   0.49477915   -9.3268452     467.6581 0.0083415043 0.0063044266         3909 
 4673000   0.50647363   -9.3353117    467.32171 0.0083337205 0.0063019934         3893 
 4674000   0.49850918   -9.3381605    467.84565  0.008341279 0.0062995614         3913 
 4675000   0.50345416   -9.3292959    468.11456  0.008344288 0.0062971308         3927 
 4676000   0.49760431   -9.3477382    467.75016 0.0083360094  0.006294701         3912 
 4677000   0.49619605   -9.3449555    467.53649 0.0083304199 0.0062922727         3922 
 4678000   0.50268456   -9.3557701    467.52922 0.0083285098 0.0062898445         3906 
 4679000   0.50356558   -9.3384552     467.0239   0.00831773  0.006287417         3915 
 4680000   0.50174989   -9.3452867    467.09278 0.0083171791 0.0062849934         3929 
 4681000   0.50218919   -9.3413151    468.61306 0.0083424671 0.0062825695         3926 
 4682000   0.49775858   -9.3387947    467.49369  0.008320762 0.0062801471         3926 
 4683000   0.49143261   -9.3414912    467.50878 0.0083192536 0.0062777249         3929 
 4684000   0.50070099   -9.3431422    467.83246 0.0083232361 0.0062753068         3927 
 4685000   0.50501485   -9.3353051    468.09052 0.0083260497 0.0062728885         3919 
 4686000    0.5098043   -9.3337791    468.59323  0.008333213 0.0062704724         3920 
 4687000   0.48951028   -9.3485881    467.71241 0.0083157742 0.0062680564         3905 
 4688000   0.50176323   -9.3442196    468.62088 0.0083301494 0.0062656424         3907 
 4689000   0.50610689   -9.3548003    468.13201 0.0083196845 0.0062632293         3921 
 4690000   0.48988034   -9.3534906     467.0251 0.0082982427 0.0062608168         3920 
 4691000   0.50153817   -9.3454683    468.33367 0.0083197198 0.0062584059         3923 
 4692000   0.50494797   -9.3413609    467.83709  0.008309127 0.0062559954         3920 
 4693000   0.49593084   -9.3436734    467.98494 0.0083099818 0.0062535861         3940 
 4694000   0.49619143   -9.3300267    467.57038 0.0083008518 0.0062511788         3924 
 4695000    0.4976731    -9.365558    467.64303 0.0083003733 0.0062487731         3915 
 4696000   0.49649859   -9.3648579    466.67381 0.0082814063 0.0062463675         3932 
 4697000   0.50473945   -9.3535579    467.89423 0.0083012956 0.0062439638         3930 
 4698000   0.49524116   -9.3525539    467.41784 0.0082910784 0.0062415598         3924 
 4699000   0.49346772   -9.3417601    467.80038 0.0082960981 0.0062391594         3932 
 4700000   0.50202059   -9.3550236    466.99716 0.0082800915 0.0062367608         3914 
 4701000   0.50438673   -9.3557225     467.5292 0.0082877614 0.0062343623         3916 
 4702000   0.49858092   -9.3378919    467.62772 0.0082877449  0.006231964         3917 
 4703000   0.50504214   -9.3395088    467.34225 0.0082809244 0.0062295688         3943 
 4704000   0.50946547   -9.3525078    467.86583 0.0082884394 0.0062271737         3935 
 4705000   0.49591603    -9.348694    467.44401 0.0082792067 0.0062247809         3911 
 4706000   0.50804494    -9.348735    468.08782 0.0082888479   0.00622239         3919 
 4707000    0.5115747   -9.3535973    467.11712 0.0082699015  0.006219999         3917 
 4708000   0.49981398   -9.3446793    467.25808 0.0082706401 0.0062176102         3929 
 4709000   0.49796494    -9.342893    467.81243 0.0082786937 0.0062152225         3931 
 4710000   0.49479153    -9.334807    467.35943 0.0082689212 0.0062128362         3912 
 4711000   0.49139885   -9.3546928    467.63648 0.0082720668  0.006210451         3923 
 4712000   0.48350965   -9.3618693    467.61239 0.0082698851 0.0062080671         3932 
 4713000   0.49505181   -9.3397329    468.07916 0.0082763837 0.0062056826         3912 
 4714000    0.4986913   -9.3524172     467.3924 0.0082624876 0.0062033007         3913 
 4715000   0.51114621   -9.3702904    467.14134  0.008256298 0.0062009202         3904 
 4716000   0.49925573   -9.3641006    467.64282 0.0082634085  0.006198541         3928 
 4717000   0.50384193   -9.3578262    467.73573 0.0082632982 0.0061961624         3930 
 4718000   0.50268053   -9.3335698    467.72803 0.0082614108 0.0061937858         3928 
 4719000    0.4915832   -9.3564689    468.05442 0.0082654238   0.00619141         3919 
 4720000   0.49348562   -9.3521343    467.02315 0.0082454652 0.0061890347         3913 
 4721000    0.4874087   -9.3546498    467.73354 0.0082562583 0.0061866608         3918 
 4722000   0.49336557   -9.3308242    467.69933 0.0082539061 0.0061842898         3927 
 4723000   0.49717347   -9.3481006    467.43305 0.0082474602 0.0061819189         3909 
 4724000   0.49862235   -9.3521873    467.00771 0.0082382111 0.0061795485         3897 
 4725000   0.49858784   -9.3559785    466.78094  0.008232468 0.0061771807         3908 
 4726000   0.48120312    -9.361792    467.19335 0.0082379982 0.0061748132         3928 
 4727000    0.4866229   -9.3543099    467.64079 0.0082441433 0.0061724461         3916 
 4728000   0.50070818   -9.3477854     468.2374 0.0082529153 0.0061700815         3916 
 4729000   0.49627755   -9.3400504    467.32881 0.0082351591 0.0061677189         3919 
 4730000   0.49936007   -9.3623197    467.63103 0.0082387426 0.0061653542         3936 
 4731000   0.50062177   -9.3557007    467.56543 0.0082358457 0.0061629928         3926 
 4732000    0.4974907   -9.3552482    466.95007 0.0082232684 0.0061606318         3911 
 4733000   0.48296264    -9.345394    467.12695 0.0082246452 0.0061582733         3920 
 4734000   0.48786644   -9.3562856    466.99115 0.0082205173 0.0061559172         3940 
 4735000   0.50121187   -9.3443102    467.61539 0.0082297675 0.0061535616         3897 
 4736000   0.50201333    -9.346209    467.44017 0.0082249467 0.0061512067         3931 
 4737000   0.48732681    -9.351888    467.61099 0.0082262154 0.0061488537         3932 
 4738000   0.48846342   -9.3312249     467.6009 0.0082243018 0.0061465006         3919 
 4739000   0.49105461   -9.3593729    467.48267 0.0082204873 0.0061441494         3912 
 4740000     0.486426   -9.3560914    467.25314 0.0082147176 0.0061418013         3920 
 4741000    0.4996724   -9.3547858    467.45433 0.0082165214 0.0061394525         3917 
 4742000   0.49811438   -9.3584299    467.09057 0.0082083961 0.0061371063         3921 
 4743000    0.4993917   -9.3527899    466.97054 0.0082045566 0.0061347611         3923 
 4744000   0.49579686     -9.36344    468.40526 0.0082280295 0.0061324169         3904 
 4745000    0.4979491   -9.3590476    467.39706  0.008208589 0.0061300716         3934 
 4746000    0.4834319    -9.348753    467.07393 0.0082011857 0.0061277289         3927 
 4747000   0.48599163   -9.3469895     466.9542 0.0081973562 0.0061253869         3909 
 4748000   0.49664702   -9.3665503    467.46601 0.0082046126 0.0061230456         3931 
 4749000   0.50499487    -9.358856    467.55093 0.0082043751  0.006120707         3922 
 4750000   0.49394437   -9.3666179    467.43674 0.0082006446 0.0061183678         3915 
 4751000   0.48513282   -9.3606341    467.12819 0.0081935064   0.00611603         3934 
 4752000   0.49470452   -9.3610182     467.1396 0.0081919823 0.0061136934         3927 
 4753000   0.49700228   -9.3603007    467.81779 0.0082021494  0.006111361         3920 
 4754000   0.49842476   -9.3626101    467.40468 0.0081931826 0.0061090269         3910 
 4755000   0.49951748   -9.3455479    467.96407 0.0082012631 0.0061066944         3908 
 4756000   0.49047499   -9.3442991    466.91637 0.0081811812 0.0061043625         3915 
 4757000   0.50714999   -9.3584612    467.11082 0.0081828676 0.0061020309         3932 
 4758000   0.49812335   -9.3639693    467.55622 0.0081889489 0.0060997015         3903 
 4759000   0.49475328   -9.3673608    466.76934 0.0081734492 0.0060973732         3922 
 4760000   0.47621568   -9.3669248    467.14872 0.0081783739 0.0060950465         3924 
 4761000     0.489157   -9.3589474    467.33884  0.008179984 0.0060927225         3908 
 4762000   0.48698708   -9.3729047    467.13265 0.0081746579 0.0060903986         3924 
 4763000   0.48838887   -9.3533412    467.18318 0.0081738256 0.0060880769         3919 
 4764000   0.49417049   -9.3699049    467.45805  0.008176918 0.0060857554         3920 
 4765000    0.4878822   -9.3629166    467.65436 0.0081786352 0.0060834352         3914 
 4766000   0.48606907   -9.3518201    467.69039 0.0081775492 0.0060811162         3916 
 4767000   0.49467432   -9.3541671    467.06709 0.0081649375 0.0060787979         3931 
 4768000   0.48944175   -9.3746839    467.33618 0.0081679281  0.006076482         3923 
 4769000   0.49738313   -9.3588755    467.83361 0.0081749076 0.0060741667         3901 
 4770000   0.49276201   -9.3767299    467.46335 0.0081667252  0.006071853         3930 
 4771000   0.48939232   -9.3730704    467.08344 0.0081583777 0.0060695412         3911 
 4772000   0.47419364   -9.3756131    467.57558 0.0081652624 0.0060672277         3926 
 4773000   0.47840158   -9.3581462    466.86443 0.0081511354 0.0060649168         3917 
 4774000   0.48924911   -9.3724326    467.33601 0.0081576597 0.0060626086         3913 
 4775000   0.49948885   -9.3734311    467.11399 0.0081520766 0.0060603001         3926 
 4776000   0.48250303   -9.3527122    467.13764 0.0081507824 0.0060579932         3921 
 4777000   0.49144127   -9.3667086    467.05824 0.0081476911 0.0060556868         3946 
 4778000   0.48214863   -9.3855251    466.49559 0.0081361726 0.0060533797         3918 
 4779000   0.47334345   -9.3526929    467.13627 0.0081456419 0.0060510768         3910 
 4780000   0.49396295   -9.3573711    466.87554 0.0081393923 0.0060487765         3902 
 4781000   0.49329092     -9.36836    466.80085 0.0081363879 0.0060464757         3931 
 4782000    0.4898846   -9.3669656    467.21396 0.0081418856 0.0060441769         3921 
 4783000   0.49663871   -9.3540684    467.37213 0.0081429391 0.0060418781         3918 
 4784000    0.4811353   -9.3426155    466.78645 0.0081310349 0.0060395816         3918 
 4785000   0.48528094   -9.3527208    466.83384 0.0081301609 0.0060372849         3933 
 4786000   0.48528573   -9.3620374    466.73814 0.0081267959 0.0060349893         3922 
 4787000   0.47396779   -9.3865227    467.29552 0.0081348012  0.006032696         3923 
 4788000   0.48278581   -9.3734522    466.46812 0.0081187017 0.0060304017         3943 
 4789000   0.49445737   -9.3742257    466.84538  0.008123571   0.00602811         3913 
 4790000     0.490623   -9.3719279    467.39384 0.0081314168 0.0060258194         3921 
 4791000   0.48971567   -9.3620283    467.14373 0.0081253692 0.0060235307         3922 
 4792000   0.48163527   -9.3623358    467.22228 0.0081250397 0.0060212437         3931 
 4793000   0.48311107   -9.3629416    466.72557 0.0081147083 0.0060189577         3934 
 4794000   0.48433133   -9.3593404    467.60101 0.0081282334 0.0060166717         3924 
 4795000   0.48898739   -9.3743812     467.1494 0.0081186897 0.0060143868         3933 
 4796000   0.48528838   -9.3765534    466.72382 0.0081096021 0.0060121047         3923 
 4797000   0.48187258   -9.3763359     467.3479  0.008118753 0.0060098222         3929 
 4798000   0.47905718   -9.3664778    466.55891 0.0081033574 0.0060075411         3911 
 4799000   0.48665852   -9.3700585    467.08442 0.0081107942 0.0060052626         3898 
 4800000   0.49104763   -9.3808097    466.59928  0.008100682 0.0060029832         3947 
 4801000   0.49015564   -9.3788462    466.50222 0.0080973099 0.0060007048         3918 
 4802000   0.47967412   -9.3594244    467.02336 0.0081046675 0.0059984289         3916 
 4803000   0.48911282    -9.353079     467.1699 0.0081055226 0.0059961547         3925 
 4804000   0.47650809   -9.3748844    466.90956 0.0080993192 0.0059938801         3906 
 4805000   0.49118195   -9.3649845    466.92368 0.0080978786 0.0059916065         3908 
 4806000   0.48189384   -9.3783596    467.25075 0.0081018649 0.0059893351         3925 
 4807000   0.48492862   -9.3696566    467.30522 0.0081011237 0.0059870644         3910 
 4808000   0.47626709   -9.3664323     466.9519 0.0080933149 0.0059847944         3923 
 4809000   0.48933749   -9.3545231    467.00197 0.0080924996 0.0059825281         3908 
 4810000   0.48351009   -9.3505214    467.02164 0.0080911581 0.0059802628         3910 
 4811000   0.48320365   -9.3865528    466.87118 0.0080868701 0.0059779971         3926 
 4812000   0.48846361   -9.3731677    466.73861 0.0080828936 0.0059757329         3927 
 4813000   0.48177152   -9.3731043    467.65596 0.0080970975 0.0059734708         3920 
 4814000   0.47901329   -9.3753696    467.24825 0.0080883577 0.0059712084         3930 
 4815000   0.48219627   -9.3657122    467.60445 0.0080928427 0.0059689468         3928 
 4816000   0.48739627   -9.3498062    468.05768 0.0080990048 0.0059666866         3916 
 4817000   0.47798253   -9.3841381    467.64264 0.0080901432 0.0059644276         3925 
 4818000   0.47717064   -9.3739561    467.77303 0.0080907194 0.0059621708         3909 
 4819000   0.48459603   -9.3634127    466.68869 0.0080702893 0.0059599128         3937 
 4820000   0.47614049    -9.372747    466.83321 0.0080711137 0.0059576575         3921 
 4821000   0.48704731   -9.3661617    467.23918 0.0080764568 0.0059554043         3927 
 4822000   0.47539372   -9.3696188    466.83442 0.0080677869 0.0059531511         3925 
 4823000   0.48162352     -9.37076    466.58002 0.0080617185 0.0059508996         3913 
 4824000   0.47993644   -9.3796541    466.98719 0.0080670811 0.0059486492         3925 
 4825000   0.47983747   -9.3843533    467.28469 0.0080705473 0.0059464005         3915 
 4826000   0.48335844   -9.3792325    466.74761 0.0080596009 0.0059441544         3939 
 4827000   0.48596244   -9.3745677    466.78284 0.0080585395 0.0059419068         3911 
 4828000   0.47422904   -9.3605729    466.96479 0.0080600109 0.0059396617         3937 
 4829000   0.48011465   -9.3787008    466.97552  0.008058527 0.0059374162         3927 
 4830000   0.47127559   -9.3948792    466.36809 0.0080463783 0.0059351712         3921 
 4831000   0.47714144   -9.3778257    466.79537 0.0080520832  0.005932928         3927 
 4832000   0.46571223   -9.4071693     467.0306 0.0080544737  0.005930686         3929 
 4833000   0.47362248   -9.3683285    466.53695 0.0080442953 0.0059284452         3908 
 4834000   0.48871185   -9.3885324    466.79003  0.008046994 0.0059262059         3915 
 4835000   0.48350837   -9.3732774    467.21427 0.0080526417 0.0059239691         3924 
 4836000   0.46911695   -9.3777222    466.61855 0.0080407112 0.0059217312         3926 
 4837000   0.49220934   -9.3797165    467.33415 0.0080513773  0.005919496         3928 
 4838000   0.47468778   -9.4002961    466.56183 0.0080364103 0.0059172614         3917 
 4839000   0.47365566   -9.3724539    466.88037 0.0080402351 0.0059150283         3945 
 4840000      0.48263   -9.3660156    466.88548 0.0080386618 0.0059127959         3916 
 4841000    0.4711731   -9.3555689    467.43554 0.0080464702 0.0059105663         3929 
 4842000   0.47888169   -9.3762803    466.66962 0.0080316265 0.0059083372         3908 
 4843000   0.47207222   -9.3748294    466.91467 0.0080341845 0.0059061083         3910 
 4844000   0.48300928   -9.3770681    466.83334 0.0080311268 0.0059038821         3926 
 4845000   0.48081297   -9.3601615    466.56911 0.0080249246 0.0059016553         3906 
 4846000   0.48045427   -9.3781366    466.93441 0.0080295503 0.0058994309         3921 
 4847000   0.48328099   -9.3876606    466.24414  0.008016026 0.0058972073         3904 
 4848000    0.4892079    -9.360126    466.21048  0.008013794 0.0058949836         3927 
 4849000   0.47488203   -9.3773578    466.83082 0.0080228023 0.0058927609         3936 
 4850000   0.47865887   -9.3929588    465.91349 0.0080053864 0.0058905394         3922 
 4851000   0.47810281   -9.3579215    467.29229 0.0080274221   0.00588832         3925 
 4852000   0.48144268    -9.387486    466.63413 0.0080144637 0.0058861013         3925 
 4853000   0.47186874   -9.3731339       467.55  0.008028539 0.0058838846         3917 
 4854000   0.46477973   -9.3742336    466.93292 0.0080162911 0.0058816653         3927 
 4855000   0.46990156   -9.3812308    466.03224 0.0079991802 0.0058794501         3933 
 4856000    0.4791882   -9.3903064     466.0871 0.0079984744 0.0058772374         3945 
 4857000   0.48661048   -9.3807567    466.91301 0.0080109981  0.005875023         3926 
 4858000   0.47747063   -9.3728996    467.29731 0.0080159413 0.0058728123         3918 
 4859000   0.46448473   -9.4015646    466.83892   0.00800643 0.0058706019         3904 
 4860000   0.48154319   -9.3876289    466.68836  0.008002201 0.0058683915         3939 
 4861000   0.47630079   -9.3884795    466.84491 0.0080032385 0.0058661813         3931 
 4862000   0.46395145   -9.3802437    467.01291 0.0080044719 0.0058639749         3920 
 4863000   0.48156105   -9.3742868    467.14274 0.0080050507  0.005861768         3916 
 4864000   0.47696317   -9.3896606    466.40604 0.0079907833 0.0058595621         3893 
 4865000    0.4727292   -9.3834712    466.49085 0.0079905935 0.0058573575         3923 
 4866000   0.47744929   -9.3923037    466.73917  0.007993204 0.0058551547         3932 
 4867000   0.47382333   -9.3695881    466.60637 0.0079892879 0.0058529532         3930 
 4868000   0.48989368   -9.3839396    466.61301 0.0079877604 0.0058507523         3932 
 4869000   0.47257934   -9.3814838     466.5627 0.0079852588 0.0058485519         3921 
 4870000   0.46371315   -9.3882748    466.58278 0.0079839627 0.0058463524         3914 
 4871000   0.46835239   -9.3945858    466.34951 0.0079783328 0.0058441541         3919 
 4872000   0.47832629   -9.3720174     466.4763 0.0079788639 0.0058419572         3923 
 4873000   0.47792027    -9.381427    466.42229 0.0079763029  0.005839762         3920 
 4874000   0.46588918   -9.3822518     466.3373 0.0079732133 0.0058375689         3919 
 4875000   0.47514558   -9.3882721    466.58236 0.0079757668 0.0058353774         3923 
 4876000   0.47216201   -9.3860348    466.34641 0.0079700985 0.0058331844         3930 
 4877000    0.4777607   -9.4117136    466.33819 0.0079683239 0.0058309935         3934 
 4878000   0.47052336   -9.3741607    467.22437 0.0079818295  0.005828804         3941 
 4879000   0.47497104   -9.3909245    467.13458   0.00797866 0.0058266167         3939 
 4880000   0.46352949   -9.3895858    467.14799 0.0079772539 0.0058244294         3920 
 4881000    0.4664132   -9.3861181    467.02359 0.0079734956 0.0058222422         3906 
 4882000   0.47622331   -9.3928207    466.95017 0.0079706091 0.0058200566         3936 
 4883000   0.46953328   -9.4018988     466.6376 0.0079636426 0.0058178743         3928 
 4884000   0.46729431   -9.3894382     466.9825 0.0079678968 0.0058156911         3927 
 4885000    0.4611402   -9.3922123    466.09442  0.007951116 0.0058135089         3921 
 4886000    0.4697454   -9.3931785    466.02936 0.0079483791 0.0058113281         3927 
 4887000   0.47188143   -9.3977088     466.6957  0.007958115 0.0058091499         3949 
 4888000   0.47595469   -9.4081194    466.54087 0.0079538474 0.0058069701         3923 
 4889000   0.47520319   -9.3840233    466.54463 0.0079522846 0.0058047923         3934 
 4890000    0.4693049   -9.3989947    467.20359  0.007961888 0.0058026164         3944 
 4891000   0.46479934    -9.386943     465.8795 0.0079377002 0.0058004418         3928 
 4892000   0.47004203   -9.3916471    466.91107 0.0079536501 0.0057982669         3925 
 4893000   0.47203589   -9.3958264     467.3248 0.0079590708 0.0057960947         3915 
 4894000   0.47765121   -9.3824476    466.33514 0.0079405929 0.0057939226         3931 
 4895000   0.46056211   -9.3863646    466.50403  0.007941846  0.005791753         3923 
 4896000   0.45464272   -9.4003324     466.4817 0.0079398438 0.0057895832         3919 
 4897000   0.47282923   -9.3912878     466.4002 0.0079368356 0.0057874136         3907 
 4898000   0.47188916   -9.3836542    466.64194 0.0079393279 0.0057852453         3905 
 4899000   0.48297296   -9.3742475    467.07602 0.0079450912 0.0057830806         3941 
 4900000   0.46367445   -9.3863936    466.49193 0.0079335362 0.0057809153         3923 
 4901000   0.46828491   -9.4022492    466.63318 0.0079343192   0.00577875         3946 
 4902000   0.47026958   -9.3976765      466.936 0.0079378485 0.0057765876         3929 
 4903000   0.46627822   -9.3907008    466.64707 0.0079313187 0.0057744253         3920 
 4904000   0.45979956   -9.3925713    466.79728  0.007932254 0.0057722634         3916 
 4905000   0.48004222   -9.4088835    466.26007 0.0079215099 0.0057701039         3935 
 4906000   0.46276724   -9.3884617    466.84402 0.0079298142 0.0057679461         3907 
 4907000   0.46617296    -9.389879    466.64241 0.0079247742 0.0057657881         3931 
 4908000    0.4756072   -9.4058071    466.47259 0.0079202763 0.0057636326         3911 
 4909000   0.46422128   -9.3922723    466.19406 0.0079139346 0.0057614776         3910 
 4910000   0.46214021    -9.387663    466.55748 0.0079184908 0.0057593226         3932 
 4911000   0.45784288   -9.3885087    466.76637 0.0079204231 0.0057571692         3920 
 4912000   0.45031374   -9.3745496     466.7211 0.0079180426  0.005755017         3930 
 4913000   0.46652386   -9.4069863    467.09995 0.0079228568 0.0057528662         3935 
 4914000   0.46030032   -9.3957964    465.86867 0.0079003641 0.0057507154         3922 
 4915000   0.47417999   -9.3972978     466.3792 0.0079074127 0.0057485675         3908 
 4916000   0.46000755   -9.4006537    466.71655 0.0079115228 0.0057464208         3920 
 4917000   0.46682366   -9.4130259    466.58302 0.0079076507 0.0057442745         3911 
 4918000   0.46159421   -9.4086655    466.09688 0.0078978053 0.0057421278         3936 
 4919000   0.46653089   -9.4013943    466.29991 0.0078996393 0.0057399827         3911 
 4920000   0.47780224   -9.3928464    466.10648 0.0078947574   0.00573784         3929 
 4921000   0.47133105   -9.3854222    466.70189  0.007903236 0.0057356986         3927 
 4922000   0.46230442   -9.3848351    467.24765 0.0079108705 0.0057335584         3921 
 4923000   0.47043458   -9.3943715    466.46594 0.0078960313 0.0057314189         3911 
 4924000   0.45261875   -9.3976861    465.47556 0.0078776666 0.0057292794         3907 
 4925000   0.46106635   -9.3959692    466.16487 0.0078877305 0.0057271406         3916 
 4926000   0.45651141   -9.4109297    466.32644 0.0078888625 0.0057250038         3925 
 4927000   0.46229189   -9.4018931    466.30811 0.0078869513 0.0057228687         3918 
 4928000   0.46308537   -9.3776636    466.34356 0.0078859504 0.0057207333         3921 
 4929000   0.46368041    -9.399526    466.42594 0.0078857433 0.0057186017         3915 
 4930000   0.46409166   -9.4064725     466.3804 0.0078833739 0.0057164705         3926 
 4931000   0.45173025   -9.4089674    466.29416 0.0078803177 0.0057143391         3909 
 4932000   0.46408065   -9.3941865    466.38712 0.0078802905 0.0057122083         3927 
 4933000   0.46491632   -9.4126386    466.24292 0.0078762572  0.005710079         3926 
 4934000   0.45749268   -9.3986093    466.88665 0.0078855333 0.0057079509         3929 
 4935000   0.46189947   -9.3902014    466.38719 0.0078755013 0.0057058238         3930 
 4936000   0.46321375   -9.4042444    466.56792  0.007876957 0.0057036969         3922 
 4937000   0.46423071   -9.3836232     466.6519  0.007876779 0.0057015737         3924 
 4938000   0.47658493   -9.4062662    465.92263 0.0078628768 0.0056994497         3934 
 4939000   0.46196779   -9.3900318      466.655 0.0078736418 0.0056973266         3929 
 4940000   0.45799128   -9.3922341    466.65468 0.0078720425 0.0056952037         3931 
 4941000   0.46669844   -9.4016301    466.27081 0.0078639751 0.0056930828         3914 
 4942000   0.45453973     -9.38159    466.16688 0.0078606313 0.0056909624         3926 
 4943000   0.46082921   -9.4021645    465.97751 0.0078558484 0.0056888447         3937 
 4944000   0.46780834   -9.3996481    466.16493 0.0078574185 0.0056867272         3942 
 4945000   0.47190605   -9.3998852    466.23551 0.0078570191 0.0056846119         3914 
 4946000   0.46602327   -9.3973786    465.79028  0.007847929 0.0056824965         3931 
 4947000   0.45266338   -9.4017482     465.9913 0.0078497288 0.0056803831         3924 
 4948000   0.46118568   -9.4076533    465.99412 0.0078481899 0.0056782698         3934 
 4949000   0.47167352   -9.4252391    466.02721 0.0078471612 0.0056761576         3929 
 4950000   0.44734514   -9.4070179    466.09976 0.0078467973  0.005674046         3935 
 4951000   0.45420544   -9.3976704    466.53813 0.0078525908 0.0056719353         3919 
 4952000   0.45985028   -9.4005534    466.49536 0.0078502855 0.0056698265         3922 
 4953000   0.46843305   -9.3938051    466.88011 0.0078551738 0.0056677191         3906 
 4954000   0.46004611   -9.4109395    465.89655 0.0078370433 0.0056656128         3911 
 4955000   0.45351361   -9.3940799    466.80253 0.0078506985 0.0056635074         3903 
 4956000   0.46246683   -9.4110452    466.73159 0.0078479215 0.0056614012         3918 
 4957000   0.46264909   -9.4121532    466.30826 0.0078392216 0.0056592974         3915 
 4958000   0.45891912   -9.3949862    466.14388 0.0078348776 0.0056571949         3938 
 4959000   0.45014384   -9.3950068    466.01151 0.0078310733 0.0056550934         3923 
 4960000    0.4502656    -9.401318    466.41761 0.0078363173 0.0056529923         3925 
 4961000   0.45823401   -9.4014859    465.84697 0.0078251523 0.0056508914         3931 
 4962000   0.46170471   -9.3927859    466.23304 0.0078300591 0.0056487922         3916 
 4963000   0.46383558    -9.413455    466.74292 0.0078370427 0.0056466948         3933 
 4964000   0.45882441   -9.4011356    466.62479 0.0078334809 0.0056445982         3932 
 4965000   0.46384382   -9.4039956    466.20727 0.0078248954 0.0056425032         3928 
 4966000   0.46351126   -9.4058339    466.51872 0.0078285462   0.00564041         3927 
 4967000   0.45881718    -9.404293    466.38512 0.0078247285 0.0056383174         3932 
 4968000   0.45225413   -9.3952408    465.37861 0.0078062702 0.0056362252         3930 
 4969000   0.44438889   -9.4125726     465.6312 0.0078089354 0.0056341325         3932 
 4970000   0.46007355   -9.4102339    466.10368 0.0078152864 0.0056320422         3911 
 4971000   0.46048004    -9.410643    466.27612 0.0078166049 0.0056299541         3927 
 4972000   0.45528536   -9.4042566    465.67779 0.0078050045 0.0056278658         3915 
 4973000   0.46061926   -9.4185203    466.60005 0.0078188895 0.0056257796         3927 
 4974000   0.45832188   -9.4072029     466.1115 0.0078091325 0.0056236949         3923 
 4975000   0.45464111   -9.4013085    466.35352 0.0078116167 0.0056216102         3947 
 4976000   0.46826217   -9.4206804    466.92845 0.0078196753 0.0056195263         3915 
 4977000   0.45386635   -9.4232786    465.71978 0.0077978666 0.0056174431         3923 
 4978000   0.45523515   -9.4030798    466.39901 0.0078076705 0.0056153603         3935 
 4979000   0.45047565   -9.4062672    465.38346 0.0077891053 0.0056132798         3921 
 4980000   0.45949095   -9.4118639    464.95604 0.0077803889 0.0056112011         3922 
 4981000   0.45687257   -9.4326496    466.46337 0.0078040449 0.0056091225         3926 
 4982000   0.44985663   -9.4170354    466.64032 0.0078054382  0.005607044         3936 
 4983000   0.45034382   -9.4079262    466.64738 0.0078039898 0.0056049679         3929 
 4984000   0.46105267   -9.4184028    466.17138 0.0077944653 0.0056028923         3931 
 4985000   0.46073361   -9.4183928    466.16251 0.0077927535 0.0056008185         3922 
 4986000   0.45871771    -9.399416    466.17927 0.0077914706 0.0055987445         3932 
 4987000   0.45606341   -9.4119932      466.062 0.0077879487 0.0055966716         3948 
 4988000    0.4510509   -9.4126263    466.08487 0.0077867693 0.0055946012         3920 
 4989000   0.44458912   -9.4365312    465.96523 0.0077832102   0.00559253         3932 
 4990000    0.4539214   -9.4076471    465.71184 0.0077774188 0.0055904585         3908 
 4991000   0.44295661   -9.4099292    466.29734 0.0077856365 0.0055883894         3933 
 4992000   0.44931133   -9.4217365    466.28771 0.0077839162 0.0055863228         3929 
 4993000   0.44579346   -9.4055454    465.84822  0.007775022  0.005584257         3933 
 4994000   0.45101045     -9.41739    465.72928 0.0077714804 0.0055821915         3940 
 4995000   0.45045385   -9.4120359    466.17821 0.0077774143 0.0055801266         3927 
 4996000   0.44073101   -9.3987875    466.32609 0.0077783242 0.0055780646         3934 
 4997000   0.45101584   -9.4043876    466.24799 0.0077754651  0.005576002         3925 
 4998000   0.45396218   -9.4039582    466.17627 0.0077727135 0.0055739416         3921 
 4999000   0.44554103   -9.4231401     466.1738 0.0077711175 0.0055718798         3936 
 5000000   0.45599184   -9.4156979    466.14166 0.0077690276 0.0055698196         3925 
 5001000   0.44770571   -9.4052919    465.73752 0.0077607399 0.0055677617         3933 
 5002000   0.45318782   -9.4042419     465.5793 0.0077565524 0.0055657029         3929 
 5003000   0.45116201    -9.420203    466.31381 0.0077672365 0.0055636467         3925 
 5004000   0.44775019   -9.4104644    465.35852 0.0077497755 0.0055615906         3919 
 5005000   0.45451916   -9.4119925    466.24933 0.0077630591 0.0055595379         3911 
 5006000   0.45802035   -9.4244229    466.08398 0.0077587558 0.0055574841         3939 
 5007000   0.43756272   -9.4234281    465.79585 0.0077524109 0.0055554304         3938 
 5008000    0.4505895   -9.4209207    465.90751 0.0077527208  0.005553379         3929 
 5009000   0.45330785   -9.4254365     466.2425 0.0077567462 0.0055513297         3911 
 5010000   0.45306574   -9.4242107    465.40881 0.0077413309 0.0055492807         3922 
 5011000   0.45549771   -9.4161982     465.1783 0.0077359526 0.0055472331         3951 
 5012000    0.4503857   -9.4150055    466.01637 0.0077483434 0.0055451866         3935 
Loop time of 13297.4 on 48 procs for 5000000 steps with 4000 atoms

Performance: 64975.075 tau/day, 376.013 timesteps/s
99.4% CPU use with 48 MPI tasks x no OpenMP threads

MPI task timing breakdown:
Section |  min time  |  avg time  |  max time  |%varavg| %total
---------------------------------------------------------------
Pair    | 957.03     | 1101.8     | 1200.3     | 181.8 |  8.29
Neigh   | 95.178     | 98.261     | 101.43     |  17.9 |  0.74
Comm    | 836.05     | 950.42     | 1085.9     | 198.7 |  7.15
Output  | 18.363     | 18.368     | 18.475     |   0.4 |  0.14
Modify  | 10959      | 11002      | 11040      |  21.0 | 82.74
Other   |            | 126.9      |            |       |  0.95

Nlocal:        83.3333 ave          88 max          76 min
Histogram: 1 0 1 4 5 13 5 9 8 2
Nghost:        2453.54 ave        2465 max        2441 min
Histogram: 5 2 8 3 2 4 9 9 0 6
Neighs:        17024.1 ave       19500 max       14197 min
Histogram: 1 4 7 5 4 8 5 4 7 3
FullNghs:      34048.6 ave       35954 max       31186 min
Histogram: 1 1 2 6 6 7 4 9 10 2

Total # of neighbors = 1634333
Ave neighs/atom = 408.58325
Neighbor list builds = 265923
Dangerous builds = 1

#clear
#
#next RN
#
#jump SELF
Total wall time: 3:41:41
