
units lj                  # Use reduced LJ style units
atom_style atomic         # Uncharged point particles
atom_modify map hash      # Needed for indexing of clusters etc
                          # Used to be able to find where atoms are in relation to each other.

lattice fcc 1.0 spacing 1 1 1
Lattice spacing in x,y,z = 1.5874011 1.5874011 1.5874011
region box block 0 10 0 10 0 10 units lattice
create_box 2 box
Created orthogonal box = (0.0000000 0.0000000 0.0000000) to (15.874011 15.874011 15.874011)
  3 by 4 by 4 MPI processor grid
create_atoms 1 box
Created 4000 atoms
  using lattice units in orthogonal box = (0.0000000 0.0000000 0.0000000) to (15.874011 15.874011 15.874011)
  create_atoms CPU = 0.002 seconds
set type 1 type/fraction 2 0.43 78393
Setting atom values ...
  1722 settings made for type/fraction
mass 1 1.0
mass 2 1.0
pair_style lj/cut  3.5
pair_modify tail  yes
pair_coeff 1  1  1.0  1.0   # Intearaction between 1 and 1 set with epsilon = 1 and sigma = 1
pair_coeff 1  2  1.5  0.8
pair_coeff 2  2  0.5  0.88

write_data data.0
System init for write_data ...
Neighbor list info ...
  update every 1 steps, delay 10 steps, check yes
  max neighbors/atom: 2000, page size: 100000
  master list distance cutoff = 3.8
  ghost atom cutoff = 3.8
  binsize = 1.9, bins = 9 9 9
  1 neighbor lists, perpetual/occasional/extra = 1 0 0
  (1) pair lj/cut, perpetual
      attributes: half, newton on
      pair build: half/bin/atomonly/newton
      stencil: half/bin/3d
      bin: standard
WARNING: Not all mixed pair coeffs generated from mixing. Use write_data with 'pair ij' option to store all pair coeffs. (../write_data.cpp:312)


#############################
#   M E L T   S Y S T E M   #
#############################

velocity all create 2.4 6229865 mom yes dist gaussian # Assign velocities
                                                    # Temperature 2.4, random number seed, zero linear momentum
                                                                                # Gaussian distribution

timestep 0.002   # simulation timestep
thermo 1000       # output thermodynamic data every 1000 steps bf 100

# Define a fix  in this case with index 1 applied to all
# particles in the simulation. This fix is for simulations
# in the anisotropic NPT ensemble. Note that we use the MTK
# correction.
fix 1 all npt temp 2.4 2.4 0.1 iso 5.68 5.68 0.5 mtk yes tchain 5 pchain 5 # Use NPT ensemble
                                                                         # Set temperature and pressure and damping
                                                                         # Numbers of thermostats in chain and in barostat
run 10000          # run for 10000 steps
Per MPI rank memory allocation (min/avg/max) = 3.642 | 3.644 | 3.648 Mbytes
Step Temp E_pair E_mol TotEng Press Volume 
       0          2.4   -5.6998203            0   -2.1007203   -4.1891945         4000 
    1000    2.4141971   -4.9551622            0   -1.3347719    5.9425981    3826.9718 
    2000    2.4313989   -5.0752557            0   -1.4290692    5.4487582    3820.0788 
    3000    2.4013386   -5.0282434            0   -1.4271361    6.0272962    3791.6849 
    4000    2.4207329   -5.0543374            0   -1.4241458    5.6624253    3813.6775 
    5000    2.3916195   -4.9728982            0   -1.3863658    6.3660471    3785.6755 
    6000     2.429104   -4.9976083            0   -1.3548632     5.543465    3840.3609 
    7000    2.4244799   -5.0176212            0   -1.3818106    6.0272779    3794.3177 
    8000    2.3678376   -4.9833788            0   -1.4325104    5.5293493    3839.7084 
    9000    2.4176865   -5.0295702            0   -1.4039471    5.5118076    3838.1671 
   10000    2.4557816   -4.9454152            0   -1.2626637     5.852002    3849.9173 
Loop time of 2.54158 on 48 procs for 10000 steps with 4000 atoms

Performance: 679892.742 tau/day, 3934.564 timesteps/s
99.6% CPU use with 48 MPI tasks x no OpenMP threads

MPI task timing breakdown:
Section |  min time  |  avg time  |  max time  |%varavg| %total
---------------------------------------------------------------
Pair    | 1.1177     | 1.2054     | 1.2847     |   2.6 | 47.43
Neigh   | 0.209      | 0.21737    | 0.2292     |   0.8 |  8.55
Comm    | 0.7849     | 0.85945    | 0.95429    |   3.4 | 33.82
Output  | 0.00024374 | 0.00024775 | 0.00032019 |   0.0 |  0.01
Modify  | 0.21665    | 0.24358    | 0.29042    |   3.1 |  9.58
Other   |            | 0.0155     |            |       |  0.61

Nlocal:        83.3333 ave          94 max          74 min
Histogram: 2 2 4 8 12 7 7 2 1 3
Nghost:        1686.69 ave        1719 max        1654 min
Histogram: 2 1 8 7 4 6 7 9 3 1
Neighs:        9923.38 ave       11529 max        8179 min
Histogram: 1 1 1 8 16 7 3 7 2 2

Total # of neighbors = 476322
Ave neighs/atom = 119.08050
Neighbor list builds = 901
Dangerous builds = 176

# Equilibrate just above the melting temperature to avoid step fn in T

fix 1 all npt temp 1.25 1.25 0.1 iso 5.68 5.68 0.5 mtk yes tchain 5 pchain 5
run 2000
Per MPI rank memory allocation (min/avg/max) = 3.643 | 3.645 | 3.649 Mbytes
Step Temp E_pair E_mol TotEng Press Volume 
   10000    2.4557816   -4.9454152            0   -1.2626637     5.852002    3849.9173 
   11000    1.2324093   -7.0273925            0   -5.1792408    5.8589541    3022.2522 
   12000    1.2503676   -7.0787377            0   -5.2036552    5.5093914    3020.5524 
Loop time of 0.617665 on 48 procs for 2000 steps with 4000 atoms

Performance: 559526.807 tau/day, 3238.002 timesteps/s
99.7% CPU use with 48 MPI tasks x no OpenMP threads

MPI task timing breakdown:
Section |  min time  |  avg time  |  max time  |%varavg| %total
---------------------------------------------------------------
Pair    | 0.2831     | 0.30052    | 0.32886    |   2.2 | 48.65
Neigh   | 0.03973    | 0.041619   | 0.04571    |   0.6 |  6.74
Comm    | 0.1963     | 0.22571    | 0.24785    |   2.8 | 36.54
Output  | 5.1383e-05 | 5.2883e-05 | 6.8029e-05 |   0.0 |  0.01
Modify  | 0.040993   | 0.044908   | 0.048758   |   1.1 |  7.27
Other   |            | 0.004852   |            |       |  0.79

Nlocal:        83.3333 ave          91 max          75 min
Histogram: 1 3 1 8 7 15 4 2 4 3
Nghost:        1980.08 ave        2005 max        1952 min
Histogram: 3 0 5 4 8 7 12 6 2 1
Neighs:        12636.1 ave       13920 max       11289 min
Histogram: 4 0 5 9 5 8 5 4 5 3

Total # of neighbors = 606533
Ave neighs/atom = 151.63325
Neighbor list builds = 142
Dangerous builds = 12

#############################
# L I N E A R  Q U E N C H  #
#############################

# Define solid atoms. This closely follows ten Wolde  Ruiz-Montero and Frenkel  Faraday Discuss  1996  104  93-110
# Compute components of the per-atom q6 vector
compute q6 all orientorder/atom degrees 1 6 components 6 nnn NULL cutoff 1.3 # compute the Q6 parameter.
                                                                             # Use all neighbours within 1.3 unit cell.

# get number of connections
compute coord_number all coord/atom orientorder q6 0.5

# An atom is solid if it has 8 or more connections (of a possible 14)
variable is_solid atom c_coord_number>=8
group solid dynamic all var is_solid    # Must be dynamic to update
dynamic group solid defined

# do clustering
compute cluster solid cluster/atom 1.3 # Create a cluster where all atoms within are solid and max 1.3 units from another member

# define chunks one chunk per cluster
compute clus_chunks solid chunk/atom c_cluster nchunk every compress yes  # Says which atoms are in which chunk

# count the size of each chunk
compute size_chunks solid property/chunk clus_chunks count


# Find the maximum entry in the vector of chunk sizes
variable max_n equal max(c_size_chunks)


# Thermo style which includes this variable
# thermo_style custom step temp pe vol v_max_n

thermo ${N}  # Print the thermo information every 100 steps
thermo 1000  

# Reset the npt fix at a lower temperature (below freezing)
fix 1  all npt temp  ${temp} ${temp}  0.1  iso  5.68  5.68  0.5  mtk yes tchain  5  pchain  5
fix 1  all npt temp  0.45 ${temp}  0.1  iso  5.68  5.68  0.5  mtk yes tchain  5  pchain  5
fix 1  all npt temp  0.45 0.45  0.1  iso  5.68  5.68  0.5  mtk yes tchain  5  pchain  5

dump dmp2 all dcd ${N} traj.dcd
dump dmp2 all dcd 1000 traj.dcd


compute msd all msd com yes
variable twopoint equal c_msd[4]/6/(step*dt+1.0e-6)
fix 9 all vector 10 c_msd[4]
variable fit equal slope(f_9)/6/(10*dt)
thermo_style custom step temp pe c_msd[4] v_twopoint v_fit v_max_n

fix 1 all npt temp 1.25 ${temp} 0.1 iso 5.68 5.68 0.5 mtk yes tchain 5 pchain 5
fix 1 all npt temp 1.25 0.45 0.1 iso 5.68 5.68 0.5 mtk yes tchain 5 pchain 5
run 2000000 # 5000000  # Run for this many steps
Neighbor list info ...
  update every 1 steps, delay 10 steps, check yes
  max neighbors/atom: 2000, page size: 100000
  master list distance cutoff = 3.8
  ghost atom cutoff = 3.8
  binsize = 1.9, bins = 8 8 8
  4 neighbor lists, perpetual/occasional/extra = 1 3 0
  (1) pair lj/cut, perpetual
      attributes: half, newton on
      pair build: half/bin/atomonly/newton
      stencil: half/bin/3d
      bin: standard
  (2) compute orientorder/atom, occasional
      attributes: full, newton on
      pair build: full/bin/atomonly
      stencil: full/bin/3d
      bin: standard
  (3) compute coord/atom, occasional
      attributes: full, newton on
      pair build: full/bin/atomonly
      stencil: full/bin/3d
      bin: standard
  (4) compute cluster/atom, occasional
      attributes: full, newton on
      pair build: full/bin/atomonly
      stencil: full/bin/3d
      bin: standard
Per MPI rank memory allocation (min/avg/max) = 9.829 | 9.834 | 9.840 Mbytes
Step Temp PotEng c_msd[4] v_twopoint v_fit v_max_n 
   12000    1.2503676   -7.0787377 8.444756e-31 5.8644136e-33 8.3333333e+20            2 
   13000    1.2371492    -7.152487   0.47179019  0.003024296  0.039055493            1 
   14000    1.2428953    -7.107791    0.9003724 0.0053593593  0.036257518            2 
   15000    1.2387224   -7.1552952    1.3835602 0.0076864454  0.037462574            1 
   16000    1.2797441    -7.125454    1.8200541 0.0094794484  0.037436318            1 
   17000    1.2449669   -7.1428078    2.2477224  0.011018247   0.03733542            2 
   18000    1.2495738    -7.115005    2.7378081  0.012675037  0.037427358            2 
   19000    1.2557072   -7.1296387    3.1953882   0.01401486  0.037663596            1 
   20000    1.2546598   -7.1053937    3.5757065  0.014898777  0.037365516            2 
   21000    1.2797824   -7.1329863    3.9633914  0.015727743  0.036970446            1 
   22000    1.2494127   -7.1540085    4.3224996  0.016373104  0.036488153            1 
   23000    1.2539595   -7.1538102     4.686892  0.016981492  0.035876468            1 
   24000    1.2302654    -7.128435    5.0655269  0.017588635  0.035434998            1 
   25000    1.2387473   -7.1596221    5.4111589  0.018037196   0.03492808            4 
   26000    1.2474763   -7.1526091    5.8155705  0.018639649  0.034490799            1 
   27000    1.2104841   -7.1433655    6.2351291  0.019244225  0.034270754            2 
   28000     1.267304   -7.1493575     6.762904   0.02012769  0.034190586            2 
   29000    1.2464283   -7.1486663    7.0808795  0.020347355  0.034168495            1 
   30000    1.2384786   -7.1382516    7.4657699  0.020738249  0.034049972            1 
   31000    1.2524479   -7.1854091    7.9945064  0.021490608  0.034032041            1 
   32000    1.2658962   -7.1583779     8.549875  0.022265299  0.034149394            2 
   33000    1.2508616   -7.1513931    8.9929634  0.022709503  0.034370164            1 
   34000    1.2258172   -7.1466399      9.44757  0.023155808  0.034579444            2 
   35000    1.2317979   -7.1225404    9.9023287  0.023576973  0.034774962            1 
   36000    1.2211013   -7.1535905    10.339842   0.02393482  0.034938575            1 
   37000     1.217759   -7.1372748    10.675403    0.0240437   0.03502873            1 
   38000    1.2554747   -7.1132844    11.145697  0.024442319  0.035067587            3 
   39000    1.2369419   -7.1385925    11.592076  0.024769393   0.03513509            1 
   40000    1.2620134   -7.1371012    11.908136  0.024808617  0.035177366            1 
   41000     1.237344   -7.1526149    12.172102  0.024740044  0.035131174            1 
   42000    1.2276913    -7.183744    12.560921  0.024922462  0.035054204            2 
   43000    1.2338524   -7.1429138    12.953759  0.025104184  0.034976983            2 
   44000    1.2270131   -7.1696187    13.321233  0.025229607  0.034896207            3 
   45000    1.2449866   -7.1988605    13.696658  0.025364181  0.034823737            1 
   46000    1.2515251   -7.1259444    14.161604   0.02565508  0.034748314            1 
   47000    1.2462408   -7.1387017    14.708073  0.026078144  0.034713845            3 
   48000     1.239612     -7.15483    15.144182  0.026291983  0.034711397            1 
   49000    1.2315433   -7.1263878    15.634607  0.026589467  0.034720893            2 
   50000    1.2090994    -7.190197    16.091139  0.026818564  0.034754932            4 
   51000    1.2192555   -7.1880636     16.56911  0.027073709  0.034792822            1 
   52000    1.2255085   -7.1387792    17.114624  0.027427282  0.034862558            5 
   53000    1.2053927   -7.1717811    17.493121  0.027504907  0.034932278            3 
   54000    1.2424014   -7.1641534    17.847879  0.027543024  0.034982811            2 
   55000    1.2534215   -7.1491818    18.266487  0.027676495  0.035006181            2 
   56000    1.2368162    -7.198182    18.626665  0.027718252  0.035027989            3 
   57000    1.2416246   -7.2082157    19.036444  0.027831058  0.035029562            4 
   58000    1.2531848   -7.1474348    19.476224   0.02798308  0.035039406            2 
   59000    1.2438588   -7.1731953    19.839417  0.028021775  0.035042485            1 
   60000     1.212447   -7.1698703    20.134219  0.027964192  0.035035091            1 
   61000    1.2189958   -7.1854688     20.53031  0.028046872  0.035017279            2 
   62000    1.2321873   -7.1546959    21.194304  0.028486967  0.035015995            3 
   63000    1.2041341   -7.1811588    21.602594   0.02857486  0.035036632            2 
   64000    1.2304107   -7.2081206    22.143617  0.028832834  0.035068505            2 
   65000    1.2322364    -7.204262    22.500134  0.028846325  0.035104057            2 
   66000    1.2583703   -7.1677422    23.105812  0.029174004  0.035131948            1 
   67000    1.2236621   -7.1916811    23.550056  0.029291114  0.035174815            4 
   68000    1.2373719   -7.1992474     24.11623  0.029554204  0.035238613            3 
   69000    1.2142769   -7.1946854      24.6459  0.029765579  0.035316387            2 
   70000    1.2137936   -7.2083459    25.011251  0.029775299  0.035381468            2 
   71000    1.2085057   -7.2349204    25.260357  0.029648306  0.035426021            5 
   72000    1.2234534   -7.1585251     25.52221  0.029539595  0.035441226            2 
   73000    1.2425047   -7.1615963    25.931036   0.02960164   0.03543982            1 
   74000    1.2476324   -7.1948965    26.075974  0.029364835   0.03541812            2 
   75000    1.2223034   -7.2263374    26.587887  0.029542096  0.035393633            2 
   76000    1.2162776   -7.1759172    27.075921   0.02968851  0.035381682            3 
   77000    1.2297268   -7.2047739    27.355811  0.029605856  0.035361477            1 
   78000    1.2513346   -7.2167114    27.696604  0.029590388  0.035332702            2 
   79000    1.2389224   -7.1944575    28.106334  0.029648031  0.035304685            1 
   80000    1.2092276   -7.2151167    28.662389  0.029856655  0.035282037            3 
   81000    1.2313746   -7.2225141    29.086459   0.02992434  0.035260132            3 
   82000    1.2370296   -7.2355749    29.488364  0.029967849  0.035241657            1 
   83000    1.2248004    -7.177655    30.145865  0.030266933  0.035231106            2 
   84000    1.2122585   -7.1942148    30.299697  0.030059223  0.035219678            1 
   85000    1.2641176   -7.1799019    30.541714  0.029942857  0.035189112            2 
   86000    1.2272942   -7.1930625    30.908638   0.02995023  0.035152477            2 
   87000    1.2360007   -7.1955521    31.294513  0.029975587  0.035118517            2 
   88000    1.2156593    -7.207619    31.806956  0.030120223  0.035092168            1 
   89000     1.231977   -7.2076207    32.018252  0.029979636  0.035067016            2 
   90000    1.2262891   -7.1937695     32.40498  0.030004611  0.035029146            2 
   91000    1.2175652   -7.1771586    32.696452  0.029941805  0.034984963            2 
   92000    1.2072191   -7.1649269    33.166979  0.030042553   0.03493914            5 
   93000    1.2032643   -7.1801356    33.380086  0.029910472  0.034893686            1 
   94000    1.2012853   -7.2404837    33.819504   0.02998183  0.034846349            2 
   95000    1.2333466   -7.2160517    34.116075  0.029926382  0.034796972            1 
   96000    1.2063472   -7.2103624    34.629953  0.030060723  0.034746948            2 
   97000    1.2042334   -7.2088865    35.061115  0.030121233  0.034699628            1 
   98000    1.2068727   -7.1869092     35.29596  0.030013572  0.034650931            1 
   99000    1.2035316   -7.2496452    35.688349  0.030040698  0.034603231            3 
  100000    1.1961688   -7.2194067    36.157203  0.030131002  0.034557975            2 
  101000    1.2188386   -7.1605187      36.5047  0.030119389  0.034513066            1 
  102000    1.2314339   -7.2147656    36.944819  0.030183676   0.03447132            1 
  103000    1.2026482   -7.2334371    37.120373  0.030032664  0.034425773            3 
  104000    1.2154747   -7.1871116    37.389617  0.029959629  0.034377914            6 
  105000    1.1629516   -7.2115211     37.83399  0.030026976  0.034327785            2 
  106000     1.191689   -7.2350955    38.036908   0.02990323  0.034274494            1 
  107000    1.2324444   -7.2305638    38.517015  0.029997675  0.034223205            1 
  108000     1.219825   -7.2130447    38.879775  0.029999826  0.034176255            1 
  109000    1.2256161    -7.224551    39.573669  0.030255099  0.034131707            1 
  110000    1.2071288   -7.1252835    40.009086  0.030309913  0.034095867            1 
  111000     1.215898   -7.2026247    40.199931  0.030180129  0.034059449            1 
  112000    1.1997419   -7.2203118    40.642039  0.030239613  0.034024786            3 
  113000    1.2053834   -7.1933846    40.964193  0.030209581  0.033988433            2 
  114000     1.224127   -7.2596708     41.18034  0.030102587  0.033953549            2 
  115000    1.1923698   -7.2638667    41.716456  0.030229316  0.033918138            1 
  116000    1.2254326   -7.2408689    42.023857  0.030189552  0.033881217            2 
  117000    1.2309033   -7.2040983    42.540834  0.030299739  0.033850689            2 
  118000    1.2148499   -7.2862719    42.581719  0.030071835   0.03381691            2 
  119000    1.2236501   -7.2052127    43.395595  0.030389072  0.033787433            2 
  120000    1.1921785   -7.2575035    43.704248  0.030350172   0.03376063            2 
  121000    1.2067746   -7.2348148    43.828542  0.030184946  0.033731561            2 
  122000    1.2101845   -7.2546905    44.292247  0.030254267  0.033698068            3 
  123000    1.1995726   -7.1938691    44.802237  0.030353819    0.0336646            1 
  124000    1.2337475   -7.2302199    45.008669  0.030247761  0.033632759            1 
  125000    1.2209693   -7.2565265    45.528916  0.030352611  0.033604559            2 
  126000    1.1881417   -7.2722938     45.74303  0.030253326  0.033576518            2 
  127000    1.1941392   -7.2298224    46.359577   0.03041967  0.033552114            1 
  128000    1.1646639   -7.2447765    46.830011  0.030488289  0.033530835            1 
  129000    1.2000107   -7.1921868     47.29572   0.03055279  0.033511792            1 
  130000    1.1858388   -7.2583495    47.394775  0.030381266  0.033488912            2 
  131000    1.2139923   -7.2412306    47.791976   0.03040202  0.033464772            1 
  132000    1.2042507   -7.2261203    48.363777  0.030532687  0.033441806            1 
  133000    1.1843122   -7.2277492    48.531449  0.030408176  0.033420366            2 
  134000    1.1728209   -7.2561119    48.766918  0.030327685  0.033392179            1 
  135000     1.160567   -7.1847444    49.206853  0.030374601  0.033365671            1 
  136000    1.1967566   -7.1971163    49.861186  0.030552197  0.033342676            2 
  137000    1.2157156   -7.2492214    50.181057  0.030523757  0.033327637            4 
  138000    1.2157983   -7.2360771    50.731168  0.030634763  0.033313227            1 
  139000    1.2336156   -7.2211807    51.022225  0.030588864  0.033299929            3 
  140000    1.2140605   -7.2603382    51.621654  0.030727175  0.033288218            2 
  141000    1.1904543     -7.23743    52.074572  0.030776934  0.033280695            4 
  142000    1.1779272   -7.2011622    52.596351  0.030866403  0.033273551            1 
  143000    1.1973104   -7.2452588    52.905564  0.030830748  0.033269051            1 
  144000    1.1800749   -7.2690352    53.114779  0.030737719  0.033262736            1 
  145000    1.1817496    -7.313699    53.454016  0.030720699  0.033252841            1 
  146000    1.2014833   -7.2684097    53.786893  0.030700281    0.0332428            1 
  147000    1.2030687   -7.2688485    54.362004  0.030817462  0.033231089            2 
  148000    1.1878475   -7.2339466     54.41667  0.030640017  0.033221056            3 
  149000    1.1929776   -7.2884718    55.029905  0.030777351  0.033211904            2 
  150000    1.1811866   -7.2679658     55.57698    0.0308761  0.033203399            1 
  151000     1.211047   -7.2290375    56.032655  0.030923099  0.033196093            1 
  152000    1.1860259   -7.2478211    56.273662  0.030851788  0.033187101            3 
  153000    1.2014541   -7.3151828    56.478254  0.030761576  0.033176824            1 
  154000    1.2012851   -7.2694528    56.929179  0.030805832  0.033165925            1 
  155000    1.1894724   -7.2514022    57.498498  0.030913171  0.033157816            1 
  156000    1.1669258   -7.2446772    57.714024  0.030830141  0.033149164            3 
  157000    1.1855989   -7.2752785    58.283768  0.030936182  0.033141271            2 
  158000    1.1900315   -7.2527285    58.450657  0.030828406  0.033133423            1 
  159000     1.178214   -7.2551103    58.964958  0.030904066  0.033121883            2 
  160000    1.2189253   -7.2509506    59.066441  0.030763771  0.033108288            1 
  161000    1.1638984   -7.2713345    59.424603  0.030758076  0.033093846            3 
  162000    1.1741625    -7.305904    59.711423  0.030715753  0.033080131            2 
  163000    1.1956797   -7.2604031     60.18846  0.030771196  0.033066819            1 
  164000    1.1768331   -7.2733543    60.259658  0.030619745  0.033048491            1 
  165000    1.1714235   -7.2742949    60.760869  0.030687307  0.033029977            1 
  166000    1.1870384   -7.2816933    61.212863  0.030729349  0.033014029            1 
  167000    1.1672867    -7.307027    61.643943   0.03076045  0.032997531            3 
  168000    1.1650767   -7.2882723    61.806759  0.030658114  0.032982731       -1e+20 
  169000     1.180233   -7.2734552    62.233759  0.030687258  0.032965557            1 
  170000    1.1861498   -7.2640696    62.661825  0.030716581  0.032946482            1 
  171000    1.1882629    -7.309649    62.614359   0.03051382  0.032929275            1 
  172000    1.1855686   -7.2990032    63.195848  0.030618143  0.032910123            1 
  173000    1.1887146    -7.289108    63.555803  0.030614549  0.032890709            4 
  174000    1.1840738   -7.2829732    64.165284    0.0307305  0.032872056            1 
  175000    1.1889674   -7.3223262    64.139814  0.030542769  0.032850789            1 
  176000    1.1820419   -7.2852195    64.614058  0.030593777  0.032830152            2 
  177000    1.1745931   -7.2461494    65.102126  0.030650719  0.032809504            1 
  178000    1.1746241   -7.2815023    64.965724  0.030414665  0.032785687            2 
  179000    1.1747715   -7.2736155    65.400379  0.030447104  0.032762065            1 
  180000     1.215194   -7.3167763    65.554568  0.030349337  0.032737658            1 
  181000    1.2004283   -7.2658305    66.032327  0.030401624  0.032711179            2 
  182000    1.1885511   -7.2735535    66.420947  0.030412521  0.032685318            5 
  183000    1.1926591   -7.2784039    66.513323  0.030288398  0.032657787            2 
  184000    1.1765073   -7.2597691    66.583637  0.030155633  0.032628266            3 
  185000    1.1849274   -7.2679998    66.983381  0.030172694  0.032597172            1 
  186000     1.165783   -7.2809236    67.426734   0.03020911  0.032565972            3 
  187000    1.1917964   -7.2830438    67.552855  0.030103768  0.032534522            1 
  188000    1.2079019   -7.2707026    67.771287  0.030040464  0.032502194            2 
  189000    1.2151089   -7.2646237    68.282779  0.030107045  0.032470305            2 
  190000    1.1869135   -7.3281648    68.116858  0.029875815  0.032435872            1 
  191000    1.1751813   -7.3296358    68.676023  0.029963361  0.032399248            2 
  192000    1.1612248   -7.2999529    69.223559  0.030044947  0.032364353            2 
  193000    1.1796492   -7.3139481    69.401548  0.029966126  0.032329459            1 
  194000    1.1922623   -7.3113668    69.409922  0.029815259  0.032290898            2 
  195000    1.1714846   -7.2904943    69.888758  0.029866991  0.032253587            1 
  196000    1.1808313   -7.3055469    70.469328  0.029961449  0.032216747            3 
  197000    1.2086978   -7.3525046    70.399294  0.029779735  0.032181716            1 
  198000    1.1786124   -7.3530657    70.784967  0.029791653  0.032145159            2 
  199000    1.1815806   -7.2921331    71.216443  0.029822631  0.032112266            1 
  200000     1.176721   -7.2630164    71.948179  0.029978408  0.032082271            3 
  201000    1.1924792    -7.292228    71.934479  0.029823581    0.0320508            6 
  202000     1.167195   -7.3265359    72.364247  0.029853237  0.032017597            1 
  203000    1.1656944   -7.3401402    72.312311  0.029684857  0.031983131            1 
  204000    1.1740161   -7.2600866    73.032296  0.029833454  0.031948213            4 
  205000    1.1681363   -7.3405318    73.250317  0.029776552  0.031917408            5 
  206000    1.1857829   -7.3555018    73.500634  0.029733266  0.031885133            4 
  207000    1.1719536   -7.2985272    73.927901  0.029761635  0.031851848            1 
  208000    1.1636733    -7.339415    73.887268  0.029602271  0.031816216            1 
  209000    1.1646816   -7.3004064    74.384292  0.029658809  0.031782041            1 
  210000    1.2056229   -7.2834516    75.122503  0.029810517  0.031751014            1 
  211000    1.1825252   -7.3540895    75.216581  0.029706391   0.03172175            2 
  212000    1.1652973   -7.3243778    75.645962  0.029735048  0.031692578            2 
  213000    1.1823302   -7.3148152    76.082473  0.029766226   0.03166265            4 
  214000    1.1726045   -7.2808532    76.184919  0.029667025  0.031633166            1 
  215000    1.1506652   -7.2928414    76.807698  0.029770425  0.031603261            1 
  216000    1.1709269   -7.3397846    76.547763  0.029532316  0.031571267            2 
  217000    1.1585305   -7.3443593    76.735735  0.029468408  0.031538193            1 
  218000    1.1832792   -7.3185021     76.82327  0.029366693  0.031502871            6 
  219000    1.1729272    -7.314879    77.284347  0.029408047  0.031467699            3 
  220000    1.1826018   -7.3501116    77.791198  0.029466363  0.031434596            2 
  221000    1.1509404   -7.3356658    77.720433  0.029306347  0.031401579            4 
  222000    1.1793422   -7.3049134    78.238225  0.029368703  0.031368354            3 
  223000    1.1682726   -7.3757014    78.277099  0.029251532  0.031333939            2 
  224000    1.1707592   -7.3552793    78.726751  0.029288226  0.031299637            1 
  225000    1.1767355   -7.3636423    79.170619  0.029322451  0.031266597            1 
  226000       1.1506   -7.3240807    79.662242  0.029373983  0.031234547            3 
  227000    1.1504383   -7.3226438    80.058393  0.029390012  0.031200921            2 
  228000    1.1744975   -7.3344423    79.962143   0.02922593   0.03116663            2 
  229000    1.1423632   -7.3256548     80.55838  0.029315277  0.031133744            3 
  230000    1.1622153   -7.3697011    80.261442  0.029080233  0.031099631            1 
  231000    1.1598223   -7.3221958    80.881959  0.029178196  0.031065329            2 
  232000    1.1676512     -7.31395    81.201689  0.029167273  0.031031818            1 
  233000    1.1599669   -7.3878231    81.199924  0.029041461  0.030997047            1 
  234000     1.169774   -7.3558483    81.743988  0.029111107  0.030963325            3 
  235000    1.1404233    -7.326899    81.931372  0.029053678  0.030931156            2 
  236000    1.1954214   -7.3621244    82.563425  0.029153752  0.030898441            2 
  237000    1.1448106   -7.4070593    82.535903  0.029021063  0.030867917            2 
  238000    1.1393376   -7.3568517    83.132237  0.029107926  0.030835806            2 
  239000    1.1751328   -7.3814847    83.123358   0.02898304  0.030805445            1 
  240000     1.135223   -7.4030299    83.666032  0.029050705  0.030774301            1 
  241000    1.1313553   -7.3569172    84.536207  0.029231053   0.03074622            2 
  242000    1.1585728   -7.3970511    84.370999  0.029053374   0.03071848            2 
  243000    1.1562936    -7.305638    85.368564  0.029275914  0.030691728            1 
  244000    1.1340095   -7.3617681    85.665227   0.02925725  0.030667503            1 
  245000     1.131264   -7.3341134     85.95505  0.029236412  0.030643347            1 
  246000    1.1462625   -7.3727814    86.259172  0.029220587  0.030620569            3 
  247000    1.1390884   -7.3581757    86.771489  0.029275131  0.030598422            1 
  248000    1.1554089    -7.329506    87.257607  0.029320432  0.030577297            3 
  249000    1.1860261    -7.372032    86.965795  0.029105018  0.030554644            2 
  250000    1.1360603   -7.3585393    87.587296  0.029195765  0.030530761            2 
  251000    1.1694873   -7.3850162    87.799303  0.029149835  0.030507098            4 
  252000    1.1633044   -7.3066541    88.040734  0.029113999  0.030484176            1 
  253000    1.1705306   -7.3155063    88.588371  0.029179305  0.030461491            2 
  254000    1.1330488   -7.3440622    88.314242  0.028974489  0.030437957            1 
  255000    1.1563961   -7.3237115    89.137679   0.02912996  0.030414593            2 
  256000     1.130573   -7.3445426    89.326296   0.02907757  0.030392492            2 
  257000    1.1627911   -7.3654369    89.936221  0.029162199  0.030370897            2 
  258000    1.1456153   -7.3178902    90.471006  0.029221901  0.030351592            2 
  259000    1.1636067   -7.3407054    90.444688  0.029100607  0.030331577            2 
  260000    1.1420077   -7.3779836    90.840251  0.029115465  0.030312998            1 
  261000    1.1401749   -7.3624774    91.159028  0.029105692  0.030293076            2 
  262000    1.1777568   -7.3976703    91.683785  0.029161509  0.030274169            2 
  263000       1.1402   -7.3958239    91.870746  0.029109869  0.030255363            1 
  264000    1.1339884   -7.3278123    92.284257  0.029130132  0.030236951            1 
  265000    1.1506349   -7.3651274    92.520192    0.0290944  0.030218783            2 
  266000    1.1570241   -7.3813277    92.733675  0.029051903  0.030200879            2 
  267000    1.1551437   -7.3542207    93.513216  0.029186397  0.030183658            1 
  268000    1.1457899   -7.3516082    93.817007  0.029171955  0.030167421            1 
  269000    1.1548687    -7.402709    94.072085  0.029142529  0.030151188            1 
  270000    1.1596049   -7.3627312    94.607402  0.029199815  0.030135222            1 
  271000    1.1608086   -7.3746336     94.58259  0.029084437  0.030119565            2 
  272000    1.1656706    -7.321743    95.358872  0.029215341   0.03010446            1 
  273000    1.1206971   -7.3634629    95.510892  0.029154729  0.030089515            2 
  274000    1.1251508   -7.4009305    95.640561  0.029087762  0.030073292            1 
  275000    1.1457941   -7.3703372    95.806627  0.029032311  0.030056797            1 
  276000    1.1026156   -7.4365685    95.729548  0.028903849  0.030037522            2 
  277000     1.166192   -7.4305665    95.713007  0.028794527  0.030018239            2 
  278000    1.1489632   -7.3530927    96.444599  0.028910252  0.029997912            3 
  279000    1.1442872   -7.4396775    96.440003  0.028805258  0.029978448            3 
  280000    1.1530364    -7.382815    97.044146  0.028882186  0.029958067            2 
  281000    1.1491764    -7.359966    97.167545  0.028815998  0.029937054            1 
  282000    1.1274444     -7.38797    97.220868  0.028729571  0.029916346            1 
  283000    1.1422413   -7.4082016    97.366888  0.028671051  0.029894894            3 
  284000    1.1048227   -7.3915926    97.747648  0.028681822  0.029872797            2 
  285000    1.1469748   -7.3806084    98.017358  0.028660046  0.029850156            3 
  286000    1.1502884   -7.3798764    98.158004  0.028600817  0.029828041            1 
  287000    1.1101231   -7.4029556    98.516915  0.028605376   0.02980505            1 
  288000    1.1417723   -7.3899189    99.234094  0.028713569  0.029782014            2 
  289000    1.1450788   -7.4222225    99.129337  0.028584007  0.029759622            1 
  290000    1.1489427   -7.4268309    99.554876  0.028607723  0.029736873            5 
  291000     1.135179   -7.4472239    99.489489   0.02849069    0.0297134            1 
  292000    1.1225302   -7.4202732    99.902019   0.02851085  0.029690427            1 
  293000    1.1404177   -7.3979215     100.1788  0.028492264  0.029667571            3 
  294000    1.1515044   -7.3810718    100.26622  0.028420129  0.029645222            1 
  295000    1.1509076   -7.4338891    100.68419  0.028441862  0.029622963            3 
  296000    1.1195946   -7.3861314    101.47647  0.028568827   0.02959966            1 
  297000    1.1453872   -7.4449521    101.34156  0.028434782  0.029577634            2 
  298000    1.1452095   -7.3897337    101.82876  0.028475603  0.029554322            2 
  299000    1.1300983   -7.4161532    101.86099   0.02838935  0.029532092            2 
  300000    1.1383948   -7.3793356    102.44614  0.028457261  0.029510572            2 
  301000    1.1293073   -7.4020961    102.36988  0.028341606  0.029488816            3 
  302000    1.1347652   -7.3855077    102.42268  0.028262329  0.029465539            2 
  303000    1.1298314   -7.4389828     102.7681  0.028264053  0.029442435            1 
  304000    1.1180012   -7.4026086    103.22984  0.028297653  0.029418959            2 
  305000    1.1451371   -7.4018174    103.33513  0.028233643  0.029395652            3 
  306000    1.1370524     -7.39868     103.5636  0.028203594  0.029372313            3 
  307000    1.1337192   -7.4578352    103.82251  0.028182006  0.029347477            1 
  308000    1.1099035   -7.4412087    104.09524  0.028164297  0.029323861            1 
  309000     1.143608   -7.4454067    104.26687  0.028119437   0.02930108            2 
  310000    1.1279764   -7.4146195    104.91302  0.028202425  0.029278173            3 
  311000    1.1281243   -7.4315247    105.25814  0.028204217    0.0292554            2 
  312000    1.1274454   -7.4272513    105.64088  0.028216048  0.029233517            1 
  313000    1.1270437   -7.4056694    106.21413  0.028278523  0.029211429            1 
  314000    1.1275597   -7.3552735    106.67262  0.028310144  0.029190637            2 
  315000    1.1138319     -7.40742    106.79291  0.028252092  0.029171128            2 
  316000    1.1548514    -7.442641    106.99552  0.028216118  0.029150803            4 
  317000    1.1113396   -7.4037215    107.24456  0.028192576  0.029131175            2 
  318000    1.1613994   -7.4204411    107.28785  0.028115263   0.02911056            2 
  319000    1.1105103   -7.3932087    108.21946  0.028270496  0.029090444            2 
  320000    1.1082675   -7.4084988    108.14746  0.028163401  0.029070741            1 
  321000    1.1300881   -7.4407489    108.54302  0.028178355  0.029051108            3 
  322000    1.1424753   -7.4332446    109.15137  0.028248283  0.029032523            1 
  323000    1.1338616   -7.4209038    109.26777  0.028190859  0.029014558            2 
  324000    1.1348107   -7.4674277    109.09352  0.028059033  0.028995427            2 
  325000    1.1568566   -7.4743592    109.48546  0.028073194  0.028974784            3 
  326000    1.1363107   -7.4127011    109.66387  0.028032688  0.028953765            1 
  327000    1.1478298    -7.431778    110.02313  0.028038513  0.028932846            2 
  328000    1.1298579   -7.4349334    109.87591  0.027915627   0.02891185            1 
  329000    1.1337932    -7.460192    110.64645  0.028025949  0.028891563            2 
  330000    1.1179233   -7.4284715    110.69491  0.027953259  0.028870773            1 
  331000     1.120832    -7.433518    111.23729   0.02800536   0.02885072            1 
  332000    1.0945873   -7.4056551    111.99229  0.028110514   0.02883175            2 
  333000    1.1155827   -7.4952351     111.4757  0.027896822  0.028811406            1 
  334000      1.15834   -7.4798786    111.94355  0.027930028  0.028791272            2 
  335000    1.1364688   -7.4735366    111.71438  0.027789646  0.028771189            2 
  336000    1.1068504   -7.4710678    112.22253  0.027832968  0.028750686            3 
  337000     1.109111   -7.4618597    112.72487  0.027874598  0.028730898            3 
  338000    1.1258611   -7.4962648    112.56287  0.027752188   0.02871034            2 
  339000    1.1149636    -7.434803    113.25109  0.027839502  0.028689535            2 
  340000    1.1261797    -7.459959    113.04056  0.027706019  0.028668476            1 
  341000    1.1104995   -7.4084192    113.47573  0.027731116  0.028646594            3 
  342000    1.1169801   -7.4381317     113.7258  0.027710965   0.02862472            4 
  343000    1.1235575   -7.4337618    114.12124   0.02772625    0.0286033            1 
  344000     1.119119   -7.4332402    113.51362  0.027498456  0.028580774            4 
  345000    1.1201519   -7.4641727    114.56832  0.027673508  0.028558491            5 
  346000    1.0909551   -7.4048772    115.12746  0.027728193  0.028536387            7 
  347000    1.1145171   -7.4612331    115.05866  0.027631762  0.028515316            4 
  348000    1.1236516   -7.5114541    114.99005   0.02753593  0.028493795            2 
  349000    1.1155406   -7.4779513    115.68695  0.027623435  0.028472986            2 
  350000    1.1321573   -7.4288822    115.86053  0.027585841  0.028451991            2 
  351000    1.1060047    -7.451413    116.18315  0.027583843   0.02843049            1 
  352000    1.0990656   -7.4173424    116.58188  0.027599878  0.028409641            5 
  353000    1.1211793   -7.4568509    116.39528  0.027477639  0.028388024            2 
  354000    1.1167452   -7.4478333    116.99592  0.027541413  0.028366635            2 
  355000    1.1201846   -7.4095778    117.34389  0.027545514  0.028344874            2 
  356000    1.1177317   -7.4712816    117.33304    0.0274656  0.028323679            3 
  357000    1.1252898   -7.5120722    117.35487   0.02739376  0.028301688            1 
  358000    1.0884198   -7.5149688    117.19183  0.027279291  0.028279346            2 
  359000    1.1083076   -7.4497677    118.34106  0.027470068  0.028256856            2 
  360000     1.106596   -7.4201967    118.14195  0.027347673  0.028234747            2 
  361000    1.1069141   -7.4618885    118.45549  0.027344296   0.02821277            2 
  362000    1.1190863   -7.4873113     118.0268  0.027170073  0.028189776            3 
  363000    1.1259403   -7.4557069    119.01189  0.027321372  0.028166299            5 
  364000    1.0918963   -7.5076592    118.55419  0.027141527  0.028143506            4 
  365000    1.1277032    -7.463521    119.14837  0.027202823  0.028119548            2 
  366000     1.096296   -7.4617339       118.94  0.027081056  0.028095068            1 
  367000    1.1133227   -7.5005172    118.98583  0.027017673  0.028069833            2 
  368000    1.1152291   -7.4062225    119.58507  0.027079953  0.028045242            3 
  369000    1.1094644   -7.4647026    120.09063  0.027120739  0.028021411            1 
  370000    1.1214124   -7.4887766     120.0374  0.027035451  0.027997759            1 
  371000    1.1098785   -7.4955643     120.2043  0.027000068  0.027973592            1 
  372000    1.0890522   -7.5278982      119.876  0.026853943  0.027948527            3 
  373000    1.0918387   -7.4702434    120.50973  0.026923532  0.027923205            4 
  374000    1.0913688   -7.4522655     120.9123  0.026941243  0.027898211            1 
  375000    1.1030931   -7.4508485    121.26629  0.026948064  0.027873644            3 
  376000    1.1104027   -7.5019823    121.07316  0.026833591  0.027848801            1 
  377000    1.1118724    -7.468378     121.7387  0.026909528  0.027823812            2 
  378000    1.1149655   -7.4673878    122.02747     0.026902  0.027799493            2 
  379000    1.1036426   -7.4888768    121.76808  0.026773985  0.027774856            5 
  380000    1.0919941   -7.4669925    122.05433  0.026766301  0.027749661            3 
  381000    1.1072204   -7.4661283    122.16601  0.026720475  0.027724283            1 
  382000    1.1085943   -7.5350486    122.23742  0.026666104  0.027698918            2 
  383000    1.0823305   -7.5219892    122.82046  0.026723338  0.027673891            2 
  384000    1.0625408   -7.5101827    123.04663  0.026702827  0.027648629            2 
  385000     1.102468   -7.4739899    123.36319  0.026701989  0.027624234            2 
  386000    1.0860997   -7.4714342    123.68659  0.026702633  0.027599888            2 
  387000    1.1052248   -7.4868879    123.95032  0.026690421   0.02757584            2 
  388000    1.0874727     -7.51614    123.72753  0.026573783  0.027551502            2 
  389000    1.0876708    -7.543901    124.22987  0.026613083  0.027527182            3 
  390000    1.0743312   -7.5348868    124.38491  0.026577973  0.027502737            2 
  391000    1.1101126   -7.5064274    124.91171  0.026622273  0.027478558            1 
  392000    1.0987617   -7.4753607    125.06354  0.026586638  0.027455424            1 
  393000    1.0832147   -7.4941797    125.66803  0.026647164  0.027432701            1 
  394000    1.0922158   -7.4649346    126.02661  0.026655375  0.027410955            1 
  395000    1.0978075   -7.5269387    126.27401  0.026640086  0.027389179            3 
  396000    1.1119201   -7.4935344    126.20812  0.026558948  0.027367037            2 
  397000    1.1120597   -7.5065291    126.72955    0.0266015  0.027345563            3 
  398000    1.0692727   -7.5516845    126.84682  0.026559217  0.027323862            3 
  399000    1.0614748   -7.4839383    127.68864   0.02666847  0.027303232            3 
  400000     1.071117   -7.5065008    127.62971  0.026589523  0.027282509            2 
  401000    1.0813908    -7.489566    127.88688  0.026576658  0.027261007            1 
  402000    1.0969339   -7.5119943     127.8469   0.02650226  0.027239944            1 
  403000    1.0816173   -7.4752148    128.61601  0.026595535  0.027218803            2 
  404000    1.1226744    -7.502335    128.58799  0.026523925  0.027197075            3 
  405000    1.1110401   -7.5062774    128.84662  0.026511651  0.027175514            3 
  406000    1.0884884   -7.5161484     128.8382  0.026444623  0.027153994            3 
  407000    1.0756794   -7.5182936    129.17978  0.026449587  0.027132059            2 
  408000    1.1090438   -7.4977698    129.09055  0.026366534  0.027110016            1 
  409000    1.0882595   -7.4902783    129.69401  0.026425022  0.027088272            2 
  410000    1.1230705    -7.511284    129.76389  0.026374775  0.027066653            2 
  411000    1.0777288   -7.5052813    130.04348   0.02636729  0.027045077            1 
  412000    1.1029831   -7.5240596     129.9016  0.026274595  0.027023102            2 
  413000    1.0828257   -7.5176974    130.44754  0.026321133  0.027001716            2 
  414000    1.0548453   -7.5351276    130.75951  0.026320352  0.026980922            2 
  415000    1.0739602   -7.5018379    130.88233  0.026281592  0.026959459            3 
  416000    1.0985943   -7.5344045    131.36878  0.026315861  0.026938209            3 
  417000    1.1005819   -7.5290679    130.95505  0.026170074  0.026917181            1 
  418000    1.0820962   -7.5656579    130.77448  0.026071467  0.026895658            1 
  419000     1.082322   -7.5057073    131.73414  0.026200107  0.026873329            1 
  420000    1.0968702   -7.5471582    131.83198  0.026157139  0.026851449            1 
  421000    1.0795415   -7.5217971    131.91013  0.026110476  0.026829229            2 
  422000     1.083983   -7.5039497    132.50531  0.026166136   0.02680747            2 
  423000    1.0693368   -7.5299847    132.47074  0.026097466  0.026785788            2 
  424000    1.0774645   -7.5528748    132.61708  0.026064678  0.026763665            1 
  425000    1.0832623    -7.530612    133.06692  0.026091554  0.026741384            4 
  426000    1.0924917   -7.5145698    133.07302  0.026031499  0.026718767            1 
  427000    1.0707176   -7.4962076     133.2552  0.026006088  0.026696284            1 
  428000    1.0793318   -7.5299579    133.37994  0.025969614  0.026673484            1 
  429000    1.0797939   -7.5673598    133.71622  0.025974402  0.026650964            4 
  430000    1.0787565   -7.5481837    133.89976  0.025949565  0.026628763       -1e+20 
  431000    1.0927324   -7.5091865    134.03665  0.025915825  0.026606628            3 
  432000    1.0600121   -7.5426734    134.06001  0.025860341     0.026585            1 
  433000    1.0695908   -7.5443313    134.64305  0.025912827  0.026562703            2 
  434000    1.0977766   -7.5459284    134.60044  0.025844938  0.026540163            1 
  435000    1.0852823   -7.5141651    135.28191  0.025916074  0.026518167            1 
  436000    1.0886258   -7.5265699    135.55602  0.025909024   0.02649651            1 
  437000    1.0693737   -7.5495401    135.95897  0.025926576  0.026475032            1 
  438000    1.0548059   -7.5372429    135.77988  0.025833311  0.026453604            2 
  439000    1.0774595   -7.5515449    136.08476  0.025832338  0.026432505            3 
  440000    1.0785222    -7.515418     136.3866  0.025830796  0.026411567            1 
  441000    1.0895507   -7.5587187    136.31711  0.025759092  0.026390781            1 
  442000    1.0688789   -7.5464188    137.05519  0.025839969  0.026370733            3 
  443000      1.07065   -7.5461394    137.21627  0.025811939  0.026350499            2 
  444000    1.0585073   -7.5403807    137.06562  0.025725529  0.026330169            3 
  445000    1.0878162   -7.5605853    137.58357  0.025764714  0.026309382            2 
  446000    1.0825398   -7.5766554    137.80409  0.025748148  0.026289144            1 
  447000    1.0830676   -7.5480163    138.03841   0.02573423  0.026268609            3 
  448000    1.0916281   -7.5707493    138.26221  0.025718416  0.026248065            2 
  449000    1.0638812   -7.5714879     138.8041  0.025761712  0.026227525            2 
  450000    1.0801882   -7.5544619    138.55226  0.025657826  0.026206974            2 
  451000    1.0541736   -7.5396567    138.78743  0.025644388  0.026186861            2 
  452000     1.090223   -7.5834148    139.09817  0.025644944  0.026166951            2 
  453000    1.0733024   -7.5644751    139.37185  0.025638677  0.026146617            2 
  454000    1.0651475   -7.5574029    139.43168  0.025593186  0.026126328            2 
  455000    1.0540873   -7.5785793    139.92827  0.025627889  0.026105913            1 
  456000    1.0751192   -7.5654494    139.84616  0.025556682    0.0260862            2 
  457000    1.0713618   -7.5393761    140.32073  0.025587296  0.026066377            2 
  458000    1.0699234   -7.5494474    140.70899  0.025602072  0.026046868            2 
  459000    1.0661022   -7.5552043    141.01248  0.025601394  0.026027169            2 
  460000    1.0609561   -7.5684107     141.0661  0.025555453  0.026007984            2 
  461000    1.0787491   -7.5760033    141.06753  0.025500276  0.025988581            2 
  462000    1.0429088   -7.5558601    141.33342  0.025493042  0.025968828            1 
  463000    1.0636712   -7.5347591    142.20877  0.025595531  0.025949566            2 
  464000    1.0456938   -7.5923592    141.45907  0.025405724  0.025930188            8 
  465000    1.0484661   -7.5661719    142.71716  0.025576552  0.025910664            1 
  466000    1.0734067   -7.5589232    142.29603  0.025446357  0.025892116            3 
  467000    1.0867033   -7.5728583    142.86763  0.025493868  0.025872874            2 
  468000    1.0798999   -7.6081821    143.01122  0.025464962  0.025853774            1 
  469000    1.0725444   -7.5666562    143.34968  0.025470802  0.025835034            3 
  470000    1.0603589   -7.5700728    143.42701  0.025430321  0.025816487            1 
  471000    1.0757695   -7.5939277    143.91067  0.025461902  0.025797826            3 
  472000    1.0688743    -7.578153    143.72401  0.025375002  0.025778875            1 
  473000    1.0658514   -7.5774812    143.77451  0.025330252   0.02575984            1 
  474000    1.0632098   -7.6006632    144.13829  0.025340768  0.025740979            3 
  475000    1.0461899   -7.5688992    144.51162  0.025352916  0.025721577            2 
  476000    1.0862679   -7.5677791    144.70624  0.025333726  0.025702094            4 
  477000    1.0479562    -7.598908    144.54344  0.025252174  0.025683287            2 
  478000    1.0585967   -7.5900739    145.33048  0.025336555  0.025664685            2 
  479000    1.0720001   -7.5597259    145.64839  0.025338968  0.025645597            1 
  480000    1.0650962   -7.5538927    146.15638  0.025374372  0.025626918            1 
  481000    1.0455901   -7.5804346    145.63445  0.025231193  0.025608539            2 
  482000    1.0787149   -7.6306307    145.64223  0.025180192  0.025589513            2 
  483000    1.0654334   -7.6083918    145.87866  0.025168851  0.025570327            1 
  484000    1.0560194   -7.5963418    146.17058  0.025167111  0.025550802            2 
  485000    1.0819845   -7.6130867    146.27721  0.025133542  0.025531149            1 
  486000    1.0710032   -7.5614673    146.92403  0.025192734   0.02551254            4 
  487000    1.0852572   -7.5755777     146.9285  0.025141769  0.025494005            2 
  488000    1.0267825   -7.5458735    147.35889  0.025163745  0.025475675            1 
  489000     1.081655   -7.5967309     147.8849  0.025201925  0.025457219            2 
  490000    1.0673486   -7.5852907    147.85531  0.025145461  0.025438932            3 
  491000    1.0760656   -7.6246385    147.88281  0.025098915  0.025420931            3 
  492000    1.0615903   -7.6166665    147.90427  0.025051537  0.025402596            3 
  493000    1.0806405    -7.590483    148.14539  0.025041479  0.025384137            4 
  494000    1.0539349    -7.582327    148.16168  0.024993535  0.025365788            2 
  495000       1.0873   -7.5624564    149.46688  0.025162775  0.025347506            1 
  496000    1.0450024   -7.5368374     149.4428  0.025107997  0.025329687            1 
  497000    1.0500628   -7.5956389    149.46076  0.025060489  0.025311287            1 
  498000    1.0791436   -7.5853736    150.02399  0.025104415  0.025293847            2 
  499000    1.0417542   -7.5888266    150.82553  0.025187964  0.025276474            3 
  500000    1.0717548   -7.6081148    150.20894  0.025034823  0.025259093            1 
  501000    1.0509787   -7.6316027     150.4065  0.025017715   0.02524173            4 
  502000    1.0542936   -7.6232576    150.87852  0.025046234  0.025224448            2 
  503000    1.0349587   -7.5916919    151.41368  0.025085103  0.025207483            1 
  504000    1.0443663   -7.6099697    151.13182  0.024988727  0.025190288            1 
  505000    1.0783836   -7.5613872    151.78663  0.025047298  0.025173386            1 
  506000    1.0573972   -7.6028001    151.81755  0.025002891  0.025156829            4 
  507000    1.0357057   -7.6301049    151.87655  0.024963272  0.025140343            1 
  508000    1.0491752   -7.5650143    152.78927  0.025063856  0.025123997            2 
  509000    1.0412125   -7.6139013    153.16316  0.025075828  0.025107592            3 
  510000    1.0574348   -7.6232331    152.59955  0.024934567  0.025091554            1 
  511000    1.0648834   -7.5840671    152.58665  0.024883668  0.025075215            2 
  512000    1.0591936   -7.6594813    152.94712  0.024893738  0.025058695            5 
  513000    1.0418905   -7.6328529    152.87531  0.024833545  0.025042021            2 
  514000     1.056029   -7.6418232    153.43351  0.024875731   0.02502546            4 
  515000    1.0528552   -7.6039204    153.52818  0.024842747  0.025008925            3 
  516000    1.0428242   -7.6469105    153.74619  0.024829811   0.02499235            3 
  517000    1.0201241   -7.6146363    154.31752  0.024873874  0.024976045            3 
  518000    1.0528487   -7.5985293    154.57213  0.024866816   0.02496005            4 
  519000    1.0686737   -7.6272659    155.27398  0.024931597  0.024944213            2 
  520000     1.052947   -7.6049122    155.21027  0.024873441  0.024928614            2 
  521000    1.0473319   -7.6233207    155.32887  0.024844669  0.024913095            2 
  522000    1.0451124   -7.6180396    155.55176  0.024832656  0.024897269            2 
  523000    1.0346599   -7.6197871    156.11389  0.024874743  0.024881525            1 
  524000    1.0498017   -7.6440236    155.45885    0.0247231  0.024865776            1 
  525000    1.0345131   -7.6558269    155.88983  0.024744418  0.024849754            2 
  526000    1.0533347   -7.6332438    155.71404  0.024669524  0.024833886            1 
  527000    1.0307449   -7.6191468    156.05817   0.02467713  0.024817963            2 
  528000    1.0548661   -7.5733543    156.54726  0.024707585  0.024802122            1 
  529000     1.027624   -7.6176356    156.59462  0.024668339  0.024786114            4 
  530000    1.0497051   -7.6311187    156.52828  0.024611365  0.024769546            2 
  531000    1.0448195   -7.6393474    157.31001  0.024687697  0.024752919            2 
  532000    1.0517692   -7.6521278    157.51766  0.024673819  0.024736754            1 
  533000    1.0299018   -7.6000197    157.60525  0.024641222  0.024720606            2 
  534000    1.0328534   -7.6171895    157.60869  0.024595614  0.024704724            3 
  535000    1.0376256   -7.6423779    158.03554  0.024616127  0.024688617            3 
  536000    1.0557025   -7.6418644    158.38998  0.024625308  0.024672737            2 
  537000    1.0456226   -7.6451349    158.08584  0.024532253  0.024656553            1 
  538000    1.0370333   -7.6561382    158.48699  0.024548791  0.024640301            1 
  539000    1.0374998   -7.6676921    158.16051  0.024452769   0.02462422            1 
  540000    1.0492942   -7.6554171    159.10498  0.024553237  0.024608288            1 
  541000    1.0354307   -7.6378877    159.29335  0.024536869  0.024592235            1 
  542000    1.0602296   -7.6400182    159.53118  0.024528164  0.024576282            6 
  543000    1.0395787   -7.6450862    159.29348  0.024446513  0.024560268            1 
  544000    1.0218555   -7.6570546    159.68028  0.024460828  0.024544438            5 
  545000    1.0260976   -7.5799096    160.60619  0.024557521   0.02452886            3 
  546000    1.0339382   -7.6421716    160.09726  0.024434869  0.024513755            2 
  547000    1.0377925   -7.6682475    159.88365  0.024357655  0.024498112            3 
  548000    1.0389195   -7.6543091    160.38963  0.024390151  0.024482089            1 
  549000     1.032985   -7.7039217    160.29528  0.024331402  0.024466182            2 
  550000     1.041558   -7.6488223    160.89165  0.024377522  0.024450239            2 
  551000    1.0554811   -7.6480283    161.35344  0.024403122  0.024434162            2 
  552000    1.0590441   -7.6432826    160.70113  0.024260437  0.024418068            4 
  553000    1.0349029   -7.6174435    161.59633  0.024351466   0.02440223            1 
  554000    1.0186161   -7.6341067    161.82215  0.024341478  0.024386328            1 
  555000    1.0298514   -7.6452681    161.46383  0.024243818  0.024370395            3 
  556000    1.0453572   -7.6720529    162.00358  0.024281112  0.024354112            3 
  557000    1.0270651   -7.6615401    161.69995  0.024192092  0.024337811            2 
  558000    1.0573199   -7.6678758    162.56907  0.024278535  0.024321593            3 
  559000    1.0296649    -7.643738     162.7319  0.024259377   0.02430557            2 
  560000    1.0297773   -7.6765448    162.80131  0.024226385  0.024289464            8 
  561000    1.0345233   -7.6836755    162.58037  0.024150382  0.024273109            1 
  562000    1.0281495   -7.6686046    163.14465  0.024191081  0.024257125            3 
  563000    1.0322252   -7.6024494    163.98101  0.024271908  0.024241157            2 
  564000    1.0220248   -7.6676827    163.35446  0.024136298  0.024225486            4 
  565000    1.0361469   -7.6261073    164.26357  0.024227666  0.024209587            3 
  566000    1.0245181   -7.6599801    164.19868  0.024175307  0.024193834            5 
  567000    1.0224189   -7.6440256    163.91116  0.024090412  0.024177885            2 
  568000    1.0254843   -7.6819006    164.04467  0.024067587  0.024161893            1 
  569000    1.0278106    -7.681057    164.37972  0.024074359  0.024145844            2 
  570000    1.0317198   -7.6867869    164.31632  0.024022854  0.024129701            1 
  571000    1.0188957   -7.7126511    163.56892  0.023871705    0.0241128            2 
  572000    1.0299992   -7.6374339    164.66703  0.023989952  0.024096175            2 
  573000    1.0055996   -7.7088519    163.93418  0.023841504  0.024079425            1 
  574000    1.0394543   -7.6628569    164.68287  0.023908663  0.024062519            1 
  575000    1.0281279   -7.6968317    164.80404  0.023884644  0.024045849            1 
  576000    1.0255024   -7.6677525    165.44979  0.023936602  0.024028844            3 
  577000    1.0341745   -7.7005385    165.19123  0.023857774  0.024012125            2 
  578000    1.0352322   -7.7134226    164.83416  0.023765018  0.023995102            4 
  579000    1.0146246   -7.7050018    164.87581  0.023729968  0.023977962            2 
  580000    1.0352756   -7.7110646    165.48035  0.023775913  0.023960528            5 
  581000    1.0360652   -7.7216802    165.79741  0.023780466  0.023943394            2 
  582000    1.0170056    -7.710905    165.66432  0.023720549   0.02392622            2 
  583000    1.0063385   -7.6642477    165.95427  0.023721308  0.023909333            3 
  584000    1.0088449   -7.7203491    165.80733  0.023659722  0.023892069            8 
  585000    1.0227877   -7.7097563    166.00264  0.023647099  0.023874515            3 
  586000    1.0347027    -7.703213    166.78819  0.023718457  0.023857163            3 
  587000    1.0322156   -7.6990974    166.20766  0.023595635  0.023839685            1 
  588000    1.0315917   -7.6800672    167.23449  0.023701034  0.023822766            3 
  589000    1.0203686   -7.7263194    167.04321  0.023633732  0.023805988            1 
  590000    1.0128104   -7.6996377    167.53622  0.023663308  0.023789152            1 
  591000    1.0143871   -7.7130895    167.14813  0.023568546   0.02377237            1 
  592000    1.0088888   -7.6998111    167.41929  0.023566905  0.023755085            2 
  593000    1.0028974    -7.676872    167.52677  0.023542267  0.023738093            1 
  594000     1.022154   -7.7544403    167.60321  0.023513357  0.023721072            3 
  595000    1.0230972    -7.691302    168.16003  0.023551825  0.023703992            3 
  596000    1.0084059   -7.7084693    168.29867  0.023531693  0.023686892            2 
  597000    1.0110507   -7.6493052    168.95324  0.023583645  0.023669707            2 
  598000    1.0152994   -7.7064134    168.89269   0.02353577  0.023652916            1 
  599000    1.0175009   -7.7039709    168.72513  0.023473168  0.023635954            1 
  600000     1.022627   -7.7149933    169.45587  0.023535538  0.023619196            1 
  601000    1.0487749   -7.7256818    169.27988  0.023471974  0.023602226            3 
  602000    1.0140407   -7.7493274    169.35212  0.023442985  0.023585526            3 
  603000    1.0158928   -7.7464654    169.75031  0.023459136  0.023569003            2 
  604000    1.0163274   -7.6810795    170.11544  0.023470673  0.023552453            1 
  605000    1.0040033   -7.6960042    170.37227  0.023467255  0.023536059            3 
  606000    1.0149339   -7.7000088    170.54118  0.023451758   0.02352031            2 
  607000    1.0326121   -7.7087285     170.7344  0.023439648  0.023504472            4 
  608000   0.98485767   -7.7345075    170.83553  0.023414958  0.023488321            4 
  609000      1.04347   -7.7174477    171.39661  0.023453285  0.023472499            3 
  610000    1.0206746   -7.7324457    171.02914  0.023364637  0.023456534            1 
  611000    1.0235004   -7.7225471    171.41846  0.023379496  0.023440561            3 
  612000    1.0082648   -7.7411969    171.72943  0.023383637  0.023424502            2 
  613000   0.99799041   -7.7255887    171.63698  0.023332922  0.023408318            1 
  614000   0.99430504   -7.7179438    171.85376  0.023324343  0.023392044            1 
  615000    1.0089975   -7.7289057    171.83136  0.023283382  0.023376205            1 
  616000    1.0051684   -7.7491361    172.60761  0.023350597  0.023360395            3 
  617000   0.99645787   -7.7471241    172.65975  0.023319793  0.023344485            1 
  618000    1.0163614   -7.7218183    173.39084  0.023380642  0.023328717            1 
  619000   0.99021744   -7.7086546    173.40388  0.023344625  0.023313264            2 
  620000    1.0166976   -7.7497464    173.24005  0.023284953  0.023297558            4 
  621000    0.9941246   -7.7111356    173.28722  0.023253786  0.023281786            3 
  622000    0.9942436   -7.7195022    173.54891  0.023251461  0.023265946            3 
  623000   0.99569964   -7.7497106    173.91864  0.023263595  0.023250112            3 
  624000    1.0417651      -7.7277    173.85023  0.023217178  0.023234332            1 
  625000    0.9689781   -7.7345828    173.88805  0.023185073  0.023218595            1 
  626000     1.005423   -7.7184802    174.28764   0.02320123   0.02320273            3 
  627000     1.001912   -7.7850742     173.8236  0.023102552  0.023186782            2 
  628000    1.0136133   -7.7265734    174.96995   0.02321788  0.023170771            4 
  629000    1.0212303   -7.7270001    174.60459  0.023132563  0.023154707            1 
  630000    0.9796898   -7.7485639    174.80171  0.023121919  0.023138658            2 
  631000    1.0087214   -7.7727397    174.70426  0.023072406  0.023122621            3 
  632000   0.99779998   -7.7818125    174.78819  0.023046966  0.023106321            2 
  633000   0.99957212   -7.7893229    173.83217  0.022884699  0.023089921            3 
  634000    1.0182243     -7.78007    174.78409  0.022973724  0.023073263            3 
  635000    1.0177652   -7.7280932    175.27709  0.023002243  0.023056667            2 
  636000   0.99294568   -7.7372252    175.58399  0.023006288  0.023040503            3 
  637000    1.0055181   -7.7848225    175.70227  0.022985645  0.023024243            2 
  638000    1.0331861   -7.7543876     176.0102  0.022989838  0.023008321            2 
  639000    1.0036063   -7.7820075    176.07577  0.022962411  0.022992301            3 
  640000   0.99040665   -7.7685294    176.10788  0.022930714  0.022976201            2 
  641000    0.9854148   -7.7704115    176.30456   0.02292051  0.022960091            2 
  642000    1.0227238   -7.7687439    176.13047   0.02286221  0.022943793            1 
  643000   0.98893683   -7.7871115    176.53356  0.022878896  0.022927857            7 
  644000    1.0022131   -7.7741123    176.91651  0.022892923  0.022911803            5 
  645000   0.99273733   -7.7868831    176.97547  0.022865048   0.02289603            2 
  646000   0.98165232   -7.7429362     177.7056  0.022923839  0.022880251            1 
  647000   0.97269372   -7.7423014    177.85898  0.022908164  0.022864897            1 
  648000     1.026761   -7.7697244    177.55606  0.022833856   0.02284932            3 
  649000   0.99315728   -7.7401713    177.99881  0.022855523  0.022833676            2 
  650000    1.0138282   -7.7302119    178.74286  0.022915751  0.022818496            1 
  651000    1.0071621   -7.7952954    178.26986  0.022820003   0.02280309            1 
  652000   0.98418984   -7.7531024    178.50061  0.022814495    0.0227874            2 
  653000   0.99020109   -7.7864547    178.33403  0.022758298   0.02277157            2 
  654000   0.98074292   -7.7768374    178.62699  0.022760829   0.02275587            3 
  655000   0.99364695   -7.8304165    177.90388  0.022634082   0.02274017            3 
  656000   0.98653653   -7.8154532    178.30992  0.022651158  0.022724345            2 
  657000    1.0045229   -7.7879603    179.03443  0.022708579  0.022708506            4 
  658000    0.9700197   -7.7888947    178.89508  0.022656419  0.022692684            2 
  659000   0.99572719   -7.7875504    179.39197  0.022684872  0.022677123            3 
  660000     1.000295   -7.7539328    179.77299  0.022698609  0.022661738            3 
  661000   0.97672481   -7.7807163    179.93013   0.02268408  0.022646602            3 
  662000   0.99642006   -7.8008815    179.82945  0.022637141  0.022630897            5 
  663000    1.0055327   -7.7440861    180.23482  0.022653949  0.022615599            1 
  664000   0.99678757    -7.761288    180.31794  0.022630263  0.022600291            2 
  665000     0.984192   -7.7581372    180.12433  0.022571971  0.022584682            2 
  666000   0.98727344   -7.7420293    180.68572  0.022608323  0.022569032            2 
  667000   0.98614914   -7.7639743     180.6354   0.02256814  0.022553234            1 
  668000   0.97425034   -7.7716181    180.86488  0.022562983  0.022537534            3 
  669000   0.96151811   -7.7702601    180.57239  0.022492824   0.02252155            2 
  670000   0.97592902   -7.7796176    180.64157  0.022467857  0.022505591            3 
  671000   0.98697532   -7.8143313    180.78197  0.022451809  0.022489285            1 
  672000    0.9828489   -7.7591636    180.75348  0.022414866  0.022473014            3 
  673000     1.004144   -7.7676284    181.01653  0.022414132  0.022456777            2 
  674000   0.97832297    -7.779067    181.25635  0.022410528  0.022440357            2 
  675000   0.99446001   -7.7864892    180.92527  0.022336453  0.022423846            1 
  676000    0.9722209   -7.7661823    181.34944    0.0223557  0.022407428            2 
  677000   0.98902685    -7.780674    181.74475  0.022371338  0.022391069            2 
  678000    0.9848458   -7.7940948    181.21743  0.022273528  0.022374745            1 
  679000   0.98764538   -7.8185448     181.6696  0.022296219  0.022358443            1 
  680000   0.98990868   -7.8095991    182.03875   0.02230867  0.022342132            2 
  681000   0.99965832   -7.8098114    181.94387  0.022264301  0.022325848            1 
  682000   0.98174152   -7.7728606    182.61436  0.022313583  0.022309779            2 
  683000   0.98387809   -7.8073931    182.13453  0.022222368  0.022293601            2 
  684000   0.99152836   -7.7867268    182.62684  0.022249859  0.022277414            2 
  685000   0.99548189   -7.8289282    182.10494  0.022153886  0.022261158            1 
  686000   0.96109539   -7.8112221    182.50745  0.022170487  0.022244643            6 
  687000   0.97579789   -7.8212735    182.52844  0.022140762  0.022228203            2 
  688000   0.98720217   -7.8130251    182.71646  0.022131354  0.022211476            6 
  689000   0.97135753   -7.8062884    182.76162  0.022104695  0.022195017            2 
  690000   0.97510718   -7.8130142    183.34929  0.022143634   0.02217861            3 
  691000    0.9549957   -7.8346181    183.29122  0.022104585  0.022162254            2 
  692000   0.97598768   -7.8627415    182.89055  0.022024391  0.022145664            1 
  693000   0.99672066   -7.8237308    183.22391  0.022032698   0.02212921            2 
  694000    0.9762312   -7.8507102    183.43991  0.022026886  0.022112764            3 
  695000   0.98918642   -7.8010142    183.51868  0.022004638  0.022096193            4 
  696000   0.96518715   -7.8050884    183.79102  0.022005629  0.022079504            3 
  697000   0.98130242   -7.8367571    183.84093  0.021980025  0.022062864            4 
  698000   0.97060586   -7.8254711     183.9378  0.021960101  0.022046147            3 
  699000   0.98588695    -7.799635    184.15606  0.021954704  0.022029544            3 
  700000    1.0078527   -7.8288197    183.79745  0.021880649  0.022012649            5 
  701000   0.96732616   -7.8321196     183.7423   0.02184288  0.021995533            1 
  702000   0.97103636   -7.8688779    183.73403  0.021810783  0.021978282            2 
  703000   0.95665939   -7.8729407    183.94148  0.021804347   0.02196108            2 
  704000   0.95272617   -7.8084997    184.72135   0.02186569  0.021944207            3 
  705000   0.96759135   -7.7773176    184.90299  0.021856145  0.021927441            2 
  706000   0.98164551   -7.7975891     184.7295   0.02180471  0.021910523            2 
  707000    0.9744117   -7.8481265    184.49282  0.021745971  0.021893697            2 
  708000   0.96647171   -7.8498721    184.82273  0.021754087  0.021876484            4 
  709000   0.96558714   -7.8251012    185.18824  0.021766365  0.021859625            3 
  710000   0.96028423   -7.8285618    185.50496  0.021772883  0.021842736            2 
  711000   0.97024775   -7.8461606    185.38765   0.02172851  0.021825866            1 
  712000   0.99554098   -7.8116275    185.79245  0.021745371  0.021809224            3 
  713000   0.97140489   -7.8570271    185.79485  0.021715154  0.021792504            2 
  714000   0.95529492   -7.8022011    186.15812  0.021727138   0.02177563            3 
  715000   0.93832787   -7.8279094    185.73899    0.0216479  0.021758771            3 
  716000   0.96923947   -7.8297147    186.15104  0.021665624  0.021741971            2 
  717000   0.97445631   -7.8341066    185.74945  0.021588731  0.021724929            2 
  718000   0.95980016   -7.8123208    185.58497  0.021539574  0.021707733            2 
  719000   0.95578794   -7.8211038    186.01977  0.021560011  0.021690588            2 
  720000    1.0027192   -7.8496378    185.99906  0.021527669   0.02167339            2 
  721000   0.96998257   -7.8528819    186.22804  0.021524276  0.021656052            6 
  722000   0.96768825    -7.836702    186.12302  0.021482343  0.021638688            5 
  723000    0.9901749   -7.8298144    186.82713  0.021533786  0.021621619            1 
  724000   0.97807806   -7.8633844    186.33862  0.021447815  0.021604705            2 
  725000   0.96142886   -7.8613591    186.56166  0.021443868    0.0215877            3 
  726000   0.95017936   -7.8123362    187.12981  0.021479547  0.021570631            2 
  727000   0.95864799   -7.8435742    187.16625  0.021454178   0.02155357            1 
  728000   0.94021869   -7.8282291     187.4202  0.021453777  0.021536379            2 
  729000   0.97111612   -7.8875682    186.79933  0.021353375  0.021519236            2 
  730000   0.97380151   -7.8166189    187.64196  0.021420316  0.021501868            2 
  731000   0.97017883   -7.8462685    187.28864  0.021350734  0.021484911            1 
  732000    0.9418013   -7.8449836    187.96988  0.021399121  0.021467769            2 
  733000   0.97710215   -7.8823469    187.15879  0.021277716  0.021450723            2 
  734000   0.96209186   -7.8786093    187.71241  0.021311582  0.021433767            2 
  735000   0.96726144   -7.8620524    187.59051  0.021268766  0.021416751            3 
  736000   0.97514909   -7.8383695    188.08186    0.0212955  0.021399601            3 
  737000   0.94438693   -7.8545529    188.47072  0.021310574  0.021382665            2 
  738000   0.96685912   -7.9137738    188.25418  0.021257247  0.021365719            7 
  739000   0.97487684   -7.8640014    189.10886   0.02132486  0.021348913            1 
  740000   0.95087687    -7.864835    188.23168  0.021197262  0.021332189            2 
  741000   0.96685038   -7.8580979    188.93074  0.021247271  0.021315513            3 
  742000   0.95848427   -7.8577854    188.78588  0.021202367  0.021299062            4 
  743000   0.95122722   -7.8668212    189.10811  0.021209972  0.021282431            3 
  744000   0.97142913   -7.8417447    189.62571  0.021239439  0.021265897            1 
  745000   0.95168681    -7.866129    189.85935  0.021237064   0.02124958            1 
  746000   0.93830216   -7.8653693    189.53183  0.021172009  0.021233101            2 
  747000   0.95187778   -7.8671383    189.68506   0.02116076  0.021216838            5 
  748000   0.95570231   -7.8977305    189.69347  0.021133407  0.021200343            2 
  749000   0.93784882   -7.8626687    190.22179  0.021163973  0.021184075            2 
  750000   0.95665902   -7.8480734    190.41997  0.021157774   0.02116795            3 
  751000   0.92097194   -7.8938691    190.23869  0.021109486  0.021151743            7 
  752000   0.94894576   -7.8639154    190.46149  0.021106104  0.021135527            4 
  753000   0.96194525   -7.8915409    189.94553  0.021020975  0.021119139            2 
  754000    0.9584506   -7.8918618    190.24721  0.021026438  0.021102652            2 
  755000   0.96199658   -7.8855806    190.75568  0.021054711   0.02108631            3 
  756000   0.94850464    -7.857929    190.83347  0.021035435  0.021070255            5 
  757000   0.93707222   -7.8790914    191.07339  0.021034059  0.021054075            2 
  758000   0.95052683   -7.9020321    191.20636  0.021020928  0.021037579            1 
  759000   0.96872899   -7.8760998    191.44347  0.021019266   0.02102137            6 
  760000   0.95322013   -7.8899089    191.34582  0.020980901  0.021005146            4 
  761000   0.93258878   -7.9082641    190.82802  0.020896629  0.020988864            3 
  762000   0.97373282   -7.8636909    191.47727  0.020940209  0.020972391            5 
  763000   0.93428972   -7.8720686    191.74763  0.020942293  0.020955992            2 
  764000   0.94591157   -7.8835894      191.243  0.020859838  0.020939546            2 
  765000   0.95482797   -7.8764343    191.98008  0.020912863  0.020923124            2 
  766000    0.9626494   -7.8944011    192.70225  0.020964127   0.02090706            1 
  767000   0.96358421   -7.8739361    192.76459  0.020943567  0.020890999            2 
  768000   0.94926774   -7.8852721    192.89655  0.020930615  0.020874977            6 
  769000   0.93684114   -7.8789702    192.67679  0.020879582  0.020859077            4 
  770000   0.96433648   -7.8871572    193.15371  0.020904081  0.020843096            4 
  771000    0.9659651   -7.8534068     193.1208  0.020873411  0.020827265            2 
  772000   0.97478224   -7.8929042    193.09767  0.020843877  0.020811229            3 
  773000   0.95090608    -7.898656    192.68846  0.020772797  0.020795302            1 
  774000   0.92835955    -7.903538    193.10406  0.020790704  0.020779273            2 
  775000   0.93161606    -7.882735    193.12772  0.020766421  0.020763362            2 
  776000   0.92068001   -7.8989557    193.36404  0.020765038  0.020747442            2 
  777000   0.93335227   -7.8859981    193.87452  0.020793063  0.020731529            1 
  778000   0.92300088   -7.8712874    193.66027  0.020743388  0.020715586            5 
  779000   0.93184055    -7.917751    193.39314  0.020688183   0.02069966            3 
  780000    0.9365804   -7.8747707    193.91453  0.020717364  0.020683794            2 
  781000   0.93650465   -7.9295022     193.8189  0.020680634  0.020667899            4 
  782000   0.92712778   -7.9043438    193.74144  0.020645933  0.020651903            2 
  783000   0.92716574   -7.9421712    193.68968  0.020614057  0.020635696            1 
  784000   0.93086531   -7.9031123    193.97027  0.020617588  0.020619499            4 
  785000   0.95237708   -7.8625077    194.55506  0.020653404  0.020603415            4 
  786000   0.93310304   -7.9068623    193.92749  0.020560591  0.020587388            3 
  787000   0.90167469   -7.8903891    195.06911  0.020655349  0.020571345            2 
  788000   0.94955946   -7.8957563     194.3841  0.020556694  0.020555363            3 
  789000   0.92958189   -7.9061523    194.50027   0.02054291  0.020539305            2 
  790000   0.94689564   -7.9203057    194.16558  0.020481602  0.020523113            5 
  791000   0.92933975    -7.975555    193.73532  0.020410379  0.020506974            3 
  792000   0.94095615   -7.9066569      194.879  0.020504945  0.020490462            3 
  793000   0.94911829   -7.9401649    195.05009  0.020497067  0.020474057            2 
  794000   0.92489214    -7.938796    194.79023  0.020443979  0.020457872            2 
  795000   0.94387823    -7.880083    195.17289  0.020458374  0.020441591            6 
  796000    0.9388922   -7.9289082    194.62411   0.02037522  0.020425345            4 
  797000   0.94225366   -7.9390422    194.82768  0.020370941  0.020409053            2 
  798000   0.93424242   -7.9515624    195.17418  0.020381598  0.020392744            3 
  799000   0.95465593   -7.9142545    195.61395  0.020401955  0.020376384            1 
  800000   0.93999147   -7.9059355    195.83329  0.020399301  0.020360245            1 
  801000   0.92617702   -7.9551644     195.5163  0.020340855  0.020344218            1 
  802000   0.94544507   -7.9527084     195.5536  0.020319369   0.02032797            2 
  803000   0.94900299   -7.9468083    195.89269  0.020329254  0.020311887            4 
  804000   0.92490625   -7.9140407    196.11904   0.02032743  0.020295967            2 
  805000   0.91821717   -7.9179898    195.90936  0.020280473  0.020279959            3 
  806000   0.92806325    -7.915697    196.32502  0.020298286  0.020263742            5 
  807000   0.93445988   -7.9494257    195.83077  0.020222095   0.02024771            1 
  808000   0.93521763   -7.9357091    195.98465  0.020212938  0.020231698            1 
  809000   0.93875247   -7.9142602     196.8252  0.020274537  0.020215842            2 
  810000   0.92261132   -7.9242204    197.31621  0.020300021  0.020200039            3 
  811000   0.94539797   -7.9171477      196.789  0.020220818  0.020184345            2 
  812000   0.93418015   -7.9061334    197.25849  0.020244098  0.020168578            2 
  813000   0.90673182   -7.9476308    196.76566  0.020168681  0.020152598            8 
  814000   0.96047791    -7.960315    197.15582  0.020183847  0.020136701            2 
  815000   0.94296737   -7.9840855    197.35689  0.020179641  0.020120652            3 
  816000     0.934675   -7.9737969     197.4274  0.020162112  0.020104683            3 
  817000   0.92830707   -7.9745338    197.19761  0.020113995  0.020088761            3 
  818000   0.91039129   -7.9018036    197.21888  0.020091573  0.020073008            2 
  819000   0.92408808   -7.9308072    197.15446  0.020060486  0.020057172            2 
  820000   0.90583028   -7.9355403    197.75294  0.020096844  0.020041321            5 
  821000   0.92107982   -7.9952784    197.48607  0.020045277  0.020025385            2 
  822000   0.92110321   -7.9167843    197.81327  0.020054063  0.020009453            1 
  823000   0.93528482    -7.976902    197.67555  0.020015751  0.019993518            2 
  824000   0.95064861   -7.9621518    197.83386   0.02000747  0.019977675            2 
  825000   0.92289923   -7.9668087    197.45431   0.01994488  0.019961777            4 
  826000   0.91368487   -7.9284043     198.3522   0.02001132  0.019945653            2 
  827000   0.90663539   -7.9391689    198.19863  0.019971648  0.019929693            3 
  828000   0.90753422   -7.9632713    198.00244  0.019927782  0.019913825            3 
  829000     0.936311   -7.9607976    198.32844  0.019936514  0.019898173            7 
  830000   0.93444105   -7.9618302    198.61623  0.019941388  0.019882543            5 
  831000    0.9337232   -7.9661906    199.07042  0.019962939  0.019866807            2 
  832000   0.93219249   -7.9495147    198.92326  0.019924204   0.01985111            2 
  833000   0.90822514   -7.9387201    198.92903  0.019900863  0.019835543            3 
  834000   0.93992268    -7.947773    199.21381  0.019905457  0.019820091            3 
  835000   0.92257389    -7.987958    199.25994  0.019886222  0.019804446            2 
  836000   0.91140678   -7.9599916    199.29353  0.019865783  0.019788677            4 
  837000   0.91731333   -7.9304338    199.28274  0.019840974  0.019772921            2 
  838000    0.9252608   -7.9726466    198.91014  0.019780245  0.019757125            1 
  839000   0.91347811   -7.9780802    199.24052  0.019789483  0.019741203            6 
  840000    0.9176926   -7.9450443    199.81642  0.019823057  0.019725514            4 
  841000   0.92756024   -7.9827076     200.2184  0.019839318  0.019709843            5 
  842000   0.91595668   -7.9956543    199.82933   0.01977725  0.019694188            1 
  843000   0.90836061   -7.9747517    199.78336  0.019749245  0.019678539            1 
  844000   0.91337788   -8.0056967    199.76916  0.019724443   0.01966293            3 
  845000   0.92310846   -7.9841117     200.0374  0.019727554  0.019647211            3 
  846000   0.91210229   -7.9908214    199.77854  0.019678737  0.019631501            1 
  847000   0.92281973   -7.9808195    200.16906  0.019693925  0.019615988            4 
  848000   0.93574147   -7.9664881    200.17708   0.01967149  0.019600571            3 
  849000   0.90489054   -7.9659099    200.86484  0.019715827  0.019585059            5 
  850000   0.90083004   -7.9800262    200.90039  0.019696116  0.019569626            1 
  851000    0.8968185   -7.9962904    200.81694  0.019664801  0.019554185            3 
  852000   0.90571128   -7.9875564    200.61908  0.019622367  0.019538761            2 
  853000   0.89304733   -7.9576515    201.17724  0.019653892   0.01952347            3 
  854000   0.90732148   -7.9733525    201.41442  0.019654022  0.019508237            1 
  855000   0.90090922   -7.9685307    201.35152  0.019624905  0.019493077            4 
  856000   0.91180829   -7.9475377    201.99004   0.01966414  0.019477885            4 
  857000   0.90592955   -7.9861005    201.43849  0.019587563  0.019462813            4 
  858000   0.92583314   -7.9873446    201.52895  0.019573519  0.019447581            5 
  859000   0.90558553   -7.9667244     201.5204  0.019549903  0.019432362            4 
  860000   0.91382308   -7.9594401    202.20123  0.019593143  0.019417166            1 
  861000   0.89381661   -7.9704866    202.06745  0.019557438  0.019402016            2 
  862000   0.89796251    -8.017663    202.07088  0.019535081  0.019386948            4 
  863000   0.91202967   -8.0077011    202.04448  0.019509895  0.019371924            1 
  864000   0.88743095   -7.9869054    202.32049  0.019513936  0.019356847            2 
  865000     0.916397   -7.9674253    203.12393   0.01956878  0.019341886            3 
  866000   0.88794877   -7.9990508    202.29851  0.019466754  0.019326865            7 
  867000   0.92036016    -8.015408    202.37122   0.01945129  0.019311786            5 
  868000   0.89040808   -8.0245402    202.46794  0.019438166  0.019296599            2 
  869000   0.90013342   -7.9865161    202.85392  0.019452812  0.019281489            4 
  870000   0.91462881   -8.0079436    202.76565  0.019421997   0.01926642            2 
  871000   0.91567684   -8.0275467    202.24915  0.019350282  0.019251146            4 
  872000   0.91035072   -8.0248436    202.71159  0.019372285  0.019235728            1 
  873000   0.89816722   -7.9840342     202.9193  0.019369922  0.019220449            3 
  874000   0.91875192   -7.9779678    203.50998  0.019404079  0.019205259            2 
  875000   0.91780572   -8.0403289    202.94535  0.019328129  0.019190087            3 
  876000   0.89626042   -8.0237151    202.94175  0.019305722  0.019174759            5 
  877000    0.8957795   -8.0032969    202.88382  0.019278204  0.019159284            3 
  878000   0.88627149   -7.9809616    203.00401  0.019267654  0.019143798            2 
  879000   0.88670235   -8.0067273    202.50648  0.019198567  0.019128341            2 
  880000   0.90994451   -7.9701814    203.58271  0.019278666  0.019113052            3 
  881000    0.9208729   -7.9878895    203.62043  0.019260351   0.01909784            3 
  882000   0.87515387   -7.9881391    203.98599  0.019273052  0.019082553            3 
  883000    0.8754071   -7.9880603    203.29552  0.019186063  0.019067285            4 
  884000   0.91480827   -8.0243106    203.71465   0.01920387  0.019051937            4 
  885000   0.89413804   -8.0229601    203.59165  0.019170588  0.019036595            9 
  886000   0.90880879   -8.0591591    203.53207  0.019143348  0.019021232            4 
  887000   0.89965337   -8.0517706    203.70278  0.019137803  0.019006123            1 
  888000   0.87991613   -8.0453443    203.46624  0.019094054  0.018990915            8 
  889000   0.88170621    -8.071842    203.68205  0.019092806  0.018975672            3 
  890000   0.89643205   -8.0151512    204.33628   0.01913261  0.018960408            6 
  891000   0.90034841   -8.0033683    204.76175  0.019150931  0.018945391            5 
  892000   0.89299912    -8.047323    204.47357  0.019102538  0.018930384            3 
  893000   0.90522888   -8.0376013    204.72356  0.019104476  0.018915415            2 
  894000   0.90345226   -8.0186453     205.0115  0.019109946  0.018900412            4 
  895000   0.88398396   -8.0092884    205.14364  0.019100897  0.018885468            4 
  896000   0.87718767   -8.0202601    204.80516  0.019048099  0.018870442            2 
  897000   0.90056592   -8.0682725    204.54657   0.01900284  0.018855332            3 
  898000   0.90140237   -8.0178462    204.84223  0.019009115  0.018840042            1 
  899000    0.8788427   -8.0448502    204.85302  0.018988971  0.018824793            4 
  900000   0.91597782   -8.0644198    204.51938   0.01893698  0.018809738            3 
  901000   0.88083014   -8.0376992    204.69461  0.018932169  0.018794617            2 
  902000   0.90480101   -8.0521402    205.15496   0.01895371  0.018779498            3 
  903000   0.89093929   -8.0234208    204.43671  0.018866437  0.018764453            5 
  904000   0.89107119   -8.0469307    205.19443  0.018915416  0.018749346            2 
  905000   0.90432505   -8.0447573     205.8176  0.018951897  0.018734276            6 
  906000    0.8928023   -8.0459972    204.78399  0.018835908  0.018719223            3 
  907000   0.89632762   -8.0994696    205.13455  0.018847349  0.018704133            2 
  908000    0.8896218   -8.0597723    205.44861  0.018855415  0.018689057            2 
  909000   0.88844272   -8.0547885    205.90438  0.018876456  0.018673949            1 
  910000   0.89804404   -8.0697737    205.76814  0.018843236   0.01865887            2 
  911000   0.89165831    -8.069435    205.16901  0.018767747  0.018643752            4 
  912000   0.91629947   -8.0504424    205.45283  0.018773103  0.018628577            3 
  913000   0.88146691   -8.0500545    205.14388  0.018724341  0.018613336            2 
  914000   0.87727011   -8.0545455    204.94276  0.018685518  0.018597882            2 
  915000   0.87473436   -8.0509377    205.48357   0.01871435  0.018582463            1 
  916000    0.8859659   -8.0703223    205.32429  0.018679429  0.018567178            3 
  917000   0.87786923   -8.0242699      206.087  0.018728372  0.018551941            3 
  918000   0.88593061   -8.0610674    205.59502   0.01866331  0.018536787            1 
  919000   0.87731335   -8.0385183    205.30087  0.018616328  0.018521616            4 
  920000   0.87945723   -8.0524003    206.22823  0.018680093  0.018506299            2 
  921000   0.89134733   -8.0621216    205.95336   0.01863494  0.018491166            2 
  922000   0.87324885    -8.062685    206.06519  0.018624836   0.01847584            2 
  923000   0.88805035   -8.0472345    205.97473  0.018596491  0.018460579            3 
  924000   0.91259556   -8.0698565    204.99912  0.018488377  0.018445295            2 
  925000   0.88995549   -8.0542875    206.02062  0.018560416  0.018429958            2 
  926000   0.89196595   -8.0909612    205.93012  0.018532228  0.018414673            4 
  927000   0.88851257   -8.0655157    206.03676  0.018521824  0.018399399            3 
  928000   0.89345966    -8.057348    205.79735  0.018480366  0.018384211            4 
  929000   0.87763248   -8.0716651    205.85859  0.018465966  0.018368865            2 
  930000   0.88387843   -8.0857691    206.36193  0.018491212  0.018353584            4 
  931000   0.86937941     -8.07908    206.42261  0.018476782  0.018338214            2 
  932000   0.87831955   -8.0690237    206.13844  0.018431549  0.018322869            4 
  933000   0.90806205   -8.0687684    206.26835  0.018423397  0.018307536            3 
  934000    0.8935664   -8.0724048    206.39539  0.018415007  0.018292262            3 
  935000   0.86962836     -8.10615    206.07669  0.018366906  0.018276866            6 
  936000   0.88520862   -8.0507042    206.96595  0.018426455  0.018261454            2 
  937000   0.88954308   -8.0679841    206.60864  0.018375013  0.018246223            3 
  938000   0.88320012   -8.0611451    206.88624  0.018380086  0.018231016            5 
  939000   0.89591275   -8.0924033    207.07828  0.018377554  0.018215846            6 
  940000   0.90858546   -8.0619471    206.84824   0.01833761  0.018200536            7 
  941000   0.87911539   -8.1159019    206.52095  0.018289138  0.018185306            2 
  942000   0.88146242   -8.0839486    206.87769  0.018301282  0.018169987            4 
  943000   0.86671262   -8.0919514    206.73552  0.018269311  0.018154752            4 
  944000   0.90210976   -8.0877342    207.29274  0.018299147  0.018139589            2 
  945000   0.90230166   -8.0707671    207.11581  0.018264181  0.018124326            3 
  946000   0.87589738   -8.1050527    206.92653  0.018228201  0.018109041            2 
  947000   0.86010452   -8.0516739    207.55102  0.018263905  0.018093774            1 
  948000   0.87025703   -8.0972482    207.48062  0.018238451   0.01807862            1 
  949000     0.867857    -8.073606    207.45604  0.018217074  0.018063429            6 
  950000    0.8716327   -8.1454678    207.25699  0.018180438  0.018048182            2 
  951000   0.88815679   -8.0954394    207.63782  0.018194691  0.018032973            7 
  952000   0.86708222   -8.0684819    207.70285  0.018181272  0.018017823            3 
  953000   0.87549287   -8.1153258    207.41723  0.018137219  0.018002533            2 
  954000   0.87534801   -8.0737985    207.75212   0.01814746  0.017987263            7 
  955000   0.88208175   -8.0898028    207.51115   0.01810743  0.017972018           14 
  956000   0.87284593   -8.0728884    207.25156  0.018065861  0.017956788            1 
  957000    0.8670809   -8.1290419    207.44888  0.018064166   0.01794146            8 
  958000   0.86839473   -8.1208408    207.32798  0.018034793   0.01792615            4 
  959000   0.86153913    -8.102168    207.70701  0.018048924  0.017910772            2 
  960000   0.86273761   -8.1136756    207.81759  0.018039721  0.017895479            2 
  961000    0.8782035   -8.1233155    207.27911  0.017974255  0.017880235            4 
  962000   0.85858436   -8.1158027    207.51714  0.017976191  0.017864977            4 
  963000   0.87166135   -8.1052553    207.96071  0.017995908  0.017849682            2 
  964000   0.87364625   -8.1096146    207.87791  0.017970082  0.017834453            5 
  965000   0.84681502   -8.0714135    208.23168   0.01798201  0.017819197            1 
  966000   0.88191888   -8.0820465     208.0606  0.017948637  0.017804059            6 
  967000   0.85891657   -8.1058529    207.64306  0.017894093   0.01778884            3 
  968000   0.88320915   -8.0855406    208.63712  0.017961185  0.017773641            4 
  969000   0.86372455   -8.1062393    207.83297  0.017873493  0.017758478            3 
  970000   0.88393877   -8.1257966    208.19806  0.017886432  0.017743151            3 
  971000   0.85314558   -8.0719495    208.35794  0.017881732  0.017727896            2 
  972000    0.8909475   -8.1300365    208.59513   0.01788367  0.017712625            8 
  973000   0.86583883   -8.1103545    208.02459  0.017816426  0.017697256            3 
  974000   0.85286834   -8.1169622    208.42062  0.017832017  0.017681908            4 
  975000   0.87671399   -8.1546483    207.37271  0.017724163  0.017666562            3 
  976000   0.87665412   -8.1237131    208.62072  0.017812562  0.017651189            2 
  977000   0.87052808   -8.1179222     208.6718  0.017798686  0.017635851            2 
  978000   0.86637087   -8.1209488    208.79076  0.017790624  0.017620543            7 
  979000   0.84988092   -8.1213169    207.85617  0.017692898  0.017605286            2 
  980000   0.86144616   -8.1239794    208.42692  0.017723378  0.017590057            6 
  981000   0.85797732   -8.1031481    208.96108  0.017750686  0.017574912            2 
  982000   0.86311187   -8.1410885    209.05962  0.017740973   0.01755973            2 
  983000   0.88141502   -8.1426033    208.04936   0.01763728  0.017544489            3 
  984000   0.86334879   -8.1357066    208.73185  0.017677155  0.017529191            4 
  985000   0.85304328   -8.1368369    208.70703  0.017657109  0.017513995            3 
  986000   0.86856233   -8.1357474    208.74402  0.017642328   0.01749887            2 
  987000   0.85057298   -8.1246162    208.51592  0.017605194  0.017483685            3 
  988000   0.86793382    -8.112362     208.9447  0.017623541   0.01746846            5 
  989000   0.85984038   -8.1303409    208.71758  0.017586584  0.017453265           10 
  990000   0.87222951   -8.1741218    208.66455  0.017564356  0.017438062            3 
  991000   0.85043493   -8.1400671    209.10316  0.017583515  0.017422843            2 
  992000   0.84732735   -8.1374539     209.1046  0.017565911  0.017407696            2 
  993000   0.85209161   -8.1063506    209.30749  0.017565248  0.017392476            4 
  994000   0.86565599   -8.1424879    208.97295   0.01751953  0.017377304            6 
  995000   0.84449103   -8.1673204    208.99566  0.017503824  0.017362121            7 
  996000   0.86643694    -8.133937    209.14149  0.017498452  0.017346928            3 
  997000   0.84968245   -8.1535091    209.02688  0.017471321  0.017331692           12 
  998000   0.86714003   -8.1531656     208.8515   0.01743917   0.01731649            2 
  999000   0.86544702   -8.1152492    209.28482   0.01745786  0.017301292            4 
 1000000    0.8465631   -8.1482371    209.48756  0.017457297  0.017286002            3 
 1001000   0.83438924    -8.164698    208.97873  0.017397496  0.017270746            3 
 1002000   0.84401862   -8.1570337    209.48711  0.017422414   0.01725555            3 
 1003000   0.84357627   -8.1678397    209.30766  0.017390135  0.017240396            4 
 1004000   0.86110739   -8.1561561    209.34231   0.01737569  0.017225242            3 
 1005000   0.86247803   -8.1940721      208.709  0.017305887  0.017210016            4 
 1006000   0.85735876   -8.1724141    209.25149  0.017333623  0.017194876            2 
 1007000   0.83580025   -8.1202727    210.01213  0.017379355  0.017179759            1 
 1008000   0.85604552   -8.1251855    210.09369  0.017368857  0.017164686            3 
 1009000   0.84870388   -8.1738848    209.41567  0.017295645  0.017149588            3 
 1010000   0.85729623   -8.1660018    209.34964  0.017273072  0.017134576            4 
 1011000   0.85761451   -8.1713565    209.92215  0.017303177  0.017119506            4 
 1012000    0.8506353    -8.174829    209.88613  0.017283114  0.017104515            4 
 1013000   0.83792998   -8.1678691    210.52129  0.017318303   0.01708956            3 
 1014000   0.84761433   -8.1695291    209.97369   0.01725622   0.01707457            3 
 1015000   0.83696671    -8.170546     210.0538  0.017245797  0.017059537            1 
 1016000   0.85211336   -8.1972394    209.96547  0.017221578   0.01704442            5 
 1017000   0.86389137   -8.1679579    210.05127  0.017211674  0.017029258            4 
 1018000    0.8568091   -8.1779349    209.90319  0.017182645  0.017014138            6 
 1019000   0.85849625   -8.1675332    209.83241  0.017159994  0.016999044            5 
 1020000   0.84317636   -8.1771188    209.89477  0.017148265   0.01698398            3 
 1021000   0.83588465   -8.1428653    209.84604  0.017127493  0.016968875            3 
 1022000   0.83579687   -8.1665111     210.3559  0.017152308  0.016953721            3 
 1023000   0.84654105   -8.2093477    209.40466  0.017058053  0.016938528            5 
 1024000    0.8562812   -8.1976485    209.77738  0.017071727   0.01692327            4 
 1025000   0.85176761   -8.1951055    209.81472  0.017058107    0.0169081            6 
 1026000   0.84098799    -8.205416    209.82586  0.017042387  0.016892971            5 
 1027000   0.83346235   -8.1839817    210.07505  0.017046012  0.016877888            3 
 1028000   0.84129694   -8.2067769    209.87161  0.017012939  0.016862825            5 
 1029000   0.83179616   -8.1918055    210.26635  0.017028373  0.016847637            2 
 1030000   0.84974262   -8.1899828    210.16809  0.017003891  0.016832511            5 
 1031000   0.84482841   -8.1716294    210.43346  0.017008848  0.016817484            3 
 1032000    0.8600233   -8.1527277    210.50678  0.016998286   0.01680257            2 
 1033000   0.84933246   -8.1780172    210.68554  0.016996252  0.016787604            3 
 1034000   0.84137207   -8.1714784    210.66917  0.016978495  0.016772736            6 
 1035000   0.84735611   -8.1981312    210.75773  0.016969221  0.016757926            4 
 1036000     0.839461   -8.1830199    210.97011  0.016969925  0.016743173            5 
 1037000    0.8342196   -8.1580483    211.42159  0.016989842  0.016728428            3 
 1038000    0.8228629   -8.1721954     211.4662  0.016977055  0.016713681            2 
 1039000   0.83740798   -8.1955161    211.13142  0.016933864  0.016698891            2 
 1040000   0.83773318   -8.1650066    211.31636    0.0169324  0.016684097            2 
 1041000   0.84860004   -8.1962352    210.78705  0.016873763  0.016669326            1 
 1042000   0.84736756   -8.2086805    210.90445  0.016866959   0.01665454            2 
 1043000   0.82362471   -8.1859801    211.32508  0.016884395  0.016639834            3 
 1044000    0.8313948   -8.2380045    211.10793  0.016850888   0.01662505            5 
 1045000    0.8213183   -8.2144489     210.2664  0.016767656  0.016610239            3 
 1046000   0.84226715   -8.1965045     210.7264  0.016788273   0.01659539            2 
 1047000   0.85573886   -8.1803826     211.2825    0.0168165  0.016580636            4 
 1048000   0.83603706   -8.1634045    211.04049   0.01678121  0.016565915            3 
 1049000   0.83773118   -8.1772979    211.10557  0.016770382   0.01655125            2 
 1050000     0.833285   -8.1700228    211.23107  0.016764371  0.016536572            4 
 1051000   0.81545404    -8.202519    211.46096  0.016766648  0.016521867            3 
 1052000   0.84432797   -8.2002311    211.49468  0.016753381  0.016507209            4 
 1053000   0.84497939   -8.1766131    211.64136  0.016749079  0.016492599            4 
 1054000   0.82988524   -8.2249154    211.02742  0.016684647  0.016477939            6 
 1055000   0.83311385   -8.2077188    211.63169  0.016716563  0.016463328            5 
 1056000   0.82725529   -8.2260886    211.39239  0.016681849  0.016448713            4 
 1057000   0.82943656   -8.1881161    211.84228  0.016701536  0.016434028            2 
 1058000   0.83661902   -8.2177949    211.70185  0.016674689  0.016419452            5 
 1059000   0.83462486   -8.1962622    211.53719  0.016645986   0.01640496            2 
 1060000   0.82420863   -8.2253432    211.62728  0.016637365  0.016390428            2 
 1061000   0.80344835    -8.221298     211.6452  0.016623091  0.016375792            6 
 1062000   0.81651966   -8.2366948     211.7631   0.01661669  0.016361158           10 
 1063000   0.82616713   -8.2419482    211.00142  0.016541347  0.016346584            2 
 1064000   0.84052542    -8.223478    212.00652  0.016604521  0.016331991            2 
 1065000   0.82659659     -8.21184    211.83153  0.016575237  0.016317509            2 
 1066000    0.8380965   -8.2341045    212.13298  0.016583254  0.016303027            5 
 1067000   0.81116524   -8.2004343    212.69474  0.016611585  0.016288608            3 
 1068000   0.83509957   -8.2239107     212.1625  0.016554502  0.016274224            9 
 1069000   0.83258723    -8.242575    212.22632  0.016543991  0.016259757            2 
 1070000   0.83627752   -8.2257745     212.5698   0.01655528  0.016245366            5 
 1071000   0.81938397   -8.2165929      212.144  0.016506692  0.016231012            4 
 1072000   0.83289645     -8.24661     212.1551  0.016492156  0.016216592            2 
 1073000   0.82156933   -8.2465641    212.29835  0.016487912  0.016202136            3 
 1074000   0.82640886   -8.2751326    212.17475   0.01646297  0.016187661            2 
 1075000   0.82807943   -8.2469413    212.01683  0.016435414  0.016173155            2 
 1076000   0.83520672   -8.2493954    211.65994  0.016392498  0.016158649            7 
 1077000   0.81165241   -8.2625187    212.25868  0.016423606   0.01614415            6 
 1078000   0.81423317    -8.228862     212.6782  0.016440801  0.016129712            2 
 1079000   0.82870212   -8.2044109    212.15726   0.01638533  0.016115332            2 
 1080000   0.83793157   -8.2328727    212.13776  0.016368654  0.016100967            4 
 1081000   0.82549855   -8.2274401    212.42977  0.016376023  0.016086578            1 
 1082000   0.82646988   -8.2458658    212.65189  0.016377995  0.016072221            4 
 1083000   0.83312455   -8.2192451    212.67364  0.016364546  0.016057875            2 
 1084000   0.83174455   -8.2814259    212.61628   0.01634504  0.016043494            2 
 1085000   0.80980828   -8.2647995    212.51379  0.016322104  0.016029115            3 
 1086000   0.81797553   -8.2565183    212.66373  0.016318579  0.016014686            3 
 1087000   0.82020953   -8.2707251    212.05839  0.016257159   0.01600036            3 
 1088000   0.82425244   -8.2541721    212.63527  0.016286403  0.015985976            2 
 1089000   0.82268086    -8.272054    212.68571  0.016275307  0.015971608            4 
 1090000   0.81636682    -8.246662    212.79501  0.016268731  0.015957341            4 
 1091000   0.82054424   -8.2295733    212.64134  0.016242082  0.015943149            4 
 1092000   0.82194818   -8.2543137    212.47192  0.016214279  0.015928983            5 
 1093000   0.81612926   -8.2543276    212.75897  0.016221331  0.015914822            4 
 1094000   0.81893553   -8.2249498    213.50813  0.016263569  0.015900662            5 
 1095000   0.81714944   -8.2445407    212.96251  0.016207193   0.01588657            3 
 1096000   0.82080738   -8.2527933    213.50393  0.016233572  0.015872458            4 
 1097000   0.82431358   -8.2588237    213.55189  0.016222416  0.015858368            3 
 1098000    0.8119354   -8.2539011    213.37409  0.016194147  0.015844291            2 
 1099000   0.80775067   -8.2487438    213.20197  0.016166361  0.015830225            5 
 1100000   0.80833269   -8.2721855    213.48187  0.016172869  0.015816207            6 
 1101000   0.82918557   -8.2887142    213.10779  0.016129866  0.015802144            4 
 1102000   0.83089661   -8.3030064    213.57532  0.016150584  0.015788077            3 
 1103000   0.80245035   -8.2925929      213.228  0.016109701   0.01577404            1 
 1104000   0.80676635   -8.2664697    213.62465  0.016125049   0.01576007            1 
 1105000    0.8240328   -8.2503274    214.05316  0.016142772  0.015746144            1 
 1106000   0.81445738   -8.2584746    213.39316  0.016078448  0.015732251            5 
 1107000   0.81807819   -8.2604574    213.38697  0.016063458  0.015718335            4 
 1108000    0.8147333   -8.3038067    213.35492  0.016046549  0.015704426            4 
 1109000   0.82284471   -8.2587479    213.69854    0.0160579   0.01569049            2 
 1110000   0.82158001   -8.2480311    213.59775  0.016035867  0.015676584            4 
 1111000   0.81128376   -8.2623651    213.76033  0.016033628  0.015662753            5 
 1112000    0.8193247     -8.28789    213.42135  0.015993806  0.015648862            3 
 1113000   0.81562639   -8.2830561    213.98923  0.016021955  0.015634985            3 
 1114000   0.80788388   -8.2306955    213.99535  0.016008031  0.015621125            2 
 1115000   0.82051206   -8.2875947    213.84829  0.015982683  0.015607319            3 
 1116000   0.80403788   -8.2534792    213.65565  0.015953977  0.015593456            4 
 1117000   0.82349353   -8.2970421    213.00479  0.015891136  0.015579606            1 
 1118000   0.82580349   -8.3193228    213.79189  0.015935591  0.015565821            4 
 1119000   0.81232053   -8.2867797    214.18418  0.015950564  0.015551954            3 
 1120000   0.80338045   -8.3249731    213.29138  0.015869894  0.015538198            4 
 1121000    0.7900741   -8.2985849    214.57362  0.015951057  0.015524437            7 
 1122000   0.80475394   -8.2594291    214.47903  0.015929815  0.015510766            5 
 1123000   0.78621453   -8.2912948     214.4258   0.01591168  0.015497118            3 
 1124000   0.79273208   -8.2760991      214.115  0.015874481  0.015483479            7 
 1125000   0.78026922   -8.2754339    214.31654  0.015875299  0.015469888            5 
 1126000   0.82380852   -8.2631907    214.82956  0.015899168  0.015456319            4 
 1127000   0.80346512    -8.270758    214.04654  0.015827162  0.015442738            3 
 1128000    0.7983374    -8.289686    214.74263  0.015864556  0.015429125            2 
 1129000   0.80763053   -8.2637134      214.797  0.015854517  0.015415508            5 
 1130000   0.80312886    -8.272919    214.56667    0.0158235  0.015401925            4 
 1131000   0.81884674   -8.2377602    214.48156  0.015803239  0.015388346            2 
 1132000   0.80312651   -8.2912856    214.21025  0.015769306  0.015374753            3 
 1133000   0.79551512   -8.2776265    215.11768   0.01582213   0.01536115            2 
 1134000   0.79609988   -8.3270339    214.18223  0.015739435  0.015347604            4 
 1135000   0.79440025   -8.3169673    214.84182  0.015773996  0.015333997            9 
 1136000   0.80341399    -8.278435    214.68797  0.015748824  0.015320451            8 
 1137000   0.77184217   -8.3171639     214.4813  0.015719825   0.01530684            5 
 1138000   0.79644098   -8.3065605    214.64848  0.015718254  0.015293212            7 
 1139000    0.7959375   -8.3170278    214.94056  0.015725824  0.015279646            2 
 1140000   0.81210575   -8.3058522    214.64186  0.015690194   0.01526607            2 
 1141000   0.80279514   -8.2780709      214.971  0.015700482  0.015252568            1 
 1142000   0.81255702   -8.3182528    214.72009  0.015668425  0.015239052            2 
 1143000   0.79493383    -8.276633      214.916     0.015669   0.01522557            3 
 1144000    0.7822883   -8.3354885    214.36823  0.015615402  0.015212033            5 
 1145000   0.79794003     -8.33427    214.89111  0.015639819  0.015198577            2 
 1146000   0.80042738   -8.3055155    214.70516  0.015612649  0.015185149            3 
 1147000   0.78960717   -8.2984553    214.67886  0.015597127  0.015171644            2 
 1148000   0.78550368   -8.3612667    214.22139  0.015550333  0.015158086            4 
 1149000   0.80325781   -8.3373604    214.08136  0.015526643  0.015144505            2 
 1150000   0.80999832   -8.3058134    215.01698   0.01558094  0.015130983            2 
 1151000   0.78175216   -8.3277963    214.74749  0.015547893  0.015117523            6 
 1152000   0.79162952   -8.3347005    214.39437  0.015508852  0.015104013            7 
 1153000   0.77437012   -8.3593514    215.08412  0.015545253  0.015090514            4 
 1154000   0.79248379   -8.3320352    214.81752   0.01551253  0.015077008           10 
 1155000   0.79960392   -8.3345854    214.91083  0.015505832  0.015063507            8 
 1156000   0.78880554   -8.3687147    214.69834  0.015477101  0.015049958            4 
 1157000   0.79260604    -8.349588     214.2243  0.015429581  0.015036468           11 
 1158000   0.79855287   -8.3504154    214.71004  0.015451212  0.015023042            9 
 1159000   0.78755343   -8.2978651    215.00021  0.015458744  0.015009681            5 
 1160000   0.78074345   -8.3410094    214.79998  0.015431033  0.014996258            5 
 1161000   0.78972095   -8.3696708    214.84523  0.015420989  0.014982834            2 
 1162000   0.78393136   -8.3298834    214.93433  0.015414108  0.014969322            2 
 1163000   0.79610637   -8.3297243    214.97888  0.015404047  0.014955915            5 
 1164000    0.7839755   -8.3083236     215.7306   0.01544463  0.014942623            2 
 1165000   0.78703604   -8.3443422    215.48522  0.015413821  0.014929331            3 
 1166000   0.78093082   -8.3490734    215.07436  0.015371238  0.014915974            2 
 1167000   0.78258611   -8.3400053    215.41509  0.015382397  0.014902666            3 
 1168000    0.7810747   -8.3381414    214.56613  0.015308657  0.014889294            6 
 1169000   0.78184613   -8.3409697    214.71667  0.015306292  0.014875947            3 
 1170000   0.80084785   -8.3377971    215.34374  0.015337873  0.014862613            3 
 1171000   0.79631602   -8.3631433     214.6746  0.015277156   0.01484927            2 
 1172000   0.77440081    -8.357145    215.49107  0.015322175  0.014835934            6 
 1173000   0.78131191    -8.370933    215.13416  0.015283757  0.014822676            1 
 1174000   0.76662308   -8.3764402    215.10211  0.015268463  0.014809386            6 
 1175000   0.79204142   -8.3304656    215.39896  0.015276522  0.014796099            2 
 1176000   0.77982612   -8.3517774    215.37429  0.015261784  0.014782882            3 
 1177000   0.78708681   -8.3529354    215.48307  0.015256518    0.0147697            4 
 1178000   0.77452395   -8.3807937    215.32633  0.015232479  0.014756496           10 
 1179000   0.78689561   -8.3666602     215.3449  0.015220872  0.014743302            3 
 1180000   0.79628653   -8.3762443    215.26462  0.015202304  0.014730072            4 
 1181000   0.80340676    -8.359158    215.59823  0.015212971  0.014716875            4 
 1182000   0.76605379   -8.3414458     215.2445  0.015175162  0.014703675            4 
 1183000   0.78950373   -8.3546238    215.22619  0.015161045  0.014690461            3 
 1184000   0.77955301   -8.3763991    215.64552  0.015177753  0.014677255            5 
 1185000   0.79102877   -8.3701397    215.29703  0.015140438  0.014664069            5 
 1186000   0.76446331   -8.3560686    214.93732  0.015102397  0.014650841            6 
 1187000   0.77795437   -8.3759462    214.83788  0.015082693  0.014637617            6 
 1188000   0.78718292   -8.4144181    215.26335  0.015099842  0.014624404            3 
 1189000   0.77794724   -8.4019412    215.64248  0.015113714  0.014611184            2 
 1190000   0.76809169   -8.3646016    215.35479  0.015080867  0.014598032            5 
 1191000   0.77457676    -8.379889    215.48814  0.015077536  0.014584916            3 
 1192000   0.78021225    -8.384316    215.37923  0.015057273  0.014571805            7 
 1193000   0.78673936   -8.3871364    215.70412  0.015067345  0.014558744            3 
 1194000   0.78114089   -8.3936834    215.26116  0.015023811  0.014545657            3 
 1195000   0.77559772   -8.3608702     215.5988  0.015034784  0.014532579            7 
 1196000   0.76079865   -8.3738467     215.2059  0.014994837  0.014519497            3 
 1197000   0.77365597   -8.3766067    215.60464   0.01501007  0.014506427            4 
 1198000    0.7896673   -8.3819077    215.50001  0.014990262  0.014493408            2 
 1199000   0.77165835    -8.387523     215.6768  0.014990047  0.014480412            8 
 1200000   0.76946047   -8.4041126    215.52007  0.014966671  0.014467424            4 
 1201000   0.78111438   -8.3649083    215.67623  0.014965045  0.014454436            3 
 1202000   0.75800805   -8.3908455    215.73556  0.014956709  0.014441482            2 
 1203000   0.76800642   -8.3863023    215.44294  0.014924005  0.014428523            4 
 1204000   0.75958313   -8.3784384    215.89997  0.014943243  0.014415625            3 
 1205000   0.76580606   -8.3928507    215.97258  0.014935863  0.014402706            2 
 1206000   0.76856085   -8.3616796    216.00769  0.014925904  0.014389795           12 
 1207000   0.76399517   -8.3722557    216.54491  0.014950629  0.014376975            5 
 1208000     0.802437   -8.3706106     216.0939   0.01490714  0.014364209            8 
 1209000   0.78117781   -8.3502793    216.35986  0.014913142  0.014351465            1 
 1210000   0.77447402   -8.3261018    216.72622  0.014926048  0.014338699            3 
 1211000   0.78913616   -8.3616418    216.14341  0.014873618  0.014325951            5 
 1212000   0.77101542   -8.3821754    216.07443  0.014856603  0.014313177            3 
 1213000   0.77267117   -8.3644718    215.78522  0.014824486  0.014300395            2 
 1214000   0.76676734   -8.4174626    215.79187  0.014812731  0.014287637            3 
 1215000   0.78462511    -8.385169    216.29166  0.014834819  0.014274866            2 
 1216000   0.77965084   -8.3853811    215.84055  0.014791704  0.014262122            4 
 1217000   0.78106001   -8.4013201    216.25842  0.014808164  0.014249389            3 
 1218000     0.779667    -8.380732     216.2395  0.014794711  0.014236635            6 
 1219000   0.78038278   -8.3900953    216.04573  0.014769328  0.014223883            4 
 1220000    0.7710103   -8.4077753    216.30607  0.014775005  0.014211144            2 
 1221000   0.77901417   -8.4040709    216.74685  0.014792987  0.014198454            4 
 1222000   0.77254772   -8.3895402    216.73715   0.01478022  0.014185807            5 
 1223000   0.77531036   -8.4239531    216.28532  0.014737348  0.014173138            8 
 1224000   0.77040622   -8.3922358    216.31488   0.01472732  0.014160471            3 
 1225000   0.77938534   -8.4420494    216.41469  0.014722087  0.014147817            6 
 1226000   0.77145761    -8.426557    216.14539  0.014691775  0.014135112            6 
 1227000   0.76908339   -8.4243306    216.02755  0.014671798  0.014122388            3 
 1228000   0.76618326   -8.4320464    216.31096  0.014679083  0.014109723            8 
 1229000   0.76171272   -8.4484835    216.03343   0.01464832  0.014097031            6 
 1230000   0.78465028   -8.4165674    216.11126  0.014641684  0.014084386            6 
 1231000    0.7594761   -8.4122388    216.34336  0.014645502  0.014071746            3 
 1232000   0.74962249   -8.4499272    215.64202  0.014586176  0.014059069            3 
 1233000   0.78666466   -8.4129388    216.48995  0.014631654  0.014046413            5 
 1234000   0.76291457   -8.3951353    216.43485  0.014616076  0.014033834            4 
 1235000   0.75574863   -8.4140818    216.49128  0.014608049   0.01402126            4 
 1236000   0.76806152   -8.4010483     216.9779  0.014629039  0.014008697            6 
 1237000   0.74722838   -8.4083097    216.84482  0.014608247  0.013996207            7 
 1238000   0.73798692   -8.4229447    216.63004   0.01458199  0.013983667            5 
 1239000   0.73854902   -8.4202328     216.6233  0.014569767  0.013971143            4 
 1240000   0.76915824   -8.4177807    217.08581    0.0145891  0.013958675            2 
 1241000   0.75075885   -8.4350769    216.35102  0.014528003  0.013946219            6 
 1242000   0.75409116   -8.4054061    217.09439  0.014566183  0.013933807            9 
 1243000   0.76342419   -8.4530636    217.21259  0.014562389  0.013921445            5 
 1244000   0.74863681   -8.4409351    217.00506  0.014536781  0.013909058            2 
 1245000   0.75770493   -8.4305589    216.88774  0.014517252  0.013896679            4 
 1246000   0.74847912   -8.4381167    217.12023   0.01452115  0.013884369            3 
 1247000   0.78113241   -8.4153323    217.36259  0.014525701  0.013872056            3 
 1248000   0.75262884   -8.4296737    217.67625  0.014535006  0.013859788            4 
 1249000   0.73940129   -8.4333608    217.40912  0.014505546  0.013847489            2 
 1250000    0.7569995   -8.4374871    216.86726  0.014457818  0.013835228            2 
 1251000   0.73608699   -8.4303272    217.30677  0.014475538  0.013822933            4 
 1252000   0.74118219   -8.4458947    217.45616  0.014473919  0.013810655            4 
 1253000   0.76172584   -8.4492416    217.14119   0.01444142  0.013798388            2 
 1254000   0.77386118    -8.441791     216.8216  0.014408666  0.013786106            6 
 1255000    0.7661865   -8.4655326    217.02847  0.014410921  0.013773834            1 
 1256000    0.7479128   -8.4661583    217.18773  0.014410014  0.013761535            4 
 1257000   0.74941164    -8.444949    217.38883  0.014411882  0.013749245            5 
 1258000   0.74906108   -8.4335338     217.1424  0.014384101  0.013736951            3 
 1259000    0.7493529   -8.4466604    217.09447  0.014369504  0.013724769            3 
 1260000   0.74992077    -8.468021    216.98042  0.014350557  0.013712536            2 
 1261000   0.73933129   -8.4265274    216.93145   0.01433594   0.01370029            3 
 1262000   0.75423362   -8.4528306    217.26954  0.014346906  0.013688099            5 
 1263000   0.76001933   -8.4135636    217.30509  0.014337892  0.013675917            3 
 1264000   0.75917983    -8.447071    216.84948  0.014296511  0.013663749            3 
 1265000    0.7459539   -8.4660175    217.10402  0.014301978  0.013651619            5 
 1266000   0.73746469   -8.4463675    216.87782  0.014275791  0.013639474            2 
 1267000    0.7488898     -8.45759     217.4115  0.014299625  0.013627345            5 
 1268000    0.7479859   -8.4562797    217.14867  0.014271075  0.013615214            4 
 1269000   0.74660594   -8.4456583    217.53628  0.014285283  0.013603176            6 
 1270000   0.74519694   -8.4589576    217.24658  0.014255025  0.013591099            2 
 1271000   0.72513648   -8.4376505    217.53319  0.014262601  0.013579006            6 
 1272000   0.73018783   -8.4458837    217.57687   0.01425425  0.013566926            2 
 1273000    0.7437066   -8.4845447    217.73324  0.014253289  0.013554867           10 
 1274000   0.75777027   -8.4510202    217.28855  0.014213013  0.013542844            8 
 1275000   0.73530761   -8.4537531    217.08716  0.014188703  0.013530803            7 
 1276000   0.74888729   -8.4594767    217.63519  0.014213374  0.013518766           13 
 1277000   0.73917403   -8.4600594    217.82665  0.014214738   0.01350672            3 
 1278000   0.75355868   -8.4456424    217.76025  0.014199286    0.0134947            9 
 1279000   0.74320182    -8.454849    217.47833  0.014169815  0.013482663            8 
 1280000   0.74061617    -8.460971    217.00018  0.014127616  0.013470658            7 
 1281000   0.73993246   -8.4426763    217.28996  0.014135439  0.013458672            5 
 1282000   0.75349857   -8.4857904    217.59788  0.014144428  0.013446649            8 
 1283000   0.74168955   -8.4817365    217.14185  0.014103784  0.013434632            4 
 1284000   0.73825509   -8.4548261     217.2059  0.014096956  0.013422603            6 
 1285000   0.73730413   -8.4665183    217.49052  0.014104444  0.013410574            3 
 1286000    0.7368202   -8.4795575    217.36399  0.014085277  0.013398582            7 
 1287000     0.751374   -8.4711873    217.66731  0.014093972  0.013386575            2 
 1288000   0.72815254   -8.4975679    217.82412  0.014093176  0.013374634            4 
 1289000   0.72768158   -8.4881865    217.30214  0.014048496  0.013362672            8 
 1290000   0.72166681   -8.4849378    217.09392  0.014024155  0.013350697            3 
 1291000   0.73402603   -8.5019839    217.38861  0.014032314  0.013338734            4 
 1292000   0.73017125   -8.4968887    217.21709   0.01401039  0.013326779            7 
 1293000   0.73746559   -8.4849876    216.96662  0.013983412  0.013314845            5 
 1294000    0.7198354   -8.4952169    217.10716  0.013981656  0.013302923            3 
 1295000   0.74621041   -8.4707379    217.67703  0.014007531  0.013291011            7 
 1296000   0.73779852   -8.4792838    217.06536  0.013957392  0.013279129            5 
 1297000   0.72322183   -8.4610273    217.60405  0.013981242   0.01326731            8 
 1298000   0.74458606   -8.4664358    217.55101  0.013967066  0.013255514            6 
 1299000   0.73609878   -8.4947085    217.32832  0.013942027  0.013243686           12 
 1300000   0.72193481   -8.4868898    217.80718  0.013961999  0.013231814            3 
 1301000    0.7289945   -8.4891677    217.45079  0.013928439  0.013219963            2 
 1302000   0.73546761   -8.5132498     217.2539   0.01390514  0.013208101            5 
 1303000   0.75156294   -8.4833694    217.50823  0.013910734  0.013196258            3 
 1304000    0.7251102   -8.4835097    217.49341  0.013899119  0.013184421            5 
 1305000   0.71403935   -8.4902819    217.72377  0.013903178  0.013172602            7 
 1306000   0.74025487    -8.485543    217.48642  0.013877388  0.013160774            2 
 1307000   0.72959174   -8.5101034    217.32102  0.013856224  0.013148965            4 
 1308000   0.72232728   -8.5163427    217.27191  0.013842502  0.013137151            2 
 1309000    0.7265885   -8.4951039    217.36492  0.013837848  0.013125391            5 
 1310000   0.71848535   -8.5046547    217.96988  0.013865768  0.013113653            4 
 1311000   0.73549383   -8.4895078    217.94197  0.013853418  0.013101928            6 
 1312000   0.73669501   -8.5055724    217.91294  0.013841015  0.013090198            2 
 1313000   0.71506606   -8.5229973    217.71747  0.013818067  0.013078452            4 
 1314000    0.7256452   -8.5127356    217.62167  0.013801476  0.013066722            3 
 1315000   0.72751483   -8.5036733     217.1682  0.013762243  0.013054972            2 
 1316000   0.73647669   -8.5191989    216.87398  0.013733155  0.013043256            4 
 1317000   0.71081399   -8.5137938    217.61834  0.013769827  0.013031498            5 
 1318000   0.72000198    -8.517954    217.54138  0.013754513  0.013019754            2 
 1319000   0.71996351   -8.4990573    217.98831  0.013772322  0.013008038            4 
 1320000   0.72651538    -8.521256    217.09887  0.013705737  0.012996322            3 
 1321000   0.72053422   -8.5297606    217.87713  0.013744457  0.012984643            2 
 1322000    0.7289637   -8.5226667    217.09382  0.013684683  0.012972934            2 
 1323000   0.74259441   -8.5378683    216.94042  0.013664677  0.012961266            5 
 1324000   0.71774851   -8.5203426    217.30205  0.013677118  0.012949574            3 
 1325000   0.72468198   -8.5247772    217.02029  0.013649075  0.012937863            4 
 1326000    0.7297432   -8.4804796    217.59494  0.013674895  0.012926187            2 
 1327000   0.72615066   -8.5228572    217.08468  0.013632547  0.012914493            4 
 1328000    0.7221359   -8.5036704    217.22835  0.013631297  0.012902825            1 
 1329000    0.7415798    -8.539067    217.00183  0.013606837  0.012891133            2 
 1330000   0.71438986   -8.5296262    217.05025   0.01359964  0.012879455            3 
 1331000   0.72767838   -8.5256652     216.6121   0.01356199  0.012867771            2 
 1332000   0.74967304   -8.5011389    217.36812  0.013599107  0.012856096            3 
 1333000   0.72979452   -8.5402066    216.88022  0.013558403  0.012844419            3 
 1334000   0.71232182   -8.5487995    217.17252  0.013566499  0.012832744            3 
 1335000    0.7288977   -8.5249232    217.63415  0.013585153  0.012821077            2 
 1336000   0.72684122   -8.5094813    217.13776  0.013544022  0.012809427            2 
 1337000   0.72740279   -8.5273916    217.10063  0.013531578  0.012797766            5 
 1338000   0.72972497   -8.5289612    217.25595  0.013531138  0.012786157            2 
 1339000    0.7274857   -8.5190919    217.66291   0.01354636  0.012774574            2 
 1340000   0.71675745   -8.5369011    217.50541  0.013526456  0.012762989            4 
 1341000   0.72654759   -8.5432452    217.03523  0.013487151   0.01275144            3 
 1342000   0.70779811    -8.524715    217.36395  0.013497513  0.012739911            2 
 1343000   0.72062672   -8.5151389    217.14485  0.013473868  0.012728398            3 
 1344000   0.71168902   -8.5281951    217.87261  0.013508967   0.01271686            2 
 1345000   0.72921362   -8.5654886    217.24687  0.013460153  0.012705366            2 
 1346000   0.71555797   -8.5503892    217.27517  0.013451905  0.012693842            4 
 1347000   0.70905094    -8.515964    217.78068  0.013473192  0.012682338            5 
 1348000   0.71721197   -8.5437066    217.68359  0.013457195  0.012670838            4 
 1349000   0.70517233   -8.5255308    217.92066  0.013461864  0.012659367            2 
 1350000   0.71590079   -8.5301127    217.69506  0.013437967  0.012647947            8 
 1351000   0.71545612   -8.5414461    217.76194  0.013432145  0.012636557            4 
 1352000    0.7071023   -8.5462357    217.32859    0.0133955  0.012625159            4 
 1353000   0.72301937   -8.5473405    217.37045  0.013388178  0.012613732            3 
 1354000   0.71175301   -8.5359743    217.49273  0.013385816  0.012602322            8 
 1355000   0.70847251   -8.5315361     217.3706  0.013368426  0.012590904            5 
 1356000   0.72512503   -8.5545846     217.7374  0.013381108  0.012579493            6 
 1357000   0.70521927   -8.5509637    217.17617  0.013336783  0.012568094            3 
 1358000   0.72156864   -8.5623989    217.25658  0.013331896  0.012556712            3 
 1359000   0.70872925     -8.53871    217.57067  0.013341346  0.012545327            9 
 1360000   0.71231642   -8.5622539    217.00551  0.013296906  0.012534018            7 
 1361000   0.71196977   -8.5458711    217.48208  0.013316316  0.012522703            5 
 1362000    0.7057226   -8.5558351    217.47655  0.013306201  0.012511381            6 
 1363000    0.7220005   -8.5364672    217.73607  0.013312305  0.012500074            5 
 1364000   0.70577722   -8.5583027    217.35684  0.013279377  0.012488741            7 
 1365000    0.7252518   -8.5314633    217.51164  0.013279099  0.012477439            4 
 1366000   0.71186396   -8.5481329     217.2942  0.013256113  0.012466158            3 
 1367000   0.70390751   -8.5448338    217.69398  0.013270787  0.012454883            3 
 1368000    0.7205385    -8.552173     217.7508  0.013264547    0.0124436           12 
 1369000   0.71922295   -8.5438108    217.43349  0.013235543  0.012432349            1 
 1370000    0.7157834   -8.5447924    217.52732  0.013231589   0.01242111            3 
 1371000   0.71086581   -8.5559842    217.63252  0.013228332  0.012409851            8 
 1372000   0.70014999   -8.5556628    217.01608  0.013181249  0.012398559            4 
 1373000   0.71490505   -8.5656458    217.36513  0.013192834  0.012387305            6 
 1374000    0.7091772   -8.5593804    217.15267  0.013170346  0.012376057            7 
 1375000   0.70506934   -8.5623143    217.69436  0.013193598  0.012364848            4 
 1376000    0.7052681   -8.5726742    217.16886  0.013152184  0.012353641            6 
 1377000   0.70325555   -8.5867331    217.72662  0.013176387  0.012342442            3 
 1378000   0.71630878   -8.5697504    217.29414  0.013140671  0.012331267            2 
 1379000   0.71365514   -8.5584202    217.72208  0.013157003  0.012320126            2 
 1380000   0.70194714   -8.5616329    217.48508  0.013133157   0.01230901            5 
 1381000   0.70202757    -8.571484    217.28512  0.013111581  0.012297888            6 
 1382000    0.6958202   -8.5545509    218.07369  0.013149643  0.012286784            5 
 1383000   0.70743825     -8.57464    217.63437  0.013113664  0.012275699            8 
 1384000    0.7100271   -8.5792706    217.83226  0.013116105   0.01226464            3 
 1385000    0.6976743   -8.5652883    218.08521  0.013121854  0.012253584            9 
 1386000   0.69704671   -8.5433837    217.83487  0.013097335   0.01224255            3 
 1387000   0.70146036   -8.5979281    217.59239  0.013073323  0.012231506            8 
 1388000   0.70296055   -8.5741168    218.01107  0.013089041   0.01222047            7 
 1389000   0.69631733   -8.5344949     217.6424  0.013057499   0.01220944            3 
 1390000   0.70399337     -8.57109    217.92498  0.013065047  0.012198417            2 
 1391000   0.71247036   -8.5577306    217.68841  0.013041481  0.012187387            4 
 1392000    0.7065141   -8.5599886    217.84831  0.013041685  0.012176391           10 
 1393000   0.67970798   -8.5842398    217.20574  0.012993882  0.012165403           11 
 1394000   0.68352068   -8.5806905    217.43684  0.012998376   0.01215441            8 
 1395000   0.70017532   -8.6019716      217.673  0.013003166  0.012143444            6 
 1396000   0.69433038   -8.5700486    217.78303   0.01300042  0.012132458            3 
 1397000   0.68282371   -8.5680796    218.16983  0.013014187  0.012121515            2 
 1398000   0.70573471   -8.5827825    217.55513  0.012968236  0.012110566            6 
 1399000   0.70291344   -8.5913408      217.464  0.012953538  0.012099648            3 
 1400000   0.69227086    -8.579944    217.84619  0.012967035  0.012088698            3 
 1401000    0.7123575   -8.6086197    217.17527  0.012917872  0.012077763            6 
 1402000   0.70338528   -8.5980928    217.39529  0.012921736  0.012066815            6 
 1403000   0.68152055   -8.5945096     217.9127  0.012943258  0.012055863            6 
 1404000   0.68250426   -8.6537695      217.288  0.012896961  0.012044924            5 
 1405000   0.68507397    -8.613221    217.63983   0.01290865  0.012033967            2 
 1406000   0.69077273    -8.618875    217.52465  0.012892642  0.012023019            4 
 1407000   0.67839166   -8.6045016    217.12453   0.01285978  0.012012081            4 
 1408000   0.68699364     -8.61395     217.6485  0.012881659  0.012001141            5 
 1409000   0.69993039   -8.5999311    217.56555   0.01286761  0.011990233            6 
 1410000   0.69487276   -8.6052643    217.15496  0.012834218  0.011979333            8 
 1411000   0.68839554   -8.5957599    217.59818  0.012851298  0.011968464            2 
 1412000   0.69440529   -8.6367876    217.16252  0.012816485  0.011957604            3 
 1413000   0.68788736   -8.5980777     217.7142   0.01283995  0.011946726            4 
 1414000   0.69191781   -8.5991948    217.01727  0.012789797  0.011935839            5 
 1415000   0.67823208   -8.6053228    217.47478  0.012807702  0.011924969            6 
 1416000   0.69756999   -8.5906315    217.85124  0.012820812  0.011914138            4 
 1417000   0.68234515   -8.6437616    217.19573  0.012773214  0.011903311            2 
 1418000   0.68718132   -8.6138877    216.98965  0.012752095  0.011892481            7 
 1419000    0.6776272   -8.6311009    217.26718  0.012759407  0.011881643            2 
 1420000   0.68535936   -8.6008298    217.32553  0.012753846  0.011870815            7 
 1421000   0.69792925     -8.62718     217.1645  0.012735427  0.011860003            1 
 1422000   0.67837623   -8.6401708    217.66907   0.01275604  0.011849175           12 
 1423000   0.67306596   -8.6270778    217.51742  0.012738195  0.011838368            6 
 1424000   0.67927382   -8.6123703    217.28777   0.01271581   0.01182758            5 
 1425000    0.6831152   -8.6273958    217.15284  0.012698997  0.011816778            4 
 1426000   0.69165811   -8.6387608    217.25067  0.012695808  0.011806022            7 
 1427000   0.69621978   -8.6256048    217.27414  0.012688282  0.011795261            2 
 1428000   0.68147378   -8.6188712    217.37867  0.012685497  0.011784508            2 
 1429000   0.67761786   -8.6238878    217.13667  0.012662507  0.011773786           13 
 1430000   0.66929529   -8.6175342    217.01282  0.012646435  0.011763057            8 
 1431000   0.68806594   -8.6144909    217.62849  0.012673451   0.01175235            3 
 1432000   0.67680212   -8.6334166    217.47272  0.012655536  0.011741662            6 
 1433000   0.68286336    -8.645954    216.96778   0.01261734  0.011730948            4 
 1434000   0.66795393   -8.6434814    217.17747  0.012620727  0.011720248           10 
 1435000   0.68465673    -8.633501    217.12413  0.012608835  0.011709555            4 
 1436000    0.6760876   -8.6424868    217.38867  0.012615405  0.011698873            8 
 1437000   0.67815805   -8.6486613    216.99474  0.012583782  0.011688182            3 
 1438000   0.68217715   -8.6624494     216.6626  0.012555783  0.011677494            8 
 1439000    0.6696616   -8.6392147    217.46583  0.012593574  0.011666821            3 
 1440000   0.67827889   -8.6507287    217.37441  0.012579538  0.011656158            6 
 1441000   0.67673756   -8.6430303    217.33131  0.012568315  0.011645505            7 
 1442000    0.6702735   -8.6419885    217.27735  0.012556481  0.011634877            4 
 1443000   0.66645891   -8.6489977    217.36874  0.012553057  0.011624265            3 
 1444000   0.66731581   -8.6814679    216.89021  0.012516748  0.011613652            2 
 1445000   0.68215061   -8.6437328     217.2044  0.012526205  0.011603029            4 
 1446000   0.67348972   -8.6635614    217.25227  0.012520301  0.011592425            3 
 1447000   0.67979007   -8.6728564    216.65512  0.012477259  0.011581827            7 
 1448000    0.6588143   -8.6343233     217.0856  0.012493416  0.011571232            3 
 1449000   0.66463377   -8.6674171    217.12073  0.012486814  0.011560649            4 
 1450000   0.68053333   -8.6891119    216.85573  0.012462973  0.011550058            9 
 1451000   0.67796305   -8.6543496    217.01451  0.012463503  0.011539478            3 
 1452000   0.67033353   -8.6744294    216.70136  0.012436947  0.011528905           10 
 1453000   0.66914519   -8.6629223    216.95473  0.012442919  0.011518328            5 
 1454000    0.6699267   -8.6707133     216.6065  0.012414403  0.011507754            4 
 1455000   0.68117116    -8.670527    216.75458  0.012414352  0.011497189            3 
 1456000    0.6655275   -8.6531842    216.91648  0.012415091  0.011486635            9 
 1457000   0.67812813   -8.6756801    216.67827  0.012392946  0.011476082            4 
 1458000   0.66743805     -8.66626    216.30191  0.012362935  0.011465543            6 
 1459000    0.6581758   -8.6700937    216.92737  0.012390186  0.011454996            4 
 1460000   0.66362021   -8.6687684    217.38009   0.01240754  0.011444462            5 
 1461000   0.67284605   -8.6808528    216.95156  0.012374604  0.011433946            4 
 1462000   0.66537312   -8.6835793    216.78143  0.012356443  0.011423444            6 
 1463000   0.67104395   -8.6982069    216.43591  0.012328316  0.011412921            4 
 1464000   0.68359068   -8.6758561    216.76187  0.012338449  0.011402439            6 
 1465000    0.6665722   -8.6626214    216.78996  0.012331625  0.011391935            3 
 1466000   0.66194825    -8.696885    216.66183   0.01231593  0.011381463            4 
 1467000   0.65704759   -8.6716692    216.89591  0.012320831  0.011370998            6 
 1468000   0.65769609   -8.6879049     216.5395  0.012292206  0.011360537            4 
 1469000   0.64639039    -8.664276    216.73462  0.012294907  0.011350083            4 
 1470000    0.6701421   -8.6713259     217.1856  0.012312109  0.011339665            5 
 1471000   0.66353949   -8.6585626    216.90154  0.012287647  0.011329244            6 
 1472000   0.68065221   -8.6714506     216.9149  0.012280056  0.011318865            2 
 1473000   0.67413231    -8.670597    216.74602  0.012262165    0.0113085            6 
 1474000   0.66794843   -8.6773121     216.5916  0.012245115   0.01129811            4 
 1475000    0.6689914   -8.6992288    216.27153  0.012218731   0.01128771            3 
 1476000   0.67135564   -8.6809559    216.50105  0.012223411  0.011277318            2 
 1477000   0.67308125   -8.6900645    216.43673  0.012211506  0.011266938            6 
 1478000   0.68257794   -8.6705724    216.47785  0.012205562  0.011256544            8 
 1479000   0.66871425   -8.6892612    216.92396  0.012222445  0.011246195            3 
 1480000   0.66458128    -8.719634    216.60376  0.012196157  0.011235841            3 
 1481000   0.67554853   -8.6947436    216.66917  0.012191603  0.011225509            3 
 1482000    0.6691396   -8.6861729     216.5462  0.012176462  0.011215163            6 
 1483000   0.65139477   -8.6826316    216.76948  0.012180798  0.011204831            6 
 1484000   0.67101107   -8.7003235    216.45134  0.012154725  0.011194506            7 
 1485000   0.66663119   -8.6826858    216.73418  0.012162412  0.011184195            3 
 1486000   0.65267984   -8.7029355    216.40981  0.012136037  0.011173902            4 
 1487000   0.67229969   -8.6838374    216.92564  0.012156783  0.011163615           11 
 1488000    0.6655344   -8.7159932    216.60032  0.012130394  0.011153327            8 
 1489000   0.65306356   -8.7008203     216.3847   0.01211018  0.011143061            5 
 1490000   0.65433267   -8.7085276    216.51913  0.012109571  0.011132807            2 
 1491000   0.65551138   -8.6897528    216.81807  0.012118157  0.011122565            5 
 1492000    0.6474203   -8.7180631     216.4541  0.012089706  0.011112331            7 
 1493000   0.65616062   -8.7205612    216.55919  0.012087474  0.011102097            5 
 1494000   0.64132576   -8.7008845    216.14443  0.012056249  0.011091868            7 
 1495000   0.66068801   -8.7079256    216.25804  0.012054517  0.011081652            4 
 1496000   0.66422952   -8.7149774    216.39821  0.012054268  0.011071441            4 
 1497000   0.66255948   -8.7146896    216.71467  0.012063831  0.011061252            4 
 1498000   0.65775193   -8.7108771    216.64428  0.012051863  0.011051074            4 
 1499000   0.64168414   -8.6976083    216.40196  0.012030351  0.011040907            8 
 1500000   0.65241401   -8.7050625    216.28367   0.01201576  0.011030772            6 
 1501000   0.65334317    -8.696995    216.86691  0.012040135  0.011020641            6 
 1502000   0.64165264   -8.7175388    216.72342  0.012024158  0.011010521            6 
 1503000   0.65497424   -8.7068508    216.22492  0.011988519   0.01100045            5 
 1504000   0.65047789   -8.7025731    216.55559  0.011998869  0.010990367            5 
 1505000   0.66452845   -8.7369699    216.65289  0.011996284  0.010980305            3 
 1506000   0.64800797   -8.7256006    216.64266  0.011987752  0.010970245            3 
 1507000   0.64983823    -8.715598    216.27721  0.011959589  0.010960176            5 
 1508000    0.6447496   -8.7036214    216.76755  0.011978755  0.010950124            5 
 1509000   0.64678056   -8.7225571    216.46519  0.011954119  0.010940085            4 
 1510000   0.65498408   -8.7311247    216.73521  0.011961105  0.010930046            3 
 1511000   0.64596182   -8.6828704    216.56017  0.011943534  0.010920034            4 
 1512000   0.64403683   -8.6960055    216.50519  0.011932605  0.010910018            6 
 1513000   0.64213898   -8.6980984    216.56837  0.011928198  0.010899997            3 
 1514000   0.64444316   -8.7257111    216.50681  0.011916932  0.010889989            3 
 1515000   0.65253926   -8.7181274    216.73451   0.01192159      0.01088            6 
 1516000   0.64687463   -8.7245123     216.4257  0.011896751  0.010870022            2 
 1517000   0.64963904   -8.7289749    216.40364  0.011887697  0.010860061            6 
 1518000   0.66268708   -8.7261657    216.36802   0.01187791  0.010850103            4 
 1519000   0.64607759   -8.7307962    216.43781   0.01187392  0.010840151            8 
 1520000   0.64019876   -8.7267569    216.36631  0.011862188  0.010830222            6 
 1521000   0.66460035   -8.7317849    216.71871  0.011873697  0.010820298            8 
 1522000   0.65114514   -8.7294137    216.51953   0.01185499  0.010810387            3 
 1523000   0.64712198   -8.7130086     216.4619  0.011844052  0.010800446            3 
 1524000   0.65036338   -8.7242974    215.93364  0.011807395   0.01079052            4 
 1525000   0.64039774   -8.7196115    216.39382  0.011824799  0.010780616            2 
 1526000   0.64412959   -8.7296304    216.31848  0.011812936  0.010770733            5 
 1527000   0.65532024   -8.7369277    216.37373  0.011808215  0.010760865            3 
 1528000   0.64076741   -8.7358758    216.50082  0.011807418  0.010751003            3 
 1529000   0.64193347   -8.7213602    216.89001  0.011820907  0.010741134            3 
 1530000   0.64041443   -8.7241147    216.55414  0.011794888  0.010731296            4 
 1531000   0.64433109   -8.7283276     216.2925  0.011772943  0.010721443            6 
 1532000   0.64419311   -8.7390093    216.28539  0.011764871  0.010711584            5 
 1533000   0.64102356   -8.7511987    216.17813  0.011751366  0.010701749            5 
 1534000   0.64096667   -8.7321551     216.2858  0.011749554  0.010691932            4 
 1535000   0.63685154   -8.7025829    216.33897  0.011744786  0.010682131            4 
 1536000   0.64136507   -8.7463434    216.94642  0.011770096  0.010672339            5 
 1537000   0.63547098   -8.7267974    216.69045   0.01174856  0.010662573            3 
 1538000   0.64000603   -8.7175918    216.61655  0.011736918  0.010652803            4 
 1539000   0.64426401   -8.7328271    216.26167  0.011710075  0.010643034            2 
 1540000   0.63305177   -8.7350689     216.2948  0.011704264  0.010633279            5 
 1541000   0.64687249   -8.7385364    216.08543  0.011685347  0.010623514            3 
 1542000   0.63068856   -8.7468615    215.68862  0.011656324  0.010613746            3 
 1543000   0.63385032   -8.7344133    216.52758   0.01169408  0.010603984            6 
 1544000   0.64329289   -8.7469619    216.46315  0.011683029  0.010594252            3 
 1545000   0.62396399   -8.7347671    216.09172  0.011655433  0.010584527            5 
 1546000   0.63209029   -8.7236884    216.40263  0.011664652  0.010574826            6 
 1547000   0.63567532   -8.7405872    216.23331  0.011647991   0.01056511            2 
 1548000   0.62969444   -8.7479949    216.22423  0.011639978   0.01055541            3 
 1549000   0.63482587   -8.7489532    216.12379   0.01162706  0.010545726            5 
 1550000   0.61459035   -8.7431692    216.14224  0.011620551  0.010536047            7 
 1551000   0.62850638    -8.746113    216.46432  0.011630363  0.010526399            5 
 1552000   0.63213402   -8.7536326    216.36394  0.011617479  0.010516757            3 
 1553000     0.644551   -8.7347255    216.18479  0.011600386  0.010507127            3 
 1554000   0.62858582   -8.7420924    216.26599  0.011597275  0.010497498            4 
 1555000   0.63937339   -8.7560122     216.0765  0.011579663  0.010487883            2 
 1556000   0.62108114   -8.7568361    216.15679   0.01157652  0.010478262            3 
 1557000    0.6267343   -8.7382709    216.50711  0.011587835  0.010468652            2 
 1558000   0.62427659   -8.7486068    215.77994  0.011541503  0.010459066            3 
 1559000   0.63331566    -8.746123    216.14905   0.01155383  0.010449506            4 
 1560000   0.62275613   -8.7434751    216.15663  0.011546828  0.010439952            1 
 1561000   0.62710379   -8.7417422    216.37391  0.011551031  0.010430428            4 
 1562000    0.6309736   -8.7246716    216.22848  0.011535877  0.010420906            2 
 1563000   0.62924052    -8.761479    216.04315  0.011518616  0.010411394            3 
 1564000   0.62783052   -8.7664906    216.40645  0.011530608  0.010401878            3 
 1565000   0.62919052   -8.7681027    216.08402  0.011506071  0.010392349            2 
 1566000   0.62379862   -8.7385276    215.97229  0.011492778  0.010382833            3 
 1567000   0.62584424   -8.7664217    215.84739  0.011478802  0.010373316            5 
 1568000   0.64571322   -8.7376006     216.1572  0.011487946  0.010363818            4 
 1569000    0.6288895   -8.7522837    216.04421  0.011474624  0.010354319            7 
 1570000    0.6339141   -8.7599681    215.87934  0.011458564  0.010344838            4 
 1571000   0.61916175   -8.7464308    216.35991  0.011476762  0.010335374            3 
 1572000   0.63686421   -8.7747177    215.92281   0.01144629   0.01032592            2 
 1573000    0.6199415   -8.7728535    215.86221  0.011435803  0.010316473            3 
 1574000   0.62586556   -8.7704472    215.91608  0.011431389  0.010307046            6 
 1575000   0.62636126   -8.7691141    216.14032  0.011435996  0.010297625            2 
 1576000   0.60801188   -8.7928471     216.2469  0.011434375  0.010288212            5 
 1577000   0.63106857   -8.7716059    216.06074  0.011417287  0.010278795            3 
 1578000   0.61687272   -8.7787493    216.09114  0.011411657  0.010269395            7 
 1579000    0.6158839   -8.7852191    216.07884  0.011403781      0.01026            7 
 1580000   0.62172743   -8.7756348    216.11861  0.011398661  0.010250601            6 
 1581000   0.64259569   -8.7640384    216.32898   0.01140254  0.010241216            5 
 1582000    0.6186808   -8.7790455    215.75765  0.011365236  0.010231857            5 
 1583000   0.63339033   -8.7552174    216.28055  0.011385584  0.010222503            2 
 1584000   0.62167809   -8.7862531    216.00654   0.01136398   0.01021315            5 
 1585000   0.62537985   -8.7800376    216.35954   0.01137537  0.010203819            8 
 1586000   0.63136851   -8.7906258    216.12111   0.01135567    0.0101945            4 
 1587000   0.60644279   -8.7915245    215.92804  0.011338377  0.010185178            6 
 1588000   0.60831722    -8.790784    215.62184  0.011315168  0.010175858           10 
 1589000   0.62518308   -8.7599277    215.68324  0.011311267  0.010166567            3 
 1590000   0.60483276   -8.7553558    216.36696  0.011339987  0.010157288            4 
 1591000   0.62159698   -8.7799619    216.27688  0.011328141  0.010147998            4 
 1592000   0.61404123   -8.7924506    215.63401  0.011287375  0.010138719            4 
 1593000   0.61597817    -8.750648    216.03371  0.011301199  0.010129469            5 
 1594000    0.6220874   -8.7841608    215.97272   0.01129092  0.010120238            3 
 1595000   0.61239022   -8.8001342    216.24917  0.011298285  0.010110999            5 
 1596000   0.61585139   -8.7877844    215.98962  0.011277653  0.010101772            2 
 1597000   0.60692823   -8.7823992    215.63091  0.011251874  0.010092549            4 
 1598000   0.61037814   -8.7757056    215.96992  0.011262512  0.010083345            9 
 1599000   0.60415012   -8.7801445    215.82629  0.011247982  0.010074143            4 
 1600000   0.60905915   -8.7975147    216.20251  0.011260547  0.010064962            3 
 1601000   0.62013882   -8.7922776    215.75971  0.011230466   0.01005578            3 
 1602000   0.60723585   -8.8040906    216.19613  0.011246157  0.010046618            7 
 1603000   0.62117909   -8.7944985    215.53406  0.011204724   0.01003747            5 
 1604000   0.62623733   -8.8060915    216.03318  0.011223669  0.010028322            6 
 1605000   0.60887831   -8.7914065    216.06121  0.011218131  0.010019167            4 
 1606000   0.61089414   -8.7945774    216.09928  0.011213122  0.010010034            5 
 1607000    0.6011699   -8.7832743    215.78998  0.011190105  0.010000908            4 
 1608000   0.60594992   -8.8282638    215.71148  0.011179078 0.0099918001            3 
 1609000   0.59985058   -8.7840172    215.71427  0.011172274 0.0099826997            6 
 1610000   0.60402161   -8.8060355    216.08399  0.011184472 0.0099736057            6 
 1611000   0.62066226   -8.8080929    215.51078  0.011147878 0.0099645169            4 
 1612000   0.60264366   -8.8037866    215.97423  0.011164921 0.0099554355            4 
 1613000   0.60170953   -8.8078977     215.8317  0.011150635 0.0099463727            2 
 1614000   0.60494344    -8.800575    215.68561  0.011136184 0.0099373105            4 
 1615000   0.60704564   -8.8158479    215.79758  0.011135066 0.0099282584            6 
 1616000   0.61231013   -8.8054432     216.3934  0.011158901 0.0099192219            3 
 1617000    0.6097748   -8.7981041    215.66943  0.011114689 0.0099101889            3 
 1618000   0.61608696   -8.8116781    215.90769  0.011120091 0.0099011597            3 
 1619000   0.60625397   -8.8002507    215.61019   0.01109791  0.009892151            7 
 1620000   0.62332003   -8.7990629    215.75371  0.011098442 0.0098831616            2 
 1621000   0.61802154   -8.8151868    215.72592  0.011090167 0.0098741836            2 
 1622000   0.61419029   -8.8068802     215.4053  0.011066857   0.00986522            3 
 1623000   0.60187656   -8.8184016    215.51496  0.011065669 0.0098562504           12 
 1624000   0.59839847   -8.8003492    215.73691  0.011070243 0.0098472962            6 
 1625000   0.61682732   -8.8153893    215.89292  0.011071432 0.0098383353            5 
 1626000   0.60607593   -8.8044785    215.88867  0.011064405 0.0098293903            4 
 1627000   0.60111275   -8.8104354    215.73004   0.01104948 0.0098204653            3 
 1628000   0.60838739   -8.8037241    216.07665  0.011060435 0.0098115462            8 
 1629000    0.6057148   -8.8047058    215.60646  0.011029592 0.0098026332            5 
 1630000   0.60667765   -8.8061582    215.53788  0.011019319 0.0097937235            5 
 1631000   0.59124227   -8.8115545    215.50945   0.01101111 0.0097848254            3 
 1632000   0.60768489   -8.8121658    215.79103  0.011018742 0.0097759359            4 
 1633000   0.58408118   -8.8192643    215.70214  0.011007458 0.0097670477            4 
 1634000   0.60087156   -8.8297214    216.10114   0.01102107 0.0097581758            3 
 1635000   0.59894919   -8.8097619    215.64094  0.010990874 0.0097493123            3 
 1636000   0.59928727   -8.8091273    215.55896   0.01097998 0.0097404672            6 
 1637000   0.60250538   -8.8407711    215.65788  0.010978308 0.0097316315            3 
 1638000   0.59885356   -8.8379482    215.90484   0.01098417 0.0097227991            6 
 1639000   0.59666964   -8.8346245    215.76456  0.010970335 0.0097139872            4 
 1640000   0.60362296   -8.8162521      215.486  0.010949492 0.0097051727            3 
 1641000   0.58646744   -8.8344868    215.44103  0.010940536 0.0096963619            6 
 1642000   0.59331274   -8.8163723    215.65715  0.010944841 0.0096875588            7 
 1643000   0.59815935   -8.8134136     215.8084  0.010945851 0.0096787764            7 
 1644000   0.59382303   -8.8210702    215.68014  0.010932692 0.0096700035            6 
 1645000   0.58903864   -8.8081678    215.93406  0.010938909 0.0096612426            4 
 1646000   0.59424168   -8.8418884     215.7068  0.010920757 0.0096524916            5 
 1647000   0.60390685   -8.8195081    215.50232  0.010903781 0.0096437536            2 
 1648000   0.59472407   -8.8212442    215.57975  0.010901079 0.0096350138            3 
 1649000    0.5951649   -8.8323553    215.48807  0.010889836 0.0096262873            3 
 1650000   0.60362322   -8.8377789    215.55529  0.010886631 0.0096175854            6 
 1651000   0.58954298    -8.824728    215.39178  0.010871784 0.0096088683            8 
 1652000   0.59579953   -8.8185221    215.74156  0.010882847 0.0096001705            7 
 1653000   0.58534139   -8.8297793    215.64483  0.010871387 0.0095914824            6 
 1654000    0.5884869   -8.8271511    215.33441  0.010849174 0.0095827968            4 
 1655000   0.60126863   -8.8466927    215.56072  0.010854014 0.0095741344            2 
 1656000   0.59060349   -8.8383693    215.72482  0.010855718 0.0095654742            2 
 1657000   0.59688498   -8.8436946    215.42823   0.01083425 0.0095568198            7 
 1658000   0.58652369   -8.7958281    215.36696  0.010824636 0.0095481844            4 
 1659000   0.59431224   -8.8206443     215.2697  0.010813226 0.0095395554            4 
 1660000   0.59148815   -8.8231396    215.37532  0.010812014 0.0095309292            3 
 1661000   0.58403112   -8.8382792    215.30407   0.01080193 0.0095223133            7 
 1662000   0.58419844   -8.8471626    215.22837  0.010791635 0.0095137044            3 
 1663000   0.59160746   -8.8381794    215.24082   0.01078577  0.009505102            4 
 1664000   0.58627659   -8.8374011    215.82999  0.010808793 0.0094965237            3 
 1665000   0.59234185   -8.8461079    215.55626  0.010788602 0.0094879368            5 
 1666000   0.58860238   -8.8391314    215.36923  0.010772771 0.0094793763            4 
 1667000   0.58993622   -8.8400978    215.15609  0.010755653 0.0094708185            7 
 1668000    0.5803372   -8.8339578    215.55593  0.010769181 0.0094622642            3 
 1669000   0.57828481   -8.8231892    215.62111  0.010765983 0.0094537103            5 
 1670000   0.58222679   -8.8471364    215.47212  0.010752102 0.0094451681            4 
 1671000   0.57841098   -8.8548296    215.57284   0.01075069  0.009436629            3 
 1672000    0.5840961   -8.8321753    215.34907  0.010733108 0.0094280989            5 
 1673000   0.57165732   -8.8389925    215.67881  0.010743117 0.0094195855            5 
 1674000   0.58459323   -8.8500497    215.56231    0.0107309 0.0094110727            3 
 1675000   0.57745425   -8.8464313    215.42797   0.01071781 0.0094025787            5 
 1676000   0.58464085   -8.8511894    215.73998  0.010726928 0.0093940896            4 
 1677000   0.58529122   -8.8472067    215.36553  0.010701924 0.0093856159            3 
 1678000   0.58426055   -8.8379698     215.4531  0.010699896 0.0093771389            2 
 1679000   0.58476181   -8.8469239    215.20726  0.010681321   0.00936867            6 
 1680000   0.58622795   -8.8560881    215.23119   0.01067615 0.0093602125            6 
 1681000   0.57470601   -8.8360199    215.13129  0.010664847 0.0093517653            4 
 1682000   0.57902275   -8.8357985     215.4396  0.010673781  0.009343325            5 
 1683000   0.59029904   -8.8596231    215.14651  0.010652927 0.0093348962            2 
 1684000   0.58323607   -8.8362277    215.07205  0.010642916  0.009326483            7 
 1685000   0.57236992    -8.851547    215.59513  0.010662469  0.009318078            3 
 1686000   0.56498697   -8.8569084    214.79864  0.010616778 0.0093096805            4 
 1687000   0.57800589   -8.8497449    215.35843  0.010638136 0.0093012846            6 
 1688000    0.5947866   -8.8678125    215.45509  0.010636606 0.0092929055            4 
 1689000   0.57031923    -8.842972    215.16093  0.010615795 0.0092845372            4 
 1690000   0.58679988   -8.8410151    215.20765  0.010611817 0.0092761701            4 
 1691000   0.57855741   -8.8491793    215.07734   0.01059912 0.0092678163            5 
 1692000   0.58108321   -8.8492276    215.26305  0.010602002 0.0092594688            3 
 1693000   0.58814732     -8.86133    215.48977    0.0106069 0.0092511282            7 
 1694000   0.58030453   -8.8632334    215.39122   0.01059579 0.0092428005            4 
 1695000   0.58250077   -8.8702355    215.54496  0.010597097 0.0092344804            4 
 1696000   0.58397445   -8.8697346    215.22194  0.010574977 0.0092261669            5 
 1697000   0.58203081   -8.8711791    215.13865  0.010564656 0.0092178627            5 
 1698000    0.5684036   -8.8438882    215.44065  0.010573255  0.009209567            3 
 1699000   0.56188178    -8.868405    215.42458  0.010566244 0.0092012886            3 
 1700000   0.58503977   -8.8639319    215.55148  0.010566249 0.0091930192            5 
 1701000   0.56941469   -8.8641831    215.19413   0.01054253 0.0091847467            2 
 1702000   0.57089455   -8.8727338    214.91797  0.010522815 0.0091764877            7 
 1703000   0.57520521   -8.8625952    214.95827  0.010518608 0.0091682396            5 
 1704000   0.57389858   -8.8467719    215.27837   0.01052809 0.0091599959            6 
 1705000   0.57547471   -8.8610539     215.3629  0.010526046 0.0091517571            3 
 1706000   0.55265202   -8.8753702    215.22791  0.010513282 0.0091435346            5 
 1707000   0.57952564   -8.8828709    215.12255  0.010501979 0.0091353245            4 
 1708000   0.58349496   -8.8881353    215.20111  0.010499664 0.0091271063            2 
 1709000   0.57592257   -8.8581345    214.96184  0.010481853 0.0091189149            3 
 1710000   0.56612896   -8.8871904     214.8613  0.010470824 0.0091107263            3 
 1711000   0.57235648   -8.8809849    214.97222  0.010470106 0.0091025377            3 
 1712000   0.57375404   -8.8816576     214.7674   0.01045402 0.0090943473            3 
 1713000   0.56515833   -8.8805056    214.78839  0.010448939 0.0090861763            2 
 1714000   0.55689913   -8.8757312    215.06523  0.010456303 0.0090780038            4 
 1715000   0.57393798   -8.8697098    215.19578  0.010456549 0.0090698528            5 
 1716000    0.5774075   -8.8975442     215.1992  0.010450622 0.0090617175            3 
 1717000   0.57186313   -8.8618041    214.82288   0.01042627 0.0090535835            6 
 1718000   0.56256984   -8.8809225    215.23613  0.010440247 0.0090454634            3 
 1719000   0.55418855   -8.8832351    215.22638  0.010433701 0.0090373419            4 
 1720000   0.57942174   -8.8830364    215.15763  0.010424304 0.0090292388            5 
 1721000   0.57041389   -8.8692267    214.97618   0.01040946 0.0090211305            6 
 1722000   0.58485692   -8.8843261     215.1375  0.010411222 0.0090130427            5 
 1723000   0.56590814   -8.9052204    215.06019  0.010401441 0.0090049617            3 
 1724000   0.55114632   -8.8778468    215.00571  0.010392774 0.0089968842            4 
 1725000   0.56846121   -8.8942348    215.13948  0.010393211 0.0089888162           10 
 1726000   0.56440056    -8.878396     215.0582  0.010383266 0.0089807636            4 
 1727000   0.55904128   -8.8943598    214.72835  0.010361337 0.0089727164            4 
 1728000   0.57119119   -8.8774172     214.8342  0.010360446 0.0089646788            3 
 1729000   0.55555567   -8.8756556    215.44743  0.010384009  0.008956662            5 
 1730000   0.57046339   -8.8716983    215.00503  0.010356697 0.0089486511            5 
 1731000   0.56932169   -8.9077607    215.23034  0.010361561 0.0089406397            6 
 1732000   0.56732439   -8.8833668    215.13336  0.010350912 0.0089326251            5 
 1733000   0.56368307    -8.903233    214.62963  0.010320717 0.0089246173            4 
 1734000   0.56515074   -8.8925633    214.97734  0.010331476 0.0089166202            2 
 1735000   0.54783098   -8.9022155    214.78835  0.010316443 0.0089086254            3 
 1736000    0.5588753   -8.8814981    214.91924  0.010316784 0.0089006453            8 
 1737000   0.55584876    -8.894323    214.71194  0.010300899 0.0088926833            4 
 1738000    0.5685454   -8.8644828    214.69437   0.01029413 0.0088847317            7 
 1739000   0.55555556   -8.8861741    214.76724  0.010291702 0.0088767888            6 
 1740000   0.56783954   -8.9033965    214.91123  0.010292684 0.0088688524            5 
 1741000   0.55556049   -8.8947133    214.87237  0.010284912 0.0088609236            6 
 1742000   0.55603233   -8.8989764    214.84954  0.010277915 0.0088529961            6 
 1743000   0.55523318   -8.8869647    215.21373  0.010289431 0.0088450831            4 
 1744000    0.5585666   -8.9009427    214.71181  0.010259548  0.008837172            6 
 1745000   0.55365253   -8.8937928    214.79887  0.010257826 0.0088292836            2 
 1746000   0.56957449   -8.8858858    214.72319  0.010248339 0.0088213915            6 
 1747000   0.55387535   -8.8972119    215.13578  0.010262153 0.0088135008            6 
 1748000   0.56450343   -8.8880198    214.54427  0.010228083 0.0088056139            4 
 1749000   0.55210416   -8.8844979    214.79512  0.010234187 0.0087977405            4 
 1750000   0.55664097   -8.9073117     214.4813  0.010213395 0.0087898865            3 
 1751000   0.56537395   -8.8994255    214.62918    0.0102146 0.0087820299            5 
 1752000   0.55271935   -8.8912745    214.75547  0.010214777 0.0087741847            5 
 1753000   0.55575686   -8.9046744    214.63501  0.010203224 0.0087663478            6 
 1754000   0.56563226   -8.8980877    214.99393  0.010214459 0.0087585146            8 
 1755000   0.55384085   -8.9083386    214.83979  0.010201319 0.0087506974            4 
 1756000   0.54823246    -8.899215    214.61044  0.010184626 0.0087428931            6 
 1757000   0.55093868   -8.8993492    214.70331  0.010183234 0.0087351002           11 
 1758000   0.55455636    -8.892082    214.89466  0.010186512 0.0087273224            7 
 1759000   0.54722241   -8.9187443    214.79476  0.010175988 0.0087195533            5 
 1760000   0.55101349   -8.9003705    214.30483  0.010147009 0.0087117734            4 
 1761000   0.53498855   -8.9207502    214.76649  0.010163093  0.008704014            4 
 1762000   0.55322432   -8.9083213    214.61109  0.010149976 0.0086962605            7 
 1763000   0.55629642   -8.9146014    214.72077  0.010149403 0.0086885117            6 
 1764000   0.55649826    -8.913427    214.60615  0.010138235 0.0086807746            8 
 1765000    0.5480363   -8.9001013    214.37768  0.010121703 0.0086730464            7 
 1766000   0.55983065   -8.9111696    214.66852  0.010129696 0.0086653324            5 
 1767000   0.53662428   -8.9303089    214.65718  0.010123429 0.0086576177            8 
 1768000   0.54152525   -8.9001113    214.78956  0.010123942 0.0086499075           15 
 1769000   0.55030961   -8.8864872    214.85473  0.010121289  0.008642212            7 
 1770000   0.54554146   -8.9127721    214.45818  0.010096901 0.0086345244            9 
 1771000    0.5356506    -8.923911    214.21904  0.010079947 0.0086268451           11 
 1772000   0.54482057   -8.9084257    214.65119  0.010094582 0.0086191582            7 
 1773000   0.53743549   -8.9280005    214.44524  0.010079208 0.0086114909            8 
 1774000   0.53963786    -8.925839     214.9851  0.010098887 0.0086038333            8 
 1775000   0.55789025   -8.9175959    214.54164  0.010072377 0.0085961774            7 
 1776000   0.53175569   -8.9194212    214.71717  0.010074942 0.0085885366           10 
 1777000    0.5477655   -8.9130412    214.51599  0.010059838 0.0085809007            4 
 1778000   0.53770658   -8.9282745     214.4017  0.010048823 0.0085732705            9 
 1779000    0.5511562   -8.9188704    214.59616  0.010052284 0.0085656605            6 
 1780000   0.54107923   -8.9190772     214.5382  0.010043923 0.0085580515           11 
 1781000   0.53401626   -8.9353896    214.91738  0.010056026 0.0085504555           11 
 1782000   0.53297672   -8.9314056    214.62247  0.010036591 0.0085428605            8 
 1783000    0.5283837   -8.9161294    214.74664  0.010036766 0.0085352748           11 
 1784000   0.54551074   -8.9413654    214.44863  0.010017219  0.008527698            5 
 1785000     0.540815   -8.9268391    214.55465  0.010016557 0.0085201222            6 
 1786000    0.5432834    -8.924334    214.59631  0.010012892 0.0085125664            9 
 1787000    0.5345827   -8.9173493     214.3603 0.0099962834 0.0085050116            7 
 1788000   0.54501792   -8.8981777    214.64835  0.010004118 0.0084974751            9 
 1789000   0.54617049    -8.919251    214.54824 0.0099938626 0.0084899442            5 
 1790000   0.52643197   -8.9429967     214.4065 0.0099816809 0.0084824265            6 
 1791000   0.54521002   -8.9309556    214.58234 0.0099842889 0.0084749179            7 
 1792000   0.53717889   -8.9272572    214.83087 0.0099902747 0.0084674272            9 
 1793000   0.53237782   -8.9311225     214.5367 0.0099710308 0.0084599416            5 
 1794000   0.54935168   -8.9147336    214.97241  0.009985712 0.0084524605            5 
 1795000   0.53304343   -8.9112237    214.64999 0.0099651808 0.0084449858            7 
 1796000   0.53529539   -8.9457897    214.47558 0.0099515395 0.0084375112            8 
 1797000   0.53521976   -8.9282945    214.58507  0.009951079 0.0084300436            7 
 1798000   0.53264867   -8.9192184    214.60988 0.0099466944 0.0084225878            8 
 1799000   0.54886523   -8.9374225    214.66633 0.0099437805  0.008415144            7 
 1800000   0.53480265   -8.9410749    214.29282  0.009920964 0.0084076983            8 
 1801000   0.54139869   -8.9487107    214.24715 0.0099133421 0.0084002619            9 
 1802000   0.53791914   -8.9401198    213.96013 0.0098945675 0.0083928366            7 
 1803000   0.54227662   -8.9327901    214.61663 0.0099194225 0.0083854191            4 
 1804000   0.53162649    -8.922685    214.18568  0.009894017 0.0083780032            4 
 1805000   0.52439583   -8.9272448    214.53196 0.0099045228 0.0083705891            5 
 1806000   0.51419766   -8.9392058    214.33943 0.0098901546 0.0083631875            7 
 1807000    0.5312272    -8.959126    214.29633 0.0098826938  0.008355798            5 
 1808000   0.52072045   -8.9320047    214.42169 0.0098830058 0.0083484097           10 
 1809000   0.52620834   -8.9378581    214.51085 0.0098816498 0.0083410394            6 
 1810000   0.52623175    -8.926348    214.00419 0.0098528631 0.0083336742            6 
 1811000   0.53694811   -8.9418014    214.52662 0.0098714624 0.0083263184            5 
 1812000   0.53265898   -8.9390076    214.32756 0.0098568598 0.0083189708            7 
 1813000   0.52173069   -8.9247528    214.31821 0.0098509931 0.0083116321            9 
 1814000   0.52180484   -8.9450787    214.15226 0.0098379392 0.0083042962            8 
 1815000   0.53357948   -8.9232354    213.92862 0.0098222508 0.0082969643           10 
 1816000   0.52502808   -8.9325686    214.31501 0.0098345729 0.0082896438            8 
 1817000   0.51632477   -8.9345424    214.38892 0.0098325501 0.0082823309            7 
 1818000   0.53091117   -8.9409456    214.28838  0.009822533  0.008275025            8 
 1819000   0.53586032     -8.93915    214.28593 0.0098170207 0.0082677323           10 
 1820000   0.52480855   -8.9560977    213.97414 0.0097973509 0.0082604456            8 
 1821000   0.52042389   -8.9468671    214.24711 0.0098044622 0.0082531733            6 
 1822000   0.52483135   -8.9631687    214.21072 0.0097974169 0.0082458993            6 
 1823000   0.52053692   -8.9340686    214.48154 0.0098044221 0.0082386519            4 
 1824000    0.5185096   -8.9414716    214.34123 0.0097926367 0.0082314004            6 
 1825000   0.53637144   -8.9569135    214.21841 0.0097816624 0.0082241574            6 
 1826000   0.53113131   -8.9494502    214.04996  0.009768618 0.0082169186           12 
 1827000   0.53025647   -8.9575587    214.19393 0.0097698382 0.0082096844            9 
 1828000   0.52067389   -8.9634576    214.50388 0.0097786235 0.0082024592            8 
 1829000    0.5197658   -8.9752945    214.40719 0.0097688715 0.0081952438            6 
 1830000   0.51923916   -8.9680712    213.92127 0.0097414059 0.0081880322           11 
 1831000    0.5193997   -8.9489991    214.57437 0.0097658095 0.0081808225            5 
 1832000   0.51920059   -8.9607541    214.19332 0.0097431461 0.0081736276            4 
 1833000   0.52423064   -8.9507894    214.24013 0.0097399586 0.0081664425            8 
 1834000   0.51575226   -8.9444892    214.11122 0.0097287906 0.0081592611            7 
 1835000   0.50456857   -8.9601626    214.15485 0.0097254702 0.0081520969            5 
 1836000   0.51762289   -8.9731029    214.00312 0.0097132863 0.0081449349            5 
 1837000   0.51749008   -8.9549994    214.22924 0.0097182563 0.0081377826            6 
 1838000   0.51926975   -8.9495518    214.50134 0.0097253055 0.0081306352            8 
 1839000   0.52130935   -8.9655908    214.51328 0.0097205585 0.0081235008            6 
 1840000   0.52578143   -8.9633909    214.14905 0.0096987796 0.0081163617           10 
 1841000   0.53223288    -8.954334    213.80451 0.0096779155 0.0081092398            4 
 1842000   0.51320344   -8.9585914    214.28544 0.0096944193 0.0081021297            6 
 1843000   0.51711348   -8.9597057    214.11093 0.0096812681  0.008095024            7 
 1844000   0.51265788   -8.9561595    214.09743 0.0096754081 0.0080879214            6 
 1845000    0.5071503   -8.9716372    214.00632 0.0096660486 0.0080808347           11 
 1846000   0.50798468   -8.9678964    214.13417 0.0096665842 0.0080737557            5 
 1847000      0.51701   -8.9763413    214.24299 0.0096662603 0.0080666857            6 
 1848000   0.51427888   -8.9779748    214.29356 0.0096633097 0.0080596232           10 
 1849000   0.51621396   -8.9704784    214.35838 0.0096610052 0.0080525733            7 
 1850000   0.50756179   -8.9586495    213.96384 0.0096380108 0.0080455358           11 
 1851000   0.52397285   -8.9720969    214.21205 0.0096439785 0.0080384981           10 
 1852000   0.51929534   -8.9578355    213.83846  0.009621961 0.0080314693            8 
 1853000   0.51526626   -8.9640829     214.2791 0.0096365848 0.0080244462            5 
 1854000   0.51492889   -8.9624518    213.79264 0.0096095217 0.0080174307            5 
 1855000   0.50302099   -8.9617898    213.91642 0.0096099021 0.0080104189            5 
 1856000   0.50997131   -8.9727198    214.19377 0.0096171774 0.0080034225            6 
 1857000   0.50823617   -8.9794138    214.14254 0.0096096995 0.0079964301            8 
 1858000   0.51253008   -8.9791904    214.17582   0.00960602 0.0079894492            6 
 1859000   0.51272915   -8.9706515    214.10164 0.0095975272 0.0079824785            8 
 1860000   0.51201421   -8.9694823     214.0299 0.0095891532 0.0079755082            6 
 1861000    0.5069841    -8.965664    213.93323 0.0095796718 0.0079685452            6 
 1862000    0.5181372   -8.9806861    214.15527 0.0095844645 0.0079615794            5 
 1863000   0.50358049   -8.9649944    214.17092 0.0095800196 0.0079546298            6 
 1864000    0.5061438   -8.9814213    213.91281 0.0095633411 0.0079476788            8 
 1865000   0.50518506   -8.9739748    213.74534 0.0095507302 0.0079407464            4 
 1866000   0.51593993     -8.98079    213.99965 0.0095569692 0.0079338154            8 
 1867000   0.50723381   -8.9754791    213.72399 0.0095395459 0.0079268951            5 
 1868000   0.51048455    -8.993501      214.031  0.009548135 0.0079199913            8 
 1869000   0.50514456   -8.9808874    214.12463 0.0095472014 0.0079130863            9 
 1870000   0.51073547   -8.9987702    213.86174 0.0095303805 0.0079061906           10 
 1871000   0.50327195     -8.97642    214.21557 0.0095410464 0.0078993038            7 
 1872000   0.50489461   -8.9837915    214.10029 0.0095308176 0.0078924202            7 
 1873000   0.50896787   -8.9850608    213.72146 0.0095088743 0.0078855516            8 
 1874000    0.5032109   -8.9808588    214.05657 0.0095187019 0.0078786953            6 
 1875000   0.51031283   -8.9996758    213.79359 0.0095019375 0.0078718381            6 
 1876000   0.50334816   -8.9967764    213.93576 0.0095031876 0.0078649928            5 
 1877000   0.50346688   -8.9811166    213.99243 0.0095006405 0.0078581454            8 
 1878000   0.50468118   -8.9830472    214.18089 0.0095039442 0.0078513107            7 
 1879000   0.50805582    -8.983453    213.87235 0.0094852029 0.0078444904            4 
 1880000   0.49890689   -8.9897604    214.06752 0.0094888085 0.0078376662            8 
 1881000    0.4913006   -8.9938941    213.74787 0.0094696025 0.0078308577           10 
 1882000   0.50409151   -8.9869171    213.80266 0.0094669969 0.0078240496           12 
 1883000   0.50007434   -8.9862837    213.73056 0.0094587785 0.0078172521            9 
 1884000   0.50137289   -8.9790518     213.7508 0.0094546533 0.0078104713            7 
 1885000   0.49854219   -8.9820198     213.9531 0.0094585809 0.0078036915            6 
 1886000   0.50486468   -8.9899251    214.20553 0.0094647196 0.0077969157            5 
 1887000   0.50149906   -8.9973596     213.7814 0.0094409735 0.0077901494           10 
 1888000   0.50077821   -8.9925755    213.97429 0.0094444868 0.0077833894            8 
 1889000   0.49057522   -9.0021973    213.50357 0.0094187212 0.0077766383            6 
 1890000   0.50637104   -9.0001193    213.78028 0.0094259382 0.0077698931           12 
 1891000   0.51095004   -9.0015975    214.04861 0.0094327783 0.0077631533            9 
 1892000   0.49923317   -9.0009014    213.67775 0.0094114582 0.0077564153            5 
 1893000    0.4976923   -9.0022091    213.79256 0.0094115407 0.0077496945            7 
 1894000   0.49736523   -9.0021387     213.7919 0.0094065424  0.007742983            7 
 1895000   0.50846244   -8.9877678    213.74544 0.0093995355 0.0077362703            9 
 1896000   0.49976373    -8.972247    213.86821 0.0093999739 0.0077295783            5 
 1897000   0.48776093   -8.9923538    213.62438 0.0093843078 0.0077228899            9 
 1898000   0.49743634   -9.0111337    214.03495 0.0093973899 0.0077162049            7 
 1899000   0.49358897    -9.006729    213.94986 0.0093887071 0.0077095301            7 
 1900000   0.48640459   -8.9987686    213.57204 0.0093671948 0.0077028683            6 
 1901000   0.50085793    -8.987084    213.64574 0.0093654981 0.0076962117            7 
 1902000   0.49250564   -8.9957935    213.77607 0.0093662842 0.0076895592            7 
 1903000   0.48269792   -9.0145103    213.75883 0.0093606074 0.0076829147            6 
 1904000   0.49168464   -8.9992724    213.72496 0.0093542087 0.0076762776            8 
 1905000   0.49216159   -8.9927909    213.76236 0.0093509342 0.0076696452           13 
 1906000   0.48891971   -9.0140553    213.74551 0.0093452915 0.0076630157            7 
 1907000   0.48877675   -9.0058704    213.82142 0.0093437081 0.0076563952            5 
 1908000    0.4906172   -8.9919183    214.07848 0.0093500385 0.0076497883            6 
 1909000   0.49404667   -9.0054634    213.69674 0.0093284766 0.0076431873            5 
 1910000   0.48888238   -9.0078565    213.75198 0.0093260025 0.0076365925            5 
 1911000   0.49322398   -8.9985404    213.72801  0.009320077 0.0076300102            5 
 1912000   0.49161669   -9.0182371    213.72627  0.009315127 0.0076234329            3 
 1913000   0.48534172   -9.0108521    213.77306 0.0093122957 0.0076168586            6 
 1914000   0.48476757   -9.0059511    213.83826 0.0093102692 0.0076102874            7 
 1915000    0.4969386   -9.0154008    213.57898 0.0092941243 0.0076037321           11 
 1916000   0.48309724   -9.0035073    213.59696 0.0092900555 0.0075971766            6 
 1917000   0.48734662   -9.0241213    213.53074 0.0092823311 0.0075906257            5 
 1918000   0.47724435   -9.0069658     213.8884 0.0092930308 0.0075840843           15 
 1919000   0.49529874   -9.0064197     213.6551  0.009278057 0.0075775486            6 
 1920000   0.49353044   -9.0056856    213.82253 0.0092804919 0.0075710228            7 
 1921000   0.48484972   -9.0092041    213.81019 0.0092751253  0.007564504            7 
 1922000   0.48805966   -9.0003414    213.85924 0.0092724264 0.0075579973            5 
 1923000   0.49399532   -9.0180887    213.82546 0.0092661406 0.0075514923            5 
 1924000   0.48348817   -9.0171208    213.61175 0.0092520681 0.0075449957            6 
 1925000   0.48233927   -9.0252747    213.38295 0.0092373572 0.0075385038            5 
 1926000    0.4838331   -9.0298901    213.54548 0.0092395931 0.0075320234            4 
 1927000   0.48817955   -9.0261137    213.46917 0.0092314985 0.0075255477            5 
 1928000     0.472152   -9.0223038    213.55382 0.0092303691   0.00751908            6 
 1929000   0.48766171   -9.0062027    213.56366 0.0092260093 0.0075126163            7 
 1930000   0.48616365   -9.0176871    213.44827 0.0092162466 0.0075061641            9 
 1931000   0.48229849   -9.0185081    213.79223 0.0092263176 0.0074997151            5 
 1932000   0.49011634    -9.012023    213.60559 0.0092134918 0.0074932791            8 
 1933000   0.48769641   -9.0091688    213.44917 0.0092019817 0.0074868465            7 
 1934000   0.48898381   -9.0130801    213.73503  0.009209541 0.0074804278           14 
 1935000    0.4733635   -9.0145932     213.6331 0.0092003921 0.0074740108            8 
 1936000   0.48410526    -9.030506     213.4022 0.0091857008 0.0074675996            6 
 1937000   0.47401382   -9.0201284    213.32164 0.0091774927 0.0074611889            8 
 1938000   0.47943036   -9.0229546    213.69898 0.0091889826 0.0074547903            6 
 1939000   0.48027257   -9.0317309    213.45772  0.009173875 0.0074483941            6 
 1940000   0.47070383   -9.0260147    213.80694 0.0091841468  0.007442012            5 
 1941000    0.4835432   -9.0198203    213.63836 0.0091721776  0.007435643            6 
 1942000    0.4726885   -9.0332347    213.86116 0.0091770152 0.0074292815            5 
 1943000   0.47744556   -9.0347889    213.80425 0.0091698511 0.0074229211            7 
 1944000    0.4836723   -9.0169216    213.67936 0.0091597805 0.0074165691            3 
 1945000    0.4654806   -9.0162852     213.8782 0.0091635902  0.007410222            7 
 1946000   0.47919836   -9.0305574    213.60178 0.0091470445 0.0074038828            7 
 1947000   0.47786865   -9.0317043     213.4291 0.0091349556 0.0073975476            6 
 1948000   0.46504781   -9.0320673    213.60495 0.0091377886 0.0073912151           10 
 1949000   0.46624496   -9.0366448    213.33517 0.0091215655 0.0073848952            9 
 1950000   0.47656685   -9.0278867    213.57473 0.0091271251 0.0073785743            5 
 1951000   0.47133712   -9.0351954    213.36018  0.009113283 0.0073722697            5 
 1952000   0.46130579   -9.0350157    213.28131 0.0091052473 0.0073659667            8 
 1953000   0.47083397   -9.0363874    213.37225 0.0091044654 0.0073596733            3 
 1954000   0.47876209   -9.0270622    213.27147 0.0090955081 0.0073533887            5 
 1955000   0.46784623   -9.0207913    213.50536 0.0091008252 0.0073471055            6 
 1956000   0.47707438   -9.0319583    213.55371 0.0090982325 0.0073408332            7 
 1957000   0.46861709   -9.0294084     213.4848 0.0090906488 0.0073345674            6 
 1958000   0.47536477    -9.034387    213.17869  0.009072978 0.0073283148            8 
 1959000   0.47093289   -9.0223982     213.3911 0.0090773821 0.0073220665            6 
 1960000   0.46264733   -9.0367566    213.49602 0.0090772118 0.0073158209            7 
 1961000   0.47326485   -9.0466643     213.1258 0.0090568502 0.0073095854            8 
 1962000   0.46243786   -9.0442566    213.29768 0.0090595345 0.0073033531           10 
 1963000   0.47202091   -9.0396256    213.17239 0.0090496005 0.0072971274            5 
 1964000   0.47041891   -9.0362488    213.70984 0.0090677969 0.0072909099            5 
 1965000   0.46707304   -9.0426092    213.46524 0.0090528092 0.0072847021            7 
 1966000   0.47313423    -9.051152     213.3073 0.0090415097 0.0072785057            9 
 1967000   0.46365512   -9.0357325    213.20489 0.0090325747 0.0072723066           11 
 1968000   0.47130095   -9.0409389    213.21259 0.0090283109 0.0072661209            4 
 1969000   0.46166213      -9.0376    213.04832 0.0090167732 0.0072599362            9 
 1970000   0.46958432   -9.0393067     213.2619  0.009021231 0.0072537591            6 
 1971000   0.47554886   -9.0327295    213.38823 0.0090219952  0.007247596            9 
 1972000   0.47149768   -9.0455275    213.13715 0.0090068101 0.0072414361            9 
 1973000    0.4662584   -9.0455191    213.37624 0.0090123431 0.0072352827            8 
 1974000   0.46866307   -9.0453267    213.23019  0.009001612 0.0072291307            5 
 1975000   0.47010055   -9.0522047    213.32399 0.0090010124 0.0072229936            6 
 1976000   0.46245054   -9.0644841    213.31951 0.0089962683   0.00721686           11 
 1977000   0.46288407   -9.0358376    213.01726 0.0089789774 0.0072107308            7 
 1978000   0.45535445   -9.0492822    213.09515 0.0089777197 0.0072046084            7 
 1979000   0.46583259    -9.033985    213.07912  0.008972508  0.007198493            6 
 1980000   0.46283756   -9.0617143    213.55425 0.0089879736 0.0071923909            7 
 1981000   0.45854671   -9.0632504     213.2701 0.0089714831 0.0071862883            6 
 1982000   0.46551822   -9.0732262    213.43676 0.0089739639 0.0071801923            7 
 1983000   0.47143399   -9.0393641    212.69488 0.0089382618 0.0071741046            9 
 1984000   0.46202318   -9.0498119    213.39221 0.0089630463 0.0071680284           11 
 1985000   0.46510583   -9.0610046    213.26782  0.008953309 0.0071619528            5 
 1986000   0.46042816   -9.0469211    213.27998 0.0089493111 0.0071558804            7 
 1987000   0.45590611   -9.0676933     213.4694 0.0089527513  0.007149818            5 
 1988000   0.45384639   -9.0418681    213.38371 0.0089446558 0.0071437623            6 
 1989000   0.45864593    -9.061476    213.33021 0.0089379171 0.0071377176            6 
 1990000   0.44856055   -9.0648609     213.1032 0.0089239196 0.0071316743            6 
 1991000   0.45927235   -9.0549311    213.19221  0.008923163 0.0071256432            6 
 1992000   0.46448995   -9.0426415    212.99079 0.0089102575 0.0071196161            9 
 1993000    0.4545622   -9.0596915    213.44198 0.0089246521  0.007113597            8 
 1994000   0.46138293   -9.0654254    213.08848  0.008905403 0.0071075817            5 
 1995000   0.45373395   -9.0550803    213.20655 0.0089058711 0.0071015731            8 
 1996000   0.45160235   -9.0587161    212.98101 0.0088919928 0.0070955647            6 
 1997000   0.44817061   -9.0636494    213.05085 0.0088904544 0.0070895666           10 
 1998000   0.45825509   -9.0500875    213.05994 0.0088863839 0.0070835756            6 
 1999000   0.44915135   -9.0705754    213.23537 0.0088892519 0.0070775934            6 
 2000000   0.45904876   -9.0585704    213.18799 0.0088828327 0.0070716131            6 
 2001000    0.4464776   -9.0414711    213.19188 0.0088785556 0.0070656473            5 
 2002000   0.45812837   -9.0571658    213.00301  0.008866259 0.0070596859            7 
 2003000   0.45881068   -9.0594872    213.17615 0.0088690359 0.0070537311            7 
 2004000   0.44970282    -9.060674    213.07005 0.0088601984 0.0070477804            7 
 2005000    0.4483784   -9.0586923    212.79635 0.0088444038 0.0070418433            5 
 2006000   0.45432621   -9.0643424     213.4865 0.0088686648 0.0070359104            9 
 2007000   0.45861065    -9.069241    213.28583 0.0088559138 0.0070299834            5 
 2008000   0.44294684   -9.0898473    213.18055 0.0088471344 0.0070240592            9 
 2009000   0.44830913   -9.0449069    212.65785 0.0088210491 0.0070181423            9 
 2010000    0.4531678   -9.0654688    213.26906 0.0088420009 0.0070122329            7 
 2011000   0.46129307   -9.0734387    212.88104 0.0088215248  0.007006328            6 
 2012000   0.46015002   -9.0637766    213.04604 0.0088239746 0.0070004336            7 
Loop time of 4977.55 on 48 procs for 2000000 steps with 4000 atoms

Performance: 69431.706 tau/day, 401.804 timesteps/s
99.4% CPU use with 48 MPI tasks x no OpenMP threads

MPI task timing breakdown:
Section |  min time  |  avg time  |  max time  |%varavg| %total
---------------------------------------------------------------
Pair    | 347.24     | 369.49     | 404.42     |  75.6 |  7.42
Neigh   | 33.214     | 34.453     | 35.789     |  13.0 |  0.69
Comm    | 311.61     | 346.97     | 369.49     |  75.0 |  6.97
Output  | 4.3674     | 4.3713     | 4.4232     |   0.4 |  0.09
Modify  | 4162.8     | 4177       | 4189.8     |   9.8 | 83.92
Other   |            | 45.27      |            |       |  0.91

Nlocal:        83.3333 ave          92 max          76 min
Histogram: 1 3 5 11 5 12 6 3 0 2
Nghost:        2226.88 ave        2246 max        2209 min
Histogram: 2 3 4 6 7 15 3 4 3 1
Neighs:        14936.0 ave       17010 max       13264 min
Histogram: 2 2 6 10 12 8 4 2 0 2
FullNghs:      29870.6 ave       33153 max       27114 min
Histogram: 1 3 7 10 8 8 5 4 0 2

Total # of neighbors = 1433791
Ave neighs/atom = 358.44775
Neighbor list builds = 106688
Dangerous builds = 0

#clear
#
#next RN
#
#jump SELF
Total wall time: 1:23:00
