
units lj                  # Use reduced LJ style units
atom_style atomic         # Uncharged point particles
atom_modify map hash      # Needed for indexing of clusters etc
                          # Used to be able to find where atoms are in relation to each other.

lattice fcc 1.0 spacing 1 1 1
Lattice spacing in x,y,z = 1.5874011 1.5874011 1.5874011
region box block 0 10 0 10 0 10 units lattice
create_box 2 box
Created orthogonal box = (0.0000000 0.0000000 0.0000000) to (15.874011 15.874011 15.874011)
  3 by 4 by 4 MPI processor grid
create_atoms 1 box
Created 4000 atoms
  using lattice units in orthogonal box = (0.0000000 0.0000000 0.0000000) to (15.874011 15.874011 15.874011)
  create_atoms CPU = 0.024 seconds
set type 1 type/fraction 2 0.41 78393
Setting atom values ...
  1648 settings made for type/fraction
mass 1 1.0
mass 2 1.0
pair_style lj/cut  3.5
pair_modify tail  yes
pair_coeff 1  1  1.0  1.0   # Intearaction between 1 and 1 set with epsilon = 1 and sigma = 1
pair_coeff 1  2  1.5  0.8
pair_coeff 2  2  0.5  0.88

write_data data.0
System init for write_data ...
Neighbor list info ...
  update every 1 steps, delay 10 steps, check yes
  max neighbors/atom: 2000, page size: 100000
  master list distance cutoff = 3.8
  ghost atom cutoff = 3.8
  binsize = 1.9, bins = 9 9 9
  1 neighbor lists, perpetual/occasional/extra = 1 0 0
  (1) pair lj/cut, perpetual
      attributes: half, newton on
      pair build: half/bin/atomonly/newton
      stencil: half/bin/3d
      bin: standard
WARNING: Not all mixed pair coeffs generated from mixing. Use write_data with 'pair ij' option to store all pair coeffs. (../write_data.cpp:312)


#############################
#   M E L T   S Y S T E M   #
#############################

velocity all create 2.4 5833274 mom yes dist gaussian # Assign velocities
                                                    # Temperature 2.4, random number seed, zero linear momentum
                                                                                # Gaussian distribution

timestep 0.002   # simulation timestep
thermo 1000       # output thermodynamic data every 1000 steps bf 100

# Define a fix  in this case with index 1 applied to all
# particles in the simulation. This fix is for simulations
# in the anisotropic NPT ensemble. Note that we use the MTK
# correction.
fix 1 all npt temp 2.4 2.4 0.1 iso 5.68 5.68 0.5 mtk yes tchain 5 pchain 5 # Use NPT ensemble
                                                                         # Set temperature and pressure and damping
                                                                         # Numbers of thermostats in chain and in barostat
run 10000          # run for 10000 steps
Per MPI rank memory allocation (min/avg/max) = 3.642 | 3.644 | 3.648 Mbytes
Step Temp E_pair E_mol TotEng Press Volume 
       0          2.4   -5.8082674            0   -2.2091674   -4.1765581         4000 
    1000     2.412916   -4.9911398            0   -1.3726705    5.6524932    3889.2553 
    2000    2.3803107   -5.0526428            0   -1.4830693    5.5814222    3871.8799 
    3000    2.4113059   -5.0403592            0   -1.4243046    5.6258734    3868.6895 
    4000    2.4209218    -5.064325            0   -1.4338501    5.7675191    3843.2618 
    5000    2.3849093   -5.0185713            0   -1.4421016    5.2613586    3902.2302 
    6000    2.3570161   -5.0186894            0   -1.4840491     5.610344    3875.1059 
    7000    2.3892749   -5.0106422            0   -1.4276259    5.4602936    3890.6105 
    8000    2.4378433   -4.9621378            0    -1.306287    5.8899502    3886.8447 
    9000    2.4335285   -5.0145239            0   -1.3651437    5.6528982    3882.5923 
   10000    2.3892613   -5.0315825            0   -1.4485865    5.7165214    3866.8374 
Loop time of 2.60219 on 48 procs for 10000 steps with 4000 atoms

Performance: 664054.784 tau/day, 3842.910 timesteps/s
99.5% CPU use with 48 MPI tasks x no OpenMP threads

MPI task timing breakdown:
Section |  min time  |  avg time  |  max time  |%varavg| %total
---------------------------------------------------------------
Pair    | 1.1268     | 1.188      | 1.2529     |   2.3 | 45.66
Neigh   | 0.20907    | 0.21632    | 0.22575    |   0.7 |  8.31
Comm    | 0.8148     | 0.87377    | 0.93669    |   3.3 | 33.58
Output  | 0.00024671 | 0.00025094 | 0.00032735 |   0.0 |  0.01
Modify  | 0.25811    | 0.30853    | 0.36084    |   5.6 | 11.86
Other   |            | 0.01529    |            |       |  0.59

Nlocal:        83.3333 ave          93 max          75 min
Histogram: 1 6 5 8 7 8 6 2 4 1
Nghost:        1688.29 ave        1714 max        1666 min
Histogram: 5 3 4 5 8 10 5 5 1 2
Neighs:        9866.92 ave       11246 max        8663 min
Histogram: 3 3 7 7 9 4 7 4 1 3

Total # of neighbors = 473612
Ave neighs/atom = 118.40300
Neighbor list builds = 904
Dangerous builds = 198

# Equilibrate just above the melting temperature to avoid step fn in T

fix 1 all npt temp 1.25 1.25 0.1 iso 5.68 5.68 0.5 mtk yes tchain 5 pchain 5
run 2000
Per MPI rank memory allocation (min/avg/max) = 3.643 | 3.645 | 3.649 Mbytes
Step Temp E_pair E_mol TotEng Press Volume 
   10000    2.3892613   -5.0315825            0   -1.4485865    5.7165214    3866.8374 
   11000    1.2522463   -7.0117407            0   -5.1338408    5.9351913    3063.9189 
   12000    1.2145581   -7.0601456            0   -5.2387639    5.9635839    3048.9734 
Loop time of 0.63408 on 48 procs for 2000 steps with 4000 atoms

Performance: 545041.652 tau/day, 3154.176 timesteps/s
99.6% CPU use with 48 MPI tasks x no OpenMP threads

MPI task timing breakdown:
Section |  min time  |  avg time  |  max time  |%varavg| %total
---------------------------------------------------------------
Pair    | 0.26439    | 0.29713    | 0.3716     |   2.9 | 46.86
Neigh   | 0.039001   | 0.041881   | 0.052128   |   1.0 |  6.60
Comm    | 0.16572    | 0.24711    | 0.27702    |   3.6 | 38.97
Output  | 5.1185e-05 | 5.2875e-05 | 6.8241e-05 |   0.0 |  0.01
Modify  | 0.036821   | 0.043178   | 0.048685   |   1.8 |  6.81
Other   |            | 0.004725   |            |       |  0.75

Nlocal:        83.3333 ave          93 max          74 min
Histogram: 1 3 4 8 8 8 8 5 2 1
Nghost:        1967.83 ave        1996 max        1945 min
Histogram: 3 5 1 11 13 6 2 3 3 1
Neighs:        12532.7 ave       14122 max       11041 min
Histogram: 3 3 7 5 5 10 5 4 5 1

Total # of neighbors = 601569
Ave neighs/atom = 150.39225
Neighbor list builds = 143
Dangerous builds = 10

#############################
# L I N E A R  Q U E N C H  #
#############################

# Define solid atoms. This closely follows ten Wolde  Ruiz-Montero and Frenkel  Faraday Discuss  1996  104  93-110
# Compute components of the per-atom q6 vector
compute q6 all orientorder/atom degrees 1 6 components 6 nnn NULL cutoff 1.3 # compute the Q6 parameter.
                                                                             # Use all neighbours within 1.3 unit cell.

# get number of connections
compute coord_number all coord/atom orientorder q6 0.5

# An atom is solid if it has 8 or more connections (of a possible 14)
variable is_solid atom c_coord_number>=8
group solid dynamic all var is_solid    # Must be dynamic to update
dynamic group solid defined

# do clustering
compute cluster solid cluster/atom 1.3 # Create a cluster where all atoms within are solid and max 1.3 units from another member

# define chunks one chunk per cluster
compute clus_chunks solid chunk/atom c_cluster nchunk every compress yes  # Says which atoms are in which chunk

# count the size of each chunk
compute size_chunks solid property/chunk clus_chunks count


# Find the maximum entry in the vector of chunk sizes
variable max_n equal max(c_size_chunks)


# Thermo style which includes this variable
# thermo_style custom step temp pe vol v_max_n

thermo ${N}  # Print the thermo information every 100 steps
thermo 1000  

# Reset the npt fix at a lower temperature (below freezing)
fix 1  all npt temp  ${temp} ${temp}  0.1  iso  5.68  5.68  0.5  mtk yes tchain  5  pchain  5
fix 1  all npt temp  0.45 ${temp}  0.1  iso  5.68  5.68  0.5  mtk yes tchain  5  pchain  5
fix 1  all npt temp  0.45 0.45  0.1  iso  5.68  5.68  0.5  mtk yes tchain  5  pchain  5

dump dmp2 all dcd ${N} traj.dcd
dump dmp2 all dcd 1000 traj.dcd


compute msd all msd com yes
variable twopoint equal c_msd[4]/6/(step*dt+1.0e-6)
fix 9 all vector 10 c_msd[4]
variable fit equal slope(f_9)/6/(10*dt)
thermo_style custom step temp pe c_msd[4] v_twopoint v_fit v_max_n

fix 1 all npt temp 1.25 ${temp} 0.1 iso 5.68 5.68 0.5 mtk yes tchain 5 pchain 5
fix 1 all npt temp 1.25 0.45 0.1 iso 5.68 5.68 0.5 mtk yes tchain 5 pchain 5
run 2000000 # 5000000  # Run for this many steps
Neighbor list info ...
  update every 1 steps, delay 10 steps, check yes
  max neighbors/atom: 2000, page size: 100000
  master list distance cutoff = 3.8
  ghost atom cutoff = 3.8
  binsize = 1.9, bins = 8 8 8
  4 neighbor lists, perpetual/occasional/extra = 1 3 0
  (1) pair lj/cut, perpetual
      attributes: half, newton on
      pair build: half/bin/atomonly/newton
      stencil: half/bin/3d
      bin: standard
  (2) compute orientorder/atom, occasional
      attributes: full, newton on
      pair build: full/bin/atomonly
      stencil: full/bin/3d
      bin: standard
  (3) compute coord/atom, occasional
      attributes: full, newton on
      pair build: full/bin/atomonly
      stencil: full/bin/3d
      bin: standard
  (4) compute cluster/atom, occasional
      attributes: full, newton on
      pair build: full/bin/atomonly
      stencil: full/bin/3d
      bin: standard
Per MPI rank memory allocation (min/avg/max) = 9.825 | 9.831 | 9.836 Mbytes
Step Temp PotEng c_msd[4] v_twopoint v_fit v_max_n 
   12000    1.2145581   -7.0601456 1.9595305e-30 1.360785e-32 8.3333333e+20            3 
   13000    1.2561596   -7.1190915   0.46983098  0.003011737  0.037933159            2 
   14000    1.2826023   -7.1150527   0.93033479 0.0055377069  0.037541567            1 
   15000    1.2599789   -7.1344236    1.3379848 0.0074332487  0.036748669            1 
   16000    1.2544838   -7.1547878    1.8003568 0.0093768579  0.036830575            1 
   17000    1.2552064   -7.1404149    2.2668779  0.011112146  0.037310496            1 
   18000    1.2417128   -7.1097149    2.6957892  0.012480505  0.037340482            1 
   19000     1.218852   -7.1076549    3.0901867   0.01355345  0.037023527            1 
   20000    1.2754179   -7.1132665    3.5480042   0.01478335  0.036633927            2 
   21000     1.286135   -7.0976128    3.9873188  0.015822693  0.036646124            2 
   22000    1.2559624   -7.1227733    4.4404954  0.016820058   0.03665884            1 
   23000    1.2640949   -7.0905848    4.8527186  0.017582313  0.036704632            3 
   24000    1.2317102   -7.1071435     5.181484  0.017991264  0.036428047            1 
   25000    1.2700928   -7.1244758    5.5437327  0.018479108  0.036064089            1 
   26000    1.2455926     -7.14202    5.9987815  0.019226864  0.035757516            2 
   27000    1.2580879   -7.1383597    6.4729588  0.019978268  0.035578671            1 
   28000     1.255124   -7.1054595    6.9456864  0.020671685  0.035548554            1 
   29000     1.250241   -7.1516258    7.3256274  0.021050653  0.035565608            1 
   30000    1.2451256   -7.0800249    7.8071585  0.021686551  0.035581928            4 
   31000    1.2218818   -7.1367993    8.2337654  0.022133778  0.035602962            2 
   32000    1.2554823   -7.1144518    8.6668788  0.022569997  0.035619495            1 
   33000    1.2313888   -7.1461753     8.959558  0.022625146  0.035564563            2 
   34000    1.2227046   -7.1077892    9.4536622   0.02317074  0.035533919            1 
   35000    1.2497203   -7.1217528    9.7984535  0.023329651  0.035445343            5 
   36000    1.2370212   -7.1285235    10.291877  0.023823788  0.035390912            1 
   37000    1.2484924   -7.1130362    10.844326  0.024424157  0.035402235            3 
   38000    1.2358657   -7.1174871    11.277673  0.024731738  0.035496313            1 
   39000    1.2223467   -7.1549763    11.584001   0.02475214  0.035527793            3 
   40000    1.2451812   -7.1060342     11.96839  0.024934145  0.035497517            6 
   41000    1.2544433   -7.1111072    12.325705  0.025052245  0.035446677            2 
   42000    1.2418488   -7.1656633     12.63869  0.025076765  0.035336761            1 
   43000    1.2517986    -7.159467    13.005571  0.025204595  0.035228675            2 
   44000    1.2467834   -7.1539874     13.42078  0.025418144  0.035109099            1 
   45000    1.2257656   -7.1097728    13.856409  0.025660017  0.034998847            3 
   46000    1.2672281   -7.1724268    14.286573  0.025881473  0.034929432            1 
   47000    1.2473337   -7.1864274    14.710176  0.026081873  0.034875188            1 
   48000    1.2069297   -7.0764692    15.229578   0.02644024  0.034855741            1 
   49000    1.2290618   -7.1098603     15.50502  0.026369082  0.034821128            3 
   50000    1.2176421   -7.1466996    15.955159  0.026591931   0.03476519            2 
   51000    1.2023863    -7.171937    16.377686  0.026760925   0.03473594            2 
   52000    1.2441563   -7.1694458    16.857543  0.027015293  0.034715685            2 
   53000    1.2447796   -7.1642697    17.230778  0.027092418  0.034708252            1 
   54000    1.2682176   -7.1342629    17.569202  0.027112966  0.034675781            1 
   55000    1.2239954    -7.132237    17.926241  0.027160971   0.03463792            3 
   56000    1.2231867   -7.1605307    18.468355  0.027482671  0.034610116            2 
   57000    1.2276484    -7.193609    18.840585  0.027544715    0.0345879            1 
   58000    1.2327861   -7.1713029    19.214777  0.027607438  0.034567965            1 
   59000    1.2161469    -7.070491    19.649797   0.02775395  0.034539899            1 
   60000    1.2229721   -7.0971902    20.042687  0.027837065  0.034517294            1 
   61000    1.2289753    -7.164801    20.374774  0.027834391  0.034476839            2 
   62000    1.2315786   -7.1569749    20.774376  0.027922548  0.034448973            2 
   63000    1.2481138   -7.1047237    21.336095  0.028222347  0.034433773            2 
   64000    1.2368558   -7.1053439     21.71165  0.028270378  0.034426797            1 
   65000     1.232317   -7.1680795    22.041569  0.028258421  0.034414483            1 
   66000    1.2305518   -7.1483933    22.456157  0.028353733  0.034396675            2 
   67000    1.2488606   -7.1766981    22.876063  0.028452814  0.034384159            1 
   68000    1.2075062   -7.1453122    23.418206  0.028698782  0.034385915            1 
   69000    1.2271792   -7.1230512    23.850293  0.028804701  0.034390073            2 
   70000    1.2342964   -7.1875783    24.174234   0.02877885  0.034389046            3 
   71000     1.224246   -7.1914878    24.693718  0.028983237  0.034390029            2 
   72000    1.2227952   -7.1873983    24.921827  0.028844707  0.034390745       -1e+20 
   73000    1.2286671   -7.2237041    25.331674  0.028917436  0.034387921            1 
   74000    1.2288418   -7.1614285    25.692355  0.028932832   0.03438612            3 
   75000    1.2224484   -7.1772815    26.192918  0.029103242  0.034371982            1 
   76000    1.2438918   -7.1240843     26.73182  0.029311206  0.034365946            1 
   77000    1.2032681   -7.2046625     26.98468  0.029204199  0.034356456            1 
   78000    1.2711201   -7.1434669    27.589618  0.029476088  0.034348564            1 
   79000    1.1977888   -7.2043235    27.832334  0.029359002  0.034346042            2 
   80000     1.232725    -7.142763     28.18703   0.02936149  0.034340266            2 
   81000    1.2380215   -7.1555554    28.736526  0.029564327    0.0343297            1 
   82000    1.2452236   -7.1801423    28.925375  0.029395707   0.03432282            2 
   83000    1.2292237   -7.1530808    29.267513  0.029385053  0.034307346            1 
   84000    1.2169385   -7.1635843    29.613239  0.029378213  0.034281771            2 
   85000    1.2316297   -7.1925019    29.987461  0.029399472  0.034258841            2 
   86000     1.219256   -7.2026054    30.515939  0.029569709  0.034238979            2 
   87000    1.2391871   -7.1739423    30.931842  0.029628201  0.034228807            4 
   88000    1.2164523   -7.1433926     31.49371  0.029823589  0.034221165            1 
   89000    1.1946838   -7.2314917    31.946004  0.029911988  0.034217227            1 
   90000    1.2223687   -7.1775878    32.296941  0.029904574  0.034218962            1 
   91000    1.1996552   -7.1670961    32.595369  0.029849239  0.034217264            2 
   92000    1.2123411   -7.1850081    32.793046  0.029703846  0.034199322            1 
   93000    1.2249115   -7.1763986    33.081513  0.029642933  0.034165262            5 
   94000    1.2378812   -7.1953714    33.486112   0.02968627  0.034136452            2 
   95000    1.1972735   -7.2306909    33.959177  0.029788751   0.03410511            2 
   96000    1.2090452   -7.2039971    34.169077  0.029660657  0.034075968            2 
   97000    1.2091891   -7.1829065    34.648032   0.02976635  0.034042159            2 
   98000    1.2224911   -7.2319663    35.043946  0.029799274  0.034015356            2 
   99000    1.2189823   -7.1668556    35.542525   0.02991795  0.033992065            1 
  100000    1.1988919   -7.1796965    35.839334  0.029866112  0.033968919            1 
  101000     1.223021   -7.1850247    36.395687  0.030029444    0.0339508            2 
  102000    1.2099826   -7.1957958    36.809314  0.030072969   0.03393071            1 
  103000    1.2240631   -7.2507075    37.076214  0.029996936  0.033910518            1 
  104000    1.2144203   -7.2127329    37.479058  0.030031296   0.03388927            2 
  105000    1.2317105   -7.2155183    37.827945  0.030022178  0.033870349            2 
  106000    1.2219541   -7.1839793    38.267483  0.030084499  0.033848864            2 
  107000    1.2316265   -7.2108416    38.737356   0.03016928  0.033831672            2 
  108000     1.208245   -7.2061192    38.989964  0.030084849  0.033810695            1 
  109000    1.2115864   -7.1852757    39.210303  0.029977296  0.033781248            1 
  110000    1.2054976   -7.2249626    39.223755  0.029714966  0.033737734            1 
  111000    1.1950506   -7.2501559    39.766739  0.029854909  0.033691534            2 
  112000    1.2464933   -7.2403245    40.046119   0.02979622  0.033649175            2 
  113000    1.2081343   -7.1846399       40.612  0.029949852  0.033609219            2 
  114000    1.2190775    -7.170928    41.042242  0.030001639  0.033577513            2 
  115000    1.2214727   -7.1952959    41.394268  0.029995847  0.033549444            2 
  116000    1.2271323   -7.2420159    41.697123  0.029954829  0.033517798            1 
  117000    1.1664648   -7.2188178    42.138589   0.03001324  0.033489199            1 
  118000    1.2161285   -7.2242785    42.538626  0.030041403  0.033465068            1 
  119000    1.1844052   -7.1878309    43.149609  0.030216813  0.033442376            1 
  120000     1.193626   -7.2439276    43.332731  0.030092174  0.033422835            2 
  121000     1.182422   -7.1910838    43.847665  0.030198116  0.033401927            2 
  122000     1.206276   -7.2461619     44.32549  0.030276974  0.033384398            1 
  123000    1.1971774   -7.1881529    44.670811  0.030264777  0.033368852            1 
  124000     1.179237   -7.1843704    44.959365  0.030214627  0.033349177            2 
  125000    1.1936188   -7.2396606    45.330847  0.030220564  0.033326793            1 
  126000    1.2415187   -7.2319017    45.568017  0.030137577  0.033305287            4 
  127000    1.2221685   -7.2165236     45.94504  0.030147664  0.033281585            1 
  128000    1.1881956   -7.2217352    46.287695  0.030135218  0.033257845            2 
  129000    1.2015659   -7.2170826    46.706699  0.030172286  0.033233464            2 
  130000    1.1953643   -7.2175924    46.988627  0.030120915  0.033207421            3 
  131000    1.2190182   -7.2361945    47.345268  0.030117855   0.03318147            3 
  132000    1.1984852   -7.2207591     48.00975  0.030309186  0.033158131            1 
  133000    1.2127588   -7.2200647    48.338909  0.030287537  0.033140123            2 
  134000    1.2183565   -7.2600213    48.419786  0.030111807  0.033116905       -1e+20 
  135000    1.1958596   -7.2304223    48.727306  0.030078584  0.033090585            2 
  136000    1.2333901    -7.218755    49.304088  0.030210838  0.033069479            2 
  137000    1.1985408   -7.2068552     49.90965  0.030358668  0.033049657            2 
  138000    1.1993136   -7.2077596    50.125358  0.030268936   0.03303526            1 
  139000    1.1747741   -7.2052301    50.622318  0.030349111  0.033014314            3 
  140000    1.1870698   -7.2423731    50.762272  0.030215638  0.032994106            2 
  141000    1.2150075   -7.2702575     51.17745   0.03024672  0.032972477            2 
  142000    1.1925954   -7.1983403     51.35532  0.030138098  0.032952091            2 
  143000     1.172718   -7.2594293    51.898819  0.030244067  0.032927663            1 
  144000    1.2154778   -7.2402482    52.295198  0.030263424  0.032902479            1 
  145000    1.1860397   -7.2527503    52.492035  0.030167836   0.03287724            2 
  146000    1.2171258    -7.245828    52.560184  0.030000105  0.032852165            1 
  147000    1.1853997   -7.1821209    53.334837  0.030235169  0.032824201            1 
  148000    1.1842665   -7.2721476    53.565503  0.030160756  0.032797411            2 
  149000    1.2000561   -7.2691388    53.692684  0.030029465  0.032772325            3 
  150000    1.2011609   -7.2753158    54.104051  0.030057806  0.032746052            3 
  151000    1.1708316   -7.2330815    54.351405  0.029995256  0.032716693            4 
  152000     1.188242   -7.2529666    54.591942  0.029929793  0.032685294            1 
  153000    1.2131301    -7.243237    54.854934  0.029877415  0.032652146            1 
  154000    1.1861327   -7.2550171      54.9457  0.029732522  0.032615752            2 
  155000    1.1660299   -7.2809575    55.460328  0.029817381  0.032578345            2 
  156000    1.2008835   -7.2696588    55.518585  0.029657364  0.032537718            1 
  157000    1.1661824   -7.2807724     56.10276  0.029778535  0.032501114            1 
  158000    1.1744683   -7.2781448    56.410401  0.029752321  0.032465967            4 
  159000    1.1706185    -7.256296    56.839183  0.029789928  0.032429268            1 
  160000     1.203867   -7.2216639    57.115247  0.029747524  0.032390654            2 
  161000    1.2062123   -7.2453793    57.507231  0.029765648  0.032353092            2 
  162000    1.2146664   -7.2233408    57.864661  0.029765772  0.032319496            2 
  163000    1.1962905   -7.2224241     58.33194  0.029822055  0.032290603            1 
  164000    1.2042412   -7.2282584    58.740734  0.029847934  0.032261576            1 
  165000    1.2197716    -7.261467    58.911782  0.029753425  0.032230167            4 
  166000    1.1791196   -7.2450974    59.372659  0.029805551  0.032200771            1 
  167000    1.1990337   -7.2242053    59.516807  0.029699005  0.032170418            1 
  168000    1.1726633   -7.2767216     59.78034  0.029652946  0.032137224            1 
  169000    1.1999684   -7.2495668    60.143533  0.029656575  0.032104645            2 
  170000    1.1787223   -7.2420061      60.7632  0.029785882  0.032073391            1 
  171000    1.1835222   -7.2876611    60.828923  0.029643725  0.032042625            1 
  172000    1.2009758   -7.2835343    61.282899  0.029691327  0.032011337            3 
  173000    1.2042325   -7.2550312    61.714602   0.02972765  0.031983173            1 
  174000    1.1901633   -7.2755305    62.105111  0.029743827  0.031956076            2 
  175000    1.1813776   -7.2296607    62.328862   0.02968041  0.031931733            1 
  176000    1.1742954   -7.2625843    62.737209  0.029705118   0.03190641            2 
  177000    1.1801315   -7.2417279    63.083919  0.029700527  0.031879398            3 
  178000    1.1656317   -7.2865567    63.283837  0.029627265  0.031853164            2 
  179000    1.1936621   -7.2768048    63.600423  0.029609135   0.03182574            1 
  180000    1.1872787   -7.2611278    64.059196  0.029657035  0.031798252            1 
  181000    1.1603644   -7.3098791    64.258461  0.029584927  0.031769593            2 
  182000     1.164189   -7.2949288    64.679887  0.029615333  0.031741594            2 
  183000    1.1548066   -7.2717738    65.176095   0.02967946  0.031713789            2 
  184000    1.1969947   -7.3344637    65.130982  0.029497727  0.031686562            1 
  185000    1.1832642   -7.2728728    65.667462  0.029579938  0.031658072            1 
  186000    1.1685573   -7.2370939    66.025788  0.029581446  0.031630094            3 
  187000    1.1758395   -7.2849498    66.266777  0.029530649  0.031599687            4 
  188000    1.1718093   -7.2390905    66.578356  0.029511682  0.031570975            3 
  189000    1.1861108   -7.2973065    66.859575   0.02947953  0.031541681            1 
  190000    1.1747673   -7.2905858    67.177248  0.029463705  0.031513851            1 
  191000    1.1877162   -7.2967135    67.429777  0.029419624  0.031484638            2 
  192000    1.1794277   -7.2721222    67.817953  0.029434876  0.031453062            2 
  193000    1.1728304   -7.2779459    68.000167  0.029361039  0.031423211            1 
  194000    1.1749543   -7.2285224    68.445078  0.029400806  0.031395808            3 
  195000    1.1701863   -7.2579608    68.811642  0.029406685  0.031369224            1 
  196000    1.1787436   -7.3372906    69.215746  0.029428464  0.031341571            1 
  197000     1.176894   -7.2979167     69.49693  0.029398024  0.031314688            3 
  198000    1.1788206   -7.3027071     69.98872  0.029456532  0.031289958            1 
  199000    1.1954066   -7.2530908    70.220289  0.029405481   0.03126455            2 
  200000    1.1624148   -7.2731137    70.631585  0.029429827  0.031238727            2 
  201000     1.176596   -7.2744688    70.796249  0.029351678  0.031211458            1 
  202000    1.1564943   -7.3181411    70.969014  0.029277646  0.031184537            1 
  203000    1.1581399   -7.2939126     71.58788  0.029387471  0.031159567            1 
  204000    1.2005213    -7.327274    71.828445  0.029341685  0.031133359            1 
  205000    1.1657027   -7.2488065    72.339109  0.029406142  0.031107975            1 
  206000    1.1645817   -7.3132866    72.362763  0.029272962  0.031082545            2 
  207000    1.1798564   -7.2589131    72.938498  0.029363324  0.031056749            1 
  208000    1.1843655   -7.3100156    73.053958  0.029268413  0.031032449            2 
  209000     1.200597   -7.2266976    73.467922   0.02929343  0.031007599            1 
  210000    1.1577652    -7.296453    73.936909  0.029340043  0.030982944            2 
  211000    1.1659859   -7.3346202    74.131023  0.029277655  0.030960927            2 
  212000    1.1531864   -7.3049594    74.600092  0.029323935  0.030938197            3 
  213000    1.1833598   -7.2475983    75.253897  0.029442057  0.030917776            1 
  214000    1.1677342   -7.3098499    75.312116  0.029327148  0.030898973            1 
  215000    1.1489324   -7.3278577    75.472409  0.029252872  0.030877122            1 
  216000    1.1881959   -7.2897397    75.943225  0.029299084  0.030854169            2 
  217000    1.1856338   -7.3407673    76.071295  0.029213247  0.030832992            2 
  218000    1.1555729   -7.3175704     76.89593  0.029394469    0.0308117            1 
  219000     1.189347   -7.3120059    76.902867  0.029262887  0.030791069            1 
  220000    1.1714127   -7.3363563    77.378128  0.029309897   0.03077057            1 
  221000    1.1834776   -7.2758216    77.616627  0.029267205  0.030749723            3 
  222000    1.1857083    -7.329174    78.050588  0.029298269  0.030728884            2 
  223000    1.1607064   -7.2929203    78.450457  0.029316314  0.030709307            1 
  224000    1.1470055   -7.3189722    78.589067  0.029237004  0.030690835            3 
  225000    1.1779833   -7.3042671    79.076675  0.029287657  0.030672778            1 
  226000    1.1340435   -7.3328981    79.280894  0.029233368  0.030654397            1 
  227000    1.2034239   -7.3267326    79.509439  0.029188487  0.030634857            3 
  228000      1.17127   -7.3331797    79.655878  0.029113991  0.030614553            1 
  229000    1.1688404   -7.2903126    80.234144  0.029197287  0.030594581            1 
  230000      1.13167   -7.3018682    80.835067  0.029288068  0.030574222            1 
  231000    1.1511986   -7.3092998    80.684562  0.029106985  0.030554396            2 
  232000    1.1663351   -7.3510681    81.047713  0.029111966  0.030533499            2 
  233000    1.1660133   -7.3094882    81.829312  0.029266564   0.03051413            3 
  234000    1.1608363   -7.2981212    81.958447  0.029187481  0.030494551            1 
  235000    1.1492072   -7.2594693    82.597912  0.029290039  0.030477535            1 
  236000    1.1576934   -7.3283519    82.434771  0.029108323   0.03045963            1 
  237000    1.1574307   -7.3107702    82.920322  0.029156231  0.030440055            2 
  238000    1.1495575   -7.2993601    83.004002  0.029063026  0.030419014            1 
  239000    1.1694107   -7.3044611    83.211635   0.02901382  0.030398083            3 
  240000    1.1331062   -7.3363978    83.728683  0.029072459  0.030377433            2 
  241000    1.1709378   -7.2965583    83.940807  0.029025175  0.030356688            1 
  242000    1.1431615   -7.3066185    84.237771  0.029007497  0.030335753            3 
  243000    1.1496861   -7.3530702    84.426778  0.028952941   0.03031458            1 
  244000    1.1498131    -7.319453    84.649284  0.028910275   0.03029151            1 
  245000     1.149175   -7.3769933    84.732299   0.02882051  0.030268682            1 
  246000     1.159896   -7.3378252    85.004328  0.028795504  0.030246002            1 
  247000    1.1574227   -7.3707865    85.302849  0.028779639  0.030223248            2 
  248000    1.1624822   -7.3303797    85.787698  0.028826511  0.030199821            2 
  249000     1.128816   -7.3511607    86.164616  0.028836886  0.030175746            2 
  250000    1.1288136   -7.3627995    86.075777  0.028691926  0.030150932            2 
  251000     1.136361    -7.389615      86.2918  0.028649336  0.030125018            2 
  252000     1.146502   -7.3558696    86.808371  0.028706472  0.030099929            3 
  253000    1.1700906   -7.3441566    87.119687  0.028695549  0.030076105            1 
  254000    1.1467168   -7.3379451    87.615052  0.028745096  0.030053296            2 
  255000    1.1547888   -7.3073732    87.950306   0.02874193  0.030030792            1 
  256000    1.1726395   -7.3253422    88.232205  0.028721421  0.030009235            2 
  257000    1.1302672   -7.3059918    89.038917  0.028871244  0.029988216            2 
  258000    1.1272276   -7.3243717    88.973084  0.028738076  0.029967358            3 
  259000    1.1288158   -7.3479487    89.321163  0.028739113  0.029945881            2 
  260000    1.1281166   -7.3853581    89.154006  0.028575002  0.029923114            4 
  261000    1.1478771   -7.3131857    89.783614  0.028666543    0.0299001            2 
  262000     1.161798   -7.3340295    89.705746  0.028532362  0.029877158            1 
  263000     1.133318   -7.3545332    90.132999  0.028559252  0.029852964            2 
  264000    1.1156546   -7.3508556     90.57908  0.028591881  0.029830502            1 
  265000    1.1391099   -7.3323637    90.725932  0.028530167  0.029808507            1 
  266000    1.1474092   -7.3752677    90.919036  0.028483407  0.029785572            2 
  267000    1.1308381   -7.3502585    91.611879  0.028592971  0.029763684            1 
  268000    1.1322565    -7.414697    91.567468  0.028472471  0.029740993            1 
  269000    1.1439865   -7.3267478    91.931056  0.028479262   0.02971758            3 
  270000     1.168683   -7.3752379    92.049883  0.028410458  0.029695963            2 
  271000    1.1386827   -7.3830973    92.474395  0.028436161  0.029672469            3 
  272000    1.1336553   -7.3675325    92.603379  0.028371133  0.029648495            2 
  273000    1.1510542   -7.3577723    93.245277  0.028463149  0.029626672            2 
  274000      1.14171   -7.3705614    93.508555  0.028439342  0.029605434            1 
  275000    1.1290563   -7.3579945    93.796607  0.028423214  0.029583931            1 
  276000    1.1617836   -7.3655702    93.701423  0.028291492  0.029561715            2 
  277000    1.1304668   -7.3500547    94.077915  0.028302622  0.029538614            1 
  278000     1.127565   -7.3161373    94.822735  0.028424081  0.029516335            2 
  279000    1.1410925   -7.3749531    94.818878  0.028321051  0.029494098            2 
  280000    1.1484135   -7.3914618    94.974897  0.028266338   0.02947172            1 
  281000    1.1367626   -7.3950634    95.537579  0.028332615  0.029449211            2 
  282000    1.1484059   -7.3999672    95.754479  0.028296241  0.029426319            1 
  283000    1.1296198   -7.3516539    96.060398  0.028286336   0.02940401            1 
  284000    1.1699778   -7.3758683    96.443982   0.02829929  0.029382333            2 
  285000    1.1243926   -7.3764338    96.637739  0.028256649  0.029361894            1 
  286000    1.1401848   -7.3556417    97.129504  0.028301138  0.029341823            4 
  287000    1.1511282   -7.3918094    97.307709  0.028254271  0.029321612            2 
  288000    1.1350694   -7.3631457    97.554791  0.028227659  0.029300894            2 
  289000    1.1193777   -7.3704287    97.781008  0.028195216  0.029279012            1 
  290000    1.1370152   -7.3865882    98.104218  0.028190867  0.029256393            1 
  291000    1.1471598   -7.3761512    97.899097  0.028035251  0.029233567            2 
  292000    1.1348593   -7.4037949     98.17137  0.028016943  0.029211056            4 
  293000    1.1416132   -7.3695666    98.860542  0.028117333  0.029188955            1 
  294000    1.1267762   -7.4312287    98.851352  0.028019091  0.029166867            2 
  295000    1.1104005   -7.3707875     99.47668  0.028100757   0.02914422            2 
  296000     1.119933   -7.3988547    99.710089  0.028071534  0.029123039            2 
  297000    1.1256082   -7.3647652    99.646607  0.027959205   0.02910114            1 
  298000    1.1064862   -7.3815049     100.2165  0.028024749  0.029078873            2 
  299000    1.1302677    -7.364768    100.70423  0.028066955   0.02905668            1 
  300000     1.136073    -7.388789    100.91803  0.028032786  0.029035769            3 
  301000    1.1307365   -7.3850603    101.19181  0.028015451  0.029014624       -1e+20 
  302000     1.144096   -7.3945138    101.43543   0.02798991  0.028994593            4 
  303000    1.1374581   -7.3707516    101.78539  0.027993781  0.028973723            1 
  304000    1.1189005    -7.388376    102.11126  0.027991024  0.028953673            1 
  305000    1.1207379   -7.3877391     102.7453  0.028072486  0.028933613            2 
  306000    1.1603803   -7.3993333    102.53173  0.027922583  0.028914421            1 
  307000    1.1549225   -7.3870139    103.25267  0.028027326   0.02889511            2 
  308000    1.1102268   -7.3159632    104.35188  0.028233734  0.028877592            1 
  309000    1.1407443   -7.3656617    103.99415  0.028045886  0.028859941            2 
  310000     1.111766   -7.4031537    104.18053  0.028005518  0.028842533            1 
  311000    1.1465398   -7.3750858    104.86855  0.028099825   0.02882585            1 
  312000    1.1435818   -7.3939088    105.06652  0.028062638  0.028810116            1 
  313000    1.1242498   -7.3873596    104.72229  0.027881335  0.028792383            2 
  314000    1.0951122   -7.3962977    104.95995  0.027855614   0.02877425            2 
  315000    1.1316861   -7.3467033     106.0466  0.028054656  0.028756683            2 
  316000    1.1259409   -7.3533409    105.76034  0.027890386  0.028738907            1 
  317000    1.1450238   -7.4246441    105.99004  0.027862787  0.028720393            3 
  318000    1.1341583   -7.3914953    106.64468  0.027946719  0.028702665            2 
  319000    1.1346147   -7.3585597    106.56229  0.027837589  0.028684895            1 
  320000    1.1307247    -7.404859    106.67588  0.027780178   0.02866627            2 
  321000     1.129616   -7.4141929    106.91508  0.027755731  0.028647055            2 
  322000     1.112027   -7.3937607    106.91568   0.02766969  0.028627868            2 
  323000    1.1500314   -7.3928019    107.57839  0.027755003  0.028608342            5 
  324000     1.129224    -7.362001    108.39068  0.027878262  0.028590493            2 
  325000    1.1250451   -7.3737734    108.36272  0.027785314  0.028573246            2 
  326000    1.1186721   -7.4140129    108.45801  0.027724439   0.02855393            2 
  327000    1.1231997   -7.3527309    109.08295  0.027798918  0.028535807            2 
  328000    1.1023503   -7.4220956    108.90647  0.027669326  0.028517707            1 
  329000    1.1254965   -7.4450574    109.34872  0.027697244  0.028499623            3 
  330000    1.1311787   -7.3862903    110.16109  0.027818458  0.028482402            1 
  331000    1.1120898   -7.3874702      110.546   0.02783132  0.028465422            1 
  332000    1.1022386   -7.3997453    110.33946  0.027695648  0.028448186            2 
  333000    1.1255788   -7.4120899    110.56011  0.027667695  0.028430527            2 
  334000    1.1307197   -7.4009492    110.95342   0.02768299   0.02841271            2 
  335000    1.1188523   -7.4005954     111.1655  0.027653108  0.028395195            1 
  336000    1.1261407   -7.3641492    111.57236  0.027671716  0.028377304            2 
  337000    1.1187495   -7.4235764    111.56388  0.027587507   0.02836001            4 
  338000    1.0882903   -7.4202722    112.21927  0.027667472  0.028342593            1 
  339000    1.1259261   -7.4601121     112.6614  0.027694543  0.028325485            1 
  340000     1.143391   -7.4418121     112.6467  0.027609486  0.028307709            4 
  341000    1.1353493   -7.4589932    112.32814   0.02745067  0.028289227            1 
  342000    1.1413637   -7.4221084    113.18354  0.027578836   0.02827139            2 
  343000    1.0776354    -7.416646    112.93525  0.027438108   0.02825297            2 
  344000    1.1007894   -7.4932285    113.31021   0.02744918  0.028234494            1 
  345000    1.1138608   -7.4073064    114.22447  0.027590451  0.028216769            1 
  346000    1.1222762    -7.443013    114.52044  0.027581994  0.028199983            2 
  347000     1.129756   -7.4285716    114.57991  0.027516789  0.028182928            2 
  348000    1.1125832   -7.4277606     114.8408  0.027500191  0.028166047            1 
  349000     1.110072   -7.3688284    115.35784  0.027544852   0.02814913            1 
  350000    1.1149442   -7.3958851    115.25373  0.027441365  0.028132284            2 
  351000    1.1042634   -7.4392686    115.46064  0.027412309  0.028115158            1 
  352000    1.1265133   -7.4682075     115.4074  0.027321827  0.028096997            4 
  353000    1.0997981   -7.4747775    116.14659  0.027418931  0.028078327            2 
  354000    1.1196176   -7.4490962     116.1509  0.027342491  0.028060698            1 
  355000    1.1316457   -7.4607814    116.40968  0.027326216  0.028043866            2 
  356000    1.1181688   -7.4344093    116.74796  0.027328643  0.028026932            3 
  357000    1.1291036   -7.4234605    117.29633  0.027380096  0.028010585            2 
  358000    1.1268034   -7.4252859    117.86712  0.027436481  0.027994187            2 
  359000    1.1247238   -7.4986973    117.83297  0.027352129   0.02797846            8 
  360000     1.121631   -7.4528865    117.89421  0.027290327   0.02796154            1 
  361000    1.1194126   -7.4581285    118.33242  0.027315886   0.02794469            2 
  362000    1.0776688   -7.4705719    118.50834  0.027280924  0.027927108            2 
  363000    1.1014099   -7.4912968    118.26898  0.027150821  0.027909037            2 
  364000    1.0958327   -7.4873523    118.73173  0.027182173  0.027891191            2 
  365000    1.1068994   -7.4683867    119.38843  0.027257632  0.027874204            2 
  366000    1.0951343   -7.4711957    119.53557  0.027216659  0.027856597            2 
  367000    1.1265586   -7.4155623    120.07197  0.027264298  0.027839868            3 
  368000    1.0965299   -7.4452994     119.9479  0.027162116  0.027823271            1 
  369000    1.1065496   -7.4725552    120.11668  0.027126622   0.02780521            1 
  370000    1.1444107   -7.4522182    120.57255   0.02715598  0.027787429            1 
  371000    1.0971101   -7.4483391      120.916  0.027159929  0.027769701            3 
  372000     1.108871    -7.433727    120.64114  0.027025345  0.027751643            1 
  373000    1.1245675   -7.4473954    121.14901  0.027066356  0.027733163            2 
  374000    1.1170931   -7.4724948    120.97582  0.026955397  0.027714753            2 
  375000    1.1072224   -7.4261567    121.92239  0.027093864  0.027696103            2 
  376000    1.0903983   -7.4764011    121.87284  0.027010824   0.02767805            4 
  377000    1.1093704   -7.3984366    122.92887  0.027172607  0.027661073            1 
  378000    1.1230831   -7.4272154     122.8358  0.027080203  0.027643863            2 
  379000     1.104218   -7.4313284    123.10901  0.027068824  0.027626756            1 
  380000    1.0975453     -7.44583    123.36827  0.027054445  0.027609447            2 
  381000    1.1114645   -7.4572924    123.85084  0.027088985  0.027592464            1 
  382000    1.1109701    -7.494409    123.73846  0.026993556  0.027574929            2 
  383000    1.0902358   -7.4953321    123.61551  0.026896324  0.027558224            2 
  384000    1.1043692   -7.4294907    124.62988  0.027046415  0.027541565            2 
  385000    1.0752857   -7.4942601    124.80439  0.027013936  0.027525636            1 
  386000    1.0940044   -7.4747424    124.92871  0.026970792  0.027509743            1 
  387000    1.1164152   -7.4692966    125.50796  0.027025831  0.027493704            2 
  388000    1.1129209   -7.4587425    125.73756  0.027005489  0.027478216            3 
  389000    1.1096834   -7.4840074    125.80879  0.026951326    0.0274628            2 
  390000    1.1082018   -7.4262048    126.03467  0.026930484  0.027447641            2 
  391000      1.08938   -7.4470808    126.35214   0.02692927  0.027432417            1 
  392000    1.0879057   -7.4541606    126.72801  0.026940479  0.027416965            2 
  393000    1.0972118   -7.5188567    126.60382  0.026845593  0.027401076            2 
  394000     1.109965    -7.474461    127.15793  0.026894656  0.027384524            2 
  395000    1.0822106   -7.4832577    126.90294  0.026772772  0.027368106            2 
  396000    1.1216384   -7.4557331     127.2093  0.026769633  0.027350984            2 
  397000    1.0885178   -7.5046604    127.26435  0.026713759  0.027333783            2 
  398000    1.0952341   -7.4622138    127.97636  0.026795721   0.02731687            1 
  399000    1.1044352   -7.4555922    127.89085  0.026710703   0.02730036            5 
  400000    1.1035777   -7.5128285    128.42483  0.026755173  0.027283527            1 
  401000    1.0898311   -7.5157955    128.07619     0.026616  0.027266509            4 
  402000    1.0766147   -7.4617613    128.82344  0.026704693  0.027249539            4 
  403000    1.1019792   -7.4651801    128.75193  0.026623641  0.027232509            3 
  404000    1.0719413   -7.4948367    129.06843  0.026623026  0.027215032            2 
  405000    1.0926368   -7.4904066    129.36045  0.026617376  0.027197375            2 
  406000    1.0869522    -7.461054    129.60754  0.026602533  0.027180059            1 
  407000    1.0643231   -7.4981884    129.88748  0.026594487   0.02716272            3 
  408000    1.0837146   -7.5173731    129.56394  0.026463222  0.027145312            2 
  409000    1.0912569   -7.4948788    130.28006  0.026544429  0.027127105            2 
  410000    1.0846261   -7.4898691    130.70672  0.026566407  0.027109696            2 
  411000    1.1098529   -7.5185845    130.60014  0.026480158  0.027092097            2 
  412000    1.1021483   -7.4947416    130.73909  0.026443991  0.027074064            3 
  413000    1.0869551   -7.4364802    131.28541  0.026490196  0.027056712            1 
  414000    1.0918136   -7.4838901    131.27738  0.026424593  0.027038965            2 
  415000     1.071951   -7.4914842    131.85773  0.026477455  0.027021162            5 
  416000    1.0740107   -7.4896234    131.62323  0.026366832  0.027003176            1 
  417000    1.0953507   -7.4932722    131.82199  0.026343322  0.026984789            2 
  418000    1.0834642   -7.5111662    132.54208   0.02642386  0.026966356            2 
  419000    1.0965084   -7.4864425    132.39841  0.026332221  0.026947943            3 
  420000     1.101112   -7.5256385    132.65189  0.026319818  0.026930031            2 
  421000    1.0729163   -7.5133724    132.77592  0.026281853    0.0269114            2 
  422000    1.0895982   -7.4643175    133.19559  0.026302447   0.02689294            1 
  423000    1.0690755   -7.5020789    133.55713  0.026311491  0.026874852            2 
  424000    1.0651965   -7.4826913    133.44733  0.026227855  0.026856211            2 
  425000    1.0885633   -7.5078546     133.5226  0.026180901  0.026837275            2 
  426000    1.0793875   -7.5042373      134.292  0.026269952  0.026818798            1 
  427000    1.0776393   -7.5174226    134.51515  0.026251981  0.026800857            1 
  428000    1.0821462   -7.5055157    134.86311  0.026258394  0.026783126            1 
  429000    1.0739796   -7.5515302    135.02409  0.026228455  0.026765612            2 
  430000    1.0787193   -7.5132211    134.87349  0.026138272  0.026748137            3 
  431000     1.104862    -7.513701    135.72797  0.026242841  0.026730458            1 
  432000     1.085245   -7.5231751    135.36801  0.026112657  0.026712581            2 
  433000    1.0803476   -7.4832709    135.82046  0.026139426  0.026694909            2 
  434000     1.076333   -7.5332611     135.9993  0.026113536  0.026677617            2 
  435000    1.0782036   -7.4732487    137.05113  0.026255007  0.026660405            4 
  436000    1.0889544   -7.5355488    136.63295   0.02611486  0.026643144            2 
  437000    1.0753911   -7.4945521    137.84222  0.026285702  0.026626501            2 
  438000    1.0799839   -7.4935278    137.59577    0.0261788  0.026609482            3 
  439000    1.0718554   -7.5420638    137.71567  0.026141927  0.026592193            2 
  440000     1.087046   -7.5189905    137.95495  0.026127831  0.026574769            2 
  441000     1.088146    -7.489261    138.02568  0.026081949  0.026557666            2 
  442000    1.1107329    -7.518737     138.1734  0.026050791  0.026540467            1 
  443000    1.0562633   -7.5399657    138.48937  0.026051424  0.026523851            2 
  444000    1.0580061   -7.5275152    138.47789  0.025990594  0.026506762            3 
  445000    1.0595055   -7.5808188    138.76403  0.025985774  0.026489595            2 
  446000    1.0539124   -7.5147228    139.20663  0.026010206   0.02647247            2 
  447000    1.0482457   -7.5273002    139.24801  0.025959734  0.026455019            2 
  448000    1.0740841   -7.5081293    139.75925  0.025996884   0.02643764            2 
  449000    1.0822665   -7.5140958    139.38763  0.025870014   0.02641986            2 
  450000      1.10353    -7.533425    139.26762    0.0257903  0.026402412            3 
  451000    1.0844448   -7.5477707    139.77148  0.025826216  0.026384418            2 
  452000    1.0911638   -7.5596504     139.9809  0.025807687  0.026366465            1 
  453000    1.0640264   -7.5366023    140.45916  0.025838698  0.026348338            1 
  454000    1.1032467   -7.5436192    140.37342  0.025766047  0.026330315            1 
  455000    1.0860421   -7.5596928     140.3258  0.025700695  0.026311621            1 
  456000    1.0579287   -7.5411923    140.95712  0.025759708   0.02629295            2 
  457000    1.0549844   -7.5509853    141.12318  0.025733621  0.026275149            4 
  458000     1.080101   -7.5034374    141.61736  0.025767351  0.026256914            2 
  459000    1.0502614   -7.5388354    142.05573    0.0257908  0.026239512            2 
  460000    1.0816171   -7.5035205    142.11307  0.025745122  0.026222265            2 
  461000    1.0856733   -7.5451444    142.70408  0.025796111  0.026205452            2 
  462000     1.057258   -7.5272203     143.0425  0.025801316  0.026188854            1 
  463000    1.0751271   -7.5156111    143.06725  0.025750045  0.026172388            3 
  464000    1.0506618   -7.5426038      143.452  0.025763649  0.026155922            2 
  465000    1.0533563   -7.5439019    143.25103  0.025672228  0.026138716            2 
  466000    1.0548279   -7.5318225    143.82664  0.025720071  0.026121289            2 
  467000    1.0810374   -7.5561096    143.42129  0.025592664  0.026103681            3 
  468000    1.0635654   -7.5618897    143.46334  0.025545467  0.026086376            2 
  469000    1.0487393    -7.557566    144.34044  0.025646845  0.026068997            2 
  470000    1.0973963   -7.5756729    143.98774  0.025529741  0.026051161            1 
  471000    1.0571368   -7.5831863    144.36437  0.025542174  0.026033624            4 
  472000    1.0663805   -7.5501568    143.95509  0.025415799  0.026015448            2 
  473000    1.0492207   -7.5378142    144.71366  0.025495711  0.025997403            2 
  474000    1.0733575   -7.5969019    144.70617  0.025440606  0.025979232            2 
  475000     1.076389   -7.5435088    145.31975  0.025494692  0.025961245            1 
  476000    1.0703246    -7.565233    145.00948  0.025386813  0.025943442            3 
  477000     1.049549   -7.5858742    145.98197  0.025503489  0.025925153            2 
  478000    1.0735897   -7.5549634     145.9015  0.025436105   0.02590748            1 
  479000    1.0706368   -7.5661072    145.68513  0.025345361  0.025889867            5 
  480000    1.0760247   -7.5709339    146.59546    0.0254506  0.025872417            3 
  481000    1.0813052   -7.5717218    146.14128  0.025319002  0.025854386            3 
  482000    1.0393598   -7.5493523    146.47049   0.02532339  0.025836143            1 
  483000    1.0565333   -7.5900653    146.70388  0.025311228  0.025817929            3 
  484000    1.0638312    -7.556536    146.67459   0.02525389  0.025799608            1 
  485000    1.0730529   -7.5499583     147.2129  0.025294313  0.025781685            2 
  486000    1.0926068   -7.5571891    147.21009  0.025241785  0.025764114            1 
  487000    1.0663366    -7.571948    147.58016  0.025253278  0.025746323            1 
  488000    1.0551598   -7.5389262    148.54852  0.025366891  0.025728466            4 
  489000     1.069991   -7.5874787    147.94687  0.025212486  0.025710431            2 
  490000    1.0908152   -7.5646849    148.66751   0.02528359  0.025692493            2 
  491000    1.0707661   -7.5430475    148.66226  0.025231205  0.025674639            1 
  492000    1.0569309   -7.5436301    148.84315  0.025210561   0.02565679            2 
  493000    1.0571503   -7.5805476    148.97608  0.025181894  0.025639158            3 
  494000    1.0518314   -7.6020881    148.56077  0.025060859  0.025621038            2 
  495000    1.0207247    -7.567829    149.20407   0.02511853  0.025602703            1 
  496000    1.0519967   -7.5321556    149.81649  0.025170781  0.025584735            1 
  497000     1.061546   -7.5671473    149.96189  0.025144515   0.02556655            3 
  498000     1.049284   -7.6001868    149.53043  0.025021825  0.025548281            3 
  499000    1.0627361   -7.5615603    150.35047  0.025108629  0.025530097            1 
  500000    1.0591192   -7.5623221    150.46092   0.02507682  0.025512019            2 
  501000    1.0565657   -7.6112338    150.33115  0.025005182  0.025493948            2 
  502000    1.0354416    -7.567216    150.22398   0.02493758  0.025475346            2 
  503000    1.0587819   -7.5266151    150.95733  0.025009498  0.025457321            1 
  504000    1.0284487   -7.5576801    150.91615  0.024953066  0.025439274            2 
  505000    1.0389978   -7.6068838    150.96391  0.024911536   0.02542071            3 
  506000    1.0720657    -7.583443    151.43251  0.024939477  0.025402344            1 
  507000    1.0539127   -7.6128027    150.83358  0.024791845  0.025383517            1 
  508000    1.0286265   -7.6063114    151.19183  0.024801809  0.025364537            3 
  509000    1.0191852   -7.5946367    151.85663  0.024861924  0.025345575            2 
  510000     1.043597    -7.588605    151.89442  0.024819349  0.025326884            2 
  511000    1.0459362   -7.5942796    152.22854  0.024825267  0.025308022            1 
  512000    1.0505238   -7.5842024    152.42609  0.024808934   0.02528924            2 
  513000    1.0514478   -7.6164689    152.50185  0.024772881  0.025270884            4 
  514000    1.0545209   -7.5926655    153.33268  0.024859384  0.025253159            2 
  515000    1.0387814   -7.6030292    152.96874  0.024752223  0.025235068            2 
  516000     1.056688   -7.6023203      153.224  0.024745479  0.025216755            2 
  517000    1.0269117   -7.5750969    153.50132  0.024742314  0.025198491            2 
  518000    1.0675051   -7.5823383    153.73953  0.024732871  0.025180518            2 
  519000     1.023967   -7.6191251    153.95738  0.024720195  0.025162311            2 
  520000    1.0623273   -7.6228774    153.96117  0.024673265  0.025144034            1 
  521000    1.0713455    -7.558232     154.4664  0.024706717  0.025125864            1 
  522000    1.0256799   -7.5862713    154.22895  0.024621481  0.025107881            2 
  523000    1.0465562   -7.6102225    154.84407  0.024672414  0.025089676            2 
  524000    1.0599174   -7.6006565    154.56358  0.024580723  0.025071262            3 
  525000    1.0522663   -7.6500286    154.77539  0.024567523  0.025052665            3 
  526000    1.0587308   -7.5873585    155.19243  0.024586887  0.025034219            2 
  527000    1.0472456   -7.6014931    155.33751  0.024563174  0.025016119            2 
  528000    1.0637806   -7.6258971    155.27222  0.024506347  0.024997651            1 
  529000    1.0392978     -7.57091    156.02105  0.024577985  0.024979352            2 
  530000    1.0427484   -7.5727099    155.66237  0.024475215   0.02496064            2 
  531000    1.0275301   -7.5864822    156.08732  0.024495813  0.024942206            2 
  532000    1.0374218   -7.6294647    155.98686  0.024434033  0.024923657            3 
  533000    1.0540208   -7.5882724    156.51977  0.024471509  0.024904994            2 
  534000     1.038302    -7.582497    156.86928  0.024480225  0.024886758            1 
  535000    1.0654117   -7.6066841    156.87817  0.024435852  0.024868383            3 
  536000    1.0420443   -7.5845094    157.13283  0.024429856  0.024850163            4 
  537000    1.0315003   -7.6206655    157.31231  0.024412214  0.024832162            3 
  538000    1.0248116   -7.6270572     157.7277   0.02443118  0.024814304            6 
  539000    1.0280052   -7.5982533    157.88838  0.024410696  0.024796323            1 
  540000    1.0458351   -7.6269515    157.99018  0.024381201   0.02477809            3 
  541000    1.0706466   -7.6415821    157.54461  0.024267499  0.024760134            2 
  542000    1.0503447   -7.6353483    157.85985  0.024271194  0.024741584            3 
  543000    1.0539277   -7.6066799    158.37845  0.024306085  0.024722761            1 
  544000    1.0351088    -7.600258     158.6293  0.024299832  0.024704604            1 
  545000    1.0374991   -7.6143242    158.47738  0.024232015  0.024685988            3 
  546000    1.0382307   -7.6195217    159.30719  0.024314284  0.024667429            1 
  547000    1.0114809   -7.5869973    159.27984  0.024265667   0.02464914            7 
  548000    1.0347491   -7.6357004    159.08366  0.024191553  0.024630985            2 
  549000    1.0261581    -7.641803     159.2024  0.024165513  0.024612706            2 
  550000      1.02123   -7.6175671    159.72327  0.024200495  0.024594617            3 
  551000    1.0439004   -7.6258385    159.50067  0.024122908  0.024576718            2 
  552000    1.0361959   -7.6264733    160.44963  0.024222469  0.024559255            2 
  553000     1.015325   -7.5760579    161.18014  0.024288749  0.024541926            5 
  554000    1.0635303   -7.6395489    160.46423  0.024137218  0.024524803            2 
  555000     1.032657   -7.6588439    160.52639  0.024103062  0.024507289            1 
  556000    1.0250138    -7.648694     160.7862  0.024098651  0.024489782            4 
  557000    1.0210317   -7.6640388    161.31608  0.024134662  0.024472302            4 
  558000    1.0102851   -7.6538605    161.31365  0.024091047   0.02445463            2 
  559000    1.0278813   -7.6176912    162.07622  0.024161632  0.024437472            2 
  560000     1.043179   -7.6426745    162.33942  0.024157651  0.024420536            1 
  561000     1.035378   -7.6509258    161.93005   0.02405378  0.024403467            1 
  562000    1.0190354   -7.6446989    162.41895  0.024083474  0.024386293            2 
  563000     1.027035   -7.6687967    162.70076  0.024082409  0.024369267            4 
  564000    1.0223326   -7.6934464    163.06667  0.024093775  0.024352326            2 
  565000    1.0155946   -7.6558803    162.94099  0.024032595  0.024335384            4 
  566000     1.045346   -7.6451591    162.77409  0.023965561  0.024318558            2 
  567000    1.0279738   -7.6343978    163.87453  0.024085027  0.024301762            3 
  568000    1.0341815   -7.6457772    163.63698  0.024007773  0.024285305            2 
  569000    1.0184262   -7.6625559    164.28875  0.024061036   0.02426896            2 
  570000    1.0244272   -7.5927474    164.56832  0.024059696  0.024253081            3 
  571000    1.0393836   -7.6326462    164.55512  0.024015634  0.024237209            1 
  572000   0.99802059    -7.676085     164.1906  0.023920542  0.024220799            5 
  573000     1.028595   -7.6075746     165.3479  0.024047106  0.024204458            2 
  574000    1.0346453   -7.6183942    165.73521  0.024061442  0.024188457            3 
  575000    1.0014779   -7.6284619    165.60294  0.024000427  0.024172568            2 
  576000    1.0481795   -7.6667753    165.35826   0.02392336  0.024156433            3 
  577000    1.0317106   -7.6269469    166.03442  0.023979552  0.024140428            2 
  578000    1.0178603   -7.6538196    165.89461  0.023917908  0.024124298            4 
  579000    1.0341772    -7.662972     166.0124  0.023893552  0.024108118            3 
  580000    1.0387943   -7.6690109    166.62975  0.023941056  0.024092096            1 
  581000    1.0158563   -7.6581261    166.22913  0.023842389  0.024075797            1 
  582000    1.0137029   -7.6855564    166.72533  0.023872469  0.024059818            2 
  583000    1.0377005   -7.6455798    167.42113  0.023930979  0.024043509            2 
  584000    1.0295624   -7.6598385    166.90353  0.023816143  0.024027058            2 
  585000     1.017913   -7.6574077    167.09097  0.023802132  0.024010645            2 
  586000    1.0212361   -7.6564875    166.97927   0.02374563  0.023994473            4 
  587000    1.0241674   -7.6355572    167.45059  0.023772089  0.023977994            3 
  588000    1.0288294   -7.6458779    167.47361  0.023734921   0.02396162            2 
  589000    1.0010727    -7.690927    167.34839  0.023676908  0.023945052            1 
  590000    1.0096723   -7.6953633    167.88837  0.023713046  0.023928113            6 
  591000    1.0391442   -7.6649313    167.95728   0.02368264   0.02391101            2 
  592000    1.0138464   -7.7106409    167.56271  0.023587094  0.023893911            3 
  593000     1.015425   -7.6796635    167.61794  0.023555079  0.023876541            3 
  594000    1.0171802   -7.6590571     167.8471  0.023547573   0.02385921            3 
  595000    1.0110551   -7.6687993    168.12521  0.023546948  0.023842004            1 
  596000       1.0254   -7.7078354    168.24845  0.023524671  0.023824605            1 
  597000    1.0325211   -7.6588421     168.0576  0.023458626  0.023807132            2 
  598000    1.0135306   -7.6835311    168.85022  0.023529853  0.023789608            1 
  599000    1.0320942     -7.68295    167.82287  0.023347645  0.023772107            1 
  600000    1.0075712   -7.6839281    168.92506  0.023461813  0.023754747            3 
  601000    1.0225218   -7.6583654    169.06341  0.023441959  0.023737638            4 
  602000     1.029207   -7.6904414    169.28669  0.023433927   0.02372068            1 
  603000    1.0098604   -7.6938619    169.62086  0.023441247  0.023703696            1 
  604000    1.0117272    -7.699462    169.41758  0.023374391  0.023686725            3 
  605000    1.0133288   -7.6454628    170.28972  0.023455885  0.023669663            2 
  606000    1.0042741   -7.6866111    170.35995  0.023426836  0.023652826            1 
  607000    1.0010387   -7.6767039    170.23074  0.023370502  0.023635724            2 
  608000    1.0224208   -7.7038261    169.96995   0.02329632  0.023618821            6 
  609000    1.0075554   -7.6719444    171.52784  0.023471242  0.023602207            3 
  610000    1.0227624   -7.6753498     171.7329  0.023460778  0.023585853            1 
  611000    1.0223352   -7.6961233    171.17123  0.023345776  0.023569452            3 
  612000    1.0094012   -7.6949022    171.53435  0.023357073  0.023552915            1 
  613000    1.0080303   -7.6723199    171.61513  0.023329953  0.023536434            2 
  614000    1.0072378   -7.7182246    171.75089  0.023310382   0.02351987            1 
  615000    1.0068317    -7.666544    172.16202  0.023328186   0.02350306            3 
  616000    1.0076887   -7.6622986    172.05529  0.023275878  0.023486498            2 
  617000   0.98318788   -7.7081947    172.01592  0.023232837  0.023469973            2 
  618000    1.0080773   -7.7228222     172.4549  0.023254436  0.023453302            1 
  619000   0.99957822   -7.6773819     172.2691  0.023191855  0.023436872            2 
  620000    1.0142652   -7.6799646    173.00675  0.023253596  0.023420594            3 
  621000    1.0014875   -7.6935537    173.24381  0.023247961  0.023404257            2 
  622000    1.0207085   -7.6768285    173.48284   0.02324261   0.02338804            3 
  623000   0.99997758     -7.70539    173.38585  0.023192329    0.0233721            2 
  624000      1.00044   -7.7037366    173.73439  0.023201708  0.023356066            2 
  625000    1.0071934   -7.7071206    173.60939  0.023147919  0.023340092            3 
  626000   0.98133736   -7.7061088    173.88556  0.023147704  0.023323882            1 
  627000    1.0061349    -7.684356    174.42138  0.023182001  0.023307432            4 
  628000    1.0119301    -7.712365    174.26763  0.023124686  0.023291021            2 
  629000    1.0016411   -7.7217028    174.32772  0.023095882  0.023274455            4 
  630000   0.99688351   -7.7843098    174.38427  0.023066702  0.023258357            2 
  631000    1.0090186    -7.716795    174.78162  0.023082623  0.023242385            2 
  632000    1.0069426   -7.7592965    174.49935   0.02300888  0.023226357            1 
  633000   0.99731768   -7.7293157     175.4063   0.02309193  0.023210297            5 
  634000    1.0026311   -7.7343215    175.23792  0.023033376  0.023194222            3 
  635000    1.0146777   -7.6923636    175.91167   0.02308552  0.023178193            1 
  636000    1.0021995   -7.7131421    175.95003  0.023054249  0.023162497            3 
  637000    1.0015193   -7.7248774    175.88926  0.023010108  0.023146628            3 
  638000    1.0084734   -7.7281973    176.31457  0.023029593  0.023130803            3 
  639000   0.99179097   -7.7658671    176.14905  0.022971968  0.023114883            2 
  640000    1.0015064   -7.7426926    176.09735  0.022929343  0.023098922            2 
  641000   0.98348385   -7.7256199    176.49263   0.02294496  0.023082916            1 
  642000    1.0068084   -7.7422617    176.89373  0.022961284  0.023066911            1 
  643000   0.99771966   -7.7530815    176.75411  0.022907479  0.023050814            2 
  644000    1.0082698   -7.7141964    176.23821  0.022805152  0.023034964            2 
  645000    1.0012359   -7.7705149    177.14921  0.022887494  0.023019017            3 
  646000    1.0103425   -7.7536433    176.98912  0.022831414  0.023003084            4 
  647000     1.010238   -7.7385814    177.48754  0.022860322  0.022987339            2 
  648000   0.96943361   -7.7759691    177.33264  0.022805124  0.022971671            1 
  649000   0.97269741   -7.7588751    177.92521  0.022846072  0.022955854            2 
  650000   0.99003853   -7.7172019     177.9032  0.022808102  0.022940044            2 
  651000   0.99147283   -7.7327323    177.99823  0.022785231  0.022924278            1 
  652000   0.99924268    -7.746184    178.00435  0.022751067  0.022908457            2 
  653000    1.0026307   -7.7200599    178.51086  0.022780865  0.022892704            2 
  654000    1.0001699   -7.7349855    179.17954  0.022831236  0.022877038            3 
  655000     1.001132    -7.688928    179.09286  0.022785351  0.022861546            2 
  656000     1.009677   -7.7046692    179.55429  0.022809234  0.022846246            5 
  657000    1.0010659   -7.7647568    179.28248  0.022740041  0.022830697            2 
  658000   0.97846288   -7.7554903    178.97682  0.022666771  0.022815027            3 
  659000   0.99026456    -7.744247     179.3677  0.022681803   0.02279915            2 
  660000   0.99329735   -7.7532813    180.16626  0.022748266  0.022783529            2 
  661000    1.0033089   -7.7252796    179.68757  0.022653501  0.022767819            1 
  662000   0.99605506   -7.7601934    180.03719  0.022663291  0.022752095            4 
  663000     1.004426   -7.7406078    179.71661  0.022588814  0.022736406            1 
  664000     0.991725   -7.7531111    180.02889  0.022593987  0.022720522            4 
  665000    1.0058722   -7.7630485    179.91494  0.022545732   0.02270446            2 
  666000    0.9939563   -7.7652554    180.51548  0.022587022  0.022688573            1 
  667000    0.9908536    -7.776158    180.03876  0.022493599  0.022672628            6 
  668000    1.0032562   -7.7908999    180.21949  0.022482471  0.022656751            3 
  669000   0.97857311   -7.7274359     181.2012  0.022571151  0.022640887            2 
  670000   0.98368371   -7.8000796    180.12962  0.022404182  0.022625201            4 
  671000   0.97529241   -7.7873382    181.01252  0.022480442  0.022609333            3 
  672000   0.98577577   -7.7589086     181.0144  0.022447222  0.022593398            1 
  673000    0.9769919   -7.7727892    181.24469  0.022442384  0.022577295            1 
  674000   0.99161443   -7.7868145    181.33903   0.02242075  0.022561116            3 
  675000   0.99338996   -7.7457006    181.69258  0.022431183  0.022544865            1 
  676000   0.99527823   -7.7317398    181.67333  0.022395627  0.022528798            3 
  677000    0.9695354   -7.7827107    182.22321  0.022430233  0.022512668            1 
  678000   0.97839882   -7.7741462    181.61349  0.022322209  0.022496266            1 
  679000   0.96594006   -7.7676468     181.0826  0.022224178  0.022479925            1 
  680000   0.99386374   -7.7202367    181.68223  0.022264979  0.022463402            2 
  681000   0.95707138   -7.7419972    181.81395  0.022248403  0.022446801            1 
  682000    1.0033979   -7.7499269    182.41777  0.022289561  0.022430422            7 
  683000   0.99812547   -7.7424203    183.10753  0.022341084   0.02241442            2 
  684000   0.97827289   -7.7445962    182.97075  0.022291757  0.022398596            4 
  685000   0.97377777   -7.7837218    182.96895  0.022258996  0.022382648            2 
  686000   0.98454872   -7.8115088    182.73735  0.022198415  0.022366482            1 
  687000   0.95116271   -7.7787376    183.20123  0.022222372  0.022350276            1 
  688000   0.99247292   -7.7648454    183.68699  0.022248908   0.02233403            2 
  689000   0.98947787   -7.7773079    183.63182  0.022209944  0.022317873            3 
  690000   0.99536282   -7.7622175    183.17096  0.022122096  0.022301571            4 
  691000   0.98908439   -7.7631484    183.53753  0.022134289   0.02228518            3 
  692000   0.97248352   -7.7865648    184.16085  0.022177366  0.022269186            4 
  693000   0.94673003   -7.7797034    184.93138  0.022238021  0.022253274            2 
  694000   0.98031874   -7.7465065    183.97299  0.022090896  0.022237422            2 
  695000   0.97159683   -7.7910213    184.39204  0.022109358  0.022221566            3 
  696000   0.96337658   -7.7729042    184.52391   0.02209338  0.022205615            2 
  697000   0.97557064   -7.7781767    184.48973  0.022057595  0.022189561            4 
  698000   0.97468672   -7.8008021    184.56337  0.022034787  0.022173491            5 
  699000   0.98537742   -7.7804336    184.35125  0.021977974  0.022157246            3 
  700000   0.97709058   -7.7945643    185.03095  0.022027494  0.022140812            3 
  701000   0.95478786   -7.7714026    185.14294  0.022009385  0.022124315            2 
  702000   0.95612513   -7.7356184    185.77464   0.02205302  0.022108154            6 
  703000   0.98823678   -7.7721219    185.07805  0.021939077   0.02209213            5 
  704000   0.97361078   -7.7784272    185.34136  0.021939081  0.022075892            2 
  705000   0.98168543   -7.7901846    185.54503  0.021932037  0.022059359            2 
  706000   0.97446765   -7.7633572    185.92145  0.021945402  0.022042814            2 
  707000   0.96460568   -7.8159648    185.21625  0.021831241  0.022026255            3 
  708000   0.93948262   -7.8029771    185.27308  0.021807095  0.022009651            1 
  709000   0.98655813   -7.7897576    185.41064  0.021792506  0.021992866            2 
  710000   0.96302408    -7.812215     185.8071  0.021808345  0.021976388            3 
  711000   0.97958092   -7.7700023     186.5748  0.021867652  0.021960333            3 
  712000   0.95101159   -7.8522351    185.91871  0.021760148  0.021944173            3 
  713000   0.97065986   -7.8229947    186.26751  0.021770396  0.021927676            5 
  714000   0.96587069   -7.8230167    186.31634  0.021745604   0.02191156            4 
  715000   0.96674538   -7.8142626    187.02742  0.021798067  0.021895478            3 
  716000   0.99265211   -7.8103896    187.30491   0.02179992  0.021879455            3 
  717000   0.95182463   -7.8152645    186.70436  0.021699716  0.021863335            1 
  718000   0.95000141   -7.8477282    186.76839  0.021676925  0.021847046            2 
  719000   0.94903344   -7.8458112    186.71037  0.021640052  0.021830566            4 
  720000   0.96658306   -7.8283138    187.46069   0.02169684  0.021814339            2 
  721000    0.9699501   -7.8125107    187.51933  0.021673525  0.021798018            2 
  722000   0.95171405   -7.8181113    187.62792  0.021656039   0.02178179            3 
  723000   0.96221488   -7.8463669    187.26994  0.021584824  0.021765514            2 
  724000   0.96335694   -7.8008221    188.47048  0.021693196  0.021749284            2 
  725000   0.96599703   -7.7894724    187.72237  0.021577283  0.021733086            3 
  726000   0.96128026   -7.8100337    187.98449   0.02157765  0.021716662            1 
  727000     0.932578   -7.8283719    187.95111  0.021544143  0.021700461            1 
  728000   0.97838702   -7.8367092    188.10933  0.021532661   0.02168439            3 
  729000   0.95734674   -7.8119178    188.37441  0.021533426  0.021668395            2 
  730000   0.97386242     -7.85294    188.07847  0.021470145  0.021652247            1 
  731000   0.92850995   -7.8381623    188.26026  0.021461498  0.021635869            2 
  732000   0.96017567   -7.8232423    188.64633  0.021476131  0.021619512            4 
  733000   0.98278512   -7.8343238    188.69385  0.021452235  0.021603304            1 
  734000   0.96658364   -7.8533799    189.35029  0.021497535  0.021587243            2 
  735000   0.96705127   -7.7958433    189.87253  0.021527498  0.021571441            3 
  736000   0.96415232   -7.8383778    189.48597   0.02145448   0.02155539            1 
  737000   0.93862182   -7.8174606    189.63566  0.021442295  0.021539509            3 
  738000   0.95699568   -7.8510037    189.76732  0.021428107  0.021523419            3 
  739000   0.96614521   -7.8150722    189.68099  0.021389376  0.021507505            1 
  740000   0.94665411   -7.8413257    190.25908  0.021425572  0.021491407            5 
  741000   0.97083868   -7.8281553    190.16015  0.021385532   0.02147549            3 
  742000   0.96392899   -7.8312263    190.87736  0.021437259  0.021459762            2 
  743000   0.95305391   -7.8233913     190.4037  0.021355283  0.021443948            1 
  744000   0.94368057   -7.8318734     190.3201  0.021317215  0.021428011            3 
  745000   0.96568313   -7.8588413    190.50576  0.021309369  0.021412171            3 
  746000   0.94679601   -7.8274346     190.7293  0.021305775  0.021396165            2 
  747000   0.95686497   -7.8795619    190.09097  0.021206043  0.021380044            3 
  748000   0.93793589   -7.8650098    190.76906  0.021253237  0.021363832            1 
  749000   0.94210505   -7.8330473     190.9104  0.021240587  0.021347647            1 
  750000   0.96201751   -7.8431157     191.4821  0.021275789  0.021331756            6 
  751000   0.95153629   -7.8351014    192.07737  0.021313512  0.021316006            4 
  752000   0.94808898   -7.8155246    191.90743  0.021266338  0.021300416            2 
  753000   0.96856797   -7.8567142    192.06025  0.021255008  0.021284918            5 
  754000   0.97425954   -7.8548414    191.86929  0.021205713  0.021269501            3 
  755000   0.95501614    -7.867624    191.82382  0.021172607  0.021253901            1 
  756000   0.95557282   -7.8501108    192.33233  0.021200653  0.021238323            1 
  757000   0.94886925   -7.8763491    192.32464  0.021171801  0.021222874            7 
  758000   0.93877402   -7.8148588    193.15073  0.021234689  0.021207501            2 
  759000   0.93897508   -7.8421056      193.138  0.021205314  0.021192106            2 
  760000   0.94381007   -7.8504615    193.24331   0.02118896  0.021176724            2 
  761000   0.95728277   -7.8380405     193.2931  0.021166568  0.021161438            4 
  762000   0.96534106   -7.8329253    193.01319  0.021108179  0.021146103            1 
  763000   0.95109874   -7.8513184     193.7344  0.021159283  0.021130899            3 
  764000   0.96762378   -7.8560369    193.35094  0.021089762  0.021115531            1 
  765000   0.96941162   -7.8543293    193.78484  0.021109459  0.021100198            7 
  766000   0.96762058   -7.8718584    193.75533  0.021078691  0.021084591            1 
  767000   0.94142135   -7.8650725    193.98381  0.021076034  0.021069115            3 
  768000   0.93690229   -7.8720234    194.08837  0.021059936  0.021053676            2 
  769000   0.94207158   -7.8669792     194.0403  0.021027341  0.021038531            3 
  770000   0.94396347   -7.8935244    194.12768  0.021009489  0.021023164            2 
  771000   0.98232102   -7.8488226      195.118  0.021089278  0.021007824            3 
  772000   0.95374348   -7.8857915    194.15589  0.020958106  0.020992511            2 
  773000   0.94013676   -7.8818188    194.66475  0.020985851  0.020977346            2 
  774000   0.93988209   -7.8646466    194.93798  0.020988155   0.02096227            2 
  775000    0.9528789   -7.8879571    194.15787   0.02087719  0.020947176            2 
  776000   0.97205262   -7.8435375    195.40126  0.020983813   0.02093192            3 
  777000   0.94065187   -7.8409974    195.72784  0.020991831  0.020916798            3 
  778000   0.95102813   -7.8573152    195.04084  0.020891264  0.020901786            2 
  779000   0.92122307    -7.886219    194.98647   0.02085863  0.020886647            2 
  780000   0.96753324   -7.8590244    195.22626  0.020857506   0.02087144            2 
  781000   0.94715392   -7.8687075    195.10427  0.020817784  0.020856289            8 
  782000   0.94886649   -7.8957159    195.17988  0.020799219  0.020841016            2 
  783000    0.9487551   -7.8944883    195.73879   0.02083214  0.020825497            2 
  784000   0.93857279   -7.9143033    195.84227  0.020816568  0.020809846            5 
  785000   0.94494434   -7.8606216    195.58279  0.020762505  0.020794409            3 
  786000   0.94663719   -7.8654722    195.87088  0.020766633  0.020779137            2 
  787000   0.92480488   -7.8808622     195.8111  0.020733915  0.020763737            1 
  788000   0.93018458   -7.8719131    195.98282  0.020725763  0.020748361            3 
  789000   0.93638134   -7.8876213      195.983  0.020699514   0.02073287            2 
  790000    0.9337374   -7.8648542    196.73922  0.020753082  0.020717481            1 
  791000   0.93319922   -7.8775853     196.6365  0.020716024  0.020702193            2 
  792000   0.92023073   -7.8455386    196.47414  0.020672784  0.020686949            2 
  793000    0.9349114   -7.8926293    195.80999  0.020576922  0.020671518            2 
  794000   0.93509975   -7.8778679    196.79196  0.020654068  0.020656016            1 
  795000   0.94499478    -7.854117    196.45663  0.020592938  0.020640598            3 
  796000   0.93735532   -7.8893381    197.02702  0.020626782  0.020625015            2 
  797000   0.94177041   -7.9097316    196.69779  0.020566478  0.020609405            4 
  798000   0.91602086    -7.885628    196.70102  0.020541042  0.020593823            2 
  799000   0.95508254   -7.9101416    196.91808  0.020537972  0.020578198            5 
  800000   0.92603192   -7.9234555    197.45519  0.020568249  0.020562776            3 
  801000   0.93648956   -7.8870078    197.26832  0.020523129  0.020547551            2 
  802000    0.9524403   -7.9013002    197.93467  0.020566778  0.020532343            2 
  803000   0.92477196   -7.8907788    197.94091  0.020541812  0.020517154            2 
  804000   0.93289017   -7.9144149    197.86516  0.020508412  0.020501984            3 
  805000    0.9268089   -7.8879773    197.90914  0.020487489  0.020486685            3 
  806000   0.95207261    -7.903333    197.88632  0.020459711  0.020471585            2 
  807000   0.93080834   -7.8821752    198.90178  0.020539217  0.020456463            6 
  808000   0.93735892   -7.8833506    198.87178  0.020510703  0.020441399            1 
  809000   0.92873689   -7.8985515    198.13267  0.020409216  0.020426228            4 
  810000   0.93757305   -7.8886706    198.68333  0.020440671  0.020410966            4 
  811000   0.94479063   -7.8847223    198.35433  0.020381661  0.020395569            1 
  812000   0.93624904   -7.9165129    198.58063  0.020379786  0.020380003            4 
  813000   0.93035385   -7.9418513    198.51925  0.020348427  0.020364489            1 
  814000    0.9192143   -7.8850002    199.28616  0.020401941  0.020349171            2 
  815000   0.90821868   -7.8840937    199.20703  0.020368817    0.0203337            3 
  816000   0.93276581   -7.9277266    198.43961  0.020265483  0.020318006            3 
  817000   0.92005307   -7.9194971    198.99316   0.02029714  0.020302292            2 
  818000   0.92522242   -7.9039886    199.46415  0.020320308  0.020286852            2 
  819000   0.93093095   -7.8856773    199.10149  0.020258597  0.020271335            3 
  820000   0.92367822   -7.8863391    199.31603  0.020255694  0.020255899            3 
  821000   0.91884502   -7.9140016    199.39738  0.020239279  0.020240401            2 
  822000   0.91822437   -7.9075031    199.13955  0.020188518  0.020224996            1 
  823000   0.93696097   -7.9101829    199.38515  0.020188857  0.020209441            2 
  824000   0.92912699   -7.9011973     199.6911  0.020195298  0.020193772            2 
  825000    0.9408789   -7.8704698    199.63138  0.020164786  0.020178329            3 
  826000    0.9261863   -7.9382883    199.56442  0.020133617  0.020162802            2 
  827000   0.95996555   -7.9514067    199.74894  0.020127865  0.020147106            3 
  828000   0.91087256   -7.9508652    199.71538  0.020100179  0.020131411            3 
  829000   0.92556473   -7.9188676    200.01781  0.020106334  0.020115977            3 
  830000   0.92194903   -7.9273561    199.95146  0.020075448  0.020100574            2 
  831000   0.92188089   -7.9271293    199.73992  0.020030077  0.020085166            2 
  832000     0.952763   -7.8675926      200.529  0.020085036  0.020069887            2 
  833000   0.91556891   -7.9048598    200.33726  0.020041743  0.020054498            2 
  834000   0.91334961   -7.9065753    200.64423  0.020048384  0.020039034            2 
  835000   0.92172704   -7.9176956    200.80695  0.020040614  0.020023599            3 
  836000   0.91167278   -7.9202616    200.76782  0.020012742  0.020008132            2 
  837000    0.9137074   -7.9570737    200.44158   0.01995635  0.019992783            1 
  838000   0.91903336   -7.9250542    200.86332  0.019974475  0.019977465            2 
  839000   0.92073691   -7.9288236    201.27273  0.019991332  0.019962062            4 
  840000   0.92670501   -7.9536041    201.30857  0.019971088  0.019946715            1 
  841000   0.89900235   -7.9706968    201.25137  0.019941674   0.01993138            3 
  842000   0.89833754   -7.9738477    200.95766  0.019888921  0.019915981            2 
  843000   0.90514604   -7.9613765    201.67509  0.019936249  0.019900557            4 
  844000   0.91609294   -7.9961029    201.68188  0.019913298  0.019885155            7 
  845000   0.88520823    -7.943909     201.3483  0.019856835  0.019869743            4 
  846000   0.91199141   -7.9493664    201.93171  0.019890831  0.019854348            4 
  847000   0.91384661   -7.9658767    201.90563  0.019864781  0.019838978            2 
  848000   0.90345485   -7.9772175    202.09068   0.01985954  0.019823682            2 
  849000   0.89696893   -7.9560265    201.83652  0.019811201  0.019808237            2 
  850000   0.90969246    -7.946889    201.80398  0.019784704  0.019792754            3 
  851000   0.94133141   -7.9660246    201.74632  0.019755809  0.019777372            2 
  852000   0.90332822   -7.9611027    201.86633   0.01974436  0.019761942            2 
  853000   0.91227987   -7.9820282    201.42166  0.019677771   0.01974649            4 
  854000   0.92996169   -7.9636085    201.61581  0.019673673  0.019731028            2 
  855000   0.92604878   -7.9152366    202.55372  0.019742078   0.01971565            2 
  856000   0.91729295   -7.9827095    202.33101  0.019697334  0.019700309            3 
  857000     0.912243   -8.0011488    202.51337  0.019692082   0.01968494            2 
  858000   0.91764025   -7.9672473    203.10108  0.019726213  0.019669681            2 
  859000   0.93669365   -7.9587802    202.87712  0.019681521  0.019654403            2 
  860000   0.90283967   -7.9778382    203.51811  0.019720747  0.019639057            2 
  861000   0.90942647   -7.9547223    203.39932  0.019686345  0.019623868            2 
  862000   0.90188522   -7.9345739    203.70157  0.019692727  0.019608747            2 
  863000   0.90513197    -7.974883    203.35765  0.019636699  0.019593705            3 
  864000   0.90776461   -7.9863548    203.03995  0.019583329  0.019578565            1 
  865000   0.89558606   -7.9612166    203.45102  0.019600291  0.019563421            6 
  866000   0.89210755   -7.9684782     203.5788  0.019589953  0.019548419            2 
  867000   0.91158743   -7.9606435    204.12731  0.019620079   0.01953337            3 
  868000   0.91817444   -7.9637031    203.77515  0.019563666  0.019518357            3 
  869000   0.93423544   -7.9598113    204.44707  0.019605588  0.019503484            2 
  870000   0.90670205   -7.9889873    204.03283  0.019543375    0.0194887            2 
  871000    0.9027387   -7.9726864    203.65399  0.019484691  0.019473591            2 
  872000   0.91488183   -7.9510716    204.54542  0.019547536  0.019458708            2 
  873000   0.92428074   -8.0025901    204.64785  0.019534923  0.019443712            2 
  874000   0.90194981   -7.9470175    204.86807  0.019533568  0.019428796            1 
  875000   0.91558153    -7.954107    204.51453  0.019477574  0.019413977            6 
  876000   0.90370495    -7.966565    204.54894  0.019458613   0.01939914            4 
  877000    0.8914158   -7.9746915    204.84679  0.019464727  0.019384357            2 
  878000   0.90985007   -7.9853027    205.19145   0.01947527  0.019369577            3 
  879000    0.8985639   -7.9761256    204.69955   0.01940648  0.019354669            4 
  880000   0.89075122   -8.0060694    205.33602  0.019444699  0.019339828            1 
  881000   0.90440938   -7.9628216    205.51613  0.019439664  0.019325165            2 
  882000    0.9211204   -7.9465901    205.88087  0.019452085  0.019310508            2 
  883000   0.90714336   -7.9593491    205.45386  0.019389757  0.019295811            2 
  884000   0.89047353   -7.9542822    205.86407  0.019406492   0.01928109            8 
  885000   0.89767286   -7.9401544    206.26665  0.019422472  0.019266402            1 
  886000   0.90741968    -7.969564    205.96318  0.019372007  0.019251737            2 
  887000   0.89815056   -7.9673164    206.12992  0.019365832  0.019236991            4 
  888000   0.89647138   -7.9740795    206.08388  0.019339703  0.019222353            2 
  889000   0.91531434   -7.9498329    206.18198  0.019327144  0.019207681            2 
  890000   0.90302297   -7.9568128    206.12755  0.019300332  0.019193108            3 
  891000    0.9018797   -8.0018695    206.82312  0.019343727  0.019178395            4 
  892000   0.89934712   -7.9711595    206.03696  0.019248595  0.019163673            3 
  893000   0.91552647   -8.0079458     206.3697  0.019258091  0.019149025            2 
  894000   0.89341572   -7.9882544    206.96272  0.019291827  0.019134442            6 
  895000   0.88765139   -7.9973995    206.76225  0.019251607  0.019119775            3 
  896000   0.90359959   -8.0076622    207.18674    0.0192696  0.019105279            2 
  897000    0.8964387   -7.9633463    207.24121  0.019253178  0.019090916            3 
  898000   0.89300551   -8.0089024    207.10103  0.019218729  0.019076527            2 
  899000   0.89383582   -7.9896102     207.4803  0.019232509  0.019062152            3 
  900000   0.90642878    -7.987911    207.35257  0.019199312  0.019047726           14 
  901000    0.8884929   -8.0202628    207.25733  0.019169195  0.019033279            1 
  902000    0.9204437   -7.9904412    207.92156  0.019209309  0.019018792            3 
  903000   0.91691834   -8.0079649    207.63533  0.019161621  0.019004342            4 
  904000   0.90521257   -8.0189732    207.93656  0.019168193  0.018989893            2 
  905000   0.87780035   -7.9870977    208.15519  0.019167145   0.01897569            4 
  906000   0.92494463   -8.0313433    207.04785  0.019044136  0.018961378            1 
  907000   0.90521744   -8.0232145     207.5176  0.019066299  0.018946855            2 
  908000   0.88774504   -8.0159339    208.00774  0.019090284  0.018932509            3 
  909000   0.89283154   -7.9940477    208.00382  0.019068924  0.018918078            1 
  910000   0.87347744   -8.0156742    208.21422  0.019067236  0.018903607            2 
  911000   0.88999222   -8.0041533    207.81704  0.019009974  0.018889205            2 
  912000   0.89868079   -7.9996243    207.82322  0.018989695  0.018874644            4 
  913000   0.90024325   -8.0051685    207.75355  0.018962536  0.018860121            2 
  914000   0.87947131    -8.057462    208.34687  0.018995885  0.018845537            4 
  915000   0.88670074   -8.0009856     208.4777   0.01898704  0.018830963            2 
  916000     0.877283    -8.033255    208.14561    0.0189361  0.018816329            1 
  917000   0.90653149   -7.9906988    207.60715  0.018866517  0.018801657            1 
  918000   0.89029281   -8.0173882    208.19497  0.018899326  0.018787122            3 
  919000   0.88760896   -8.0274866    208.55697  0.018911586  0.018772639            3 
  920000    0.8830355   -8.0062944    208.88399  0.018920651  0.018758088            8 
  921000   0.89691964   -8.0394421    209.07075  0.018917006  0.018743615            2 
  922000   0.87668276   -7.9794618    209.35325  0.018922022   0.01872921            2 
  923000   0.87780838   -8.0348626    209.08925  0.018877686  0.018714714            2 
  924000    0.8801801   -8.0292825    208.94161  0.018843941  0.018700229            2 
  925000   0.88097287   -8.0160437    208.85505  0.018815771  0.018685814            5 
  926000   0.88099349     -8.05094    208.55223    0.0187682  0.018671243            1 
  927000   0.88306336   -8.0178711    209.30328  0.018815469  0.018656793            3 
  928000   0.88647565   -8.0521048    209.44386  0.018807818  0.018642445            2 
  929000    0.8924023   -8.0507588    209.79281  0.018818874  0.018628062            4 
  930000   0.88773394   -8.0557557    209.11585   0.01873798  0.018613625            4 
  931000   0.87808772    -8.073614    208.79996  0.018689578   0.01859903            3 
  932000   0.86710599   -8.0126555    209.64218   0.01874483  0.018584562            2 
  933000   0.88659227   -8.0277887    209.38036  0.018701354  0.018570215            3 
  934000   0.88597826   -8.0257183    210.05365  0.018741404   0.01855594            5 
  935000    0.8762104   -8.0355585    209.65772  0.018686071  0.018541718            4 
  936000   0.90523046   -8.0248638     210.6121  0.018751077  0.018527561            2 
  937000   0.88652039   -8.0726579    209.80114  0.018658942  0.018513329            2 
  938000    0.8781614   -8.0551992    210.47568  0.018698976  0.018499083            2 
  939000   0.88970766   -8.0821812    209.96722  0.018633938  0.018484655            2 
  940000   0.86857069   -8.0680632    210.72552   0.01868134  0.018470392            3 
  941000   0.88670164   -8.0472526    210.56369  0.018647156  0.018456112            2 
  942000   0.88525546   -8.0811892    210.00845  0.018578242  0.018441783            3 
  943000   0.86752488   -8.0508524    210.48929  0.018601033   0.01842746            3 
  944000    0.8907379    -8.072792    210.13298  0.018549875  0.018413163            2 
  945000   0.87342304   -8.0409214    210.49331   0.01856202  0.018398842            2 
  946000   0.87958306    -8.043861     210.6034  0.018552096  0.018384488            2 
  947000    0.8926247   -8.0491333    210.34205  0.018509508  0.018370203            1 
  948000   0.89006731   -8.0362921    210.58909  0.018511699  0.018355787            2 
  949000   0.86228463   -8.0727297    210.75852  0.018507071  0.018341356            4 
  950000   0.87049965   -8.0544702    210.80689  0.018491832  0.018327018            4 
  951000   0.87566618   -8.0796003    210.54908  0.018449797  0.018312565            4 
  952000   0.88549101   -8.0915564    210.43909  0.018420789  0.018298053            3 
  953000   0.88987163    -8.066707    210.33237  0.018392127  0.018283541            2 
  954000   0.87324009   -8.0753109    210.76628  0.018410751  0.018269063            2 
  955000   0.88607479   -8.0503485    211.10092  0.018420674  0.018254532            4 
  956000   0.85980873   -8.0522291    211.09293  0.018400709  0.018240144            3 
  957000   0.87957897   -8.0482839    211.31077   0.01840045  0.018225811            1 
  958000   0.86858447   -8.0850448    210.65552  0.018324245  0.018211316            2 
  959000   0.87318103   -8.0586867    211.20059  0.018352502  0.018196842            2 
  960000   0.88601779   -8.0511408    211.25714  0.018338294  0.018182453            2 
  961000   0.86508114   -8.0599795     211.4434  0.018335363  0.018168168            3 
  962000    0.8650116   -8.0736846    211.63973   0.01833331  0.018153955            6 
  963000   0.86744433   -8.0414399    211.96703  0.018342595  0.018139741            2 
  964000   0.86420321    -8.037083    211.59033  0.018291003   0.01812561            1 
  965000   0.87615617   -8.0517636    211.62303  0.018274873  0.018111451            1 
  966000   0.85328629   -8.0751324    211.90764  0.018280507  0.018097324            3 
  967000   0.87164057   -8.0795121    211.50918  0.018227265  0.018083041            1 
  968000   0.86081732   -8.0365423    212.76362  0.018316428  0.018069009            3 
  969000   0.85498677   -8.0469104    212.17507   0.01824691     0.018055            3 
  970000   0.86911465   -8.0732158    212.27691  0.018236848  0.018040957            4 
  971000   0.86360924    -8.099841    212.60849  0.018246523  0.018026811            4 
  972000   0.85454265   -8.0967187     212.0214  0.018177418   0.01801262            2 
  973000   0.86072185     -8.11492    212.71183  0.018217868  0.017998436            2 
  974000   0.87714606   -8.0862134    212.31957  0.018165603  0.017984335            5 
  975000   0.87899682    -8.079494     211.9988  0.018119556  0.017970234            2 
  976000   0.87549596    -8.084658    212.91615  0.018179316  0.017956082            1 
  977000   0.84215826   -8.1099259    212.01018  0.018083434  0.017941868            2 
  978000   0.86364824   -8.0958975     212.4811  0.018105069  0.017927637            5 
  979000   0.86529714   -8.0954091    212.54873  0.018092333  0.017913424            1 
  980000   0.85022755   -8.0977167    212.73495  0.018089706  0.017899239            3 
  981000   0.87133862   -8.0930437    213.00779  0.018094444  0.017885184            2 
  982000   0.85989232   -8.0751133    212.92006  0.018068572  0.017871131            3 
  983000   0.85876478   -8.0846302    212.77731   0.01803809  0.017856997            3 
  984000   0.86630555   -8.1008986     213.9848  0.018122019  0.017842972            3 
  985000    0.8606411   -8.0890579    212.94197  0.018015395  0.017828958            2 
  986000    0.8435025   -8.1049676    213.34422  0.018031121  0.017814928            2 
  987000   0.84591504   -8.0991807     213.3315  0.018011778  0.017800905            2 
  988000   0.87846895   -8.0461862    213.61198  0.018017205  0.017786972            1 
  989000   0.85922113   -8.0895542    213.85539  0.018019497   0.01777309            2 
  990000   0.86161418   -8.0822942    214.08503  0.018020625  0.017759231            3 
  991000   0.85752557   -8.1181987    213.14898  0.017923729  0.017745256            5 
  992000   0.84803605   -8.1152396    213.59168  0.017942849  0.017731266            5 
  993000   0.84120551   -8.1058714    213.50753  0.017917718  0.017717362            2 
  994000   0.84921908   -8.0960438    213.85832  0.017929101  0.017703485            2 
  995000   0.87661034    -8.118343    213.48929  0.017880175  0.017689644            1 
  996000   0.85702004   -8.1296448     213.7229  0.017881769  0.017675762            2 
  997000   0.85006199   -8.0842171     214.2899  0.017911225  0.017661921            2 
  998000   0.86841909   -8.0924427     214.6311  0.017921768  0.017648088            5 
  999000    0.8707766     -8.10191    213.96252  0.017848058  0.017634185            2 
 1000000    0.8520904   -8.0904809    214.68899  0.017890749   0.01762035            3 
 1001000   0.87643466   -8.1252821    214.72128  0.017875564  0.017606563            1 
 1002000   0.84596028   -8.1029677     214.9903  0.017880098  0.017592981            2 
 1003000   0.84932876   -8.1305121    214.92442  0.017856798  0.017579366            3 
 1004000   0.84261079   -8.0910388    214.85701  0.017833417  0.017565779            2 
 1005000   0.85573987    -8.137822    214.80301  0.017811195  0.017552076            3 
 1006000   0.87640888   -8.1298128    214.77323  0.017791023   0.01753836            2 
 1007000   0.85659088   -8.1139602    215.24481  0.017812381  0.017524676            2 
 1008000   0.82854088   -8.0953046    215.24337   0.01779459  0.017511015            1 
 1009000   0.83203417   -8.1187793    215.10162  0.017765248  0.017497452            4 
 1010000   0.85197744   -8.1044456    215.66451  0.017794101  0.017483875            3 
 1011000   0.85770342   -8.1369073    214.75083  0.017701189  0.017470246            2 
 1012000   0.86359718   -8.1049359    215.55566  0.017749972  0.017456632            2 
 1013000   0.85705028   -8.1392323    215.91494  0.017762006  0.017443055            6 
 1014000   0.87445947   -8.1097032    215.53313  0.017713111  0.017429445            5 
 1015000   0.84493402   -8.1553439    215.18389  0.017666986  0.017415872            6 
 1016000   0.83803807   -8.1000819    215.95903  0.017713175  0.017402295            2 
 1017000   0.85500704   -8.1043896    216.05923  0.017703969  0.017388703            3 
 1018000   0.86638163   -8.1181386    215.37663    0.0176307  0.017375211            4 
 1019000   0.84922157    -8.140804     215.3027  0.017607352   0.01736162            4 
 1020000    0.8437006   -8.1370174    215.65934  0.017619227  0.017348099            2 
 1021000   0.83028062   -8.1329898    215.92768  0.017623872    0.0173346            4 
 1022000   0.85234308   -8.1330994    215.75723  0.017592729  0.017321112            1 
 1023000   0.84822039   -8.1448088     215.1853  0.017528943  0.017307589            2 
 1024000   0.83955057   -8.1490676    215.66789  0.017551097  0.017293984            2 
 1025000   0.85915966    -8.133823    216.49557  0.017601266  0.017280524            2 
 1026000   0.85957604    -8.103434    216.41605  0.017577652  0.017267113            4 
 1027000   0.83150871     -8.14702     216.3091  0.017551858  0.017253618            4 
 1028000   0.83964026   -8.1294605    216.36465  0.017539287  0.017240213            2 
 1029000   0.85341688    -8.135657     217.0586  0.017578442  0.017226765            2 
 1030000   0.85056124   -8.1161236    217.01053  0.017557487  0.017213447            1 
 1031000   0.84957294   -8.0819239    217.13048  0.017550152  0.017200149            4 
 1032000   0.84119846   -8.1220271    216.38826  0.017473212  0.017186805            2 
 1033000   0.84774658   -8.1150199    216.92767  0.017499812   0.01717341            1 
 1034000   0.82903776   -8.1446798    216.91577  0.017481928  0.017159972            3 
 1035000   0.83733215   -8.1541455    216.62704  0.017441791  0.017146541            1 
 1036000   0.84841907   -8.1196787    217.09049  0.017462234  0.017133117            1 
 1037000   0.84554626   -8.1533105    217.14835  0.017450044  0.017119697           22 
 1038000   0.83586477   -8.1463974    217.01438  0.017422477  0.017106297            2 
 1039000    0.8547228   -8.1347213    216.47785  0.017362676  0.017092748            3 
 1040000    0.8483858   -8.1571223    216.76794  0.017369226  0.017079162            2 
 1041000   0.85727407     -8.15859    216.25323  0.017311338  0.017065569            3 
 1042000   0.83122045   -8.1657089    216.70733   0.01733104  0.017052064            5 
 1043000   0.82712639   -8.1542561    216.58557  0.017304695  0.017038423            2 
 1044000   0.85183689    -8.178276    216.74264  0.017300658  0.017024835            5 
 1045000   0.84295967   -8.1767158    216.67544  0.017278743    0.0170113            4 
 1046000   0.82251511   -8.1471813      217.228  0.017306246  0.016997764            3 
 1047000    0.8350033   -8.1865378    217.27895  0.017293772  0.016984255            1 
 1048000   0.84741561   -8.1501791    217.37606  0.017284992  0.016970697            1 
 1049000   0.81228715   -8.1637081    217.25582  0.017258962  0.016957162            6 
 1050000    0.8499999   -8.1924216    217.30038  0.017246062  0.016943587            8 
 1051000   0.81819189   -8.1735058    217.37229  0.017235354  0.016930051            2 
 1052000   0.83518183   -8.1514639    217.18048  0.017203777  0.016916491            1 
 1053000   0.81518755   -8.1250231    218.31572  0.017277281  0.016903063            2 
 1054000   0.84730901   -8.1062978    217.79675  0.017219857  0.016889781            1 
 1055000   0.83697342   -8.1269124    218.00809  0.017220228   0.01687647            6 
 1056000   0.83703598   -8.1590742     217.5495  0.017167732  0.016863076            2 
 1057000   0.84820703   -8.1679576    217.13192  0.017118568   0.01684968            4 
 1058000   0.81456427   -8.1706672    217.22402  0.017109642  0.016836179            2 
 1059000   0.82652943    -8.148695    217.88059  0.017145151  0.016822686            3 
 1060000   0.81163981   -8.1873637    217.55833  0.017103642  0.016809143            6 
 1061000   0.82768385   -8.1866866    217.21953  0.017060912  0.016795605            1 
 1062000   0.82525902     -8.14469    217.78679  0.017089359  0.016782191            2 
 1063000   0.82653386   -8.1857832    217.16152  0.017024265  0.016768707            6 
 1064000   0.83762193   -8.1502185    217.50663  0.017035294   0.01675523            2 
 1065000   0.82926391   -8.1584278    217.50563  0.017019219  0.016741707            4 
 1066000   0.82660105   -8.1731552    217.24286  0.016982713  0.016728106            1 
 1067000   0.83807394   -8.1903125    217.14073   0.01695882  0.016714498            6 
 1068000   0.86289017   -8.2259129    216.76805  0.016913861  0.016700812            3 
 1069000   0.82296488   -8.2170658     217.5126   0.01695608  0.016687113            6 
 1070000   0.82420348   -8.2007168    218.14177  0.016989235  0.016673519            2 
 1071000   0.82692225   -8.1549824    217.78043  0.016945256  0.016659935            3 
 1072000   0.81447726    -8.178392     217.9035  0.016939016  0.016646365            4 
 1073000   0.83671688   -8.2019563    218.03376  0.016933346  0.016632841            2 
 1074000   0.83174007   -8.1903992    218.02696  0.016917051  0.016619343            3 
 1075000   0.83306321   -8.1995173    218.15386  0.016911152  0.016605846            4 
 1076000   0.82801617   -8.2109449     218.1484  0.016895012  0.016592289            1 
 1077000    0.8069815   -8.1855824    218.31255  0.016892026  0.016578738            2 
 1078000    0.8291872   -8.1871474    217.65287  0.016825361  0.016565235            3 
 1079000   0.82468567    -8.246373    217.80379  0.016821423  0.016551768            2 
 1080000   0.82834405   -8.2130644    218.36526  0.016849172  0.016538246            3 
 1081000   0.80180737   -8.2164493     217.8828  0.016796392  0.016524789            3 
 1082000   0.82644761   -8.1890658    218.77631  0.016849685  0.016511372            2 
 1083000   0.81562843   -8.1867641    218.71493  0.016829404  0.016497979            1 
 1084000   0.83287287   -8.1632997    218.58125  0.016803602  0.016484564            2 
 1085000   0.79982146   -8.2225039    218.33429  0.016769147  0.016471147            2 
 1086000   0.83316098   -8.2054022    218.36023  0.016755696  0.016457797            3 
 1087000   0.82491725   -8.1829223    218.87986  0.016780118  0.016444424            2 
 1088000   0.82271259    -8.209629    218.45074  0.016731827  0.016431012            2 
 1089000    0.8267797   -8.1868098    218.74644  0.016739091   0.01641762            2 
 1090000   0.81467617   -8.1838009    218.93469  0.016738126  0.016404261            1 
 1091000   0.82634772   -8.1924808    218.77295   0.01671043  0.016390909            5 
 1092000   0.83670257   -8.2228841    218.17818  0.016649739   0.01637755            2 
 1093000   0.81750951   -8.1820996    219.30488  0.016720409  0.016364236            3 
 1094000   0.81967795   -8.2087784    218.68563  0.016657955  0.016350945            3 
 1095000   0.81178513   -8.2005666    219.21479  0.016683013  0.016337595            4 
 1096000   0.79698646    -8.222894    219.77523  0.016710404  0.016324322            2 
 1097000   0.82293893    -8.211064    218.53071  0.016600631  0.016311048            3 
 1098000   0.80912958   -8.1968099     218.7046   0.01659871  0.016297807            3 
 1099000   0.80502642   -8.2008034    219.30061    0.0166288  0.016284542            2 
 1100000   0.81129342   -8.2327605    219.01699  0.016592196    0.0162713            4 
 1101000   0.80319125    -8.216059    219.06116  0.016580469  0.016258049            1 
 1102000   0.81637886   -8.1885276    219.56346  0.016603407  0.016244908            3 
 1103000   0.81073693   -8.2226173    219.07575  0.016551507  0.016231757            3 
 1104000   0.81824601   -8.2120689    219.41391   0.01656204   0.01621855            4 
 1105000   0.80681996   -8.2178078    219.79701  0.016575944  0.016205349            4 
 1106000   0.83311888   -8.2027118    219.58305  0.016544835  0.016192171            2 
 1107000   0.82944691   -8.2355268    219.17551  0.016499211  0.016179027            4 
 1108000   0.81505616    -8.231387    219.13683   0.01648141   0.01616581            1 
 1109000    0.7874012   -8.2156718    219.75935  0.016513326  0.016152539            3 
 1110000    0.8063128   -8.1782437    219.62718  0.016488527  0.016139368            5 
 1111000   0.81204941   -8.2433674    219.57525   0.01646979  0.016126077            3 
 1112000   0.80310504   -8.2600465    218.89742  0.016404183  0.016112801            4 
 1113000   0.81379605   -8.2436011    219.59974  0.016442029  0.016099567            3 
 1114000   0.80348744   -8.2226281    219.69141  0.016434127  0.016086304            4 
 1115000   0.81298563    -8.232417    219.31854   0.01639152  0.016073137            5 
 1116000   0.79580709   -8.2181426     219.7348  0.016407915  0.016059999            1 
 1117000   0.80329281   -8.2081895    220.12992  0.016422704  0.016046881           10 
 1118000   0.80273592   -8.2337797    219.68201  0.016374628    0.0160338            4 
 1119000   0.80179438   -8.2612878    219.55503  0.016350538  0.016020704            2 
 1120000   0.81132738    -8.249341    220.03233  0.016371453  0.016007623            5 
 1121000   0.80935964    -8.236116    220.28138  0.016375363  0.015994586           10 
 1122000   0.80850905   -8.2503948     220.4011   0.01636966  0.015981551            2 
 1123000   0.78944225   -8.2192581    220.06724  0.016330309  0.015968573            7 
 1124000   0.81373968    -8.260372    220.38267  0.016339166  0.015955557            3 
 1125000   0.79883852      -8.2655    220.44463  0.016329232  0.015942579            2 
 1126000   0.81178641   -8.2681708    220.59312   0.01632572  0.015929594            3 
 1127000   0.80482429   -8.2543032    220.58549  0.016310669  0.015916639            4 
 1128000   0.79395762   -8.2788936    219.84761  0.016241697  0.015903592            2 
 1129000   0.80822762   -8.2563999    220.41155  0.016268936  0.015890594            1 
 1130000   0.79754117   -8.2530368    220.50133   0.01626116  0.015877664            3 
 1131000   0.79763392   -8.2702509    220.30302  0.016232171  0.015864738            2 
 1132000   0.79704218   -8.2422201    220.96831  0.016266807  0.015851825            2 
 1133000   0.78894512   -8.2413035    220.82854   0.01624217  0.015838908            3 
 1134000   0.80534562   -8.3091424    220.34963  0.016192654  0.015825921            3 
 1135000   0.80130382   -8.2835661    220.59806  0.016196627   0.01581299            4 
 1136000   0.81108276   -8.2517866    221.21312  0.016227489  0.015800134            3 
 1137000    0.8074607   -8.2726621    220.66756  0.016173231  0.015787271            2 
 1138000   0.80414672   -8.2701819    220.15179   0.01612125  0.015774328            4 
 1139000   0.80050839   -8.2883491    220.69606  0.016146917  0.015761345            3 
 1140000   0.81644898   -8.2564451    221.10931  0.016162961  0.015748385            2 
 1141000   0.80324951   -8.2518281    220.49942  0.016104252  0.015735537            3 
 1142000   0.81270567   -8.2557563    220.48857  0.016089359   0.01572275            2 
 1143000   0.79985058   -8.2656132    221.14056  0.016122817  0.015709976            3 
 1144000   0.79787989   -8.2840866    221.10659  0.016106249  0.015697192            5 
 1145000   0.78489209   -8.2804693    220.92546     0.016079  0.015684375            4 
 1146000   0.77509719   -8.2836265    221.19477  0.016084553  0.015671626            2 
 1147000   0.81345965   -8.2879013     220.5662  0.016024862  0.015658812            1 
 1148000   0.80432006   -8.2853254     221.2331  0.016059313  0.015646045            4 
 1149000   0.79888676   -8.2815245    220.80279  0.016014127  0.015633295            4 
 1150000   0.79894805   -8.3131845    221.29423  0.016035814  0.015620585            1 
 1151000   0.80044014   -8.3163555    221.21545  0.016016178  0.015607761            1 
 1152000   0.78562992   -8.2924024    220.97111    0.0159846  0.015594911            3 
 1153000   0.79266709   -8.3264547    220.84593  0.015961689  0.015582112            2 
 1154000   0.78629118   -8.3284461    221.05623  0.015963043  0.015569275            3 
 1155000   0.78723695    -8.326867    220.93275  0.015940314  0.015556399            4 
 1156000   0.79940938   -8.3162508    220.98724  0.015930453  0.015543521            6 
 1157000   0.78499049   -8.3113549    221.71134  0.015968837   0.01553064            5 
 1158000   0.79607645   -8.2952329    221.42008  0.015934088  0.015517853            3 
 1159000   0.78837846   -8.3123368    221.03471  0.015892631  0.015505093            3 
 1160000   0.80600839   -8.2902323    221.49719  0.015912154  0.015492324            4 
 1161000   0.78347871   -8.3232539    220.94505  0.015858818  0.015479582            2 
 1162000   0.79336441   -8.3134875     221.4252  0.015879604  0.015466836            2 
 1163000    0.7848338   -8.3028547    221.47695  0.015869658    0.0154541            3 
 1164000   0.79711827    -8.273938    221.74448  0.015875178  0.015441416            3 
 1165000   0.77857788   -8.3150205    221.68122  0.015857026  0.015428697            2 
 1166000    0.7777099   -8.3046849    221.63816  0.015840349  0.015416037            4 
 1167000   0.78777406   -8.3011131    221.39572  0.015809463  0.015403367            3 
 1168000   0.78793882   -8.3013476    221.43404  0.015798662  0.015390679            2 
 1169000   0.76886726   -8.2946885    221.49305  0.015789353  0.015377916            1 
 1170000   0.78039202   -8.3022651    221.57253  0.015781519  0.015365186            4 
 1171000   0.77444911   -8.3131061    221.32023  0.015750088   0.01535244            6 
 1172000   0.78972894   -8.2803969    221.79826  0.015770639  0.015339707            4 
 1173000   0.77203616   -8.3099085    221.32569  0.015723621  0.015326953            2 
 1174000   0.77683304   -8.3184175    221.28075  0.015707038  0.015314159            4 
 1175000    0.7785585   -8.3018871    221.69535  0.015723074   0.01530137            8 
 1176000   0.79041022   -8.2834842    221.33723  0.015684327  0.015288611            4 
 1177000   0.78340502   -8.2997494    221.44326  0.015678509  0.015275855            4 
 1178000    0.7778424   -8.2926034    221.22719  0.015649914  0.015263135            4 
 1179000    0.8011935   -8.2998541    221.42933  0.015650928  0.015250399            6 
 1180000   0.77898989   -8.3063963    221.50609  0.015643085  0.015237684            3 
 1181000   0.77619126   -8.3226062    221.56652  0.015634104  0.015224953            3 
 1182000   0.78641239   -8.3066545     221.4764  0.015614524  0.015212223            1 
 1183000   0.78483806   -8.3215645    221.46268  0.015600358  0.015199454            3 
 1184000   0.77698594   -8.3385755    221.74836  0.015607289  0.015186671            1 
 1185000   0.77775994   -8.3258245     221.5912  0.015583066  0.015173877            4 
 1186000   0.78405854   -8.3091581    221.62722  0.015572458  0.015161065            5 
 1187000   0.76005739   -8.3271404    220.97073   0.01551325  0.015148272            1 
 1188000   0.77234876    -8.314408    221.96267  0.015569772  0.015135494            3 
 1189000   0.78450558   -8.2818366     221.9742  0.015557485  0.015122746            3 
 1190000   0.75996796   -8.3349919    221.49248  0.015510678  0.015110042            6 
 1191000   0.75784662   -8.3098107    222.00279  0.015533361  0.015097303            6 
 1192000   0.78991028   -8.3002383    221.75083  0.015502715  0.015084563            5 
 1193000   0.78016809   -8.3152989     221.6493  0.015482628   0.01507187            3 
 1194000   0.77126296   -8.3126528    221.11091  0.015432085  0.015059202            3 
 1195000   0.76052437   -8.3286961    221.72738   0.01546216  0.015046552            3 
 1196000   0.76183991   -8.3383867    221.83497  0.015456729  0.015033872            4 
 1197000   0.79108893   -8.3472785    221.45437  0.015417319  0.015021215            5 
 1198000   0.75752509   -8.3145413    221.74793   0.01542487   0.01500855            5 
 1199000   0.77369182   -8.3292244    222.11796  0.015437723   0.01499586            2 
 1200000   0.76983157   -8.3079259    222.02779  0.015418596  0.014983114            1 
 1201000   0.76576463   -8.3425459    221.44901  0.015365599  0.014970367            4 
 1202000   0.77466824   -8.3218686    221.90031  0.015384104  0.014957586            2 
 1203000   0.77708431   -8.3459909    221.77015  0.015362299  0.014944871            3 
 1204000   0.76140535   -8.3154798    221.68602  0.015343717  0.014932154            2 
 1205000   0.76788425    -8.324421    221.59209  0.015324487  0.014919422            3 
 1206000   0.77553269   -8.3106921     221.5988  0.015312244  0.014906726            4 
 1207000   0.76213408   -8.3675413    221.42355  0.015287458  0.014893977            2 
 1208000   0.78713115   -8.3369305    221.54836  0.015283413  0.014881248            4 
 1209000   0.76229152   -8.3538211    221.74872  0.015284582  0.014868526            3 
 1210000   0.76792914   -8.3513739    221.31788  0.015242278    0.0148558            8 
 1211000   0.76480805   -8.3402973    221.53463  0.015244607  0.014843111            3 
 1212000   0.77227957   -8.3300009    221.54683  0.015232868  0.014830425            3 
 1213000   0.77676897   -8.3504226    221.63088  0.015226084  0.014817711            6 
 1214000   0.76552387   -8.3611478    221.37921  0.015196267  0.014805032            6 
 1215000   0.74234082   -8.3352694    221.62666  0.015200731  0.014792293            3 
 1216000   0.76112365   -8.3411718    221.78791  0.015199281  0.014779588            2 
 1217000   0.76760147   -8.3315227    221.61679  0.015175074  0.014766963            2 
 1218000   0.77993466   -8.3310426    222.17351  0.015200706  0.014754371            3 
 1219000   0.75240701   -8.3155692    222.27833  0.015195401  0.014741829            5 
 1220000   0.75841574   -8.3395657    222.10852  0.015171347  0.014729266            3 
 1221000   0.77301715   -8.3485366    222.18399  0.015164072  0.014716745            2 
 1222000   0.77340138   -8.3449661    222.36035   0.01516369  0.014704202            3 
 1223000   0.76225964   -8.3543906     221.9566   0.01512378  0.014691658            3 
 1224000   0.75995243   -8.3429942    221.80684  0.015101228  0.014679064            1 
 1225000   0.77124066    -8.374142    221.95588   0.01509904  0.014666493            2 
 1226000   0.77534107   -8.3472456    221.71893  0.015070618  0.014653889            2 
 1227000   0.76750389   -8.3780425    221.37437  0.015034934  0.014641324            2 
 1228000   0.77101751   -8.3754734    222.17702  0.015077159  0.014628814            3 
 1229000   0.77674896   -8.3565186    222.01735  0.015054065  0.014616329            2 
 1230000   0.74466931   -8.3700747    222.27358  0.015059186  0.014603863            2 
 1231000   0.75574064   -8.3925057    221.87426   0.01501992  0.014591386            3 
 1232000   0.77583838   -8.3587786    221.95337   0.01501308  0.014578867            3 
 1233000   0.76307404   -8.3765892    222.18691  0.015016688  0.014566291            3 
 1234000    0.7366123   -8.3688871    222.22059  0.015006793  0.014553751            2 
 1235000   0.76043045   -8.3609764    222.60162  0.015020352  0.014541235            4 
 1236000   0.74563244    -8.391354    222.01778  0.014968836  0.014528742            2 
 1237000   0.75462396   -8.3986232    221.97657  0.014953959  0.014516241            4 
 1238000    0.7548301   -8.3834928    222.04539  0.014946512  0.014503736            2 
 1239000   0.75659016    -8.378173    221.47804   0.01489629  0.014491253            4 
 1240000   0.74584263   -8.3554114    222.06471  0.014923703  0.014478782            1 
 1241000   0.75381812   -8.3781025    222.48472  0.014939882  0.014466295            2 
 1242000   0.76392503   -8.3888732    221.87767  0.014887122  0.014453744            2 
 1243000    0.7595749   -8.3870017    221.70541  0.014863597  0.014441279            2 
 1244000   0.75079477    -8.367796    222.17921  0.014883387  0.014428816            3 
 1245000    0.7575333   -8.3826929    222.02432  0.014861066  0.014416391            2 
 1246000   0.76198519   -8.3806233    222.29808  0.014867448  0.014403993            2 
 1247000   0.75056665   -8.4201305    221.57476  0.014807188  0.014391535            2 
 1248000   0.75285612   -8.3340313    222.57614  0.014862189  0.014379116            6 
 1249000   0.74696639   -8.3843193    222.44989  0.014841866  0.014366782            2 
 1250000   0.75198148    -8.373197    222.06986  0.014804657  0.014354426            2 
 1251000   0.75291871   -8.3674118    222.46272  0.014818993  0.014342109            3 
 1252000   0.75270582   -8.3746925    222.76364  0.014827186  0.014329806            2 
 1253000   0.75341083   -8.4064114    222.61175  0.014805251  0.014317448            1 
 1254000   0.74022815   -8.3587478    222.77729  0.014804445  0.014305149            7 
 1255000   0.74913808   -8.3965656    222.48197  0.014773039  0.014292825            2 
 1256000   0.75034842   -8.3657449    222.51555  0.014763505  0.014280512            2 
 1257000     0.736325   -8.3814999    222.76419  0.014768244  0.014268202            1 
 1258000   0.74797647   -8.3879334    222.35493  0.014729394   0.01425593            4 
 1259000   0.74411608   -8.3999132    221.92125  0.014688989  0.014243663            1 
 1260000   0.74714761   -8.4225517    222.10116   0.01468923  0.014231374            6 
 1261000   0.74622336   -8.4057184    222.65098  0.014713916  0.014219096            5 
 1262000   0.75069135   -8.4184807    222.49826  0.014692172  0.014206835            5 
 1263000   0.74912351   -8.4016026    222.42518  0.014675718  0.014194588            4 
 1264000   0.74324288   -8.3836254    222.42373  0.014664012  0.014182398            3 
 1265000   0.75390947   -8.4092968    222.32096  0.014645649  0.014170206            4 
 1266000    0.7471155   -8.3941691    223.07328  0.014683602  0.014158004           10 
 1267000   0.75425337     -8.39651    222.89613  0.014660361  0.014145847            3 
 1268000   0.73582187    -8.395252      222.997  0.014655428  0.014133722            7 
 1269000   0.76095907    -8.420881    222.67671  0.014622847   0.01412154            9 
 1270000   0.76663449    -8.410477    223.05239  0.014635983  0.014109344            5 
 1271000   0.74734102   -8.4104142    222.90988  0.014615125  0.014097158            5 
 1272000   0.73601362    -8.409001    222.54265  0.014579576  0.014084956            3 
 1273000   0.74429033   -8.4303598     222.1459  0.014542151   0.01407275            6 
 1274000   0.74934538   -8.3895121    222.87049  0.014578133  0.014060609            2 
 1275000   0.75695142   -8.3898819    222.70022   0.01455557  0.014048495            3 
 1276000   0.75067734   -8.3995279    222.65289  0.014541072   0.01403638            2 
 1277000   0.74736281    -8.395461    223.00418  0.014552609   0.01402423            1 
 1278000   0.73953343   -8.4294172    222.86862  0.014532383  0.014012064            3 
 1279000   0.75076451   -8.4323634    222.70781  0.014510543  0.013999942            3 
 1280000   0.73716699   -8.4267231    222.44413   0.01448204  0.013987787            4 
 1281000   0.75586597   -8.4233414    222.31214  0.014462148  0.013975609            2 
 1282000   0.73683345   -8.4176645    222.49737  0.014462907  0.013963439            2 
 1283000   0.72078129   -8.4598652    222.85316  0.014474744  0.013951275            3 
 1284000   0.74166091   -8.4464654    222.66142  0.014451027  0.013939122            1 
 1285000   0.74606349   -8.4602329    221.79818  0.014383799  0.013926947            2 
 1286000   0.75175746   -8.4291198    222.32883     0.014407  0.013914798            3 
 1287000   0.74929021   -8.4266853    222.48263  0.014405765   0.01390265            4 
 1288000   0.73281656   -8.4382955    222.99985  0.014428044  0.013890524            1 
 1289000   0.75503843   -8.4556572    222.48502  0.014383568  0.013878401            2 
 1290000   0.73388696   -8.4351252    222.40926  0.014367523  0.013866268           10 
 1291000   0.73451194   -8.4425885    222.61382  0.014369599  0.013854141            9 
 1292000   0.74059835   -8.4390143    222.48083  0.014349899  0.013842077            4 
 1293000   0.74549665   -8.4691024    222.74205  0.014355636  0.013830034            4 
 1294000   0.73684368   -8.4645712    222.72218  0.014343263  0.013817995            3 
 1295000   0.73784006   -8.4663008    222.22373  0.014300111  0.013805941            4 
 1296000   0.75265327   -8.4495762    222.50015  0.014306851   0.01379386            2 
 1297000   0.73366546   -8.4672328    222.36247  0.014286974  0.013781775            4 
 1298000   0.72514579   -8.4579429    222.57552  0.014289646  0.013769675            1 
 1299000   0.74530999   -8.4903213    222.23857  0.014257029  0.013757536            2 
 1300000   0.74215148   -8.4646029    222.09326  0.014236747  0.013745424            2 
 1301000   0.73747078     -8.46399    222.21726  0.014233747  0.013733262            3 
 1302000   0.73756364   -8.4428111    222.49955  0.014240882  0.013721129            5 
 1303000   0.74507415   -8.4680832    222.60171  0.014236487   0.01370902            1 
 1304000   0.74353829   -8.4453482    222.42754  0.014214439  0.013696918            3 
 1305000   0.73649613   -8.4547278    222.35553  0.014198948  0.013684868            1 
 1306000   0.74129843   -8.4455338    222.68707  0.014209231  0.013672825            4 
 1307000   0.73625072   -8.4642519    222.75762  0.014202858  0.013660819            5 
 1308000   0.73337212   -8.4644606     222.5609  0.014179466  0.013648837            2 
 1309000   0.73339722   -8.4595045    222.27657  0.014150533  0.013636862            2 
 1310000    0.7101435   -8.4765281    221.94445  0.014118604  0.013624886            2 
 1311000   0.74056373   -8.4710706    222.10279  0.014117899  0.013612912            2 
 1312000   0.73269179   -8.4822435    222.62458  0.014140281  0.013600883            1 
 1313000   0.72339424   -8.5001853    222.05876    0.0140936  0.013588879            2 
 1314000   0.73921099   -8.4899276    221.72029  0.014061409    0.0135769            5 
 1315000   0.72669452   -8.4801516    222.71674  0.014113862  0.013564958            1 
 1316000   0.73263663   -8.4858691    222.33603  0.014079029  0.013552995            3 
 1317000   0.73493685   -8.4642235    223.09514  0.014116372  0.013541043            2 
 1318000   0.73015832   -8.4492641    223.05381  0.014103048  0.013529129            2 
 1319000   0.72750553   -8.4968593    222.79881  0.014076246  0.013517203            3 
 1320000   0.71504188    -8.492325     223.0622  0.014082209  0.013505286            2 
 1321000   0.72134043    -8.460147    222.67408  0.014047066  0.013493375            2 
 1322000   0.73173547   -8.5101948    222.60937  0.014032361  0.013481517            2 
 1323000   0.73227763   -8.4660066    222.92062  0.014041359   0.01346963            2 
 1324000   0.73273892   -8.4993393    222.16341  0.013983095  0.013457741            3 
 1325000    0.7130827   -8.5053447    222.72038  0.014007571  0.013445823            3 
 1326000   0.73789081    -8.495006    222.85525  0.014005483  0.013433921            3 
 1327000   0.72278607   -8.4726163    222.66094  0.013982727  0.013422075            3 
 1328000   0.72593203    -8.473922    222.54529   0.01396494  0.013410221            3 
 1329000   0.70666936   -8.5002728    222.49489  0.013951272   0.01339834            1 
 1330000   0.71681945   -8.4869566    222.89169  0.013965645   0.01338647            2 
 1331000   0.73733338   -8.4751516    222.65781  0.013940509  0.013374611            3 
 1332000   0.72051119   -8.4773725    222.27226  0.013905922  0.013362772            4 
 1333000   0.71971972   -8.5124519      222.777  0.013927044  0.013350946            4 
 1334000   0.70199218   -8.4972442    222.20794  0.013881056  0.013339136            2 
 1335000   0.73158122   -8.4798941    222.37862  0.013881312  0.013327339            3 
 1336000     0.734689   -8.5014986    222.20373  0.013860013  0.013315547            2 
 1337000   0.70993236   -8.4826315    222.28074  0.013854447  0.013303772            2 
 1338000   0.69582565   -8.5344662    222.17853  0.013837726   0.01329199            3 
 1339000   0.70447973   -8.5056669    222.24787  0.013831707  0.013280208            3 
 1340000   0.71573048   -8.4898372    222.15805  0.013815799  0.013268471            3 
 1341000    0.7272402   -8.5057315    222.22447  0.013809624  0.013256756            3 
 1342000   0.72771995   -8.4898412     221.9607  0.013782954  0.013245054            2 
 1343000   0.72587412   -8.4667521    222.36428  0.013797734  0.013233368            4 
 1344000    0.7113426   -8.4966066    222.43206   0.01379167  0.013221692            6 
 1345000   0.73231308   -8.5025711    222.83302  0.013806259  0.013210001            2 
 1346000   0.71524579   -8.5018927    222.07002  0.013748763  0.013198344            2 
 1347000   0.70666669   -8.5177144    222.09854   0.01374032  0.013186644            3 
 1348000   0.71493895   -8.4850936    222.61495  0.013762052  0.013174967            3 
 1349000   0.69550415   -8.4925719    222.57011   0.01374908  0.013163286            2 
 1350000   0.72230752   -8.5223638    222.81216  0.013753837  0.013151653            5 
 1351000   0.71791568   -8.4748998    222.79101  0.013742352  0.013140013            6 
 1352000   0.71741858   -8.5122524    222.64705  0.013723315  0.013128378            7 
 1353000   0.69767847   -8.4838935    222.75311  0.013719704   0.01311677            5 
 1354000   0.72000985   -8.5162592    222.45785  0.013691399   0.01310521            4 
 1355000   0.70023185   -8.4959489     222.7613  0.013699957  0.013093615            1 
 1356000   0.70073197   -8.5047965    222.64088  0.013682453  0.013082052            2 
 1357000   0.69947325   -8.5063556    223.06589   0.01369847  0.013070486            3 
 1358000   0.71166383   -8.4984722    223.32574  0.013704328  0.013058946            2 
 1359000   0.70612419   -8.5198552    222.61621  0.013650737   0.01304741            3 
 1360000   0.71097894   -8.4987851    222.42647  0.013629073  0.013035893            3 
 1361000   0.72482151   -8.5055533    222.71771  0.013636891  0.013024377            2 
 1362000   0.72426484   -8.4885599    223.26518  0.013660376  0.013012888            2 
 1363000   0.71230907   -8.5005022    222.77989  0.013620683  0.013001387            2 
 1364000   0.70442221    -8.513132    222.74972  0.013608854  0.012989852            2 
 1365000   0.70761093    -8.517794    223.03427  0.013616256   0.01297833            2 
 1366000   0.72738374   -8.5247948     222.8085  0.013592515  0.012966798            2 
 1367000   0.70781033   -8.5507141    222.68364   0.01357496  0.012955243            2 
 1368000   0.72691523   -8.5167909    222.42923  0.013549539  0.012943665            2 
 1369000   0.70172722   -8.5220359     222.5711  0.013548277  0.012932138            2 
 1370000   0.69693141   -8.5479267     222.3973  0.013527817  0.012920627            4 
 1371000   0.70703441   -8.5616324    222.17737  0.013504581  0.012909124            2 
 1372000   0.71006113   -8.5324034    222.98763  0.013543952  0.012897631            2 
 1373000   0.70864178   -8.5010951    222.43191  0.013500359  0.012886164            2 
 1374000   0.69070013   -8.5532075    222.28918  0.013481877  0.012874707            2 
 1375000   0.70219437   -8.5383275    222.52482  0.013486353  0.012863288            2 
 1376000   0.69990061   -8.5396796    222.63767  0.013483386  0.012851874            4 
 1377000   0.69657055   -8.5281521    222.70077  0.013477413   0.01284046            4 
 1378000   0.69624809   -8.5382902    222.87435   0.01347813  0.012829074            2 
 1379000   0.69247615   -8.5445707    222.89153  0.013469394  0.012817708            6 
 1380000   0.68798561   -8.5266353    222.63782  0.013444313  0.012806355            2 
 1381000   0.72241843   -8.4973688    222.84734  0.013447221  0.012795043            2 
 1382000   0.69847385    -8.534633    222.80266  0.013434796  0.012783741            2 
 1383000    0.7173736    -8.535419    223.00521  0.013437286  0.012772416            3 
 1384000    0.7205737   -8.5572053    222.14021  0.013375494  0.012761087            2 
 1385000    0.7028127   -8.5291789    223.10722   0.01342402  0.012749777            2 
 1386000   0.68897039   -8.5458476    222.44932  0.013374779  0.012738484            2 
 1387000   0.70847725   -8.5138054    222.88204  0.013391134  0.012727182            3 
 1388000   0.70135559   -8.5274217    223.05294  0.013391747  0.012715913            4 
 1389000    0.7047165   -8.5291071    222.93217   0.01337486  0.012704641            2 
 1390000   0.70365355   -8.5345757    222.64574  0.013348066  0.012693396            2 
 1391000   0.71237519   -8.5380587    222.96415  0.013357546   0.01268216            2 
 1392000   0.69399998   -8.5457149    222.28969  0.013307572  0.012670969            7 
 1393000   0.70216945   -8.5356972    223.35093  0.013361506  0.012659785            6 
 1394000   0.69007612   -8.5514608    222.99284  0.013330514  0.012648605            6 
 1395000      0.70031   -8.5417754    222.89496  0.013315111  0.012637441           10 
 1396000   0.68238844   -8.5334469    222.85565  0.013303227  0.012626304            2 
 1397000   0.69053106    -8.510381    223.24594  0.013316985  0.012615196            3 
 1398000   0.68831976   -8.5568306    222.68947  0.013274289   0.01260407            3 
 1399000   0.70207761   -8.5586457    222.92356  0.013278744  0.012592938            5 
 1400000   0.70258505   -8.5507361    223.00574  0.013274151  0.012581819            2 
 1401000   0.68734478   -8.5393712    223.23165  0.013278114  0.012570735            2 
 1402000   0.69657316   -8.5423498    223.08868  0.013260145  0.012559641            2 
 1403000   0.69251769   -8.5554307    222.80387  0.013233777  0.012548548            3 
 1404000   0.68867848   -8.5389685    223.34129  0.013256249  0.012537482            4 
 1405000   0.68786694   -8.5578324    222.84174  0.013217185  0.012526402            6 
 1406000   0.69213911   -8.5503633    222.40517  0.013181909  0.012515321            4 
 1407000   0.70538071   -8.5366892    222.72288  0.013191357   0.01250423            7 
 1408000   0.69508013   -8.5493436    222.53275  0.013170735   0.01249312            3 
 1409000   0.68856748   -8.5640426    222.63782  0.013167602  0.012482039            4 
 1410000    0.6728222   -8.5718382    222.49793  0.013149996  0.012470973            2 
 1411000   0.67684665   -8.5769334    222.71022  0.013153214   0.01245991            4 
 1412000   0.67592808   -8.5502839    223.23509  0.013174875  0.012448897            1 
 1413000   0.68824188   -8.5594698    223.32307   0.01317074  0.012437886            2 
 1414000   0.70211429   -8.5616419    223.12334  0.013149655   0.01242689            6 
 1415000   0.69604004   -8.5409348    223.36129  0.013154375  0.012415912            3 
 1416000   0.70392131   -8.5558094    222.98413  0.013122889   0.01240494            5 
 1417000   0.69538532   -8.5534278    223.03647  0.013116706  0.012393988            3 
 1418000   0.68635604   -8.5535463    222.73331   0.01308964  0.012383048            5 
 1419000   0.68995704   -8.5420968    223.00101  0.013096137  0.012372095            8 
 1420000   0.69176718   -8.5550299    223.01499  0.013087734   0.01236117           11 
 1421000   0.68870518   -8.5672155     223.1613  0.013087104  0.012350223            2 
 1422000   0.68618874    -8.573623    223.05413   0.01307162  0.012339268            2 
 1423000   0.69444737   -8.5545297    223.25625  0.013074271  0.012328361            3 
 1424000   0.68675336   -8.5607788     222.6444  0.013029284  0.012317458            4 
 1425000   0.70203597   -8.5520357     223.1974  0.013052479  0.012306586            3 
 1426000    0.6823025   -8.5451077    223.13981  0.013039961  0.012295713            3 
 1427000   0.67908767   -8.5514024    223.39801  0.013045901  0.012284882            7 
 1428000   0.67981547   -8.5729157    223.08453  0.013018472  0.012274058            4 
 1429000   0.66987901   -8.5366155    222.99467  0.013004121  0.012263242            5 
 1430000   0.68347539   -8.5548573    222.79099  0.012983158  0.012252417            6 
 1431000   0.67303586   -8.5770276    223.02135    0.0129875  0.012241578            3 
 1432000   0.67366728   -8.5696372    223.18037  0.012987685  0.012230763            3 
 1433000   0.68572315    -8.582256     222.6522  0.012947907  0.012219942            1 
 1434000    0.6834519   -8.5718409    222.97313  0.012957527  0.012209112            3 
 1435000   0.68050271   -8.5747779     222.8767  0.012942898  0.012198298            2 
 1436000   0.66759811   -8.5569978    223.22126   0.01295388  0.012187508            3 
 1437000   0.67395429   -8.5630294     222.7458  0.012917293  0.012176723            5 
 1438000    0.6782603   -8.5812244    222.78626  0.012910655  0.012165948            3 
 1439000   0.68360111   -8.5730787    222.82456  0.012903901   0.01215519            2 
 1440000   0.67989393    -8.602417    222.66254  0.012885564  0.012144443            3 
 1441000   0.67833585   -8.5548295    223.21874  0.012908787  0.012133674            7 
 1442000   0.67965297   -8.5934497    222.94089  0.012883778  0.012122924            3 
 1443000   0.66134787   -8.5823783    222.83956  0.012868998  0.012112162            1 
 1444000   0.67074855   -8.5753211    223.46198  0.012896005  0.012101424            1 
 1445000   0.67480893   -8.5810399    222.80073  0.012848946   0.01209071            2 
 1446000   0.68134892   -8.5840222    222.86162   0.01284357  0.012079991            4 
 1447000   0.67521275   -8.5987911    222.62385     0.012821  0.012069254            4 
 1448000   0.66498114   -8.6038325    222.66744  0.012814654  0.012058524            2 
 1449000   0.67310267   -8.5919027    222.96194  0.012822748  0.012047781            3 
 1450000   0.68922345   -8.6019821    223.02268  0.012817395  0.012037047            1 
 1451000    0.6855255   -8.5930937     223.4112  0.012830875  0.012026337            3 
 1452000   0.66024913   -8.6079834    222.90161  0.012792792  0.012015627            2 
 1453000   0.68322152   -8.5848455    222.38084   0.01275412  0.012004921            3 
 1454000   0.67255466     -8.61307    222.62162  0.012759148   0.01199426            4 
 1455000   0.66083513    -8.607508    222.89705  0.012766154  0.011983604            3 
 1456000   0.67001461   -8.5992625    222.95341  0.012760612  0.011972929            5 
 1457000   0.67052464   -8.6101184    222.88097   0.01274771  0.011962246            4 
 1458000   0.66393722   -8.6111649    222.61396  0.012723706  0.011951606            1 
 1459000   0.68126988   -8.6112955    222.40685  0.012703156   0.01194095            2 
 1460000   0.66571173   -8.6076628    222.48483  0.012698906  0.011930313            2 
 1461000   0.66278267   -8.6246454    222.10624  0.012668619  0.011919673            3 
 1462000   0.66982082    -8.623298    222.28101  0.012669916  0.011909014            2 
 1463000   0.65712014     -8.59516    223.23334  0.012715501  0.011898373            3 
 1464000   0.66594003   -8.5918471    222.52257  0.012666358  0.011887736            3 
 1465000    0.6608027    -8.614347    222.96061  0.012682628  0.011877146            4 
 1466000   0.66694804   -8.6327983    222.43364  0.012644022  0.011866562            5 
 1467000   0.65964222     -8.61685    222.70419  0.012650772  0.011855959            2 
 1468000   0.68082062   -8.6402593    222.83485  0.012649572  0.011845357            1 
 1469000   0.65908175   -8.6233529    222.61188  0.012628312  0.011834757            5 
 1470000    0.6699516   -8.6275617    222.65138  0.012621961  0.011824174            6 
 1471000   0.67454326   -8.6131362    222.88961  0.012626875  0.011813598            2 
 1472000   0.66888276   -8.6496519    222.44558   0.01259316  0.011803037            3 
 1473000   0.66247242   -8.6427649    222.38878  0.012581397  0.011792466            3 
 1474000   0.66171675    -8.621356    222.31999  0.012568973  0.011781906            2 
 1475000   0.66812255   -8.6115624    222.12002  0.012549154  0.011771366           15 
 1476000   0.66840901   -8.6448107    222.39597  0.012556231  0.011760825            5 
 1477000    0.6671742   -8.6401405     222.1552  0.012534146  0.011750292            5 
 1478000   0.65762566    -8.636814    222.15025  0.012525386  0.011739772            7 
 1479000   0.66298972   -8.6299064    222.43745    0.0125331  0.011729272            3 
 1480000   0.66262948   -8.6244723     222.5744  0.012532342  0.011718781            5 
 1481000   0.66430755   -8.6338006    222.49957   0.01251967  0.011708299            5 
 1482000   0.66328137   -8.6512115    222.56937  0.012515147  0.011697826            2 
 1483000   0.65492973   -8.6440056     222.5734  0.012506934   0.01168735            5 
 1484000   0.66730281   -8.6197956    222.26393  0.012481128  0.011676902            9 
 1485000   0.65840812   -8.6515683    222.72778  0.012498753   0.01166646            4 
 1486000   0.66595856   -8.6451001    222.36135  0.012469793  0.011656007            5 
 1487000    0.6749061   -8.6419006    222.31492  0.012458805  0.011645555            3 
 1488000   0.65785559   -8.6342216    222.24396  0.012446458  0.011635134            3 
 1489000   0.67252142   -8.6554218    222.15836  0.012433309  0.011624725            7 
 1490000   0.65509109   -8.6450413    222.25839  0.012430558  0.011614317            4 
 1491000   0.67711565   -8.6689819     222.4958  0.012435491  0.011603921            2 
 1492000   0.67224271   -8.6349483    222.09438  0.012404735  0.011593522            3 
 1493000   0.65569479   -8.6752184    222.14714  0.012399371  0.011583131            3 
 1494000   0.65947749   -8.6653711    222.41078  0.012405777   0.01157276            2 
 1495000   0.66005185   -8.6505136    222.31737  0.012392273  0.011562404            4 
 1496000    0.6581922    -8.648488    222.34101  0.012385306  0.011552045            3 
 1497000   0.65900223   -8.6608184    222.65545  0.012394536  0.011541689            2 
 1498000   0.65966448   -8.6830179    222.06755  0.012353557  0.011531347            3 
 1499000   0.64450309   -8.6574519    222.06813  0.012345348  0.011521012            5 
 1500000   0.65251885   -8.6610753    222.28904  0.012349391  0.011510714            2 
 1501000   0.64724046   -8.6497775    222.08132  0.012329631  0.011500402            2 
 1502000    0.6588235   -8.6675018    222.06326   0.01232042  0.011490068            6 
 1503000   0.65145485   -8.6648689    222.12113  0.012315432  0.011479759            6 
 1504000   0.66848301   -8.6714148     222.0115  0.012301169   0.01146946            6 
 1505000   0.64244188   -8.6687178     221.8988  0.012286755  0.011459174            4 
 1506000   0.65346036   -8.7064397    222.05443  0.012287208  0.011448884            6 
 1507000   0.66471333     -8.66172    222.35825  0.012295855  0.011438617            4 
 1508000   0.64759148   -8.6894999    222.03495  0.012269836   0.01142836            8 
 1509000   0.63275727   -8.6692015    222.35007  0.012279107  0.011418102            4 
 1510000   0.66147146   -8.6798387    222.00112  0.012251717  0.011407864            4 
 1511000   0.65250387   -8.6713838    222.28212  0.012259106  0.011397621            2 
 1512000   0.64080182   -8.6678172    221.98197  0.012234456  0.011387377            3 
 1513000   0.64951526   -8.6654543    221.64399  0.012207754  0.011377154            6 
 1514000   0.65978248   -8.6775759    222.53036  0.012248479  0.011366949            5 
 1515000   0.65904092   -8.6804523    222.30652  0.012228082  0.011356747            6 
 1516000    0.6482677   -8.6799562    222.11231   0.01220934  0.011346564            5 
 1517000   0.63503315   -8.6819381    222.16003  0.012203913  0.011336386            3 
 1518000   0.64289993   -8.6789969    222.22834  0.012199623   0.01132622            7 
 1519000    0.6472685    -8.690721    222.11445  0.012185344  0.011316043            5 
 1520000   0.65442921     -8.68749    222.11469  0.012177341  0.011305866            7 
 1521000   0.65087812   -8.6811821    221.91566   0.01215843  0.011295712            4 
 1522000   0.64536414   -8.6915461    221.95657  0.012152681  0.011285558            2 
 1523000   0.65816791   -8.6859086     221.8638  0.012139626  0.011275423            2 
 1524000   0.63915485   -8.6848441    221.63312  0.012119046  0.011265292            8 
 1525000   0.63595337   -8.6872756      222.015  0.012131967   0.01125519            4 
 1526000   0.63242893   -8.6704472    222.12751  0.012130161  0.011245073           14 
 1527000   0.64914497   -8.6881808    221.84113  0.012106589  0.011234977            6 
 1528000   0.64391975   -8.6672431    222.01032  0.012107892  0.011224882            3 
 1529000   0.64656116    -8.675633    221.86598  0.012092107  0.011214809            5 
 1530000   0.64062616   -8.6853028     222.3186  0.012108856  0.011204741            7 
 1531000   0.63510774   -8.6821509    222.17377  0.012093064  0.011194708            6 
 1532000   0.63934342    -8.689871    221.35767  0.012040778   0.01118465            8 
 1533000   0.63714506   -8.6987773    221.95246  0.012065256  0.011174581            6 
 1534000   0.64573769   -8.6994049    222.20819  0.012071284  0.011164532            5 
 1535000   0.63340103   -8.7043984    221.75799  0.012038979  0.011154488            4 
 1536000   0.64967252   -8.6803508    222.09711   0.01204954   0.01114445            4 
 1537000   0.63514018   -8.7019783    221.80365  0.012025789  0.011134426            8 
 1538000   0.65017501   -8.6978509    222.24567   0.01204192  0.011124395            8 
 1539000   0.63619613   -8.6879157    221.63192  0.012000862  0.011114377            2 
 1540000   0.64530579   -8.7126935      221.721  0.011997889  0.011104362            3 
 1541000   0.64497583   -8.6948506    221.44218  0.011975026  0.011094332            4 
 1542000   0.63839188   -8.7130356     221.7886  0.011985982  0.011084311            4 
 1543000   0.64908483   -8.7022206    221.51577  0.011963479  0.011074303            4 
 1544000   0.63401974   -8.7025477    221.43742  0.011951501  0.011064314            3 
 1545000   0.62761957   -8.7056658    221.47004  0.011945525  0.011054321            6 
 1546000   0.62052366   -8.6808067    221.66502  0.011948309  0.011044363            6 
 1547000   0.63221202   -8.6984878    221.78031  0.011946795  0.011034429            5 
 1548000   0.62293695   -8.7179489    221.64227  0.011931647  0.011024503            4 
 1549000    0.6461711   -8.7002479    221.64394  0.011924034    0.0110146            3 
 1550000   0.63243722   -8.7168484     221.2974   0.01189771   0.01100469            7 
 1551000   0.63585858   -8.6813124    221.83844  0.011919108  0.010994782            6 
 1552000   0.63011461   -8.6900617    221.49236  0.011892846  0.010984896            4 
 1553000   0.63682851   -8.6926044     221.2663  0.011873057  0.010975027            9 
 1554000   0.65224868    -8.705569    221.74509  0.011891092  0.010965147            3 
 1555000   0.64005765    -8.740389    221.39289  0.011864571  0.010955284            7 
 1556000   0.62436593   -8.7114855    221.59765  0.011867912  0.010945422            6 
 1557000   0.63521861   -8.7185101    221.75763  0.011868852  0.010935565            6 
 1558000   0.63352727   -8.7068696    221.88416  0.011868002  0.010925733            3 
 1559000   0.63551685    -8.717756    221.48499  0.011839052    0.0109159            4 
 1560000   0.63616687   -8.6966773    221.64785  0.011840163  0.010906095            8 
 1561000    0.6332643   -8.7187596     221.5924  0.011829618  0.010896303            6 
 1562000   0.63304816   -8.7083015    221.71213  0.011828432  0.010886512            7 
 1563000   0.62335875   -8.7268164     221.3211  0.011800016    0.0108767            7 
 1564000   0.63030951   -8.7244409    221.45811  0.011799772  0.010866913           14 
 1565000   0.62867675   -8.7269256    221.86112  0.011813691  0.010857127            3 
 1566000   0.62986807   -8.7175206    221.70708   0.01179795  0.010847369            3 
 1567000   0.63353442   -8.7425124    221.98274  0.011805081  0.010837603           11 
 1568000   0.63178194   -8.7322149    221.56224  0.011775204  0.010827857            6 
 1569000    0.6213334   -8.7234252    221.38747  0.011758417  0.010818118            5 
 1570000   0.62231305   -8.7438645    221.50943  0.011757401  0.010808383            4 
 1571000   0.62393618   -8.7444988    221.60083  0.011754765  0.010798657            4 
 1572000   0.62686248   -8.7213251    221.25367  0.011728884  0.010788921            5 
 1573000   0.63124501   -8.7401849     221.5162  0.011735336   0.01077919            9 
 1574000     0.627239    -8.750896    221.14903  0.011708441  0.010769485            6 
 1575000   0.62272584   -8.7526454    221.61665  0.011725749    0.0107598            9 
 1576000   0.62695519   -8.7535431    221.62475  0.011718737  0.010750119            4 
 1577000   0.62997411   -8.7198738    221.35083  0.011696831  0.010740448           10 
 1578000   0.62378716   -8.7399558    221.26505  0.011684889  0.010730799            7 
 1579000   0.61515079   -8.7619545    221.13629  0.011670693  0.010721151            5 
 1580000   0.61830714      -8.7261    221.55586  0.011685435  0.010711497            6 
 1581000   0.61680264   -8.7338347    221.59233  0.011679967  0.010701855            2 
 1582000    0.6136743   -8.7412493     221.5774  0.011671798  0.010692229            3 
 1583000   0.62715873   -8.7401607    221.60805  0.011666037  0.010682612            7 
 1584000   0.62327616   -8.7500093    221.77787  0.011667607  0.010672996            8 
 1585000   0.62903141   -8.7550939    221.29615  0.011634919  0.010663392            6 
 1586000   0.62661507   -8.7459384     221.5481  0.011640821  0.010653799            3 
 1587000    0.6247861   -8.7436407    221.33736   0.01162242  0.010644229            1 
 1588000   0.62567803   -8.7598434    221.46135  0.011621607  0.010634649            2 
 1589000    0.6227324   -8.7377576    221.55022  0.011618955  0.010625097            4 
 1590000   0.61970245   -8.7480925    221.65747  0.011617268  0.010615555            5 
 1591000   0.61233067   -8.7366315    221.39005  0.011595959  0.010606018            9 
 1592000   0.61125962   -8.7727344    221.12399  0.011574748  0.010596489            4 
 1593000    0.6214563   -8.7409832    221.39918  0.011581878  0.010586963            2 
 1594000   0.61344008   -8.7363812    221.48785  0.011579248  0.010577455           10 
 1595000   0.60592656   -8.7341016    221.22073  0.011558032  0.010567938            5 
 1596000   0.62620207   -8.7558913    221.63757  0.011572555  0.010558432            6 
 1597000   0.60292646   -8.7449075    221.37307  0.011551506  0.010548929            5 
 1598000   0.59747227   -8.7571267    221.26443  0.011538612  0.010539445            6 
 1599000   0.62460539    -8.746128    221.47108  0.011542166  0.010529971            5 
 1600000   0.62871964   -8.7604165     221.1249  0.011516922  0.010520506            3 
 1601000    0.6315433   -8.7685036    221.08655  0.011507732  0.010511031            6 
 1602000   0.60401293   -8.7695382    221.31806  0.011512592  0.010501585            8 
 1603000   0.60836891   -8.7737506    221.25271  0.011502012  0.010492133            6 
 1604000   0.61064202   -8.7685183    221.35303  0.011500054  0.010482691            7 
 1605000   0.61134658   -8.7486668    221.39232  0.011494928  0.010473279            4 
 1606000   0.60458174   -8.7596587    221.24171  0.011479956  0.010463872            7 
 1607000   0.61167708   -8.7688165    221.14721  0.011467912  0.010454468            9 
 1608000   0.59631086   -8.7699679    221.04225  0.011455341  0.010445076            9 
 1609000   0.62787556   -8.7706236    220.91878  0.011441826  0.010435686            2 
 1610000   0.61017496   -8.7711063    221.08362  0.011443251  0.010426319            5 
 1611000   0.60301713   -8.7614822    220.85994  0.011424578  0.010416956            9 
 1612000   0.61238183   -8.7630742    221.11646  0.011430752  0.010407599            5 
 1613000   0.60491163   -8.7786378     220.8056  0.011407605  0.010398248            7 
 1614000   0.60152204   -8.7698638     220.1757  0.011368014  0.010388904            6 
 1615000   0.59947131   -8.7772962    221.19467  0.011413554  0.010379557            5 
 1616000   0.59754568   -8.7572738    220.87327  0.011389917  0.010370251            4 
 1617000   0.60097521   -8.7793803    221.13519  0.011396371  0.010360943            5 
 1618000   0.61240346   -8.7950982    221.11898  0.011388493   0.01035164            5 
 1619000   0.62766738   -8.7864398    221.28686    0.0113901  0.010342337            7 
 1620000   0.60994388   -8.7516215    220.92956  0.011364689  0.010333053           10 
 1621000   0.61417941   -8.7570675    221.07977  0.011365401  0.010323785            6 
 1622000   0.59256501   -8.7663154    221.14475  0.011361732  0.010314523            7 
 1623000   0.61184613   -8.7623281     221.0811  0.011351463  0.010305251           11 
 1624000   0.59024551   -8.7752121     221.1156  0.011346244   0.01029599            7 
 1625000   0.60164398   -8.7706451    221.11642  0.011339303  0.010286765            4 
 1626000   0.59801006    -8.771093    221.12107  0.011332568  0.010277541            6 
 1627000   0.59417869   -8.7824387    220.79419  0.011308861  0.010268314            7 
 1628000   0.59947529    -8.784162    221.01968  0.011313456  0.010259115            6 
 1629000   0.60512664   -8.7768032    221.39425  0.011325673  0.010249913            5 
 1630000    0.6015593   -8.7763454    221.20023  0.011308805  0.010240718            5 
 1631000   0.62315051   -8.7926013    220.81164  0.011282017  0.010231535           10 
 1632000   0.62577452   -8.7790773    221.22788  0.011296358  0.010222373            6 
 1633000   0.60121704   -8.7797277    220.59391  0.011257089  0.010213214            6 
 1634000   0.60749109   -8.7989437    220.97747  0.011269761  0.010204066           10 
 1635000   0.59505898   -8.7552584    221.06882  0.011267524  0.010194924            9 
 1636000   0.60001129   -8.7828888    220.87769  0.011250901  0.010185804            8 
 1637000   0.60805659   -8.7791623    221.29329  0.011265185  0.010176688            7 
 1638000   0.60033666   -8.7798783    221.22663  0.011254916  0.010167569            8 
 1639000   0.60129272   -8.7754026    221.07308  0.011240242   0.01015848            8 
 1640000   0.59734687   -8.7797503     221.0004  0.011229695  0.010149386            6 
 1641000   0.58938105   -8.7852033    221.15475   0.01123069  0.010140305            7 
 1642000   0.60007157   -8.7999069     221.1311   0.01122265  0.010131226            7 
 1643000   0.59164003   -8.8140495    220.99078  0.011208703  0.010122161            7 
 1644000   0.60829298   -8.7925848    220.89821  0.011197192  0.010113098            2 
 1645000   0.59379987   -8.7836465    220.68388  0.011179528  0.010104024            6 
 1646000   0.59271589   -8.7819669    220.65356  0.011171201  0.010094981            3 
 1647000   0.58616148   -8.7764199    220.62708  0.011163078  0.010085949            1 
 1648000   0.61490296   -8.7928509    221.07902  0.011179158  0.010076926            7 
 1649000    0.5927293   -8.8113658    220.96793  0.011166764  0.010067894            6 
 1650000   0.58945388   -8.7841645    220.91037  0.011157089  0.010058881            2 
 1651000   0.59114108   -8.8042977    220.76474  0.011142981  0.010049872            6 
 1652000   0.58787632   -8.8056627    221.24194  0.011160308  0.010040873            8 
 1653000   0.59190643   -8.7868184    221.02552  0.011142645  0.010031897            9 
 1654000     0.582312   -8.7962791    220.85897  0.011127518   0.01002292            7 
 1655000   0.58982308   -8.8027715    221.17296  0.011136604  0.010013956            7 
 1656000   0.58366871   -8.7818174    220.93233   0.01111777  0.010005004            2 
 1657000   0.59545511   -8.8178219    220.60811  0.011094755 0.0099960652            6 
 1658000   0.58702509   -8.8053627    221.06151  0.011110852   0.00998712            3 
 1659000   0.59761593   -8.7957852    221.04054  0.011103101 0.0099781765            6 
 1660000   0.58258796   -8.8085706    220.87081  0.011087892 0.0099692606            4 
 1661000    0.5971623   -8.8072536    220.92941  0.011084156 0.0099603476            5 
 1662000   0.59757822   -8.8033946    220.56494  0.011059213 0.0099514498            9 
 1663000   0.60420885   -8.8181416    220.62591  0.011055618 0.0099425559            4 
 1664000   0.59060574   -8.8076927    220.73523  0.011054449 0.0099336637            8 
 1665000   0.58934674   -8.7963565    220.70924  0.011046508  0.009924792            9 
 1666000   0.59449419   -8.8115317    220.58023  0.011033425 0.0099159258            9 
 1667000   0.58762939   -8.8248527    220.88638  0.011042111 0.0099070838            8 
 1668000   0.59671328    -8.814827    220.75565  0.011028959 0.0098982505            2 
 1669000   0.57972385   -8.8209527    220.47265  0.011008221 0.0098894118            7 
 1670000   0.60088468   -8.8087915      220.604  0.011008183 0.0098805731            7 
 1671000     0.599641   -8.8191061    220.69616  0.011006192 0.0098717489            2 
 1672000   0.58977268   -8.8140498    221.12989  0.011021227 0.0098629488            9 
 1673000   0.58081653   -8.8209884    220.51811  0.010984166 0.0098541592            4 
 1674000   0.58570408   -8.8472236    220.09463  0.010956523 0.0098453588            3 
 1675000   0.58558165   -8.8051196    220.57666  0.010973963 0.0098365697            4 
 1676000   0.58457086    -8.821815     220.3128  0.010954296 0.0098277856            2 
 1677000    0.5710929   -8.8137322    220.03883   0.01093415 0.0098190053            5 
 1678000   0.59369942   -8.8136998    220.65507  0.010958238 0.0098102368            3 
 1679000   0.57399127    -8.828594    220.50788  0.010944406 0.0098014937            5 
 1680000   0.57718274    -8.820005    220.75197  0.010949999   0.00979275            3 
 1681000   0.58027117   -8.8232879    220.59274  0.010935591  0.009784017       -1e+20 
 1682000   0.57073299   -8.8386731    220.13224  0.010906274 0.0097752889            8 
 1683000   0.58240865   -8.8077895    220.76291  0.010931021 0.0097665794            2 
 1684000    0.5943391   -8.8195345    220.85247  0.010928962 0.0097578805            5 
 1685000   0.57919787   -8.8157996    220.83883  0.010921802  0.009749192            1 
 1686000   0.57456904   -8.8279302    220.57011  0.010902042 0.0097405206            3 
 1687000   0.57347791   -8.8160152    220.65714  0.010899878 0.0097318659            3 
 1688000   0.57470636   -8.8071061    221.10505  0.010915534  0.009723215            3 
 1689000   0.58802644   -8.8041955    220.47714  0.010878091  0.009714566            4 
 1690000   0.58233907   -8.8218655    220.39971  0.010867836 0.0097059226            5 
 1691000   0.57249626   -8.8096674    220.32021  0.010857491 0.0096972912            3 
 1692000    0.5828608   -8.8300703    220.57552  0.010863648 0.0096886625            2 
 1693000   0.56635243   -8.8275274    220.20582  0.010839034 0.0096800306            4 
 1694000   0.58178089   -8.8145996    220.68889    0.0108564 0.0096714173            7 
 1695000   0.57842587   -8.8255436    220.82815  0.010856841 0.0096628255            8 
 1696000    0.5744444   -8.8297875     221.0002  0.010858894 0.0096542306            9 
 1697000   0.57428883   -8.8293088    220.53192  0.010829499 0.0096456464            2 
 1698000   0.58680842    -8.810699    220.56175  0.010824585 0.0096370737           10 
 1699000   0.57305129   -8.8472329    220.27649  0.010804223 0.0096285115            6 
 1700000    0.5767062   -8.8254254    220.64627  0.010815994 0.0096199605            5 
 1701000   0.57480079   -8.8452721    220.47847  0.010801414 0.0096114128           10 
 1702000   0.57961455   -8.8280689    220.69449  0.010805645 0.0096028803           10 
 1703000   0.57694418   -8.8508886    220.57068  0.010793241 0.0095943437            5 
 1704000   0.56678102    -8.856557    220.59245  0.010787972 0.0095858121            4 
 1705000   0.57218265   -8.8422298    220.49027  0.010776651 0.0095772883            7 
 1706000   0.57436375   -8.8261515    220.81287  0.010786092 0.0095687852           12 
 1707000   0.56882026   -8.8333537    220.60506  0.010769628 0.0095602916            4 
 1708000   0.56896451   -8.8459866    220.37324  0.010752012 0.0095518088            6 
 1709000   0.57169722   -8.8494539    220.17896  0.010736247  0.009543319           10 
 1710000   0.57537743   -8.8610317    220.36368  0.010738971 0.0095348403            9 
 1711000    0.5720758   -8.8382623    220.30516  0.010729844  0.009526367           11 
 1712000    0.5726862   -8.8443965    220.47507  0.010731847 0.0095179097           13 
 1713000   0.57576838   -8.8383284     220.7824  0.010740533 0.0095094734           11 
 1714000   0.57279039   -8.8434683    220.60232  0.010725512 0.0095010374           11 
 1715000   0.56982807   -8.8579437     220.4599  0.010712337 0.0094926197            9 
 1716000   0.57302592   -8.8538075    220.45017  0.010705622 0.0094842086            4 
 1717000   0.57648585    -8.848885    220.14551    0.0106846 0.0094758122            7 
 1718000   0.56551265    -8.868593    220.02824  0.010672693 0.0094674229            5 
 1719000   0.57509239   -8.8513394    220.30222  0.010679766 0.0094590324            8 
 1720000   0.56294276   -8.8539902    220.88212  0.010701653 0.0094506659            7 
 1721000   0.56759404   -8.8420729     220.7669  0.010689856  0.009442302            9 
 1722000   0.55804947   -8.8536389    220.24458  0.010658371 0.0094339499            6 
 1723000   0.57189327    -8.832211    220.21225  0.010650621 0.0094255987            3 
 1724000    0.5572302   -8.8681597    220.11958  0.010639964 0.0094172549            1 
 1725000   0.57442037   -8.8443925    220.30345  0.010642679 0.0094089153            5 
 1726000    0.5584335   -8.8592484    220.49069  0.010645553 0.0094005852           12 
 1727000   0.57230874   -8.8668106    219.95241  0.010613415 0.0093922674            9 
 1728000   0.56618914   -8.8774877    220.28984  0.010623545 0.0093839544            2 
 1729000    0.5577011   -8.8553127    220.63714   0.01063414 0.0093756513            2 
 1730000   0.56939236   -8.8581654    220.48602  0.010620714  0.009367368            1 
 1731000   0.55157708   -8.8457022    220.31672  0.010606428 0.0093590884            1 
 1732000   0.55533519   -8.8851161      220.533   0.01061071 0.0093508105            7 
 1733000   0.55977271   -8.8579792    220.36661  0.010596586  0.009342547            1 
 1734000   0.56041579   -8.8621586    220.27302  0.010585978 0.0093342947            3 
 1735000   0.56185229   -8.8712021    220.52921  0.010592181 0.0093260607            2 
 1736000   0.56163998   -8.8577473    220.36806  0.010578344   0.00931783            2 
 1737000   0.54802332   -8.8578471    220.31715  0.010569811 0.0093095999            3 
 1738000   0.55558007   -8.8630664    220.15379  0.010555897 0.0093013895            2 
 1739000   0.55842341   -8.8489243    220.43901  0.010563495 0.0092931898            1 
 1740000   0.55603681   -8.8542709    220.25136  0.010548437 0.0092849894            1 
 1741000    0.5579678   -8.8563959    220.45929  0.010552331 0.0092768104            1 
 1742000   0.54737866    -8.871195    219.94656  0.010521745 0.0092686216            2 
 1743000   0.56656231   -8.8719815    219.72786  0.010505253 0.0092604436            2 
 1744000   0.55438416   -8.8701099    220.11886  0.010517912 0.0092522769            1 
 1745000   0.55225748   -8.8625474     220.2652  0.010518873 0.0092441152            1 
 1746000   0.55165216   -8.8553025    220.37855  0.010518258 0.0092359636            1 
 1747000   0.55523995   -8.8822166    220.12157   0.01049998 0.0092278201            4 
 1748000   0.55523892   -8.8767753    220.23075  0.010499178  0.009219672            2 
 1749000   0.55282994   -8.8644918     220.1544  0.010489537 0.0092115426            2 
 1750000   0.56756813   -8.8641647    219.98086  0.010475279 0.0092034225            2 
 1751000   0.54945014   -8.8704959    220.02681  0.010471483 0.0091953055            2 
 1752000   0.55510395   -8.8614943    219.82784  0.010456043 0.0091872085            2 
 1753000   0.55377283   -8.8622834    219.85629   0.01045143 0.0091791202            3 
 1754000   0.56067856   -8.8763274    220.37782   0.01047025 0.0091710308            2 
 1755000   0.56150925   -8.8644824    220.09342   0.01045078 0.0091629591            5 
 1756000   0.55818979   -8.8795325    220.13082  0.010446603 0.0091548976            3 
 1757000   0.55285724   -8.8850191    220.19974  0.010443926 0.0091468523            3 
 1758000   0.54447925   -8.8580154    220.18448  0.010437262 0.0091388166            3 
 1759000   0.55086949   -8.8564534    220.33511  0.010438465 0.0091307762            4 
 1760000   0.55100963   -8.8588896    219.98215  0.010415822 0.0091227535            2 
 1761000   0.55884858   -8.8595756    220.25609   0.01042287 0.0091147328            2 
 1762000   0.55268652   -8.8888155    220.05396  0.010407395 0.0091067128            3 
 1763000   0.54622125    -8.869877    220.06517  0.010402022 0.0090987108            1 
 1764000   0.54101926   -8.8709006    220.17631  0.010401375 0.0090907128            2 
 1765000   0.55020275   -8.8675803    220.57376  0.010414247 0.0090827272            2 
 1766000   0.55119725   -8.8863143    220.07586  0.010384856 0.0090747383            2 
 1767000   0.54919147    -8.899798    219.69434  0.010360986 0.0090667682            4 
 1768000   0.54459598   -8.8985707    220.19126  0.010378547   0.00905881            4 
 1769000    0.5466939   -8.8839161    220.10249  0.010368499 0.0090508513            5 
 1770000   0.54741564   -8.8975391    219.90853  0.010353509 0.0090428929            2 
 1771000   0.54392996   -8.8876791    219.98178   0.01035111 0.0090349456            3 
 1772000   0.53588357   -8.8893971    220.07773   0.01034978 0.0090270118            1 
 1773000   0.55388938   -8.8917853    220.03126  0.010341759  0.009019092            2 
 1774000   0.53171758   -8.8937979    220.17064  0.010342476 0.0090111711            1 
 1775000   0.55896455   -8.8663894     219.8221  0.010320286 0.0090032548            2 
 1776000   0.54738887    -8.881775    220.02905  0.010324186 0.0089953574            4 
 1777000   0.54258969    -8.893765    220.18649  0.010325759 0.0089874634            3 
 1778000   0.55139759    -8.887763    220.26784  0.010323765 0.0089795889            2 
 1779000    0.5433275   -8.9098241     219.7143  0.010292032 0.0089717154            4 
 1780000   0.54132993   -8.9107233    219.79892  0.010290212 0.0089638516            2 
 1781000   0.54412808   -8.8853419    219.84881  0.010286768 0.0089559908            3 
 1782000   0.54485882   -8.8830141    220.34587   0.01030424 0.0089481418            3 
 1783000   0.54834027   -8.8976879    219.64742  0.010265817 0.0089402984            2 
 1784000    0.5326766   -8.8910519    220.03561  0.010278195 0.0089324782            1 
 1785000   0.53499918   -8.8877949    220.05888  0.010273524 0.0089246541            4 
 1786000   0.54502019   -8.9196392    219.85149  0.010258095 0.0089168352            3 
 1787000   0.54740558    -8.903274     220.0721  0.010262642 0.0089090333            3 
 1788000   0.53593277   -8.8859091    219.70991  0.010240022 0.0089012294            1 
 1789000   0.53982284   -8.8928746    219.81214   0.01023906 0.0088934365            3 
 1790000   0.53918136   -8.9023624    219.94483  0.010239517 0.0088856555            1 
 1791000   0.54445495   -8.9052806    220.10742  0.010241365 0.0088778804            1 
 1792000   0.53917096   -8.9122693     220.2268  0.010241202 0.0088701164            2 
 1793000   0.53354569   -8.9081554    220.04993  0.010227269 0.0088623517            5 
 1794000   0.53703346   -8.8989768    220.04229  0.010221214 0.0088545945            2 
 1795000   0.54273209   -8.9244657     219.8561  0.010206876 0.0088468561            2 
 1796000    0.5316749   -8.8880353     219.8455  0.010200701 0.0088391209            3 
 1797000   0.53926072   -8.9095244     219.9655  0.010200589 0.0088313867            2 
 1798000   0.53755754   -8.9014526    219.96851  0.010195055 0.0088236716            1 
 1799000   0.54103002   -8.9076132    219.67584  0.010175831 0.0088159571            3 
 1800000    0.5261434   -8.9129458    219.94561  0.010182667 0.0088082529            3 
 1801000   0.52582402   -8.9080123    220.05605  0.010182123 0.0088005535            2 
 1802000   0.52608758   -8.9202125    219.41675  0.010146908 0.0087928648            4 
 1803000   0.53128404   -8.8999354    219.50832  0.010145513 0.0087851789            3 
 1804000   0.52983733   -8.9171807    220.07862  0.010166233 0.0087775077            3 
 1805000    0.5264949   -8.8942798    219.80586  0.010148008 0.0087698469            4 
 1806000   0.53133993   -8.8957354    219.74048  0.010139372 0.0087621929            1 
 1807000   0.52995244   -8.9077628    219.91541  0.010141829  0.008754545            3 
 1808000    0.5221507   -8.9166908    219.58096  0.010120804 0.0087469116            4 
 1809000   0.52468574   -8.9056099    219.97165  0.010133207 0.0087392825            2 
 1810000   0.52348606   -8.9016507    219.71574  0.010115826 0.0087316555            2 
 1811000   0.53065735   -8.9382388    220.04328  0.010125312 0.0087240347            2 
 1812000   0.52188315   -8.9258433    219.60092   0.01009938 0.0087164293            2 
 1813000    0.5310356   -8.9295315    219.47695  0.010088112 0.0087088218            4 
 1814000   0.53278082   -8.9244469    219.64746  0.010090383 0.0087012353            3 
 1815000   0.53675899   -8.9224332    219.98271  0.010100216  0.008693655            2 
 1816000   0.53064694   -8.9092547    219.62905  0.010078426  0.008686078            2 
 1817000   0.52455149   -8.9279953    219.70433  0.010076331 0.0086785022            5 
 1818000   0.53147893   -8.9200096    219.44772  0.010059026 0.0086709379            2 
 1819000    0.5205609   -8.9195854    219.46223  0.010054161  0.008663375            1 
 1820000   0.52382618   -8.9139175    219.33104   0.01004263 0.0086558218            4 
 1821000   0.53176274    -8.946145    219.25368  0.010033575 0.0086482802            3 
 1822000   0.52813137   -8.9284193    219.48197  0.010038509 0.0086407422            2 
 1823000    0.5249033   -8.9300116    219.74129  0.010044857 0.0086332191            2 
 1824000   0.52219168   -8.9237065    219.63833  0.010034646 0.0086257018            9 
 1825000    0.5217976   -8.9199762    219.58125  0.010026541 0.0086181866            3 
 1826000   0.53276078   -8.9390761    219.32371  0.010009297 0.0086106922            2 
 1827000   0.52567335   -8.9238862    219.29973  0.010002724 0.0086031978            2 
 1828000   0.52587334   -8.9160114    219.44611  0.010003925 0.0085957103            3 
 1829000   0.51874644   -8.9404412    219.69635  0.010009857 0.0085882346            3 
 1830000   0.51370674   -8.9395471    219.67745  0.010003527 0.0085807689            2 
 1831000   0.51742883   -8.9235363    219.40632 0.0099857238 0.0085733066            2 
 1832000   0.53152068   -8.9403439     219.4828 0.0099837518 0.0085658519            3 
 1833000   0.51992001   -8.9376158    219.85771 0.0099953497 0.0085583983            4 
 1834000   0.52034178   -8.9286944    219.61989 0.0099790934 0.0085509606            3 
 1835000   0.51908056    -8.931236    219.39759   0.00996356 0.0085435318            1 
 1836000   0.52148991   -8.9241695    219.83565 0.0099780161 0.0085361223            2 
 1837000   0.52815475   -8.9337792    219.08274 0.0099384297 0.0085287107            2 
 1838000   0.51842374   -8.9436772    219.71085 0.0099615004 0.0085212975            2 
 1839000   0.51965353   -8.9373156    219.39441 0.0099417444 0.0085138903            2 
 1840000   0.51055723   -8.9300024    219.35667 0.0099346317 0.0085065023            3 
 1841000   0.52752274   -8.9369315    219.32893   0.00992798 0.0084991218            3 
 1842000   0.52151349   -8.9318685    219.16888 0.0099153491 0.0084917438            3 
 1843000   0.51404456   -8.9336619    219.32444 0.0099170033 0.0084843712            1 
 1844000   0.52002852   -8.9444761    219.54608 0.0099216415 0.0084770114            3 
 1845000   0.52972074   -8.9378822    219.51791 0.0099149912 0.0084696653            2 
 1846000   0.52322877   -8.9380679    219.16267 0.0098935837 0.0084623193            2 
 1847000   0.52210777   -8.9345237    219.61128 0.0099084679 0.0084549868            2 
 1848000   0.51426275   -8.9655377    219.23328 0.0098860604 0.0084476553            2 
 1849000   0.50723203   -8.9440024    220.05649 0.0099178154 0.0084403359            2 
 1850000   0.51290442   -8.9406649    219.29092 0.0098779692 0.0084330275            3 
 1851000    0.5091141    -8.940618    219.34586 0.0098751061 0.0084257246            4 
 1852000   0.51780227   -8.9458579    219.15955 0.0098613908 0.0084184208            2 
 1853000   0.50500485    -8.936112    219.41394 0.0098675096 0.0084111289            4 
 1854000   0.51780342   -8.9517287    218.90262 0.0098392046 0.0084038478            3 
 1855000   0.51656232   -8.9437449    219.52939 0.0098620571 0.0083965813            3 
 1856000   0.50082944   -8.9481812    219.22367 0.0098430168 0.0083893184            2 
 1857000   0.51732824   -8.9482466    219.15717 0.0098347319 0.0083820661            2 
 1858000   0.50923146    -8.958664    219.51198 0.0098453526 0.0083748144            2 
 1859000      0.50552   -8.9508304    219.31677 0.0098313057 0.0083675722            6 
 1860000    0.5171738   -8.9541818    219.36956 0.0098283854 0.0083603363            2 
 1861000   0.51959347   -8.9471929    219.91392 0.0098474797 0.0083531158            2 
 1862000   0.51426578   -8.9508498    219.21261 0.0098108044 0.0083459001            4 
 1863000   0.50356171   -8.9464031    219.61464 0.0098235212 0.0083386862            3 
 1864000   0.50256289   -8.9513913    219.16726 0.0097982501 0.0083314802            3 
 1865000   0.51578224   -8.9689855    219.19004 0.0097940142 0.0083242811            3 
 1866000   0.50249468   -8.9435154    219.49611 0.0098024345 0.0083170923            2 
 1867000   0.50763418   -8.9582205    219.41921 0.0097937516 0.0083099071            4 
 1868000    0.5128844    -8.949335    219.01308 0.0097703908 0.0083027351            5 
 1869000   0.49438174   -8.9511745    219.30101  0.009778001 0.0082955675            5 
 1870000   0.50225225   -8.9671532    219.24594 0.0097703181 0.0082884062            4 
 1871000   0.50111751   -8.9576715    219.40363 0.0097721196 0.0082812597            3 
 1872000   0.51003297   -8.9577959    219.05217 0.0097512538 0.0082741191            3 
 1873000   0.50872527   -8.9439339    219.17308 0.0097514273 0.0082669896            3 
 1874000   0.50456274   -8.9583471    219.32072 0.0097527889 0.0082598564            2 
 1875000   0.51513094   -8.9596594    218.91943 0.0097297525 0.0082527376            2 
 1876000   0.50400984   -8.9643447    218.79618 0.0097190911 0.0082456214            2 
 1877000   0.50230182   -8.9696334    219.20459 0.0097320452 0.0082385131            3 
 1878000   0.49763488   -8.9498817    218.90598 0.0097136128 0.0082314129            3 
 1879000   0.51572681   -8.9596291    218.95414 0.0097105792  0.008224318            2 
 1880000     0.508225   -8.9690663    218.95368 0.0097053938 0.0082172265            3 
 1881000   0.50918335   -8.9606262      219.067 0.0097052544 0.0082101609            3 
 1882000   0.49213076   -8.9752765    219.07247 0.0097003397 0.0082030904            3 
 1883000   0.49217081    -8.961324    219.06125 0.0096946915 0.0081960302            2 
 1884000   0.49621078   -8.9738191    219.11388 0.0096918737  0.008188978            2 
 1885000   0.50587464   -8.9740667    219.13847 0.0096878194 0.0081819413            4 
 1886000    0.4982829   -8.9553518    218.95861 0.0096747352 0.0081749057            2 
 1887000   0.49265829   -8.9755581    218.83494  0.009664147 0.0081678763            3 
 1888000   0.48846857   -8.9892175    219.20512 0.0096753672 0.0081608566            4 
 1889000   0.49310403   -8.9771287    218.74805 0.0096500817 0.0081538403            4 
 1890000   0.48309909    -8.973212    219.17077 0.0096636141 0.0081468283            3 
 1891000   0.49882326   -8.9688257    219.34596 0.0096662241 0.0081398286            4 
 1892000   0.50803775   -8.9705992     219.1248 0.0096513744 0.0081328456            4 
 1893000   0.49515811   -8.9776679    218.81614 0.0096326878 0.0081258643            2 
 1894000   0.49375607   -8.9863352    219.17539 0.0096434086 0.0081188868            3 
 1895000   0.50060222   -8.9733078    219.15768 0.0096375411 0.0081119117            3 
 1896000   0.49749029   -8.9629491    219.24004 0.0096360778  0.008104946            2 
 1897000    0.4820382   -8.9743278    218.86953 0.0096147218 0.0080979887            2 
 1898000   0.49043086   -8.9644715    219.17803  0.009623201  0.008091041            2 
 1899000   0.50326926   -8.9696619    219.12816 0.0096159452 0.0080841048            7 
 1900000   0.51340829   -8.9773255     219.0133 0.0096058465 0.0080771733            2 
 1901000   0.48305412   -8.9705335    219.12332 0.0096056162  0.008070242            3 
 1902000   0.49192598   -8.9800296     218.9224 0.0095917633 0.0080633307            2 
 1903000    0.4912959   -8.9775019    219.22344 0.0095999054 0.0080564214            3 
 1904000   0.49525887   -8.9689483    218.79354 0.0095760476 0.0080495207            3 
 1905000   0.49004728   -8.9770708    218.95035 0.0095778804 0.0080426309            2 
 1906000    0.4962532   -8.9631336     219.0887 0.0095789041 0.0080357496            2 
 1907000   0.48921812   -8.9856076    218.90317 0.0095657738 0.0080288643            4 
 1908000   0.47533711   -8.9817478    218.92972 0.0095619202 0.0080219971            3 
 1909000   0.49185563   -8.9691028    218.90542 0.0095558502 0.0080151279            3 
 1910000   0.50369904   -8.9782884    219.19696 0.0095635672 0.0080082746            3 
 1911000   0.48922797   -8.9743165    219.06282 0.0095527133 0.0080014274            3 
 1912000   0.49574277   -8.9706217    219.01914 0.0095458133 0.0079945855            1 
 1913000   0.48655884   -8.9814353    218.80839 0.0095316426 0.0079877491            2 
 1914000   0.48509753   -8.9939579    218.88743 0.0095301042 0.0079809217            1 
 1915000   0.49283593   -8.9815981    218.90168 0.0095257476 0.0079741033            3 
 1916000   0.49864983    -8.987437    219.11953  0.009530251 0.0079672973            3 
 1917000   0.48784493   -8.9847433    218.87421 0.0095146153 0.0079604954            3 
 1918000   0.47463502   -8.9857358    218.72221 0.0095030507 0.0079537005            3 
 1919000    0.4866251   -8.9952907    218.47011 0.0094871511 0.0079469134            2 
 1920000   0.49555224   -8.9726525    218.90276 0.0095009879 0.0079401291            3 
 1921000   0.49052115    -8.997887    219.01489  0.009500906 0.0079333562            1 
 1922000   0.49501008   -8.9847974      219.188 0.0095034686 0.0079265932            2 
 1923000   0.47864849   -8.9984723    218.99026 0.0094899577 0.0079198333            2 
 1924000   0.47230327   -8.9772381    218.90768 0.0094814483 0.0079130878            2 
 1925000   0.48026421   -8.9895437    218.84396 0.0094737644 0.0079063498            5 
 1926000   0.47426832   -8.9940074    219.02823 0.0094768186 0.0078996086            2 
 1927000   0.49229022   -9.0085061    218.89098 0.0094659653 0.0078928885            5 
 1928000   0.49635585   -8.9954693    218.89422 0.0094611953 0.0078861661            1 
 1929000    0.4782936   -8.9899842    218.98587 0.0094602502 0.0078794454            2 
 1930000    0.4721739   -8.9818361     218.9118 0.0094521505 0.0078727402            3 
 1931000   0.48868528   -8.9906727    218.77795 0.0094414788 0.0078660428            2 
 1932000   0.48262936   -8.9864468    219.06937 0.0094491619 0.0078593528            3 
 1933000   0.48906089   -8.9854943    218.72034 0.0094292267 0.0078526663            2 
 1934000   0.47746895    -9.011868    218.77069 0.0094265206 0.0078459863            2 
 1935000   0.47731709   -8.9971914    218.94292 0.0094290665 0.0078393146            3 
 1936000   0.47755541   -8.9883003    218.73119 0.0094150824 0.0078326505            3 
 1937000   0.47815025   -8.9751529    218.74876 0.0094109773 0.0078259939            1 
 1938000   0.47486107   -9.0028675     218.8102 0.0094087635 0.0078193484            3 
 1939000    0.4692065   -9.0123831    218.52471 0.0093916413 0.0078127088            2 
 1940000   0.47130732   -9.0046994    218.70076 0.0093943623 0.0078060714            1 
 1941000   0.47601885   -8.9983882    218.71843 0.0093902812 0.0077994418            3 
 1942000   0.46150819   -9.0043828    218.89925 0.0093932048  0.007792812            3 
 1943000   0.47220496   -9.0150914    218.71244 0.0093803586 0.0077861967            3 
 1944000   0.47030041   -9.0104192    218.60888 0.0093710939 0.0077795858            1 
 1945000   0.47386873   -9.0047808     218.6239 0.0093669195 0.0077729794            2 
 1946000   0.47765119   -8.9920378    218.63269 0.0093624826 0.0077663817            2 
 1947000   0.47332858   -8.9997559    218.75259 0.0093628054 0.0077597952            6 
 1948000   0.47771129   -9.0030062    218.89776 0.0093642094 0.0077532153            2 
 1949000   0.47163021   -9.0026546    218.70047 0.0093509693  0.007746653            3 
 1950000    0.4734338   -9.0067777    218.56438 0.0093403582 0.0077400917            5 
 1951000   0.46972209   -8.9918315    218.85369  0.009347928 0.0077335375            2 
 1952000   0.46777051   -9.0186985     218.8401 0.0093425588 0.0077269816            2 
 1953000   0.47146229   -9.0182317    218.56605 0.0093260815 0.0077204356            2 
 1954000   0.48363162   -9.0026453    218.56664 0.0093213341 0.0077138976            5 
 1955000   0.46999076   -9.0220702    218.94096 0.0093325219 0.0077073616            3 
 1956000   0.48013059   -9.0122124    218.64389  0.009315094 0.0077008383            2 
 1957000   0.46597671   -9.0205615    218.34196 0.0092974774 0.0076943216            2 
 1958000   0.46539431   -9.0144636    218.77296 0.0093110725 0.0076878113            3 
 1959000   0.46337566   -9.0173613    218.91429 0.0093123314 0.0076813069            3 
 1960000   0.47065488   -9.0196062    218.61655 0.0092949215 0.0076748053            4 
 1961000    0.4649439   -9.0187261     218.6109 0.0092899416 0.0076683124            4 
 1962000   0.47202259   -9.0032861    218.57909 0.0092838552 0.0076618286            2 
 1963000   0.47337182   -9.0106583    218.65496 0.0092823466 0.0076553512            3 
 1964000   0.45641787   -9.0196328    218.73914 0.0092811921 0.0076488833            4 
 1965000   0.46496163   -9.0165439    218.46403  0.009264802 0.0076424232            2 
 1966000    0.4650422   -9.0137549    218.51884 0.0092624127 0.0076359694            4 
 1967000   0.46123905   -9.0140898    218.57461 0.0092600664 0.0076295247            2 
 1968000   0.46949019   -9.0207575    218.50688 0.0092524931 0.0076230898            2 
 1969000   0.46408977   -9.0212494    218.58112 0.0092509361 0.0076166539            3 
 1970000   0.46257431   -9.0341795     218.4788 0.0092419119 0.0076102274            1 
 1971000   0.47500341   -9.0204955    218.80312 0.0092509353 0.0076038136            3 
 1972000   0.47121622   -9.0216378    218.59146 0.0092372998 0.0075974022            4 
 1973000    0.4770147   -9.0364323     218.6186 0.0092337641 0.0075909967            3 
 1974000   0.46296023    -9.017989    218.80867 0.0092371104 0.0075845989            3 
 1975000   0.46109895    -9.009805    218.32252 0.0092119207 0.0075782023            1 
 1976000   0.45173287   -9.0287977    218.53674 0.0092162932 0.0075718169            2 
 1977000   0.46552263   -9.0320067    218.42525 0.0092069318 0.0075654372            3 
 1978000   0.47031014     -9.02931    218.63183 0.0092109803 0.0075590767            5 
 1979000   0.46986944   -9.0215225    218.33133 0.0091936725 0.0075527139            3 
 1980000   0.47218448   -9.0243963     218.8637 0.0092114352 0.0075463633            2 
 1981000   0.46898196    -9.026205    218.38319 0.0091865719 0.0075400118            1 
 1982000   0.44597319   -9.0249737    218.64575 0.0091929766 0.0075336705            2 
 1983000   0.46381153   -9.0299334    218.43235 0.0091793727 0.0075273356            6 
 1984000   0.45416228   -9.0244548    218.15961   0.00916329 0.0075210047            3 
 1985000   0.46600877   -9.0244636    218.50903 0.0091733432 0.0075146882            3 
 1986000   0.45862598   -9.0319882    218.43579 0.0091656506 0.0075083697            2 
 1987000   0.46079354   -9.0143983    218.48204 0.0091629777 0.0075020616            5 
 1988000   0.46400758   -9.0119287    218.49455 0.0091588928 0.0074957644            1 
 1989000   0.46064813   -9.0293137    218.67519 0.0091618566 0.0074894757            2 
 1990000   0.45993584   -9.0214335    218.31849 0.0091423153 0.0074831846            3 
 1991000   0.45031703   -9.0294839    218.53637 0.0091468429  0.007476901            2 
 1992000   0.46559366   -9.0414275    218.38179 0.0091357843 0.0074706282            2 
 1993000   0.46053447    -9.035155    218.22006 0.0091244379 0.0074643588            2 
 1994000   0.44888866   -9.0250321    218.29503 0.0091229953 0.0074580942            2 
 1995000   0.45983014   -9.0427724    218.32997 0.0091198817 0.0074518366            2 
 1996000   0.45319798   -9.0225414    218.45558 0.0091205571 0.0074455871            2 
 1997000   0.45770353   -9.0333154    218.39738 0.0091135612 0.0074393425            3 
 1998000   0.45078068   -9.0243676    218.31523 0.0091055735  0.007433112            3 
 1999000   0.45836629   -9.0331203    218.57427 0.0091118173 0.0074268924            2 
 2000000   0.45374069      -9.0354    218.35852 0.0090982719 0.0074206751            3 
 2001000   0.45115669    -9.030312    218.74566 0.0091098476 0.0074144617            1 
 2002000   0.45042451   -9.0245165    218.37275 0.0090897748 0.0074082555            5 
 2003000   0.45058363   -9.0342702    218.68265   0.00909813 0.0074020637            3 
 2004000    0.4551225    -9.041462    218.38846 0.0090813566 0.0073958689            5 
 2005000   0.45472178   -9.0416989    218.24243 0.0090707576 0.0073896888            3 
 2006000   0.44950364   -9.0269419    217.97715 0.0090552157 0.0073835084            3 
 2007000   0.45159673   -9.0388875    218.65976 0.0090790467 0.0073773361            5 
 2008000   0.45589774   -9.0510542    218.36679 0.0090623667 0.0073711676            2 
 2009000   0.44484426   -9.0287154      218.243  0.009052721 0.0073650083            3 
 2010000   0.45418891   -9.0418836    218.02073 0.0090390021 0.0073588524            3 
 2011000   0.45874072   -9.0382037    218.19693 0.0090418088 0.0073527082            6 
 2012000   0.45365748   -9.0201557    218.23706  0.009038977 0.0073465696            3 
Loop time of 4993.11 on 48 procs for 2000000 steps with 4000 atoms

Performance: 69215.335 tau/day, 400.552 timesteps/s
99.4% CPU use with 48 MPI tasks x no OpenMP threads

MPI task timing breakdown:
Section |  min time  |  avg time  |  max time  |%varavg| %total
---------------------------------------------------------------
Pair    | 318.85     | 350.51     | 371.04     |  64.6 |  7.02
Neigh   | 32.776     | 34.344     | 36.02      |  13.4 |  0.69
Comm    | 314.19     | 337.35     | 371.08     |  70.5 |  6.76
Output  | 4.2499     | 4.2516     | 4.2853     |   0.2 |  0.09
Modify  | 4207.9     | 4221       | 4241.4     |   9.6 | 84.54
Other   |            | 45.6       |            |       |  0.91

Nlocal:        83.3333 ave          89 max          76 min
Histogram: 1 0 3 12 4 6 8 3 5 6
Nghost:        2205.44 ave        2229 max        2177 min
Histogram: 1 2 1 6 8 14 9 1 2 4
Neighs:        14725.1 ave       16344 max       13426 min
Histogram: 3 6 7 9 2 7 6 3 3 2
FullNghs:      29448.4 ave       31342 max       26982 min
Histogram: 1 2 6 6 5 8 5 2 6 7

Total # of neighbors = 1413522
Ave neighs/atom = 353.38050
Neighbor list builds = 106715
Dangerous builds = 1

#clear
#
#next RN
#
#jump SELF
Total wall time: 1:23:16
