
units lj                  # Use reduced LJ style units
atom_style atomic         # Uncharged point particles
atom_modify map hash      # Needed for indexing of clusters etc
                          # Used to be able to find where atoms are in relation to each other.

lattice fcc 1.0 spacing 1 1 1
Lattice spacing in x,y,z = 1.5874011 1.5874011 1.5874011
region box block 0 10 0 10 0 10 units lattice
create_box 2 box
Created orthogonal box = (0.0000000 0.0000000 0.0000000) to (15.874011 15.874011 15.874011)
  3 by 4 by 4 MPI processor grid
create_atoms 1 box
Created 4000 atoms
  using lattice units in orthogonal box = (0.0000000 0.0000000 0.0000000) to (15.874011 15.874011 15.874011)
  create_atoms CPU = 0.026 seconds
set type 1 type/fraction 2 0.99 78393
Setting atom values ...
  3965 settings made for type/fraction
mass 1 1.0
mass 2 1.0
pair_style lj/cut  3.5
pair_modify tail  yes
pair_coeff 1  1  1.0  1.0   # Intearaction between 1 and 1 set with epsilon = 1 and sigma = 1
pair_coeff 1  2  1.5  0.8
pair_coeff 2  2  0.5  0.88

write_data data.0
System init for write_data ...
Neighbor list info ...
  update every 1 steps, delay 10 steps, check yes
  max neighbors/atom: 2000, page size: 100000
  master list distance cutoff = 3.8
  ghost atom cutoff = 3.8
  binsize = 1.9, bins = 9 9 9
  1 neighbor lists, perpetual/occasional/extra = 1 0 0
  (1) pair lj/cut, perpetual
      attributes: half, newton on
      pair build: half/bin/atomonly/newton
      stencil: half/bin/3d
      bin: standard
WARNING: Not all mixed pair coeffs generated from mixing. Use write_data with 'pair ij' option to store all pair coeffs. (../write_data.cpp:312)


#############################
#   M E L T   S Y S T E M   #
#############################

velocity all create 2.4 5833274 mom yes dist gaussian # Assign velocities
                                                    # Temperature 2.4, random number seed, zero linear momentum
                                                                                # Gaussian distribution

timestep 0.002   # simulation timestep
thermo 1000       # output thermodynamic data every 1000 steps bf 100

# Define a fix  in this case with index 1 applied to all
# particles in the simulation. This fix is for simulations
# in the anisotropic NPT ensemble. Note that we use the MTK
# correction.
fix 1 all npt temp 2.4 2.4 0.1 iso 5.68 5.68 0.5 mtk yes tchain 5 pchain 5 # Use NPT ensemble
                                                                         # Set temperature and pressure and damping
                                                                         # Numbers of thermostats in chain and in barostat
run 10000          # run for 10000 steps
Per MPI rank memory allocation (min/avg/max) = 3.642 | 3.644 | 3.648 Mbytes
Step Temp E_pair E_mol TotEng Press Volume 
       0          2.4   -2.7429598            0   0.85614022   -1.7792645         4000 
    1000    2.4104989   -1.4633926            0    2.1514518     6.020558    4203.6727 
    2000    2.3742645   -1.5156334            0    2.0448731    5.7252852    4213.0739 
    3000    2.4569106    -1.552007            0    2.1324375    5.5323928    4227.8234 
    4000    2.4109818   -1.4839353            0    2.1316333    5.8121728    4220.9384 
    5000    2.3935563   -1.5556299            0    2.0338069    5.3699366    4247.5489 
    6000    2.3664587    -1.500028            0    2.0487727    5.6000853    4256.3998 
    7000    2.3697562   -1.5035837            0     2.050162    5.9049973    4175.1038 
    8000    2.3610845   -1.4882234            0     2.052518    5.5820623    4265.8706 
    9000    2.4051711   -1.5257821            0    2.0810726    5.6485647    4225.9086 
   10000    2.4425848   -1.4526002            0    2.2103611    5.9302961     4256.929 
Loop time of 2.37753 on 48 procs for 10000 steps with 4000 atoms

Performance: 726803.825 tau/day, 4206.041 timesteps/s
99.6% CPU use with 48 MPI tasks x no OpenMP threads

MPI task timing breakdown:
Section |  min time  |  avg time  |  max time  |%varavg| %total
---------------------------------------------------------------
Pair    | 1.0291     | 1.0885     | 1.179      |   2.6 | 45.78
Neigh   | 0.20401    | 0.2095     | 0.21819    |   0.6 |  8.81
Comm    | 0.71016    | 0.8098     | 0.86608    |   3.4 | 34.06
Output  | 0.0002425  | 0.00024709 | 0.00031237 |   0.0 |  0.01
Modify  | 0.23465    | 0.25468    | 0.27573    |   2.1 | 10.71
Other   |            | 0.01484    |            |       |  0.62

Nlocal:        83.3333 ave          92 max          72 min
Histogram: 1 1 3 6 6 7 9 6 2 7
Nghost:        1572.21 ave        1597 max        1551 min
Histogram: 3 3 4 9 7 11 5 4 0 2
Neighs:        8963.79 ave       10097 max        7693 min
Histogram: 2 2 4 9 5 10 3 2 8 3

Total # of neighbors = 430262
Ave neighs/atom = 107.56550
Neighbor list builds = 907
Dangerous builds = 224

# Equilibrate just above the melting temperature to avoid step fn in T

fix 1 all npt temp 1.25 1.25 0.1 iso 5.68 5.68 0.5 mtk yes tchain 5 pchain 5
run 2000
Per MPI rank memory allocation (min/avg/max) = 3.643 | 3.645 | 3.649 Mbytes
Step Temp E_pair E_mol TotEng Press Volume 
   10000    2.4425848   -1.4526002            0    2.2103611    5.9302961     4256.929 
   11000    1.2526632    -2.304537            0  -0.42601192    5.6577037    3330.6248 
   12000    1.2456711   -2.3092455            0  -0.44120594    5.6780778    3321.9706 
Loop time of 0.58062 on 48 procs for 2000 steps with 4000 atoms

Performance: 595226.119 tau/day, 3444.596 timesteps/s
99.6% CPU use with 48 MPI tasks x no OpenMP threads

MPI task timing breakdown:
Section |  min time  |  avg time  |  max time  |%varavg| %total
---------------------------------------------------------------
Pair    | 0.25303    | 0.27531    | 0.31209    |   2.2 | 47.42
Neigh   | 0.038451   | 0.040514   | 0.046891   |   0.7 |  6.98
Comm    | 0.17375    | 0.21619    | 0.24298    |   2.9 | 37.23
Output  | 5.1938e-05 | 5.3332e-05 | 6.7556e-05 |   0.0 |  0.01
Modify  | 0.040952   | 0.043983   | 0.048131   |   0.8 |  7.58
Other   |            | 0.004577   |            |       |  0.79

Nlocal:        83.3333 ave          91 max          75 min
Histogram: 2 3 3 9 7 7 8 0 5 4
Nghost:        1863.92 ave        1885 max        1842 min
Histogram: 6 1 2 8 3 8 9 3 4 4
Neighs:        11509.5 ave       13375 max        9803 min
Histogram: 1 6 1 10 7 10 7 4 1 1

Total # of neighbors = 552456
Ave neighs/atom = 138.11400
Neighbor list builds = 145
Dangerous builds = 18

#############################
# L I N E A R  Q U E N C H  #
#############################

# Define solid atoms. This closely follows ten Wolde  Ruiz-Montero and Frenkel  Faraday Discuss  1996  104  93-110
# Compute components of the per-atom q6 vector
compute q6 all orientorder/atom degrees 1 6 components 6 nnn NULL cutoff 1.3 # compute the Q6 parameter.
                                                                             # Use all neighbours within 1.3 unit cell.

# get number of connections
compute coord_number all coord/atom orientorder q6 0.5

# An atom is solid if it has 8 or more connections (of a possible 14)
variable is_solid atom c_coord_number>=8
group solid dynamic all var is_solid    # Must be dynamic to update
dynamic group solid defined

# do clustering
compute cluster solid cluster/atom 1.3 # Create a cluster where all atoms within are solid and max 1.3 units from another member

# define chunks one chunk per cluster
compute clus_chunks solid chunk/atom c_cluster nchunk every compress yes  # Says which atoms are in which chunk

# count the size of each chunk
compute size_chunks solid property/chunk clus_chunks count


# Find the maximum entry in the vector of chunk sizes
variable max_n equal max(c_size_chunks)


# Thermo style which includes this variable
# thermo_style custom step temp pe vol v_max_n

thermo ${N}  # Print the thermo information every 100 steps
thermo 1000  

# Reset the npt fix at a lower temperature (below freezing)
fix 1  all npt temp  ${temp} ${temp}  0.1  iso  5.68  5.68  0.5  mtk yes tchain  5  pchain  5
fix 1  all npt temp  0.45 ${temp}  0.1  iso  5.68  5.68  0.5  mtk yes tchain  5  pchain  5
fix 1  all npt temp  0.45 0.45  0.1  iso  5.68  5.68  0.5  mtk yes tchain  5  pchain  5

dump dmp2 all dcd ${N} traj.dcd
dump dmp2 all dcd 1000 traj.dcd


compute msd all msd com yes
variable twopoint equal c_msd[4]/6/(step*dt+1.0e-6)
fix 9 all vector 10 c_msd[4]
variable fit equal slope(f_9)/6/(10*dt)
thermo_style custom step temp pe c_msd[4] v_twopoint v_fit v_max_n

fix 1 all npt temp 1.25 ${temp} 0.1 iso 5.68 5.68 0.5 mtk yes tchain 5 pchain 5
fix 1 all npt temp 1.25 0.45 0.1 iso 5.68 5.68 0.5 mtk yes tchain 5 pchain 5
run 2000000 # 5000000  # Run for this many steps
Neighbor list info ...
  update every 1 steps, delay 10 steps, check yes
  max neighbors/atom: 2000, page size: 100000
  master list distance cutoff = 3.8
  ghost atom cutoff = 3.8
  binsize = 1.9, bins = 8 8 8
  4 neighbor lists, perpetual/occasional/extra = 1 3 0
  (1) pair lj/cut, perpetual
      attributes: half, newton on
      pair build: half/bin/atomonly/newton
      stencil: half/bin/3d
      bin: standard
  (2) compute orientorder/atom, occasional
      attributes: full, newton on
      pair build: full/bin/atomonly
      stencil: full/bin/3d
      bin: standard
  (3) compute coord/atom, occasional
      attributes: full, newton on
      pair build: full/bin/atomonly
      stencil: full/bin/3d
      bin: standard
  (4) compute cluster/atom, occasional
      attributes: full, newton on
      pair build: full/bin/atomonly
      stencil: full/bin/3d
      bin: standard
Per MPI rank memory allocation (min/avg/max) = 9.811 | 9.815 | 9.821 Mbytes
Step Temp PotEng c_msd[4] v_twopoint v_fit v_max_n 
   12000    1.2456711   -2.3092455 3.9443045e-34 2.7391003e-36 8.3333333e+20            1 
   13000    1.2495862   -2.3116543    1.1402271 0.0073091476   0.09716923            2 
   14000    1.2408754   -2.3086622    2.4042778  0.014311177   0.10138546            1 
   15000    1.2471608   -2.3522636    3.7269687  0.020705381    0.1040461            5 
   16000    1.2708495   -2.3258368    5.0921893  0.026521819   0.10613359            2 
   17000    1.2520644   -2.3135905    6.3859804  0.031303824   0.10853003            1 
   18000      1.25267    -2.332398    7.5912433  0.035144644   0.10789747            2 
   19000    1.2396548   -2.3293301    8.9645897  0.039318375   0.10808208            3 
   20000    1.2471915   -2.3292637     10.39287  0.043303625   0.10894645            4 
   21000    1.1988204   -2.3126747    11.731847  0.046554948   0.10932734            2 
   22000    1.2593484    -2.321073    13.124734    0.0497149   0.11012713            1 
   23000    1.2363044   -2.2965639    14.392756  0.052147667    0.1106392            2 
   24000    1.2443117   -2.3164549    15.831335  0.054969911   0.11097911            1 
   25000    1.2355821   -2.3132712    16.974879   0.05658293   0.11087931            1 
   26000    1.2283274   -2.3734672    18.149034   0.05816998   0.11057653            2 
   27000    1.2577973   -2.2981162    19.690765  0.060773966   0.11046803            1 
   28000     1.275541   -2.3284133    21.118665   0.06285317   0.11057114            1 
   29000    1.2616362   -2.3019379    22.569588  0.064855135   0.11095858            5 
   30000    1.2638514   -2.3333633    23.892039  0.066366774   0.11121484            1 
   31000    1.2595981   -2.3246983     25.44733  0.068406799   0.11144775            1 
   32000    1.2422795   -2.3260082    26.590072  0.069244977   0.11172254            2 
   33000    1.2273274   -2.3017884    28.192212  0.071192453    0.1119405            2 
   34000    1.2399277   -2.3128639    29.521612  0.072356892   0.11218959            1 
   35000    1.1981176   -2.3233676    30.768586  0.073258536   0.11237655            1 
   36000    1.2389304   -2.3188355    32.242186  0.074634689   0.11247362            2 
   37000    1.2215088   -2.3027799    33.401969  0.075229658   0.11258415            1 
   38000     1.223238   -2.3249109    34.536472  0.075737876   0.11254266            1 
   39000      1.23555   -2.3505105    36.035537  0.076999011   0.11246843            1 
   40000    1.2671466   -2.3352755    37.323204  0.077756675   0.11250061            1 
   41000    1.2592567   -2.3478112    38.734578  0.078728817   0.11253577            1 
   42000    1.2246351    -2.321841    40.099733  0.079562961   0.11251067            2 
   43000    1.2474752   -2.3117928    41.324077   0.08008542   0.11249802            2 
   44000    1.2612398   -2.3338432    42.824287  0.081106604   0.11244794            1 
   45000    1.2201503   -2.3508313    44.348001  0.082125926   0.11243865            1 
   46000     1.243749   -2.3002831     45.87142  0.083100398   0.11256035            1 
   47000    1.2526057    -2.333286      46.8923  0.083142375    0.1126008            3 
   48000    1.2112332   -2.3532183    48.415437  0.084054577   0.11265535            1 
   49000    1.2107964   -2.3048896    49.711757  0.084543804   0.11268736            2 
   50000     1.210351   -2.3237903    50.820807  0.084701344   0.11266864            2 
   51000    1.2343453   -2.3642168    51.690523  0.084461639   0.11259785            1 
   52000     1.220809   -2.3665648    53.082879  0.085068716   0.11245977            1 
   53000    1.2391588   -2.3366399    54.584739  0.085825061   0.11235518            5 
   54000    1.2263637   -2.3007675    56.322337  0.086917186   0.11226387            1 
   55000    1.2376457   -2.3243501    57.969856  0.087833114   0.11223637            1 
   56000    1.2394436   -2.3466615    59.321097  0.088275441   0.11233451            1 
   57000    1.2251553   -2.3207206    61.189858  0.089458855   0.11246152            1 
   58000    1.2581208   -2.3413318      62.4339  0.089703879   0.11261374            1 
   59000    1.2463259   -2.3542877    64.039151  0.090450777   0.11278295            1 
   60000    1.2499106   -2.3372658    64.975076   0.09024316   0.11288327       -1e+20 
   61000    1.2111329   -2.3643579    66.283527  0.090551266     0.112916            1 
   62000    1.2122245   -2.3674066    67.177917  0.090292899   0.11293263            3 
   63000    1.2333024   -2.3288384    68.784928  0.090985353   0.11295644            1 
   64000    1.2152295   -2.3398643    70.002872  0.091149572     0.112978            1 
   65000    1.2001583   -2.3619478    71.491905  0.091656288   0.11299166            1 
   66000    1.2183449   -2.3555679    73.075596  0.092267166   0.11304554            1 
   67000    1.2249321   -2.3404242     73.84297  0.091844489   0.11303737            1 
   68000    1.2214816   -2.3552488     75.15562  0.092102475   0.11302265            1 
   69000    1.2277862     -2.33815    76.322026  0.092176359   0.11296869            3 
   70000    1.2209429   -2.3074937    77.879007  0.092713103   0.11290563            3 
   71000    1.2360194   -2.3212733    78.523093  0.092163254   0.11281435            3 
   72000    1.2286893   -2.3066555    79.999236  0.092591708   0.11271747            1 
   73000    1.2414989    -2.319466    82.029889  0.093641425   0.11266654            3 
   74000    1.2256279   -2.3566098    83.481042  0.094010182   0.11260534            1 
   75000    1.2210283   -2.3510381    84.355025  0.093727805   0.11254916            2 
   76000    1.2294992   -2.3318743    85.760908  0.094036082   0.11249248            1 
   77000    1.2301331   -2.3592367    87.020689  0.094178234   0.11246638            3 
   78000    1.2186944   -2.3401596    87.866715  0.093874695   0.11242318            1 
   79000    1.2496451    -2.340834    89.429941   0.09433538   0.11236325            1 
   80000    1.2349144   -2.3295539     90.61511  0.094390739   0.11227799            1 
   81000    1.2208048   -2.3655433    91.319627  0.093950232   0.11220692            1 
   82000     1.203774   -2.3282305     93.47907  0.094999055   0.11213643            1 
   83000    1.2008338   -2.3205797    95.064836  0.095446622   0.11208672            1 
   84000    1.2458741   -2.3463528    96.020749  0.095258679    0.1120435            1 
   85000    1.2217031   -2.3462252    97.133595  0.095229014   0.11198565            1 
   86000    1.1995873   -2.3519208    98.331189  0.095282159   0.11193146            1 
   87000    1.2248235   -2.3495962    100.12035  0.095900721   0.11188925            3 
   88000    1.2202887   -2.3521882    101.11518  0.095753012   0.11184446            2 
   89000    1.1941751   -2.3200407    102.53754  0.096008931   0.11180276            2 
   90000    1.2231345   -2.3706644    102.99316  0.095364035    0.1117495            2 
   91000    1.2175251   -2.3688441    105.37718  0.096499246   0.11168304            2 
   92000    1.2286204   -2.3490644    106.12636  0.096128947   0.11162363            2 
   93000    1.2325477     -2.31152    108.23643  0.096986049   0.11158877            1 
   94000    1.1985945   -2.3451306    108.82965  0.096480182   0.11154662            4 
   95000    1.2322698   -2.3628353    109.96979  0.096464729   0.11149681            2 
   96000    1.2186092   -2.3716978    110.92592  0.096289861   0.11142043            1 
   97000    1.1950094     -2.34139    112.53314  0.096677958   0.11136494            2 
   98000    1.2042422   -2.3217707     113.7813  0.096752802   0.11129283            3 
   99000    1.1982062   -2.3323683    114.67045  0.096523951   0.11122093            2 
  100000    1.2081648   -2.3494995    116.16296  0.096802464   0.11112806            2 
  101000    1.1934595   -2.3591027    116.64727  0.096243624    0.1110151            4 
  102000    1.2194998   -2.3081637    117.94817   0.09636288   0.11088126            2 
  103000    1.2201491   -2.3762362    118.77184  0.096093718   0.11076628            1 
  104000    1.2294949   -2.3354065    120.03601  0.096182702   0.11065087            2 
  105000    1.2325089   -2.3406183    121.17485  0.096170515   0.11050673            2 
  106000    1.2044144   -2.3581046    122.33452  0.096174935   0.11036798            1 
  107000    1.1961012   -2.3272057    122.91018  0.095724439   0.11022555            1 
  108000    1.1950348   -2.3947989    124.95527  0.096416104    0.1100915            1 
  109000     1.219152   -2.3705432    125.88949  0.096245786   0.10996265            1 
  110000    1.2217008   -2.3660987    128.14098  0.097076501   0.10984269            1 
  111000    1.2149094   -2.3473497    129.30893  0.097078776   0.10976346       -1e+20 
  112000    1.2148393   -2.3506474    130.53277  0.097122594   0.10968479            2 
  113000    1.1954828   -2.3297217    132.42226  0.097656531   0.10960606            2 
  114000    1.2025977   -2.3832286    134.05373  0.097992489    0.1095668            1 
  115000    1.2144067   -2.3582278    135.72048  0.098348173   0.10954729            2 
  116000    1.2066626   -2.3445417    136.67094  0.098183144   0.10951506            1 
  117000     1.190353   -2.3368214    138.59084  0.098711424   0.10947926            3 
  118000     1.198147    -2.354913    139.19703  0.098302985    0.1094474            1 
  119000    1.2011533   -2.3501794    140.50943  0.098395958   0.10940391            1 
  120000    1.1873676    -2.369321    141.21406  0.098065316    0.1093564            1 
  121000    1.2187643   -2.3673701    142.69793   0.09827681   0.10931808            1 
  122000    1.1762637   -2.3731687    144.43671  0.098658955   0.10928321            2 
  123000    1.2015862   -2.3700379    145.54675   0.09860891   0.10923941            2 
  124000    1.2195714    -2.352961    147.39621  0.099056591   0.10921375            2 
  125000    1.2364972   -2.3750978    148.33323  0.098888821    0.1092025            2 
  126000    1.2250517    -2.347182    149.92705  0.099158103   0.10919057            2 
  127000    1.1922068   -2.3571483     151.3596  0.099317322   0.10917972            4 
  128000     1.205721   -2.3360484    152.92253  0.099558936   0.10917981            1 
  129000    1.1707392   -2.3602833    154.30548  0.099680543   0.10918057            1 
  130000    1.2006987   -2.3901387    155.38075  0.099603042   0.10917491            1 
  131000     1.204257   -2.3744599    157.35248     0.100097   0.10919144            4 
  132000    1.2109383   -2.3522934    158.57133   0.10010816   0.10919888            3 
  133000    1.2068716   -2.3618202    159.09069  0.099680885   0.10919634            1 
  134000    1.2216962   -2.3847953     159.6452  0.099281842   0.10917612            2 
  135000    1.2012878   -2.3662892    161.49205  0.099686447   0.10916581            1 
  136000    1.1965571   -2.3964855    162.72596  0.099709531   0.10914469            3 
  137000    1.1845561   -2.3870322     164.4678   0.10004124   0.10913486            1 
  138000    1.2142314   -2.3485989    165.47412  0.099923982   0.10912372            1 
  139000    1.2189657   -2.3806844       166.51  0.099826141   0.10909774            2 
  140000    1.2379376    -2.374355    167.46249  0.099680052   0.10906954            1 
  141000    1.2267036   -2.3485899    169.51377   0.10018544   0.10904598            1 
  142000    1.1928298   -2.3698401    169.90555  0.099709832   0.10901769            1 
  143000    1.1827765   -2.3613256    170.26091  0.099219643   0.10898343            1 
  144000    1.1959786   -2.3805781    172.51046  0.099832444   0.10894841            1 
  145000    1.2038071   -2.3554972    172.71708  0.099262689    0.1089179            3 
  146000    1.1903385   -2.3766598    174.48651  0.099592755   0.10888004            2 
  147000    1.2387572   -2.3831892    174.64227  0.099003553   0.10884373            2 
  148000    1.1908163   -2.3850833    177.14556  0.099744123    0.1088013            2 
  149000    1.1926764   -2.3744205    177.89422   0.09949341   0.10876122            3 
  150000    1.1737397   -2.3705074    179.24511  0.099580616    0.1087264            2 
  151000    1.1894351   -2.3787334    181.61611   0.10022964   0.10870546            1 
  152000    1.1825185    -2.386126    182.00452  0.099783182    0.1086778            3 
  153000    1.1950579   -2.3986406    183.78434    0.1001004    0.1086446            1 
  154000    1.2073674   -2.3926052     184.9694   0.10009166   0.10861411            2 
  155000    1.1813083   -2.3749319    185.72548   0.09985241   0.10857125            2 
  156000     1.168441    -2.373287    187.13401  0.099964748   0.10853562            1 
  157000    1.2069628   -2.4081124    187.21216  0.099369513   0.10849491            2 
  158000    1.1950505   -2.3779998    188.83891   0.09959858   0.10843936            2 
  159000    1.1652145    -2.408383    188.98945  0.099051076   0.10838425            1 
  160000    1.1955223   -2.3592083    190.56888  0.099254625   0.10832132            1 
  161000    1.1972379   -2.3842318    192.74701  0.099765531   0.10826147            3 
  162000     1.162395   -2.3667289    192.79345  0.099173584   0.10820565            1 
  163000    1.1859029   -2.3392373    195.32068  0.099857197   0.10814694            3 
  164000    1.2065765   -2.3668353    195.00026  0.099085496   0.10809267            1 
  165000    1.2143222   -2.3949743    196.56067  0.099273065   0.10802497            1 
  166000    1.1846919   -2.3809386     197.3791  0.099085895   0.10794697            1 
  167000    1.2005782   -2.3805488     199.5576  0.099579643   0.10788491            1 
  168000    1.2048772   -2.3677903    199.60552  0.099010673   0.10782091            2 
  169000    1.1844015    -2.383751    201.66086  0.099438294   0.10775623            2 
  170000    1.1927631   -2.3786709    203.71747  0.099861505   0.10769154            3 
  171000    1.1715403   -2.3797137    204.64997  0.099731952   0.10763304            1 
  172000    1.1693865    -2.411617    206.09834  0.099853848   0.10757248            2 
  173000      1.17712   -2.4009196    206.10428  0.099279516    0.1075149            2 
  174000    1.1698691   -2.3885076    207.85601  0.099547898   0.10745983            1 
  175000    1.1696663   -2.3782105    208.40641  0.099241146    0.1074084            1 
  176000    1.2013006   -2.3859221    210.98321  0.099897351    0.1073642            1 
  177000    1.1931833   -2.4109297     211.6224    0.0996339    0.1073059            2 
  178000    1.1813552   -2.3933863    212.86451   0.09965567   0.10725073            1 
  179000    1.2092214   -2.3903365    214.31176  0.099772702   0.10719831            1 
  180000    1.1716367    -2.383571      214.321  0.099222685   0.10714214            1 
  181000    1.1817563   -2.3669942    216.45158  0.099655423   0.10708334            2 
  182000    1.1960399   -2.3419022    216.12308  0.098957456   0.10702466            2 
  183000    1.1627097   -2.4067989    216.77393  0.098713084   0.10695839            2 
  184000    1.1788696   -2.3932345    218.50754   0.09896175   0.10689012            4 
  185000    1.1873478   -2.3623422    219.68792  0.098958521   0.10682685            1 
  186000    1.1749369   -2.3699705    222.23891  0.099569403   0.10676195            1 
  187000    1.1689593   -2.4033153    222.73352  0.099257363   0.10669495            1 
  188000    1.1764099   -2.4153818    222.96251  0.098830898   0.10663229            4 
  189000    1.2230431   -2.3661502    225.55288  0.099450122   0.10657432            1 
  190000    1.1846197   -2.3932141    225.88001  0.099070179    0.1065229            2 
  191000    1.1739636   -2.4025855    227.10737  0.099086983   0.10646836            2 
  192000    1.1540845   -2.3737436    229.11365   0.09944169   0.10641325            2 
  193000    1.1744151   -2.3760169    229.46049  0.099076204   0.10635971            3 
  194000    1.1959808   -2.3801847    231.92403  0.099623725   0.10630475            2 
  195000    1.1731791   -2.3890042    230.77774  0.098622964   0.10624918            1 
  196000    1.1708417   -2.4076273    233.00557  0.099066993   0.10618007            5 
  197000    1.1702424   -2.4224868    233.79247  0.098896986    0.1061148            2 
  198000     1.181572   -2.3696912    235.64895  0.099178849    0.1060509            2 
  199000    1.1763926   -2.4222257    236.07234  0.098857764   0.10599003            3 
  200000    1.1851933   -2.4045539    236.88734  0.098703056   0.10592581            1 
  201000    1.1685012   -2.4112705    236.56227  0.098077225   0.10585392            1 
  202000    1.1852529   -2.3964957    237.70754  0.098064165   0.10577691            1 
  203000    1.1649575   -2.3639606    239.91456  0.098487095   0.10570107            2 
  204000    1.1968959   -2.3688844    241.27194    0.0985588   0.10562498            1 
  205000    1.1584666   -2.3787231    243.29758  0.098901456   0.10555382            2 
  206000    1.1804677   -2.3825813    243.90165  0.098665716   0.10548227            1 
  207000    1.1693627   -2.3936609     244.6698  0.098498307   0.10541259            2 
  208000    1.1443592    -2.406193    245.76192  0.098462306   0.10534461            1 
  209000    1.1690166   -2.4005473    247.42986  0.098656243   0.10527064            1 
  210000    1.1791143   -2.3757133    246.67198  0.097885708   0.10519922            2 
  211000    1.1628541   -2.3928563    249.18507  0.098414326   0.10512781            1 
  212000    1.1940004   -2.3687251    250.66804  0.098533033   0.10506395            2 
  213000    1.1719031   -2.3993546    252.14206  0.098647127   0.10500867            1 
  214000    1.1488955   -2.3969326    253.81133  0.098836187   0.10495161            3 
  215000    1.1965773   -2.3972348      255.296  0.098951939   0.10489684            2 
  216000    1.1420772   -2.4376868    254.42349  0.098157209   0.10483751            1 
  217000    1.1638244   -2.3955882    256.40951  0.098467555   0.10478187            1 
  218000    1.1537705    -2.401403    259.45778  0.099181109   0.10473211            2 
  219000     1.177928   -2.4045214    259.85696  0.098880122   0.10467512            1 
  220000    1.1408833   -2.4081624    261.20145  0.098939945    0.1046255            1 
  221000     1.141584   -2.4120104    262.51606  0.098987955   0.10457592            2 
  222000    1.1629643   -2.3915349    263.09209   0.09875829   0.10452107            4 
  223000    1.1655646   -2.3898924    263.93405  0.098630063   0.10446666            2 
  224000    1.1691491   -2.3798752    264.71749  0.098481208   0.10441208            1 
  225000    1.1581818   -2.3862318    264.96386  0.098134762   0.10434475            1 
  226000     1.155191   -2.4368737    265.26337  0.097810978   0.10427698            1 
  227000    1.1512513   -2.4064092    267.51143   0.09820537    0.1042027            2 
  228000    1.1581273   -2.3815912    265.91348  0.097190601   0.10413066            2 
  229000    1.1673305   -2.3884018     269.1731  0.097952365   0.10405062            1 
  230000    1.1856546   -2.4109646    268.59797  0.097318103   0.10397211            2 
  231000    1.1651115   -2.4396949    270.37311  0.097537197   0.10389186            3 
  232000    1.1726347   -2.4306226    271.09439  0.097375858   0.10381594            1 
  233000    1.1725442   -2.4139365    271.75199  0.097193129   0.10374001            1 
  234000    1.1734507   -2.3955089    273.33302   0.09734082   0.10366464            1 
  235000    1.1546233   -2.4135973     273.5827  0.097015142   0.10358766            1 
  236000    1.1497568   -2.4376259    276.13385  0.097504891   0.10351002            1 
  237000     1.151186   -2.4095428    277.15656  0.097453078   0.10343746            3 
  238000    1.1623886    -2.396451    277.38819  0.097124717   0.10337064            4 
  239000    1.1583875    -2.403851    279.60101  0.097489893    0.1033029            2 
  240000    1.1642892   -2.4353639    280.37352  0.097351917   0.10323535            1 
  241000     1.161876     -2.34974    281.67108  0.097396638   0.10316831            1 
  242000    1.1409688   -2.4131846     283.0363   0.09746429   0.10310075            2 
  243000    1.1559804   -2.4070366    283.83244  0.097336228   0.10303447            2 
  244000    1.1936722   -2.4251684    286.08215  0.097705654   0.10297027            3 
  245000    1.1809443   -2.4035647    286.80789  0.097553705   0.10291021            2 
  246000    1.1444172   -2.4143617     288.0014  0.097561449   0.10285025            1 
  247000    1.1966928   -2.4029693     288.9563  0.097488629   0.10279274            2 
  248000    1.1401853   -2.4067357    291.62361  0.097991803   0.10273808            1 
  249000    1.1471047   -2.4143511    293.35914  0.098179097   0.10268789            2 
  250000     1.181761   -2.4534849    293.15338  0.097717793   0.10263782            1 
  251000     1.185293    -2.416659    294.69945  0.097841784   0.10259171            3 
  252000    1.1615773   -2.3680956    298.10724  0.098580435   0.10254917            2 
  253000    1.1483838   -2.4194696    298.01469  0.098160306    0.1025076            1 
  254000     1.145581   -2.4004301    299.61519  0.098298948   0.10246594            2 
  255000    1.1354886   -2.4253498    298.46591  0.097537878   0.10242315            2 
  256000    1.1420017   -2.4310077    300.48411  0.097813838   0.10237982            2 
  257000    1.1525681   -2.4260364    301.79494  0.097858282   0.10233547            2 
  258000    1.1549683   -2.3990106    303.82552  0.098134858   0.10229594            3 
  259000    1.1323221     -2.38999      305.637  0.098338802   0.10225583            1 
  260000     1.176722   -2.3849198    305.75857   0.09799954   0.10221269            3 
  261000    1.1387101   -2.3997443    305.15943  0.097432769   0.10216908            1 
  262000    1.1611543    -2.428377    307.00051  0.097646472   0.10212154            3 
  263000    1.1423372   -2.3987087    307.88046  0.097554012   0.10207219            2 
  264000    1.1398068   -2.4136439    309.56884  0.097717437   0.10202688            1 
  265000    1.1209236   -2.4185833    312.19447   0.09817436   0.10198512            2 
  266000    1.1560919   -2.4140224    312.78019  0.097988782   0.10194831            1 
  267000     1.168782   -2.4091651    313.69187  0.097906327   0.10190919            1 
  268000     1.159814   -2.4262287    314.03793  0.097648611   0.10187254            2 
  269000    1.1651371   -2.4366863    316.60545  0.098080995   0.10183541            2 
  270000    1.1654964   -2.4263485    318.53681  0.098313831   0.10180136            2 
  271000    1.1513159   -2.3841526    319.49509  0.098245723   0.10177403            1 
  272000    1.1371642   -2.4186247     320.6401  0.098235326   0.10174493            3 
  273000    1.1743637    -2.406829    322.29267  0.098379935   0.10171765            1 
  274000    1.1602104   -2.4254593     322.3568   0.09804039   0.10169322            1 
  275000    1.1488293   -2.4184728    323.86568  0.098141116   0.10166582            1 
  276000    1.1368684   -2.4104936    325.56361   0.09829819   0.10163587            1 
  277000    1.1411941   -2.4377801    326.03722  0.098085806   0.10160418            2 
  278000    1.1333513    -2.406006    326.16937  0.097772594   0.10157795            1 
  279000    1.1213402   -2.4321692    328.35246  0.098074212   0.10154531            1 
  280000    1.1433097    -2.428235    328.90682  0.097888933   0.10151269            2 
  281000    1.1664812   -2.4225747    329.22302  0.097634348   0.10147884            1 
  282000    1.1049051   -2.4257352    331.37251  0.097923318   0.10144211            3 
  283000    1.1332835   -2.4211405    331.87487  0.097725227   0.10141394            2 
  284000    1.1188039   -2.4472626    333.66479  0.097906335   0.10138793            3 
  285000    1.1641949   -2.4404077    333.87538  0.097624381   0.10135804            1 
  286000    1.1376087   -2.4247774    336.34604  0.098002925   0.10132491            1 
  287000     1.137552   -2.4286879    336.80485  0.097794671   0.10129238            4 
  288000    1.1385688    -2.435399    338.20813  0.097861149   0.10126248            2 
  289000    1.1156877   -2.4760879    339.66289  0.097942009   0.10122626            2 
  290000     1.134579   -2.4508257    338.17374  0.097176362   0.10118935       -1e+20 
  291000    1.1361971   -2.4220858    340.13548  0.097404203   0.10115323            2 
  292000    1.1097291   -2.4564513    341.61192  0.097491987   0.10111421            2 
  293000    1.1342761   -2.4041838    342.10343  0.097299042   0.10107244            2 
  294000    1.1462126   -2.4248674    343.90761  0.097479481   0.10103218            2 
  295000    1.1370205   -2.4449866    344.43562  0.097298198   0.10099668            2 
  296000    1.1465127   -2.4440981    344.97628    0.0971217   0.10095769            1 
  297000     1.151481    -2.432674    344.92878  0.096781363   0.10092128            2 
  298000    1.1226852   -2.4197481    349.52395  0.097741595    0.1008875            3 
  299000    1.1352633   -2.4383445    348.72897  0.097193137   0.10085437            1 
  300000    1.1302629   -2.4236071    348.39257  0.096775712   0.10081748            2 
  301000    1.1191239    -2.457837    351.79541  0.097396293    0.1007807            1 
  302000    1.1463699   -2.4554471    351.72392  0.097054061   0.10073964            1 
  303000    1.1519268   -2.4421616    351.85571  0.096769997   0.10069511            1 
  304000    1.1266848   -2.4490693    352.88974  0.096735127   0.10065291            2 
  305000    1.1101373   -2.4220347    355.20773  0.097051293   0.10061173            2 
  306000    1.1444624   -2.4217592    355.03803  0.096687918   0.10056727            2 
  307000    1.1186343   -2.4439314    356.98264  0.096900826   0.10052971            3 
  308000    1.1284191   -2.3901487    358.83053  0.097086183   0.10049106            2 
  309000    1.1206373   -2.4250718    359.26881  0.096890185   0.10045794            3 
  310000    1.1162527   -2.4122894    361.23739  0.097106826   0.10041993            1 
  311000    1.1219013   -2.4296859    359.65491  0.096370554   0.10038218            1 
  312000    1.1258753   -2.4169067    362.83249  0.096910388   0.10034042            1 
  313000    1.1489423   -2.4252151    361.09251  0.096137517   0.10030365            2 
  314000    1.1383028   -2.4501743     364.9908  0.096865924   0.10026663            3 
  315000     1.113667   -2.4112427    364.79347  0.096506209   0.10022885            4 
  316000    1.1176993    -2.447352    365.19192  0.096305885   0.10019229            3 
  317000    1.1604304   -2.4522141      368.478  0.096865931    0.1001545            1 
  318000    1.1330644   -2.4538934    369.92158  0.096939616   0.10011395            2 
  319000    1.1145165   -2.4294171    370.12132  0.096687909   0.10007587            1 
  320000    1.1109588   -2.4069355    372.19759  0.096926455   0.10003658            3 
  321000    1.1087308    -2.416625    373.32659  0.096917598  0.099997889            2 
  322000    1.1054897   -2.4403222    373.55724  0.096676305  0.099960894            2 
  323000    1.1420193   -2.4413194    373.29987  0.096310597  0.099921435            3 
  324000    1.1276193   -2.4241006    373.77524  0.096135608   0.09988135            2 
  325000    1.1142801   -2.4269207    374.00491  0.095898694  0.099837877            2 
  326000    1.1412691    -2.439959    376.53289  0.096250738  0.099792648            1 
  327000    1.1221784    -2.429619    377.54752  0.096214963  0.099743587            1 
  328000    1.1283501   -2.4268204    377.85619  0.096000049  0.099696232            2 
  329000    1.1290446   -2.4390736    379.70063  0.096175438   0.09965487            2 
  330000    1.1448827   -2.4461275    380.77742  0.096155914  0.099610202            1 
  331000    1.1103578   -2.4230161     380.7635  0.095861909  0.099568517            2 
  332000    1.1095487   -2.4310328    382.63541  0.096043024  0.099525272            2 
  333000    1.1334575   -2.4488003    383.45623  0.095960017  0.099482824            3 
  334000    1.1196293   -2.4612432    384.83607  0.096016984  0.099440425            4 
  335000    1.1193376   -2.4233319    386.54721  0.096156022  0.099396994            1 
  336000    1.1346381   -2.5086484    386.15497  0.095772562  0.099356449            1 
  337000    1.1216489   -2.4382342    387.87492   0.09591368  0.099309542            4 
  338000    1.1145732   -2.4378038    388.83372  0.095866303  0.099265606            2 
  339000    1.1254405   -2.4280479    390.89407  0.096089987  0.099221074            5 
  340000    1.1162041   -2.4872222    389.93715   0.09557283   0.09917495            3 
  341000    1.1477486   -2.4608375    390.04476  0.095318856  0.099126221            2 
  342000    1.1371943   -2.4513027    392.23348   0.09557346  0.099077451            3 
  343000    1.1006982   -2.4584943    393.89979  0.095699658  0.099030794       -1e+20 
  344000    1.1270436   -2.4620404    392.27784  0.095028545  0.098981567            2 
  345000    1.1016281   -2.4489425    393.70049  0.095096736  0.098932314            3 
  346000    1.0957076   -2.4610737    396.48326  0.095492115  0.098885756            2 
  347000    1.1195655   -2.4506922    397.95646  0.095570716  0.098839295            1 
  348000    1.1163528   -2.4532423    398.02455  0.095312391  0.098791615            2 
  349000    1.1265194   -2.4382953    400.23045  0.095566011   0.09874145            1 
  350000    1.1051711   -2.4401921     400.1211  0.095266928  0.098695294            2 
  351000     1.115358   -2.4562047    398.83636  0.094690494  0.098646845            1 
  352000    1.1081212   -2.4878285    401.22928  0.094987993  0.098595724            2 
  353000    1.1076072   -2.4641709    401.18941  0.094709492  0.098546549            2 
  354000    1.0876218   -2.4209531    403.18619  0.094912002  0.098495053            3 
  355000    1.1186259   -2.4304339    407.40558  0.095635113   0.09844687            1 
  356000    1.1118772   -2.4539185    405.57519  0.094938012  0.098396589            3 
  357000    1.0863589   -2.4743158    404.50231  0.094421642  0.098348225            3 
  358000     1.109372   -2.4565444    406.30197  0.094576809  0.098297661            2 
  359000    1.1169865   -2.4659331    410.89896  0.095380446   0.09825119            3 
  360000    1.1161468   -2.4945276    408.11295  0.094470591   0.09820141            2 
  361000    1.1234062    -2.456834    410.20453  0.094691719  0.098154259            2 
  362000    1.0822163   -2.4967474    410.74567  0.094554712  0.098106024            4 
  363000    1.1094862   -2.4689265    412.27256  0.094644756  0.098056055            1 
  364000    1.1138329   -2.4556327    411.33108  0.094169203  0.098005569            3 
  365000    1.1260179   -2.4638381    412.08925  0.094084303  0.097953636            1 
  366000    1.1154518    -2.453809    413.66975  0.094187101  0.097900452            2 
  367000    1.1180109   -2.4686269    414.24703  0.094061542   0.09784822            2 
  368000    1.1374746   -2.4710837    416.79442  0.094382795  0.097795607            3 
  369000     1.115016   -2.4665678    420.17244  0.094889891  0.097745685            2 
  370000     1.123749   -2.4329947     419.5524  0.094493784  0.097698668            3 
  371000    1.1047937   -2.4622776    419.41954   0.09420924  0.097650289            1 
  372000    1.1378044   -2.4498451    423.80106  0.094937513  0.097605732            6 
  373000    1.1020799   -2.4799242    422.62492  0.094420224  0.097560555            2 
  374000    1.1045541   -2.4638329    424.60669  0.094609333  0.097519208            4 
  375000    1.0942685   -2.4688358    424.25467  0.094278815  0.097478543            4 
  376000    1.1367655   -2.4892207    426.35804  0.094494246   0.09743694            1 
  377000    1.1225016   -2.4831282    425.69139  0.094096239   0.09739138            1 
  378000    1.1142964   -2.4524456    427.78508  0.094308881  0.097344935            2 
  379000    1.0812637   -2.4573658    431.02356  0.094772111   0.09730219            2 
  380000    1.1074192   -2.4801823    428.22266  0.093908477   0.09725792            1 
  381000    1.0677036   -2.4750926    432.65294  0.094631001  0.097215424            3 
  382000    1.0664987   -2.4615694    430.94241  0.094010125  0.097172088            1 
  383000    1.1296619   -2.4595344    433.96923  0.094423244   0.09713003            1 
  384000    1.1153076   -2.4769588    434.02565  0.094189594  0.097086354            2 
  385000    1.0943346   -2.4682592    434.42836  0.094032112  0.097043149            1 
  386000    1.1233665   -2.4940937    436.96255   0.09433561  0.096998386            2 
  387000    1.0926489   -2.5005315    434.75396   0.09361627  0.096953902            3 
  388000    1.0831207   -2.4745002    437.73876  0.094016056  0.096908234            3 
  389000    1.0904213    -2.469295    438.29138  0.093892754  0.096863911            1 
  390000    1.1012035   -2.4536163    439.73297  0.093960037  0.096819032            2 
  391000    1.1014281   -2.4618405    438.66124  0.093491314  0.096773125            1 
  392000    1.1009509   -2.4624117    441.30364  0.093814548  0.096727464            1 
  393000    1.0990455   -2.4689376    441.23656  0.093561611  0.096681315            2 
  394000    1.1061206   -2.4616574    443.18627   0.09373652  0.096635252            3 
  395000    1.0985113    -2.457743    442.67434  0.093391211  0.096590405            2 
  396000    1.0770111   -2.4789966     445.7181  0.093795896  0.096545801            2 
  397000    1.1019387    -2.487644     447.0674  0.093842862  0.096501722            1 
  398000    1.1003728   -2.4619542    449.43472  0.094102748  0.096462282            3 
  399000    1.0973668   -2.4585093    449.48421  0.093877236  0.096421221            1 
  400000    1.1005714   -2.4639161    449.96979  0.093743706  0.096380823            1 
  401000    1.0838686   -2.4883322    452.06395  0.093945127  0.096338916            2 
  402000    1.1032718   -2.4820707    453.40068  0.093988533  0.096299915            2 
  403000    1.0967045    -2.487074    452.29968  0.093527643   0.09625769            1 
  404000    1.0789113   -2.4315759     456.1672  0.094093894  0.096216674            3 
  405000    1.0924668   -2.4836688    454.50387  0.093519314  0.096177413            1 
  406000     1.093866   -2.4904398    454.41339    0.0932704  0.096136608            2 
  407000    1.0775675   -2.5027285    457.64232  0.093702359   0.09609527            4 
  408000    1.0944296   -2.4718033    459.73518   0.09390016  0.096058093            2 
  409000    1.0914947   -2.4834211    459.75001  0.093673596  0.096023079            1 
  410000    1.0857091   -2.4437686    464.33476  0.094376985  0.095989465            1 
  411000    1.0995914   -2.4764739    463.95338  0.094070027  0.095957253            1 
  412000    1.0753576   -2.4846898    463.28287  0.093706082  0.095923745            1 
  413000    1.0967506   -2.4529313    465.46043  0.093918569  0.095890194            2 
  414000    1.1084654   -2.4794269    466.93734  0.093988997  0.095856852            2 
  415000    1.0941016   -2.4860513     466.1279   0.09359998  0.095822297            1 
  416000    1.0976032   -2.4797319    464.77008  0.093102981  0.095784088            2 
  417000     1.074572   -2.4846694    469.14618  0.093754232  0.095748277            1 
  418000    1.0956435    -2.505465    468.11519  0.093324399  0.095710583            5 
  419000    1.1099426   -2.4919006    469.08658  0.093294865  0.095672546            1 
  420000    1.0756978   -2.4866349    471.15072  0.093482287  0.095634395            2 
  421000    1.1004697   -2.5132362    469.87255  0.093007235  0.095595496            2 
  422000    1.0907739   -2.4890619    471.51325  0.093110832  0.095556674            3 
  423000    1.0892271   -2.4998022    473.20393  0.093223783  0.095516111            1 
  424000    1.0963229   -2.4876261    472.27084  0.092820527  0.095475748            2 
  425000    1.0757876    -2.467519    473.87647  0.092916955  0.095433677            2 
  426000    1.0843034   -2.5177666    472.54112  0.092437622  0.095390388            4 
  427000    1.0797167   -2.4828239    476.19661  0.092934545  0.095348665            2 
  428000    1.0864776   -2.4879408    477.11138  0.092895517  0.095305551            2 
  429000    1.0804412   -2.5221246    476.76525  0.092611743  0.095263099            4 
  430000    1.0757077   -2.4742704     478.2533  0.092684748  0.095219249            1 
  431000    1.0727719   -2.5351477    478.78818  0.092573121  0.095177895            1 
  432000     1.090494   -2.4813007    480.36325  0.092662664   0.09513346            2 
  433000    1.0684285   -2.4707554    479.54403  0.092290999  0.095088778            3 
  434000    1.0568889   -2.4839101    481.69729  0.092491798  0.095043208            2 
  435000    1.0918412   -2.4908866    483.72186  0.092667024  0.094999413            1 
  436000    1.0819588   -2.5068103    484.16807  0.092539769  0.094957338            1 
  437000    1.0957836   -2.4838802    483.30567  0.092163553  0.094915494            2 
  438000    1.0613993   -2.5065741    485.92328  0.092451157  0.094873974            2 
  439000     1.075078   -2.4995714    488.69535  0.092766771  0.094833554            4 
  440000    1.0909423   -2.5150072    487.95639  0.092415984  0.094793973            1 
  441000    1.0910294   -2.5141315    488.08382  0.092230503  0.094753068            2 
  442000    1.0888004   -2.5061357    490.14734  0.092410885  0.094714631            2 
  443000    1.1095814   -2.5131219    492.32935  0.092612745  0.094676521            1 
  444000     1.089457   -2.5025909    492.87747  0.092507032  0.094639781            1 
  445000    1.0896303   -2.4996451    495.98654  0.092881374  0.094602539            1 
  446000    1.1021894   -2.4887948    494.88214  0.092466768   0.09456358            4 
  447000    1.0749096    -2.503428    495.26057  0.092330457  0.094524847            2 
  448000    1.0751939   -2.4926195    494.90107   0.09205749  0.094487433            3 
  449000      1.07201   -2.4845824    498.98201  0.092609876  0.094451342            1 
  450000    1.0553702   -2.4902575    499.70951  0.092538798  0.094414942            3 
  451000    1.0732766   -2.4853219     503.2258  0.092983333    0.0943804            1 
  452000    1.0620663   -2.4876055    502.75817  0.092691403  0.094346166            1 
  453000    1.0621789    -2.520652    500.85693  0.092137037   0.09430998            2 
  454000    1.0813947   -2.5198946    503.44192  0.092408575  0.094275918            1 
  455000    1.0660993   -2.4722093    504.52359  0.092403589  0.094240684            2 
  456000    1.0805584   -2.4914782    504.86632  0.092263581  0.094202534            3 
  457000    1.0678093   -2.4834209    506.06587  0.092280428  0.094162815            1 
  458000    1.0554023   -2.5075181    503.37663  0.091589634   0.09412211            1 
  459000    1.0434179   -2.5032891    506.56016  0.091968075  0.094081813            2 
  460000    1.0767928    -2.500762    509.61103  0.092320839  0.094043145            4 
  461000    1.0857456    -2.524865    507.47068  0.091733672  0.094005842            1 
  462000     1.057701   -2.5059939    510.37857  0.092059626  0.093969364            1 
  463000    1.0876187    -2.499847     510.8877   0.09195243  0.093932296            1 
  464000    1.0679125     -2.51292    513.68219   0.09225614  0.093895449            1 
  465000    1.0632875   -2.4945214    511.77286  0.091715567  0.093857752            2 
  466000    1.0820079   -2.5150845    513.61493  0.091848164  0.093819106            2 
  467000    1.0367219   -2.4924649    514.06637  0.091732043   0.09378028            2 
  468000    1.0850869   -2.4980971    515.59316  0.091807898   0.09374165            2 
  469000    1.0495462   -2.5196934     515.0568  0.091516844  0.093701384            1 
  470000    1.0738222    -2.499375    514.34082  0.091195181  0.093660865            1 
  471000     1.034322   -2.4949979     518.6848  0.091770134  0.093617965            1 
  472000    1.0643752   -2.5172731    520.12669  0.091830277  0.093578167            3 
  473000    1.0781259   -2.4938433    519.21233   0.09147504   0.09353851            4 
  474000    1.0738515   -2.5352151    518.42288  0.091143263  0.093498701            1 
  475000    1.0689833   -2.5116275    519.10998  0.091071926  0.093457239            1 
  476000    1.0896196    -2.505086    521.32508  0.091268396  0.093417076            2 
  477000    1.0657747   -2.4874669    523.56022  0.091467544  0.093376158            2 
  478000    1.0538427    -2.483045    524.48069  0.091436661  0.093334855            3 
  479000    1.0738602   -2.5008438    523.39678  0.091057199  0.093293019            6 
  480000    1.0594981   -2.5124732    523.24375  0.090840929  0.093251867            2 
  481000    1.0652198   -2.5390158    527.32823  0.091359706  0.093210093            3 
  482000    1.0689472   -2.5235108    527.73475  0.091240447   0.09316899            2 
  483000    1.0670075   -2.5348799    526.84525  0.090898076  0.093126908            2 
  484000    1.0670843   -2.5112648    530.34188  0.091312306  0.093083767            1 
  485000    1.0238047   -2.5107291    528.08297  0.090735905  0.093041929            3 
  486000    1.0373109   -2.5177056    526.74605  0.090319967   0.09299658            2 
  487000    1.0485714   -2.4972715    530.74869   0.09081942  0.092952462            3 
  488000    1.0522141   -2.4806554    530.08353  0.090519729  0.092907075            5 
  489000    1.0464017   -2.5315497    532.29439  0.090711382  0.092861501            2 
  490000    1.0761301   -2.5427839    530.22188  0.090173789  0.092815151            2 
  491000    1.0653884   -2.5070729    529.96817  0.089947076  0.092768466            1 
  492000    1.0587209   -2.5335903    532.72311  0.090230879  0.092721086            2 
  493000    1.0657218   -2.5333673    532.31135  0.089978255  0.092674844            2 
  494000    1.0787339   -2.5537205    532.24343  0.089784654  0.092628025            3 
  495000    1.0721218   -2.5183463     534.1644  0.089926666  0.092581633            2 
  496000    1.0863544   -2.5207689    536.44492  0.090128514  0.092535138            3 
  497000    1.0696191   -2.5200556    538.21007  0.090243137  0.092487758            1 
  498000    1.0581286   -2.5139978    536.33287  0.089747803  0.092441508            2 
  499000    1.0667287     -2.49619      539.236  0.090052772  0.092394723            1 
  500000    1.0536322   -2.5103701    538.09228  0.089682046  0.092347014            1 
  501000    1.0589064   -2.5167424    540.55683  0.089912979  0.092299505            2 
  502000    1.0606577   -2.5363516    542.20498  0.090007467  0.092253413            6 
  503000    1.0449437   -2.5290143    545.69929  0.090407437  0.092208693            2 
  504000    1.0800997   -2.5180736    543.30194   0.08983167  0.092164231            4 
  505000    1.0468614   -2.5464748    542.70605  0.089555453  0.092118642            2 
  506000    1.0339807   -2.4996146    545.31281  0.089807776  0.092073648            3 
  507000    1.0739938   -2.5422638    547.10542  0.089925282  0.092030451            2 
  508000    1.0553284    -2.507418    546.94824  0.089722481  0.091985988            3 
  509000    1.0510968   -2.5300626    548.45714  0.089793244  0.091940518            1 
  510000    1.0418813   -2.5433736    548.64651  0.089648122  0.091894648            1 
  511000    1.0386972   -2.5286558    548.14978   0.08939168  0.091850548            3 
  512000    1.0483974   -2.5176468    549.96746  0.089512934  0.091806619            1 
  513000    1.0294795   -2.5240397    552.01875  0.089671661  0.091763361            4 
  514000    1.0505907   -2.5349606    554.39208  0.089881984  0.091720733            4 
  515000    1.0648627   -2.5267329    552.41126  0.089386936  0.091679375            1 
  516000    1.0338749   -2.5457674     556.2013  0.089825792  0.091638632            2 
  517000     1.065161   -2.5425071    558.12185  0.089961614  0.091600253            3 
  518000    1.0453097   -2.5333021    558.14193  0.089791172  0.091563183            2 
  519000    1.0596118   -2.5408724     559.6308  0.089857226  0.091527274            2 
  520000    1.0501017   -2.5479955    561.55441  0.089992693  0.091488513            2 
  521000    1.0485347   -2.5328154    562.74361  0.090010174  0.091450115            4 
  522000    1.0564399   -2.5342029    561.38163  0.089620312  0.091409886            4 
  523000    1.0453965   -2.5420157    564.24428   0.08990508  0.091371814            4 
  524000    1.0402032   -2.5445013    563.04409  0.089542635  0.091330174            2 
  525000     1.047775   -2.5273295    562.21055   0.08923977  0.091290757            1 
  526000    1.0393319   -2.5177575    567.83217  0.089960737  0.091252251            2 
  527000    1.0452059   -2.5136627    567.91083  0.089802471  0.091213152            2 
  528000     1.047557   -2.5509373     566.5397  0.089415988  0.091176865            3 
  529000    1.0259837   -2.5398819    569.71481  0.089747134  0.091137879            5 
  530000    1.0419874   -2.5324038    568.77566  0.089430135  0.091100727            2 
  531000    1.0575107   -2.5371562    571.74698  0.089728026  0.091063237            4 
  532000    1.0540311   -2.5489389    570.18399  0.089314534  0.091025855            2 
  533000    1.0223833   -2.5367233    569.71504  0.089073646  0.090987752            3 
  534000    1.0504194   -2.5220496    572.83626  0.089393924  0.090949491            1 
  535000    1.0396756   -2.5311198    574.02739  0.089412366  0.090914446            3 
  536000    1.0321256   -2.5604365    571.21738  0.088808672  0.090877702            2 
  537000    1.0427853   -2.5614264    575.88455  0.089367559  0.090839012            2 
  538000    1.0258346    -2.513508    578.36722  0.089586001  0.090800654            3 
  539000     1.023301   -2.5569515    577.23499  0.089244742  0.090763963            3 
  540000    1.0473065   -2.5474305     579.2261  0.089386743  0.090727851            3 
  541000    1.0198832   -2.5351743     579.2767  0.089229313  0.090692465            3 
  542000     1.025529     -2.54277    580.16474  0.089201221  0.090656614            4 
  543000    1.0360108   -2.5560225     579.6522  0.088958287  0.090621345            2 
  544000    1.0263073   -2.5360426     581.8196  0.089126776  0.090583905            2 
  545000    1.0098382   -2.5516442    586.49895  0.089678738  0.090548372            1 
  546000    1.0196598   -2.5269625    583.84652  0.089109664   0.09051133            1 
  547000      1.02828   -2.5324424    583.25407    0.0888565  0.090474102            1 
  548000    1.0279498    -2.526526     584.2829  0.088850806  0.090437786            2 
  549000    1.0459658    -2.571837    584.36191  0.088700957  0.090399658            1 
  550000    1.0260453   -2.5282297    586.70782  0.088895125  0.090360839            1 
  551000    1.0520556   -2.5490097    586.62956  0.088721954   0.09032091            2 
  552000    1.0201823   -2.5492398    585.73629  0.088426373  0.090281184            1 
  553000    1.0377377   -2.5303125    585.58561  0.088243762  0.090242208            4 
  554000    1.0288105   -2.5595517    590.12803  0.088767755  0.090204026            1 
  555000    1.0381016   -2.5532852    591.36416  0.088793418  0.090167221            2 
  556000     1.037518   -2.5671995    589.28619  0.088322271  0.090129153            3 
  557000    1.0229624   -2.5393331      592.095  0.088583932  0.090091557            3 
  558000    1.0233064    -2.571174    595.09924   0.08887384  0.090055411            1 
  559000    1.0318556   -2.5647668    595.89162  0.088832979  0.090020129            2 
  560000    1.0379216   -2.5382494    595.00258  0.088542051  0.089984476            2 
  561000     1.020529   -2.5471314    596.69601   0.08863577  0.089949743            3 
  562000    1.0318424   -2.5515756    599.32231  0.088867483  0.089914704            1 
  563000    1.0327343   -2.5295195    597.89291  0.088498063  0.089878486            1 
  564000    1.0316841   -2.5429681     599.4706   0.08857426   0.08984187            1 
  565000    1.0221804   -2.5494511    598.30113  0.088245004  0.089805441            1 
  566000    1.0261392    -2.561491    602.24929  0.088670389   0.08977078            3 
  567000    1.0293436   -2.5617328    600.98353  0.088327974   0.08973595            2 
  568000    1.0322892    -2.561725    604.46071  0.088682616  0.089701409            3 
  569000    1.0074392   -2.5383934    603.50199  0.088386349  0.089665617            6 
  570000     1.050395    -2.554673    606.08326  0.088608664  0.089631754            5 
  571000    1.0322592   -2.5581828    609.47453  0.088948413  0.089598353            2 
  572000    1.0282622   -2.5671644    608.79478  0.088693878  0.089565504            4 
  573000    1.0055286   -2.5203589    607.37175  0.088332134  0.089530153            4 
  574000      1.01184   -2.5434413    609.63721  0.088507144  0.089495453            2 
  575000    1.0106302   -2.5483184    607.95219  0.088109013  0.089460692            3 
  576000    1.0064486   -2.5426646    610.17582  0.088277751  0.089425908            4 
  577000    1.0339752   -2.5848714    611.93858  0.088379344  0.089390308            2 
  578000    1.0205929   -2.6014623    609.66079  0.087898038  0.089354596            1 
  579000    1.0242226   -2.5279599    611.35099  0.087989492  0.089319004            2 
  580000    1.0171913   -2.5249821    615.18388  0.088388489  0.089282023            2 
  581000    1.0104813   -2.5431207    611.49192  0.087706816   0.08924583            2 
  582000    1.0610337   -2.5603427    611.58415  0.087569322  0.089209627            2 
  583000    1.0306371   -2.5316744    617.74483  0.088299719  0.089174005            1 
  584000    1.0092658   -2.5274485    617.06073  0.088050903  0.089137632            2 
  585000    1.0096214   -2.5843095    616.88339  0.087875126  0.089100336            2 
  586000    1.0219837   -2.5929625    617.48494  0.087810714  0.089063364            2 
  587000    1.0315841    -2.552529    620.11527  0.088034536   0.08902826            2 
  588000    1.0098287   -2.5636163    619.66942   0.08782163  0.088993117            2 
  589000    1.0101049   -2.5567282    622.15415  0.088024074  0.088957714            1 
  590000    1.0200683   -2.5908794    620.90935  0.087699061  0.088923975            8 
  591000    1.0471229   -2.5488237    622.60324  0.087789515  0.088888777            5 
  592000    1.0436877   -2.5499691    623.88349  0.087821438  0.088854822            6 
  593000     1.006784   -2.5525006    624.15852   0.08771199  0.088817888            1 
  594000   0.99597442   -2.5872817    620.49297  0.087050081  0.088780251            3 
  595000    1.0101919    -2.572075    628.39096  0.088009938  0.088744142            3 
  596000    1.0046626   -2.5876278    626.94287  0.087659797  0.088707653            2 
  597000   0.99780607   -2.5462385    625.88569  0.087365395  0.088671395            3 
  598000     1.027591   -2.5869483    623.36396  0.086867888  0.088634072            1 
  599000    1.0138347   -2.5816274    629.60437  0.087591036  0.088597473            2 
  600000    1.0291567   -2.5562316    626.21759  0.086974665  0.088561324            1 
  601000     1.037177   -2.5578345    630.68905  0.087449951  0.088525381            2 
  602000    1.0127125   -2.5490697    628.59758  0.087015168  0.088489583            2 
  603000    1.0111774   -2.5779485    628.98772  0.086924781  0.088452018            4 
  604000    1.0016531   -2.5455625    632.11451  0.087212267  0.088414332            2 
  605000    1.0124141   -2.5795672    632.58119  0.087132395  0.088376885            3 
  606000    1.0048655   -2.5890994    630.78591  0.086741737  0.088338656            2 
  607000    1.0051214   -2.5590854    633.35205  0.086951133  0.088300357            2 
  608000    1.0244195   -2.5757926    633.36238  0.086809537  0.088262142            4 
  609000   0.98921815   -2.5921871    636.51747  0.087098724  0.088225371            2 
  610000    1.0298145   -2.5656648    635.35151  0.086796654  0.088189706            2 
  611000    1.0119183   -2.5675496    638.52344  0.087087213  0.088155179            2 
  612000    1.0114252   -2.5642397    637.89919  0.086859912  0.088119932            3 
  613000    1.0120655   -2.5860701    636.54005  0.086533449  0.088086466            2 
  614000    1.0090859    -2.562901    642.25208  0.087167763  0.088051947            1 
  615000    1.0189144   -2.5714237    643.54002  0.087200545  0.088019056            4 
  616000    1.0083564   -2.5731332     642.7604  0.086953517  0.087985399            1 
  617000    1.0510105   -2.5877067    645.51806  0.087185044   0.08795074            3 
  618000    1.0124287   -2.5638427    643.41553  0.086760454  0.087916712            2 
  619000    1.0189101   -2.5668805    646.40232  0.087022391  0.087883549            4 
  620000   0.99678851   -2.5603249    647.49972  0.087029532  0.087850196            3 
  621000    1.0255189   -2.5789627     647.8755  0.086939815  0.087817127            2 
  622000   0.99530741   -2.5845195    648.95109  0.086944144  0.087783747            3 
  623000   0.99763115   -2.6070554    649.39242  0.086863619  0.087750875            4 
  624000    1.0144066   -2.5672126    650.90988  0.086927067  0.087718962            2 
  625000    1.0174139   -2.5729798    652.85234  0.087046978  0.087686356            3 
  626000    1.0194302   -2.5560882    654.30398  0.087101168  0.087654713            3 
  627000   0.99956603   -2.5697979    654.09339  0.086934262  0.087622558            2 
  628000    1.0131866   -2.5880887    652.40424  0.086571688  0.087589125            2 
  629000    1.0180964   -2.5996139    654.03839  0.086650555  0.087555537            2 
  630000    1.0203119   -2.5877611    654.49787  0.086573792   0.08752175            3 
  631000    1.0048893   -2.5896012    653.87517  0.086354354  0.087487784            2 
  632000    1.0041978   -2.5863092    654.40397  0.086287443  0.087453669            3 
  633000    1.0059361    -2.584253    656.90505   0.08648039   0.08742044            1 
  634000   0.98601597    -2.590431    658.48722  0.086551948  0.087388215            3 
  635000   0.98029747   -2.5863177    659.04861  0.086489319  0.087355102            2 
  636000   0.99053337   -2.5839646     659.2678  0.086382049  0.087322211            2 
  637000    1.0086776   -2.5955875    659.70625  0.086303801  0.087287146            1 
  638000   0.99756259   -2.5899582    662.61219  0.086548091  0.087254781            1 
  639000   0.99414385   -2.5796014    664.58628  0.086670094  0.087222167            3 
  640000    1.0061166   -2.6008013    661.91206  0.086186465   0.08718883            3 
  641000    1.0203885    -2.592088     664.2754  0.086359257  0.087156653            4 
  642000   0.99170259   -2.5897629     661.6011  0.085877609  0.087124519            5 
  643000   0.99853997   -2.5754455    667.81541  0.086549431  0.087092649            3 
  644000    1.0122876   -2.5715857    663.54264  0.085862142  0.087060095            2 
  645000    1.0084237   -2.5956954    665.65142  0.086001476  0.087027416            2 
  646000    1.0099729   -2.5954623    668.38007  0.086220339  0.086995353            4 
  647000    1.0076644   -2.6142195    667.18114  0.085932655  0.086963176            2 
  648000   0.98076152   -2.5744288    670.68741  0.086250953  0.086932048            3 
  649000    1.0344106    -2.595685    671.44714  0.086215606  0.086899498            2 
  650000   0.98372145   -2.5626325    671.04271  0.086031117  0.086868169            4 
  651000       1.0206   -2.6056832     673.9256  0.086267998  0.086837645            1 
  652000    1.0119609   -2.6079053    671.51903  0.085828097  0.086804551            3 
  653000    1.0016262   -2.5848983    675.29227  0.086178187  0.086772701            2 
  654000   0.99448079    -2.603779    673.93305  0.085873223  0.086741463            1 
  655000   0.99090476   -2.5843445    675.97637  0.086002082  0.086710646            1 
  656000   0.99558512   -2.5891519    679.29834   0.08629298  0.086679749            1 
  657000   0.99509033   -2.5987651     674.5558  0.085560097  0.086649175            2 
  658000   0.96774255   -2.5839359    680.02232   0.08612238  0.086617124            1 
  659000    0.9976385   -2.6060546    677.76316  0.085706013  0.086585176            1 
  660000    0.9875624   -2.5965192    680.50197  0.085921965  0.086552379            1 
  661000   0.98679114   -2.6029911    677.92116  0.085466611  0.086519353            4 
  662000   0.98668372   -2.5788616    679.67215  0.085557924  0.086485723            2 
  663000   0.98829758   -2.6046801    680.80248  0.085570951  0.086452003            3 
  664000   0.97883563   -2.5978488    682.31552  0.085631968  0.086419165            1 
  665000   0.97289283   -2.5665865    685.81421   0.08594163  0.086386473            1 
  666000   0.97022983   -2.5749195     684.3931  0.085634772  0.086355221            3 
  667000   0.98646619   -2.5978165    682.90872  0.085320929  0.086323718            1 
  668000    1.0029218   -2.6098105    688.20955  0.085854484  0.086292148            2 
  669000   0.98503525     -2.60689    690.45102  0.086005358  0.086261719            2 
  670000   0.98823522   -2.6097239    690.22785  0.085849235  0.086231036            2 
  671000   0.99321326   -2.5736322    689.00194  0.085569044   0.08620011            1 
  672000   0.97256819   -2.5804859    690.07143  0.085574335  0.086169554            1 
  673000   0.97533697   -2.6090659    692.17473  0.085707619  0.086137445            2 
  674000   0.97003842   -2.5904826     689.7072  0.085275371  0.086106244            3 
  675000   0.99368739   -2.5996237    692.70415  0.085519031  0.086075428            2 
  676000    1.0066642   -2.6311867    696.22907  0.085827055  0.086044832            3 
  677000   0.98879514   -2.6015438    691.61714  0.085132587   0.08601331            3 
  678000   0.99662487   -2.6115911    694.86491  0.085406208  0.085981232            2 
  679000   0.97919614   -2.6204815    692.52348  0.084993063  0.085949041            2 
  680000   0.97922468   -2.6154216    693.56875  0.084996171  0.085916225            2 
  681000   0.97873644   -2.6122637    694.69921  0.085009693  0.085882724            2 
  682000   0.99468324    -2.619485    696.05365  0.085050544   0.08584863            2 
  683000   0.98640062   -2.5929088    694.78602  0.084771355  0.085815051            2 
  684000   0.95818714   -2.6241972    698.45081   0.08509391   0.08578179            4 
  685000    0.9886557   -2.6371256    696.07581  0.084680755  0.085747738            4 
  686000   0.97830433   -2.5888571    700.99026  0.085154307   0.08571452            3 
  687000   0.95919914   -2.6112816    698.77919  0.084762153  0.085682095            3 
  688000   0.96574551   -2.6063664    702.06816  0.085037325  0.085648526            4 
  689000   0.97081891   -2.6179191    698.70494  0.084507129    0.0856154            1 
  690000   0.95809214   -2.6089461     701.0005  0.084661896  0.085580995            2 
  691000   0.98624087   -2.6217728    702.34249  0.084701216   0.08554792            4 
  692000   0.96297763    -2.573705    704.89439  0.084886126  0.085516289            3 
  693000   0.96121609   -2.5894431    708.34509  0.085178582  0.085486085            2 
  694000   0.98197883   -2.6102611    711.42782  0.085426011  0.085456268            3 
  695000   0.95269783   -2.6044184    707.41597  0.084822059  0.085425663            2 
  696000   0.98196112   -2.6125926    704.75577  0.084381677  0.085394504            1 
  697000   0.97680937   -2.6294149    707.98501  0.084646701  0.085362957            2 
  698000   0.94949835   -2.6250132    709.70557  0.084730846  0.085331937            2 
  699000   0.98247064   -2.5793189    711.43013  0.084815227  0.085300601            1 
  700000   0.96744987    -2.599005    714.16625  0.085019791  0.085269761            7 
  701000   0.99248543   -2.6258499      712.115   0.08465466  0.085238576            2 
  702000   0.98268583   -2.6022121    712.99087  0.084638042  0.085207504            3 
  703000   0.96029469    -2.623319    711.54051  0.084345722  0.085174982            1 
  704000   0.96771816   -2.5663905    712.79191  0.084374042  0.085142617            1 
  705000   0.96836882   -2.6213444    713.70784  0.084362629  0.085110862            2 
  706000   0.94880214   -2.6426554    712.51192  0.084101974  0.085078226            2 
  707000   0.99154899   -2.6127342     713.3769  0.084084972  0.085044851            3 
  708000   0.96116699   -2.6083974    718.81658  0.084606471  0.085012347            2 
  709000   0.99469665   -2.6242866    718.42884  0.084441565  0.084980687            3 
  710000   0.97188671   -2.6093146    717.78148  0.084246652   0.08494841            2 
  711000    0.9895488   -2.6068376     719.1677  0.084290635  0.084917231            3 
  712000   0.98214077   -2.6215547     718.2912  0.084069663   0.08488659            3 
  713000   0.95823157   -2.6286654    721.20189  0.084291946  0.084854234            2 
  714000   0.94592568   -2.6014146    723.07361  0.084392345  0.084822535            1 
  715000   0.97349991   -2.6091351    724.64987  0.084458027  0.084791051            3 
  716000   0.94594383   -2.6308302    723.29824  0.084182756  0.084758568            2 
  717000    0.9984491   -2.6410464    723.11366  0.084043893  0.084725942            2 
  718000   0.97473058   -2.6067105    725.86415  0.084246072  0.084693336            2 
  719000   0.97831793   -2.6116226     724.1017  0.083924629  0.084659898            3 
  720000   0.97741679   -2.6224054    725.16237   0.08393083  0.084627002            1 
  721000   0.96970407   -2.6327196    724.24132  0.083707965   0.08459366            2 
  722000   0.97119644   -2.6124048    726.20943  0.083819186  0.084560611            3 
  723000   0.98085003   -2.6216326    727.58195  0.083861451  0.084527052            3 
  724000   0.95840732     -2.63501     729.3537  0.083949551  0.084493105            1 
  725000   0.95882838    -2.601885    732.17993  0.084158612  0.084460202            4 
  726000   0.98162968   -2.6499134    729.49098  0.083734043   0.08442723            3 
  727000   0.96735357   -2.6141954    730.26194  0.083707237  0.084393702            3 
  728000   0.94515846   -2.6330375    728.87442  0.083433427  0.084359542            2 
  729000   0.95589254   -2.6144687    731.86967   0.08366137  0.084325326            5 
  730000   0.96683508   -2.6429352    729.14027  0.083235191  0.084291076            2 
  731000   0.96758321   -2.6371292    732.71962  0.083529368   0.08425692            1 
  732000   0.96492169   -2.6129987    734.25829  0.083590425  0.084222752            3 
  733000   0.96508927   -2.6273911    732.16701  0.083238632  0.084189415            3 
  734000   0.96221753    -2.629692    733.59985  0.083287903  0.084156121            2 
  735000   0.95921774   -2.6457027    735.56811  0.083397744  0.084121724            4 
  736000   0.96917519   -2.6472895    736.18779  0.083354595  0.084088736            2 
  737000   0.95228293   -2.6363402    736.89868  0.083321877  0.084056028            2 
  738000   0.96798336   -2.6122474    740.47596  0.083612913   0.08402393            2 
  739000   0.94981287   -2.6649816    741.07534  0.083567358  0.083991981            3 
  740000    0.9654252   -2.6294113    738.83918  0.083202611  0.083959276            2 
  741000   0.94498036   -2.6140252    741.66604  0.083408237  0.083926278            2 
  742000   0.95776419    -2.634741     739.9069  0.083098259  0.083894213            2 
  743000   0.96679385   -2.6610574    739.55577  0.082947035   0.08386071            4 
  744000   0.94754097    -2.617746    743.34609  0.083260091  0.083828139            2 
  745000   0.94403021   -2.6562475    745.26504   0.08336298   0.08379635            1 
  746000   0.97359538    -2.641098    745.19474  0.083243381  0.083765085            2 
  747000   0.97840702    -2.618371    750.19727  0.083690012  0.083734205            2 
  748000   0.96342012    -2.609071    749.14224  0.083460589   0.08370353            1 
  749000   0.95095646   -2.6365684    744.46656  0.082828945   0.08367224            1 
  750000   0.93648791   -2.6356227    749.39489  0.083266099  0.083640659            3 
  751000    0.9395991   -2.6220662     750.1785  0.083242177  0.083608378            2 
  752000   0.93054459   -2.6318873    747.95945  0.082885577  0.083575993            1 
  753000   0.96320526   -2.6491011     750.8342  0.083093648  0.083543585            2 
  754000   0.96666755   -2.6429425    749.95939  0.082886758  0.083511395            1 
  755000   0.95932583   -2.6433901    750.07801  0.082790067  0.083478678            2 
  756000   0.92740361   -2.6314635      750.887  0.082769731  0.083445498            4 
  757000   0.96257268   -2.6407853    754.43112  0.083050542  0.083412686            3 
  758000   0.94990129   -2.6655206     752.1391  0.082688995  0.083380035            2 
  759000   0.94471427    -2.669026    754.70375  0.082861632  0.083347233            1 
  760000   0.93245131   -2.6586112    755.83563  0.082876714  0.083315655            3 
  761000   0.95179939   -2.6323657    756.35564  0.082824752  0.083285305            1 
  762000    0.9505903   -2.6148781    759.67402  0.083078962  0.083254259            4 
  763000   0.95280873   -2.6568061    760.27292  0.083035487  0.083223217            3 
  764000   0.93535235   -2.6197715    758.63968  0.082748656   0.08319213            3 
  765000     0.941718   -2.6512792    760.62797  0.082857077  0.083162048            3 
  766000   0.93833483   -2.6171814    763.09227  0.083017001   0.08313218            3 
  767000     0.919662   -2.6251289    760.57086  0.082634817  0.083102015            3 
  768000   0.92963318   -2.6579059    761.86555  0.082667703  0.083072041            3 
  769000   0.96899476   -2.6443794    763.89284  0.082779892  0.083041739            2 
  770000   0.96169989   -2.6212286    766.68199  0.082974241  0.083012128            1 
  771000   0.94809746   -2.6523806    764.54629  0.082635786  0.082980572            2 
  772000   0.94080276   -2.6497525    765.20618  0.082599977  0.082949849            4 
  773000   0.94186455   -2.6453438     766.7724  0.082661966   0.08291873            1 
  774000   0.94682553    -2.658323    767.35627   0.08261803  0.082887618            1 
  775000   0.97200954   -2.6413713     766.3551  0.082403775  0.082857111            3 
  776000   0.93696897   -2.6740378    768.98903  0.082580437  0.082827259            3 
  777000   0.94928189   -2.6496476    769.88882  0.082570658  0.082796857            3 
  778000   0.95915077   -2.6554437      770.717  0.082553235  0.082766435            2 
  779000   0.95366241   -2.6340508    770.93128  0.082470184  0.082735756            3 
  780000   0.95981764   -2.6502724    771.22105  0.082395411  0.082705782            2 
  781000   0.93365852   -2.6721124    770.19183  0.082180093  0.082675211            2 
  782000   0.95637796    -2.652763    771.06232  0.082167766  0.082644774            2 
  783000   0.92947502   -2.6295137    772.11318  0.082174668  0.082614366            6 
  784000   0.93836928   -2.6474839    773.47377  0.082214474  0.082584107            2 
  785000   0.94969732   -2.6492675    773.44095  0.082106258  0.082552701            2 
  786000   0.93868489   -2.6601511    773.63703  0.082022586  0.082520383            2 
  787000   0.92430091   -2.6549779    774.67007   0.08202775  0.082488597            2 
  788000   0.92130152   -2.6603833    774.35899  0.081890756  0.082457494            3 
  789000   0.94044088   -2.6550522    774.11927  0.081761647  0.082425961            2 
  790000   0.94964143   -2.6352098    775.95006  0.081851272  0.082394807            3 
  791000   0.96395436    -2.657747    777.92298  0.081955645  0.082363076            3 
  792000   0.96178653    -2.672951    777.52049  0.081809816  0.082331168            8 
  793000   0.94294059     -2.66289    776.30272   0.08157868  0.082299111            1 
  794000   0.93260777   -2.6791233     776.2599  0.081471442  0.082266527            2 
  795000   0.93510309   -2.6516824    774.91351  0.081227832  0.082234087            2 
  796000   0.93083351   -2.6547806    779.40848  0.081596365  0.082200556            3 
  797000   0.93420156   -2.6740314    778.68264  0.081418092  0.082167171            4 
  798000   0.92903793   -2.6605844    782.40412  0.081704691  0.082133927            2 
  799000   0.93384555   -2.6707864    780.12759  0.081364997  0.082100279            1 
  800000   0.95900587   -2.6504095    783.38956  0.081603079  0.082067691            2 
  801000   0.92509474   -2.6643918     785.0826  0.081677341   0.08203528            2 
  802000   0.90941577   -2.6572038     787.8404  0.081862053  0.082003288            2 
  803000   0.91857113   -2.6503788    782.50477   0.08120639  0.081971046            2 
  804000   0.92493166   -2.6382696    786.85883  0.081556678  0.081937847            4 
  805000   0.94426671   -2.6762284    785.89733  0.081355831  0.081905247            3 
  806000   0.90843268   -2.6394363    787.62986  0.081434022  0.081872729            5 
  807000   0.93191974   -2.6762856    785.37722  0.081100498  0.081839971            5 
  808000   0.92962099   -2.6727739    786.92721  0.081159985  0.081807441            4 
  809000   0.91752204   -2.6447906    787.87527   0.08115732  0.081775025            2 
  810000   0.93338197    -2.667359    786.53569   0.08091931  0.081741931            4 
  811000   0.92806102    -2.681444    788.49847  0.081021215  0.081709429            3 
  812000   0.91384965   -2.6484372    788.82239  0.080954679  0.081675361            3 
  813000   0.92543471   -2.6985405     790.9149  0.081069587  0.081641578            2 
  814000   0.92505559   -2.6898238      790.033  0.080879709   0.08160801            6 
  815000   0.92428941   -2.6553656     792.4545  0.081028067  0.081575029            2 
  816000   0.92010281   -2.6648609    795.38318  0.081227857   0.08154209            2 
  817000   0.93554086   -2.6799352    792.58018  0.080842531  0.081509119            2 
  818000   0.93014049    -2.676266    792.67428  0.080753289  0.081475727            2 
  819000   0.93517965   -2.6715803    794.85018  0.080876087  0.081441462            2 
  820000   0.91827734   -2.6636407    793.58772  0.080649158  0.081407504            8 
  821000   0.91584152   -2.6761504    794.91834  0.080685986  0.081374255            5 
  822000   0.90715201   -2.6295513     795.1702  0.080613362  0.081340701            2 
  823000   0.90534683   -2.6657713    798.43988  0.080846484  0.081307619            3 
  824000   0.93178626   -2.6634268    796.80653  0.080583184  0.081275179            1 
  825000   0.90800276   -2.6866952    801.01129  0.080910231  0.081242643            2 
  826000   0.92422666    -2.700036    796.45495  0.080352598  0.081209868            3 
  827000    0.9398277    -2.691356    801.33182  0.080746858  0.081176791            2 
  828000   0.92852738   -2.6564873     800.6515  0.080580868  0.081143803            2 
  829000   0.92861968   -2.6760979    797.11452  0.080128118  0.081110568            1 
  830000   0.93084315   -2.6826551    807.61258    0.0810856  0.081078105            2 
  831000   0.93108591   -2.6707777    803.43156  0.080568749  0.081045574            4 
  832000   0.94251288   -2.6641132    804.32549  0.080561447  0.081012486            1 
  833000   0.90612334   -2.6790186    802.38097  0.080270205  0.080979351            2 
  834000   0.91691992   -2.6670718    800.13495  0.079949535  0.080946675            6 
  835000   0.93022893   -2.6594348    808.68997  0.080707581  0.080913835            1 
  836000   0.93380879   -2.6553152    804.80426   0.08022371   0.08088093            4 
  837000   0.92242203   -2.6801512    806.91904  0.080338415  0.080847435            2 
  838000   0.92580173   -2.6791948    803.38178   0.07989079  0.080813687            3 
  839000   0.90126067    -2.664767    805.11194  0.079967416  0.080780237            3 
  840000   0.91999217   -2.6843951    808.37245   0.08019568  0.080747183            3 
  841000   0.90418897   -2.6660958    809.75626  0.080237442  0.080713617            3 
  842000   0.89538137   -2.6780293    807.67429  0.079936093  0.080679505            2 
  843000   0.90910083   -2.6927993    812.53077  0.080321349  0.080646223            2 
  844000   0.92039201   -2.6790306    811.01758  0.080076776  0.080612696            4 
  845000   0.92701269   -2.6803952    808.73004  0.079756414  0.080579788            3 
  846000   0.92161542   -2.6925083    814.01571  0.080182793  0.080546657            4 
  847000   0.93706342   -2.6691036    814.94738   0.08017979  0.080513725            3 
  848000    0.9113596   -2.6830904     811.4079  0.079737412  0.080479691            1 
  849000   0.88926562   -2.6782051    811.86575  0.079688432  0.080445993            9 
  850000   0.91075899   -2.6836096    814.80199  0.079882548  0.080412963            3 
  851000   0.90252788   -2.6796358    814.49388  0.079758508  0.080379721            3 
  852000    0.9110136   -2.6588329    815.19895  0.079733856    0.0803459            2 
  853000   0.93908847   -2.6518751    816.69275  0.079786318  0.080311519            2 
  854000   0.89579736   -2.6692631     812.0346  0.079238349  0.080277092            4 
  855000   0.91197508   -2.6977336    816.13691  0.079545507  0.080242319            1 
  856000   0.89059979   -2.6836562    816.09154  0.079448164  0.080207564            3 
  857000   0.93043865   -2.6873681    816.82554  0.079426832  0.080172976            2 
  858000   0.89704252   -2.6973455    817.03016  0.079354134  0.080138752            2 
  859000   0.89444636   -2.6544513    818.93114  0.079446171  0.080105237            3 
  860000   0.89918418   -2.7110753    817.99065   0.07926266  0.080070478            1 
  861000   0.91345336   -2.7124139    819.67723  0.079333839   0.08003592            2 
  862000   0.92068381   -2.7190975    820.68682  0.079339407  0.080001295            3 
  863000   0.91153496   -2.7043835    819.24568  0.079108312  0.079966887            3 
  864000   0.90504161   -2.6965334    823.25496  0.079403449    0.0799331            3 
  865000   0.92914406   -2.6950096    821.49242  0.079141852  0.079899756            1 
  866000   0.92120795   -2.6786153    823.54046  0.079247542   0.07986598            2 
  867000   0.91091012   -2.6991349    821.92296  0.079000669  0.079831716            2 
  868000   0.91368266   -2.7136594    824.14589   0.07912307  0.079797724            3 
  869000   0.90185968   -2.7275983    822.37307  0.078862013  0.079763153            3 
  870000   0.89392995   -2.6667374    828.48708     0.079357  0.079729835            3 
  871000   0.91142301   -2.6666959    826.78893  0.079103419  0.079695755            2 
  872000   0.89049885   -2.6793901    828.36839  0.079163646  0.079661412            3 
  873000   0.92098013   -2.6519228    827.57107  0.078996856  0.079627861            2 
  874000   0.88804222   -2.6701759    829.06411  0.079048828  0.079594671            1 
  875000   0.90181971    -2.703556    828.53002  0.078907621  0.079560566            3 
  876000   0.91030691   -2.6929428     830.6788  0.079021955  0.079526548            3 
  877000   0.90475372   -2.6845451    831.16316  0.078977876   0.07949324            3 
  878000   0.92440838   -2.7020059    827.32372  0.078523512   0.07945948            3 
  879000   0.90944704   -2.7089345     830.1674  0.078703773  0.079425769            6 
  880000   0.90480228   -2.7140128    829.35254  0.078537173  0.079391548            4 
  881000   0.91046485   -2.6948784    831.15072  0.078618116  0.079356852            9 
  882000   0.89592708   -2.7350024    832.76186  0.078681204  0.079321916            2 
  883000   0.91176555    -2.735139    831.67968  0.078489966  0.079287228            2 
  884000   0.89170546   -2.7052989    833.05577  0.078530898  0.079253311            2 
  885000   0.90891514   -2.6958398    834.40009  0.078568747  0.079219484            3 
  886000   0.91270913   -2.6970694     836.0541  0.078635637  0.079185686            3 
  887000   0.91148166   -2.7279503    834.23955  0.078376507  0.079151457            3 
  888000   0.89668854   -2.7074813    836.81617  0.078530046  0.079116961            4 
  889000   0.88795095    -2.712004    835.52598  0.078320771  0.079082752            2 
  890000   0.90397216   -2.6997992    836.34099  0.078309082  0.079048669            2 
  891000   0.89785624   -2.7095747     838.5965  0.078432145  0.079013806            2 
  892000   0.90497735   -2.6898201    842.28201  0.078688529  0.078980336            4 
  893000   0.89358245   -2.6946357    839.93645  0.078381528  0.078946354            3 
  894000   0.90242018   -2.6975646    843.03889  0.078583043   0.07891265            3 
  895000   0.90335683   -2.6678533    841.27569   0.07833107  0.078878867            2 
  896000   0.89402649   -2.7004856    842.53305  0.078360588  0.078844534            2 
  897000   0.88516245   -2.6790084     839.0718  0.077951673  0.078810364            3 
  898000   0.88276223   -2.6848882    844.14637   0.07833578  0.078776487            2 
  899000   0.89108721   -2.7039411    839.89724  0.077854768  0.078742053            2 
  900000   0.88719539   -2.7137807    840.08628  0.077785767  0.078707268            2 
  901000   0.89258071   -2.7178938    843.15112  0.077982901  0.078672804            1 
  902000   0.88844434   -2.6837508    847.40599   0.07828954  0.078638879            3 
  903000   0.92248326   -2.6958588    843.31578  0.077825376  0.078604866            3 
  904000   0.87370199   -2.7158216    846.16635  0.078002061  0.078570315            4 
  905000   0.89543521   -2.7111911     843.2292  0.077645415  0.078535694            5 
  906000   0.87971831   -2.7033122    842.55364  0.077497575  0.078500977            5 
  907000   0.89696524   -2.7232715    846.41229  0.077766656  0.078466155            4 
  908000   0.88870122   -2.7231836    845.07324  0.077558117  0.078431721            3 
  909000   0.90697407   -2.6929436    850.05646  0.077929635  0.078397505            2 
  910000   0.89997305   -2.6975416    851.61285  0.077986525  0.078363413            3 
  911000   0.88932645   -2.7026155    846.61902  0.077444111  0.078329032            3 
  912000   0.89183451   -2.7063409    848.41903  0.077523668  0.078294307            3 
  913000   0.89893865   -2.7274766      851.809  0.077748175   0.07825964            7 
  914000   0.86192941   -2.7226655     847.1705  0.077240198  0.078225435            2 
  915000   0.87850758   -2.7097463    850.22131  0.077433634  0.078190467            3 
  916000   0.87295794   -2.7265469    850.47266  0.077371967  0.078155363            4 
  917000   0.90543916   -2.6973779    849.91346  0.077236774   0.07812016            5 
  918000    0.8806599   -2.7161698    853.76073  0.077501882  0.078085582            5 
  919000   0.88091442   -2.7483266    851.59016  0.077220726  0.078051219            2 
  920000   0.88988012    -2.718779    852.39765  0.077209932  0.078017308            5 
  921000   0.89370447   -2.7021374    858.03592  0.077636257  0.077983361            3 
  922000   0.88496716   -2.7255566    856.33733   0.07739853  0.077949337           10 
  923000   0.87579269   -2.7347862    855.59256  0.077247433  0.077915849            3 
  924000   0.89091879   -2.7040218    859.15562  0.077485175  0.077882081            2 
  925000   0.87948618   -2.7256617    857.49737  0.077252016   0.07784788            4 
  926000   0.88854574   -2.7107233    858.48117  0.077257125  0.077814127            2 
  927000   0.86530281   -2.7286581    861.63353  0.077457167   0.07778115            2 
  928000   0.88971334    -2.690895    860.89225  0.077307135  0.077747861            3 
  929000   0.87369863   -2.7142062     859.7261  0.077119313  0.077714729            2 
  930000    0.8792822   -2.6975234    860.31308  0.077088985  0.077681438            3 
  931000   0.90282286   -2.7248304    861.94597  0.077152342  0.077648116            4 
  932000   0.87919952   -2.7306366    859.64731   0.07686403  0.077614987            3 
  933000   0.89044053    -2.743451    861.32551  0.076931539  0.077580913            4 
  934000   0.88404255   -2.7317815    862.07474  0.076916019  0.077547048            4 
  935000    0.8776948   -2.7310178    861.83707  0.076812573  0.077513587            3 
  936000   0.89285102   -2.7328293    865.42645  0.077050075  0.077478991            4 
  937000   0.87984001   -2.7261541    860.60263  0.076538833  0.077444349            2 
  938000   0.86996007    -2.754206    863.43569  0.076708928  0.077409754            4 
  939000   0.89151761   -2.7349365    862.81602  0.076572242  0.077375734            3 
  940000   0.87891554   -2.7516509    864.12945   0.07660722  0.077342139            4 
  941000    0.8754612   -2.7301553    867.45876  0.076820648  0.077309065            3 
  942000   0.88704739   -2.7078468    867.24489  0.076720178  0.077275518            3 
  943000   0.87226464   -2.7304632    870.28476  0.076907455  0.077241825            1 
  944000   0.86965561   -2.7372457    868.30584  0.076651293  0.077208706            2 
  945000   0.87373146   -2.7431714    869.65183  0.076688874  0.077176186            4 
  946000   0.85701941   -2.7006028    867.05317  0.076378891  0.077142676            3 
  947000   0.86194566   -2.7425796    869.98427  0.076556166  0.077109578            2 
  948000   0.87520151   -2.7305249    868.76343  0.076368093  0.077076177            3 
  949000   0.87087794   -2.7198969    870.04653  0.076400293  0.077042787            3 
  950000    0.8737954   -2.7282307    873.52297  0.076624822   0.07700981            6 
  951000   0.88670737   -2.7437674    872.45826  0.076450952  0.076976701            2 
  952000   0.86611751   -2.7426358    873.51071  0.076462772  0.076942655            3 
  953000   0.87748457   -2.7502933    870.28288  0.076100287  0.076908949            2 
  954000   0.87941272   -2.7429554     875.3097  0.076459617  0.076875671            4 
  955000   0.86347622   -2.7226235      873.838  0.076251135  0.076841798            4 
  956000   0.86201063   -2.7427113    872.45677  0.076050974   0.07680759            7 
  957000   0.88046142   -2.7335561    876.78317  0.076348238   0.07677372            4 
  958000   0.88774975   -2.7401837    876.61916  0.076254276   0.07673985            4 
  959000   0.86608154   -2.7298836    874.50035  0.075990645   0.07670561            5 
  960000   0.85921247   -2.7571289    875.41778  0.075991126  0.076671386            3 
  961000   0.87662682   -2.7306133    880.54579  0.076356728  0.076637291            2 
  962000   0.86777605   -2.7483392    875.46696  0.075837401   0.07660252            4 
  963000   0.88476889   -2.7385253    879.31229  0.076091406  0.076567894            5 
  964000   0.86519361   -2.7365505     878.8746  0.075974637  0.076534074            2 
  965000   0.85049389   -2.7682081     879.7449  0.075971062  0.076500226            3 
  966000    0.8579412   -2.7357972     878.4076  0.075777053  0.076466279            7 
  967000   0.89194619   -2.7420377    880.09172  0.075843822  0.076432434            7 
  968000   0.87566878   -2.7472777    879.93772  0.075752214  0.076398414            4 
  969000     0.841599   -2.7357522    878.85768  0.075581156  0.076364174            3 
  970000   0.88786495    -2.775093    879.73589  0.075578685  0.076329338            4 
  971000   0.86172979   -2.7384112    884.49613  0.075909383  0.076294385            3 
  972000   0.86764217   -2.7579365    878.18626  0.075290317  0.076259076            4 
  973000   0.86030324    -2.732949    881.25451   0.07547572  0.076223581            2 
  974000   0.85738964   -2.7294236    881.05473  0.075381137  0.076187926            2 
  975000   0.86429713   -2.7576157    883.21738  0.075488665  0.076151734            2 
  976000   0.84832684   -2.7278392    881.62655  0.075275491   0.07611583            2 
  977000   0.86989443    -2.734766     882.4075  0.075265054  0.076080345            3 
  978000   0.87438645   -2.7373731    883.70355   0.07529853  0.076044708            4 
  979000   0.88016138   -2.7668231    881.20804  0.075009197  0.076008865            2 
  980000   0.86864502    -2.733753    882.80031  0.075068053  0.075972762            2 
  981000   0.87173613   -2.7212078    882.78916  0.074990585  0.075936341            3 
  982000    0.8671529   -2.7690104    881.83745  0.074833456  0.075899601            2 
  983000   0.86962513   -2.7569923    882.22035  0.074789788  0.075862336            5 
  984000   0.83319377   -2.7355068    883.19375  0.074796218  0.075825596            4 
  985000   0.84786138   -2.7382986    883.98701  0.074787395  0.075789522            4 
  986000   0.85095647   -2.7372783     886.6083  0.074933089  0.075753314            9 
  987000   0.86162895    -2.730655    885.85901  0.074793905  0.075717508            4 
  988000   0.86087414   -2.7490517    887.22645   0.07483354  0.075681564            3 
  989000   0.85516953   -2.7518743      890.831  0.075061594  0.075644967            1 
  990000   0.87247078   -2.7688891    885.51014  0.074537891  0.075607687            5 
  991000   0.85175828   -2.7318864    887.97306  0.074669783  0.075570778            3 
  992000   0.84148448   -2.7565856    886.01831  0.074430302  0.075533766            3 
  993000   0.87157385   -2.7634181    886.86951   0.07442678  0.075497146            3 
  994000   0.84141375   -2.7426378    886.82657  0.074348304  0.075459851            3 
  995000    0.8664095   -2.7536399    886.41406  0.074239033  0.075422427            4 
  996000   0.85041352   -2.7534837    890.24677  0.074485171  0.075385737            1 
  997000   0.86484687    -2.749369    888.97094  0.074303823  0.075348671            3 
  998000    0.8563895   -2.7335332     892.9866   0.07456468  0.075311431            1 
  999000   0.85429219   -2.7542393    893.74381  0.074553204   0.07527456            3 
 1000000   0.84899424    -2.763112    893.18928   0.07443244  0.075237892            9 
 1001000   0.86295876   -2.7235523    896.54252  0.074637239   0.07520202            2 
 1002000   0.85785776   -2.7469395    893.59128  0.074317305  0.075165894            2 
 1003000    0.8655719     -2.73238    894.42844  0.074312765  0.075129795            3 
 1004000    0.8523006   -2.7615408    893.72837  0.074180642   0.07509328            3 
 1005000    0.8487684   -2.7509203    895.33899  0.074240381   0.07505752            2 
 1006000   0.85378147   -2.7703102    895.84097  0.074208165  0.075021665            4 
 1007000   0.84016912   -2.7327486    898.28853  0.074337019  0.074986159            2 
 1008000   0.83028689   -2.7641534    894.74236  0.073970103  0.074949835            3 
 1009000   0.84682967   -2.7807609    896.25751  0.074021928  0.074913804            1 
 1010000   0.85399196   -2.7634775     901.1073  0.074348787  0.074878058            1 
 1011000   0.85849871   -2.7457582    897.40621  0.073970179  0.074842546            5 
 1012000   0.86142981   -2.7613663    899.34035  0.074056353   0.07480731            5 
 1013000    0.8508737     -2.78274    895.51726  0.073668745  0.074771336            6 
 1014000    0.8605699    -2.762919    900.19216  0.073980289  0.074735299            2 
 1015000   0.83439681   -2.7454508    902.67393   0.07411116  0.074699313            3 
 1016000   0.84776953   -2.7772321    896.69423  0.073547755  0.074663261            2 
 1017000   0.85931875   -2.7627895    902.14814  0.073922332  0.074627211            3 
 1018000   0.85507661   -2.7549083    899.63373  0.073643887  0.074591655            5 
 1019000   0.82119718    -2.733744    904.66129  0.073982768  0.074556393            6 
 1020000   0.83159215   -2.7787549     900.7644  0.073591862  0.074520909            6 
 1021000   0.85560351   -2.7471014    906.94294  0.074024073   0.07448545            2 
 1022000   0.83953591   -2.7553554    903.25665  0.073651064  0.074450493            3 
 1023000   0.83692475   -2.7900859     906.8467  0.073871514   0.07441533            4 
 1024000    0.8341541   -2.7765352     905.9919   0.07372981   0.07437977            5 
 1025000   0.84279142   -2.7873993    908.12215  0.073831069  0.074344275            4 
 1026000   0.83511088   -2.7652183    905.64728  0.073558096  0.074309094            4 
 1027000   0.81543693    -2.789002    905.27535  0.073456292  0.074273826            3 
 1028000   0.85104531   -2.7864941    906.35643  0.073472473  0.074238495            2 
 1029000   0.84989967   -2.7880544    904.76036  0.073271814  0.074203121            4 
 1030000    0.8451918   -2.8008834    906.13283  0.073311717  0.074168239            2 
 1031000   0.82638057   -2.7795489    906.68787  0.073285473  0.074132882            1 
 1032000   0.84799577   -2.7911309     906.5055  0.073199734  0.074097597            6 
 1033000   0.83303837   -2.7923101    907.83549  0.073236164   0.07406207            3 
 1034000   0.84711533   -2.7796526    911.03095  0.073422869   0.07402683            4 
 1035000   0.83383189   -2.7709167    907.23534  0.073046324  0.073991626            5 
 1036000   0.83702174   -2.7748648    911.79136  0.073342291  0.073955689            2 
 1037000     0.843198   -2.7886354     910.7372  0.073186853   0.07391975            4 
 1038000   0.86532143   -2.7897864    910.53828  0.073100375  0.073883659            4 
 1039000   0.84099354   -2.7826809     912.0248  0.073149246  0.073848291            5 
 1040000    0.8338284   -2.7643095    913.28662  0.073180018  0.073812331            3 
 1041000   0.84667031   -2.7956519    914.07398  0.073172749  0.073776395            2 
 1042000   0.85063849   -2.7870111    912.57699  0.072982805   0.07374073            3 
 1043000   0.85328418   -2.7759219    915.33171  0.073132927  0.073705896            3 
 1044000   0.83139815   -2.7964332    914.36217  0.072985486  0.073670864            3 
 1045000   0.82463292   -2.7879875    914.87374  0.072956438  0.073635578            3 
 1046000   0.83507354   -2.7774619    914.77822  0.072879081  0.073600632            8 
 1047000   0.84325391   -2.7918514    915.90936  0.072899503  0.073565201            5 
 1048000   0.82878456   -2.7841739    914.38131  0.072708438  0.073529778            3 
 1049000   0.83330484   -2.7742211    917.53066  0.072889312  0.073494372            2 
 1050000   0.83032626   -2.7860048    916.17893  0.072712614  0.073459122            7 
 1051000   0.81420842    -2.767034    917.57416  0.072754057  0.073423375            3 
 1052000   0.82272064   -2.8056854    914.53212  0.072443926  0.073388376            3 
 1053000    0.8275503   -2.7975718    917.78692   0.07263271  0.073352787            4 
 1054000   0.82522544   -2.7928498    919.57702   0.07270533  0.073317327            2 
 1055000   0.83213543     -2.79714    919.45762  0.072626985  0.073282005            4 
 1056000      0.84163   -2.7800737    919.45487  0.072557992  0.073246226            4 
 1057000    0.8506235    -2.778068    921.29802  0.072634659  0.073210472            3 
 1058000   0.84888582   -2.8037764    919.92883  0.072458162  0.073174932            8 
 1059000   0.82651743   -2.7589333    920.78678  0.072457253  0.073139411            2 
 1060000   0.83205138   -2.7955222    920.34994  0.072354555  0.073102962            3 
 1061000   0.84378539   -2.7574104    920.12025   0.07226832  0.073066793            4 
 1062000   0.84049275   -2.8008419     918.6784  0.072087131  0.073030495            5 
 1063000   0.82438922    -2.802373    918.64291  0.072016535    0.0729943            3 
 1064000   0.82766481   -2.7803191    921.35462  0.072161233  0.072957564            2 
 1065000    0.8359367   -2.8178775    920.10588  0.071995765  0.072921009            5 
 1066000   0.82714987   -2.7758426    922.32326  0.072101568  0.072883943            3 
 1067000   0.82025334   -2.7926067    917.83227  0.071683245  0.072847144            2 
 1068000   0.83394227   -2.8000252    919.45793  0.071742972  0.072810398            4 
 1069000   0.81967304   -2.7990381    919.92616   0.07171236  0.072773582            3 
 1070000   0.82183734   -2.7947168     922.2881  0.071829291  0.072736103            6 
 1071000   0.82465424   -2.8152447    919.39657  0.071537237  0.072699258            3 
 1072000   0.82765472   -2.8062692    919.98991  0.071516629    0.0726618            2 
 1073000   0.83871753   -2.7825718    924.16059  0.071773889  0.072624165            6 
 1074000   0.82625235   -2.8295142      924.271  0.071715627  0.072587067            3 
 1075000   0.82958571   -2.8014193    923.88042  0.071618637  0.072549854            2 
 1076000   0.82306099   -2.7990397    924.96272  0.071635899  0.072512613            3 
 1077000   0.82162965   -2.7897228    923.39098   0.07144777  0.072475569            6 
 1078000   0.81200005   -2.7905355    926.33968  0.071609437  0.072438539            4 
 1079000    0.8109167   -2.7735725    926.38784   0.07154679  0.072402156            2 
 1080000   0.82299413   -2.7934183    926.87067  0.071517799   0.07236581            3 
 1081000   0.84069723   -2.8253928    928.76459   0.07159764  0.072329792            4 
 1082000   0.82009488   -2.8032641    928.39003  0.071502621  0.072293543            3 
 1083000   0.83815019   -2.8107778     927.7366  0.071386319  0.072257718            4 
 1084000   0.82725798   -2.7747165    934.60131  0.071848194  0.072222241            4 
 1085000   0.84967444   -2.8076874    931.37452  0.071534141  0.072186454            5 
 1086000    0.8403826   -2.8155314     928.3908  0.071239318  0.072150503            3 
 1087000   0.81508648   -2.7829087    930.49956  0.071335446  0.072114607            3 
 1088000    0.8211089   -2.8096889    930.91654  0.071301818  0.072078517            4 
 1089000   0.81453013   -2.7959171    933.41767  0.071427737  0.072042877            2 
 1090000   0.83033135   -2.8181403    930.26239  0.071120978  0.072007328            3 
 1091000    0.8092492   -2.8250127     931.8892  0.071180049  0.071971063            4 
 1092000    0.8068174   -2.7935348    929.11036  0.070902805  0.071934896            7 
 1093000   0.82945329   -2.8169396    932.15873  0.071070351  0.071898935            4 
 1094000    0.8091733   -2.8138984    931.86541  0.070983044  0.071862483            5 
 1095000   0.79902813   -2.8002456    931.35767  0.070879579  0.071826067            5 
 1096000    0.8049092   -2.8174007     933.1092  0.070948084  0.071790127            3 
 1097000   0.81543721   -2.8218011    929.50815  0.070609857  0.071753994            2 
 1098000   0.80574478   -2.8128927    933.06347  0.070815382  0.071718009            5 
 1099000   0.80199619   -2.8459635    934.26114  0.070841761  0.071681877            7 
 1100000   0.80729196   -2.8090154    936.39479  0.070938999  0.071645814            2 
 1101000   0.80930297   -2.8267078    933.30701  0.070640857  0.071609714            5 
 1102000   0.79257666   -2.8193274    936.85856  0.070845324  0.071573556            5 
 1103000   0.81778097   -2.8357725    935.30911  0.070664031  0.071537277            6 
 1104000   0.81750754   -2.8227571    934.21071  0.070517113   0.07150089            2 
 1105000   0.81392671   -2.8049776    937.95934  0.070735998  0.071464962            9 
 1106000   0.83019448   -2.8151834    937.53107  0.070639773  0.071428986            2 
 1107000   0.81527562   -2.8088581    938.35218  0.070637773  0.071393287            3 
 1108000   0.80776578   -2.8264948    940.97166  0.070771033  0.071357625            3 
 1109000   0.82914051   -2.8352729    938.93883  0.070554466  0.071322379            7 
 1110000   0.80082967   -2.8060723      943.266  0.070815766  0.071286732            3 
 1111000   0.81303403   -2.7984711    943.23905  0.070750004  0.071251143            3 
 1112000   0.79491758   -2.8269905    939.82204  0.070430308   0.07121517            4 
 1113000   0.83631631    -2.838435    941.84688  0.070518634  0.071179177            5 
 1114000   0.81099429   -2.8212904    938.79043  0.070226693  0.071143155            4 
 1115000   0.81699066   -2.8167504    943.64133  0.070526258  0.071107053            1 
 1116000   0.81864298   -2.8228456    938.68153  0.070092707    0.0710705            3 
 1117000   0.81379796   -2.8222251    945.74937  0.070557249  0.071034425            5 
 1118000   0.80834458   -2.8200398    941.94677  0.070210702  0.070998271            3 
 1119000   0.81393507   -2.8395838    940.99986  0.070077439  0.070961612            2 
 1120000    0.8301073   -2.8187344    944.52135  0.070276886  0.070925676            4 
 1121000   0.81957388   -2.8409814    942.16708  0.070039182  0.070889601            6 
 1122000   0.82018047   -2.8389253    944.50062  0.070150076  0.070853484            5 
 1123000   0.80080814   -2.8373642    942.74726    0.0699575  0.070817243            6 
 1124000   0.80528882   -2.8176527    944.70387  0.070040322  0.070781458            3 
 1125000   0.77826187   -2.8274799    942.22738   0.06979462  0.070745241            4 
 1126000   0.79418507   -2.8183035    948.84532  0.070222418  0.070709091            4 
 1127000   0.81681285   -2.8523722    948.20463  0.070112735   0.07067311            3 
 1128000   0.81316999   -2.8178225    947.81756  0.070021983  0.070637047            2 
 1129000   0.78686268   -2.8370288    948.19402  0.069987749  0.070601153            6 
 1130000   0.80290035   -2.8309165     947.6407  0.069885007  0.070565454            2 
 1131000   0.80062514   -2.8376226    949.41529  0.069953971   0.07052985            4 
 1132000   0.79374001   -2.8258295    945.29111  0.069588568    0.0704936            4 
 1133000   0.80523499   -2.8494673    951.23513  0.069964337    0.0704579            3 
 1134000   0.81187568    -2.821294    950.41827  0.069842613  0.070422487            5 
 1135000   0.81448947   -2.8544209    952.67483  0.069946757  0.070387246            3 
 1136000   0.80186524   -2.8510401    955.37506  0.070083264  0.070352165            4 
 1137000   0.80423471   -2.8312355    952.43304  0.069805998  0.070317111            7 
 1138000   0.78524343   -2.8373468    952.53633  0.069752221  0.070282207            9 
 1139000     0.775962   -2.8304933    955.29577  0.069892872  0.070247785            5 
 1140000   0.79358907   -2.8628657     951.4541  0.069550738  0.070213107            4 
 1141000   0.80044555    -2.814175    954.52382   0.06971398  0.070178437            6 
 1142000    0.8063675   -2.8116598    958.64672  0.069953789  0.070144041            5 
 1143000   0.79366388   -2.8471744    953.76745  0.069536851  0.070108998            6 
 1144000   0.78925352   -2.8183096    953.71415  0.069472185  0.070074376            2 
 1145000   0.81031322   -2.8447315    957.92886  0.069718258  0.070039625            5 
 1146000   0.79142123    -2.820807    955.25345  0.069462874  0.070004423            1 
 1147000    0.8013831   -2.8323577    954.89392  0.069376193  0.069969453            4 
 1148000   0.78259451   -2.8296158    957.33287  0.069492804  0.069934641            5 
 1149000   0.79780145    -2.828266    958.40433  0.069510033  0.069899624            6 
 1150000   0.78921979    -2.839322    957.57032  0.069389154   0.06986488            3 
 1151000   0.80445342   -2.8632985    958.38009  0.069387496  0.069829448            3 
 1152000   0.80666181   -2.8216631    959.59875  0.069415419  0.069794566            4 
 1153000    0.7961804   -2.8369736    954.68737  0.069000243  0.069759279            3 
 1154000   0.80136561   -2.8512391    958.01821   0.06918098  0.069723831            5 
 1155000   0.78048416   -2.8485733    959.15791  0.069203313  0.069688827            1 
 1156000   0.79088489   -2.8467461    957.31097  0.069010306  0.069653772            3 
 1157000   0.79136935   -2.8277588    959.65603  0.069119564  0.069618494            8 
 1158000   0.78639906   -2.8380158    957.47583  0.068902981  0.069583103            3 
 1159000   0.78372501   -2.8517945    960.55556  0.069064967  0.069547823            6 
 1160000   0.79141199   -2.8536279    959.47326  0.068927676  0.069512608            3 
 1161000   0.80541176   -2.8781116    958.62517  0.068807434  0.069477055            5 
 1162000   0.77655818   -2.8439549    963.00308  0.069062183  0.069441428            2 
 1163000   0.80369061   -2.8698713    955.82592  0.068488529  0.069405982            4 
 1164000   0.79659971   -2.8325665    961.52169  0.068837463  0.069370866            3 
 1165000   0.78869632   -2.8219815    961.89005  0.068804724  0.069335113            4 
 1166000   0.79184045   -2.8566633    962.75602  0.068807606  0.069299497            4 
 1167000   0.77885406   -2.8425095    961.75501  0.068677164  0.069263877            7 
 1168000   0.78450402    -2.849555    961.92441  0.068630452  0.069228517            4 
 1169000   0.77321331   -2.8342649    960.05442  0.068438439  0.069192778            3 
 1170000   0.79150924   -2.8462532    962.02396  0.068520225  0.069157092            4 
 1171000   0.77427929   -2.8451337    962.53844  0.068498323  0.069121022            2 
 1172000   0.78471759   -2.8593375    959.94293  0.068255328  0.069084905            3 
 1173000   0.80671554   -2.8380965    963.95235   0.06848198  0.069048731            2 
 1174000   0.78536168   -2.8431815    963.78357  0.068411667   0.06901278            3 
 1175000   0.79160015   -2.8638359    964.20724  0.068383492    0.0689762            5 
 1176000   0.77963627   -2.8585405    963.32594  0.068262893  0.068940224            2 
 1177000   0.78710834   -2.8508542    964.99655  0.068323177  0.068903909            3 
 1178000   0.77468675   -2.8399406    964.45477  0.068226851  0.068867629            6 
 1179000    0.7841538   -2.8441124    960.49687  0.067889233  0.068831813            2 
 1180000   0.77534942   -2.8454919    961.19241   0.06788082  0.068795699            2 
 1181000   0.77558374   -2.8595344    966.31396  0.068184728  0.068759134            9 
 1182000   0.78896598   -2.8648937    966.42493  0.068134865  0.068723087            5 
 1183000   0.77765398   -2.8671477    963.09374  0.067842613  0.068686872            5 
 1184000   0.77597345   -2.8732611    964.95032  0.067915985  0.068651078            5 
 1185000   0.78669306   -2.8491929    964.74677  0.067844358  0.068615092            3 
 1186000   0.77739153   -2.8696695     967.9996  0.068015711  0.068578979            3 
 1187000   0.78720038   -2.8376842    965.37396  0.067774078  0.068542983            4 
 1188000   0.77101283   -2.8512165    967.90675  0.067894694  0.068506634            1 
 1189000   0.77162868   -2.8657716    965.37378  0.067660063   0.06847003            3 
 1190000   0.77324731   -2.8699096    968.40532  0.067815499   0.06843353            5 
 1191000   0.78447021   -2.8412571    969.75576  0.067853048  0.068397397            3 
 1192000   0.77499704   -2.8631658    968.37751   0.06769977  0.068361616            3 
 1193000   0.77280246   -2.8470408    968.88815  0.067678692  0.068325416            4 
 1194000   0.78726432   -2.8795807    966.04326  0.067423455  0.068288988            5 
 1195000   0.78335569   -2.8566264    969.62934  0.067617109  0.068252479            6 
 1196000    0.7676418   -2.8594054    967.41633  0.067406377  0.068216132            9 
 1197000    0.7798622   -2.8508098    968.09777  0.067397506   0.06817972            2 
 1198000   0.77536569   -2.8684361     968.1848  0.067347301  0.068143356            3 
 1199000   0.76876095   -2.8448419    970.14419  0.067427313  0.068106796            4 
 1200000   0.77550603   -2.8866943    969.74459  0.067343374   0.06807052            6 
 1201000   0.76870152   -2.8365781    972.42451  0.067473252  0.068033951            7 
 1202000   0.78288938   -2.8626593    969.95635  0.067246003  0.067997909            4 
 1203000   0.77453529   -2.8649308    969.98373  0.067192001  0.067961789            3 
 1204000   0.78710561   -2.8694592    973.08596  0.067350911  0.067925813            2 
 1205000   0.79226407   -2.8431459    972.98349  0.067287931  0.067889866            8 
 1206000   0.76361612   -2.8671736    973.26168   0.06725136  0.067854183            4 
 1207000   0.77892727   -2.8692191    971.81258  0.067095594  0.067818331            3 
 1208000    0.7757373    -2.873899    972.99108   0.06712135  0.067782115            3 
 1209000   0.76567876   -2.8624348     975.4166  0.067233016  0.067745864            3 
 1210000    0.7793323   -2.8262452    978.28324  0.067374878  0.067710013            3 
 1211000   0.77380733   -2.8658988    976.56347  0.067200899  0.067674473            6 
 1212000   0.76834768   -2.8726722    971.11883  0.066771097  0.067638304            4 
 1213000   0.75996675   -2.8798827     974.8639  0.066973337  0.067602537            4 
 1214000   0.78878453   -2.8614844    970.72214  0.066633865  0.067566552            3 
 1215000    0.7654955   -2.8867046    976.84688    0.0669991  0.067530353            5 
 1216000   0.76580273   -2.8599098    975.68894  0.066864647   0.06749469            3 
 1217000   0.77608395   -2.8535654    975.36736  0.066787685   0.06745926            5 
 1218000    0.7727724   -2.8346483    980.92622  0.067113179  0.067424071            2 
 1219000   0.76174764    -2.876628    979.90741  0.066988475   0.06738837            5 
 1220000   0.76698346   -2.8727394    978.34063  0.066826546  0.067352833            4 
 1221000   0.77259299   -2.8806869    978.98924  0.066816083  0.067317341            4 
 1222000   0.76281602   -2.9017587    978.19414  0.066707183   0.06728146            3 
 1223000   0.75378868   -2.8690852    980.83676  0.066832704  0.067246121            6 
 1224000   0.77654201   -2.8622258    983.13569   0.06693462  0.067211146            3 
 1225000    0.7760709   -2.8832303    979.28312    0.0666179  0.067176358            3 
 1226000   0.76942796   -2.8791971    983.28685  0.066835702  0.067141405            3 
 1227000    0.7534789    -2.864902    981.44106  0.066655872  0.067106741            4 
 1228000   0.76422196   -2.8603544    979.90849   0.06649759  0.067071852            6 
 1229000   0.76751866   -2.8863991    982.21004  0.066599541  0.067036974            6 
 1230000    0.7738271   -2.8692388    985.74269  0.066784735  0.067002191            2 
 1231000   0.77315914   -2.8841245    981.83554  0.066465985  0.066967204            4 
 1232000   0.76448276   -2.8768287    985.85888  0.066684177  0.066932328            3 
 1233000   0.75811369     -2.86901    985.39966  0.066599058   0.06689773            5 
 1234000   0.75339426   -2.8729589    986.70454  0.066633208  0.066862973           11 
 1235000   0.77106675   -2.8712691    982.56178  0.066299715   0.06682801            7 
 1236000   0.75489701   -2.8959822     984.1437   0.06635273   0.06679323            3 
 1237000   0.77575473   -2.8788275    985.39244  0.066383215  0.066757864            6 
 1238000   0.75525337   -2.8984503    986.76968    0.0664223  0.066723131            4 
 1239000   0.75260406   -2.9203465    987.19752  0.066397466  0.066688227            7 
 1240000   0.75513145   -2.9068446    988.80846  0.066452182  0.066653403           11 
 1241000   0.75339172   -2.9100098    984.27056  0.066093914  0.066618487            9 
 1242000   0.74758001   -2.8723298    986.36702  0.066181362  0.066583769            3 
 1243000   0.75325399   -2.8764014    986.00769  0.066104028  0.066548995            5 
 1244000   0.76586871   -2.9099248    984.62859  0.065958507  0.066513976            7 
 1245000   0.75019614   -2.8857685    990.79985  0.066318597  0.066479447            4 
 1246000   0.76286951   -2.8991113    988.70844  0.066125498  0.066444985            4 
 1247000   0.75947952   -2.8823632    988.71653  0.066073011  0.066410598            4 
 1248000   0.75737471   -2.9133041     987.5122   0.06593965  0.066376403            4 
 1249000   0.75440116   -2.8942039    990.41957  0.066080836  0.066341765            5 
 1250000   0.73673448   -2.9017227    990.41406  0.066027604   0.06630759            6 
 1251000    0.7558741   -2.9030632    991.75728  0.066064301  0.066273493            3 
 1252000      0.75209   -2.8821081    992.68344  0.066073179  0.066239423            4 
 1253000   0.75663892   -2.8810301    992.69877  0.066021467  0.066205288            5 
 1254000   0.75870874   -2.9040092    992.02672  0.065924157   0.06617152            6 
 1255000   0.75733285    -2.893807    994.49981  0.066035844  0.066137558            3 
 1256000    0.7558195   -2.8909553    988.72935  0.065600408  0.066103447            7 
 1257000   0.74269221   -2.8947904    992.61627  0.065805905  0.066068856            8 
 1258000    0.7653417   -2.8642318    993.63264  0.065820922  0.066034847            9 
 1259000   0.73905158   -2.9244256    995.59046   0.06589823  0.066000675            4 
 1260000   0.75573937   -2.8738889    996.43344  0.065901682  0.065966721            2 
 1261000   0.75512236   -2.9120468    992.69833  0.065602586  0.065932766            7 
 1262000   0.73774069   -2.8811129    994.53708  0.065672021  0.065898692            4 
 1263000   0.75915425   -2.9082059    995.45948  0.065680884  0.065864481            3 
 1264000   0.73728642   -2.9012492    998.33574  0.065818549  0.065830328            4 
 1265000   0.75855699   -2.9209666    992.31167  0.065369675  0.065796028            4 
 1266000   0.74382421   -2.9159005    995.73108   0.06554312  0.065761915            3 
 1267000   0.74575103   -2.8991502    996.61317  0.065549406  0.065728006            2 
 1268000   0.74829666   -2.9053394    997.75813  0.065572958    0.0656941            9 
 1269000   0.73496119   -2.8991704    996.39287   0.06543163  0.065660099            3 
 1270000   0.76700908   -2.9053939    996.36159  0.065378057  0.065626156            6 
 1271000   0.74097846   -2.8944539    998.51031    0.0654675  0.065592009            6 
 1272000    0.7512697   -2.8965851    997.87524  0.065374426  0.065558256            3 
 1273000   0.76204596   -2.8909678    995.61688  0.065175234  0.065524676            3 
 1274000   0.73079502   -2.8896191    1002.5289  0.065576198  0.065490894            4 
 1275000   0.74121754   -2.9010773    999.66263  0.065337427    0.0654567            9 
 1276000   0.73098492   -2.8964309    999.53903   0.06527815  0.065422866            8 
 1277000   0.73477619   -2.8963328    1001.4648    0.0653527  0.065389224            5 
 1278000   0.76841828   -2.9163471    1002.5297  0.065371002  0.065355247            6 
 1279000   0.74450352   -2.9051338    1001.9166  0.065279948  0.065321484            4 
 1280000   0.73498858   -2.8950891    1003.6008  0.065338594  0.065288025            2 
 1281000   0.73236381   -2.9208273    999.86051  0.065044269   0.06525425            4 
 1282000   0.75448729   -2.9299457      999.367  0.064961454  0.065220278            4 
 1283000   0.74794673   -2.9021076    1004.4062  0.065238129  0.065186515            9 
 1284000   0.75582631   -2.9217155    1004.0446  0.065163851  0.065152611            5 
 1285000   0.73269118   -2.9082514    1003.1153  0.065052871  0.065118792            2 
 1286000   0.74748363   -2.9235986    1003.7402   0.06504278  0.065085214            4 
 1287000   0.73990108     -2.91462    999.46131  0.064715185  0.065051462            4 
 1288000   0.75253252   -2.9127382    1005.2797  0.065041387  0.065017863            8 
 1289000   0.73788308   -2.9111562    1003.6063  0.064882747  0.064984201            3 
 1290000   0.73460175   -2.9228115    1002.6829    0.0647728   0.06495043            4 
 1291000   0.73717044   -2.9204588    998.92647  0.064480149  0.064916508            8 
 1292000    0.7393128   -2.9227759    1003.0959   0.06469917  0.064882657            3 
 1293000   0.73956693    -2.923163    1002.9013  0.064636586  0.064848792            6 
 1294000   0.73004651   -2.8954344    1002.8922  0.064586051  0.064814661            4 
 1295000   0.71769144   -2.9272546    1005.5967  0.064710212  0.064780527            9 
 1296000   0.72322727   -2.8862546    1006.6103  0.064725455  0.064746405            3 
 1297000   0.75391119   -2.9265552    1005.2352    0.0645872  0.064712626            7 
 1298000   0.74126679   -2.9280853    1002.8303  0.064383045  0.064678385            5 
 1299000   0.72044437   -2.9153416    1009.0669   0.06473357  0.064644738            6 
 1300000   0.73641062    -2.912517    1007.6492  0.064592897  0.064611078            7 
 1301000   0.73168799   -2.9063311    1009.9855  0.064692894  0.064577193            5 
 1302000   0.74534999   -2.9106788    1006.9182  0.064446888  0.064543403            4 
 1303000   0.74598598   -2.9186395    1007.8106  0.064454503  0.064509902            6 
 1304000   0.74700414   -2.9171213    1007.5657   0.06438942   0.06447649            5 
 1305000   0.73623907   -2.9203935    1009.4446  0.064460061  0.064443023           10 
 1306000   0.71754909   -2.9103518    1008.9919  0.064381819  0.064409743            5 
 1307000   0.73404654   -2.9227848    1009.6512  0.064374599  0.064376665            3 
 1308000   0.72687446   -2.9207703    1010.8876  0.064404151  0.064343272            3 
 1309000   0.73679286   -2.9362325    1011.8663  0.064417258  0.064309875            9 
 1310000   0.72964327   -2.9519983    1007.3664  0.064081834  0.064276343            6 
 1311000   0.73975021   -2.9133331    1011.5066  0.064296121  0.064242726            4 
 1312000   0.71257317   -2.9294698    1010.9747   0.06421333  0.064209459            6 
 1313000   0.73152576   -2.9200362    1009.3332  0.064060244  0.064176261            3 
 1314000   0.73385474   -2.9211091     1011.461  0.064146435   0.06414302            4 
 1315000   0.73855959   -2.9207613    1008.2605  0.063894833  0.064109805            4 
 1316000   0.74050153   -2.9518088    1013.0432   0.06414914  0.064076595            3 
 1317000   0.74671118   -2.9325096    1014.0638  0.064165009  0.064043268            3 
 1318000   0.72467045   -2.9387354    1011.9382  0.063981933  0.064009911            5 
 1319000   0.72613976   -2.9252005    1014.2536  0.064079708   0.06397683            4 
 1320000   0.72069606   -2.9253276    1011.0548  0.063829216  0.063944102            4 
 1321000   0.73540926   -2.9612516    1014.0397  0.063969197  0.063911395            6 
 1322000   0.73789265   -2.9227328    1016.3118  0.064064029  0.063878967            5 
 1323000   0.71129677   -2.9242283    1014.2776   0.06388748  0.063846087            8 
 1324000   0.73092779   -2.9267589    1020.2681   0.06421627   0.06381386            3 
 1325000   0.72499988   -2.9303315    1018.4785   0.06405525  0.063781386            5 
 1326000   0.72744519   -2.9289442    1018.6396  0.064017069  0.063748962            5 
 1327000    0.7236644   -2.9384174    1015.4438  0.063768138  0.063716702            3 
 1328000   0.73540815    -2.934634    1018.5058  0.063912261  0.063684449            3 
 1329000   0.72791363    -2.936003    1018.9514  0.063892109  0.063652249            7 
 1330000   0.73337031    -2.939649    1015.5467  0.063630744   0.06361978            4 
 1331000   0.70905347   -2.9262118    1020.8941  0.063917736  0.063587299            7 
 1332000   0.71990438    -2.929534    1017.6725  0.063668198  0.063554764            3 
 1333000   0.73009653   -2.9276765    1018.7682  0.063688937  0.063522302            2 
 1334000   0.72923501   -2.9540494    1019.0583  0.063659311  0.063489855            5 
 1335000   0.73016415   -2.9337526    1016.0492  0.063423794  0.063457024            4 
 1336000   0.70568987   -2.9453634    1017.7128  0.063480091  0.063424054            6 
 1337000   0.72175267   -2.9532437    1017.3034  0.063407094  0.063391427            5 
 1338000   0.71295423   -2.9386096     1019.675  0.063507409  0.063358861            4 
 1339000   0.73222401   -2.9521895    1019.6704  0.063459698  0.063326277            4 
 1340000   0.71369664   -2.9159159    1020.9003  0.063488822  0.063293689            3 
 1341000   0.69219556   -2.9443046    1016.7706  0.063184848  0.063260899            3 
 1342000   0.69242787   -2.9301585    1021.5316  0.063433409  0.063227979            9 
 1343000   0.72538376   -2.9323727    1021.1575  0.063362964  0.063195616            4 
 1344000   0.71529406    -2.939251    1024.2099  0.063505078  0.063163306            4 
 1345000   0.70596361   -2.9458004    1020.5031  0.063228196  0.063131023            7 
 1346000    0.7234854   -2.9277444     1022.547  0.063307765  0.063098525            6 
 1347000   0.71103964   -2.9672891    1020.8884  0.063158152  0.063066355            5 
 1348000   0.74195765   -2.9491299    1025.2223  0.063379224   0.06303428            6 
 1349000   0.70868269   -2.9616454    1024.9286  0.063314099  0.063002392           14 
 1350000   0.70189959   -2.9255644    1023.3269  0.063168325  0.062970084           11 
 1351000     0.734476   -2.9626533    1027.4813  0.063377824  0.062938404            6 
 1352000   0.71534434   -2.9498965    1023.8286  0.063105804  0.062906527            4 
 1353000   0.72153572   -2.9548458    1025.0352  0.063133483   0.06287471            4 
 1354000   0.72348603   -2.9524087    1027.0052  0.063208097  0.062842822            7 
 1355000   0.71129039   -2.9732156    1025.7936  0.063086936  0.062811258            4 
 1356000   0.70313805   -2.9365407    1025.5335   0.06302443   0.06277925            4 
 1357000   0.70865723   -2.9520928    1023.3224  0.062842202   0.06274724            5 
 1358000   0.69529829   -2.9687971    1024.6163  0.062875324   0.06271555            4 
 1359000   0.70344942    -2.958719    1029.1697  0.063108272  0.062683877            2 
 1360000   0.71854965   -2.9479435    1028.0927  0.062995875  0.062652137            3 
 1361000   0.70226571   -2.9626868    1023.7337  0.062682691  0.062620361            4 
 1362000   0.69896621   -2.9593606    1027.7549  0.062882701  0.062588495           12 
 1363000   0.72217707   -2.9731883    1026.9106   0.06278495  0.062556582            8 
 1364000   0.70899807   -2.9514805    1033.4734  0.063139868  0.062525086            5 
 1365000   0.72515444   -2.9665392    1031.8503  0.062994521  0.062493608            7 
 1366000   0.71635106   -2.9558747    1031.1605  0.062906327  0.062462297            8 
 1367000   0.70414535   -2.9582865    1031.9485  0.062908347  0.062431029            3 
 1368000   0.71445329   -2.9597628    1032.6692  0.062906263  0.062399848            5 
 1369000   0.70447077    -2.957322    1030.1295  0.062705714  0.062368521            7 
 1370000   0.70804432   -2.9591732     1031.717   0.06275651  0.062337228            5 
 1371000   0.71046035   -2.9655361    1028.2678  0.062501084  0.062305496            5 
 1372000    0.7023618   -2.9573726    1031.4298  0.062647582  0.062274014            3 
 1373000   0.70265121   -2.9628314    1029.2308  0.062468488   0.06224238            3 
 1374000   0.70146973    -2.945121    1033.1103  0.062658316  0.062210629            5 
 1375000   0.69954206   -2.9554985    1031.4901  0.062514554   0.06217926            3 
 1376000   0.70287841   -2.9653195    1030.8032  0.062427522  0.062147557            3 
 1377000   0.70852585   -2.9660124    1030.0897  0.062339002  0.062115818            5 
 1378000   0.70713218   -2.9625104    1031.9921  0.062408811    0.0620844            5 
 1379000   0.69186288   -2.9689684     1030.184  0.062254288    0.0620528            4 
 1380000   0.71780733   -2.9563034     1031.564   0.06229251  0.062021115           13 
 1381000   0.70239177    -2.974321    1033.7067  0.062376703  0.061989623            4 
 1382000   0.70943804   -2.9871021    1031.9717  0.062226947  0.061957936            3 
 1383000    0.7050834   -2.9845339    1031.0473  0.062126253  0.061926117            5 
 1384000   0.71123533   -2.9734772    1034.9194  0.062314513  0.061894606            6 
 1385000   0.70321638   -2.9682004    1033.9976  0.062214054  0.061862872            7 
 1386000   0.70770426    -2.969018    1033.6021  0.062145391  0.061831349            6 
 1387000   0.68546744   -2.9755804    1031.8212  0.061993581  0.061799387            5 
 1388000   0.71063188   -2.9779526    1029.8604  0.061831195  0.061767112            3 
 1389000   0.70001226   -2.9793178    1032.4775  0.061943696   0.06173539            6 
 1390000   0.68170503   -2.9877817     1033.011  0.061931113  0.061703437            4 
 1391000   0.68485856    -2.973894    1038.3629  0.062207219  0.061671395            5 
 1392000   0.70070091   -2.9548786    1035.3143   0.06198002  0.061639638            4 
 1393000   0.69509591   -2.9877497    1036.9092  0.062030942   0.06160777            5 
 1394000    0.6999049   -2.9658223     1038.433  0.062077534  0.061576331            5 
 1395000   0.68269765   -2.9952915    1035.6833  0.061868773  0.061544755            7 
 1396000   0.70436111    -2.975622    1033.1097  0.061670826  0.061512955           12 
 1397000   0.69999502   -2.9756663    1035.4252  0.061764804  0.061481197            3 
 1398000   0.67722083   -2.9758495    1037.1116  0.061821146  0.061449592            8 
 1399000   0.69020286    -2.991863    1035.0909  0.061656595  0.061418104            8 
 1400000   0.69046909    -2.983983    1037.9366  0.061781943  0.061386412            4 
 1401000   0.69149411   -2.9766418    1036.2622  0.061638248  0.061354358           10 
 1402000   0.68006593   -2.9861511    1038.0131  0.061698355  0.061322813            4 
 1403000    0.6912712   -2.9788072     1037.502  0.061624022  0.061291194            3 
 1404000   0.70060149   -2.9911966    1035.1075  0.061438007  0.061259623            9 
 1405000   0.69091579     -2.98833    1039.2471  0.061639806  0.061227974            6 
 1406000   0.69133158    -2.987949    1038.2864  0.061539024  0.061196419            5 
 1407000   0.67998762   -2.9783133    1037.5263  0.061450264  0.061164938            9 
 1408000    0.6912915   -2.9914335    1041.8895   0.06166486   0.06113354            5 
 1409000   0.67099546   -2.9761012    1039.3636  0.061471704  0.061102415            8 
 1410000   0.70333879   -2.9850248    1039.6537  0.061445251  0.061071162            5 
 1411000   0.66840179   -2.9880438    1042.6603  0.061579276  0.061040062            4 
 1412000   0.68739781   -2.9912465    1039.4147  0.061344115  0.061008619            7 
 1413000   0.69892571   -2.9689426    1042.2601  0.061468514   0.06097717            6 
 1414000   0.69385751   -2.9822481    1040.5832  0.061326214  0.060945737            5 
 1415000   0.68604922   -3.0151033    1036.4029  0.061036687  0.060914327            5 
 1416000   0.67773702   -2.9913351    1042.8565  0.061373382  0.060883028            3 
 1417000   0.67578374   -2.9939261    1044.0047  0.061397593  0.060851721            8 
 1418000   0.68570753   -3.0020209    1042.6531  0.061274863  0.060820381            5 
 1419000   0.69478861   -2.9761204    1041.8117  0.061182271  0.060789092            9 
 1420000   0.68478103    -2.985312    1041.5788  0.061125519  0.060757899            6 
 1421000   0.69491385   -2.9878182    1043.0531  0.061168961  0.060726786            4 
 1422000   0.67733336   -2.9787849     1042.081  0.061068974  0.060695474            2 
 1423000   0.68908129   -2.9838988    1041.9568  0.061018787  0.060664567            8 
 1424000   0.68634049   -2.9997485     1041.522  0.060950494  0.060633249            6 
 1425000     0.681619   -3.0089719    1043.6406  0.061031611  0.060601947            8 
 1426000    0.6919848    -2.997618    1042.6575  0.060931362  0.060570633            5 
 1427000   0.67499163   -2.9964168    1047.2254  0.061155421  0.060539252            5 
 1428000   0.67129619   -3.0050765    1041.5178  0.060779515   0.06050789            5 
 1429000     0.690483   -2.9974646    1045.2366  0.060953848  0.060476368            6 
 1430000   0.67840072   -2.9916152    1049.2137  0.061142987  0.060445414            4 
 1431000   0.67893533   -2.9916148    1045.8909  0.060906762  0.060414484           10 
 1432000   0.68554245   -3.0133067     1043.084  0.060700886  0.060383064            8 
 1433000   0.68245663   -3.0103472    1047.1618  0.060895661  0.060351677            5 
 1434000   0.67688391   -3.0022965    1044.5014  0.060698596  0.060320387            6 
 1435000   0.68404988   -3.0014799    1044.3134  0.060645378   0.06028919            8 
 1436000   0.67642813   -3.0136012    1047.7262  0.060801198  0.060257992            8 
 1437000   0.68426456   -3.0060379    1042.4186  0.060451091  0.060226756            3 
 1438000   0.68067872   -2.9821558    1045.6182  0.060594471  0.060195529            5 
 1439000   0.67356627   -2.9853083    1045.9428  0.060571158   0.06016407            5 
 1440000   0.67966045   -3.0091011    1044.9714   0.06047288  0.060132703            5 
 1441000   0.68002096   -3.0016357    1047.5747  0.060581466  0.060101136            4 
 1442000   0.68611448   -2.9982799    1047.2891  0.060522947  0.060069773            5 
 1443000   0.67940347   -2.9975078    1048.4697  0.060549184  0.060038538            6 
 1444000   0.68361147   -3.0163582    1047.9813  0.060479067  0.060007595            3 
 1445000   0.67295656   -2.9961595    1050.4079  0.060577159  0.059976579            5 
 1446000   0.68898839   -2.9866235    1050.3398  0.060531338  0.059945517            3 
 1447000   0.67359991   -2.9983608     1047.391  0.060319686  0.059914416            5 
 1448000   0.66648207   -3.0165615    1048.7624  0.060356953  0.059883067            6 
 1449000   0.66946226   -3.0199623    1048.5396  0.060302485  0.059851917           13 
 1450000   0.65945833   -2.9934305    1050.5671  0.060377417  0.059820898            5 
 1451000   0.69152058   -2.9994056    1048.7545  0.060231709  0.059790003            5 
 1452000   0.66768594    -3.015876    1051.5268  0.060349336  0.059759064           10 
 1453000   0.65618127   -3.0085313    1048.2271  0.060118551  0.059728333            4 
 1454000   0.67364965   -2.9993725    1050.8531  0.060227711  0.059697455            6 
 1455000     0.677608   -3.0161193     1051.399  0.060217581  0.059666482            9 
 1456000   0.68811503   -2.9924321    1050.8554  0.060145114  0.059635445           10 
 1457000   0.68143769   -3.0280419     1049.432  0.060022423  0.059604296            4 
 1458000   0.67120554   -3.0059059    1050.3478  0.060033595  0.059572921            8 
 1459000   0.66468404   -3.0192982    1053.1594  0.060153039  0.059542016            4 
 1460000     0.672108   -2.9990355    1051.6968  0.060028357  0.059510856            4 
 1461000   0.65892599   -2.9964445    1049.1762    0.0598435  0.059479589            5 
 1462000   0.67088909   -3.0300672    1052.0228  0.059964821  0.059448313            8 
 1463000   0.67170257   -3.0179854    1051.9719  0.059920936   0.05941694            4 
 1464000   0.66728608   -3.0278947    1051.5918  0.059858365  0.059385775            5 
 1465000   0.65867602   -3.0272809    1048.7557  0.059656185  0.059354667            9 
 1466000   0.67501098   -2.9944415    1053.7291  0.059898196  0.059323656            5 
 1467000   0.67070127   -3.0251186    1049.5534  0.059620166  0.059292469            8 
 1468000   0.68495578   -3.0352708    1051.9105  0.059713354  0.059261053            8 
 1469000   0.67254652   -3.0020001    1051.7912  0.059665942  0.059229743            4 
 1470000   0.66906227   -3.0308911    1052.1395  0.059645094  0.059198602            2 
 1471000   0.66902164   -3.0173551    1054.0239  0.059711302  0.059167421            2 
 1472000   0.66301127   -3.0064359    1050.6398  0.059479157  0.059136345            5 
 1473000   0.66991232   -3.0136818    1052.2269  0.059528561  0.059105147            8 
 1474000   0.65495617   -3.0283409    1054.0025  0.059588562  0.059073928            4 
 1475000   0.67708596    -3.039552    1051.7216  0.059419298  0.059042759            6 
 1476000   0.66277706   -3.0269353    1051.7318  0.059379617  0.059011426            3 
 1477000   0.67166145   -3.0246518    1055.2676  0.059538909  0.058980049            3 
 1478000   0.65405002   -3.0415199    1053.8519  0.059418805  0.058948798            9 
 1479000   0.66948358   -3.0168279    1051.0844  0.059222694  0.058917332            5 
 1480000   0.67134273   -3.0203598    1053.9129  0.059341945  0.058885792            6 
 1481000    0.6733075   -3.0301439    1052.5114  0.059223014  0.058854268            8 
 1482000   0.68042032   -3.0229085    1054.5805  0.059299398   0.05882286            7 
 1483000   0.65792871    -3.023237    1054.9849  0.059282135  0.058791726            6 
 1484000   0.66741348   -3.0201493    1053.9132  0.059182007  0.058760279            5 
 1485000   0.64995659   -3.0292795    1056.7614  0.059301984  0.058729007            6 
 1486000   0.66200558   -3.0277276    1055.8826  0.059212797  0.058697778           10 
 1487000   0.65678023   -3.0382217    1052.4373    0.0589799  0.058666424           10 
 1488000   0.65512742   -3.0331056    1052.5618  0.058947231  0.058634923            3 
 1489000   0.66025868   -3.0432309    1054.4024  0.059010658  0.058603727            4 
 1490000    0.6570863   -3.0404257    1054.1145  0.058954947  0.058572424            6 
 1491000   0.65805862   -3.0354548    1052.4207  0.058820742   0.05854117           10 
 1492000   0.65307068   -3.0241362    1052.4479  0.058782839  0.058510107            7 
 1493000   0.65548223   -3.0383757    1056.3619  0.058961927  0.058478913            8 
 1494000   0.64850388   -3.0266105    1060.1143  0.059131766  0.058447859            8 
 1495000   0.65425493   -3.0462211     1057.541  0.058948774  0.058417088            3 
 1496000   0.66274152   -3.0256927    1054.0302  0.058713801  0.058386071            3 
 1497000    0.6701887   -3.0287502    1057.5859  0.058872519  0.058355163            5 
 1498000   0.64736968   -3.0274972    1057.0732  0.058804695  0.058324167            4 
 1499000   0.66304583   -3.0375991    1056.4617  0.058731469  0.058293106            8 
 1500000   0.66000063     -3.03417    1054.7374  0.058596522  0.058262105            8 
 1501000   0.64650306    -3.020887    1059.0772  0.058798425   0.05823124            6 
 1502000   0.64293795   -3.0246636    1059.5588  0.058785996  0.058200428           12 
 1503000   0.64822038   -3.0507064    1057.3608  0.058625015  0.058169491            9 
 1504000   0.65983794    -3.044868    1055.0396  0.058457427  0.058138849            4 
 1505000   0.65253286   -3.0509611    1058.1161  0.058588933  0.058108024            5 
 1506000   0.64957456   -3.0273898    1058.7856  0.058587076  0.058077114            8 
 1507000   0.66193154   -3.0463697    1058.7458  0.058545996  0.058046157           12 
 1508000   0.64661328    -3.037818    1059.0044  0.058521464  0.058015225            6 
 1509000   0.64372511   -3.0210725    1063.3699  0.058723761  0.057984516            8 
 1510000   0.66456248   -3.0582858    1056.6434  0.058313653  0.057953692            4 
 1511000   0.64710525   -3.0433614     1059.429  0.058428691  0.057922861            6 
 1512000   0.65673643    -3.050867    1059.4448  0.058390914  0.057892298            3 
 1513000     0.643195   -3.0635509    1059.3339  0.058346218  0.057861305            4 
 1514000   0.64094102   -3.0487355    1059.5082   0.05831727  0.057830454           10 
 1515000   0.64826453   -3.0509418    1060.9283   0.05835689  0.057799749            8 
 1516000   0.63608576   -3.0457271    1062.9319  0.058428537  0.057769016           10 
 1517000   0.65025289   -3.0553448    1061.2854  0.058299574  0.057738473           13 
 1518000   0.64814743   -3.0734516    1059.7286    0.0581757  0.057707665            3 
 1519000   0.65299961   -3.0470798     1058.878   0.05809074  0.057676826            5 
 1520000   0.64408106   -3.0274779    1061.6426   0.05820409  0.057646051           10 
 1521000    0.6535365   -3.0439604    1059.5347  0.058050335   0.05761514            6 
 1522000    0.6381388   -3.0243645    1062.5313  0.058176264  0.057584234            5 
 1523000   0.63078982   -3.0535715    1061.3157  0.058071553  0.057553383            6 
 1524000    0.6399934   -3.0699832    1059.6418  0.057941919  0.057522508            5 
 1525000   0.64998067   -3.0493227    1061.1208  0.057984743  0.057491648           10 
 1526000   0.63934285   -3.0584532     1060.152  0.057893842  0.057460991           10 
 1527000   0.64805122    -3.067125    1059.7795  0.057835596  0.057430122            6 
 1528000   0.63366023   -3.0682618     1060.169   0.05781899  0.057398967            7 
 1529000   0.63967602   -3.0551719     1065.261    0.0580587  0.057368315            8 
 1530000   0.65059116   -3.0755366    1063.1577  0.057906191  0.057337554            8 
 1531000    0.6496829   -3.0674391    1061.7554   0.05779204  0.057306804            5 
 1532000   0.64559334   -3.0586425    1064.2717  0.057891194  0.057276185            9 
 1533000   0.65604391   -3.0765954    1065.7439  0.057933459  0.057245453            9 
 1534000   0.64265155   -3.0758923    1064.7398  0.057841146  0.057214567            4 
 1535000   0.62791301   -3.0700198    1063.3641  0.057728777  0.057183744           10 
 1536000   0.64249708   -3.0491655    1065.5615  0.057810414  0.057153107            5 
 1537000   0.62363926   -3.0770646    1061.8242  0.057570169  0.057122387            5 
 1538000   0.63056867   -3.0497562     1063.077   0.05760062  0.057091617           12 
 1539000   0.63739238   -3.0856102    1065.4021   0.05768909  0.057061095            7 
 1540000    0.6256543   -3.0599792    1066.7735  0.057725837  0.057030367            6 
 1541000   0.64070038   -3.0581044    1063.4472  0.057508503  0.056999791            6 
 1542000   0.65626432   -3.0810932    1063.9456  0.057498143  0.056969099            7 
 1543000    0.6206908   -3.0968938    1065.5008  0.057544868  0.056938317           14 
 1544000   0.63857738   -3.0486245    1066.6267  0.057568367   0.05690785            5 
 1545000   0.63805875   -3.0831875    1065.7444  0.057483515  0.056877375            7 
 1546000   0.64282477   -3.0729979    1066.9626  0.057511999  0.056846706            4 
 1547000   0.64089634   -3.0597883    1066.0197  0.057424032  0.056816289            6 
 1548000   0.63344646   -3.0763588    1064.3074  0.057294756  0.056785856            7 
 1549000   0.62818009   -3.0596826    1068.2213   0.05746833  0.056755507            6 
 1550000   0.63573967   -3.0662365    1068.5909  0.057451126  0.056725178            9 
 1551000   0.63647873   -3.0704236    1066.1693  0.057283972  0.056694771            8 
 1552000   0.64525965   -3.0627973    1069.8475  0.057444561  0.056664382            6 
 1553000   0.62667064   -3.0710343    1069.5232   0.05739017  0.056634144            5 
 1554000   0.62419608   -3.0669393    1066.6968  0.057201671  0.056603844            8 
 1555000   0.63518897   -3.0906163    1069.8959  0.057336329  0.056573752            5 
 1556000   0.63259013   -3.0738149    1067.5325  0.057172909  0.056543722            4 
 1557000   0.64019875    -3.084084    1068.9513  0.057212124  0.056513503            7 
 1558000   0.63450623   -3.0789293    1067.2885  0.057086464  0.056483328            5 
 1559000   0.60645112   -3.0573001    1067.3642  0.057053892  0.056453162            7 
 1560000   0.62877924   -3.0810318    1066.9405  0.056994683  0.056422779           12 
 1561000    0.6237276    -3.072896    1068.4391  0.057038177  0.056392443            4 
 1562000   0.62322838   -3.0864214    1067.3092  0.056941378  0.056362164            6 
 1563000   0.64671853   -3.0776855    1071.1959  0.057112173  0.056331855            7 
 1564000   0.62357674   -3.0603792    1070.7145  0.057050005  0.056301667            7 
 1565000   0.61694558   -3.0736791    1070.6749  0.057011442  0.056271415            9 
 1566000   0.62463917   -3.0871711    1070.1532  0.056947275  0.056241314           10 
 1567000   0.62170261   -3.0722102    1074.8445  0.057160419  0.056211199            5 
 1568000   0.60692513   -3.0958452    1070.6624  0.056901699  0.056181215            6 
 1569000   0.62654884   -3.0930163    1067.9841  0.056723183  0.056151115            5 
 1570000   0.62757959   -3.0767092    1070.0944  0.056799065  0.056120759           12 
 1571000   0.62635541    -3.077131     1069.573  0.056735255  0.056090551            3 
 1572000   0.62342631   -3.0801739    1069.0863  0.056673363  0.056060325            6 
 1573000   0.62602863   -3.0716905    1069.3063  0.056648989   0.05603008            8 
 1574000   0.62637857   -3.0861793    1071.0234  0.056703908  0.055999958            6 
 1575000   0.63469022   -3.0902052    1072.4536  0.056743576  0.055969563           16 
 1576000   0.61768595   -3.1009613    1065.7017  0.056350555  0.055939288            7 
 1577000    0.6144756   -3.0780841    1068.8751  0.056482512  0.055908852            9 
 1578000   0.61736801   -3.1082257    1069.8812   0.05649985   0.05587831            5 
 1579000   0.62163911   -3.0780833    1069.9452  0.056467447  0.055848192            9 
 1580000   0.63794783    -3.063281    1071.0464  0.056489788   0.05581802           11 
 1581000   0.61545464   -3.0860116    1072.4713  0.056529162   0.05578775            5 
 1582000   0.60919764   -3.0851699    1071.6857  0.056452048  0.055757543            4 
 1583000   0.62803377   -3.0848014    1069.7334  0.056313616  0.055727116            5 
 1584000   0.62075421   -3.1069164    1071.4254  0.056367077  0.055696895            9 
 1585000   0.62522995   -3.0788022    1068.8982  0.056198642  0.055666751            5 
 1586000   0.62199693   -3.0957958     1069.745  0.056207701  0.055636613            7 
 1587000   0.61376763   -3.0962804    1075.4105   0.05646978  0.055606552            7 
 1588000    0.6350513   -3.0965334    1073.9711  0.056358687  0.055576334            9 
 1589000   0.61174058   -3.0982557    1070.9726  0.056165964    0.0555461            7 
 1590000   0.62305214   -3.1099046    1072.6984  0.056221089   0.05551571            8 
 1591000   0.63187418    -3.085757    1071.3373  0.056114464    0.0554855            8 
 1592000   0.61035715   -3.1051131     1071.308  0.056077681  0.055455353            4 
 1593000    0.6142528   -3.1173745    1073.0532  0.056133771  0.055425169            6 
 1594000   0.62088008   -3.0966588    1072.2917  0.056058745  0.055395093            5 
 1595000   0.61275584   -3.1055917    1071.3723  0.055975563  0.055365104            5 
 1596000   0.61604175   -3.0995276    1073.9077  0.056072876  0.055335098            6 
 1597000   0.63994419   -3.0989565    1074.3074  0.056058621  0.055305046           10 
 1598000    0.6345168   -3.1000616    1074.2965  0.056022969  0.055274931           11 
 1599000   0.62070796   -3.1033404    1073.6686  0.055955211  0.055244906            6 
 1600000   0.63203763   -3.0966091     1073.324  0.055902294  0.055214778            6 
 1601000    0.6290936   -3.1149352    1073.8957   0.05589713  0.055184739            8 
 1602000   0.60688699   -3.0926587    1074.9399  0.055916556  0.055154776           10 
 1603000    0.6112405   -3.0905807    1077.0112  0.055989352  0.055124852           15 
 1604000   0.61506549   -3.1183357    1071.9085  0.055689346  0.055094697           18 
 1605000   0.60259489   -3.1031839    1075.6579  0.055849318  0.055064696            6 
 1606000   0.61526478   -3.0876695    1076.4339   0.05585481  0.055034965            9 
 1607000   0.61106814   -3.1072217    1076.4657  0.055821701  0.055005401            5 
 1608000   0.60857537   -3.1200629    1079.3955  0.055938821  0.054975466           11 
 1609000   0.61098685   -3.1194677    1072.6498   0.05555468  0.054945593            8 
 1610000    0.6246135    -3.092542    1075.8841  0.055687582  0.054915683            8 
 1611000   0.60621551   -3.0968943     1075.999   0.05565896  0.054885857           10 
 1612000   0.59187833   -3.1175437    1075.4243  0.055594721  0.054855751           10 
 1613000   0.59276443    -3.088923     1073.244  0.055447613  0.054825847            7 
 1614000   0.61119723   -3.1319824    1075.3886  0.055523988  0.054795898           11 
 1615000   0.60493158   -3.0868665    1080.1357  0.055734558  0.054766087            7 
 1616000   0.60371883   -3.1033562    1075.1413  0.055442515  0.054736214           11 
 1617000   0.61577826   -3.1040387    1076.6145  0.055484155  0.054706316            6 
 1618000   0.61583038   -3.1201265    1075.6834  0.055401905  0.054676485            9 
 1619000   0.61835315   -3.1193513    1078.6295  0.055519328  0.054646689            9 
 1620000   0.60042447   -3.1097948    1076.6878  0.055385173  0.054616842            4 
 1621000   0.61030533   -3.1206163    1077.0164  0.055367901  0.054587132            6 
 1622000   0.61271148   -3.1117161    1074.4654    0.0552027  0.054557282            4 
 1623000   0.60910363   -3.1180505    1078.3963  0.055370522   0.05452741           15 
 1624000   0.62433901   -3.1154613    1078.0173  0.055316982  0.054497627            7 
 1625000    0.6062753   -3.1286094    1077.2943  0.055245862  0.054467744            5 
 1626000   0.60212262   -3.1142437     1076.661  0.055179426  0.054437941           12 
 1627000   0.59952461   -3.1073968    1077.1465   0.05517038  0.054408083            4 
 1628000   0.59995913   -3.1067645    1079.8307  0.055273887  0.054378389           10 
 1629000   0.60127553   -3.1103774    1080.4615   0.05527223  0.054348716           10 
 1630000   0.59702049   -3.1403031    1080.2893  0.055229512   0.05431899           12 
 1631000   0.60893077   -3.1375155    1078.2789  0.055092936  0.054289187            7 
 1632000   0.59929865   -3.1264493    1078.6561  0.055078434   0.05425958           12 
 1633000   0.58055757   -3.1227528    1079.6593  0.055095902  0.054229915           12 
 1634000   0.60474272   -3.1212194    1078.1127  0.054983306  0.054200306            6 
 1635000   0.61154497   -3.1097233    1077.0112  0.054893535  0.054170712            4 
 1636000   0.60035081   -3.1387083     1077.147  0.054866899  0.054141072            8 
 1637000   0.61963205   -3.0971554    1079.2442  0.054940147  0.054111602            9 
 1638000   0.59717445   -3.1326148    1080.3583  0.054963282  0.054082023            6 
 1639000   0.59438299   -3.1237523    1083.7393  0.055101654  0.054052369           16 
 1640000   0.60261834   -3.1195277    1078.5392  0.054803823  0.054022969            9 
 1641000   0.59251646   -3.1241725    1084.1034  0.055052984   0.05399342            8 
 1642000   0.58740768   -3.1277759    1077.1479  0.054666456  0.053964003           18 
 1643000   0.60594338   -3.1264443    1082.2012  0.054889492  0.053934399           10 
 1644000   0.60516216   -3.1183962    1079.3633  0.054712251  0.053904876            8 
 1645000   0.59276755   -3.1192033    1081.1259  0.054768284  0.053875313           17 
 1646000    0.5932459   -3.1404134    1077.5023  0.054551555  0.053845743           12 
 1647000   0.57811895   -3.1335477    1082.1144  0.054751791  0.053815945           10 
 1648000    0.6039921   -3.1312057    1077.7958  0.054500193  0.053786356            8 
 1649000   0.59408334   -3.1277989    1077.2823  0.054441192  0.053756752            4 
 1650000    0.6007044   -3.1227808    1078.0199  0.054445447  0.053727192            8 
 1651000   0.58018692   -3.1304679    1078.9396  0.054458894  0.053697628            8 
 1652000   0.59812382   -3.1204151    1082.3529  0.054598109  0.053668061           11 
 1653000   0.59945986   -3.1388833    1078.2879  0.054360146  0.053638432            5 
 1654000   0.59893371    -3.140744    1081.3676  0.054482449   0.05360883            5 
 1655000   0.59168905    -3.130301    1081.6511  0.054463801  0.053579121            4 
 1656000   0.58994855   -3.1451446    1081.5044  0.054423532  0.053549594            8 
 1657000   0.60550796   -3.1540466     1079.059  0.054267701  0.053520103            9 
 1658000   0.59139799   -3.1341144    1080.3011  0.054297402  0.053490364           14 
 1659000   0.56713881   -3.1491602    1082.0607  0.054353057  0.053460691            9 
 1660000   0.60207267   -3.1303182    1082.7652  0.054355683   0.05343095           10 
 1661000    0.5815013   -3.1319916    1080.9877  0.054233782  0.053401347            7 
 1662000   0.57641552    -3.139749    1082.3871  0.054271314  0.053371701            5 
 1663000   0.57376738   -3.1403798    1080.5542  0.054146835  0.053342101            5 
 1664000   0.59674911   -3.1367764    1081.1851   0.05414589  0.053312579           16 
 1665000   0.58725126   -3.1591046    1078.9229  0.054000144   0.05328291            7 
 1666000   0.59678387   -3.1405919    1082.3238  0.054137846  0.053253467            7 
 1667000   0.59192266   -3.1339376    1080.7006  0.054024225  0.053223966            5 
 1668000   0.59027726   -3.1542607    1078.5676  0.053885269  0.053194158           12 
 1669000    0.5872805   -3.1277632    1076.9698  0.053773205  0.053164559            8 
 1670000   0.57115092   -3.1331231    1082.8645  0.054035152  0.053135129            7 
 1671000   0.58302195   -3.1356168    1082.1813  0.053968748  0.053105699           20 
 1672000   0.59901452   -3.1354237    1083.5946  0.054006909  0.053076463           11 
 1673000   0.58054981    -3.153659    1082.7836  0.053934231  0.053047309            7 
 1674000   0.57665708   -3.1470137    1085.2489  0.054024736  0.053017973            6 
 1675000   0.57722275   -3.1508626    1082.4656  0.053854008  0.052988494            7 
 1676000   0.58061588   -3.1525069    1079.7573  0.053687218  0.052959059            5 
 1677000   0.58575562   -3.1633359    1082.8529  0.053809028  0.052929539           12 
 1678000   0.59289587   -3.1495295    1079.1865   0.05359488  0.052899983            6 
 1679000   0.57498022   -3.1463271    1083.6925  0.053786603  0.052870537           14 
 1680000   0.56942542   -3.1471031    1083.8884  0.053764306  0.052841039            9 
 1681000   0.57951287   -3.1450928    1079.2881  0.053504269  0.052811756            6 
 1682000   0.58175759   -3.1751121     1086.147  0.053812278  0.052782368            6 
 1683000   0.58395391   -3.1492283    1081.4355  0.053547014  0.052752781           11 
 1684000   0.59398411    -3.159451    1083.6055    0.0536226  0.052723314           12 
 1685000   0.57214751   -3.1651755    1085.4052  0.053679782  0.052693756            5 
 1686000   0.58420313    -3.145884    1082.7455  0.053516485  0.052664314            5 
 1687000   0.58779539   -3.1522063    1083.3139  0.053512837   0.05263481           11 
 1688000   0.59194941    -3.147382    1082.7769  0.053454628  0.052605418            8 
 1689000   0.58837494   -3.1330454    1083.5567  0.053461452  0.052576065           12 
 1690000   0.57852274   -3.1506787    1084.5571  0.053479149  0.052546641            5 
 1691000   0.57424932   -3.1630796    1084.5717  0.053448242  0.052517141           12 
 1692000   0.58531025   -3.1703242    1080.6395  0.053222985  0.052487634           14 
 1693000   0.55730622   -3.1457496    1083.4428  0.053329532   0.05245814            8 
 1694000   0.58123103   -3.1527053    1085.0997   0.05337956  0.052428688           10 
 1695000   0.57863493    -3.159669    1083.8131  0.053284811  0.052399279            4 
 1696000   0.57350055   -3.1680359    1082.6522  0.053196356  0.052369908           11 
 1697000   0.56611956   -3.1342728    1084.6651  0.053263854  0.052340522           10 
 1698000   0.56320302   -3.1762636    1081.6189  0.053082985  0.052310947            7 
 1699000   0.57037553     -3.15843    1084.5121   0.05319365  0.052281451            6 
 1700000   0.57025522   -3.1550615    1081.4487  0.053012189  0.052252136            5 
 1701000   0.57911185   -3.1663872    1083.9032  0.053101272   0.05222274           11 
 1702000    0.5797148   -3.1728251    1084.7741  0.053112717  0.052193309           18 
 1703000   0.56127347   -3.1774001    1083.4914  0.053018761  0.052163913           14 
 1704000   0.57505831   -3.1735682    1082.5496  0.052941588  0.052134538           14 
 1705000   0.57279062   -3.1549849    1081.5332  0.052860859  0.052105246           14 
 1706000   0.58128638   -3.1678502    1086.6701  0.053080798  0.052076026           12 
 1707000   0.57465614   -3.1758111    1081.8129  0.052812579  0.052046645            4 
 1708000   0.57689649   -3.1689428    1084.2035  0.052898298  0.052017395           10 
 1709000   0.56824578   -3.1703715    1086.6479  0.052986538  0.051988093           14 
 1710000   0.57365074   -3.1608683    1087.5339  0.052998728  0.051958836            5 
 1711000   0.57240356   -3.1718725    1085.5707  0.052872138  0.051929751            7 
 1712000   0.57193473   -3.1591808    1084.3471  0.052781692  0.051900797            5 
 1713000   0.57011069   -3.1719572    1087.9693  0.052927093  0.051871719            9 
 1714000   0.57305028   -3.1813986    1082.5969  0.052635011  0.051842525           12 
 1715000   0.57190169   -3.1820255    1086.5372  0.052795784   0.05181345           10 
 1716000   0.56693474   -3.1736332     1084.599  0.052670892  0.051784467           11 
 1717000   0.57968112   -3.1840027    1086.7028  0.052742322  0.051755404            8 
 1718000   0.57040912   -3.1784044    1086.5158   0.05270255   0.05172654            8 
 1719000    0.5746412   -3.1639941    1087.4205   0.05271575  0.051697579           13 
 1720000   0.55960157   -3.1719621    1085.6532  0.052599479   0.05166868           12 
 1721000   0.55393021   -3.1752356    1086.2175  0.052596238  0.051639817           10 
 1722000   0.57751797   -3.1797964    1085.6616  0.052538793  0.051611004           11 
 1723000   0.56752581   -3.1729845     1088.719   0.05265617  0.051582219            9 
 1724000   0.57603003   -3.1783816    1087.2327  0.052553785  0.051553564           10 
 1725000   0.56489465   -3.1857916    1086.5332  0.052489524  0.051524955            9 
 1726000   0.55457816   -3.1661773    1088.7914  0.052568143  0.051496335            6 
 1727000   0.56755884   -3.1845357    1089.8372  0.052588167  0.051467611            7 
 1728000   0.55856447   -3.1961621    1086.5491  0.052399168  0.051438929           10 
 1729000   0.55771255   -3.1924073    1091.4703  0.052606048  0.051410284           12 
 1730000    0.5508954   -3.1846181    1088.9862  0.052455981  0.051381825           17 
 1731000    0.5422283   -3.1908535    1089.5371    0.0524522   0.05135337            8 
 1732000   0.55935914   -3.1954238     1087.302  0.052314377    0.0513246           34 
 1733000   0.56955761   -3.1963553    1087.0009  0.052269711  0.051296033            7 
 1734000   0.56563645   -3.1894384    1087.6267  0.052269641  0.051267283            9 
 1735000   0.55517022   -3.1770956    1089.5154   0.05233023  0.051238797            8 
 1736000   0.56528539    -3.181589    1088.9604  0.052273444  0.051210177           12 
 1737000   0.56501888   -3.1883011    1093.1318  0.052443476  0.051181603           12 
 1738000    0.5508923   -3.1714729    1086.6037  0.052100292  0.051153028            5 
 1739000   0.56205619   -3.1912393    1088.9637  0.052183424  0.051124448            8 
 1740000   0.54888029   -3.1953971    1091.5831  0.052278884  0.051095835           21 
 1741000   0.56389198   -3.1964357    1091.3389  0.052237167  0.051067454            5 
 1742000   0.56620581   -3.1826224    1091.4265  0.052211372  0.051039014            9 
 1743000   0.56178644   -3.1854836    1089.4084  0.052084933  0.051010555            6 
 1744000   0.54773165   -3.2080285    1086.6383  0.051922699  0.050981949           15 
 1745000   0.55154727   -3.1729965    1090.6112  0.052082674  0.050953302            7 
 1746000   0.56282995    -3.215235    1090.7464  0.052059299  0.050924671            9 
 1747000   0.56322511   -3.1928893    1089.8599   0.05198721  0.050896058            6 
 1748000   0.55158114   -3.1774966    1090.5186  0.051988872   0.05086748           13 
 1749000   0.54889686   -3.1968174    1092.1902  0.052038793  0.050839097           13 
 1750000   0.55710446   -3.1951029    1088.4611  0.051831481  0.050810583           11 
 1751000   0.55412761   -3.1856107    1087.7723  0.051769099  0.050782053            8 
 1752000   0.54286174   -3.1868651    1089.8845  0.051840018  0.050753703            3 
 1753000   0.55619484   -3.2133778    1091.0621  0.051866422  0.050725319           11 
 1754000   0.55328464   -3.2011488    1090.7914  0.051823995  0.050696934           10 
 1755000   0.56048032   -3.1955539    1089.2279  0.051720222  0.050668579           15 
 1756000   0.55267533   -3.2253456      1092.09  0.051826596  0.050640183           22 
 1757000   0.55677848   -3.2059831    1091.7578  0.051781339  0.050611865            6 
 1758000   0.55388152   -3.2122492    1091.0002  0.051715976  0.050583375            7 
 1759000   0.55335712   -3.2147098    1090.2554  0.051651289   0.05055483           10 
 1760000   0.56639617   -3.2182776    1092.3449  0.051720874  0.050526419            9 
 1761000   0.55850538   -3.2139796    1092.7761  0.051711912  0.050498017           32 
 1762000   0.55588159   -3.2024469    1091.5495  0.051624552   0.05046977            7 
 1763000   0.55317981   -3.1751307    1092.5921  0.051644548   0.05044156            6 
 1764000   0.55972301   -3.2049227    1089.8542  0.051485934  0.050413393           15 
 1765000   0.54309648   -3.2137931    1092.0758  0.051561652  0.050385109           21 
 1766000   0.54023971   -3.2214685    1092.2532  0.051540828  0.050356873            6 
 1767000    0.5455842   -3.2219695    1090.7022  0.051438513  0.050328672            7 
 1768000   0.55262902    -3.230027    1091.2548  0.051435465  0.050300469            8 
 1769000   0.54704752   -3.2248751    1091.1039  0.051399277  0.050272277            5 
 1770000   0.54977683   -3.2017661    1092.1047  0.051417357  0.050243985            7 
 1771000   0.53934432   -3.1997769    1092.9476  0.051427989  0.050215867            7 
 1772000   0.54811027   -3.2076669     1093.325  0.051416715   0.05018775            4 
 1773000   0.55215895   -3.2110023    1093.9647  0.051417783  0.050159502            8 
 1774000   0.54125232   -3.2192581    1089.9351  0.051199507  0.050131208            8 
 1775000   0.54259575   -3.2387307    1091.3905  0.051238993   0.05010291            9 
 1776000   0.54184748   -3.2078665    1092.9598  0.051283775  0.050074759            5 
 1777000   0.54157168   -3.2205248    1094.9484  0.051348171  0.050046655            6 
 1778000   0.54640277   -3.2097932    1091.9597  0.051179213  0.050018781           10 
 1779000   0.54997677   -3.2138303    1091.7092   0.05113871  0.049990713           12 
 1780000   0.54443962   -3.2035247    1094.3916  0.051235561  0.049962715           15 
 1781000   0.54962064   -3.2240217    1093.1426  0.051148354  0.049934695            6 
 1782000   0.53509584   -3.2188753    1090.6171  0.051001548   0.04990666           12 
 1783000    0.5437546   -3.2131346    1093.8242  0.051122838  0.049878523           12 
 1784000    0.5421309   -3.2136677     1092.003  0.051009108  0.049850443           11 
 1785000   0.52750414   -3.1961867     1094.208  0.051083471  0.049822491           10 
 1786000   0.53669365   -3.2231086    1095.0313  0.051093287   0.04979448           14 
 1787000   0.53005244    -3.232316    1092.4167  0.050942765  0.049766455           14 
 1788000   0.53724616   -3.2044022    1094.1907  0.050996957  0.049738333           16 
 1789000   0.53345679   -3.2211348     1093.147  0.050919832  0.049710321           18 
 1790000   0.54594147   -3.2227368    1093.1339  0.050890777  0.049682141            9 
 1791000   0.53807942   -3.2261344     1091.866  0.050803368  0.049654085            5 
 1792000   0.53570108   -3.2361441    1091.6126  0.050763233  0.049625862           15 
 1793000   0.54903595   -3.2067103     1090.684  0.050691765  0.049597676           18 
 1794000   0.54974776   -3.2241917    1094.6281  0.050846718  0.049569566           10 
 1795000   0.52810311   -3.2397616    1093.3947  0.050761128  0.049541469           11 
 1796000   0.53432853   -3.2191882    1091.3782  0.050639299   0.04951328           11 
 1797000   0.53118416    -3.224959    1088.9921  0.050500466  0.049484951            9 
 1798000   0.55490833   -3.2239991    1092.9617  0.050656365  0.049456831            9 
 1799000   0.54072959   -3.2325681    1092.5089  0.050607229  0.049428545           12 
 1800000   0.54015082    -3.219252    1094.9836  0.050693686  0.049400307           12 
 1801000    0.5457478    -3.238645     1093.052  0.050576163  0.049372209           11 
 1802000   0.53454446   -3.2348526    1092.2679  0.050511836  0.049344078           17 
 1803000   0.51821313   -3.2333759     1093.843  0.050556618  0.049315936           10 
 1804000   0.53582447   -3.2404622    1093.2095  0.050499331  0.049288018           10 
 1805000   0.52489142   -3.2261349    1093.3037  0.050475701  0.049259953           10 
 1806000    0.5176608   -3.2255393    1093.1591   0.05044108  0.049231853           25 
 1807000   0.53541013    -3.229638    1091.8292  0.050351836   0.04920393           17 
 1808000   0.52993735   -3.2424364    1092.1784  0.050340079  0.049175976           16 
 1809000   0.53160483   -3.2427427    1091.6167  0.050286377  0.049147955           14 
 1810000   0.53791233   -3.2374482    1091.9816  0.050275394  0.049119854            6 
 1811000   0.53230307   -3.2287659    1094.1763  0.050348623  0.049091843           11 
 1812000   0.53296953   -3.2580544    1094.7741   0.05034833  0.049063963           18 
 1813000   0.51197067   -3.2391196    1092.9789  0.050238045  0.049035995           25 
 1814000   0.55210882   -3.2352277    1097.3056  0.050409116  0.049008159           10 
 1815000   0.52483054   -3.2382184    1093.7926  0.050220046  0.048980273           19 
 1816000   0.53536626   -3.2442142    1095.8884  0.050288566  0.048952279           21 
 1817000   0.54233668   -3.2423275    1093.9916  0.050173896  0.048924381           11 
 1818000   0.52800223   -3.2498155    1094.1202  0.050152189  0.048896545           14 
 1819000   0.52937868   -3.2332872    1094.4514  0.050139794  0.048868555            5 
 1820000   0.52403945   -3.2322689    1091.6836  0.049985512  0.048840634            7 
 1821000   0.52985855   -3.2521363    1092.7001  0.050004579  0.048812725           11 
 1822000   0.52054059   -3.2424436    1097.9981  0.050219452  0.048784781           11 
 1823000   0.52024137   -3.2370559    1093.4761  0.049985193   0.04875676            7 
 1824000   0.51824735    -3.245921    1095.9023  0.050068635  0.048728955           10 
 1825000    0.5192847   -3.2312369    1093.6286  0.049937378  0.048701076            6 
 1826000   0.52542506   -3.2488725    1093.8475  0.049920021  0.048673273           18 
 1827000   0.51543571   -3.2600323     1092.726  0.049841545  0.048645327            8 
 1828000   0.51998674    -3.237014    1092.1871  0.049789712  0.048617434            8 
 1829000    0.5319814   -3.2686614    1094.5159  0.049868595  0.048589617           23 
 1830000   0.51551881   -3.2558197     1093.717  0.049804963  0.048561736           20 
 1831000   0.52463113   -3.2515428    1096.1192  0.049887093  0.048533933           27 
 1832000   0.52311542   -3.2521114    1091.2278  0.049637362  0.048506068           21 
 1833000    0.5242674   -3.2637877    1094.6028   0.04976372  0.048478275           13 
 1834000    0.5163342   -3.2691177    1093.4582  0.049684579  0.048450338           12 
 1835000    0.5253359   -3.2587925    1092.9208  0.049633099   0.04842239            9 
 1836000   0.51912493   -3.2602946    1095.2827  0.049713267  0.048394687            6 
 1837000   0.51744355    -3.258873     1094.698  0.049659679  0.048366938           11 
 1838000   0.52455605   -3.2638712    1095.2467  0.049657541  0.048339347           11 
 1839000   0.53653149   -3.2450843    1094.1593  0.049581261  0.048311595            4 
 1840000   0.52112754   -3.2526341    1095.4018  0.049610588   0.04828389            8 
 1841000   0.51833276   -3.2543958    1096.0939  0.049614967  0.048256113            9 
 1842000   0.51485556   -3.2593336    1093.5863  0.049474587  0.048228366            5 
 1843000   0.51393283   -3.2387496    1094.4903  0.049488621  0.048200692           16 
 1844000   0.51274108   -3.2454267    1095.1181  0.049490151  0.048173081           25 
 1845000   0.52073124   -3.2650275    1091.8434  0.049315422  0.048145327            6 
 1846000   0.52439739   -3.2509312    1095.0667  0.049434214   0.04811765            6 
 1847000   0.50833871    -3.278658    1093.4468  0.049334363  0.048089903           20 
 1848000   0.52332058   -3.2553556    1094.0047  0.049332826  0.048062271            8 
 1849000   0.52169045   -3.2588043    1094.9869  0.049350408   0.04803452           25 
 1850000   0.51368895   -3.2528404    1096.5704  0.049395063  0.048006714           10 
 1851000   0.51169408   -3.2663479    1094.4825   0.04927438  0.047978969           15 
 1852000   0.51000178   -3.2864636    1096.2463  0.049327139  0.047951219           12 
 1853000   0.51001433   -3.2601546    1095.4454  0.049264498  0.047923629           15 
 1854000   0.51071633   -3.2665576    1097.3286  0.049322574   0.04789608           12 
 1855000   0.50473388   -3.2561782    1093.3925  0.049119162  0.047868483           11 
 1856000   0.51874832   -3.2788404    1095.9723  0.049208524  0.047841016           11 
 1857000   0.51834342   -3.2649165     1097.674   0.04925839  0.047813548           17 
 1858000    0.5230437   -3.2747652    1092.4239  0.048996408  0.047786045            9 
 1859000   0.51747087   -3.2632376    1095.5325  0.049109401  0.047758571           14 
 1860000   0.50423453   -3.2466897    1097.7617  0.049182871  0.047731319           11 
 1861000   0.50370584   -3.2727344    1094.6956  0.049019149  0.047703872            5 
 1862000   0.51944933   -3.2786629     1093.604  0.048943969  0.047676468           20 
 1863000   0.50033455   -3.2757975     1095.603  0.049007111  0.047648908           15 
 1864000   0.51573244      -3.2663    1094.7553  0.048942924  0.047621345           11 
 1865000   0.51886427   -3.2665399    1097.9774  0.049060653  0.047594012           18 
 1866000   0.50859899   -3.2715442    1095.6866  0.048932058  0.047566678            7 
 1867000   0.50682416   -3.2661645    1096.1414  0.048926148  0.047539313           20 
 1868000     0.515644   -3.2783061    1097.2823  0.048950852  0.047511968           17 
 1869000   0.50109921   -3.2851581    1102.0723  0.049138233  0.047484916            7 
 1870000   0.50312335   -3.2659937    1096.7743  0.048875858  0.047457796           14 
 1871000   0.50875315   -3.2665813    1096.0427   0.04881715  0.047430673           12 
 1872000   0.50714803   -3.2810816    1096.4368   0.04880862  0.047403469            7 
 1873000   0.50679973   -3.2725123      1095.03   0.04871997  0.047376232           19 
 1874000    0.5076867   -3.3028138    1096.5221  0.048760323   0.04734891           23 
 1875000   0.50893393   -3.2910288    1095.6106  0.048693806  0.047321656           12 
 1876000   0.49769568   -3.2810683    1099.0866  0.048822254  0.047294505           14 
 1877000    0.4882101   -3.2901456    1093.1094  0.048530875  0.047267263           17 
 1878000   0.50479878   -3.2878405    1098.2034  0.048731071  0.047240251           12 
 1879000    0.4973799   -3.2746702    1097.9383   0.04869338  0.047213233            8 
 1880000   0.49749994   -3.2822977    1095.6961  0.048568091  0.047186165           19 
 1881000   0.49907853    -3.274033       1099.3  0.048701933   0.04715914            9 
 1882000   0.50256295   -3.2762963    1100.5953  0.048733407    0.0471322           14 
 1883000   0.50497339   -3.2664224    1097.8242  0.048584892  0.047105266            9 
 1884000   0.50562724   -3.2958525     1096.311  0.048492173   0.04707826           38 
 1885000   0.49276202   -3.2811029    1098.1342  0.048547049  0.047051211           21 
 1886000   0.49551407    -3.284734     1098.732  0.048547722  0.047024262           21 
 1887000   0.50976424   -3.2980304    1097.4824   0.04846681  0.046997242           46 
 1888000   0.50880276   -3.2898192    1095.7612  0.048365167  0.046970193           13 
 1889000   0.50954051   -3.2848252    1092.8597  0.048211562  0.046943132           22 
 1890000   0.50147463   -3.2864914    1097.0233  0.048369634  0.046916071            9 
 1891000   0.51014882   -3.3023868    1096.3898  0.048316139  0.046889042            4 
 1892000   0.50324551   -3.3003156    1097.6247   0.04834499  0.046862009           16 
 1893000   0.49087404   -3.2932256    1099.0792  0.048383485   0.04683504           12 
 1894000   0.50221056   -3.2803018    1098.5662  0.048335365  0.046808071           15 
 1895000   0.48401963   -3.2918352    1096.1999    0.0482058  0.046780984            9 
 1896000   0.49634952    -3.313476    1097.0053  0.048215774  0.046753883           15 
 1897000    0.4957343   -3.2993256    1098.9113  0.048274086  0.046726795           17 
 1898000   0.48755336   -3.2963562    1097.2605  0.048176173  0.046699899           27 
 1899000   0.48204313   -3.3015799      1099.07  0.048230208  0.046672952           12 
 1900000   0.48797991   -3.2879285    1099.1023  0.048206239  0.046645999           12 
 1901000   0.50394152   -3.2839983    1096.2348  0.048055181  0.046619039           10 
 1902000   0.49126757    -3.291467    1097.4371  0.048082592  0.046591994           16 
 1903000   0.48940329   -3.2933108    1099.1094  0.048130559   0.04656512           17 
 1904000   0.49346488   -3.3025322    1098.0685   0.04805972  0.046538271           18 
 1905000   0.50679729   -3.2996984    1097.7358  0.048019938  0.046511352           14 
 1906000   0.48891977   -3.2948974    1098.2794  0.048018514  0.046484545           16 
 1907000   0.48895983   -3.2939556    1093.6787  0.047792287  0.046457652           16 
 1908000   0.49474544   -3.3038489    1096.2723  0.047880514  0.046430714           42 
 1909000   0.48810333   -3.3049599    1096.5357  0.047866934  0.046403832           10 
 1910000   0.48454639   -3.3208229    1099.8926  0.047988334  0.046377069           14 
 1911000   0.49980679   -3.3292993     1096.052  0.047795744  0.046350157           19 
 1912000   0.49918673   -3.2895098    1096.2073  0.047777515   0.04632333            7 
 1913000   0.48231916   -3.2949573    1096.8279  0.047779573  0.046296497           11 
 1914000   0.49464483   -3.2987155    1098.0753  0.047808919  0.046269748           30 
 1915000   0.49280363   -3.2966772    1098.0372  0.047782296  0.046242812           16 
 1916000   0.48177189   -3.2950297    1095.8593  0.047662635  0.046216018           18 
 1917000   0.48488316   -3.3113489    1096.5823  0.047669201  0.046189221           14 
 1918000    0.4884615   -3.3199934    1096.9305  0.047659477  0.046162439           25 
 1919000   0.48394451   -3.3071352    1101.0374  0.047812984  0.046135655           13 
 1920000   0.47920732    -3.324647    1097.1529  0.047619484  0.046108887           11 
 1921000   0.48836864   -3.3171399    1096.3493  0.047559834  0.046082216           10 
 1922000   0.48379372   -3.2995192    1098.3795  0.047623115  0.046055597           18 
 1923000   0.50642604   -3.3213345    1098.3946  0.047599002  0.046028964           15 
 1924000   0.48968834   -3.3198892    1094.5552  0.047407968  0.046002306           10 
 1925000   0.48298071   -3.3018774    1098.1685  0.047539761  0.045975632           24 
 1926000   0.48313543   -3.3169824    1099.7539  0.047583675  0.045948955           17 
 1927000   0.48496341     -3.31244     1096.794  0.047430979  0.045922231            9 
 1928000   0.49609283   -3.3203381     1095.588  0.047354254  0.045895443           13 
 1929000   0.48400201   -3.3173738    1096.8845  0.047385713  0.045868689           15 
 1930000   0.47344055   -3.3257329    1096.6707  0.047351928  0.045841937           13 
 1931000   0.47735281    -3.335962    1097.1886  0.047349757  0.045815254           14 
 1932000   0.48715344    -3.330381     1096.836   0.04731004  0.045788525           29 
 1933000   0.48473325   -3.3366468    1097.1541  0.047299281  0.045761747           16 
 1934000   0.48122274   -3.3130939    1098.6645  0.047339905  0.045735195           16 
 1935000   0.48325904   -3.3200412    1096.6826  0.047230085  0.045708583           23 
 1936000   0.50114947   -3.3190891    1097.2108  0.047228426  0.045681916           50 
 1937000   0.48026507   -3.3342411    1098.1877  0.047246074  0.045655266           53 
 1938000   0.48416796    -3.332389    1099.4041     0.047274  0.045628592          105 
 1939000   0.48082935   -3.3192197    1099.4635  0.047252169  0.045601885           95 
 1940000   0.48396773   -3.3343102    1098.7759  0.047198279  0.045575264          105 
 1941000   0.47997344   -3.3238843    1099.3911  0.047200374  0.045548622          135 
 1942000   0.48120098   -3.3241357    1099.5496  0.047182871  0.045522053           52 
 1943000   0.47656399   -3.3349909     1097.876  0.047086809  0.045495594           23 
 1944000   0.48694683   -3.3249647    1098.2421  0.047078279  0.045469093           14 
 1945000   0.47357522   -3.3319286    1097.6167  0.047027279  0.045442501           13 
 1946000   0.47516119   -3.3427702    1100.1804    0.0471129  0.045415997           18 
 1947000   0.47730699   -3.3177706    1096.2727  0.046921449  0.045389626            7 
 1948000   0.47415001   -3.3349141    1096.1443  0.046891867  0.045363123           29 
 1949000   0.46716332   -3.3376487    1095.6848  0.046848161  0.045336527           19 
 1950000   0.47041492   -3.3340112    1098.2873  0.046935357   0.04531009           18 
 1951000   0.47080394   -3.3436998    1097.9239  0.046895776  0.045283603           40 
 1952000   0.47712928   -3.3451985    1098.4448  0.046893989  0.045257155           60 
 1953000    0.4740666   -3.3450622    1098.5589  0.046874848  0.045230689           15 
 1954000   0.46628805    -3.335578    1096.8877  0.046779584  0.045204285           25 
 1955000   0.46393317   -3.3559044     1098.222  0.046812532  0.045177905           13 
 1956000   0.47292371   -3.3317714     1100.384   0.04688071  0.045151549           14 
 1957000    0.4800249   -3.3297918    1096.9628  0.046711071  0.045125237           22 
 1958000   0.47001907   -3.3221561    1097.9743  0.046730266  0.045098976           22 
 1959000   0.48145175   -3.3270822    1097.4482  0.046684032  0.045072768           34 
 1960000   0.46691816   -3.3549208    1096.0715  0.046601681  0.045046381           22 
 1961000   0.46757349   -3.3421291    1097.3624  0.046632773  0.045020046           14 
 1962000   0.45577303   -3.3266282    1100.4624  0.046740673  0.044993766           21 
 1963000   0.47178657   -3.3387904    1097.5776  0.046594397  0.044967408           12 
 1964000   0.47919138   -3.3539776     1098.143  0.046594664  0.044941052           14 
 1965000   0.45996583   -3.3464369    1097.5452  0.046545599  0.044914617           38 
 1966000   0.47132604   -3.3340902    1096.3452  0.046471059  0.044888241           42 
 1967000   0.46671244   -3.3455277    1098.0264  0.046518659  0.044861849           11 
 1968000   0.46224766   -3.3389574     1099.454  0.046555473  0.044835546           18 
 1969000   0.45408802   -3.3282871    1097.1462  0.046434154  0.044809372           17 
 1970000   0.47388164   -3.3485031    1098.5521  0.046470057  0.044783059           25 
 1971000   0.46503279   -3.3682129    1097.6858   0.04640985  0.044756821           29 
 1972000   0.46334423   -3.3490058    1097.5838  0.046382006  0.044730558           27 
 1973000   0.47227394   -3.3419488    1097.1341  0.046339502  0.044704267           32 
 1974000   0.46044012   -3.3532531    1098.5813  0.046377124  0.044677957           30 
 1975000     0.467968   -3.3538198    1096.7789  0.046277591  0.044651662           20 
 1976000   0.45392847    -3.343464    1100.1468  0.046396206  0.044625362           15 
 1977000   0.46041762   -3.3465797    1097.2417  0.046250282  0.044599033           26 
 1978000   0.47363045   -3.3516174     1093.475  0.046068209  0.044572695           15 
 1979000    0.4588213   -3.3580678     1096.323  0.046164858  0.044546321           25 
 1980000   0.46271932   -3.3664873    1095.5219  0.046107824  0.044519888           60 
 1981000   0.46067541   -3.3636769    1095.9047  0.046100652  0.044493464           40 
 1982000    0.4522378   -3.3583543    1096.7307   0.04611212   0.04446707           29 
 1983000    0.4633421   -3.3545701    1095.0117  0.046016629   0.04444075           13 
 1984000    0.4668711   -3.3730635    1094.3302  0.045964808  0.044414301           15 
 1985000     0.474263   -3.3714169    1094.6265  0.045954091  0.044387912           20 
 1986000   0.46662969   -3.3630318    1096.2243  0.045997999  0.044361501           15 
 1987000   0.45431816   -3.3569454    1095.8608  0.045959604  0.044335105           21 
 1988000   0.45056275   -3.3801234    1094.5286   0.04588064  0.044308705           72 
 1989000   0.46334717   -3.3697193    1092.0235   0.04575262  0.044282279           91 
 1990000   0.46355174   -3.3763296    1095.7155  0.045884235  0.044255848           29 
 1991000   0.45315316   -3.3737251    1093.3372  0.045761644  0.044229316           41 
 1992000   0.46292883    -3.359352    1096.1256  0.045855321  0.044202918           25 
 1993000   0.46252736   -3.3730132     1095.588  0.045809836  0.044176545           33 
 1994000   0.45123346   -3.3558984    1093.9438  0.045718148  0.044150165           29 
 1995000   0.45266037   -3.3588061    1094.8762  0.045734176  0.044123904           18 
 1996000   0.45117577   -3.3668357    1094.7893  0.045707637  0.044097582           20 
 1997000   0.45703115   -3.3676949    1095.8605  0.045729449  0.044071246           28 
 1998000    0.4538406   -3.3806876    1096.4257  0.045730136  0.044044947           38 
 1999000   0.44946775   -3.3635429    1093.5995   0.04558944  0.044018598           27 
 2000000   0.45374785   -3.3743136    1096.3149  0.045679789  0.043992282           30 
 2001000   0.45343952   -3.3834315    1094.8906  0.045597645  0.043965941           19 
 2002000   0.45687657   -3.3644439    1096.9544  0.045660771  0.043939732           25 
 2003000   0.45501065   -3.3718939    1095.4912  0.045577102  0.043913525           13 
 2004000   0.45198026   -3.3593196    1094.9955  0.045533746  0.043887394           16 
 2005000   0.46389056   -3.3547652    1098.2372  0.045645768  0.043861308            5 
 2006000   0.44325908   -3.3668895    1095.4529  0.045507347  0.043835259            8 
 2007000   0.44969084   -3.3793929    1096.4912  0.045527787  0.043809081           21 
 2008000   0.44991082     -3.38754    1095.9414  0.045482297  0.043782971           38 
 2009000   0.45348468   -3.3580125    1093.9435  0.045376783  0.043756874           13 
 2010000   0.45592275   -3.3620543    1095.1082  0.045402496  0.043730841           39 
 2011000   0.44683166   -3.3715128    1095.0671  0.045378216  0.043704772           28 
 2012000   0.45418076   -3.3803092    1095.3673  0.045368094  0.043678728           42 
Loop time of 4800.28 on 48 procs for 2000000 steps with 4000 atoms

Performance: 71995.796 tau/day, 416.642 timesteps/s
99.4% CPU use with 48 MPI tasks x no OpenMP threads

MPI task timing breakdown:
Section |  min time  |  avg time  |  max time  |%varavg| %total
---------------------------------------------------------------
Pair    | 313.87     | 333.53     | 358.51     |  57.5 |  6.95
Neigh   | 32.221     | 33.549     | 34.793     |  11.8 |  0.70
Comm    | 305.37     | 328.93     | 348.14     |  59.8 |  6.85
Output  | 4.1856     | 4.1879     | 4.2243     |   0.3 |  0.09
Modify  | 4048.1     | 4058.6     | 4068.3     |   6.9 | 84.55
Other   |            | 41.53      |            |       |  0.87

Nlocal:        83.3333 ave          92 max          76 min
Histogram: 2 3 3 13 7 7 7 2 3 1
Nghost:        2174.48 ave        2190 max        2155 min
Histogram: 2 0 3 6 7 8 11 2 4 5
Neighs:        14300.4 ave       16778 max       12935 min
Histogram: 3 8 9 11 7 4 3 2 0 1
FullNghs:      28601.6 ave       31731 max       26328 min
Histogram: 3 3 9 9 9 5 4 4 1 1

Total # of neighbors = 1372876
Ave neighs/atom = 343.21900
Neighbor list builds = 108617
Dangerous builds = 3

#clear
#
#next RN
#
#jump SELF
Total wall time: 1:20:03
