
units lj                  # Use reduced LJ style units
atom_style atomic         # Uncharged point particles
atom_modify map hash      # Needed for indexing of clusters etc
                          # Used to be able to find where atoms are in relation to each other.

lattice fcc 1.0 spacing 1 1 1
Lattice spacing in x,y,z = 1.5874011 1.5874011 1.5874011
region box block 0 10 0 10 0 10 units lattice
create_box 2 box
Created orthogonal box = (0.0000000 0.0000000 0.0000000) to (15.874011 15.874011 15.874011)
  3 by 4 by 4 MPI processor grid
create_atoms 1 box
Created 4000 atoms
  using lattice units in orthogonal box = (0.0000000 0.0000000 0.0000000) to (15.874011 15.874011 15.874011)
  create_atoms CPU = 0.002 seconds
set type 1 type/fraction 2 0.77 78393
Setting atom values ...
  3073 settings made for type/fraction
mass 1 1.0
mass 2 1.0
pair_style lj/cut  3.5
pair_modify tail  yes
pair_coeff 1  1  1.0  1.0   # Intearaction between 1 and 1 set with epsilon = 1 and sigma = 1
pair_coeff 1  2  1.5  0.8
pair_coeff 2  2  0.5  0.88

write_data data.0
System init for write_data ...
Neighbor list info ...
  update every 1 steps, delay 10 steps, check yes
  max neighbors/atom: 2000, page size: 100000
  master list distance cutoff = 3.8
  ghost atom cutoff = 3.8
  binsize = 1.9, bins = 9 9 9
  1 neighbor lists, perpetual/occasional/extra = 1 0 0
  (1) pair lj/cut, perpetual
      attributes: half, newton on
      pair build: half/bin/atomonly/newton
      stencil: half/bin/3d
      bin: standard
WARNING: Not all mixed pair coeffs generated from mixing. Use write_data with 'pair ij' option to store all pair coeffs. (../write_data.cpp:312)


#############################
#   M E L T   S Y S T E M   #
#############################

velocity all create 2.4 9580093 mom yes dist gaussian # Assign velocities
                                                    # Temperature 2.4, random number seed, zero linear momentum
                                                                                # Gaussian distribution

timestep 0.002   # simulation timestep
thermo 1000       # output thermodynamic data every 1000 steps bf 100

# Define a fix  in this case with index 1 applied to all
# particles in the simulation. This fix is for simulations
# in the anisotropic NPT ensemble. Note that we use the MTK
# correction.
fix 1 all npt temp 2.4 2.4 0.1 iso 5.68 5.68 0.5 mtk yes tchain 5 pchain 5 # Use NPT ensemble
                                                                         # Set temperature and pressure and damping
                                                                         # Numbers of thermostats in chain and in barostat
run 10000          # run for 10000 steps
Per MPI rank memory allocation (min/avg/max) = 3.642 | 3.644 | 3.648 Mbytes
Step Temp E_pair E_mol TotEng Press Volume 
       0          2.4   -3.8453673            0  -0.24626728   -3.4249601         4000 
    1000    2.4398417    -3.310559            0   0.34828868     5.869142    3730.1862 
    2000    2.4196733   -3.2862078            0   0.34239481    5.5057708    3758.9515 
    3000    2.3905685   -3.3499982            0   0.23495807    5.5682228    3705.1857 
    4000    2.4212403   -3.3221071            0   0.30884535    5.6977817     3723.757 
    5000    2.4194275   -3.2857963            0   0.34243768    5.5557572    3763.7383 
    6000    2.3903782   -3.2672356            0   0.31743529    5.5942672     3772.485 
    7000    2.4136562   -3.3082917            0   0.31128744     5.666439    3733.2191 
    8000    2.3798995   -3.2677149            0   0.30124187      5.60728    3755.1984 
    9000    2.3635422   -3.2829975            0   0.26142946    5.6788991    3754.9075 
   10000     2.405608   -3.3180003            0   0.28950962    5.7326169    3722.9972 
Loop time of 2.60937 on 48 procs for 10000 steps with 4000 atoms

Performance: 662227.697 tau/day, 3832.336 timesteps/s
99.6% CPU use with 48 MPI tasks x no OpenMP threads

MPI task timing breakdown:
Section |  min time  |  avg time  |  max time  |%varavg| %total
---------------------------------------------------------------
Pair    | 1.1947     | 1.2479     | 1.3881     |   2.9 | 47.82
Neigh   | 0.21637    | 0.22383    | 0.24996    |   1.1 |  8.58
Comm    | 0.72658    | 0.87819    | 0.96453    |   4.3 | 33.66
Output  | 0.00025276 | 0.00025703 | 0.00031963 |   0.0 |  0.01
Modify  | 0.20985    | 0.24355    | 0.28351    |   4.7 |  9.33
Other   |            | 0.01565    |            |       |  0.60

Nlocal:        83.3333 ave          97 max          68 min
Histogram: 1 0 3 6 14 9 7 5 1 2
Nghost:        1723.52 ave        1752 max        1691 min
Histogram: 2 1 4 9 7 5 8 4 5 3
Neighs:        10243.0 ave       12061 max        8121 min
Histogram: 1 0 2 10 7 13 7 3 3 2

Total # of neighbors = 491663
Ave neighs/atom = 122.91575
Neighbor list builds = 908
Dangerous builds = 217

# Equilibrate just above the melting temperature to avoid step fn in T

fix 1 all npt temp 1.25 1.25 0.1 iso 5.68 5.68 0.5 mtk yes tchain 5 pchain 5
run 2000
Per MPI rank memory allocation (min/avg/max) = 3.644 | 3.646 | 3.649 Mbytes
Step Temp E_pair E_mol TotEng Press Volume 
   10000     2.405608   -3.3180003            0   0.28950962    5.7326169    3722.9972 
   11000    1.2490911   -4.8800796            0   -3.0069114    5.6568929    2859.2852 
   12000    1.2855932   -4.8705302            0   -2.9426225    5.3481949    2878.6021 
Loop time of 0.655924 on 48 procs for 2000 steps with 4000 atoms

Performance: 526889.933 tau/day, 3049.132 timesteps/s
99.6% CPU use with 48 MPI tasks x no OpenMP threads

MPI task timing breakdown:
Section |  min time  |  avg time  |  max time  |%varavg| %total
---------------------------------------------------------------
Pair    | 0.29573    | 0.32192    | 0.36097    |   2.3 | 49.08
Neigh   | 0.041476   | 0.044684   | 0.050947   |   0.8 |  6.81
Comm    | 0.19519    | 0.2394     | 0.26691    |   2.9 | 36.50
Output  | 5.3383e-05 | 5.484e-05  | 7.0614e-05 |   0.0 |  0.01
Modify  | 0.039989   | 0.044913   | 0.050334   |   1.3 |  6.85
Other   |            | 0.004952   |            |       |  0.76

Nlocal:        83.3333 ave          91 max          77 min
Histogram: 5 1 9 4 5 12 2 8 1 1
Nghost:        2050.27 ave        2074 max        2024 min
Histogram: 1 3 5 4 7 10 8 2 5 3
Neighs:        13266.6 ave       14817 max       11754 min
Histogram: 2 2 6 5 8 11 6 3 2 3

Total # of neighbors = 636799
Ave neighs/atom = 159.19975
Neighbor list builds = 145
Dangerous builds = 12

#############################
# L I N E A R  Q U E N C H  #
#############################

# Define solid atoms. This closely follows ten Wolde  Ruiz-Montero and Frenkel  Faraday Discuss  1996  104  93-110
# Compute components of the per-atom q6 vector
compute q6 all orientorder/atom degrees 1 6 components 6 nnn NULL cutoff 1.3 # compute the Q6 parameter.
                                                                             # Use all neighbours within 1.3 unit cell.

# get number of connections
compute coord_number all coord/atom orientorder q6 0.5

# An atom is solid if it has 8 or more connections (of a possible 14)
variable is_solid atom c_coord_number>=8
group solid dynamic all var is_solid    # Must be dynamic to update
dynamic group solid defined

# do clustering
compute cluster solid cluster/atom 1.3 # Create a cluster where all atoms within are solid and max 1.3 units from another member

# define chunks one chunk per cluster
compute clus_chunks solid chunk/atom c_cluster nchunk every compress yes  # Says which atoms are in which chunk

# count the size of each chunk
compute size_chunks solid property/chunk clus_chunks count


# Find the maximum entry in the vector of chunk sizes
variable max_n equal max(c_size_chunks)


# Thermo style which includes this variable
# thermo_style custom step temp pe vol v_max_n

thermo ${N}  # Print the thermo information every 100 steps
thermo 1000  

# Reset the npt fix at a lower temperature (below freezing)
fix 1  all npt temp  ${temp} ${temp}  0.1  iso  5.68  5.68  0.5  mtk yes tchain  5  pchain  5
fix 1  all npt temp  0.45 ${temp}  0.1  iso  5.68  5.68  0.5  mtk yes tchain  5  pchain  5
fix 1  all npt temp  0.45 0.45  0.1  iso  5.68  5.68  0.5  mtk yes tchain  5  pchain  5

dump dmp2 all dcd ${N} traj.dcd
dump dmp2 all dcd 1000 traj.dcd


compute msd all msd com yes
variable twopoint equal c_msd[4]/6/(step*dt+1.0e-6)
fix 9 all vector 10 c_msd[4]
variable fit equal slope(f_9)/6/(10*dt)
thermo_style custom step temp pe c_msd[4] v_twopoint v_fit v_max_n

fix 1 all npt temp 1.25 ${temp} 0.1 iso 5.68 5.68 0.5 mtk yes tchain 5 pchain 5
fix 1 all npt temp 1.25 0.45 0.1 iso 5.68 5.68 0.5 mtk yes tchain 5 pchain 5
run 500000 # 5000000  # Run for this many steps
Neighbor list info ...
  update every 1 steps, delay 10 steps, check yes
  max neighbors/atom: 2000, page size: 100000
  master list distance cutoff = 3.8
  ghost atom cutoff = 3.8
  binsize = 1.9, bins = 8 8 8
  4 neighbor lists, perpetual/occasional/extra = 1 3 0
  (1) pair lj/cut, perpetual
      attributes: half, newton on
      pair build: half/bin/atomonly/newton
      stencil: half/bin/3d
      bin: standard
  (2) compute orientorder/atom, occasional
      attributes: full, newton on
      pair build: full/bin/atomonly
      stencil: full/bin/3d
      bin: standard
  (3) compute coord/atom, occasional
      attributes: full, newton on
      pair build: full/bin/atomonly
      stencil: full/bin/3d
      bin: standard
  (4) compute cluster/atom, occasional
      attributes: full, newton on
      pair build: full/bin/atomonly
      stencil: full/bin/3d
      bin: standard
Per MPI rank memory allocation (min/avg/max) = 9.836 | 9.843 | 9.848 Mbytes
Step Temp PotEng c_msd[4] v_twopoint v_fit v_max_n 
   12000    1.2855932   -4.8705302            0            0 8.3333333e+20            5 
   13000    1.2498746   -4.9217752   0.72239215 0.0046307187  0.060359857            2 
   14000    1.2396043    -4.867951    1.4803929 0.0088118623  0.061703775            4 
   15000    1.2480744   -4.8568465    2.2778294  0.012654607  0.063372988            2 
   16000      1.26627   -4.8861247    3.0178158   0.01571779  0.063588701            3 
   17000    1.2519201   -4.9078723    3.7124183  0.018198128  0.063322832            2 
   18000    1.2405184   -4.9030632    4.3778633  0.020267885   0.06201833            2 
   19000    1.2294119   -4.8860605      5.16516   0.02265421  0.061496149            1 
   20000      1.24393    -4.898914    5.8382682  0.024326117  0.061175685            2 
   21000    1.2639754    -4.900382     6.511719  0.025840154  0.060655686            2 
   22000     1.206481   -4.9089216    7.2069148  0.027298919  0.060149523            1 
   23000    1.2407018   -4.8980242    7.8836027  0.028563777  0.059751819            3 
   24000    1.2287606   -4.9016274    8.6436697  0.030012741  0.059541552            1 
   25000    1.2556268   -4.9548483    9.3978534  0.031326177  0.059557506            2 
   26000    1.2420776   -4.9617289    10.057179  0.032234548  0.059584695            2 
   27000    1.2252035   -4.9113393    10.780498  0.033273142  0.059469923            1 
   28000    1.1883558   -4.9226542    11.531858  0.034321006  0.059459144            4 
   29000    1.2447621   -4.9229474    12.328814  0.035427625  0.059514039            1 
   30000    1.2099283   -4.9405575    13.078704  0.036329734  0.059694158            2 
   31000     1.238159   -4.9601405    13.821551  0.037154706  0.059855074            2 
   32000    1.2135716   -4.9449832    14.558007  0.037911476  0.059976181            4 
   33000    1.2068606   -4.9500391    15.266996  0.038553019  0.060069369            2 
   34000    1.2312076   -4.9485389     15.93383  0.039053504  0.060075773            1 
   35000    1.2168342   -4.8879787    16.618555  0.039567986  0.060071117            2 
   36000    1.2134143   -4.9134144    17.233429  0.039892196  0.059972573            3 
   37000    1.2133095   -4.9714263    17.862683  0.040231267   0.05984769            4 
   38000    1.2192712   -4.9718853     18.35417  0.040250371  0.059660343            2 
   39000    1.1943366   -4.9692505        18.96   0.04051282  0.059423608            3 
   40000    1.2230199    -4.938591    19.443181  0.040506627  0.059118883            2 
   41000    1.1770374   -5.0030659    20.105872  0.040865593  0.058793156            3 
   42000    1.2094502   -4.9831059    20.810127  0.041289934   0.05851568            4 
   43000    1.2153657   -4.9844087    21.519804  0.041705047  0.058305055            2 
   44000     1.205951   -4.9829218    22.260981  0.042160949  0.058115171            3 
   45000     1.211482   -5.0035248    22.866277  0.042344957  0.057930463            2 
   46000    1.1851075    -4.999147    23.535486  0.042636749  0.057751277            3 
   47000    1.2055789   -4.9925668    24.138937  0.042799534  0.057581905            2 
   48000    1.1958013   -4.9789579     24.65388  0.042801875   0.05741655            2 
   49000    1.1927675   -4.9960109    25.341242  0.043097349  0.057236979            1 
   50000    1.1974965   -5.0305195    26.000187  0.043333645  0.057097107            3 
   51000      1.19777   -4.9887742    26.790899  0.043775978  0.056954778            2 
   52000    1.2175525   -5.0276483    27.411123  0.043928082  0.056839811            2 
   53000     1.176861   -4.9716976     28.02995  0.044072249  0.056739494            2 
   54000    1.1692519    -4.999048    28.708687  0.044303529  0.056620882            2 
   55000    1.1793161   -4.9839046    29.252425  0.044321855  0.056504032            1 
   56000    1.1887878    -4.995123    29.854394  0.044426181  0.056390386            2 
   57000    1.1923823   -4.9935015    30.693479  0.044873507   0.05631233            2 
   58000    1.1959232   -5.0003554    31.198456  0.044825368  0.056233909            2 
   59000    1.1823016   -5.0082805    32.009877   0.04521169   0.05616842            1 
   60000     1.173443   -5.0591944    32.561246  0.045223952   0.05608694            6 
   61000    1.1535607   -5.0023356    33.145807  0.045281157  0.056002518            2 
   62000    1.1518005   -5.0140982    33.891509  0.045553104  0.055937327            2 
   63000    1.1547754   -5.0542471    34.356533  0.045445149  0.055861795            2 
   64000    1.1711969   -5.0289127    35.013686  0.045590737  0.055791696            2 
   65000    1.1761738   -5.0222484    35.476005  0.045482057  0.055703289            2 
   66000    1.1499524   -5.0325652    35.979496  0.045428656  0.055595557            5 
   67000    1.1545465   -5.0747944     36.52169  0.045424987  0.055487492            2 
   68000    1.1712797   -5.0632419    37.106455  0.045473597  0.055352939            3 
   69000    1.1661922   -5.0617344    37.732691  0.045570882  0.055233576            2 
   70000    1.1515011   -5.0444255    38.403309  0.045718225  0.055112949            1 
   71000    1.1434551   -5.0643571    38.811355  0.045553233  0.054996288            3 
   72000    1.1524152   -5.0610186    39.567892  0.045796172  0.054887392            2 
   73000    1.1720019   -5.0872144    40.146869  0.045829759  0.054776798            1 
   74000    1.1649882   -5.0392125    41.023253  0.046197357  0.054684037            2 
   75000     1.178933    -5.045319    41.735718   0.04637302    0.0546222            1 
   76000    1.1487111   -5.0690913    42.290061  0.046370681  0.054555169            2 
   77000    1.1597884   -5.1116702    42.569222  0.046070586  0.054484255            2 
   78000    1.1340056   -5.1185793    43.361792    0.0463267  0.054409801            5 
   79000    1.1257472   -5.0659301    44.005445  0.046419245  0.054354831            2 
   80000    1.1359242   -5.0280557    45.064119   0.04694179  0.054294726            2 
   81000    1.1432659   -5.0861634    45.285311  0.046589826   0.05424645            2 
   82000     1.107454   -5.1057598    45.945304  0.046692381   0.05419749            2 
   83000    1.1319984   -5.1109416    46.481639  0.046668312  0.054135767            4 
   84000    1.1111129   -5.0951425    46.915026  0.046542684  0.054063764            2 
   85000    1.1114065   -5.1579149    47.082185  0.046159005  0.053974293           10 
   86000     1.135357   -5.1188272    47.729866   0.04624987  0.053863685            2 
   87000    1.1372795   -5.0894571    48.491747  0.046448034  0.053746702            3 
   88000    1.1234574   -5.1431533    48.864385  0.046273092  0.053642331            2 
   89000    1.1203949   -5.1636583    49.596525  0.046438694  0.053540071            3 
   90000    1.1276732     -5.15308    50.352676  0.046622848  0.053456446            2 
   91000    1.1281962   -5.1087339    51.141196  0.046832597  0.053384932            4 
   92000    1.1469553   -5.1338292     51.53108  0.046676702  0.053310024            3 
   93000     1.127165   -5.1791596    51.718925  0.046343122  0.053222028            4 
   94000    1.1476723   -5.1329071    52.524922  0.046564647  0.053135861            3 
   95000     1.117515   -5.1561591    52.953487  0.046450427  0.053050082            2 
   96000    1.1076729   -5.1316128    53.572281  0.046503716   0.05295893            2 
   97000    1.1194432   -5.1411386    54.027841  0.046415671  0.052866303            4 
   98000     1.139453   -5.1292995    54.414425  0.046270769  0.052772893            3 
   99000    1.1166695   -5.1533213    55.071424  0.046356417  0.052671084            3 
  100000    1.0967839   -5.1420975    55.471909  0.046226591  0.052563164            4 
  101000    1.1106256   -5.1449885    55.905099  0.046126319  0.052462286            2 
  102000    1.1021785   -5.1600952    56.932702  0.046513645  0.052367955            2 
  103000    1.1301848   -5.2002326    57.211191  0.046287371  0.052279465            3 
  104000    1.1148616   -5.1408998    58.004957  0.046478331  0.052199496            4 
  105000    1.0936132   -5.2050616    58.496131    0.0464255  0.052118383            2 
  106000    1.1114996   -5.1688123    59.047208  0.046420761  0.052047935            2 
  107000    1.0810458   -5.1867008    59.603227  0.046419959  0.051980654            5 
  108000    1.0934091   -5.1965748    60.258774  0.046495967   0.05190562            4 
  109000    1.1159503   -5.1369078     61.03875  0.046665711  0.051831531            1 
  110000    1.1084976   -5.1725219    61.306106  0.046444019   0.05175949            2 
  111000     1.083019   -5.1709065    61.823972  0.046414393  0.051688084            4 
  112000    1.0806665    -5.168659    62.498902  0.046502159  0.051614295            2 
  113000    1.0838081   -5.1732567    63.247251  0.046642515  0.051546813            4 
  114000    1.0669267   -5.2150538    63.296663  0.046269491   0.05147674            3 
  115000    1.0851002   -5.2186588    64.174488  0.046503252  0.051403834            3 
  116000    1.0946033   -5.2180109    64.380171  0.046250123  0.051328578            3 
  117000    1.0915429   -5.2361665    64.818705  0.046167168  0.051248783            2 
  118000    1.0526856   -5.2443018    65.222201  0.046060876  0.051169295            4 
  119000    1.0775779   -5.2693958    65.323605  0.045744822  0.051076325            1 
  120000    1.0820846   -5.2137126    66.099961   0.04590275   0.05097346            8 
  121000    1.0767175     -5.18774    66.442964  0.045759617  0.050870923            5 
  122000    1.0966662    -5.211367    66.622443  0.045507133  0.050769866            3 
  123000    1.0583778   -5.2499926    67.070817  0.045440933  0.050665096            3 
  124000    1.0829701    -5.237977    67.426195  0.045313303  0.050555284            3 
  125000    1.0360563   -5.1931217    68.289862  0.045526574  0.050441015            2 
  126000    1.0717623   -5.2580126    68.124603  0.045055954  0.050326714            2 
  127000    1.0632645   -5.2107847    68.489416  0.044940561  0.050210152            4 
  128000    1.0554671   -5.2102882    69.438999  0.045207682  0.050094942            5 
  129000    1.0688075   -5.2777661    69.604765  0.044964318  0.049983992            4 
  130000    1.0526007   -5.2469598    70.312489  0.045072108  0.049870615            2 
  131000    1.0383151   -5.2710493    70.779008  0.045024814  0.049763671            2 
  132000     1.045225   -5.2436299    71.327579  0.045030037   0.04965982            3 
  133000    1.0482175   -5.2828514    71.592943  0.044857734   0.04955562            5 
  134000    1.0634401   -5.2775251    71.829796  0.044670271  0.049446714            3 
  135000    1.0457529   -5.2273588    72.499275  0.044752639  0.049333826            2 
  136000    1.0670526   -5.2739741    72.345731  0.044329492  0.049221726            2 
  137000    1.0391436   -5.2488609    73.262978  0.044563855  0.049113284            4 
  138000    1.0489099   -5.2728692    73.566375   0.04442414  0.049001626            2 
  139000    1.0458492   -5.2682012    74.109861  0.044430372  0.048889381            3 
  140000    1.0530268   -5.2750388    74.428252  0.044302531  0.048773672            3 
  141000    1.0572663   -5.2584259    74.844085  0.044234093  0.048657495            4 
  142000     1.038546   -5.2858767    75.320355  0.044202086  0.048544483            3 
  143000    1.0268512   -5.2840294    75.535933  0.044018609  0.048431998            5 
  144000    1.0422999   -5.3354105    75.730291    0.0438254  0.048319925            9 
  145000    1.0309344   -5.2973119    76.580852  0.044011984  0.048203157           11 
  146000    1.0193071   -5.2785716    76.531232   0.04368221  0.048087662            5 
  147000    1.0598009   -5.2926853     77.45315  0.043907681  0.047976444            7 
  148000    1.0360666   -5.3061105    77.642622  0.043717692  0.047867389            5 
  149000    1.0337802   -5.3239936    78.122617  0.043692739  0.047755827            3 
  150000    1.0275546   -5.3351246    78.377697  0.043543165  0.047647007            3 
  151000    1.0217182   -5.3032483    79.010232  0.043603881   0.04753793            2 
  152000    1.0185598   -5.3258928    79.473545  0.043571022  0.047430451            4 
  153000    1.0295916   -5.3164848    79.869345  0.043501822  0.047325386            5 
  154000    1.0151315   -5.3170306    80.027953  0.043305169  0.047219422            3 
  155000   0.98804897   -5.3139877    80.620401  0.043344301   0.04711678            2 
  156000   0.99521118   -5.3302269    81.029417  0.043284945  0.047011229            4 
  157000     1.007712   -5.3413916    81.555726  0.043288602  0.046908411            4 
  158000     1.006607    -5.344591    81.495321  0.042982764  0.046802445            4 
  159000    1.0445642    -5.350245    81.864552  0.042905949  0.046696469            5 
  160000    1.0101789   -5.3346915    82.586082  0.043013584  0.046588709            2 
  161000    1.0136436   -5.3736078    82.715444  0.042813377  0.046481647            2 
  162000   0.99735076   -5.3455576    83.150387  0.042772833  0.046376118            3 
  163000   0.99991115   -5.3428051    83.717802  0.042800512  0.046266864            2 
  164000    1.0097105   -5.3638251    83.782753  0.042572537  0.046160378            6 
  165000    1.0124654   -5.3531774    84.061552  0.042455329  0.046051146            6 
  166000     1.009068   -5.3526707    84.520469  0.042429954  0.045945721            4 
  167000    1.0005303   -5.3950842    84.792395  0.042311574   0.04583515            3 
  168000     1.016588   -5.3720804    85.168033  0.042246048  0.045725443            3 
  169000   0.98702046   -5.3735075    85.184992  0.042004434  0.045617072            2 
  170000   0.99839082   -5.4107092    85.873399  0.042094803  0.045506205            3 
  171000   0.99905835   -5.4038749    86.357173  0.042084392  0.045396736            3 
  172000   0.96941919   -5.3625855    86.637169  0.041975372  0.045285373            5 
  173000   0.99291117     -5.42766    86.695824  0.041760994  0.045174988            7 
  174000   0.99061241   -5.4267856    87.120498  0.041724376  0.045063981            9 
  175000   0.97807514   -5.4150247    87.397223  0.041617725  0.044951408            4 
  176000   0.98183593   -5.3656742    87.985208  0.041659663  0.044839346            2 
  177000   0.98853567   -5.4016219     88.12785  0.041491455  0.044727952            5 
  178000   0.99471509   -5.4020358    88.382167  0.041377419  0.044618146            3 
  179000   0.99016798   -5.4262504    88.909545  0.041391781  0.044509669            6 
  180000   0.98136916   -5.4345136    89.363091  0.041371801  0.044400904            4 
  181000   0.99003242   -5.4474674    89.289588  0.041109387  0.044294974            3 
  182000   0.96509909   -5.4260314    90.018629  0.041217321  0.044186722            3 
  183000   0.99440052   -5.4224273    90.123288  0.041039749  0.044081559            4 
  184000   0.96143893   -5.4517476    90.523765  0.040998082  0.043974222            5 
  185000   0.99063352    -5.410534     91.42258  0.041181342   0.04387102            3 
  186000   0.96234226     -5.46113    91.108372  0.040819163  0.043765316            4 
  187000   0.96468945   -5.4457011    91.202694  0.040642912  0.043657839            2 
  188000   0.97310386   -5.4612476    91.485662  0.040552155  0.043550014            3 
  189000   0.95668055   -5.4433802    91.973433   0.04055266  0.043440788            4 
  190000    0.9474905   -5.4750731    92.135805  0.040410441   0.04333236            5 
  191000   0.95771083   -5.4492599    92.559716   0.04038382  0.043222157            3 
  192000   0.96453866    -5.458364    92.746485  0.040254551   0.04311142            3 
  193000   0.96239226   -5.4505815     92.98032  0.040146943  0.043000003            4 
  194000    0.9490888   -5.4421164    93.448275  0.040141011  0.042893815            2 
  195000   0.95515561   -5.4539374    93.765167  0.040070584  0.042787614            2 
  196000   0.94080818   -5.4538585    94.075133   0.03999793  0.042682088            5 
  197000   0.94186307   -5.4718104    94.589823  0.040012615  0.042577193            7 
  198000    0.9631819   -5.4567916    94.883528  0.039934145  0.042471465            7 
  199000   0.95210677   -5.4693195    94.956007  0.039763822  0.042368371            6 
  200000   0.92898168   -5.4526218    95.297546  0.039707311  0.042262577            2 
  201000    0.9243597   -5.4590249     95.26036  0.039494345  0.042154706           10 
  202000   0.94866637   -5.4784378    95.882624  0.039555538  0.042047349            5 
  203000    0.9506849   -5.4716019    96.451313  0.039594135  0.041942951            7 
  204000   0.94510941   -5.4675619    96.573425  0.039449928  0.041839979            5 
  205000   0.96434886   -5.5179901    95.993517  0.039021755  0.041735813            6 
  206000   0.94310208   -5.5107722    96.743464  0.039135706  0.041629296            5 
  207000   0.95073768   -5.5028258    97.093303  0.039087481  0.041523681            5 
  208000   0.92578482   -5.5188436    97.207092  0.038945149    0.0414195           19 
  209000   0.92538073   -5.4812722     97.78008  0.038987273  0.041314268            2 
  210000   0.93609759   -5.4859438    97.563423  0.038715644  0.041206417            3 
  211000   0.93727301   -5.4765335    97.795594  0.038623852  0.041098317            3 
  212000   0.92126836   -5.5261093    98.002442  0.038522972  0.040991821            6 
  213000   0.92390072   -5.5645803    98.102733  0.038381351  0.040882374            2 
  214000   0.94513816   -5.5306005    98.605362  0.038397727   0.04077291            5 
  215000    0.9251649   -5.5527347     98.41637   0.03814588  0.040664036            5 
  216000   0.91125595   -5.5113928     99.36018  0.038333403  0.040555787            2 
  217000   0.89619272   -5.5524942     99.03185  0.038030664  0.040448768            6 
  218000   0.92259608   -5.5037654    99.991339  0.038222989  0.040343996            3 
  219000   0.90497152   -5.5347973    100.01556  0.038057671  0.040239497            5 
  220000   0.91674226   -5.5620526    100.05144  0.037898273  0.040133953            2 
  221000   0.92696063   -5.5292549    100.98337  0.038078193  0.040032177            4 
  222000   0.92292248   -5.5483929    100.54676  0.037742776  0.039928519            3 
  223000   0.91574439    -5.562037    100.51234  0.037560666   0.03982278            5 
  224000   0.90860829   -5.5660631    101.15632  0.037632561  0.039716747            3 
  225000   0.90586941   -5.5652213    101.11058  0.037448363  0.039614287            3 
  226000   0.88619878   -5.5596572     102.1293  0.037658298  0.039510437            8 
  227000     0.895988    -5.607753    101.88026  0.037400978  0.039406367            7 
  228000   0.89314595   -5.5917493    101.73143   0.03718254  0.039303098            4 
  229000   0.91265512   -5.5757314    102.08114  0.037147432  0.039199387            2 
  230000   0.90277251   -5.6216737    102.46823  0.037126172  0.039096077            8 
  231000   0.91213815   -5.6077739    102.36248    0.0369273  0.038994527            3 
  232000   0.90798778   -5.5717274    102.98343  0.036991173  0.038893432            3 
  233000   0.89503012   -5.5906843    103.14616  0.036890615  0.038794608            6 
  234000   0.89438948   -5.6108732    103.47836  0.036851268  0.038695028           10 
  235000   0.89786213   -5.6262936    103.20525  0.036597608  0.038594783            4 
  236000    0.8897678   -5.6035977    103.75424  0.036636384  0.038494438            5 
  237000   0.89239644   -5.6442195    103.97477  0.036559342    0.0383942            6 
  238000   0.91089109   -5.6314859    104.05931  0.036435333  0.038292505            5 
  239000   0.88231565   -5.6254562    104.39534  0.036400049  0.038190928            9 
  240000   0.90579797   -5.6372686    104.47333  0.036275462  0.038087572            6 
  241000   0.87996542    -5.631668    104.48767    0.0361299  0.037984716            5 
  242000   0.87020196   -5.6557331    104.81214  0.036092333  0.037881601            5 
  243000   0.88655006   -5.6592571    104.79005  0.035936229  0.037778506            6 
  244000   0.87286476   -5.6244139    105.42433  0.036005577  0.037678293            5 
  245000   0.86595381   -5.6305131    105.25153  0.035799841  0.037578569            4 
  246000   0.88025788   -5.6098601    105.44067  0.035718383  0.037478257            7 
  247000   0.88206835   -5.6497973    105.87022  0.035718696  0.037377966            5 
  248000   0.85790549   -5.6507043     106.0224  0.035625807  0.037278559           10 
  249000   0.87385357   -5.6574755    105.87201  0.035432398  0.037178368            4 
  250000   0.89142066   -5.6580617    106.43767  0.035479224   0.03707884            6 
  251000   0.85329486    -5.680992    106.44613   0.03534068  0.036978846            8 
  252000   0.86120712   -5.6481612    106.88585  0.035345849  0.036879494            6 
  253000   0.87462117   -5.6829156    106.91012  0.035214138  0.036781398            3 
  254000   0.86232734   -5.6655571    107.23948  0.035183557  0.036682922           10 
  255000   0.87659304    -5.690057    107.17244  0.035023673  0.036584245            3 
  256000   0.86592822   -5.6731101    107.73073  0.035068597  0.036485422            3 
  257000   0.86914559   -5.6959813    107.36455  0.034813408   0.03638773            7 
  258000   0.83544925   -5.6671248    108.00566  0.034885549   0.03628963            4 
  259000   0.84992613   -5.7251681    107.81834  0.034690585  0.036193125            7 
  260000   0.87898737   -5.6992431    108.35677  0.034729733  0.036096608            7 
  261000    0.8606209   -5.7064681    108.52125  0.034649185   0.03600017            5 
  262000   0.84606667   -5.6961463    109.00562  0.034670997  0.035903899           10 
  263000   0.84983943    -5.696322    108.98698  0.034533265   0.03580904            6 
  264000   0.85294121    -5.739632    108.60824  0.034282905  0.035714385            9 
  265000   0.84477912   -5.7492486     108.9388  0.034257484  0.035619256            8 
  266000   0.83728701   -5.7080314    109.45299  0.034289783  0.035524521            4 
  267000   0.83683015   -5.6980482    109.80917  0.034272526  0.035430346            8 
  268000   0.84076173    -5.710474    109.54423  0.034062259  0.035337645            5 
  269000   0.80287374   -5.7527862    109.76352  0.034003569  0.035243605           10 
  270000   0.83685654   -5.7175724    110.13657  0.033992769  0.035149435            3 
  271000   0.82909133    -5.730919    109.99847  0.033824866  0.035055656            5 
  272000    0.8489144   -5.7677245    110.23537  0.033773092   0.03496178            4 
  273000    0.8305017   -5.7332937    110.63402  0.033771069   0.03486906            7 
  274000   0.82873668   -5.7497608    110.59952  0.033637325  0.034777351            6 
  275000   0.82320297   -5.7571595    110.86878  0.033596601  0.034685596            5 
  276000   0.83413487   -5.7515399    110.99541  0.033513107   0.03459403            6 
  277000   0.82853676   -5.7604392    111.11814  0.033429043  0.034500915            5 
  278000    0.8539501   -5.7354214    111.36434  0.033382597  0.034409321           10 
  279000   0.82099079   -5.7597926    111.56204  0.033321995  0.034318459            3 
  280000   0.82083366   -5.7542144    111.73841   0.03325548  0.034227614            5 
  281000   0.82767236    -5.760611    112.00613  0.033216528  0.034137074            5 
  282000   0.83208683   -5.7797287    111.95709  0.033084247  0.034046944            4 
  283000   0.81253541   -5.7408976    112.41595  0.033102459  0.033957258            3 
  284000   0.83437991   -5.7692349    112.37229  0.032973091  0.033868062            6 
  285000   0.80822276   -5.7724508     112.7212  0.032959415  0.033779679            8 
  286000   0.83407555   -5.7841327    112.63907  0.032820243  0.033690776            7 
  287000   0.82149676   -5.7919925    112.65332  0.032710023  0.033602265            6 
  288000   0.81559569   -5.7998989    113.28063  0.032777961  0.033514133            9 
  289000   0.80408293    -5.800729    113.40767  0.032701174   0.03342758            8 
  290000    0.8226175   -5.7910103    113.67893   0.03266636  0.033341925            7 
  291000   0.79323978   -5.7987237    113.54654   0.03251619  0.033255553            3 
  292000   0.79369926   -5.8309029    113.32901  0.032342754  0.033169958            8 
  293000   0.80424612   -5.8082803    113.81756   0.03237132   0.03308426           19 
  294000   0.80589684   -5.8280263    114.17659  0.032362979    0.0330007            5 
  295000   0.80350637   -5.7913797     114.4445  0.032328955  0.032917286            9 
  296000   0.79537325   -5.8097472    114.57781  0.032257267  0.032834282            5 
  297000   0.78147434   -5.8371973    114.40099  0.032099043  0.032751049            3 
  298000   0.78814225   -5.8202793    114.96831  0.032149976   0.03266769            7 
  299000   0.78927942   -5.8515121    114.76275  0.031985159   0.03258463            4 
  300000   0.79461788   -5.8710704    114.78191  0.031883863  0.032501084            4 
  301000    0.7819425   -5.8474884    115.24146  0.031905166  0.032416866            9 
  302000   0.79778176   -5.8350063    115.46641  0.031861593  0.032333676            7 
  303000   0.77479288   -5.8521213     115.4904  0.031763036  0.032250335           10 
  304000   0.78501187   -5.8364146    115.47789  0.031655124  0.032167965           11 
  305000   0.77567865   -5.8752905    115.50795  0.031559548   0.03208535            7 
  306000   0.79009096   -5.8443073    115.95904   0.03157926  0.032003758            4 
  307000   0.77896338    -5.871443    116.25152  0.031555786  0.031922459            6 
  308000   0.76890088   -5.8802876    115.83999  0.031341988  0.031840239           12 
  309000   0.75414655   -5.8783123    116.00128  0.031284056   0.03175746            6 
  310000   0.78757564   -5.8796011    116.27525  0.031256789  0.031675314            7 
  311000   0.75719745   -5.9028154    115.85258  0.031043027  0.031592958            6 
  312000   0.77473596   -5.9129092    116.29606  0.031061982  0.031510214           15 
  313000   0.76374107   -5.8926462    115.94936  0.030870436  0.031427793            7 
  314000   0.76608231   -5.8936521    116.36411  0.030882194  0.031344448            9 
  315000   0.76362127   -5.9033334    116.23088  0.030748909  0.031260957           13 
  316000   0.75459301   -5.8959454    116.20536  0.030644873  0.031176854            8 
  317000   0.75184567   -5.9119259    116.43966  0.030609795  0.031093229           11 
  318000   0.76485894   -5.8933125    116.93425  0.030643147  0.031009694           13 
  319000   0.75622849   -5.9059968    116.86293  0.030528456  0.030927098            9 
  320000   0.75760916   -5.9152558    116.91242  0.030445942  0.030845462            6 
  321000   0.75141514   -5.9304534    116.97349  0.030366949  0.030763491            7 
  322000   0.74831757   -5.9319454    116.98267  0.030275018  0.030680903            3 
  323000   0.75075214   -5.9247567    117.14501  0.030223171  0.030598486            9 
  324000   0.75458622   -5.9479818    116.92859  0.030074225  0.030516022            8 
  325000   0.74185327   -5.9401503    117.11022  0.030028262  0.030433985           11 
  326000   0.73048153   -5.9498523    117.14751  0.029945682  0.030351928           12 
  327000   0.75819736   -5.9886056    117.55973  0.029959156   0.03027008            5 
  328000   0.74852356   -5.9420062    117.54324  0.029863627   0.03018896           12 
  329000   0.75210743   -5.9509863    117.50294   0.02976265  0.030107893            8 
  330000   0.74824248   -5.9722255    117.65603  0.029711119  0.030026924            7 
  331000   0.74326965   -5.9502322    117.49842  0.029581676  0.029945472            7 
  332000   0.74377928    -5.983067    117.56555  0.029509424  0.029864517            5 
  333000    0.7115224    -5.980014    117.60384  0.029430391  0.029782614            5 
  334000   0.74684083   -5.9877865    118.14355  0.029476934  0.029701467            9 
  335000   0.75445793   -6.0004411    117.99554  0.029352123  0.029620642           11 
  336000   0.74151188   -5.9831358    118.17118  0.029308328  0.029540097           13 
  337000   0.73924033    -5.993014     118.1801  0.029223566   0.02946047            8 
  338000   0.73161021   -6.0172761    118.15377  0.029130614  0.029380305            3 
  339000   0.72146413   -5.9998849    118.53452  0.029138279  0.029300486            8 
  340000   0.72989551   -5.9672662    118.62844  0.029075599  0.029221481           10 
  341000   0.72878603   -5.9890989    118.61943   0.02898813   0.02914249           12 
  342000   0.71449363   -5.9888571    118.84378  0.028958035  0.029063852            4 
  343000   0.71436697   -5.9980132    118.89436    0.0288859  0.028985535           11 
  344000   0.72352886    -6.004164    118.86161  0.028793995   0.02890694           13 
  345000    0.7168196   -6.0290555    118.99792   0.02874346  0.028828233            9 
  346000   0.70551661   -6.0168322    118.80456  0.028613815  0.028749337            9 
  347000   0.70087919   -6.0317598    118.54216  0.028468339   0.02867039           14 
  348000   0.70669485   -6.0270638    118.94203  0.028482287  0.028591701            7 
  349000   0.70461704   -6.0022123    119.13796   0.02844746  0.028513972           11 
  350000   0.70418592    -6.061963    119.01972  0.028338028  0.028435765            9 
  351000   0.71073649   -6.0356446     119.2324  0.028307787  0.028357647            6 
  352000   0.70491288   -6.0396649    119.22654  0.028225981   0.02827956           19 
  353000   0.69519438   -6.0487185    118.99541  0.028091456   0.02820159           11 
  354000   0.71996578    -6.030126    119.46244  0.028122044    0.0281238            5 
  355000   0.70886908    -6.019659    119.24097  0.027990838   0.02804581            5 
  356000   0.69410308   -6.0568341    119.28377   0.02792223  0.027968063           14 
  357000   0.70245466   -6.0487924    119.32247  0.027853051  0.027890203            8 
  358000   0.69578109   -6.0720392    119.24063  0.027756199  0.027812226           13 
  359000   0.69010117    -6.066314     119.4771  0.027733774  0.027734787           10 
  360000   0.68511317   -6.0526337    119.48831  0.027659331  0.027657656            8 
  361000   0.69351285   -6.0848044    119.47229  0.027579015  0.027580512           14 
  362000   0.68989418   -6.1020082    119.39675   0.02748544  0.027503437           20 
  363000   0.69607928   -6.1045425    119.36731  0.027402964  0.027426263           22 
  364000   0.68374309    -6.087034    119.90522  0.027450829   0.02734958           23 
  365000   0.67069869   -6.0973008    119.95587  0.027387186  0.027272898           27 
  366000   0.68524916   -6.0885679    119.96787  0.027315088  0.027196696           12 
  367000   0.69428658   -6.1143456    119.92766   0.02723153  0.027120515           14 
  368000   0.67332366   -6.1222779    119.90435  0.027152254  0.027044564           10 
  369000   0.68175394    -6.118313    119.78441  0.027051583  0.026968664           12 
  370000   0.67624235   -6.1618473    119.75141  0.026971039  0.026892814           17 
  371000   0.65842829   -6.1304654    120.02417  0.026959606  0.026817221           21 
  372000     0.680729   -6.1362818    119.89392  0.026857957  0.026742182           22 
  373000   0.66667989   -6.1488323    120.15718  0.026844769  0.026667118           24 
  374000   0.67388029    -6.134817    120.06981  0.026753522   0.02659224           16 
  375000   0.66011757   -6.1391675    120.50407  0.026778681  0.026517892            5 
  376000   0.67023228   -6.1604792    120.40161  0.026684753  0.026443693           33 
  377000   0.67285597   -6.1459465    120.16356  0.026561353  0.026369354           11 
  378000   0.66870388    -6.154226    120.20855  0.026501002  0.026294963           11 
  379000   0.67731096   -6.1367167      120.253  0.026440853  0.026220856           11 
  380000   0.65997855   -6.1437594    120.52621  0.026431187  0.026147278            8 
  381000   0.66623012   -6.1392048    120.41718  0.026337967  0.026073352            8 
  382000   0.65966923   -6.1493302    120.52252  0.026291999   0.02599974            8 
  383000   0.64959761   -6.1688076    120.18578  0.026150083  0.025926149           16 
  384000   0.64810189   -6.1735809    120.37318  0.026122651  0.025852622           11 
  385000   0.64338667   -6.1808706    120.12622  0.026001346  0.025778757           14 
  386000   0.65201954   -6.1541619    120.86622  0.026093744  0.025705151           12 
  387000   0.64665866   -6.1710344    120.49717   0.02594685  0.025632052           13 
  388000   0.65885811   -6.1729109    120.47414   0.02587503  0.025558932           10 
  389000    0.6471104     -6.19373    120.24759  0.025759981  0.025485704           14 
  390000   0.63286858   -6.1793346    120.38731  0.025723784  0.025412699           32 
  391000    0.6488035     -6.21449    120.21115   0.02562045  0.025339887           36 
  392000   0.64465084   -6.2007941    120.18348  0.025549209  0.025267178           19 
  393000   0.62564885   -6.2102677    120.27893  0.025504438   0.02519464           25 
  394000   0.63112953   -6.2309611    120.02792  0.025386616  0.025122126           10 
  395000   0.63463042   -6.1899026     120.8328  0.025492152  0.025049921           12 
  396000   0.63049385   -6.1981258    120.75346  0.025411082  0.024978363           10 
  397000   0.64125422   -6.2394582    120.70524  0.025336953  0.024906673           20 
  398000   0.63797476   -6.2134684    120.68678  0.025269426  0.024835366           32 
  399000   0.61752905   -6.2061547    120.60554  0.025189128  0.024764022           33 
  400000   0.62750507   -6.2519127    120.39251  0.025081772   0.02469285           29 
  401000   0.62401093   -6.2486004    120.66017  0.025074848  0.024621816            9 
  402000   0.61284302   -6.2260384    120.55092  0.024989825  0.024551088           22 
  403000   0.62802395   -6.2487859    120.73563  0.024966012  0.024480496           33 
  404000   0.62064467   -6.2316111    121.05647  0.024970394  0.024410389           19 
  405000    0.6401201   -6.2221761    121.16507  0.024931085  0.024340816           14 
  406000   0.61292892   -6.2244701    120.76233  0.024787013  0.024271281           16 
  407000   0.62279396   -6.2607766    120.68076  0.024709411  0.024201512           19 
  408000   0.62717596   -6.2604723    120.72317   0.02465751  0.024131476           11 
  409000   0.63122276   -6.2678169    120.74971   0.02460263  0.024062011           15 
  410000   0.62369525   -6.2694398     120.6902  0.024530529  0.023992545           27 
  411000   0.61253417   -6.2623109    121.10136  0.024554208  0.023923314           10 
  412000   0.59833327   -6.2306053    120.74253  0.024422033  0.023854357           17 
  413000   0.61914879   -6.2625203    120.66789  0.024347839  0.023785388           12 
  414000   0.60607347   -6.2688933    120.57352  0.024270032  0.023716531           19 
  415000    0.6128287   -6.2882878    120.73979  0.024244937  0.023647927           13 
  416000   0.60717164   -6.2859093    120.63748  0.024166163   0.02357903           34 
  417000   0.60038839   -6.3063077    120.70475  0.024121653  0.023510449           33 
  418000   0.60008946   -6.2676006    120.69011  0.024061027  0.023441885           19 
  419000   0.59243979   -6.3009638    120.93289  0.024051886  0.023373762           35 
  420000   0.59655205   -6.3363265     120.6498  0.023938453  0.023305573           18 
  421000   0.59892655   -6.3223758    120.56705  0.023865212  0.023237406           19 
  422000   0.60283511   -6.3224321    120.44702  0.023784957  0.023169085           34 
  423000   0.58668336   -6.3574099    120.08355  0.023657121  0.023100817           10 
  424000   0.60388392   -6.3305103    120.60235  0.023703293  0.023032971           24 
  425000   0.59364837   -6.3349283    120.63591  0.023654101  0.022965481           24 
  426000   0.58153028    -6.324471    120.67925  0.023607052  0.022898217           27 
  427000   0.58407427   -6.3277525    120.54353  0.023525279   0.02283126           19 
  428000   0.58736465    -6.345906    120.66831  0.023494609  0.022764467           28 
  429000   0.58337307   -6.3340945    120.60374    0.0234273   0.02269781           31 
  430000   0.58925469   -6.3295226    120.69059  0.023389649  0.022631288           25 
  431000   0.56901764   -6.3534212    120.44441  0.023287782  0.022564881           30 
  432000   0.58843466   -6.3665025    120.41239  0.023227699  0.022498449           49 
  433000   0.56961532   -6.3396469    120.51005   0.02319285  0.022432036           52 
  434000   0.57995171   -6.3492113    120.57616  0.023152105  0.022366278           19 
  435000   0.58805999   -6.3720161    120.62772  0.023108758   0.02230049           25 
  436000   0.56264187   -6.3809221    120.63036  0.023056262  0.022234586           54 
  437000   0.58013569   -6.3663217    120.36501  0.022952901  0.022168891           43 
  438000   0.58099605   -6.3854801      120.289  0.022886034  0.022103301           34 
  439000    0.5685474   -6.3657793    120.72109  0.022915924   0.02203805           83 
  440000   0.55151731   -6.3666319    120.45015  0.022812528   0.02197298           62 
  441000   0.55434745   -6.3898389    120.52777  0.022775466  0.021907912          120 
  442000   0.57059376   -6.4070595    120.62134  0.022741579  0.021843044           64 
  443000   0.55474761   -6.3994488    120.43443  0.022655085  0.021778482           21 
  444000   0.55098085   -6.3923767    120.53361  0.022622675  0.021714067           41 
  445000   0.55681508   -6.4060298    120.22991  0.022514965  0.021649885           25 
  446000   0.54854456   -6.4061052    120.55385   0.02252501  0.021585868           27 
  447000   0.54820602   -6.4117352    120.43182  0.022451868   0.02152227           38 
  448000   0.55466099   -6.4216033    120.44721  0.022404615  0.021458656           33 
  449000   0.55094153   -6.4106608    120.47631  0.022360116  0.021395257          102 
  450000   0.55739529    -6.450006    120.36037  0.022288957  0.021331948           59 
  451000   0.54727728   -6.4197992    120.46152  0.022258226  0.021268748           17 
  452000   0.54918184   -6.4516128    120.43077  0.022203312  0.021205724           64 
  453000   0.54071969   -6.4476488    120.32876  0.022135534  0.021142672           74 
  454000    0.5448991   -6.4385432    120.31794  0.022084792  0.021079863           70 
  455000   0.52883457   -6.4518098    120.04616  0.021986477  0.021017088           82 
  456000   0.52822852   -6.4459826     120.1174  0.021951279  0.020954391           41 
  457000   0.54117858   -6.4480095    120.46092  0.021965887  0.020892034           43 
  458000    0.5381076   -6.4636372     120.2487  0.021879312  0.020830041           90 
  459000   0.53521716   -6.4588614    120.35445  0.021850845  0.020768064           52 
  460000   0.53014867   -6.4744865    120.32237  0.021797531  0.020706315           50 
  461000   0.53360439   -6.4823331    120.08381  0.021707125  0.020644859           45 
  462000   0.52196947   -6.4710474    120.03924    0.0216521  0.020583472           52 
  463000   0.52624042    -6.470541    120.25337  0.021643875   0.02052228           48 
  464000   0.52642579   -6.4721229    120.45822  0.021634019   0.02046122           58 
  465000   0.52939095   -6.4849387    120.33004  0.021564523  0.020400352           45 
  466000    0.5193348   -6.4888123    120.06388   0.02147065  0.020339628           25 
  467000   0.52455126   -6.4977941    120.10512  0.021432034  0.020279126           48 
  468000    0.5128618   -6.5051793    120.27099  0.021415775  0.020218719           29 
  469000   0.51874384   -6.4964046    120.15922  0.021350252  0.020158717           74 
  470000   0.51262033    -6.506646     119.8681  0.021253209  0.020098676           37 
  471000   0.50833299    -6.510389    120.13272  0.021254904  0.020038943           36 
  472000    0.5313519   -6.5243396    120.01492  0.021189075  0.019979356           42 
  473000   0.50865833    -6.521729    120.14071   0.02116644   0.01991999           26 
  474000   0.51516744    -6.521196    120.41918  0.021170741  0.019860819           27 
  475000   0.50730649   -6.5149523    120.04633  0.021060759  0.019801922           22 
  476000   0.50957052   -6.5028822    120.14612  0.021033984  0.019743141           28 
  477000   0.49765009   -6.5341186     120.2631  0.021010325  0.019684656           33 
  478000   0.50707639     -6.53358    120.13993  0.020944897  0.019626123           34 
  479000   0.50631375   -6.5408709    120.00093  0.020876989   0.01956776           31 
  480000    0.5088521   -6.5165384    120.10887  0.020852234  0.019509554           58 
  481000   0.50212717   -6.5365396    119.88576  0.020770228  0.019451555           47 
  482000   0.49820124   -6.5475699    119.89317  0.020728418  0.019393589           85 
  483000   0.49881429   -6.5501791    120.00158  0.020704207  0.019335789           88 
  484000   0.48311861   -6.5498663    119.85506  0.020636201  0.019278283          155 
  485000   0.49528393   -6.5492981    119.99843  0.020618287  0.019220874           79 
  486000   0.48447273   -6.5552962    119.81706  0.020544763  0.019163545           55 
  487000   0.49453639   -6.5516852     119.7358  0.020488673  0.019106322           86 
  488000   0.48461457   -6.5757845    119.64132  0.020430554  0.019049134          100 
  489000   0.47759015   -6.5731785    119.60084  0.020381875  0.018992108          118 
  490000   0.49131716   -6.5716339    119.92035  0.020394618  0.018935208           90 
  491000   0.47998992    -6.571588    119.61036  0.020300469  0.018878471          118 
  492000   0.48673704   -6.5787528    119.65149  0.020266174  0.018822073          167 
  493000   0.48074791   -6.5812055    119.49915  0.020199316  0.018765687           80 
  494000   0.47697572   -6.5903276    119.57114   0.02017057  0.018709478          170 
  495000   0.46915867   -6.5896104    119.67864  0.020147918  0.018653514          207 
  496000   0.47736173   -6.5890871    119.53163  0.020082598  0.018597727          120 
  497000   0.47157006   -6.5990817    119.52849  0.020041665  0.018542178          153 
  498000    0.4721202   -6.5992998    119.72194  0.020033792  0.018486872          137 
  499000    0.4727601   -6.5951185    119.47335   0.01995213  0.018431641          136 
  500000   0.47207991   -6.6188972     119.3994    0.0198999  0.018376554          128 
  501000   0.46702417   -6.6108881    119.55164  0.019885503   0.01832168          130 
  502000   0.46716696   -6.6111207    119.29476  0.019803246  0.018266906          100 
  503000   0.47264329   -6.6107377    119.30218  0.019765105  0.018212349           86 
  504000   0.45534711   -6.5975408    119.36324  0.019735985  0.018158017           58 
  505000   0.46016143   -6.6165281    119.36666  0.019697469  0.018103826          165 
  506000   0.45711759   -6.6172343    119.39665  0.019663481  0.018049849           55 
  507000   0.46012107   -6.6137792     119.2345  0.019598043  0.017996052          105 
  508000   0.46128238   -6.6163588    119.33303  0.019575628  0.017942368           52 
  509000   0.46205468   -6.6070105    119.42846  0.019552794  0.017888879          114 
  510000   0.45520582   -6.6262935    119.21974  0.019480349  0.017835602           85 
  511000   0.45038412   -6.6214664    119.24289  0.019446003  0.017782457           75 
  512000   0.45568283   -6.6205012    119.33884  0.019423639  0.017729454           94 
Loop time of 1278.57 on 48 procs for 500000 steps with 4000 atoms

Performance: 67575.239 tau/day, 391.060 timesteps/s
99.4% CPU use with 48 MPI tasks x no OpenMP threads

MPI task timing breakdown:
Section |  min time  |  avg time  |  max time  |%varavg| %total
---------------------------------------------------------------
Pair    | 90.738     | 96.464     | 102.57     |  30.4 |  7.54
Neigh   | 8.7464     | 9.1456     | 9.4554     |   6.4 |  0.72
Comm    | 82.218     | 88.138     | 93.799     |  32.6 |  6.89
Output  | 0.9002     | 0.90109    | 0.92555    |   0.4 |  0.07
Modify  | 1068.5     | 1071.7     | 1075.1     |   4.6 | 83.82
Other   |            | 12.19      |            |       |  0.95

Nlocal:        83.3333 ave          89 max          78 min
Histogram: 4 4 5 4 7 10 4 4 3 3
Nghost:        2375.33 ave        2389 max        2353 min
Histogram: 2 1 2 4 3 8 9 8 6 5
Neighs:        16366.9 ave       18097 max       14130 min
Histogram: 1 4 6 3 4 8 5 6 6 5
FullNghs:      32733.7 ave       35113 max       30662 min
Histogram: 4 5 3 5 10 9 4 4 2 2

Total # of neighbors = 1571219
Ave neighs/atom = 392.80475
Neighbor list builds = 26826
Dangerous builds = 0

#clear
#
#next RN
#
#jump SELF
Total wall time: 0:21:22
