
units lj                  # Use reduced LJ style units
atom_style atomic         # Uncharged point particles
atom_modify map hash      # Needed for indexing of clusters etc
                          # Used to be able to find where atoms are in relation to each other.

lattice fcc 1.0 spacing 1 1 1
Lattice spacing in x,y,z = 1.5874011 1.5874011 1.5874011
region box block 0 10 0 10 0 10 units lattice
create_box 2 box
Created orthogonal box = (0.0000000 0.0000000 0.0000000) to (15.874011 15.874011 15.874011)
  3 by 4 by 4 MPI processor grid
create_atoms 1 box
Created 4000 atoms
  using lattice units in orthogonal box = (0.0000000 0.0000000 0.0000000) to (15.874011 15.874011 15.874011)
  create_atoms CPU = 0.003 seconds
set type 1 type/fraction 2 0.95 78393
Setting atom values ...
  3802 settings made for type/fraction
mass 1 1.0
mass 2 1.0
pair_style lj/cut  3.5
pair_modify tail  yes
pair_coeff 1  1  1.0  1.0   # Intearaction between 1 and 1 set with epsilon = 1 and sigma = 1
pair_coeff 1  2  1.5  0.8
pair_coeff 2  2  0.5  0.88

write_data data.0
System init for write_data ...
Neighbor list info ...
  update every 1 steps, delay 10 steps, check yes
  max neighbors/atom: 2000, page size: 100000
  master list distance cutoff = 3.8
  ghost atom cutoff = 3.8
  binsize = 1.9, bins = 9 9 9
  1 neighbor lists, perpetual/occasional/extra = 1 0 0
  (1) pair lj/cut, perpetual
      attributes: half, newton on
      pair build: half/bin/atomonly/newton
      stencil: half/bin/3d
      bin: standard
WARNING: Not all mixed pair coeffs generated from mixing. Use write_data with 'pair ij' option to store all pair coeffs. (../write_data.cpp:312)


#############################
#   M E L T   S Y S T E M   #
#############################

velocity all create 2.4 9622624 mom yes dist gaussian # Assign velocities
                                                    # Temperature 2.4, random number seed, zero linear momentum
                                                                                # Gaussian distribution

timestep 0.002   # simulation timestep
thermo 1000       # output thermodynamic data every 1000 steps bf 100

# Define a fix  in this case with index 1 applied to all
# particles in the simulation. This fix is for simulations
# in the anisotropic NPT ensemble. Note that we use the MTK
# correction.
fix 1 all npt temp 2.4 2.4 0.1 iso 5.68 5.68 0.5 mtk yes tchain 5 pchain 5 # Use NPT ensemble
                                                                         # Set temperature and pressure and damping
                                                                         # Numbers of thermostats in chain and in barostat
run 10000          # run for 10000 steps
Per MPI rank memory allocation (min/avg/max) = 3.642 | 3.644 | 3.648 Mbytes
Step Temp E_pair E_mol TotEng Press Volume 
       0          2.4   -2.9371918            0   0.66190816   -2.1469233         4000 
    1000     2.398952   -1.8286584            0    1.7688699    5.5948416    4132.5856 
    2000     2.417364   -1.8090594            0    1.8160801    5.8799418    4113.3378 
    3000    2.3845063   -1.8307219            0    1.7451433    5.4667746    4152.5098 
    4000     2.414333   -1.8430004            0    1.7775938    5.5132568    4143.7625 
    5000      2.40267    -1.815163            0     1.787941    5.6922547     4136.718 
    6000    2.4239677   -1.7918972            0    1.8431454    5.9145912    4119.5237 
    7000    2.3914772   -1.7898247            0    1.7964943    5.6099927    4169.6747 
    8000    2.4404543   -1.8294942            0    1.8302722    5.7668381    4104.1015 
    9000    2.3907977   -1.7758525            0    1.8094475    5.8195391    4152.0026 
   10000    2.4277824   -1.8594067            0    1.7813565    5.7326373     4091.248 
Loop time of 2.41762 on 48 procs for 10000 steps with 4000 atoms

Performance: 714752.873 tau/day, 4136.301 timesteps/s
99.7% CPU use with 48 MPI tasks x no OpenMP threads

MPI task timing breakdown:
Section |  min time  |  avg time  |  max time  |%varavg| %total
---------------------------------------------------------------
Pair    | 1.0579     | 1.1235     | 1.2216     |   3.2 | 46.47
Neigh   | 0.20327    | 0.21068    | 0.22948    |   1.2 |  8.71
Comm    | 0.71796    | 0.83       | 0.90996    |   4.4 | 34.33
Output  | 0.00025544 | 0.00025902 | 0.00032245 |   0.0 |  0.01
Modify  | 0.20264    | 0.23807    | 0.28407    |   3.9 |  9.85
Other   |            | 0.01511    |            |       |  0.63

Nlocal:        83.3333 ave          90 max          73 min
Histogram: 2 1 1 1 8 11 5 8 7 4
Nghost:        1619.40 ave        1655 max        1583 min
Histogram: 2 3 3 7 4 12 10 4 1 2
Neighs:        9342.71 ave       10585 max        7686 min
Histogram: 1 1 1 2 13 10 7 6 5 2

Total # of neighbors = 448450
Ave neighs/atom = 112.11250
Neighbor list builds = 901
Dangerous builds = 168

# Equilibrate just above the melting temperature to avoid step fn in T

fix 1 all npt temp 1.25 1.25 0.1 iso 5.68 5.68 0.5 mtk yes tchain 5 pchain 5
run 2000
Per MPI rank memory allocation (min/avg/max) = 3.643 | 3.645 | 3.649 Mbytes
Step Temp E_pair E_mol TotEng Press Volume 
   10000    2.4277824   -1.8594067            0    1.7813565    5.7326373     4091.248 
   11000    1.2470083   -2.7676109            0  -0.89756612    5.6561685     3217.277 
   12000    1.2654654   -2.7689489            0   -0.8712254    5.5739915    3225.6974 
Loop time of 0.596489 on 48 procs for 2000 steps with 4000 atoms

Performance: 579390.588 tau/day, 3352.955 timesteps/s
99.6% CPU use with 48 MPI tasks x no OpenMP threads

MPI task timing breakdown:
Section |  min time  |  avg time  |  max time  |%varavg| %total
---------------------------------------------------------------
Pair    | 0.25283    | 0.28262    | 0.31346    |   2.2 | 47.38
Neigh   | 0.037609   | 0.040907   | 0.045232   |   0.6 |  6.86
Comm    | 0.19105    | 0.22498    | 0.26196    |   2.8 | 37.72
Output  | 5.1081e-05 | 5.2768e-05 | 6.7549e-05 |   0.0 |  0.01
Modify  | 0.039443   | 0.043315   | 0.047966   |   1.0 |  7.26
Other   |            | 0.004617   |            |       |  0.77

Nlocal:        83.3333 ave          91 max          72 min
Histogram: 1 0 3 6 6 10 3 12 6 1
Nghost:        1902.40 ave        1942 max        1872 min
Histogram: 2 3 7 8 8 11 5 2 0 2
Neighs:        11854.9 ave       13541 max       10419 min
Histogram: 3 3 6 8 8 8 4 6 1 1

Total # of neighbors = 569037
Ave neighs/atom = 142.25925
Neighbor list builds = 144
Dangerous builds = 12

#############################
# L I N E A R  Q U E N C H  #
#############################

# Define solid atoms. This closely follows ten Wolde  Ruiz-Montero and Frenkel  Faraday Discuss  1996  104  93-110
# Compute components of the per-atom q6 vector
compute q6 all orientorder/atom degrees 1 6 components 6 nnn NULL cutoff 1.3 # compute the Q6 parameter.
                                                                             # Use all neighbours within 1.3 unit cell.

# get number of connections
compute coord_number all coord/atom orientorder q6 0.5

# An atom is solid if it has 8 or more connections (of a possible 14)
variable is_solid atom c_coord_number>=8
group solid dynamic all var is_solid    # Must be dynamic to update
dynamic group solid defined

# do clustering
compute cluster solid cluster/atom 1.3 # Create a cluster where all atoms within are solid and max 1.3 units from another member

# define chunks one chunk per cluster
compute clus_chunks solid chunk/atom c_cluster nchunk every compress yes  # Says which atoms are in which chunk

# count the size of each chunk
compute size_chunks solid property/chunk clus_chunks count


# Find the maximum entry in the vector of chunk sizes
variable max_n equal max(c_size_chunks)


# Thermo style which includes this variable
# thermo_style custom step temp pe vol v_max_n

thermo ${N}  # Print the thermo information every 100 steps
thermo 1000  

# Reset the npt fix at a lower temperature (below freezing)
fix 1  all npt temp  ${temp} ${temp}  0.1  iso  5.68  5.68  0.5  mtk yes tchain  5  pchain  5
fix 1  all npt temp  0.45 ${temp}  0.1  iso  5.68  5.68  0.5  mtk yes tchain  5  pchain  5
fix 1  all npt temp  0.45 0.45  0.1  iso  5.68  5.68  0.5  mtk yes tchain  5  pchain  5

dump dmp2 all dcd ${N} traj.dcd
dump dmp2 all dcd 1000 traj.dcd


compute msd all msd com yes
variable twopoint equal c_msd[4]/6/(step*dt+1.0e-6)
fix 9 all vector 10 c_msd[4]
variable fit equal slope(f_9)/6/(10*dt)
thermo_style custom step temp pe c_msd[4] v_twopoint v_fit v_max_n

fix 1 all npt temp 1.25 ${temp} 0.1 iso 5.68 5.68 0.5 mtk yes tchain 5 pchain 5
fix 1 all npt temp 1.25 0.45 0.1 iso 5.68 5.68 0.5 mtk yes tchain 5 pchain 5
run 2000000 # 5000000  # Run for this many steps
Neighbor list info ...
  update every 1 steps, delay 10 steps, check yes
  max neighbors/atom: 2000, page size: 100000
  master list distance cutoff = 3.8
  ghost atom cutoff = 3.8
  binsize = 1.9, bins = 8 8 8
  4 neighbor lists, perpetual/occasional/extra = 1 3 0
  (1) pair lj/cut, perpetual
      attributes: half, newton on
      pair build: half/bin/atomonly/newton
      stencil: half/bin/3d
      bin: standard
  (2) compute orientorder/atom, occasional
      attributes: full, newton on
      pair build: full/bin/atomonly
      stencil: full/bin/3d
      bin: standard
  (3) compute coord/atom, occasional
      attributes: full, newton on
      pair build: full/bin/atomonly
      stencil: full/bin/3d
      bin: standard
  (4) compute cluster/atom, occasional
      attributes: full, newton on
      pair build: full/bin/atomonly
      stencil: full/bin/3d
      bin: standard
Per MPI rank memory allocation (min/avg/max) = 9.813 | 9.822 | 9.827 Mbytes
Step Temp PotEng c_msd[4] v_twopoint v_fit v_max_n 
   12000    1.2654654   -2.7689489 1.4540679e-30 1.0097693e-32 8.3333333e+20            1 
   13000    1.2206494   -2.7485596    1.1264648  0.007220928  0.095039571            2 
   14000    1.2364152   -2.7798294    2.2894921  0.013627929  0.097637535            2 
   15000     1.217986   -2.7598408    3.4938473  0.019410262  0.097655359            1 
   16000    1.2770511   -2.7474402    4.7869035  0.024931788  0.099518417            1 
   17000    1.2540171   -2.7720915     6.094387  0.029874445   0.10232905            3 
   18000    1.2252496    -2.746477    7.3026979  0.033808785   0.10325235            1 
   19000    1.2421584   -2.7839293     8.396404  0.036826333   0.10275519            1 
   20000    1.2196945   -2.7399666    9.6142233  0.040059263   0.10196404            1 
   21000    1.2498538   -2.7338019    10.967816  0.043523079   0.10195592            1 
   22000    1.2514921   -2.7509306    12.234451  0.046342617    0.1021756            1 
   23000    1.2449967   -2.7729136    13.523613  0.048998595   0.10261266            1 
   24000    1.2532146   -2.8023433    14.648121  0.050861529   0.10283862            1 
   25000    1.2285727   -2.7636633    15.919577  0.053065254   0.10278835            2 
   26000    1.2352106   -2.7572176    17.240474  0.055257928   0.10279324            1 
   27000    1.2313108   -2.7558235    18.496452  0.057087815   0.10306411            1 
   28000    1.2594185    -2.740807    19.672864  0.058550189   0.10319952            1 
   29000    1.2424985   -2.7942081    20.890292  0.060029573   0.10327841            2 
   30000    1.2284724   -2.7746825    22.281157  0.061892102   0.10345503            4 
   31000    1.2350715   -2.7605405    23.516452  0.063216268   0.10361753            4 
   32000    1.2246071   -2.7655626    24.469548   0.06372278   0.10358094            3 
   33000     1.304957   -2.7363743    25.900227  0.065404613   0.10349682            1 
   34000     1.250891   -2.7797021    27.119797   0.06647009   0.10352746            1 
   35000    1.2447167   -2.7709091    28.513495  0.067889272   0.10358062            1 
   36000    1.2479094   -2.7280949    29.441124  0.068150749   0.10354858            2 
   37000    1.2486017   -2.7690072    30.479401  0.068647298   0.10334849            1 
   38000    1.2661186   -2.7606152    31.956547  0.070080147   0.10320899            1 
   39000    1.2530054   -2.7871179    32.841651  0.070174467   0.10308433            1 
   40000    1.2301103   -2.7526078     34.04783  0.070932978   0.10282705            2 
   41000    1.2109335   -2.7458104    34.996823  0.071131754   0.10254933            2 
   42000    1.2644308   -2.7980409    36.087817   0.07160281   0.10222974            4 
   43000    1.2158643   -2.7862919    37.549219  0.072769803   0.10204124            1 
   44000    1.2572127   -2.7610974    38.978134  0.073822222    0.1018951            2 
   45000     1.265761   -2.7847513    40.178103  0.074403894   0.10179737            1 
   46000    1.2455599   -2.7674763    41.267749  0.074760414   0.10170691            1 
   47000    1.2247388   -2.7364674    42.529067  0.075406146   0.10162087            2 
   48000    1.2317455   -2.7962095    43.977137  0.076349195   0.10161423            1 
   49000    1.2181091   -2.7240203    45.347996  0.077122442   0.10164743            2 
   50000    1.2378101   -2.7871359    46.139543  0.076899237   0.10162774            3 
   51000    1.2436143   -2.7579972    47.800251  0.078104984   0.10159563            1 
   52000    1.2291892   -2.7507103    48.730674  0.078094028   0.10160595            1 
   53000    1.2549144   -2.7678745    49.878582  0.078425442   0.10159078            2 
   54000    1.2235374   -2.7638197    51.143609  0.078925321    0.1015135            2 
   55000    1.2104741   -2.7912876    52.058867   0.07887707   0.10143908            1 
   56000    1.2377596   -2.7836142    53.371603  0.079422028   0.10138231            2 
   57000    1.2306463    -2.767475    54.390895  0.079518852   0.10131782            2 
   58000    1.2289347   -2.7778147    55.049005  0.079093397   0.10120616            2 
   59000    1.2247457   -2.7280187    56.923087   0.08039984   0.10109067            2 
   60000    1.2687624   -2.7672009    57.704895  0.080145687   0.10100639            2 
   61000     1.242045   -2.7658847    58.979145  0.080572601   0.10091064            2 
   62000    1.2257224    -2.774293     60.26711  0.081004179   0.10084261            2 
   63000    1.2475918   -2.7762066    61.756517  0.081688514   0.10079667            1 
   64000    1.2372278   -2.7636018    63.372141  0.082515808   0.10078919            2 
   65000    1.2044109   -2.8280831    63.989985  0.082038442   0.10080913            2 
   66000    1.2313384   -2.7766844    65.837458  0.083128103    0.1007958            3 
   67000     1.229103   -2.8026331    66.780447  0.083060257   0.10082506            3 
   68000    1.2313896   -2.7470084    68.394239  0.083816469   0.10085234            1 
   69000    1.2229346   -2.7456176    68.969587  0.083296602   0.10085889            1 
   70000    1.2231454    -2.765023    70.085885  0.083435576   0.10082309            1 
   71000    1.2305057   -2.7676327    71.593335  0.084029735   0.10080561            1 
   72000    1.2278406   -2.8017299    72.494552  0.083905731   0.10078497            1 
   73000    1.2223403   -2.7606478    74.071719  0.084556757   0.10075989            2 
   74000    1.2306869   -2.7803612    75.274372  0.084768436   0.10073857            2 
   75000    1.2162719   -2.7645961    76.657098  0.085174553   0.10074982            2 
   76000    1.2446915   -2.7752979    77.547502  0.085030155   0.10075539            2 
   77000    1.2371612    -2.765402    78.794227  0.085275137   0.10076387            2 
   78000    1.2278441   -2.7831965    79.363125  0.084789663   0.10075225            2 
   79000    1.2177771   -2.8054723    80.736902  0.085165508   0.10072538            2 
   80000     1.230138    -2.770054     81.86123  0.085272114   0.10067214            2 
   81000    1.2128051   -2.7656135    83.378173  0.085780013   0.10063564            1 
   82000     1.231683   -2.7788811    84.054117   0.08542085   0.10059925            2 
   83000    1.2184927   -2.7631842    85.490752  0.085834088   0.10054351            1 
   84000    1.2393946   -2.7430609    87.195975  0.086503943   0.10050842            2 
   85000    1.2112191   -2.7744732    87.673436  0.085954349   0.10046908            1 
   86000    1.2187794   -2.7896008    89.075976  0.086313929   0.10042263            1 
   87000    1.2490773   -2.8007344    90.324512  0.086517731   0.10039722            2 
   88000    1.2252123   -2.7608746    91.891436  0.087018405    0.1003649            2 
   89000    1.2640112   -2.7879478    92.354803  0.086474534   0.10032122            1 
   90000    1.2053223   -2.8150007    93.670835  0.086732255   0.10031158            1 
   91000     1.222857   -2.7809517       95.172  0.087153846   0.10029364            1 
   92000    1.2224599   -2.7886503    96.656091  0.087550806   0.10028221            2 
   93000    1.2149531   -2.7851342    98.163695  0.087960299    0.1002754            3 
   94000    1.1989672   -2.7935106    99.092702   0.08784814   0.10026145            2 
   95000    1.1844912   -2.7508274    100.16351  0.087862725   0.10024797            4 
   96000    1.2135445    -2.815191    101.02661  0.087696706   0.10022737            2 
   97000    1.1861449   -2.8130336    102.20554  0.087805446      0.10022            1 
   98000    1.2366867   -2.7897309    103.20053  0.087755556   0.10018681            1 
   99000    1.1987445    -2.791999    104.19183  0.087703563   0.10015172            1 
  100000    1.2303166   -2.8016589    105.29907   0.08774922   0.10010585            2 
  101000    1.2070231    -2.786022    105.91633  0.087389712   0.10003739            1 
  102000    1.2241327    -2.789145     107.0629  0.087469686  0.099964758            3 
  103000    1.2125093   -2.7825988    108.70022  0.087945163  0.099889228            1 
  104000     1.222693    -2.780758    109.21939   0.08751554  0.099829235            2 
  105000     1.226287   -2.8022825    110.04107   0.08733418   0.09975252            3 
  106000    1.2116288   -2.8044251    111.44342   0.08761275  0.099666924            1 
  107000    1.2072863   -2.7661161    112.40309  0.087541346  0.099570934            2 
  108000    1.2052006   -2.7872882    113.69629   0.08772862  0.099471699            2 
  109000    1.2225455   -2.7917762    114.71371  0.087701611  0.099373588            2 
  110000    1.2217451   -2.7867392    115.82994  0.087749953  0.099274379            2 
  111000    1.2018659   -2.7768367    116.85027   0.08772543  0.099185131            2 
  112000    1.1914241   -2.8093266    117.64618  0.087534362  0.099096539            1 
  113000    1.1900198   -2.7946129    118.57948  0.087447994  0.098992447            3 
  114000    1.2330828   -2.8089916    119.74067  0.087529729  0.098894107            1 
  115000    1.1977892   -2.7695311    121.52455  0.088061271  0.098821348            2 
  116000     1.182369   -2.8096851     122.7417  0.088176511  0.098749494            2 
  117000    1.2350488   -2.8161562    123.65114  0.088070614   0.09868169            1 
  118000    1.2144457   -2.7820252    125.37305   0.08854029  0.098618135            1 
  119000     1.229315   -2.8104861    125.89467  0.088161534  0.098558347            1 
  120000    1.1892817   -2.8139263    127.67584  0.088663777  0.098503331            2 
  121000     1.204379   -2.8042086    127.88018   0.08807175  0.098449741            1 
  122000    1.1875285   -2.7973953    129.52028  0.088470134  0.098395944            3 
  123000    1.1994256   -2.7703162    130.78985  0.088611011   0.09835062            3 
  124000    1.1942879   -2.8243885    132.26567  0.088888217  0.098301592            2 
  125000    1.2067641    -2.833654    133.47755  0.088985031  0.098264517            2 
  126000    1.2160777   -2.8067187    135.47834  0.089602077  0.098241558            1 
  127000    1.2442517   -2.8024877    136.93359  0.089851437  0.098227629            1 
  128000     1.206546   -2.8041637    136.90807  0.089132857  0.098206624            3 
  129000    1.2148728   -2.7950866    138.27696  0.089326202  0.098195667            2 
  130000    1.1941442    -2.768594    140.73708  0.090216076  0.098191884            2 
  131000    1.1951674   -2.8171757    140.66991  0.089484673  0.098188443            3 
  132000    1.1926621   -2.8009178     141.8137  0.089528852  0.098161593            1 
  133000    1.1865057   -2.8354617    142.43481  0.089244869  0.098127348            2 
  134000    1.2084456   -2.8074698    144.39232  0.089796217  0.098090202            4 
  135000    1.2215506   -2.7942767    145.84706  0.090029048  0.098057577            1 
  136000     1.198968   -2.8197442    146.07127  0.089504456   0.09803348            1 
  137000     1.233496   -2.8116372    148.34859  0.090236367  0.098013846            2 
  138000    1.2007985    -2.791371    148.32019  0.089565331  0.097986311            3 
  139000    1.2035676    -2.805653    149.59507  0.089685296   0.09795717            1 
  140000    1.1945054   -2.8404496    151.31228  0.090066832  0.097928212            2 
  141000    1.1942301   -2.7946806    152.54031  0.090153849  0.097905714            1 
  142000    1.1821796   -2.8229048    153.83129  0.090276577  0.097891324            2 
  143000    1.1780253   -2.7816548    154.50487  0.090037803  0.097868685            2 
  144000    1.1822836    -2.805855    155.80855  0.090166982  0.097844256            1 
  145000    1.1642121    -2.859501    155.65414    0.0894564  0.097806693            3 
  146000    1.1980593   -2.8122159    157.08754  0.089661839  0.097771449            2 
  147000    1.1684737    -2.807039    158.74761  0.089992974   0.09774466            1 
  148000      1.17825   -2.8247818    160.50052  0.090371913  0.097721428            1 
  149000    1.2127157   -2.8006708    161.11429   0.09010866  0.097701241            5 
  150000    1.2122478   -2.8282404    161.99526  0.089997368  0.097669602            1 
  151000    1.1886405   -2.8476967    162.28293  0.089560118  0.097628263            2 
  152000    1.2123191   -2.8262887    164.05574   0.08994284  0.097580654            3 
  153000    1.2271255   -2.8145407    165.02857  0.089884841   0.09753133            1 
  154000    1.2125755   -2.8052464    165.83464  0.089737358    0.0974815            3 
  155000    1.1946126   -2.8155417    166.97236  0.089770083  0.097427557            3 
  156000    1.2022176   -2.7854776    168.14651  0.089821854  0.097375347            2 
  157000    1.1954244   -2.7895864    169.87926  0.090169461  0.097332436            1 
  158000    1.1838209   -2.8200364    170.53288  0.089943503  0.097298166            3 
  159000    1.2014839   -2.8088622    171.20059  0.089727772  0.097248129            1 
  160000    1.1584263   -2.8417007    172.11432  0.089642876  0.097202049            4 
  161000    1.1889518   -2.8306503    172.74266  0.089411315  0.097156727            2 
  162000    1.1980524   -2.8390182    174.51054  0.089768794  0.097111829            3 
  163000    1.2118843   -2.8079424    175.72492  0.089838918    0.0970642            2 
  164000     1.163127     -2.83349    177.27022  0.090076333  0.097016589            2 
  165000    1.2242763   -2.8399837    176.90538  0.089346151  0.096964323            1 
  166000    1.1704421   -2.8033676    178.71624  0.089716988  0.096909179            1 
  167000    1.1983035    -2.802505    179.57176  0.089606665  0.096853372            1 
  168000    1.1989145   -2.8494249    180.52879  0.089548012  0.096795917            1 
  169000    1.1750452   -2.8244626    181.91295  0.089700667  0.096732555            2 
  170000    1.1985569   -2.8308657    182.73364  0.089575315  0.096681097            2 
  171000    1.1752762   -2.8303045    183.67728  0.089511347  0.096626343            1 
  172000    1.1911977   -2.8563725    184.31243  0.089298659  0.096570718            5 
  173000    1.1746728   -2.8148581    185.97994  0.089585714  0.096512264            1 
  174000    1.1673185   -2.8518672    186.00042  0.089080661  0.096458218            3 
  175000    1.2181111    -2.849796    186.60212  0.088858154  0.096395583            1 
  176000    1.1817816   -2.8684386    188.54919  0.089275186  0.096328806            1 
  177000     1.172626   -2.8244882    190.15806  0.089528277  0.096270538            1 
  178000     1.184383   -2.8546222    190.09631  0.088996399   0.09621642            2 
  179000    1.1732788   -2.8203341     193.0931  0.089894367  0.096170006            1 
  180000    1.1807722   -2.8508123    193.13305  0.089413449  0.096127401            2 
  181000    1.1746476   -2.8226089    194.40745  0.089506191  0.096085885            1 
  182000    1.1891915   -2.8296661    195.67631  0.089595379  0.096036835            2 
  183000    1.1741635   -2.8449443    195.68944  0.089111766  0.095983212            1 
  184000    1.2076951   -2.8110499    197.51459  0.089454073  0.095922071            1 
  185000    1.1832988   -2.8341594    198.38243  0.089361455  0.095864054            2 
  186000    1.2148098   -2.8111321    199.50453  0.089383748  0.095804115            1 
  187000    1.1927409   -2.8283465     199.7415  0.089011362  0.095743674            2 
  188000    1.1603974   -2.8405882    201.56171  0.089344728  0.095688353            2 
  189000    1.1737606   -2.8246874    201.75079  0.088955376  0.095630596            1 
  190000    1.1656449   -2.8104087    203.48206  0.089246518  0.095568192            3 
  191000    1.1954003   -2.8422428    205.36959  0.089602786  0.095508629            2 
  192000    1.1722176   -2.8378364    204.70112  0.088845972  0.095450481            2 
  193000    1.1837096   -2.8351119    206.13418  0.089004396  0.095384709            1 
  194000    1.1510245   -2.7991848    207.23366  0.089017895  0.095330331            2 
  195000    1.1811655   -2.8001607    207.89853  0.088845527   0.09527099            2 
  196000    1.1676848   -2.8370859    208.85462  0.088798733  0.095209957            1 
  197000    1.1651304   -2.8562587    210.44379  0.089020217  0.095147636            2 
  198000    1.1718303     -2.83501    211.94136   0.08920091  0.095090459            2 
  199000    1.1872175   -2.8592807    212.27547  0.088892576  0.095032921            1 
  200000    1.1598499   -2.8508401    213.67649  0.089031871  0.094980123            1 
  201000    1.1379284   -2.8199593    214.16282  0.088790557  0.094923315            1 
  202000    1.1382015   -2.8473336     215.3533  0.088842119  0.094858514            1 
  203000    1.1684308   -2.8155964    216.44249  0.088851598  0.094793822            2 
  204000    1.1680146   -2.8272763     215.8816  0.088186929  0.094735544            3 
  205000    1.1778258   -2.8451498    217.88591  0.088571508  0.094667756            1 
  206000    1.1929177   -2.8442652    218.17165  0.088257142  0.094596069            1 
  207000    1.1786235    -2.841168    218.92885  0.088135609  0.094526736            2 
  208000    1.1523609   -2.8256755    220.69402   0.08841908  0.094460887            1 
  209000    1.1722532   -2.8482798    221.99758  0.088515783     0.094401            1 
  210000    1.1563014   -2.8138343    224.61183   0.08913168  0.094339803            1 
  211000    1.1779731   -2.8055236    225.72766  0.089149946  0.094286203            2 
  212000    1.1857339   -2.8593435    224.90744  0.088407014  0.094227998            3 
  213000    1.1764445   -2.8415059    227.59964  0.089045243  0.094168235            1 
  214000    1.1560975    -2.828568    227.70919  0.088671802  0.094108487            1 
  215000    1.1720564   -2.8515989    227.38655   0.08813432  0.094049404            1 
  216000    1.1693912    -2.847807    229.12995  0.088398901  0.093985432            2 
  217000    1.1758543   -2.8498679    230.15815  0.088386386  0.093921245            1 
  218000    1.1614672   -2.8591683    230.80118  0.088226751  0.093855999            2 
  219000    1.1739131   -2.8523859    232.20454  0.088357891  0.093786599            3 
  220000    1.1947334   -2.8719893    231.79084   0.08779956  0.093716706            2 
  221000     1.163394   -2.8406983    233.07132  0.087885113  0.093648059            1 
  222000    1.1509596   -2.8484452    233.73251  0.087737428  0.093575201            1 
  223000    1.1589782   -2.8509545    235.38531  0.087961625  0.093506452            1 
  224000    1.1431419   -2.8665615    236.11879  0.087841812  0.093442088            1 
  225000    1.1589107   -2.8428115    236.99541  0.087776076  0.093378231            2 
  226000    1.1532815    -2.839622    239.21379  0.088205673   0.09331531            2 
  227000    1.1984557   -2.8714309    238.31859  0.087488468  0.093250109            1 
  228000    1.1666894   -2.8737179    239.27353  0.087453774   0.09318459            4 
  229000    1.1806237   -2.8699343    240.19811  0.087408336  0.093116217            4 
  230000    1.1403683   -2.8641814     240.8977  0.087281774   0.09304425            2 
  231000    1.1916846   -2.8344149    241.27543  0.087040199   0.09296867            1 
  232000    1.1722534   -2.8715889    242.29769  0.087032217  0.092893452            2 
  233000    1.1452067   -2.8881129    243.05798  0.086930608  0.092814547            1 
  234000     1.185547   -2.8360552    243.44548  0.086697108  0.092734036            1 
  235000    1.1652457   -2.8897346    244.15534  0.086579908     0.092649            3 
  236000    1.1460645   -2.8577994    246.60715  0.087078794  0.092568054            2 
  237000    1.1669943   -2.8681399    246.83152  0.086790267  0.092492306            2 
  238000    1.1399312    -2.868125     249.2229  0.087262919  0.092424608            2 
  239000    1.1672967     -2.87983    250.10459  0.087205227  0.092355088            1 
  240000    1.1871421   -2.8859426    249.94969  0.086788087  0.092284698            1 
  241000     1.172985   -2.8715367    251.54751  0.086980467  0.092215137            3 
  242000    1.1675375   -2.8445596    253.76698  0.087385325  0.092147522            1 
  243000    1.1378591   -2.8402551    253.15977  0.086817478  0.092077457            1 
  244000    1.1789632   -2.8393158     255.0043  0.087091633  0.092011499            1 
  245000    1.1697569    -2.863553    256.48023  0.087238173  0.091948839            2 
  246000    1.1631771   -2.8718117    256.48513  0.086885206  0.091888392            2 
  247000    1.1479991   -2.8617332    257.83691  0.086989512  0.091824429            2 
  248000    1.1492347    -2.878517    259.56271  0.087218652  0.091763006            1 
  249000     1.153224   -2.8722803    259.50669  0.086849628  0.091701054            1 
  250000    1.1517902   -2.8650689    260.77687  0.086925623  0.091642765            2 
  251000    1.1469306   -2.8579497    262.88524  0.087279294  0.091586228       -1e+20 
  252000    1.1790154   -2.8922448     263.0004  0.086971033  0.091529069            1 
  253000    1.1365379   -2.8973787    264.98279  0.087280233  0.091475701            2 
  254000     1.171404   -2.8679229    265.10769  0.086977589  0.091419027            2 
  255000    1.1484618   -2.8532204     265.4514  0.086748822  0.091362847            1 
  256000    1.1612568   -2.8297526    267.66229   0.08712965  0.091307753            2 
  257000    1.1465041   -2.8769506    268.32166  0.087004431  0.091252716            1 
  258000    1.1517858   -2.8815034    268.98204  0.086880504  0.091197372            2 
  259000    1.1641912   -2.8591735    271.31234  0.087294833  0.091141676            1 
  260000    1.1336538   -2.8614067    271.17206  0.086914123  0.091087058            1 
  261000     1.180181   -2.8770249    273.17297  0.087219976  0.091032171            2 
  262000    1.1495594   -2.8869691    273.75389  0.087071849  0.090982224            2 
  263000    1.1506037   -2.8973057    273.72407  0.086731327   0.09093533            3 
  264000    1.1512344   -2.8582178    275.42644  0.086940165  0.090888301            2 
  265000    1.1416945   -2.8510565    276.68622  0.087008246  0.090839642            2 
  266000      1.15718   -2.8689746     275.5678  0.086330766  0.090788645            1 
  267000     1.150463    -2.849064    277.73129  0.086682675  0.090736325            3 
  268000    1.1555586   -2.8883329     277.8045  0.086381996  0.090681335            2 
  269000     1.160865   -2.8894273    277.93594  0.086101591  0.090625586            1 
  270000    1.1304641   -2.8896665    280.59923  0.086604702  0.090566663            2 
  271000    1.1551399   -2.8704378    281.14225  0.086452106   0.09050697            1 
  272000    1.1641924   -2.8682072    282.33098  0.086498462  0.090448814            1 
  273000    1.1490045   -2.8738163     281.7821  0.086014071  0.090390323            2 
  274000     1.129633     -2.87333    282.41597  0.085892934  0.090330345            1 
  275000    1.1164113   -2.8656355    284.77753  0.086296222  0.090271837            1 
  276000    1.1548342   -2.8618909    285.23277  0.086121007  0.090216602            2 
  277000    1.1577504   -2.8708009    286.96386  0.086330885  0.090163037            2 
  278000    1.1281511    -2.878416    286.06805  0.085751814  0.090110787            2 
  279000     1.136738   -2.8880431    288.29857  0.086110684  0.090059211            3 
  280000    1.1436424   -2.8856461    287.84818  0.085669102  0.090010501            3 
  281000    1.1251423   -2.8684793    290.51937  0.086156396  0.089958194            1 
  282000    1.1392204   -2.8663629    291.99561  0.086287118  0.089911591            4 
  283000    1.1382386   -2.8779458    292.48061  0.086125033  0.089865792            2 
  284000    1.1437546   -2.9106913    293.51356  0.086124872  0.089817533            2 
  285000    1.1492507   -2.8636449    295.76372  0.086480621  0.089772477            3 
  286000    1.1198578   -2.8583489    296.01458  0.086251334  0.089727091            2 
  287000    1.1627156   -2.8826425    297.26385  0.086313546  0.089684527            5 
  288000    1.1407324   -2.8950289    298.74924  0.086443644  0.089642684            1 
  289000    1.1237361   -2.8754806    299.65406  0.086405439  0.089602102            4 
  290000    1.1488232   -2.8983033    300.08239  0.086230573  0.089558537            1 
  291000    1.1385599   -2.8707756    301.95189  0.086469614   0.08951457            2 
  292000    1.1322931   -2.8749977    302.40412  0.086302547  0.089470618            2 
  293000    1.1514754   -2.9095638     302.9347  0.086158903  0.089425869            2 
  294000    1.1537143   -2.8875128    303.46699  0.086016721  0.089381743            2 
  295000    1.1336143    -2.853221    305.00094  0.086158458  0.089337469            1 
  296000    1.1464244   -2.9137252    306.51189  0.086292761  0.089294548            2 
  297000    1.1242151   -2.8964503    307.78843   0.08636039    0.0892541            3 
  298000    1.1237155   -2.9117253    307.37092  0.085953836  0.089209933            2 
  299000    1.1185885   -2.8835743    308.20984  0.085900178  0.089163684            3 
  300000    1.1200248   -2.8764315    309.41441  0.085948448  0.089117984            1 
  301000    1.1480838    -2.901036    309.70615  0.085743674  0.089071458            1 
  302000    1.1352726   -2.9181322    310.13506  0.085578108  0.089027297            3 
  303000    1.1292707   -2.8912221    311.67897  0.085720289  0.088979901            2 
  304000    1.1370887   -2.8659236    312.12572  0.085560779  0.088931616            3 
  305000    1.1273993   -2.8873082    313.37129  0.085620572  0.088884449            1 
  306000    1.1492391   -2.8916977    315.30624  0.085867712  0.088840537            2 
  307000    1.1279058    -2.865872    313.95113  0.085220175  0.088795726            3 
  308000     1.141513   -2.8925829    315.15876  0.085270228  0.088748577            2 
  309000    1.1526843   -2.9049193    316.38718  0.085325561  0.088695798            1 
  310000    1.1081747   -2.8983804    317.43965  0.085333238  0.088641176            2 
  311000     1.121789   -2.9038841    316.38309  0.084775747  0.088586645            2 
  312000    1.1301551   -2.8932957    318.51958  0.085074675  0.088531164            1 
  313000    1.1300037   -2.9006962    318.94982  0.084917418  0.088474896            2 
  314000    1.1236319    -2.870985    319.18596  0.084709649  0.088418636            2 
  315000    1.1129944   -2.8704573    321.03392  0.084929608  0.088362926            2 
  316000     1.157979   -2.9011685    321.17685  0.084698535  0.088305251            2 
  317000    1.1343405   -2.8659724    322.71314  0.084835209  0.088249095            1 
  318000    1.1232541   -2.8867059     323.7996  0.084853144  0.088192134            2 
  319000    1.1287887   -2.8932057    323.91359  0.084616924  0.088134285            3 
  320000    1.1067925   -2.8991264    326.91988  0.085135384  0.088079418            1 
  321000    1.1324607   -2.8937242    324.66063  0.084283653  0.088025283            1 
  322000    1.0991676   -2.8814917    327.24901  0.084691773  0.087971683            3 
  323000    1.1308146   -2.9096257    328.31849  0.084705492  0.087918442            2 
  324000    1.1188503   -2.8617265    329.50335  0.084748804  0.087867513            2 
  325000    1.1212452   -2.9049608    330.95143  0.084859341  0.087819201            2 
  326000    1.1314729   -2.8781221    330.31617  0.084436649  0.087768773            1 
  327000    1.0960342   -2.8898081    331.14957  0.084390818  0.087718978            2 
  328000    1.1054133   -2.9023005    333.16623  0.084645892  0.087669639            2 
  329000     1.117025   -2.9292081    333.03198  0.084354605  0.087622794            2 
  330000    1.1203378   -2.9032468    336.33866  0.084934004  0.087577432            3 
  331000    1.1267981   -2.8853572    337.12777  0.084876076  0.087533253            5 
  332000    1.1144212   -2.8975175    336.76897  0.084530363  0.087489852            2 
  333000    1.1213436   -2.9006653    338.03406  0.084593108  0.087443187            3 
  334000     1.118635   -2.8961205    339.15656  0.084619899  0.087399166            2 
  335000    1.1635521   -2.9001787    340.78345  0.084772001  0.087355307            3 
  336000    1.1164888   -2.8887125    340.40601  0.084426095  0.087313345            2 
  337000    1.1036545   -2.9246652    342.57067  0.084710848  0.087271679            3 
  338000    1.1198302   -2.8959062    343.40344  0.084665543  0.087228535            1 
  339000    1.1210546   -2.9071083     345.8874  0.085026401  0.087188289            2 
  340000    1.0903255   -2.9025167    345.99278  0.084802151  0.087148807            1 
  341000    1.1149969    -2.915627    345.92233  0.084536249  0.087109472            2 
  342000    1.1169973   -2.9101919     346.4358  0.084414182  0.087069437            2 
  343000     1.110184   -2.8993588    347.04643  0.084316431   0.08703004            2 
  344000    1.1069799   -2.9136864    349.40098   0.08464171  0.086987855            4 
  345000    1.0996071   -2.8928213    349.86871  0.084509351  0.086947335            2 
  346000    1.1255801   -2.8743384    350.68392  0.084461446  0.086904675            1 
  347000    1.1153203   -2.9045881    351.25469  0.084355112  0.086864516            2 
  348000    1.1047926   -2.9310766     351.7512  0.084231608  0.086820299            2 
  349000    1.1287779   -2.9424481    352.47719  0.084163609  0.086775596            3 
  350000    1.1186891   -2.9086024    352.76612  0.083991933  0.086728772            3 
  351000    1.1303875   -2.8996419    353.37542  0.083897298  0.086683502            3 
  352000    1.1464758   -2.9044284    354.83541  0.084004594  0.086638994            3 
  353000    1.1277363   -2.8709251       355.16  0.083843247  0.086593427            1 
  354000    1.1209957   -2.9186909    356.57044  0.083938429  0.086549598            3 
  355000    1.1096078   -2.8794633    358.15249  0.084073356  0.086504002            2 
  356000    1.1147843    -2.926989    359.82602  0.084228937  0.086463505            3 
  357000    1.1223332   -2.9146097     360.7991  0.084220145   0.08642181            2 
  358000    1.1183409   -2.8806917    361.36688  0.084117058  0.086382925            1 
  359000    1.1246034   -2.9220299    362.36977  0.084115545  0.086341591            2 
  360000    1.1168043   -2.8913707    363.17759  0.084068888  0.086300329            1 
  361000    1.1366991   -2.8996856    363.76845  0.083972402  0.086262045            5 
  362000    1.1250938   -2.9046636    366.07272  0.084270885   0.08622417            2 
  363000    1.1031724   -2.9156435    364.37431   0.08364883  0.086183359            2 
  364000    1.1158776   -2.9039542    365.73984  0.083731648  0.086143409            2 
  365000    1.1028471   -2.9438881    365.22046  0.083383667  0.086099304            2 
  366000    1.1130074   -2.9183278    367.50975  0.083677083  0.086057788            1 
  367000    1.1136961   -2.9222242    367.85329  0.083527086  0.086012811            2 
  368000     1.117006   -2.9107185    369.82397   0.08374637  0.085968966            1 
  369000    1.1034607   -2.9325871    370.45214  0.083661279  0.085926022            2 
  370000    1.1134571   -2.9253227    370.04332  0.083343089  0.085882879            1 
  371000    1.0891665   -2.9223687    370.33997  0.083185079  0.085840134            2 
  372000      1.08413   -2.8966626    373.20704  0.083603727  0.085797064            1 
  373000    1.1253981   -2.9242192    372.16564  0.083146926  0.085755988            1 
  374000    1.1292028   -2.9337994    373.96233   0.08332494  0.085714378            2 
  375000    1.0661877   -2.9301829    375.28095  0.083395766  0.085674528            2 
  376000    1.0769688   -2.9069888    377.04014   0.08356386  0.085635902            4 
  377000    1.1087969   -2.9224706    377.16948  0.083370796  0.085596512            4 
  378000    1.1121327   -2.9204184    380.77434   0.08394496  0.085559225            4 
  379000    1.0933274   -2.9440589    378.83969  0.083298084  0.085521736            2 
  380000    1.0936837   -2.9446495    381.50499  0.083663374  0.085484271            2 
  381000    1.1296047   -2.9144242    380.27923  0.083175684  0.085447365            2 
  382000     1.102684   -2.9080384    382.67326  0.083480206  0.085411342            3 
  383000    1.1153071   -2.9292306    384.52077  0.083664224   0.08537263            4 
  384000    1.1058602   -2.9517583    384.62104  0.083468108  0.085337604            3 
  385000    1.0759006   -2.9248512    385.00934  0.083335355  0.085301365            3 
  386000    1.1156319   -2.9315674    386.50023  0.083441327  0.085263983            3 
  387000    1.0953376   -2.9296913    387.22121  0.083380968  0.085228295            3 
  388000    1.0983422   -2.9072096    388.23171  0.083383099  0.085191336            2 
  389000    1.1070031   -2.9460982    388.88039   0.08330771  0.085154567            3 
  390000    1.0768273   -2.9312687    388.84073  0.083085626  0.085119144            3 
  391000    1.1096541   -2.9538434    389.15529  0.082940173   0.08508227            2 
  392000    1.0836672   -2.9294998    391.12688  0.083147721  0.085045782            3 
  393000    1.0986166   -2.9311854    391.38064  0.082989957  0.085010201            2 
  394000    1.0971273   -2.9260415    393.25478  0.083175714  0.084974323            2 
  395000    1.1005748   -2.9199902    394.74133  0.083278761  0.084938814            1 
  396000    1.0923089   -2.9289189    394.38365  0.082993191  0.084903608            1 
  397000    1.1183298   -2.9815935    392.90881  0.082474561  0.084864366            4 
  398000    1.1094214   -2.9264361    395.94736  0.082903551  0.084828501            4 
  399000    1.1062327   -2.8979948    399.07677  0.083349367  0.084797111            6 
  400000    1.0887178   -2.9355517     401.0383  0.083549645   0.08476219            1 
  401000    1.0952373   -2.9487304    398.28581  0.082769288  0.084726695            5 
  402000    1.0877564   -2.9370028    400.09593  0.082938625  0.084689799            2 
  403000    1.0911341   -2.8989621    400.00338  0.082713684  0.084652737            2 
  404000    1.0965832   -2.9351958    401.84775  0.082889386  0.084615328            2 
  405000     1.090513   -2.9475108    401.37828  0.082588123  0.084580359            2 
  406000    1.0905241   -2.9103474    404.27249  0.082978753  0.084545334            3 
  407000    1.1205222   -2.9438757    404.97998  0.082919734  0.084509107            3 
  408000    1.1047282   -2.9289394    405.88833  0.082902028  0.084474114            2 
  409000      1.08087   -2.9386221    405.01273  0.082520931  0.084439001            3 
  410000    1.1072976   -2.9333083    406.10409  0.082541482  0.084404621            3 
  411000    1.0794328   -2.9217087    407.70946  0.082666152  0.084369699            1 
  412000    1.0875287   -2.9644735    408.91742  0.082709833  0.084336228            1 
  413000    1.0962062   -2.9486766    409.55437  0.082638089  0.084301036            2 
  414000    1.0830064   -2.9146907    411.74155  0.082878733  0.084267807            1 
  415000    1.1146246   -2.9451636    408.96086  0.082120654  0.084232206            2 
  416000    1.0640473   -2.9370126     411.5573  0.082443369  0.084196553            2 
  417000    1.0986844   -2.9404441    414.55255  0.082844234  0.084162187            4 
  418000    1.0868308    -2.964165    413.02263  0.082341035  0.084127871            3 
  419000    1.1049651   -2.9629677     414.7391  0.082485899  0.084094561            3 
  420000     1.069164   -2.9174983    416.23097   0.08258551   0.08406005            1 
  421000    1.0945387   -2.9403081     416.4696   0.08243658  0.084026125            7 
  422000    1.1037211   -2.9533076    418.36167  0.082614864  0.083991286            2 
  423000    1.0946019   -2.9437282    419.50667  0.082645128  0.083956512            2 
  424000    1.0592932   -2.9291119    418.32562  0.082218086  0.083921334            3 
  425000    1.1037946   -2.9485877    418.67156  0.082092463  0.083886347            2 
  426000    1.0847173   -2.9482064    420.49541  0.082256535  0.083848601            2 
  427000    1.0771343   -2.9603839    421.24886   0.08221094  0.083811919            1 
  428000    1.0648397   -2.9546372    421.55696  0.082078847  0.083774776            2 
  429000    1.0836347   -2.9432613    423.47443  0.082259989  0.083739265            3 
  430000    1.1068489   -2.9264219    423.31191  0.082037192  0.083702033            1 
  431000    1.1022002   -2.9394413    425.25528  0.082222598   0.08366497            2 
  432000    1.0796646   -2.9302846    423.97203  0.081784728  0.083627536            3 
  433000    1.0722702   -2.9560154    424.65531  0.081727351  0.083588424            2 
  434000    1.0574086   -2.9526387    427.46109  0.082077782   0.08355038            1 
  435000     1.082505   -2.9566895    426.37195  0.081680449  0.083510537            2 
  436000    1.0556866   -2.9664481     427.2866  0.081667928  0.083469534            1 
  437000    1.0846923   -2.9440059    426.09437  0.081253693  0.083429811            2 
  438000    1.0513597   -2.9358201    429.47704  0.081711766  0.083390483            2 
  439000    1.0746421   -2.9334465    430.15655  0.081654623  0.083350291            3 
  440000    1.0884969   -2.9732461    430.30904  0.081497924  0.083310725            3 
  441000    1.0827983   -2.9590618    430.70507  0.081387958  0.083271406            1 
  442000    1.0930825   -2.9409503    434.08657  0.081841359  0.083233662            3 
  443000    1.0978082   -2.9053351    434.31601  0.081699776  0.083197179            2 
  444000    1.0881288   -2.9473877    433.40719  0.081345194  0.083160399            1 
  445000    1.0821245   -2.9669449    436.83127  0.081803609  0.083123996            4 
  446000    1.0676018   -2.9439129     437.3097  0.081709585  0.083087284            3 
  447000    1.0829733   -2.9482009    438.87901  0.081819353  0.083054501            6 
  448000     1.074862   -2.9419168    440.36163  0.081912505  0.083022685            3 
  449000    1.0768098   -2.9341916    442.17325  0.082066305  0.082989269            6 
  450000    1.0980968   -2.9460333    439.97473  0.081476801   0.08295784            2 
  451000    1.0777495   -2.9429229    441.30189  0.081541369  0.082924348            2 
  452000    1.0594033   -2.9324166    442.55859   0.08159266  0.082889416            2 
  453000    1.0659042   -2.9472631    443.29374  0.081547782  0.082854501            2 
  454000    1.0504836   -2.9372019    444.24377  0.081542543  0.082818223            2 
  455000    1.0946784   -2.9574165    445.95566  0.081676861  0.082782001            2 
  456000    1.0670764   -2.9693273    444.83147    0.0812923  0.082747315            1 
  457000    1.0817506   -2.9579131     447.3958   0.08158202   0.08271176            2 
  458000    1.0628797    -2.958706    446.19131  0.081184736  0.082675353            1 
  459000    1.0737337    -2.968617    447.15843  0.081183448  0.082640569            2 
  460000    1.0599233   -2.9734499    445.80852  0.080762412  0.082605102            2 
  461000    1.0793139   -2.9749941    448.88442  0.081143242  0.082567058            6 
  462000    1.0705735   -2.9942048    449.82656  0.081137547  0.082530755            3 
  463000    1.0643134   -2.9695805    450.13148  0.081017185  0.082493807            2 
  464000    1.0623629   -2.9544354    450.94454  0.080988602   0.08246098            2 
  465000      1.06528   -2.9955221    452.11713  0.081024576  0.082425348            1 
  466000    1.0663892   -2.9458521    454.55104  0.081285951  0.082391537            2 
  467000    1.0615533   -2.9567346    455.93556  0.081358951  0.082359441            3 
  468000    1.0771441   -2.9441899    454.66792  0.080959387  0.082327177            2 
  469000    1.0693785   -3.0158095    456.16124  0.081052103  0.082294102            2 
  470000    1.0566649   -2.9932399    458.14574  0.081231514  0.082260386            1 
  471000    1.0786087   -2.9425214    458.07227   0.08104605  0.082227919            2 
  472000    1.0744848   -2.9559347    459.56165  0.081137297  0.082197424            2 
  473000     1.039759    -2.945137    461.34232  0.081279478  0.082166694            3 
  474000    1.0710962   -2.9868195    461.36465  0.081111928  0.082137663            2 
  475000    1.0902981   -2.9846119     460.7427  0.080832053  0.082106283            1 
  476000    1.0843595   -2.9573273    462.33242   0.08094055  0.082075334            5 
  477000    1.0728487   -2.9742302    463.30228    0.0809403  0.082045302            1 
  478000    1.0524529   -2.9590054    465.28472  0.081116583   0.08201488            2 
  479000    1.0184168   -2.9721658    465.63569  0.081008296  0.081984835            3 
  480000    1.0476305   -2.9683391    466.16675  0.080931728  0.081955791            4 
  481000    1.0696821   -3.0018806    467.84781  0.081054713  0.081927033            1 
  482000    1.0734856   -2.9949061    468.95725  0.081078363  0.081898563            2 
  483000    1.0840448   -2.9725668    469.22709  0.080957055  0.081867765            3 
  484000    1.0452922   -2.9917281    470.11433  0.080942551  0.081836505            3 
  485000    1.0315715   -2.9828469    470.41064  0.080826571  0.081805995            1 
  486000    1.0517456   -2.9634107    472.43618  0.081007576  0.081777649            4 
  487000    1.0753931   -2.9535306    472.10773  0.080785033  0.081748689            2 
  488000    1.0615486   -2.9657934    474.62445  0.081049257  0.081722013            1 
  489000    1.0433252   -2.9773871    476.75598  0.081246758  0.081695595            2 
  490000    1.0637875   -2.9704329    478.00237   0.08129292  0.081668693            1 
  491000    1.0880996   -2.9663812    475.91732  0.080773475  0.081641583            2 
  492000    1.0448241   -2.9931168    475.20765  0.080489101  0.081615372            3 
  493000    1.0639246   -3.0078693    479.10298  0.080984276  0.081588111            2 
  494000    1.0619917   -2.9736696    478.66304  0.080746127  0.081559039            1 
  495000    1.0443507   -2.9873677    481.33748  0.081033246  0.081530117            3 
  496000    1.0544462   -2.9832154    479.16848  0.080505456  0.081500109            1 
  497000    1.0714735   -2.9745806    481.01262  0.080652687  0.081470563            3 
  498000    1.0743593   -2.9910499    481.12977  0.080510336  0.081441386            2 
  499000    1.0626583   -2.9867068    483.41683  0.080730933  0.081411265            2 
  500000     1.062434   -2.9766497     483.6304  0.080605067  0.081381592            3 
  501000    1.0625226   -3.0095794     483.7907  0.080470842  0.081351982            2 
  502000    1.0691055   -2.9784619    486.41146  0.080745594   0.08132289            2 
  503000    1.0509366   -2.9931337    485.77509  0.080479638  0.081294596            2 
  504000     1.054018   -3.0088305    486.14205  0.080380629  0.081266626            3 
  505000    1.0432144   -3.0193667    487.38408  0.080426416  0.081239081            3 
  506000    1.0441356   -2.9722961    489.06046  0.080543555  0.081210227            2 
  507000    1.0401792   -2.9907911    489.31572  0.080426647  0.081183088            2 
  508000    1.0740942    -2.974251    490.18028   0.08041015  0.081157384            1 
  509000    1.0629517    -2.983449    491.71752  0.080503851  0.081130457            2 
  510000    1.0297999   -2.9877557    491.18326  0.080258703  0.081103783            2 
  511000     1.052054   -2.9680979    493.30796  0.080448134  0.081078353            3 
  512000    1.0598146   -2.9721118    495.66121  0.080674025  0.081054706            1 
  513000    1.0448929    -2.995243    494.39124  0.080310467  0.081027744            1 
  514000    1.0292956   -2.9780432    496.78146  0.080541741  0.080999832            2 
  515000    1.0724555    -2.986663    495.68494  0.080207919  0.080972288            3 
  516000    1.0706697   -3.0051685      497.275   0.08030927  0.080943521            1 
  517000    1.0688898   -2.9924482    497.14241  0.080132561  0.080914895            4 
  518000    1.0467074   -2.9594889    496.91176  0.079940759  0.080885888            3 
  519000    1.0437724   -2.9874614    498.84053  0.080096424  0.080856003            1 
  520000     1.071968   -3.0020551    501.10528  0.080305333  0.080827612            2 
  521000    1.0669375   -2.9845025    503.87492  0.080594197  0.080801044            1 
  522000    1.0434805   -2.9953666    505.14793  0.080643029  0.080774459            3 
  523000    1.0378383   -2.9826919    503.24063  0.080184932  0.080748152            1 
  524000    1.0309277   -2.9716681    505.05683  0.080320742  0.080722434            1 
  525000    1.0535961   -3.0133015     504.6667  0.080105825  0.080695155            2 
  526000    1.0360907   -3.0039657    506.76466  0.080285909  0.080670039            2 
  527000    1.0446845   -3.0074415    506.11735  0.080031206  0.080644023            5 
  528000    1.0561212    -3.003418    507.31324  0.080068378  0.080618138            3 
  529000    1.0578936   -2.9960686    507.53312  0.079951657   0.08059224            2 
  530000    1.0373914   -3.0310641    505.81289  0.079530328  0.080564908            2 
  531000    1.0253213   -2.9966485    507.84751  0.079699861   0.08053752            2 
  532000    1.0381949   -2.9974343    509.45888  0.079802456  0.080510229            2 
  533000    1.0199797   -2.9976489     510.1975  0.079768215  0.080484144            1 
  534000    1.0507198   -2.9770453    511.54144  0.079828564  0.080457024            2 
  535000    1.0416576   -3.0204852    513.49016  0.079982891  0.080430725            3 
  536000    1.0429156   -2.9919005    514.88064   0.08004985  0.080403904            2 
  537000    1.0340759   -2.9825475    516.20141  0.080105743  0.080379298            3 
  538000    1.0288239   -3.0358125    513.47732    0.0795349  0.080352309            1 
  539000    1.0343182   -3.0104034    513.64518  0.079413292  0.080325225            2 
  540000    1.0374598   -2.9827518    517.34563  0.079837289  0.080298677            1 
  541000    1.0401017     -2.99372    515.82119  0.079454897  0.080272095            4 
  542000    1.0431052   -3.0217788    517.93712  0.079633628  0.080245236            3 
  543000    1.0125357   -2.9816536    519.67659  0.079753927  0.080218959            2 
  544000     1.036862   -3.0050285    519.55536  0.079588751  0.080193143            5 
  545000    1.0115569    -2.989161    521.87843  0.079797925  0.080166981            2 
  546000    1.0321769   -3.0107334    520.64933  0.079464183  0.080141099            1 
  547000    1.0252886    -3.001734    521.69345  0.079477979  0.080114582            2 
  548000    1.0243441   -2.9912686    524.72243  0.079793556  0.080089979            4 
  549000    1.0635766   -3.0257098    524.94484  0.079681973  0.080064075            3 
  550000    1.0505637   -2.9850507    526.55288  0.079780739   0.08003857            4 
  551000    1.0166389   -3.0022483    525.69465  0.079506148  0.080013441            5 
  552000    1.0366878   -3.0133576    527.38179  0.079616817  0.079986205            1 
  553000    1.0297748   -3.0139971    526.49856  0.079339746  0.079959359            5 
  554000     1.045582   -2.9984833    526.61503  0.079214054  0.079933692            4 
  555000     1.029045   -3.0167153    527.77615  0.079245669  0.079908553            2 
  556000    1.0387015    -3.002281    526.94476  0.078978531  0.079883199            4 
  557000    1.0272184    -3.009973    531.26692  0.079483382  0.079858368            2 
  558000    1.0188909   -3.0568438    531.73736  0.079411195  0.079833341            6 
  559000    1.0623325    -3.011798     532.3152  0.079355277   0.07980815            3 
  560000    1.0257109   -3.0127966     533.2953   0.07935942  0.079782737            2 
  561000    1.0194057   -3.0344918    533.37748  0.079230166  0.079756504            2 
  562000    1.0419829   -3.0171271    531.86052  0.078864253  0.079729044            1 
  563000    1.0257179    -2.992481    533.96429  0.079035567  0.079702914            1 
  564000    1.0317646   -3.0424042    534.59619  0.078988798  0.079675511            2 
  565000    1.0438251   -2.9966634     536.3869  0.079113113  0.079648652            1 
  566000    1.0088196   -3.0118674    537.74565  0.079173388  0.079623531            2 
  567000    1.0139832   -3.0067348    538.41618  0.079132301  0.079598257            3 
  568000    1.0378263   -3.0270554    539.12981  0.079097683  0.079572454            3 
  569000    1.0387868   -3.0485166    538.71599  0.078898065  0.079546555            2 
  570000     1.032286   -3.0203704    540.44575  0.079012537   0.07951983            4 
  571000    1.0179596   -3.0226089    539.67526  0.078761713  0.079492309            3 
  572000    1.0306316   -3.0159375    538.49347  0.078451846  0.079465497            3 
  573000     1.021356   -3.0202165    538.92262  0.078377344   0.07943783            2 
  574000    1.0176372   -3.0109918    543.29725  0.078875907  0.079410363            1 
  575000    1.0532265    -3.012811    541.78114  0.078519005  0.079381891            3 
  576000    1.0160539    -3.016047    543.54285  0.078637566   0.07935511            1 
  577000   0.99572666   -3.0086996    546.66788  0.078952612  0.079327607            2 
  578000    1.0239692   -3.0001564    545.84445  0.078697296  0.079301141            1 
  579000    1.0226881   -3.0402355    549.31052  0.079060237  0.079275038            2 
  580000    1.0143795   -3.0460358     545.8845  0.078431681  0.079249137            2 
  581000    1.0308849   -3.0344096    549.12235  0.078761094   0.07922351            2 
  582000    1.0343905   -3.0074849     550.3417  0.078800358  0.079198098            3 
  583000    1.0453866   -2.9921347    551.40202  0.078816755  0.079174029            2 
  584000     1.013926   -3.0324324    552.27829  0.078806833  0.079149881            2 
  585000     1.042439   -3.0231062    554.38542  0.078972282  0.079125025            2 
  586000    1.0255019   -3.0005124     554.5451  0.078860224   0.07909988            2 
  587000    1.0149904   -3.0045145    554.74929  0.078754868  0.079074417            2 
  588000    1.0191609     -2.99172      555.718  0.078758219  0.079048989            2 
  589000    1.0133521   -3.0459615    554.52453  0.078455649  0.079022748            3 
  590000    1.0062126   -3.0230173    556.37398  0.078583895  0.078996018            3 
  591000    1.0193425   -2.9903626    556.18144  0.078423779  0.078969993            1 
  592000    1.0354245   -3.0532862    555.29937  0.078167141  0.078942718            1 
  593000    1.0170284   -3.0317478    558.15077  0.078436027  0.078914693            3 
  594000     1.012398   -3.0308372    559.12098  0.078440093   0.07888914            2 
  595000    1.0129167   -3.0378522    560.83531  0.078548362   0.07886298            1 
  596000    1.0028599   -3.0394471     561.4913  0.078508291  0.078835273            3 
  597000    1.0034807   -3.0031105    565.37825  0.078919354  0.078809079            3 
  598000    1.0258773   -3.0333207     564.3207  0.078640008  0.078784435            1 
  599000    1.0289435   -3.0261114    563.91751  0.078452631  0.078758441            5 
  600000    1.0202736   -3.0422655    565.66276  0.078564272  0.078734178            2 
  601000    1.0043241   -3.0183802    566.25933  0.078516269  0.078710809            2 
  602000    1.0125467   -3.0434582    568.50497  0.078696701  0.078688167            2 
  603000    1.0231856   -3.0008134    566.31655  0.078263758  0.078665728            2 
  604000    1.0098593    -3.052236    572.37699  0.078970335  0.078645484            3 
  605000    1.0201225   -3.0435727    571.89486  0.078773396  0.078625434            1 
  606000    1.0171033   -3.0370468    574.52878  0.079005608  0.078605775            3 
  607000    1.0156674   -3.0404553     573.8313  0.078779695  0.078585545            2 
  608000    1.0084487   -3.0712758    571.91513  0.078387491  0.078565477            7 
  609000    1.0258584   -3.0584868    574.81604  0.078655726  0.078544862            2 
  610000    1.0044943    -3.062859    571.75017  0.078107946  0.078524424            4 
  611000    1.0217348   -3.0594882     575.6345  0.078509888  0.078502932            2 
  612000    1.0030086   -3.0317659    576.43176  0.078490163  0.078482526            3 
  613000    1.0248801   -3.0493386    574.82957  0.078144313  0.078461546            2 
  614000    1.0103219   -3.0568243    576.87871  0.078295157  0.078439866            2 
  615000    1.0335835   -3.0577194    577.87603  0.078302985  0.078417451            5 
  616000    1.0185776     -3.02882    577.54938  0.078131681   0.07839569            3 
  617000   0.98533392   -3.0262339    580.59851   0.07841687  0.078374233            4 
  618000     1.028686   -3.0333765    580.49293  0.078275745  0.078352138            1 
  619000   0.99438045   -3.0549395     579.3572  0.077996392  0.078330777            4 
  620000    1.0035886   -3.0301601    581.27775   0.07812873  0.078309191            3 
  621000    1.0029531   -3.0613658    585.25283  0.078536343  0.078288667            2 
  622000    1.0156068   -3.0415564    583.51954  0.078177859  0.078267732            4 
  623000   0.99711961   -3.0288595      585.994   0.07838336  0.078247202            4 
  624000    1.0243439   -3.0534271    586.06506  0.078267235  0.078224886            1 
  625000   0.99421936   -3.0470269    586.23108  0.078164143  0.078202595            1 
  626000    1.0323764   -3.0589826    588.17109  0.078297536  0.078180337            4 
  627000   0.98615613   -3.0712487    587.42417  0.078073388  0.078157415            2 
  628000   0.98945447   -3.0493453    587.80378   0.07799944  0.078134195            1 
  629000   0.99881177   -3.0274754    589.76885  0.078135778  0.078112279            3 
  630000    1.0117733   -3.0605861    587.39556  0.077697825  0.078090885            5 
  631000    1.0221457   -3.0634183    591.38109  0.078101041  0.078068376            3 
  632000   0.98981346   -3.0323131    593.39512  0.078243027  0.078048276            4 
  633000   0.98802482   -3.0495036    592.83635   0.07804586  0.078028497            4 
  634000    1.0244077   -3.0417847    597.05527  0.078477297  0.078009633            2 
  635000    1.0148499   -3.0631891     594.5781  0.078028622  0.077990079            3 
  636000   0.99385773   -3.0352183    597.16661  0.078245101  0.077971827            2 
  637000     1.001072   -3.0770457    597.24967  0.078133133  0.077951835            1 
  638000   0.98359755    -3.060995    596.65061  0.077932421  0.077932373            2 
  639000    1.0033577   -3.0472657    598.95319  0.078110744  0.077911621            2 
  640000    1.0039568   -3.0262304    598.63648  0.077947458  0.077890161            3 
  641000   0.99507749   -3.0527535     599.2099  0.077900403  0.077868185            2 
  642000   0.97537281   -3.0587517    600.87621  0.077995354   0.07784669            2 
  643000   0.99952659    -3.075933    601.39621  0.077941447  0.077826229            2 
  644000   0.98418699   -3.0645801     602.2765  0.077934329  0.077804725            4 
  645000   0.99745325   -3.0596242    602.08518  0.077788783  0.077782895            3 
  646000   0.99009611   -3.0526611    602.38432  0.077706956  0.077761984            2 
  647000   0.99794509   -3.0713773     605.5882  0.077999511  0.077740185            2 
  648000   0.98458503   -3.0620449    604.85294  0.077784586  0.077718513            3 
  649000    1.0033504   -3.0541587    606.16046  0.077832622  0.077696619            2 
  650000   0.99202018   -3.0605099    606.88299  0.077805511  0.077673512            1 
  651000   0.98998825    -3.060188    606.22056  0.077601198  0.077651798            2 
  652000   0.98667498   -3.0570482    608.21177  0.077736678  0.077629939            2 
  653000    1.0032343   -3.0436568    606.14152  0.077353435  0.077608456            2 
  654000   0.98176361   -3.0614172    606.60171  0.077293796  0.077585224            5 
  655000   0.99750166    -3.079001    606.83992  0.077206097  0.077561584            3 
  656000   0.98762604   -3.0491236     610.3462  0.077533816  0.077538329            2 
  657000   0.99294992   -3.0829172    610.86378  0.077481454  0.077515353            3 
  658000   0.98917418   -3.0469018    612.17575  0.077529856  0.077492427            3 
  659000   0.97736566   -3.0679629    612.90766  0.077504762  0.077469646            3 
  660000    1.0149657   -3.0509028    614.35791  0.077570443  0.077446771            2 
  661000   0.97933794   -3.0659282     613.6874  0.077368558  0.077423912            4 
  662000   0.97796663   -3.0357384    613.58598   0.07723892  0.077400363            3 
  663000    1.0300759   -3.0796337    614.07951  0.077184453  0.077377496            1 
  664000    1.0057204   -3.0810562    613.96171  0.077053428  0.077353058            2 
  665000    0.9996336   -3.0634625    614.81929  0.077045023   0.07732902            6 
  666000    0.9624037   -3.0801415    613.87538  0.076811234  0.077304658            3 
  667000   0.99227872   -3.0989166    613.02715  0.076590099   0.07727959            3 
  668000      1.00019   -3.0768181    617.79088  0.077069721  0.077255146            2 
  669000   0.99755976   -3.0611767    616.88932  0.076842217  0.077230668            3 
  670000   0.96783055   -3.0821078    619.02794  0.076993524  0.077205115            2 
  671000    1.0044648   -3.0788829    615.96323  0.076498166  0.077178338            4 
  672000   0.97966911   -3.0920564    618.32697  0.076677452  0.077150984            2 
  673000    1.0022569   -3.0680974    617.46474  0.076456753  0.077123943            3 
  674000   0.99016869   -3.0832026    615.54866  0.076106412  0.077096433            2 
  675000   0.98691099   -3.0710732    622.93059  0.076905011  0.077069295            7 
  676000   0.98710392   -3.0628267    620.49192  0.076490621   0.07704269            1 
  677000   0.99330854   -3.0895127    622.78006  0.076659289  0.077015893            3 
  678000   0.98498456   -3.0868622    621.67592  0.076410511   0.07698921            1 
  679000    1.0071776   -3.0939036    623.38636  0.076507898  0.076963461            2 
  680000   0.98343856   -3.0658601    624.40369   0.07652006  0.076937738            3 
  681000   0.98895853   -3.0693881    623.11537  0.076250045  0.076912188            3 
  682000   0.94487105   -3.0678401    623.68874  0.076208302  0.076885525            1 
  683000   0.98553204   -3.0647577    627.92168  0.076613186  0.076859842            3 
  684000   0.99254457   -3.0759278    626.33564  0.076307948  0.076833422            5 
  685000   0.97627395   -3.0690446    628.58462  0.076470148  0.076808353            3 
  686000    0.9777898   -3.0743467    628.38348  0.076334241  0.076781961            2 
  687000   0.98205958   -3.0771833    629.21511  0.076324006   0.07675613            3 
  688000   0.99804727    -3.092059    630.41906  0.076358897   0.07672916            2 
  689000   0.97500692    -3.097973    628.39619  0.076003409  0.076702613            3 
  690000   0.98955708   -3.0836126    631.07797  0.076217146  0.076674543            3 
  691000    0.9760426   -3.0895316    629.73477  0.075944859  0.076647082            2 
  692000   0.97904187   -3.0901133    630.49193  0.075926291  0.076619437            2 
  693000    0.9732132     -3.09415    629.46078  0.075692734   0.07659096            3 
  694000   0.96569167   -3.1140463    630.31025  0.075685669  0.076561846            3 
  695000   0.97887737   -3.0857801    632.65576  0.075858004  0.076532563            2 
  696000   0.98218894   -3.0662252    633.62052  0.075864526  0.076502925            2 
  697000   0.98087758   -3.1073631     632.5286  0.075625131  0.076474166            4 
  698000   0.96451996   -3.0690547     634.1333  0.075708369  0.076445905            2 
  699000   0.99267041   -3.0950094    634.49459  0.075643132  0.076417164            2 
  700000   0.98796046   -3.0828255    637.10893  0.075846301  0.076388208            3 
  701000   0.99524742   -3.0847017    634.59839  0.075439657  0.076359472            3 
  702000   0.97910467    -3.087107    638.39089  0.075782394  0.076330615            4 
  703000   0.96241331   -3.0902748    640.94403  0.075977244  0.076303445            2 
  704000   0.97138551   -3.1093406    640.26947  0.075789473  0.076274745            4 
  705000   0.95775126   -3.0677419    640.68093  0.075730607  0.076247038            4 
  706000   0.98572395   -3.0920549    639.89847  0.075530981  0.076218816            2 
  707000   0.97835402   -3.0706016    641.66704  0.075632608  0.076190764            3 
  708000   0.97518954   -3.0655705     642.5437  0.075628967  0.076161985            2 
  709000   0.93923542   -3.0840183    643.28517  0.075609447  0.076133809            4 
  710000   0.96232067   -3.1015691    643.37606  0.075513622  0.076105693            2 
  711000   0.95545603   -3.0854234    647.44454  0.075884264    0.0760779            3 
  712000   0.98631846   -3.1048198    646.35846  0.075650569  0.076050856            3 
  713000   0.96843534   -3.0998912    644.24832   0.07529784  0.076023871            2 
  714000   0.97625148   -3.0684079    646.02285  0.075399492  0.075996309            2 
  715000   0.98113157   -3.0787307     648.5742  0.075591398  0.075969479            4 
  716000    1.0057197    -3.104699    648.30927  0.075454989  0.075942567            2 
  717000   0.95212879   -3.1005587      648.025  0.075316713  0.075914505            1 
  718000   0.97792898    -3.082191    649.73959  0.075410816  0.075886478            3 
  719000   0.96323353   -3.1071029    650.67543  0.075414398  0.075859458            6 
  720000   0.97727186   -3.0740277    649.80129  0.075208482  0.075831826            2 
  721000   0.94885929   -3.0948525    651.40396  0.075289408  0.075804105            2 
  722000   0.96359088   -3.1117625     649.1442  0.074924308  0.075775503            2 
  723000   0.97592393   -3.1116128     648.2635  0.074719168  0.075746473            3 
  724000   0.96989843   -3.1046517    654.88614  0.075378238  0.075718187            4 
  725000   0.96464746   -3.1100445    651.11292  0.074840566  0.075689104            2 
  726000   0.97099832   -3.1142592    650.36195   0.07465128  0.075659718            2 
  727000   0.95960175   -3.0680808     654.4094   0.07501254  0.075630752            3 
  728000   0.94995571   -3.1098746    655.28217  0.075009406  0.075602305            3 
  729000   0.96338068   -3.1143693    654.52553   0.07482002  0.075574266            3 
  730000   0.92940508     -3.09521     654.0665  0.074665125  0.075545833            2 
  731000   0.96840895   -3.1034674     656.4704  0.074837027  0.075516665            5 
  732000   0.94975474   -3.0987897     657.4496  0.074846266  0.075488241            3 
  733000   0.95206395   -3.1115606    657.34052  0.074731756  0.075459631            5 
  734000     0.979916   -3.1214195    657.43261  0.074640396  0.075430283            3 
  735000   0.96461086   -3.1018212    657.81467  0.074582162  0.075401903            3 
  736000   0.96605866   -3.0867263    661.45865  0.074893416  0.075373702            2 
  737000   0.96061715    -3.102222    660.22801  0.074652647  0.075346445            2 
  738000   0.96852309   -3.1048723    664.75312  0.075062458  0.075318756            2 
  739000   0.94639921   -3.1067265    663.33163  0.074800589  0.075291086            2 
  740000   0.95416655   -3.1089176    664.65946  0.074849038  0.075263754            2 
  741000   0.96524242   -3.0823403    667.81344  0.075102726  0.075235492            1 
  742000    0.9797752   -3.1116376    664.62761  0.074643712  0.075207867            3 
  743000   0.96696162   -3.0915997    664.92278  0.074576355  0.075179672            4 
  744000   0.94043915   -3.0790535    669.20258  0.074955486  0.075150992            2 
  745000   0.96714154   -3.1211156    665.73854  0.074467398  0.075122281            4 
  746000   0.97220436   -3.1053757    666.70415  0.074475441  0.075093036            3 
  747000   0.93740514    -3.091203    667.12931  0.074423172  0.075064527            6 
  748000   0.93750407   -3.1061537    665.32154  0.074122275  0.075035352            2 
  749000   0.96117034   -3.0935541    668.13414  0.074336241  0.075007068            1 
  750000   0.97253877   -3.1353172    669.57982  0.074397758  0.074978839            2 
  751000   0.96700005   -3.0990706    670.30105  0.074378723  0.074951278            1 
  752000   0.93840197   -3.1044339    671.46747  0.074409073  0.074923326            3 
  753000   0.95723695   -3.1328505    670.35907   0.07418759  0.074894377            3 
  754000   0.94175091   -3.1167382    669.29771  0.073971895   0.07486531            3 
  755000   0.94788516   -3.1040701    671.39595  0.074105513  0.074836049            2 
  756000    0.9555157   -3.1156775    671.99211  0.074073204  0.074806918            3 
  757000   0.94337445   -3.1383547    673.60132  0.074152501  0.074777383            1 
  758000   0.96208031   -3.1503437    674.98084  0.074206336  0.074748141            2 
  759000   0.97445295   -3.1311966    676.46364   0.07427137  0.074719838            3 
  760000   0.95994517   -3.1143085    673.25308   0.07382161  0.074691394            3 
  761000   0.97088951   -3.1470944    675.76504  0.073999676  0.074662907            4 
  762000    0.9570178    -3.095105    677.33022  0.074073734  0.074634188            2 
  763000   0.95178627   -3.1216785    676.45123   0.07388065   0.07460605            4 
  764000   0.94097505   -3.1313135    678.41077  0.073997684  0.074576812            4 
  765000   0.94147001   -3.1248303    677.78357  0.073832633  0.074547871            3 
  766000   0.94069654   -3.1166084    676.94277  0.073644774  0.074519077            3 
  767000   0.93953591   -3.1455945    680.49539  0.073934744    0.0744899            2 
  768000   0.92253846   -3.1299676    680.84493  0.073876403  0.074460613            2 
  769000   0.91100396   -3.1308512    681.85848  0.073890169  0.074431861            2 
  770000   0.94526302   -3.1103613    681.36067  0.073740332  0.074402427            4 
  771000   0.94989848   -3.1274738    681.28853  0.073636893  0.074373116            3 
  772000   0.93568537   -3.1522444    681.26735  0.073539222  0.074344076            2 
  773000   0.94977684   -3.1219177    682.64246  0.073592331  0.074315317            2 
  774000   0.92803345    -3.115164    685.69143  0.073825521   0.07428664            5 
  775000   0.93865531   -3.0999387    682.86368  0.073426202  0.074257401            2 
  776000   0.94807499   -3.1341783    684.78625  0.073538042  0.074228192            2 
  777000   0.96459612   -3.1389179    684.36548  0.073398271  0.074199021            1 
  778000   0.95414073   -3.1093176    687.90936  0.073683522  0.074170349            5 
  779000   0.95263395   -3.1065244    688.31331  0.073632146  0.074141392            2 
  780000   0.94730319   -3.1186903    685.19789  0.073204903   0.07411286            4 
  781000    0.9378995   -3.1549338    687.54375  0.073361476  0.074083514            3 
  782000   0.95139406   -3.1295529    686.99955  0.073209671  0.074053491            5 
  783000   0.94089606   -3.1163841    692.33669  0.073684194   0.07402416            3 
  784000   0.95532317   -3.1451424    689.09253   0.07324538  0.073995866            5 
  785000   0.94625053   -3.1220567    693.28378  0.073597004  0.073967462            3 
  786000   0.94092747   -3.1269936    691.19792  0.073282222  0.073939366            6 
  787000   0.95073008   -3.1524102    691.19414  0.073188706  0.073910469            2 
  788000   0.93296957    -3.131743    691.13408  0.073089476  0.073881469            4 
  789000   0.91660658   -3.1222235    692.19911  0.073109327  0.073852647            3 
  790000   0.94023689   -3.1470199    693.29716  0.073132612  0.073824364            2 
  791000   0.93331837   -3.1484913    695.90656  0.073315061  0.073796595            7 
  792000   0.93039691   -3.1305424    695.44889  0.073174336  0.073768383            2 
  793000   0.93436525   -3.1324317    696.38048  0.073179958   0.07373995            2 
  794000   0.93233083   -3.1254797    697.95059  0.073252581  0.073711584            3 
  795000   0.94858317   -3.1290001    695.91559  0.072947127  0.073683635            3 
  796000   0.94834188   -3.1547725    696.52643  0.072919434   0.07365593            2 
  797000     0.938656    -3.156079    700.24282  0.073216522  0.073627512            6 
  798000   0.91362558   -3.1173521     700.5272   0.07315447  0.073599358            3 
  799000   0.94662753   -3.1580255     697.8192  0.072780475  0.073571564            2 
  800000   0.93020004   -3.1200639    701.00792  0.073021658  0.073543022            3 
  801000   0.91273326   -3.1467934    702.26674  0.073061458   0.07351455            5 
  802000   0.93080032   -3.1298395    702.18725    0.0729621  0.073486229            2 
  803000   0.93723007   -3.1499784    701.87677  0.072839017  0.073457643            6 
  804000   0.92401815   -3.1534151    700.88784  0.072645921  0.073429177            4 
  805000   0.92510074   -3.1208299    703.28019  0.072803332  0.073400217            3 
  806000   0.91393465    -3.169438    704.35237   0.07282386  0.073371979            2 
  807000   0.92813098   -3.1771775    703.62922  0.072658944  0.073342697            4 
  808000   0.95464418   -3.1575422     705.4556  0.072757384  0.073314398            2 
  809000   0.94999835   -3.1123323    707.40112  0.072867853  0.073287171            6 
  810000   0.93838815      -3.1202    708.46402  0.072887245  0.073259877            2 
  811000   0.93150972   -3.1575125    706.33467  0.072578573  0.073232417            2 
  812000   0.93087976   -3.1550615    710.50833  0.072917521    0.0732054            2 
  813000   0.91589293   -3.1314054    711.80405  0.072960644  0.073177918            3 
  814000   0.92467401   -3.1627005    712.29228  0.072920995  0.073150541            5 
  815000   0.92474437   -3.1802138    707.82069  0.072374304  0.073122614            2 
  816000   0.93295991   -3.1506063    709.03424  0.072409542  0.073093852            5 
  817000   0.92355248    -3.160135    708.67222  0.072283988  0.073065161            3 
  818000   0.91612626   -3.1458677    711.49474  0.072483164  0.073037378            3 
  819000   0.94721979   -3.1660629    714.63014   0.07271369  0.073009012            2 
  820000   0.93022567   -3.1606451    711.89228  0.072346777  0.072980105            4 
  821000   0.91613879   -3.1554265     713.6597  0.072438053  0.072951028            3 
  822000   0.93208757   -3.1411414    717.71706  0.072761259  0.072922155            5 
  823000   0.90734957   -3.1619362    711.72571  0.072066192  0.072892601            4 
  824000   0.92292379   -3.1699847    713.98156  0.072206873  0.072863041            3 
  825000   0.91998356   -3.1841166    713.45218  0.072065876  0.072833293            4 
  826000   0.93204261   -3.1461516    716.42745  0.072278799  0.072803766            3 
  827000    0.9423547    -3.154537    716.04886  0.072153251  0.072774268            2 
  828000   0.90320839   -3.1555204    718.86926  0.072349966  0.072744314            4 
  829000   0.91638296   -3.1646146    714.58999  0.071832529  0.072715046            2 
  830000   0.93357038   -3.1410721    716.36663  0.071924361  0.072685586            2 
  831000   0.91366321   -3.1583062    718.90083   0.07209194  0.072656381            3 
  832000   0.91239082   -3.1539756    718.49868  0.071965012  0.072627475            3 
  833000   0.92566041   -3.1391052    719.04096   0.07193287  0.072598232            3 
  834000    0.9326232   -3.1944586    718.57172  0.071799732  0.072568551            4 
  835000   0.90788859   -3.1451026    722.40534  0.072096342  0.072539819            4 
  836000   0.91979112   -3.1846108    720.90118  0.071860165  0.072510341            3 
  837000    0.9246942   -3.1539837    723.95363  0.072078219  0.072481928            3 
  838000   0.93599812   -3.1883824     722.5424   0.07185187  0.072453315            5 
  839000   0.92527622   -3.1676149    723.77367  0.071888525  0.072424107            3 
  840000   0.91923081   -3.1557155     724.4459  0.071869633  0.072394959            3 
  841000   0.92042416   -3.1985123    724.96628  0.071835739  0.072365264            2 
  842000   0.89553301    -3.165275    725.40898  0.071794237  0.072336316            2 
  843000   0.92033032   -3.1749479    724.95297  0.071663995  0.072307183            3 
  844000   0.93004571   -3.1588596    726.51479  0.071733293  0.072278995            2 
  845000   0.93830153   -3.1613273    728.40253  0.071834569  0.072250705            3 
  846000    0.9392221   -3.1809502    727.37654  0.071648595  0.072221716            3 
  847000   0.92690211    -3.165609    729.01722  0.071725425  0.072192994            4 
  848000   0.91801038   -3.1458408    726.73256  0.071416328  0.072164111            3 
  849000   0.91710031   -3.1931566    725.54232  0.071215383  0.072135274            4 
  850000   0.89852142   -3.1528591    729.64577  0.071533899  0.072106533            5 
  851000   0.90057351   -3.1721597    727.30939  0.071221053  0.072077679            4 
  852000   0.91787107   -3.1761194      730.575  0.071456866  0.072048483            5 
  853000   0.90103387   -3.1672948    730.12028  0.071328672  0.072019328            4 
  854000    0.9055144   -3.1590719    729.35799  0.071170764  0.071989855            1 
  855000   0.91749108   -3.1834348    730.09096  0.071158963  0.071960385            3 
  856000   0.91602905   -3.1599111    731.96638  0.071258409  0.071930289            2 
  857000   0.91160689   -3.1603437    734.64685  0.071435905  0.071900739            2 
  858000   0.91400196   -3.1872191    732.48552  0.071142727  0.071870775            5 
  859000   0.90620566   -3.1814084    733.13039  0.071122467   0.07184042            3 
  860000   0.91893418    -3.182269    732.24457  0.070953931  0.071809678            2 
  861000   0.92929822   -3.1927895    733.83417  0.071025375  0.071779888            3 
  862000   0.91678438   -3.1724859    735.23478  0.071078382  0.071750524            4 
  863000   0.89621995   -3.1615347    735.75234  0.071045997  0.071720181            2 
  864000   0.91131611   -3.1649707    737.57982  0.071140029  0.071690194            5 
  865000   0.91447824    -3.163336    737.05359   0.07100709  0.071659813            7 
  866000   0.91214594     -3.16398    735.08647  0.070735803  0.071628699            2 
  867000   0.92523859   -3.1742789    736.64925  0.070804426  0.071597292            2 
  868000   0.89288738   -3.1814672    733.92661  0.070461464  0.071565465            2 
  869000   0.91587517   -3.1739184     736.1701  0.070595522  0.071533419            4 
  870000   0.90399358   -3.1624273     738.4888  0.070736475  0.071500882            4 
  871000   0.90168548   -3.1966069    736.24447  0.070440535  0.071469026            4 
  872000   0.90843959   -3.1842496    735.81788  0.070318987  0.071436858            2 
  873000    0.9146853   -3.1541558    738.41504  0.070486354  0.071405605            4 
  874000   0.91090365   -3.1686773     738.0749  0.070373274  0.071374581            2 
  875000   0.87186317   -3.1567729    740.64428   0.07053755  0.071342743            3 
  876000   0.89033717    -3.182541    739.21983  0.070321521  0.071310738            3 
  877000    0.9052477   -3.1836988    741.91898  0.070497812  0.071279237            3 
  878000   0.90258067   -3.1957414    739.13753  0.070153524  0.071247617            7 
  879000   0.89530802   -3.2099043    739.92907  0.070148755  0.071215532            2 
  880000   0.90038153   -3.1795577    742.23369  0.070287281   0.07118386            4 
  881000   0.89182639   -3.2029108    744.07198  0.070381383  0.071152954            3 
  882000   0.91947329   -3.1790926    742.41366  0.070144904  0.071122377            2 
  883000   0.90732783   -3.1757799    744.98584  0.070308214  0.071090731            6 
  884000   0.88559678    -3.168942    744.81063  0.070212164  0.071059031            5 
  885000   0.90183425   -3.1896329     745.3034  0.070179228  0.071027427            2 
  886000   0.91006848   -3.1711366    746.82384  0.070243025  0.070996484            7 
  887000   0.90553885   -3.1961737    746.53706  0.070136891  0.070965806            3 
  888000   0.87084181    -3.171122    748.90648  0.070280262   0.07093514            2 
  889000   0.89090988   -3.1753807    747.36396  0.070056614  0.070904585            4 
  890000   0.90973001   -3.2010091    749.05727  0.070136448  0.070873141            3 
  891000   0.88804688   -3.1817031    749.29709  0.070080162  0.070841992            4 
  892000   0.91061256   -3.1731974    752.07753  0.070261353  0.070811669            4 
  893000   0.90995498   -3.1816737     750.7448  0.070058305  0.070781165            3 
  894000   0.89822439   -3.2032284    753.38711  0.070226241  0.070750928            3 
  895000   0.88348435   -3.2055685    749.83078  0.069816646  0.070720389            4 
  896000   0.88285639   -3.2141285    752.33944  0.069972046  0.070688996            3 
  897000   0.90007249    -3.218084    752.35299  0.069895299  0.070658194            3 
  898000   0.89106013   -3.1887119     754.1242   0.06998183  0.070627483            3 
  899000    0.9049337   -3.1646994    756.01565  0.070079315  0.070597172            7 
  900000   0.90258282   -3.1989488    753.90533  0.069806049  0.070567127            3 
  901000    0.8869335   -3.1825839     753.5555  0.069696217  0.070536679            3 
  902000   0.89186094   -3.2044742    757.13993  0.069950105  0.070506561            6 
  903000   0.89415034   -3.2144596    757.86678  0.069939717  0.070476697            3 
  904000   0.91435287   -3.1694464    758.66912  0.069936313  0.070447399            4 
  905000   0.92603598   -3.1995601    760.85424  0.070060243  0.070417743            3 
  906000   0.88491689   -3.1750285    759.32596  0.069842344  0.070388415            1 
  907000   0.88638072   -3.2113582    760.03904  0.069830856  0.070357987            2 
  908000   0.90984349   -3.2126554    758.04322   0.06957078  0.070327911            5 
  909000   0.89304366    -3.177882    760.67345  0.069735373  0.070298172            3 
  910000   0.88899498   -3.1770809    765.38108  0.070089842  0.070269175            4 
  911000   0.89763889   -3.2030605    761.60231  0.069667244  0.070240289            3 
  912000   0.90576978   -3.1966991    763.50898  0.069765075  0.070210574            5 
  913000   0.89308554   -3.2125111    761.47584  0.069503089  0.070180427            3 
  914000   0.89344749   -3.2282015    759.37898  0.069235866  0.070150184            3 
  915000   0.89820432   -3.1686098    764.37579  0.069615282  0.070120015            4 
  916000   0.87359269   -3.2355617    764.57659   0.06955755  0.070090044            4 
  917000   0.87766361   -3.2118426    765.59437  0.069574189  0.070060242            3 
  918000    0.8996662   -3.2396666     764.1685  0.069368963  0.070030756            4 
  919000   0.89097429   -3.2040725    766.46084  0.069501345  0.070000887            4 
  920000   0.90933396   -3.2143889    765.92225  0.069377016  0.069971213            3 
  921000   0.88945522   -3.1800528    769.80118  0.069652658  0.069941703            2 
  922000   0.90220548   -3.2146581    761.97792  0.068870022  0.069911343            3 
  923000   0.88103232   -3.2160435    765.62233  0.069124443  0.069880448            2 
  924000   0.88516678   -3.2259441    767.09471  0.069182423  0.069849126            3 
  925000   0.89150317   -3.2136416    766.04306  0.069012888  0.069817952            4 
  926000    0.8958592   -3.2043561    767.67712  0.069085414  0.069786875            2 
  927000   0.88454861   -3.2223794     765.3079  0.068797905  0.069756294            3 
  928000   0.87455928   -3.2128023    767.78439  0.068946155  0.069726185            5 
  929000   0.88254103   -3.2120906     768.8601  0.068968433  0.069695563            5 
  930000   0.88509199   -3.2291764    773.01772  0.069266821  0.069665264            3 
  931000   0.87607451   -3.2219863    772.16706  0.069116278  0.069635107            2 
  932000   0.89483021   -3.2268275     773.9315  0.069199884  0.069605374            4 
  933000   0.87420536   -3.1947498    772.37817  0.068986975  0.069575799            2 
  934000   0.88607862   -3.2252274    772.89137  0.068958902  0.069545593            4 
  935000   0.88775222   -3.2239433    770.34428  0.068658135  0.069515348            4 
  936000    0.8864958   -3.2077553     775.3094  0.069026834  0.069485309            3 
  937000   0.89416123   -3.2216522    773.89965  0.068827788  0.069455614            4 
  938000   0.88377069   -3.2194394    777.83305   0.06910386   0.06942627            5 
  939000   0.88661152   -3.1988193    775.15962  0.068793009  0.069396836            2 
  940000   0.87688563   -3.2018129    779.93029  0.069142756  0.069367221            4 
  941000   0.85153284   -3.2218468    776.40444  0.068757035   0.06933755            5 
  942000   0.88495001   -3.2294897    774.58806   0.06852336  0.069307414            4 
  943000   0.85247238   -3.2446794    775.91793  0.068568216  0.069277397            3 
  944000   0.88161669   -3.2110804    779.25659  0.068790306  0.069247843            2 
  945000   0.87755348   -3.2345961    781.17619  0.068886789  0.069218728            6 
  946000   0.87278894   -3.2144748    780.70446  0.068772416  0.069189526            2 
  947000   0.88558744   -3.2160537     781.7917  0.068795468  0.069160089            3 
  948000   0.85613618   -3.2515547    779.62643  0.068532563  0.069130652            4 
  949000    0.8714154    -3.194288    780.29254  0.068518839  0.069101116            2 
  950000   0.87589232   -3.2433904     781.4938  0.068552088  0.069071624            6 
  951000   0.88669166   -3.2321377    782.77923  0.068592642  0.069042105            3 
  952000   0.86087263   -3.2233955    784.36037  0.068658996   0.06901296            2 
  953000   0.87043468    -3.235844     779.7102  0.068180325  0.068983397            4 
  954000   0.87798778   -3.2459817    783.06991  0.068402333  0.068953807            5 
  955000   0.86315565   -3.1981123    786.96333  0.068670448   0.06892438            5 
  956000   0.87530472   -3.2408504    784.48147  0.068382276  0.068894938            2 
  957000   0.87550232   -3.2138799    787.52437   0.06857579  0.068865299            4 
  958000   0.87174611   -3.2268823     786.2741   0.06839545  0.068835822            2 
  959000   0.87505093   -3.2446457    782.33319  0.067981681  0.068806729            3 
  960000    0.8592673   -3.2203631    784.46269  0.068095719  0.068776536            4 
  961000   0.87066636   -3.2316635    785.49638  0.068114497  0.068746282           11 
  962000   0.85632817   -3.2144526    788.81308  0.068331002  0.068716388            3 
  963000   0.88208542   -3.2439245    786.20649  0.068034483  0.068686584            3 
  964000   0.86981935   -3.2280731    785.54728  0.067906922  0.068656255            4 
  965000    0.8545361   -3.2602195    787.13843  0.067973958  0.068626253            2 
  966000   0.86357439   -3.2199129    789.00859  0.068064923  0.068596485            3 
  967000   0.87118129   -3.2237687    786.85245  0.067808725  0.068566236            5 
  968000   0.87388587   -3.2345996    788.35177  0.067867749  0.068535953            5 
  969000   0.85925203   -3.2105955    788.51917  0.067812106  0.068505958            2 
  970000   0.83659515   -3.2414791    788.38553  0.067730716  0.068476215            3 
  971000   0.85622376   -3.2407045    792.87358  0.068046136  0.068446104            3 
  972000   0.87970763    -3.249139    787.57293  0.067521684  0.068415914            4 
  973000   0.88157544   -3.2391386    792.29957  0.067857106  0.068385683            8 
  974000   0.86746652   -3.2126472    792.66619  0.067818804   0.06835516            4 
  975000    0.8572778   -3.2439436    789.70184  0.067495884  0.068324727            4 
  976000   0.85767211   -3.2333036    793.18155  0.067723835  0.068294556            4 
  977000   0.86920656   -3.2263245    793.19104  0.067655326  0.068264646            3 
  978000   0.85445108   -3.2500928    792.92992  0.067563899  0.068234913            3 
  979000   0.83793021   -3.2345412    795.91487  0.067748967  0.068204391            7 
  980000   0.86641931   -3.2399621    793.81231  0.067501046  0.068173462            2 
  981000   0.83427555   -3.2258121    796.72252  0.067679453  0.068142658            4 
  982000   0.86754209   -3.2310028    797.00331  0.067634361  0.068112111            5 
  983000    0.8558442   -3.2502472    793.73772  0.067288718  0.068082078            3 
  984000   0.83996538   -3.2578195    798.32809  0.067609086  0.068051482            4 
  985000   0.85815329   -3.2515959    796.62892  0.067396694  0.068021029            9 
  986000   0.86795426   -3.2289898    797.39241  0.067392868  0.067990606            7 
  987000   0.86185603    -3.225605    799.80205  0.067528035  0.067960661            2 
  988000   0.86536714   -3.2348294    800.76157  0.067540618  0.067930611            4 
  989000   0.88353682   -3.2223148    799.68283  0.067381431  0.067901301            2 
  990000   0.87811465   -3.2504667     802.3097  0.067534486  0.067871578            4 
  991000   0.86825015   -3.2638794      799.912  0.067264716  0.067841575            3 
  992000   0.84009401   -3.2468052    798.67754  0.067093207  0.067811184            4 
  993000   0.87966789    -3.222961    799.22578   0.06707165  0.067780305            4 
  994000   0.86189881   -3.2825299    797.67504  0.066874165  0.067749404            3 
  995000   0.85575612   -3.2536472    798.90827   0.06691024  0.067718165            5 
  996000   0.83331081   -3.2418538    799.70398  0.066909637  0.067687385            3 
  997000   0.83664442   -3.2472585     801.5874   0.06699995  0.067656361            2 
  998000   0.86461849   -3.2253047    802.45269  0.067005068  0.067625661            3 
  999000   0.85859314   -3.2328397     800.1985  0.066749958  0.067594677            6 
 1000000    0.8352235   -3.2444528    800.57135  0.066714279  0.067563626            2 
 1001000   0.84848608   -3.2636255    803.99387  0.066932556  0.067532873            7 
 1002000   0.84191272   -3.2287875       803.39  0.066815536  0.067501333            3 
 1003000   0.85579506   -3.2553931    805.93129   0.06696006   0.06747071            3 
 1004000   0.84685019   -3.2433775       804.06  0.066738048  0.067439678            3 
 1005000   0.84508884   -3.2621991    804.35836  0.066696381  0.067409057            3 
 1006000   0.84113124   -3.2623921    802.85705   0.06650572  0.067378042            3 
 1007000   0.85833524   -3.2246397    805.48393  0.066657062  0.067347851            3 
 1008000   0.86927729   -3.2626084    808.88576  0.066872169  0.067317932            3 
 1009000   0.85174159   -3.2487608    808.86416   0.06680411  0.067287615            2 
 1010000   0.86752561   -3.2555474     807.0323  0.066586823   0.06725763            3 
 1011000   0.85949374   -3.2677516    807.68297  0.066574594  0.067227666            3 
 1012000   0.85150124   -3.2400588    806.57516  0.066417585  0.067197844            6 
 1013000   0.82483648   -3.2763146    811.06453  0.066721334  0.067167774            2 
 1014000   0.84596606   -3.2451226    810.52898   0.06661152  0.067137598            3 
 1015000   0.87648065    -3.235946     812.3263  0.066693456  0.067107739            3 
 1016000   0.84695856   -3.2638677    812.36085  0.066630647  0.067077954            4 
 1017000   0.84603392   -3.2400274    812.65455  0.066589196   0.06704793            6 
 1018000   0.85447619   -3.2687033    811.26218  0.066409805  0.067017943            3 
 1019000   0.87259562   -3.2437008    810.95691  0.066319669  0.066987514            4 
 1020000   0.85683745   -3.2641007    812.26404  0.066361441  0.066956913            3 
 1021000   0.84361438   -3.2506015    812.54572  0.066319435  0.066925691            4 
 1022000   0.84674418   -3.2352496    812.40821  0.066243331  0.066894845            6 
 1023000   0.83717506   -3.2678138    812.19615  0.066161303  0.066864618            2 
 1024000     0.866246   -3.2318539    817.23271  0.066506568  0.066834376            6 
 1025000   0.85780733   -3.2542353    816.31953  0.066367441  0.066804131            7 
 1026000   0.85025314   -3.2496589    818.97493  0.066518432  0.066773949            1 
 1027000    0.8293819   -3.2854497    811.85659  0.065876062  0.066743159            3 
 1028000   0.85147767   -3.2585324    816.07648   0.06615406  0.066712312           12 
 1029000   0.83781457   -3.2683774    813.06586  0.065845955  0.066681532            2 
 1030000   0.86018722   -3.2676106    817.68955  0.066156113  0.066650961            2 
 1031000   0.84231828   -3.2832079    817.28179  0.066058988  0.066620471            5 
 1032000   0.83725583    -3.262648     817.0185  0.065973716  0.066589521            5 
 1033000   0.84756098   -3.2658398    817.20262  0.065924703  0.066559429            2 
 1034000   0.82118698   -3.2420337    819.70467  0.066062595  0.066528926           11 
 1035000   0.83716888   -3.2614495    817.58349  0.065827978  0.066498309            6 
 1036000   0.83344546    -3.268058    818.48974  0.065837334  0.066467779            5 
 1037000    0.8461411   -3.2822205    817.28011   0.06567664  0.066436869            6 
 1038000   0.84457914   -3.2531393     822.2193  0.066009899  0.066406462            3 
 1039000   0.82661289   -3.2702065    819.02857  0.065690453  0.066376048            5 
 1040000   0.83681959   -3.2800877    821.28506  0.065808098  0.066345562            6 
 1041000   0.83076083   -3.2718181    820.55767  0.065686653   0.06631554            2 
 1042000   0.85832197   -3.2857895    822.39758   0.06577076  0.066285633            4 
 1043000   0.81649836   -3.2553597    822.33466  0.065702674  0.066255206            2 
 1044000   0.82338635   -3.2799872    821.96065  0.065609886  0.066224789            4 
 1045000   0.82145367   -3.2637462    822.56423  0.065595233  0.066194626            2 
 1046000   0.83514368   -3.2709119    824.95274  0.065722812  0.066164312            5 
 1047000   0.84987128   -3.2717407    822.79639   0.06548841   0.06613428            2 
 1048000   0.85298584   -3.2740642     820.8668  0.065272487  0.066104296            2 
 1049000   0.83133623   -3.2705545    823.95216  0.065455367  0.066074142            2 
 1050000   0.82568697   -3.2725858    829.23229  0.065812086  0.066043996            3 
 1051000   0.84185684   -3.2735723    826.92317  0.065566379  0.066013994            5 
 1052000   0.83204345   -3.2581344    829.29094  0.065691615  0.065984276            3 
 1053000   0.82514824   -3.3006402    827.76118  0.065508166  0.065954782            2 
 1054000   0.83977492   -3.2683533    826.76139  0.065366966   0.06592516            2 
 1055000   0.83952317    -3.279085    832.66756  0.065771529  0.065895301            6 
 1056000   0.83635236   -3.2900012    828.81262  0.065405037  0.065865502            2 
 1057000    0.8357769    -3.297283    827.52831  0.065241904  0.065835312            2 
 1058000   0.82866799   -3.3080639    829.79277  0.065358599  0.065805392            3 
 1059000   0.84112472   -3.2863384    831.46199  0.065428233  0.065775647            4 
 1060000   0.83920317   -3.3048686    830.36944  0.065280616  0.065745834            4 
 1061000   0.82840759   -3.2777283      830.574  0.065235155  0.065716257            7 
 1062000   0.85683816   -3.2906947    832.48779  0.065323901  0.065686248            3 
 1063000    0.8350435   -3.2729122    834.69766   0.06543569  0.065656949            7 
 1064000   0.84192889   -3.2979214    828.45824  0.064885514  0.065626925            9 
 1065000   0.81689422   -3.3045566    833.63325  0.065229519  0.065597072            4 
 1066000   0.82571759   -3.2887504    832.59935  0.065087504  0.065567022            7 
 1067000   0.83342286   -3.2999554    835.45743  0.065249721  0.065537212            7 
 1068000   0.85004968   -3.2986703    834.62386  0.065123585  0.065508257           10 
 1069000   0.81269606   -3.3022938    838.24203  0.065344717  0.065478994            3 
 1070000   0.81750105    -3.273365    836.07119  0.065114579  0.065449942            7 
 1071000   0.82147708   -3.2891333    838.18397  0.065218174  0.065420513            3 
 1072000   0.82125595   -3.2759785    834.08599  0.064838774  0.065391421            3 
 1073000   0.83253727   -3.2629815    838.05113  0.065086294   0.06536219            3 
 1074000   0.82381578   -3.2600731    838.02405  0.065023592  0.065333092            2 
 1075000   0.83899896   -3.3020031     836.5396  0.064848031  0.065303506            3 
 1076000   0.82654105   -3.3117342    836.94011  0.064818782  0.065273699            4 
 1077000   0.81841899   -3.2997663    838.35647  0.064868188  0.065244042            4 
 1078000   0.79988857   -3.3152907    837.21335  0.064719647   0.06521409            8 
 1079000   0.82023128   -3.3006535     838.0752  0.064726228  0.065183784            3 
 1080000   0.83848424   -3.3099281    838.20288  0.064676148   0.06515333            3 
 1081000   0.82509124   -3.2973481    839.18871  0.064692315   0.06512333            6 
 1082000   0.81201977   -3.2993858    838.40301  0.064572012  0.065092761            4 
 1083000    0.8219401   -3.3043405    838.41911  0.064513628  0.065062092            3 
 1084000   0.82222293   -3.3215634    836.19624  0.064283229  0.065031224           11 
 1085000   0.80785999   -3.3127942    840.35236  0.064543192  0.065000533            4 
 1086000   0.82512575   -3.2954008    840.18353  0.064470805  0.064969942            3 
 1087000   0.81136491   -3.2774034    839.17297  0.064334021  0.064938845            4 
 1088000   0.82225041      -3.3232    840.14698  0.064349493  0.064908249            5 
 1089000   0.82442452   -3.3146972    835.97582  0.063971213  0.064877374            4 
 1090000   0.82278478   -3.3100962    838.99621  0.064143441  0.064846786            5 
 1091000   0.79789088   -3.3353059    837.95764  0.064005319  0.064815793            5 
 1092000   0.81223025   -3.3059072    841.78075  0.064238457  0.064785042            5 
 1093000    0.8076602   -3.3091054     842.6762  0.064247957  0.064754801            5 
 1094000   0.80267034   -3.3215332    845.87571  0.064432945  0.064724606            2 
 1095000   0.80066404   -3.2835041    848.50899  0.064574505  0.064694869            4 
 1096000   0.81502341   -3.3115673    843.12858  0.064106492  0.064665031            3 
 1097000   0.83246343   -3.3141584    843.91502  0.064107795  0.064635012            3 
 1098000   0.81178626   -3.3161034    843.70358  0.064033362  0.064604822            5 
 1099000   0.82905888   -3.3049498    846.11802  0.064158175  0.064574646            7 
 1100000   0.79836461   -3.3003046    845.92784  0.064085443  0.064544934            4 
 1101000   0.80694407   -3.3099535    846.20942  0.064048548  0.064515436            3 
 1102000   0.82490256   -3.3147333    846.36982  0.064002557   0.06448524            3 
 1103000   0.82607319   -3.3023726    848.73437  0.064123177   0.06445529            4 
 1104000   0.83344604   -3.3137236    848.58728  0.064053991  0.064426041            3 
 1105000   0.83014741   -3.3124101    848.35096  0.063978202  0.064396478            5 
 1106000   0.81183728   -3.3024282    847.69561  0.063870977  0.064366885            6 
 1107000   0.79671074   -3.3025268     849.6213  0.063958243  0.064336547            3 
 1108000   0.80563786   -3.3055772     849.6283  0.063901046  0.064306527            3 
 1109000   0.79053949   -3.3066627    850.51993  0.063910425  0.064276545            3 
 1110000   0.79903274   -3.3111802    851.34881  0.063915076  0.064246991            2 
 1111000   0.81821558   -3.2956417    854.06383  0.064061193  0.064217362            2 
 1112000   0.79283922   -3.3194781    852.85306  0.063912849  0.064187769            7 
 1113000   0.81414457   -3.3083318     851.6861  0.063768052  0.064158375            3 
 1114000   0.80931015   -3.3050098    853.64345   0.06385723  0.064129202            4 
 1115000   0.79228393   -3.3077676    852.14363  0.063687865  0.064099647            4 
 1116000   0.80601594   -3.3266259    852.53868  0.063660296  0.064070467            3 
 1117000   0.80640296   -3.3328069    853.42589  0.063669493  0.064041011            5 
 1118000   0.80018242   -3.3136401     852.9307  0.063575634  0.064011324            4 
 1119000   0.80445254    -3.344632    854.43839  0.063631099  0.063981823            3 
 1120000     0.819313   -3.3253666      854.839  0.063604092  0.063952348            4 
 1121000   0.80012992    -3.324111    856.64572  0.063681662  0.063923042            4 
 1122000   0.80705772   -3.3328614    856.44843  0.063610252  0.063893861            5 
 1123000   0.79865831    -3.313704    858.23011   0.06368582  0.063865074            4 
 1124000     0.795456   -3.3177944     857.9248  0.063606524  0.063835797            3 
 1125000   0.82134833    -3.335203    856.98041  0.063480031  0.063806722            4 
 1126000   0.81021492    -3.329896    856.25516  0.063369979  0.063777649            5 
 1127000   0.78174174   -3.3393272    856.83849  0.063356883  0.063748418            4 
 1128000   0.80642558   -3.3293888    860.32977  0.063558641  0.063719095            3 
 1129000   0.80376252   -3.3235638    859.43304  0.063436156  0.063689804            2 
 1130000   0.79875916   -3.3239641    860.30583  0.063444383  0.063660474            6 
 1131000   0.78969354   -3.3158645    862.52149  0.063551539  0.063631674            4 
 1132000   0.79911257   -3.3185995    859.03242  0.063238547  0.063602385            3 
 1133000   0.80869947   -3.3193525    860.34239  0.063279081  0.063573388            5 
 1134000   0.79317447   -3.3461369    858.02499  0.063052983  0.063544468            9 
 1135000   0.80381589   -3.2998891     858.6571   0.06304384  0.063515319            3 
 1136000   0.79586486   -3.3455843    861.67966  0.063210069  0.063486071            2 
 1137000   0.80561427   -3.3384625    860.91035   0.06309809  0.063456877            5 
 1138000   0.80272815   -3.3191195    860.25271  0.062994487   0.06342736            5 
 1139000   0.80524683   -3.3152896     864.0276  0.063215365  0.063398164            9 
 1140000   0.78311343   -3.3220969    863.85434  0.063147247  0.063369222            5 
 1141000   0.80282766   -3.3448898    865.71797  0.063228014  0.063340209            3 
 1142000   0.79953711   -3.3335023    861.87486  0.062892211  0.063311504            3 
 1143000   0.79484872   -3.3541046    864.68298   0.06304192  0.063282178            7 
 1144000    0.8047358   -3.3357206    863.88324  0.062928558  0.063252921            3 
 1145000   0.78202496   -3.3572621    863.40852  0.062839048  0.063223469            2 
 1146000    0.8007777   -3.3292276    868.17353   0.06313071  0.063194029            4 
 1147000   0.81397386   -3.3208274    868.07756  0.063068698  0.063164795            4 
 1148000   0.80922202   -3.3243448    864.38121  0.062745442  0.063135407            2 
 1149000   0.77879439   -3.3486811    868.23734  0.062970506   0.06310636            9 
 1150000   0.78134456      -3.3276    866.08454  0.062759749  0.063077612            8 
 1151000   0.79359168   -3.3340154    866.98499  0.062770416  0.063048723            5 
 1152000   0.79647121   -3.3397596    869.15429  0.062872851  0.063019758           10 
 1153000    0.7833631   -3.3497623     865.5136  0.062555189  0.062990446            4 
 1154000   0.79088936   -3.3465341    864.42481  0.062422358  0.062960903            3 
 1155000   0.77812026   -3.3243146    868.54857  0.062665842  0.062931604            5 
 1156000     0.801717   -3.3753239    866.74842  0.062481864   0.06290237            2 
 1157000   0.78803164   -3.3632465    867.74016  0.062499291  0.062872905            5 
 1158000   0.79189301   -3.3286993    867.97167   0.06246198  0.062843342            4 
 1159000   0.78631709   -3.3375701    869.41895  0.062512147  0.062813756            3 
 1160000   0.78229508   -3.3322392    868.22887  0.062372764  0.062784289            2 
 1161000   0.78935826   -3.3344973     869.2913  0.062395299  0.062754859            6 
 1162000   0.77001328   -3.3272227     872.8142  0.062594248  0.062725474            3 
 1163000    0.7997869   -3.3317547    871.38783  0.062438222  0.062696141            3 
 1164000   0.78786341   -3.3486765     870.6979  0.062335187  0.062666837           12 
 1165000   0.80749842   -3.3387268    872.02781   0.06237681  0.062637516            3 
 1166000   0.76058991   -3.3453475    871.00312   0.06225008   0.06260819            3 
 1167000   0.79864616   -3.3438789    874.15575  0.062421862  0.062578966            4 
 1168000   0.79264377    -3.343935    875.35328  0.062453859  0.062549673            5 
 1169000   0.77259027   -3.3646787    872.38666  0.062188955  0.062520745            6 
 1170000   0.77895514   -3.3578554     870.4712  0.061999373  0.062491566            5 
 1171000     0.778096   -3.3607856    872.80669  0.062112631  0.062462105            8 
 1172000   0.77744161   -3.3636056    875.59199  0.062257679  0.062432668            2 
 1173000     0.787149   -3.3435358    873.46115  0.062053222  0.062403165            3 
 1174000    0.7994985   -3.3463995    873.36665  0.061993658  0.062373758            6 
 1175000   0.79929025   -3.3303012     876.7029   0.06217751  0.062344455            3 
 1176000   0.78138151   -3.3397916    875.57154  0.062044468  0.062315121            4 
 1177000   0.77192333   -3.3696842     875.9514  0.062018649   0.06228609            3 
 1178000    0.7810661   -3.3725992    874.90219  0.061891779   0.06225679            5 
 1179000   0.79962431   -3.3538134    879.34315  0.062153177  0.062227683            7 
 1180000   0.78043232   -3.3690017    875.64518  0.061839349  0.062198432            4 
 1181000   0.80719968   -3.3273921    877.83239   0.06194132  0.062169431            6 
 1182000    0.7709542   -3.3521964    875.43527  0.061719915   0.06214057            5 
 1183000   0.78081533   -3.3539688    880.72388  0.062040285  0.062111481            4 
 1184000   0.78168907   -3.3377019    883.92551  0.062213225  0.062082669            5 
 1185000   0.79394081    -3.349169    879.58078  0.061855189  0.062053549            4 
 1186000   0.78005638   -3.3600213    880.03858  0.061835201  0.062024177            3 
 1187000   0.77414191   -3.3351421    882.08235   0.06192659   0.06199491            2 
 1188000   0.76936352   -3.3647766    874.58611  0.061348633  0.061965491            5 
 1189000   0.77704639   -3.3752789    880.21923  0.061691844  0.061936279            8 
 1190000   0.78289621   -3.3603706    880.19156  0.061638064  0.061907201            6 
 1191000   0.76641186   -3.3369816    884.60101  0.061894837  0.061878447            6 
 1192000   0.77742732   -3.3593379    881.06621  0.061595792   0.06184929            3 
 1193000   0.79412163    -3.341449    881.19465  0.061553133  0.061820306            4 
 1194000   0.77284738   -3.3895541    882.79164   0.06161304  0.061791017            5 
 1195000   0.78099108   -3.3578854    882.85679  0.061566025  0.061761893            3 
 1196000   0.78599238   -3.3851114    881.19396  0.061398687  0.061732809            3 
 1197000   0.77955037   -3.3547248    884.19019  0.061555987  0.061703803            5 
 1198000   0.77937837   -3.3496956    884.20105  0.061505359  0.061674988            3 
 1199000   0.76974819    -3.377024    882.83946  0.061359429  0.061646333            4 
 1200000   0.77767699   -3.3574487    884.56963  0.061428446  0.061617719            6 
 1201000   0.76845533   -3.3551961    885.82349    0.0614643  0.061588791            6 
 1202000    0.7626117   -3.3887005    882.87112   0.06120848  0.061559832            3 
 1203000   0.78850686   -3.3712029    889.58907  0.061622961  0.061531519            2 
 1204000   0.78005305   -3.3828232    886.16696  0.061334922  0.061502914            3 
 1205000   0.77564499   -3.3760506    884.19199  0.061147441  0.061473961            5 
 1206000   0.77902316   -3.3917439    884.94922  0.061149062  0.061444979            7 
 1207000   0.77251498   -3.3586471    887.67848  0.061286832  0.061416111            4 
 1208000   0.76479964   -3.3845037    885.76263  0.061103934  0.061387204            7 
 1209000   0.76401836   -3.3522758    891.35536  0.061438886  0.061358093            3 
 1210000   0.76807526   -3.3817518    887.28651  0.061107886  0.061329313            4 
 1211000   0.77170989   -3.3950605    886.75422  0.061020797  0.061300395            4 
 1212000   0.76619372   -3.3633409    887.49828  0.061021609  0.061271432            2 
 1213000   0.78125822   -3.3699261     887.3328  0.060959934  0.061242039            7 
 1214000   0.77840612   -3.3884512    889.63979   0.06106808  0.061212914            7 
 1215000   0.76392756   -3.3789914    887.32179  0.060858833  0.061183727            3 
 1216000   0.76084793   -3.3703316    888.90653  0.060917388  0.061154253            4 
 1217000    0.7660375   -3.3953421    886.51725  0.060703728  0.061124804            5 
 1218000   0.79000797   -3.3493256    888.82161   0.06081155  0.061095521            7 
 1219000   0.76569424   -3.3685585     891.4987  0.060944675  0.061066286            8 
 1220000   0.76323971   -3.4200912    888.01381  0.060656681  0.061036677            5 
 1221000   0.76372537   -3.3635217    889.71386  0.060723032  0.061007263            9 
 1222000    0.7685814   -3.3959898    889.12961  0.060633498  0.060977456            7 
 1223000   0.76146832   -3.4051869    890.88695  0.060703663  0.060947735            3 
 1224000    0.7506189   -3.3861747    889.22148  0.060540678  0.060918111            2 
 1225000   0.76788561   -3.3748823    893.68772  0.060795083  0.060888816           12 
 1226000   0.76473966   -3.3678381    891.58849  0.060602806  0.060859662            6 
 1227000   0.77504375   -3.3632648    892.81321  0.060636594  0.060830836            4 
 1228000   0.77599182   -3.3984808    893.43234   0.06062923  0.060801842           11 
 1229000   0.78373351   -3.3739331    895.26439  0.060704122  0.060773162            3 
 1230000   0.74326823   -3.4062616    892.73348  0.060483298  0.060744098            1 
 1231000   0.77124761   -3.3980611    891.30985  0.060337791  0.060715041            6 
 1232000    0.7512555   -3.4120472    893.05108  0.060406593  0.060686235            6 
 1233000   0.75250112   -3.3848749    895.95503  0.060553868  0.060657327            3 
 1234000   0.76367334   -3.4091717    895.76946  0.060492265  0.060628274            5 
 1235000   0.76879392   -3.3965282    897.73589  0.060575971   0.06059938           13 
 1236000   0.74868955   -3.4105817       896.59  0.060449704  0.060570732            8 
 1237000   0.75544816   -3.3987525     896.7426  0.060411115  0.060542249            5 
 1238000   0.76141456    -3.398838    895.43007  0.060273968  0.060513363            6 
 1239000   0.74444922   -3.4108581    895.66495  0.060241119  0.060484256            4 
 1240000   0.76307138   -3.4116561     899.4462  0.060446653  0.060455578            4 
 1241000    0.7553337   -3.3747207    899.03729  0.060370487  0.060427017            7 
 1242000   0.76098679   -3.3934659    897.19156  0.060198038  0.060398569            5 
 1243000   0.74608769   -3.3961484    898.22263  0.060218734  0.060369903            7 
 1244000   0.75398489   -3.3754303    900.14652  0.060299204  0.060341203            5 
 1245000   0.75805999    -3.416148     900.1656  0.060252048  0.060312563            3 
 1246000   0.73648488   -3.4187277     899.7666  0.060177006  0.060283973            8 
 1247000   0.77476378   -3.4047868    898.51247  0.060044939  0.060255292            4 
 1248000   0.74172867   -3.3931714    897.72196  0.059944041   0.06022692            6 
 1249000   0.76132997    -3.385817    901.75449  0.060165098  0.060198357            5 
 1250000   0.74493938   -3.3870377    902.35333  0.060156889  0.060169804            6 
 1251000   0.76189236   -3.3934576    901.78018  0.060070622  0.060141287            2 
 1252000   0.74900229   -3.3823545    902.41281   0.06006475  0.060112796            7 
 1253000   0.77350952   -3.3999816    899.70047  0.059836424  0.060084494            8 
 1254000   0.76207701   -3.4198394    899.02024  0.059743503  0.060055967            4 
 1255000    0.7471874   -3.4148228    902.72487  0.059941891  0.060027159            2 
 1256000   0.75801339   -3.4017554    900.07661  0.059718458  0.059998611            5 
 1257000   0.74162702   -3.4011299    903.78133  0.059916556  0.059969932            6 
 1258000   0.75993977   -3.4035146    903.03367  0.059819401  0.059941575            8 
 1259000   0.75040709   -3.4007556     904.9872  0.059901192  0.059913354            8 
 1260000   0.77890777   -3.4126381    906.37528  0.059945455  0.059884948            4 
 1261000   0.76594335   -3.4145696    906.29648   0.05989271  0.059856806            4 
 1262000   0.75394426   -3.4127871    903.38247  0.059652831  0.059828271            6 
 1263000   0.74803515   -3.3895565    906.65615  0.059821599  0.059799552            6 
 1264000   0.75400721   -3.3990252    906.96044  0.059794333  0.059771211            4 
 1265000   0.74033313   -3.3985712    909.13598  0.059890381  0.059742835            6 
 1266000   0.73606369   -3.4090962    907.64143  0.059744696  0.059714482            7 
 1267000   0.74217613   -3.4128462    906.56511   0.05962675  0.059686064            4 
 1268000   0.74210067   -3.4140385    905.67407  0.059521167  0.059657834            5 
 1269000   0.73614854   -3.4192152    909.43101  0.059720975  0.059629451            4 
 1270000   0.76119004   -3.4160245    906.42949  0.059477001  0.059601083            4 
 1271000   0.72927237    -3.413707    909.69976  0.059644621  0.059572936            9 
 1272000   0.74193045   -3.4150816    907.98386  0.059485316  0.059544822            4 
 1273000   0.76722957   -3.3939304    908.83478   0.05949429  0.059516662            5 
 1274000   0.74386385    -3.407726    907.22915  0.059342566  0.059488488            6 
 1275000   0.75038472   -3.4152937    909.11456  0.059419252   0.05946001            5 
 1276000   0.75331232   -3.4136764    909.87227   0.05942217  0.059431825            5 
 1277000   0.74046106   -3.4467121    910.75934  0.059433525  0.059403644            3 
 1278000   0.74321307   -3.4044131    909.86554  0.059328739   0.05937545            4 
 1279000   0.72964911    -3.407822    911.86014   0.05941231  0.059347287            7 
 1280000   0.75389276   -3.4317532    912.93955  0.059436169  0.059319273           11 
 1281000   0.75181407   -3.4318015    912.77527  0.059379083  0.059291166            4 
 1282000   0.74365842   -3.4301005    910.65824  0.059195154  0.059262961            4 
 1283000   0.74386583   -3.4124158    911.39101   0.05919661   0.05923478            3 
 1284000    0.7567764   -3.4313298    910.77392  0.059110457  0.059206737            5 
 1285000   0.74098095   -3.4113415    913.35962  0.059232141  0.059178647            9 
 1286000   0.73901027   -3.4110473    914.62044  0.059267784  0.059150613            4 
 1287000   0.73967805   -3.4271383     911.2541  0.059003762  0.059122821            3 
 1288000    0.7375415   -3.4238789    914.85561  0.059190968  0.059094786            9 
 1289000   0.74375386    -3.420974     912.8414   0.05901483  0.059066575            5 
 1290000   0.73915073   -3.4359883    911.27273  0.058867747  0.059038459            4 
 1291000   0.73435691   -3.4420174    912.10081  0.058875601  0.059010184            5 
 1292000    0.7523442   -3.4362359    914.68385  0.058996636  0.058982045            6 
 1293000   0.73001915    -3.436293    913.64528  0.058884073  0.058953829            2 
 1294000   0.74349217   -3.3931784    913.81075  0.058849224  0.058925655            4 
 1295000   0.74094194   -3.4180955    917.75897  0.059057849  0.058897279            7 
 1296000   0.73169941   -3.4252231    916.43257  0.058926991   0.05886915            5 
 1297000   0.72524847   -3.4095407    918.41573  0.059008978  0.058841263            6 
 1298000   0.74418704   -3.4356083    918.30848  0.058956631  0.058813479            6 
 1299000   0.73289221   -3.4278617    916.95667  0.058824523   0.05878555            6 
 1300000   0.74474058   -3.4352521    915.88967  0.058710876  0.058757255            9 
 1301000    0.7271747   -3.4387553     917.0411  0.058739502  0.058729041            3 
 1302000   0.73288126   -3.4153707     919.0758  0.058824616  0.058700766           10 
 1303000   0.72543554   -3.4340276    918.14591  0.058719999  0.058672666            4 
 1304000   0.71265692   -3.4378861     918.4945  0.058697245  0.058644968            3 
 1305000   0.72222257   -3.4683854    918.33028   0.05864178  0.058617033            4 
 1306000    0.7346574   -3.4401114    917.88346  0.058568368  0.058589012            3 
 1307000   0.72404411    -3.447694    920.70729  0.058703602  0.058560902            3 
 1308000   0.72647357    -3.424215     921.3426  0.058699197  0.058532934            5 
 1309000    0.7297287   -3.4307414    921.22172  0.058646659   0.05850489            3 
 1310000   0.72778919   -3.4490773    920.20493  0.058537209  0.058476798            4 
 1311000   0.73168821   -3.4458657    919.71657  0.058461516  0.058448842            6 
 1312000   0.73115335   -3.4375241    918.92364  0.058366593  0.058420733            6 
 1313000   0.74283312   -3.4530937    917.27018  0.058217198  0.058392736            6 
 1314000   0.74127417   -3.4296053    922.44716  0.058501215  0.058364742            4 
 1315000   0.72686117   -3.4314244    922.99283  0.058491307  0.058336926            4 
 1316000   0.73350928   -3.4440184    921.75655  0.058368576    0.0583091            4 
 1317000   0.73316938    -3.457231    921.77331  0.058325317  0.058280953           12 
 1318000   0.72919216   -3.4373771    921.06302  0.058236155  0.058252991            3 
 1319000   0.74000551   -3.4579148    925.24365  0.058456131  0.058224914            6 
 1320000   0.73887115   -3.4396481    916.40171  0.057853643   0.05819681            4 
 1321000   0.71865323   -3.4676831    923.31408  0.058245904  0.058168681            4 
 1322000   0.73466966   -3.4243931    923.78362  0.058231444  0.058140474            3 
 1323000   0.73149539   -3.4455575    924.83453  0.058253624  0.058112385            3 
 1324000   0.72906996   -3.4404998    922.64911  0.058072074  0.058084422            4 
 1325000   0.71753131     -3.44808    923.02271  0.058051743    0.0580564            5 
 1326000   0.70505221   -3.4800709    922.92686  0.058001939  0.058028389            3 
 1327000   0.71319129   -3.4427133    922.48485  0.057930473  0.058000602            6 
 1328000   0.72247466   -3.4509402    926.01216  0.058108193  0.057972548            3 
 1329000   0.73524144   -3.4346212    925.54643  0.058035267   0.05794467            8 
 1330000   0.70548975   -3.4764609    922.80162   0.05781965  0.057916805            4 
 1331000   0.71183279   -3.4370571    924.89529  0.057907294  0.057888742            4 
 1332000   0.71377525   -3.4386235    927.29578  0.058014001  0.057860951            4 
 1333000    0.7230677   -3.4455102    925.31833  0.057846857  0.057833459            3 
 1334000   0.73617931   -3.4814777    926.75846  0.057893457  0.057805732            8 
 1335000   0.73197301   -3.4707816    924.61758  0.057716453  0.057777827            4 
 1336000   0.73008105   -3.4400215    926.06379   0.05776346  0.057749964            9 
 1337000   0.73566713   -3.4425342    924.93197  0.057649711   0.05772232            7 
 1338000   0.71088496   -3.4733651     927.8479  0.057788235  0.057694622            5 
 1339000   0.71828948   -3.4651906    928.16947   0.05776509  0.057666803            8 
 1340000   0.70904785   -3.4462858    929.72524  0.057818734  0.057638697            6 
 1341000   0.72142308   -3.4645613    928.61338  0.057706524  0.057610683           17 
 1342000    0.7221267   -3.4545724    928.13218  0.057633643    0.0575825           11 
 1343000   0.70949461   -3.4723605    930.08221  0.057711728  0.057554272           12 
 1344000   0.72611138   -3.4594639    927.65248  0.057518135  0.057525727            7 
 1345000   0.71976536   -3.4624517    926.76418  0.057420334  0.057497491            5 
 1346000   0.72041421   -3.4496582     926.3986  0.057355039  0.057469385            5 
 1347000   0.70145822   -3.4639865    928.38555  0.057435384  0.057441248            2 
 1348000   0.70649951   -3.4751018    925.90514  0.057239437  0.057412731            4 
 1349000   0.72171858   -3.4655506    927.91248  0.057321008  0.057384412            4 
 1350000   0.72008038   -3.4678582    926.39428  0.057184832  0.057355816            5 
 1351000   0.70425622   -3.4451463     931.0869  0.057431958  0.057327575            4 
 1352000   0.71554035   -3.4507782    927.79335  0.057186474  0.057299286            4 
 1353000   0.71722486   -3.4515469      927.482  0.057125031  0.057270898            4 
 1354000   0.70314346   -3.4529768    928.66883  0.057155885  0.057242534            4 
 1355000   0.71428078   -3.4590165    931.74454  0.057302862  0.057214086            5 
 1356000   0.71309406   -3.4605943    932.40982  0.057301488  0.057185622            4 
 1357000   0.72429374   -3.4700811    929.12611   0.05705761  0.057157155            5 
 1358000   0.70754361   -3.4754334    925.97022  0.056821933  0.057128451            4 
 1359000   0.71153045   -3.4730986    931.11661  0.057095696  0.057099707            3 
 1360000   0.71977003   -3.4868953    931.70177  0.057089569  0.057071246           12 
 1361000   0.71554869   -3.4824746    930.55885  0.056977642  0.057042684            7 
 1362000   0.70838545   -3.4763558    929.67474  0.056881714  0.057014183            6 
 1363000   0.71293357   -3.4547638    930.13565  0.056868161  0.056985723            4 
 1364000   0.69943351   -3.4671567    933.13405  0.057009656  0.056957265           10 
 1365000   0.70545631    -3.493022    930.60427  0.056813447  0.056928689            3 
 1366000   0.70260011   -3.4664855    929.88693  0.056728095  0.056900075            6 
 1367000   0.69267929   -3.4662875    929.48054  0.056661823  0.056871577            5 
 1368000   0.70822392   -3.4806488    932.32365  0.056793595  0.056843106            4 
 1369000   0.70721438   -3.4537112    933.06702  0.056797359  0.056814743            8 
 1370000   0.71782912   -3.4904333    930.17637  0.056580071  0.056786316            9 
 1371000   0.69402302   -3.4783112    933.06037    0.0567141  0.056757793            8 
 1372000   0.70400305   -3.4940179    935.23838  0.056805052   0.05672949            5 
 1373000   0.68655697   -3.4837588    931.61768  0.056543923  0.056701203            5 
 1374000   0.69769776   -3.5124899    932.51742   0.05655734  0.056672766            8 
 1375000   0.70416309   -3.4581584     934.1126  0.056612885  0.056644506            4 
 1376000   0.71420375    -3.473671    932.07376  0.056448265  0.056616209            9 
 1377000   0.69728063   -3.4885925    934.96371  0.056582166  0.056588132            4 
 1378000   0.70415071   -3.4859099    935.37638  0.056566061  0.056559536            3 
 1379000   0.71160514   -3.4848249    936.28627  0.056580026  0.056531084           10 
 1380000   0.70410993   -3.4893233    936.36775  0.056543946  0.056502839            4 
 1381000   0.69718086   -3.4889306    934.92621  0.056416015  0.056474225            6 
 1382000   0.70204491   -3.4899176    935.01723  0.056380682   0.05644559            4 
 1383000   0.70382383    -3.493184    935.16651   0.05634891  0.056416981            5 
 1384000   0.71153829   -3.4957324    933.92679   0.05623355  0.056388319            5 
 1385000   0.71124316   -3.4596199    937.77034  0.056424208  0.056359657            3 
 1386000   0.70526404   -3.4740791      935.048  0.056219817   0.05633125            9 
 1387000   0.70403517    -3.491537    934.85788  0.056167861  0.056302409           18 
 1388000     0.705213   -3.5139501    939.19332  0.056387687  0.056273787            5 
 1389000   0.69500238   -3.4828155    939.78658  0.056382684  0.056245368            8 
 1390000   0.71040621   -3.4769855    935.55213  0.056088257  0.056216943            6 
 1391000   0.69320577   -3.4848708    935.25831  0.056030332  0.056188339            5 
 1392000   0.69278291   -3.4843731     935.5303  0.056006364  0.056159547           14 
 1393000   0.69742546   -3.4941903    939.64882   0.05621254  0.056130703           12 
 1394000   0.70956177   -3.4949451    938.68317  0.056114489  0.056102067            6 
 1395000   0.70759859   -3.4970822    936.47321  0.055942246  0.056073238            6 
 1396000   0.69353674   -3.4858315    940.13909  0.056121006  0.056044604            5 
 1397000   0.68515294   -3.5017158    936.63706  0.055871932  0.056015901            6 
 1398000   0.70074093   -3.4891619     938.5914  0.055948462   0.05598699            7 
 1399000   0.70408771   -3.5024683    936.17553  0.055764566  0.055958405            7 
 1400000   0.68948455   -3.5119977    936.69398  0.055755594  0.055929494            3 
 1401000   0.70652266   -3.4993832    937.31632  0.055752815  0.055900531            5 
 1402000   0.69032523   -3.4909207    937.61102  0.055730565  0.055871596           12 
 1403000   0.68753453   -3.5080785    937.77494  0.055700579  0.055842837           15 
 1404000   0.69436543   -3.5033841    939.58913  0.055768586  0.055813703            6 
 1405000   0.70090851   -3.5050684    935.49318  0.055485954  0.055784902            5 
 1406000   0.69028294   -3.5250447    936.46357  0.055504005  0.055756031            6 
 1407000   0.68659972    -3.497309    939.04333   0.05561735  0.055727366            4 
 1408000   0.70144359   -3.4815943      939.971  0.055632753  0.055698697            6 
 1409000   0.68248013   -3.5015003    940.24985  0.055609762  0.055669893            6 
 1410000   0.69240564    -3.517611    937.86446  0.055429341  0.055640795            5 
 1411000     0.682044   -3.5270461    935.60404  0.055256558  0.055611624            6 
 1412000   0.69624301    -3.508742     940.0318  0.055478742  0.055582586            4 
 1413000   0.67745525   -3.5044254    940.27116  0.055453595  0.055553712            4 
 1414000   0.68200894     -3.50252    939.66962  0.055378926  0.055525047            6 
 1415000   0.68475075   -3.5168492     939.6128  0.055336443  0.055496254            5 
 1416000   0.68575686   -3.5139778    942.42279  0.055462735  0.055467337           12 
 1417000   0.67276353   -3.5199966    941.50466  0.055369599  0.055438373            8 
 1418000   0.70187819    -3.500856    941.95886  0.055357244  0.055409646            7 
 1419000   0.68742508   -3.5340127    939.11495  0.055151219  0.055380821            7 
 1420000    0.6940285   -3.5041563    943.67647  0.055380074  0.055352101            8 
 1421000   0.69826721   -3.5147508    940.37516  0.055147499  0.055323661            6 
 1422000   0.68425275   -3.5072884    945.54818  0.055411871  0.055295002            5 
 1423000   0.68258589    -3.508977    943.98919  0.055281634  0.055266654            3 
 1424000   0.67971679   -3.5234202    943.10325  0.055190968   0.05523816            9 
 1425000   0.67949488   -3.5030699    941.27837  0.055045519  0.055209426            5 
 1426000   0.69024375   -3.4986393    940.43059  0.054957375  0.055180669            7 
 1427000   0.67466666   -3.5079248    940.18004   0.05490423  0.055151909           12 
 1428000    0.6751536   -3.5257379    944.59477  0.055123411  0.055123522            5 
 1429000   0.68805283   -3.5047793    942.80718  0.054980591  0.055095115            5 
 1430000   0.67889806   -3.5152393    943.69532    0.0549939  0.055066589           10 
 1431000   0.67058293   -3.5319291    943.77606  0.054960171  0.055037755            7 
 1432000   0.68684449   -3.5220875    947.70081  0.055150187   0.05500901           10 
 1433000   0.67915948   -3.5172918    942.09875  0.054785924  0.054980107            6 
 1434000   0.69079709   -3.5096504     944.8597  0.054908165  0.054951819            3 
 1435000   0.69380917   -3.5325208    942.65103  0.054741639  0.054923436            6 
 1436000   0.67665876   -3.5355365    945.70353   0.05488066  0.054894916            7 
 1437000   0.65615875   -3.5298952    945.92228  0.054855154    0.0548665            7 
 1438000   0.66849918   -3.5359766    943.59541  0.054682163  0.054837985            7 
 1439000   0.67489772   -3.5171606    946.04131  0.054785807  0.054809695            3 
 1440000   0.67407854   -3.5298117    946.67706  0.054784552   0.05478106            7 
 1441000   0.67320042    -3.528115    946.41257  0.054731238  0.054752418            7 
 1442000   0.66433678   -3.5179186    946.89053  0.054720904  0.054723843            6 
 1443000   0.66509234   -3.5268419    946.98819  0.054688622  0.054695314            4 
 1444000   0.68472828   -3.5275138     946.2821  0.054610001  0.054666826            5 
 1445000   0.67550251   -3.5080495    947.59443  0.054647891  0.054638631            5 
 1446000   0.66968975   -3.5259883    948.24808  0.054647769  0.054610312            7 
 1447000   0.68330974   -3.5364019    948.74168  0.054638429  0.054581953           10 
 1448000   0.69073624   -3.5370696    946.80004  0.054488953  0.054553646            5 
 1449000    0.6675741   -3.5208763    948.39915  0.054543315  0.054525237            9 
 1450000   0.65681405    -3.534807    946.39698  0.054390631  0.054496938            6 
 1451000   0.67345268   -3.5381609    951.06488  0.054621231   0.05446881            4 
 1452000   0.67281935   -3.5505625    948.36461  0.054428639  0.054440776            4 
 1453000   0.66791954    -3.556098    948.50362  0.054399152  0.054412401            5 
 1454000   0.66672049   -3.5199859    951.10561  0.054510867  0.054384285            6 
 1455000   0.66989219   -3.5438727    950.22436   0.05442293  0.054356122            6 
 1456000     0.674957   -3.5419544    950.73123  0.054414562  0.054327973            7 
 1457000   0.66044692   -3.5349567    949.36072  0.054298828  0.054299969           15 
 1458000   0.67899699   -3.5644152    945.57294  0.054045092  0.054271614            5 
 1459000   0.67210259   -3.5231465    953.78029  0.054476827  0.054243683            7 
 1460000   0.65874703   -3.5448114    948.17058  0.054119325  0.054215729            8 
 1461000   0.67226986   -3.5445347    950.93125  0.054239747  0.054187762            3 
 1462000    0.6888371   -3.5340253    953.00687  0.054320957  0.054160075            5 
 1463000   0.66007772   -3.5515333    954.65595   0.05437776  0.054132362            6 
 1464000   0.65741842   -3.5474498    952.05106  0.054192341   0.05410435            5 
 1465000   0.66358616   -3.5216715    952.28954  0.054168916  0.054076513            6 
 1466000   0.67134715   -3.5517976    950.74012   0.05404389  0.054048701            3 
 1467000   0.66179608   -3.5387213    951.08299  0.054026528   0.05402081            7 
 1468000   0.66786159   -3.5503855    953.64743  0.054135299  0.053993021            8 
 1469000   0.67445604    -3.529157    952.40085  0.054027731  0.053965014            9 
 1470000   0.67758301   -3.5476499    954.05989  0.054085028  0.053937017            6 
 1471000   0.67856019   -3.5451117    953.18186  0.053998519  0.053909442            6 
 1472000   0.65275137   -3.5552618      953.672  0.053989584  0.053881309            8 
 1473000   0.67602039   -3.5526125    955.32879  0.054046661  0.053853552            9 
 1474000   0.65658195   -3.5592835    954.71963  0.053975556   0.05382574            7 
 1475000   0.66899815   -3.5394691    955.69743  0.053994205  0.053797828            3 
 1476000   0.66581625   -3.5223734    957.02089  0.054032345  0.053770145            9 
 1477000   0.67773892   -3.5457779    953.95913  0.053823016  0.053742183            7 
 1478000   0.66222065   -3.5442066     951.1814  0.053629984   0.05371453            8 
 1479000   0.65133014   -3.5380179    952.48184  0.053666996  0.053686637            4 
 1480000   0.66094664   -3.5770198    953.23636  0.053673219  0.053658671            6 
 1481000    0.6670065    -3.550263    954.95926  0.053733922  0.053630648           14 
 1482000   0.65758047   -3.5591694    952.02504  0.053532672  0.053602571            9 
 1483000   0.67484803   -3.5474993    954.72833  0.053648479  0.053574584            9 
 1484000   0.64898971   -3.5605665    954.66052   0.05360852  0.053546616            6 
 1485000   0.64851788    -3.560756    957.81951  0.053749692  0.053518644            7 
 1486000   0.65624977   -3.5569813    956.09679  0.053616913  0.053491002            6 
 1487000   0.66839113   -3.5478772    956.76263   0.05361817  0.053463296            6 
 1488000   0.65177543   -3.5588382    958.14951  0.053659807  0.053435556            5 
 1489000   0.65632811   -3.5511098    959.47563  0.053697987   0.05340799            5 
 1490000   0.65358183   -3.5586117    956.33817  0.053486475  0.053380404            7 
 1491000    0.6561122   -3.5594392    956.07241  0.053435748  0.053352937            5 
 1492000   0.66446653   -3.5579864    958.68343  0.053545768  0.053325328            5 
 1493000   0.64901475   -3.5623569    958.08868  0.053476707  0.053297631            6 
 1494000   0.65578142   -3.5491492    961.13918  0.053611065  0.053269887            4 
 1495000   0.65218718   -3.5651479    956.78855  0.053332695  0.053242076            4 
 1496000   0.65321859   -3.5584929    957.32064  0.053326684  0.053214151            5 
 1497000   0.65762852    -3.573704    958.03512  0.053330835   0.05318645            8 
 1498000   0.65736859   -3.5632894    957.06518  0.053241276  0.053158561            7 
 1499000   0.67472836   -3.5681404    956.88831  0.053195926   0.05313095            6 
 1500000   0.66423844   -3.5576842    961.53557  0.053418643  0.053103311            5 
 1501000    0.6334952   -3.5572055    958.96998  0.053240616  0.053075721            9 
 1502000   0.63649881   -3.5767946    960.58314  0.053294671  0.053048088            6 
 1503000      0.63336   -3.5668394    959.30988  0.053188616  0.053020224           20 
 1504000   0.64182364   -3.5757166    957.97235  0.053079142  0.052992554            7 
 1505000   0.64610242   -3.5969063    957.29149  0.053006173  0.052964755           18 
 1506000   0.66474488   -3.5634094    960.50583  0.053148839  0.052936899            9 
 1507000   0.66467688   -3.5512663    963.79787  0.053295613  0.052909471            6 
 1508000   0.66901522   -3.5734843      960.406  0.053072834  0.052881926            9 
 1509000   0.65622015   -3.5561344    958.96678  0.052958183  0.052854465            6 
 1510000   0.65269629   -3.5831438     962.0548  0.053093532  0.052826608            5 
 1511000   0.63254889   -3.5739994    960.51697  0.052973581  0.052799063           11 
 1512000   0.64383473    -3.573048    960.22539  0.052922475  0.052771514            8 
 1513000   0.64998358   -3.5788068     960.8369  0.052921178  0.052743853            5 
 1514000   0.65446324   -3.5443758     962.9839  0.053004398  0.052716493            6 
 1515000   0.65526727    -3.576822    961.32593  0.052878214  0.052689086            9 
 1516000    0.6420242   -3.5700197    962.55208  0.052910734  0.052661701            5 
 1517000   0.64369335   -3.5699885    963.21547  0.052912298  0.052634143            4 
 1518000   0.63740086   -3.5477724    962.53346  0.052840001  0.052606766            6 
 1519000   0.64799728   -3.5828223    960.81851  0.052711132  0.052579549            3 
 1520000   0.65371493   -3.5700816    964.74505  0.052891724  0.052552195            6 
 1521000   0.64996581   -3.5751367    964.57916  0.052847861  0.052525128            8 
 1522000   0.63948576   -3.5863116    962.93791  0.052723276  0.052497941            9 
 1523000   0.64449475   -3.5818263     964.3234  0.052764467  0.052470525            6 
 1524000   0.64669041   -3.5767888    966.91611  0.052871616  0.052443148            5 
 1525000   0.64962692   -3.5832818    963.29293  0.052638958  0.052415865            8 
 1526000   0.65358061    -3.591229    963.43176  0.052612044  0.052388504           13 
 1527000    0.6460856   -3.5898642    962.48096  0.052525702  0.052361069            7 
 1528000   0.63718435   -3.5587037    964.20424   0.05258531  0.052333684            5 
 1529000   0.63377228   -3.5864333    963.91115  0.052534944  0.052306378           16 
 1530000   0.64049107   -3.5687305    968.02003  0.052724402  0.052279106           10 
 1531000   0.65463797   -3.5875014    966.81923  0.052624605  0.052251971            7 
 1532000   0.64701668   -3.6025241    966.09676  0.052550955  0.052224713            4 
 1533000   0.64971467   -3.5784867    966.51756   0.05253955  0.052197451            5 
 1534000   0.63985732   -3.5853329    963.68187  0.052351253  0.052170206            8 
 1535000   0.63967935   -3.5908499    964.60244  0.052367125  0.052143135            7 
 1536000   0.63959827   -3.5870115    964.63595   0.05233485  0.052115851            7 
 1537000   0.64232325   -3.5807736    966.72777  0.052414215  0.052088844            5 
 1538000   0.63503284   -3.5657868    967.56373   0.05242543  0.052061827            9 
 1539000   0.63030355   -3.5988304    967.32688   0.05237854   0.05203488            4 
 1540000   0.63000159   -3.5709857    968.90194  0.052429758  0.052007936            5 
 1541000    0.6406105   -3.5864136    969.94233  0.052451997  0.051981101            8 
 1542000   0.63843978   -3.5998026    970.73923  0.052461048  0.051954283           18 
 1543000   0.61975495   -3.5904282    968.72093  0.052318045  0.051927381            9 
 1544000   0.64701979   -3.5779738    968.24951  0.052258717  0.051900563            5 
 1545000    0.6420477   -3.5817216    968.92675  0.052261421  0.051873385            4 
 1546000   0.63545733   -3.6051208    968.84874  0.052223412  0.051846271            6 
 1547000   0.62665495   -3.6185808    968.25959  0.052157918  0.051819246            6 
 1548000   0.62613048   -3.6047392    971.63353  0.052305853  0.051792336           12 
 1549000   0.62815248   -3.5887079    968.25642  0.052090404  0.051765481            4 
 1550000   0.62394523   -3.5798014    968.95615  0.052094417  0.051738553            8 
 1551000   0.63450049    -3.591261    969.40453   0.05208492  0.051711687            5 
 1552000    0.6465156   -3.6062784    970.22558  0.052095446  0.051684866            5 
 1553000    0.6398184   -3.5941406    967.78746  0.051931072  0.051658127            8 
 1554000   0.64980272   -3.6003993    970.16567  0.052025186   0.05163124            9 
 1555000   0.63781048   -3.5942423    968.91268  0.051924581  0.051604345           22 
 1556000   0.63639061   -3.5951435    967.78489   0.05183081  0.051577389            4 
 1557000   0.63940307   -3.5989412    971.64509  0.052004126  0.051550584            5 
 1558000   0.63545081   -3.5968287    972.50714  0.052016856  0.051523662            3 
 1559000   0.63733236   -3.5987625    971.62265  0.051936212  0.051497053           12 
 1560000   0.62373466   -3.6241674     971.8701  0.051916138  0.051470269            7 
 1561000   0.63539168   -3.6104651    972.11032  0.051895704  0.051443662            5 
 1562000   0.63553732   -3.6254817    969.23078  0.051708855  0.051416652            7 
 1563000   0.63165052   -3.6063808    969.98029  0.051715733  0.051389551           14 
 1564000   0.61603592   -3.6377091    967.53559  0.051552408  0.051362267            7 
 1565000      0.63444   -3.6281897    968.51218  0.051571469  0.051335108           10 
 1566000    0.6302786   -3.5960359    973.43479  0.051800489  0.051308417           10 
 1567000   0.61707413   -3.6183362     970.5967  0.051616502  0.051281654            5 
 1568000   0.62450451    -3.613822    969.44525  0.051522388  0.051254716            4 
 1569000   0.64412968   -3.6156539    973.33564  0.051696178  0.051227804            7 
 1570000   0.62494094   -3.6251602    966.59671  0.051305558  0.051200857            9 
 1571000   0.62740048   -3.6084484    972.06549   0.05156299   0.05117392            7 
 1572000   0.62023996   -3.6154924    969.41234  0.051389543  0.051147032           10 
 1573000   0.62291458   -3.6212742     972.8846  0.051540824  0.051119898           15 
 1574000   0.62812299   -3.6110621     972.3879  0.051481782  0.051092701            7 
 1575000   0.63101113   -3.6170173    972.84182  0.051473112  0.051065962            9 
 1576000   0.62798645   -3.5911754    973.39954  0.051469942  0.051039395            6 
 1577000   0.62258619   -3.6131676    972.80705  0.051405995    0.0510126           11 
 1578000   0.63103208   -3.6309838    973.23931  0.051396246  0.050985906           13 
 1579000   0.60956476   -3.6246785    972.42465  0.051320701  0.050959088           13 
 1580000   0.62921667   -3.6088705    974.18142  0.051380877   0.05093226            7 
 1581000   0.62046258    -3.613895    973.23103  0.051298283  0.050905464            9 
 1582000   0.61875765   -3.6242931    974.77511  0.051347193  0.050878544            4 
 1583000   0.60608599   -3.6049447    973.50268  0.051247772  0.050851731            5 
 1584000   0.62357686   -3.6068676    975.45379  0.051318065  0.050824987            9 
 1585000   0.61836051   -3.6123836    976.71682  0.051352094  0.050798427           10 
 1586000   0.62692645   -3.6161543    975.15181  0.051237485  0.050771756           14 
 1587000   0.62380149   -3.6312809    972.80374  0.051081902  0.050744914            8 
 1588000   0.62082092   -3.6409057    975.67163  0.051200232  0.050718221           11 
 1589000   0.61200273   -3.6216765    974.32725  0.051097506  0.050691396           11 
 1590000   0.61098127   -3.6430967    973.05462   0.05099867  0.050664613            7 
 1591000   0.60024996   -3.6276305    974.60781  0.051047968  0.050637633           15 
 1592000   0.60713385   -3.6361554    974.62682  0.051016898  0.050610865            8 
 1593000   0.62496116   -3.6334585    974.45164  0.050975708  0.050583948           17 
 1594000   0.61772783   -3.6425446    972.91801  0.050863551  0.050556994           15 
 1595000   0.60951514   -3.6352303    974.24144  0.050900806  0.050529991           10 
 1596000   0.61375348     -3.62271    970.96088  0.050697623  0.050503125            8 
 1597000   0.61045376   -3.6210297    974.74316  0.050863242  0.050476385            5 
 1598000   0.61508038   -3.6630539    972.35776  0.050707017  0.050449456            5 
 1599000   0.62494218   -3.6388822    976.40475  0.050886218  0.050422526            9 
 1600000   0.62540062   -3.6258276    974.70519  0.050765896  0.050395856            8 
 1601000   0.59498896   -3.6221813    979.55925  0.050986844  0.050369212            7 
 1602000   0.60511156   -3.6287572    977.11821  0.050828038  0.050342541           11 
 1603000   0.60944152   -3.6371751    974.15439  0.050642253  0.050315651            8 
 1604000   0.62144871    -3.641222    974.44469  0.050625763  0.050288842            8 
 1605000   0.61259348   -3.6462264    972.44623  0.050490458  0.050262242           13 
 1606000   0.62756996   -3.6288511      975.243  0.050604141   0.05023526            7 
 1607000   0.60058229   -3.6376726    978.18864  0.050725401  0.050208608            8 
 1608000   0.61716048   -3.6527861    974.93238  0.050525103  0.050181765            8 
 1609000   0.60338379   -3.6188648     977.9725  0.050651155  0.050155159            9 
 1610000   0.61372194   -3.6425009    976.64703  0.050551088  0.050128382            6 
 1611000   0.61382131   -3.6463347    977.26722  0.050551791  0.050101525            6 
 1612000   0.61232884     -3.65394    976.57931  0.050484869  0.050074647            3 
 1613000   0.60680673   -3.6250685     977.8775  0.050520639  0.050047926           17 
 1614000   0.59506298   -3.6288192    977.71337  0.050480864  0.050021325            9 
 1615000    0.6034516   -3.6391179    974.61611  0.050289789  0.049994441           12 
 1616000   0.60378407    -3.638971    974.62876  0.050259321  0.049967499            7 
 1617000   0.60043689   -3.6404966    977.55692  0.050379144   0.04994082            8 
 1618000   0.61187086   -3.6299096    977.02169  0.050320441  0.049914077            5 
 1619000   0.61423861   -3.6546027    977.46387   0.05031212  0.049887193           12 
 1620000   0.60231504   -3.6445046    977.54703  0.050285341  0.049860452           10 
 1621000   0.59444904   -3.6399956    977.59234  0.050256649  0.049833669           11 
 1622000    0.6054293   -3.6392143    981.54392  0.050428684  0.049807166           11 
 1623000   0.62523454   -3.6501559    980.01201  0.050318957  0.049780529            6 
 1624000   0.61148596   -3.6491397    978.57193  0.050214077  0.049753967           11 
 1625000   0.60555649    -3.676843    975.81724   0.05004191  0.049727177           20 
 1626000   0.60353332   -3.6316157    979.09423  0.050179081  0.049700317            7 
 1627000    0.5900801   -3.6345648    979.13825  0.050150494    0.0496736           15 
 1628000   0.60302433   -3.6472699    979.85778   0.05015652  0.049647066            8 
 1629000   0.59295931   -3.6511273    975.54189  0.049904946  0.049620477           15 
 1630000   0.59241023   -3.6484507    982.29461  0.050219561  0.049593864           10 
 1631000   0.60206496   -3.6486864    978.41715  0.049990657  0.049567385            8 
 1632000   0.59079842    -3.647625    978.38149  0.049958205  0.049541099            5 
 1633000   0.59954906   -3.6353593    980.28248  0.050024621  0.049514582            7 
 1634000   0.58842296   -3.6469199    978.63127  0.049909796  0.049488001           16 
 1635000   0.60381532   -3.6555381    978.32067  0.049863439  0.049461442            7 
 1636000   0.62216044   -3.6673724    978.94125   0.04986457  0.049434845           14 
 1637000   0.60176491   -3.6584521    975.48213  0.049658019  0.049408134           10 
 1638000   0.60274676   -3.6557698    980.67814   0.04989205  0.049381362            5 
 1639000    0.6181323   -3.6623036    980.95276  0.049875572  0.049354729            8 
 1640000   0.61992492   -3.6443922    979.65229   0.04977908  0.049328164           10 
 1641000   0.60610486   -3.6622798    977.24399  0.049626447  0.049301703            4 
 1642000   0.59654046   -3.6727756    978.41591    0.0496557  0.049274986            8 
 1643000   0.61989714   -3.6528467    979.79977  0.049695667  0.049248443            8 
 1644000   0.59769818   -3.6766142    980.35485  0.049693575  0.049221861           19 
 1645000   0.58828371   -3.6637022    979.88095  0.049639359  0.049195259            4 
 1646000   0.59129087   -3.6735756    979.29019  0.049579293  0.049168549            9 
 1647000   0.58880645   -3.6654259    979.56445  0.049563066   0.04914185            4 
 1648000   0.59555962   -3.6471143    978.95417  0.049502133  0.049115087            6 
 1649000   0.58137616   -3.6499563    980.03797  0.049526883  0.049088303            7 
 1650000   0.60436981     -3.65645    979.02657  0.049445787  0.049061451           11 
 1651000   0.58825319   -3.6630349    978.96295  0.049412626  0.049034707            9 
 1652000   0.61456918   -3.6553301     978.6705  0.049367963   0.04900787            8 
 1653000   0.58789108   -3.6762579    979.12161  0.049360839  0.048981057           15 
 1654000    0.5912443     -3.67249    978.64988  0.049307229  0.048954021            8 
 1655000   0.58501034   -3.6823052    978.38281  0.049263989  0.048927215            7 
 1656000   0.58363668   -3.6855409     979.6416  0.049297585  0.048900433           12 
 1657000   0.59872704   -3.6844478    980.44917  0.049308447  0.048873582            8 
 1658000   0.59563031   -3.6758568    979.48059  0.049230026  0.048846801           12 
 1659000   0.58555825   -3.6987079    978.86317  0.049169338  0.048819868            3 
 1660000   0.59574809   -3.6792576    979.58936  0.049176173  0.048793001            9 
 1661000   0.58713754   -3.6690183    977.55912  0.049044708  0.048766149            5 
 1662000   0.58937178     -3.67042    980.79026  0.049177209   0.04873936           15 
 1663000   0.59188463   -3.6746977    978.11622  0.049013641  0.048712656           12 
 1664000   0.58038511   -3.6766136    980.94591  0.049125897  0.048685877           13 
 1665000   0.57480228   -3.6772869    981.88603  0.049143445  0.048659037            5 
 1666000   0.59324199   -3.6879246      978.306  0.048934874  0.048632164            8 
 1667000   0.59084745   -3.6648865    978.67604  0.048924017    0.0486052            6 
 1668000   0.59707897   -3.6879005    977.61969  0.048841911  0.048578327            7 
 1669000   0.59161872   -3.6883755    981.51548  0.049007164  0.048551255            4 
 1670000   0.57689285   -3.6631783     979.2627  0.048865404  0.048524502           16 
 1671000   0.57928688   -3.6893718    980.38271  0.048892016  0.048497617            6 
 1672000   0.59345587   -3.7045588     977.9912  0.048743581  0.048470594            8 
 1673000   0.59053611   -3.6772362    979.26716  0.048778002  0.048443606            6 
 1674000   0.59150547   -3.6817832     977.9643  0.048684005  0.048416752            8 
 1675000   0.57277778   -3.6804438    981.04842  0.048808379  0.048389779           10 
 1676000   0.57742398   -3.6785757     980.4243  0.048748225  0.048362936            5 
 1677000   0.58390281   -3.6929065    980.33745  0.048714841  0.048336181           14 
 1678000   0.58499362   -3.6976634     979.8223  0.048660225  0.048309542           11 
 1679000   0.57641472   -3.6753124    980.48031  0.048663902  0.048282791            8 
 1680000   0.59396107   -3.6857131    980.82983  0.048652273  0.048256154           15 
 1681000   0.57725432   -3.7012012    983.24526  0.048743072  0.048229452            9 
 1682000   0.57580972    -3.712414    979.68154  0.048537532  0.048202695            6 
 1683000   0.58130122   -3.6883508    980.47949  0.048548202  0.048175779            5 
 1684000   0.58505219   -3.6730421    980.22718  0.048506887  0.048148953           15 
 1685000   0.57146727   -3.6968537     980.7275  0.048502844  0.048122053            9 
 1686000    0.5763852   -3.7109152    979.65097  0.048420867  0.048095217            6 
 1687000    0.5777742   -3.6929461    977.45607  0.048283742   0.04806833            7 
 1688000   0.58615174   -3.6859882    979.06192  0.048334415  0.048041386           14 
 1689000   0.57975743   -3.7013524    977.09815  0.048208908  0.048014494            9 
 1690000    0.5720652   -3.6960338    979.79641  0.048313433  0.047987683           14 
 1691000   0.57531735   -3.7011053    983.07916  0.048446637  0.047960735            9 
 1692000    0.5695217   -3.7014326    980.07028  0.048269813  0.047933946            9 
 1693000   0.58506216   -3.7072369    982.82364  0.048376828  0.047907163            7 
 1694000   0.56062807   -3.6952122    980.98305  0.048257726  0.047880287           12 
 1695000   0.57330661   -3.7139987    981.39208  0.048249365  0.047853556            4 
 1696000   0.57712884   -3.7066639    979.75353  0.048140406  0.047826852            6 
 1697000    0.5707016   -3.6935203    981.46548  0.048196105  0.047800199            8 
 1698000   0.56944901    -3.696533    981.19959  0.048154672  0.047773492           13 
 1699000   0.58152247   -3.7179693    978.86623  0.048011881  0.047746698           18 
 1700000   0.57069845   -3.7122157     981.7966  0.048127284   0.04771972           16 
 1701000   0.56288671   -3.7009383    981.91883  0.048104979  0.047692929            9 
 1702000   0.56898315   -3.7046772    981.69102  0.048065561  0.047666321            7 
 1703000   0.57847763   -3.7048672    981.71179  0.048038354  0.047639687           18 
 1704000   0.56516101   -3.7062686    982.20889  0.048034472  0.047612874            9 
 1705000   0.58385596    -3.703353     982.1598    0.0480039   0.04758618           22 
 1706000    0.5712599    -3.699095    983.15418  0.048024335  0.047559533           14 
 1707000   0.57578523   -3.7052965    985.48893   0.04811018  0.047532966            4 
 1708000   0.56630461   -3.7078248    982.10223  0.047916776  0.047506482           11 
 1709000   0.56497224   -3.7147799    983.12401  0.047938561  0.047479787           15 
 1710000   0.56699905   -3.7080414    983.35247   0.04792166  0.047453106           15 
 1711000   0.57120549   -3.7197339    984.08608  0.047929382  0.047426606           10 
 1712000   0.56354705   -3.6932584     981.1592  0.047758917  0.047399789            8 
 1713000   0.57107399   -3.7068561    980.50605  0.047699263  0.047373137           11 
 1714000   0.56064245   -3.7130454     980.3001  0.047661421  0.047346521            8 
 1715000   0.56488963   -3.7158227    981.34314  0.047684312  0.047319886           29 
 1716000   0.57748204   -3.6961014    982.57468   0.04771633  0.047293304           13 
 1717000   0.57267432   -3.7180032    981.35749  0.047629464  0.047266737            6 
 1718000   0.56739653   -3.7223337    981.83476  0.047624891  0.047240063            9 
 1719000   0.56790898   -3.7128357    982.33172  0.047621278  0.047213421           12 
 1720000    0.5596007    -3.710556    982.61519  0.047607325  0.047186931           14 
 1721000   0.55865431   -3.7331385    982.52451  0.047575272  0.047160248           19 
 1722000   0.57396923   -3.7188487    984.17365  0.047627451  0.047133714            6 
 1723000   0.56952257   -3.7260626    983.50862  0.047567645  0.047107091            9 
 1724000   0.56912386   -3.7256932     985.8018  0.047650899  0.047080461            7 
 1725000   0.55407472   -3.7211209    984.29362  0.047550416  0.047053959           10 
 1726000   0.57618073   -3.7062594     985.9175   0.04760127   0.04702753           17 
 1727000   0.57256155   -3.7270579    984.07618  0.047484857   0.04700102           11 
 1728000   0.57351755   -3.7170965    982.19421  0.047366619  0.046974436           16 
 1729000   0.56021932    -3.714872    983.39642  0.047397167  0.046947783           12 
 1730000   0.57199382   -3.7300638    983.08074  0.047354564  0.046921131           11 
 1731000   0.55700165   -3.7454414    984.07445  0.047375046  0.046894443           13 
 1732000   0.56405304   -3.7348131    981.23944   0.04721129  0.046867821           16 
 1733000   0.56266493   -3.7065591    984.40719  0.047336372  0.046841272           12 
 1734000   0.55255941   -3.7256275    984.88622  0.047332094   0.04681494            8 
 1735000   0.54609569   -3.7139397    985.67707  0.047342799  0.046788346           11 
 1736000   0.55744943   -3.7277797     983.4376  0.047208026  0.046761827            7 
 1737000   0.54805724    -3.727211    986.05141  0.047306247  0.046735382           11 
 1738000   0.57000578    -3.745977    983.67029  0.047164859   0.04670891            7 
 1739000   0.54140377    -3.734893    983.14273  0.047112456  0.046682327           15 
 1740000     0.564959   -3.7223022    985.07427  0.047177886   0.04665585           14 
 1741000   0.57077569   -3.7285761    981.05755  0.046958527  0.046629349            8 
 1742000   0.56249041   -3.7480336    984.49436   0.04709598  0.046602736            9 
 1743000   0.56819689   -3.7276954    982.65732   0.04698113  0.046576204            8 
 1744000   0.55368954   -3.7537408     982.2754  0.046935942  0.046549811           14 
 1745000   0.55017408   -3.7405295    986.49239  0.047110429  0.046523336           13 
 1746000   0.54815255   -3.7536699    983.88564  0.046959032  0.046496914           10 
 1747000   0.55705512   -3.7355148    984.14494  0.046944521  0.046470555            9 
 1748000   0.56570918   -3.7372394    985.32159   0.04697376  0.046444207           11 
 1749000   0.56062484   -3.7199963    985.10878  0.046936763  0.046417866            7 
 1750000   0.55290296   -3.7249204    984.74072  0.046892415  0.046391668           18 
 1751000   0.55132536   -3.7395773    985.15753  0.046885472   0.04636522           11 
 1752000    0.5575219   -3.7314327    987.08117  0.046950208  0.046338915           13 
 1753000   0.55693071   -3.7506543    983.33532  0.046745357  0.046312656           10 
 1754000   0.55177125   -3.7475095    986.26242  0.046857774   0.04628623           19 
 1755000   0.54847599   -3.7500426    987.44689  0.046887317  0.046260137            5 
 1756000   0.54869883   -3.7398413    986.23533  0.046803119  0.046233932           19 
 1757000    0.5492156   -3.7533625    984.86185  0.046711338  0.046207705           11 
 1758000   0.54600897   -3.7653755    983.92917  0.046640556  0.046181435           16 
 1759000   0.55424364   -3.7493429    988.02091  0.046807888  0.046155264           13 
 1760000   0.54607828   -3.7585826    985.29579  0.046652263  0.046129022           28 
 1761000    0.5478261   -3.7568354    984.96794  0.046610257  0.046102721           10 
 1762000   0.55995086   -3.7431844     982.6279  0.046473132  0.046076454            7 
 1763000    0.5549147   -3.7473785    983.51624  0.046488762  0.046050182            8 
 1764000   0.55374403    -3.743261    986.91112  0.046622785  0.046024021            8 
 1765000   0.56040457   -3.7464385    985.71248  0.046539777  0.045997939           13 
 1766000   0.53939196     -3.74955    986.96524  0.046572539  0.045971861            9 
 1767000     0.553086   -3.7624648    984.14904  0.046413367   0.04594563           16 
 1768000    0.5551395   -3.7454892     984.0469  0.046382301  0.045919252           12 
 1769000      0.55094   -3.7384416    986.05542  0.046450698  0.045892963           16 
 1770000     0.546184   -3.7608722    985.97113  0.046420486  0.045866745           10 
 1771000   0.54055903   -3.7519909    989.74052  0.046571641  0.045840546           24 
 1772000    0.5396118   -3.7741246    985.41633  0.046342002   0.04581439           20 
 1773000   0.54454193   -3.7635274    986.55319  0.046369298  0.045788348           10 
 1774000   0.55213933   -3.7524051    988.92427  0.046454541  0.045762372            6 
 1775000   0.54225562   -3.7719205    988.28062  0.046398151  0.045736355           12 
 1776000   0.54842031   -3.7592044    989.04746  0.046408008  0.045710376            8 
 1777000   0.55076577   -3.7492513    985.66666  0.046223347  0.045684334            7 
 1778000   0.54920946   -3.7606136    987.50195  0.046283369  0.045658184           37 
 1779000   0.53703188   -3.7612198    987.29686  0.046247745  0.045632103            8 
 1780000   0.53576637   -3.7373443    987.72032  0.046241588  0.045606062           24 
 1781000   0.53911319   -3.7697327    987.91247  0.046224615  0.045579961            7 
 1782000   0.53785959   -3.7512504    988.49745  0.046226031  0.045553997           18 
 1783000    0.5317886   -3.7580216    985.74977  0.046071685  0.045528071            8 
 1784000   0.54393833   -3.7535835    984.90148  0.046006235  0.045502007           10 
 1785000   0.53411674    -3.753466    986.59329  0.046059444  0.045475982           28 
 1786000   0.53250677   -3.7610726    986.04072  0.046007872  0.045449956           20 
 1787000   0.54424815   -3.7701637    987.70009  0.046059508  0.045423876           12 
 1788000   0.53663153   -3.7666079    988.74896  0.046082632  0.045397762           20 
 1789000   0.52946324   -3.7642268    986.52997  0.045953511  0.045371844           16 
 1790000   0.54289944   -3.7760977     985.8075  0.045894204  0.045345841           19 
 1791000   0.55484616   -3.7749256    988.96263  0.046015384  0.045319829            8 
 1792000   0.53297533   -3.7623444    987.62246  0.045927384  0.045293888            9 
 1793000   0.54896143   -3.7762364    985.67956  0.045811468  0.045267976           14 
 1794000   0.53846091   -3.7678495    987.80652  0.045884732  0.045242099           13 
 1795000    0.5398235   -3.7940174    988.31285  0.045882677  0.045216207           11 
 1796000   0.53157045    -3.786065    987.24633  0.045807643  0.045190196           17 
 1797000   0.54053203   -3.7760247    988.37029  0.045834274  0.045164274           25 
 1798000   0.52622433   -3.7841357    986.96654  0.045743722  0.045138377           17 
 1799000   0.52912615   -3.7853645    988.31944  0.045780963  0.045112357           19 
 1800000   0.52937581   -3.7667279    986.53346  0.045672845  0.045086422            7 
 1801000   0.54734339   -3.7675232     987.8392  0.045707903  0.045060582            7 
 1802000   0.53147411   -3.7717865    985.58839  0.045578449  0.045034756           18 
 1803000   0.52942797   -3.7769455      988.231   0.04567531  0.045008855           17 
 1804000   0.53156421   -3.7782789    988.91078  0.045681392  0.044983044           13 
 1805000   0.52448009    -3.767431    988.63428  0.045643319   0.04495722           17 
 1806000   0.53549963   -3.7927287    988.81381   0.04562633   0.04493144           11 
 1807000   0.53546924   -3.7739337    990.34774   0.04567182  0.044905633           17 
 1808000   0.53282102   -3.7904448    984.47607  0.045375925  0.044879736           21 
 1809000   0.52422595   -3.7792376    988.22317  0.045523455   0.04485386            5 
 1810000   0.52137037   -3.7799165    989.53683  0.045558786  0.044828169           11 
 1811000   0.53188991    -3.797677    987.25852  0.045428793  0.044802467            9 
 1812000    0.5373391   -3.7946221    990.39395  0.045547919  0.044776699            9 
 1813000   0.52494168   -3.7999668    988.49742  0.045435623  0.044751065            8 
 1814000   0.53303667   -3.7695518    989.01599  0.045434399  0.044725437           14 
 1815000   0.53979544   -3.7781724    990.05482  0.045457062  0.044699952            4 
 1816000     0.538281   -3.7901167    991.26184  0.045487419  0.044674452           12 
 1817000   0.53162926   -3.7838188     988.2084  0.045322344  0.044648765            9 
 1818000    0.5284709    -3.794997     988.5925  0.045315021  0.044623115           20 
 1819000   0.53325836    -3.782903    988.32343  0.045277782  0.044597575            7 
 1820000   0.52467613   -3.7615462    988.91644  0.045280057  0.044572097            6 
 1821000   0.52899429    -3.791609    987.08463  0.045171363  0.044546519           14 
 1822000   0.52508685   -3.7899085    989.22332  0.045244389  0.044521031            9 
 1823000   0.51885393   -3.7941986    989.34481  0.045225124   0.04449534           21 
 1824000   0.52875053   -3.7911961     988.8338  0.045176983  0.044469759           19 
 1825000   0.52926897   -3.7838074    987.93189  0.045111045  0.044444186           19 
 1826000    0.5226977   -3.7729969    988.50553  0.045112519  0.044418679           15 
 1827000   0.52382261   -3.7848918    988.75675  0.045099286  0.044393054           27 
 1828000   0.51853276   -3.7888244    992.20521   0.04523182  0.044367447            6 
 1829000   0.51693396   -3.8106652    991.24547  0.045163362  0.044341801            9 
 1830000   0.51683926    -3.801438    989.05565  0.045038964  0.044316154           12 
 1831000   0.51980939   -3.8235341    990.10847  0.045062282  0.044290566           12 
 1832000   0.52209432   -3.8257163    988.42069  0.044960912  0.044264941            6 
 1833000   0.51228929   -3.8020682    988.72635   0.04495028  0.044239382           13 
 1834000   0.51024689   -3.8013671    992.93165  0.045116851  0.044213918           18 
 1835000   0.51682629   -3.8008861    989.75635  0.044948063  0.044188464           13 
 1836000   0.51775119   -3.8022081    989.03278   0.04489074   0.04416301            8 
 1837000   0.51834522   -3.8090342    988.95924  0.044862967  0.044137607           22 
 1838000   0.53294009   -3.7964495    989.68898  0.044871644  0.044112136           16 
 1839000   0.52331531   -3.8105162    988.35229  0.044786673  0.044086726           12 
 1840000    0.5214355   -3.8111795    989.95231  0.044834797  0.044061357           65 
 1841000   0.51784925   -3.8125025    989.40159  0.044785515  0.044035963           17 
 1842000   0.51883051   -3.7944595     989.4628   0.04476397  0.044010537           13 
 1843000   0.51817392   -3.8168616    986.65752  0.044612838  0.043985109           21 
 1844000   0.50980129   -3.7802377    991.04226  0.044786798  0.043959803           19 
 1845000    0.5153681    -3.810607    991.50205  0.044783291   0.04393442           13 
 1846000   0.51087785    -3.803483    990.61082  0.044718798  0.043908968           12 
 1847000   0.51383407   -3.8316494    989.87562  0.044661416  0.043883521           20 
 1848000   0.50750301   -3.8223885    989.72688  0.044630541  0.043858058            9 
 1849000    0.5029346   -3.8264547     988.4171  0.044547373  0.043832568            7 
 1850000   0.51450409   -3.8185421    993.35282  0.044745623  0.043807177           10 
 1851000   0.50464613   -3.8249726    990.59229  0.044597168  0.043781868           21 
 1852000   0.51466035   -3.8110727    989.91726  0.044542713  0.043756573           20 
 1853000   0.50288237   -3.7980509    991.32128  0.044581817  0.043731313            9 
 1854000   0.50188273   -3.8038906    991.42584   0.04456247  0.043706166           25 
 1855000   0.50997623   -3.8103955    989.96336  0.044472748  0.043681028           26 
 1856000   0.49957429   -3.8085188    991.11696  0.044500582    0.0436558           12 
 1857000   0.51534586   -3.8050033    991.93108  0.044513152  0.043630565           10 
 1858000   0.49961522   -3.8272029    990.47751     0.044424  0.043605326            9 
 1859000   0.50228641   -3.8431126    990.49455  0.044400867  0.043580177            7 
 1860000   0.51648441    -3.843695     990.8089   0.04439108  0.043554939           12 
 1861000    0.5022708   -3.8134468    991.56649   0.04440115  0.043529731           17 
 1862000   0.50872537    -3.841941    989.08394  0.044266199  0.043504523           13 
 1863000   0.50990405   -3.8209898    988.65199  0.044223116  0.043479393            9 
 1864000   0.51214397   -3.8261126    989.72373  0.044247306  0.043454211           13 
 1865000   0.51147558     -3.82706    989.06771  0.044194268  0.043428989           18 
 1866000   0.51606941   -3.8306031    991.06174  0.044259635  0.043403777            8 
 1867000   0.50398385    -3.843957    991.07474  0.044236509  0.043378606           26 
 1868000   0.50530614   -3.8314615    991.90791  0.044249996   0.04335349            7 
 1869000    0.5009439   -3.8346921     989.6215  0.044124376  0.043328423            8 
 1870000    0.5084438   -3.8181248    993.58126   0.04427724  0.043303329           14 
 1871000   0.50626555   -3.8294598     990.5951  0.044120573  0.043278286           27 
 1872000   0.50567182   -3.8183313    989.73362  0.044058655  0.043253197           24 
 1873000   0.50540575   -3.8451441    991.13071  0.044097291  0.043228218           30 
 1874000   0.50900972   -3.8463348    990.87262  0.044062283  0.043203054           18 
 1875000   0.50084822   -3.8267862    990.31914  0.044014184  0.043177936           11 
 1876000   0.49587925   -3.8386986    989.37954  0.043948984   0.04315285            8 
 1877000   0.51987954   -3.8386735    992.05472   0.04404434  0.043127774           14 
 1878000   0.50330115   -3.8352719    992.13034  0.044024243  0.043102879           16 
 1879000   0.50257923   -3.8407738     991.0505  0.043952923  0.043078045           16 
 1880000   0.51011102   -3.8278898    991.59357  0.043953616  0.043053236           15 
 1881000   0.49890811    -3.833343    989.94786  0.043857339  0.043028346           33 
 1882000   0.51222562   -3.8249919    991.62736  0.043908402  0.043003454           30 
 1883000   0.48811348    -3.822562    990.51779  0.043835979  0.042978689           13 
 1884000   0.49889646   -3.8275599    992.75741  0.043911775  0.042953932           11 
 1885000   0.51116958   -3.8326153    992.95985  0.043897429  0.042929209            8 
 1886000   0.50416198   -3.8410318    991.99511  0.043831527  0.042904433           15 
 1887000   0.49740046   -3.8392129     991.8098  0.043800115  0.042879639           22 
 1888000   0.49545918   -3.8304091    994.21288  0.043882984  0.042854737            7 
 1889000   0.49873698   -3.8458367    990.72363  0.043705825  0.042829872           12 
 1890000   0.51245914   -3.8540719    991.80851  0.043730534  0.042805052           12 
 1891000   0.50461778   -3.8212791    992.24789  0.043726771  0.042780261           15 
 1892000   0.50516106    -3.832439    992.13472  0.043698675  0.042755471           32 
 1893000   0.50206754   -3.8500762    992.47042  0.043690369   0.04273065           14 
 1894000   0.49441356   -3.8328043    990.07516  0.043561913  0.042705755           14 
 1895000   0.50560072    -3.851795     989.9221  0.043532194  0.042680947           20 
 1896000   0.50197843   -3.8553948    991.65174  0.043585256  0.042656052           11 
 1897000   0.49878525   -3.8627124     990.9219  0.043530219   0.04263119           20 
 1898000   0.48477876   -3.8357577    992.52321  0.043577591  0.042606355           25 
 1899000    0.4925254   -3.8460908    989.73381  0.043432237  0.042581562           19 
 1900000   0.49912941   -3.8380723    991.64856  0.043493358  0.042556775           47 
 1901000   0.49107056   -3.8494004    989.80655  0.043389731  0.042531964           19 
 1902000   0.48995224   -3.8484735    992.27732  0.043475172  0.042507118           32 
 1903000   0.49161677   -3.8543855    992.49878  0.043462024   0.04248227           21 
 1904000   0.51047943   -3.8525021    988.63647  0.043270153   0.04245747           12 
 1905000   0.50157638   -3.8398915    991.72711  0.043382638  0.042432642           18 
 1906000   0.49802228   -3.8471756    989.67147  0.043270002  0.042407801            9 
 1907000   0.49730938   -3.8532363    989.97344  0.043260507   0.04238303            9 
 1908000   0.49365935   -3.8510894    991.80359  0.043317767  0.042358187           13 
 1909000   0.50337351   -3.8417021    990.10977  0.043221136  0.042333412           10 
 1910000   0.49540438   -3.8514389    990.72056  0.043225155  0.042308684           18 
 1911000   0.49232372    -3.853324    990.86135  0.043208676  0.042283854           22 
 1912000   0.49320326   -3.8661055    989.04336  0.043106841  0.042258979           15 
 1913000   0.49130152   -3.8590964    989.00191  0.043082502  0.042234097           17 
 1914000   0.48851889   -3.8446513    992.76143  0.043223678   0.04220933           14 
 1915000   0.49649437   -3.8492853    989.51365  0.043059776  0.042184656           38 
 1916000   0.49479539   -3.8494085    991.63953  0.043129764  0.042159983           32 
 1917000   0.49551088   -3.8654879    990.42634  0.043054527  0.042135185           15 
 1918000   0.48468838    -3.852145    991.78873  0.043091272  0.042110391           34 
 1919000   0.47912286   -3.8411535    992.70745  0.043108713  0.042085648           16 
 1920000   0.47708511   -3.8580809    993.13002  0.043104602  0.042060937           12 
 1921000    0.4843942   -3.8547116    991.95826  0.043031332  0.042036235           11 
 1922000   0.47760238   -3.8742791    989.90845  0.042920068  0.042011452           26 
 1923000   0.48472498    -3.872686    987.73978  0.042803769  0.041986665           43 
 1924000   0.47888278   -3.8888344    988.46182  0.042812795  0.041961893           62 
 1925000   0.48634143   -3.8770808     991.7349  0.042932247  0.041937155           56 
 1926000   0.48955963   -3.8830949    990.16413  0.042841992  0.041912454           37 
 1927000   0.49064999   -3.8677434    987.71632  0.042713904  0.041887682           32 
 1928000   0.48588849   -3.8752261    991.05046   0.04283586  0.041862956           38 
 1929000   0.48237368   -3.8706872    991.80479  0.042846241  0.041838237           16 
 1930000   0.48978338   -3.8621859    993.36418  0.042891372  0.041813568           11 
 1931000   0.47624525   -3.8658534    991.89994   0.04280597  0.041788817           31 
 1932000   0.48882705   -3.8557732    990.12442   0.04270723  0.041764128           16 
 1933000   0.47916674   -3.8734798    992.33777  0.042780556  0.041739357           15 
 1934000   0.49075629    -3.888924    990.72996  0.042689157  0.041714585           29 
 1935000    0.4766347   -3.8894035    989.81851  0.042627843  0.041689829           20 
 1936000   0.48594999   -3.8822717    988.89742  0.042566177  0.041665038           21 
 1937000   0.47583487   -3.8626357    992.07021  0.042680701  0.041640278            8 
 1938000   0.48151651   -3.8855089    987.75848  0.042473275  0.041615485           27 
 1939000    0.4736769   -3.8852775    989.67502  0.042533738  0.041590756           13 
 1940000   0.47759742   -3.8735942    990.44057  0.042544698  0.041565934           18 
 1941000   0.47724762   -3.8834501    990.32383  0.042517767  0.041541205           12 
 1942000   0.48467751   -3.9043804    989.04224  0.042440879  0.041516424           15 
 1943000   0.47639008   -3.8994047    986.41291  0.042306267  0.041491555           18 
 1944000   0.48105564   -3.8939495    987.91728  0.042348992   0.04146668           23 
 1945000   0.47712506   -3.8644821    989.51819  0.042395809  0.041441894           15 
 1946000     0.480068   -3.8963081    988.66822  0.042337625  0.041417112           22 
 1947000    0.4769914   -3.8801634    988.88178  0.042325021  0.041392214           21 
 1948000   0.47311752   -3.8828488    986.45355  0.042199416  0.041367279           42 
 1949000   0.47756649   -3.8823165    986.76834  0.042191224  0.041342311           22 
 1950000   0.46218685     -3.89108    987.77739  0.042212709   0.04131733           23 
 1951000   0.47008654   -3.8805105    988.51875  0.042222739  0.041292473           12 
 1952000   0.47618083   -3.8784683    987.56162  0.042160247  0.041267637           23 
 1953000   0.47601011   -3.9028317    987.51467  0.042136656  0.041242863           12 
 1954000   0.47305825   -3.8861415    988.17995  0.042143464  0.041218031           15 
 1955000   0.47195416   -3.8917228    986.79075  0.042062692  0.041193167           16 
 1956000   0.46784263   -3.9031605    987.02474  0.042051156  0.041168227           12 
 1957000   0.46643817   -3.8965071    987.04834  0.042030673  0.041143349            7 
 1958000   0.47898685   -3.8971679    989.41516   0.04210994  0.041118541           13 
 1959000   0.47475891   -3.8930214    988.60934  0.042054166   0.04109371           16 
 1960000   0.46376432   -3.9071052    985.70849  0.041909375  0.041068871           19 
 1961000   0.47953074    -3.892393    986.76843  0.041933046  0.041044009           11 
 1962000    0.4847041   -3.8957947    988.19223  0.041972147  0.041019185           12 
 1963000   0.45957099   -3.9058935    986.19759  0.041866089  0.040994311           15 
 1964000   0.46906054    -3.906822    987.34044  0.041893264  0.040969447           18 
 1965000    0.4700141   -3.8947953    987.75927  0.041889706   0.04094457           20 
 1966000   0.45876505   -3.8961828    984.34514  0.041723684  0.040919658           14 
 1967000   0.46634132   -3.9045101    986.06473  0.041775323  0.040894761           28 
 1968000     0.471026   -3.8988102    986.52126  0.041773427  0.040869896           39 
 1969000   0.46194986   -3.9006241    987.03216  0.041773834  0.040845057           31 
 1970000   0.45798093   -3.8867315    985.74625  0.041698234  0.040820278           51 
 1971000   0.46046124   -3.9167976    986.33756  0.041702078  0.040795468           19 
 1972000   0.47513567   -3.9167913    986.43087  0.041684874  0.040770668          100 
 1973000   0.45107794   -3.9092848    987.92585   0.04172689  0.040745865           65 
 1974000   0.47305673   -3.9184544     988.4798  0.041729137  0.040721138           43 
 1975000   0.47234552   -3.9148227    986.08014  0.041606757  0.040696408           53 
 1976000   0.47042945   -3.9201351    984.05443  0.041500271  0.040671595           36 
 1977000   0.47243904   -3.9040202    984.70696  0.041506785  0.040646812           35 
 1978000   0.45467852   -3.8934454    987.61775  0.041608432  0.040622062           44 
 1979000   0.45675901   -3.9325304    985.41754  0.041494759  0.040597322           28 
 1980000   0.46378687   -3.9035132    984.91152  0.041452505  0.040572546           25 
 1981000   0.47096814   -3.8875384    984.91248   0.04143162  0.040547843           64 
 1982000   0.45919074   -3.9070113    987.52968  0.041520757  0.040523215           27 
 1983000    0.4602235   -3.9188633    986.70332  0.041465091  0.040498537           13 
 1984000   0.46074618    -3.904628    986.62676  0.041440976  0.040473817           16 
 1985000   0.45638229   -3.8843735    987.12757  0.041441124   0.04044916            9 
 1986000   0.47070018   -3.9131998    983.75336  0.041278674  0.040424502           21 
 1987000   0.45662639   -3.9168337    984.35033  0.041282936  0.040399783           20 
 1988000   0.45858302   -3.9239424     987.0004  0.041373256   0.04037505           18 
 1989000   0.46278006   -3.8923924    985.42789  0.041286572  0.040350412           32 
 1990000   0.45896773   -3.9023404    986.65108  0.041317047  0.040325807           17 
 1991000   0.46653649   -3.9067059    984.94724  0.041224981  0.040301162           21 
 1992000   0.45325228   -3.9081946    985.23504  0.041216325   0.04027654           24 
 1993000   0.44892898   -3.9232099     985.8771  0.041222491  0.040251895           19 
 1994000   0.44874967   -3.9136237    986.35738   0.04122189  0.040227273           23 
 1995000   0.45427643   -3.9137105    985.60363  0.041169742   0.04020264           25 
 1996000   0.44990425   -3.9167684    988.12885  0.041254545  0.040178091           33 
 1997000   0.45351966   -3.9081123    988.05102  0.041230639  0.040153545           37 
 1998000   0.45225007   -3.9237705    985.27043  0.041094029  0.040128994           20 
 1999000   0.46259257   -3.9200997    985.50378  0.041083199  0.040104429           30 
 2000000   0.44519131   -3.9115091    985.79812  0.041074922  0.040079936           16 
 2001000   0.45551105   -3.9158478    985.07347  0.041024216  0.040055411           29 
 2002000   0.45321966   -3.9372761    984.12614  0.040964292   0.04003089           55 
 2003000   0.44567222   -3.9253048    983.81906  0.040931064  0.040006388           24 
 2004000   0.45139216   -3.9221027     984.4494  0.040936851  0.039981824           25 
 2005000   0.45427599   -3.9136818    983.91754  0.040894328  0.039957236           31 
 2006000   0.45668242   -3.9245269     981.4543  0.040771614  0.039932652           39 
 2007000   0.45520981   -3.9264133    984.33468  0.040870897  0.039908036           19 
 2008000   0.45522303   -3.9204208    985.61717  0.040903767  0.039883446           14 
 2009000   0.45525292   -3.9343619    985.59203  0.040882364  0.039858912           13 
 2010000   0.44785544   -3.9350466    983.85056  0.040789824  0.039834408           32 
 2011000   0.45289045   -3.9222286     984.2369   0.04078555  0.039809937           18 
 2012000   0.45038847   -3.9144256    984.05259  0.040757645  0.039785549           24 
Loop time of 4848.56 on 48 procs for 2000000 steps with 4000 atoms

Performance: 71278.932 tau/day, 412.494 timesteps/s
99.4% CPU use with 48 MPI tasks x no OpenMP threads

MPI task timing breakdown:
Section |  min time  |  avg time  |  max time  |%varavg| %total
---------------------------------------------------------------
Pair    | 323.8      | 344.32     | 371.92     |  67.4 |  7.10
Neigh   | 32.809     | 34.004     | 35.623     |  12.0 |  0.70
Comm    | 309.2      | 340.48     | 362.86     |  69.6 |  7.02
Output  | 4.1351     | 4.1368     | 4.1687     |   0.2 |  0.09
Modify  | 4072.1     | 4081.2     | 4091.5     |   6.8 | 84.17
Other   |            | 44.39      |            |       |  0.92

Nlocal:        83.3333 ave          91 max          76 min
Histogram: 1 3 3 6 12 6 10 4 2 1
Nghost:        2205.85 ave        2230 max        2190 min
Histogram: 3 5 11 9 7 2 2 6 2 1
Neighs:        14700.2 ave       16637 max       13284 min
Histogram: 4 4 8 8 5 7 5 5 0 2
FullNghs:      29399.7 ave       32286 max       26379 min
Histogram: 1 4 2 6 9 10 6 8 1 1

Total # of neighbors = 1411185
Ave neighs/atom = 352.79625
Neighbor list builds = 108388
Dangerous builds = 0

#clear
#
#next RN
#
#jump SELF
Total wall time: 1:20:51
