
units lj                  # Use reduced LJ style units
atom_style atomic         # Uncharged point particles
atom_modify map hash      # Needed for indexing of clusters etc
                          # Used to be able to find where atoms are in relation to each other.

lattice fcc 1.0 spacing 1 1 1
Lattice spacing in x,y,z = 1.5874011 1.5874011 1.5874011
region box block 0 10 0 10 0 10 units lattice
create_box 2 box
Created orthogonal box = (0.0000000 0.0000000 0.0000000) to (15.874011 15.874011 15.874011)
  3 by 4 by 4 MPI processor grid
create_atoms 1 box
Created 4000 atoms
  using lattice units in orthogonal box = (0.0000000 0.0000000 0.0000000) to (15.874011 15.874011 15.874011)
  create_atoms CPU = 0.003 seconds
set type 1 type/fraction 2 0.59 78393
Setting atom values ...
  2375 settings made for type/fraction
mass 1 1.0
mass 2 1.0
pair_style lj/cut  3.5
pair_modify tail  yes
pair_coeff 1  1  1.0  1.0   # Intearaction between 1 and 1 set with epsilon = 1 and sigma = 1
pair_coeff 1  2  1.5  0.8
pair_coeff 2  2  0.5  0.88

write_data data.0
System init for write_data ...
Neighbor list info ...
  update every 1 steps, delay 10 steps, check yes
  max neighbors/atom: 2000, page size: 100000
  master list distance cutoff = 3.8
  ghost atom cutoff = 3.8
  binsize = 1.9, bins = 9 9 9
  1 neighbor lists, perpetual/occasional/extra = 1 0 0
  (1) pair lj/cut, perpetual
      attributes: half, newton on
      pair build: half/bin/atomonly/newton
      stencil: half/bin/3d
      bin: standard
WARNING: Not all mixed pair coeffs generated from mixing. Use write_data with 'pair ij' option to store all pair coeffs. (../write_data.cpp:312)


#############################
#   M E L T   S Y S T E M   #
#############################

velocity all create 2.4 6583654 mom yes dist gaussian # Assign velocities
                                                    # Temperature 2.4, random number seed, zero linear momentum
                                                                                # Gaussian distribution

timestep 0.002   # simulation timestep
thermo 1000       # output thermodynamic data every 1000 steps bf 100

# Define a fix  in this case with index 1 applied to all
# particles in the simulation. This fix is for simulations
# in the anisotropic NPT ensemble. Note that we use the MTK
# correction.
fix 1 all npt temp 2.4 2.4 0.1 iso 5.68 5.68 0.5 mtk yes tchain 5 pchain 5 # Use NPT ensemble
                                                                         # Set temperature and pressure and damping
                                                                         # Numbers of thermostats in chain and in barostat
run 10000          # run for 10000 steps
Per MPI rank memory allocation (min/avg/max) = 3.642 | 3.644 | 3.648 Mbytes
Step Temp E_pair E_mol TotEng Press Volume 
       0          2.4   -4.7762807            0   -1.1771807   -4.0862689         4000 
    1000    2.4013738   -4.4488371            0  -0.84767698    5.5812315    3654.9176 
    2000    2.4316312   -4.4587298            0  -0.81219489    5.8088229    3631.8818 
    3000    2.3767957   -4.5519119            0  -0.98760973    5.9126414     3586.543 
    4000     2.406833    -4.511729            0  -0.90238206    5.5342425    3631.0217 
    5000    2.4868326   -4.4977326            0  -0.76841631     5.770928    3622.9424 
    6000    2.4341062   -4.5027207            0  -0.85247419    5.9053362    3609.9468 
    7000    2.3819968   -4.5114276            0  -0.93932564    5.4573771      3634.01 
    8000    2.4343032   -4.5996495            0  -0.94910764    5.7217044    3575.4603 
    9000     2.429885    -4.474187            0  -0.83027077     5.958898    3622.5404 
   10000    2.4283811    -4.542648            0  -0.90098697    5.5434406    3621.3635 
Loop time of 2.69441 on 48 procs for 10000 steps with 4000 atoms

Performance: 641327.541 tau/day, 3711.386 timesteps/s
99.6% CPU use with 48 MPI tasks x no OpenMP threads

MPI task timing breakdown:
Section |  min time  |  avg time  |  max time  |%varavg| %total
---------------------------------------------------------------
Pair    | 1.234      | 1.2844     | 1.4223     |   2.9 | 47.67
Neigh   | 0.2193     | 0.22553    | 0.25099    |   1.1 |  8.37
Comm    | 0.75958    | 0.89887    | 0.98032    |   4.5 | 33.36
Output  | 0.00024434 | 0.00025113 | 0.00033405 |   0.0 |  0.01
Modify  | 0.22245    | 0.2693     | 0.31558    |   5.6 |  9.99
Other   |            | 0.0161     |            |       |  0.60

Nlocal:        83.3333 ave          93 max          72 min
Histogram: 1 0 2 8 11 10 5 5 5 1
Nghost:        1753.08 ave        1778 max        1722 min
Histogram: 1 3 5 5 3 8 11 6 1 5
Neighs:        10563.6 ave       11707 max        8894 min
Histogram: 1 0 1 4 10 13 5 5 3 6

Total # of neighbors = 507055
Ave neighs/atom = 126.76375
Neighbor list builds = 907
Dangerous builds = 212

# Equilibrate just above the melting temperature to avoid step fn in T

fix 1 all npt temp 1.25 1.25 0.1 iso 5.68 5.68 0.5 mtk yes tchain 5 pchain 5
run 2000
Per MPI rank memory allocation (min/avg/max) = 3.644 | 3.646 | 3.650 Mbytes
Step Temp E_pair E_mol TotEng Press Volume 
   10000    2.4283811    -4.542648            0  -0.90098697    5.5434406    3621.3635 
   11000     1.271261   -6.6103741            0   -4.7039593    5.5720356    2778.7371 
   12000    1.2403614    -6.684083            0    -4.824006    5.5652399    2760.2149 
Loop time of 0.674986 on 48 procs for 2000 steps with 4000 atoms

Performance: 512010.634 tau/day, 2963.025 timesteps/s
99.6% CPU use with 48 MPI tasks x no OpenMP threads

MPI task timing breakdown:
Section |  min time  |  avg time  |  max time  |%varavg| %total
---------------------------------------------------------------
Pair    | 0.30029    | 0.32774    | 0.38537    |   2.3 | 48.55
Neigh   | 0.042379   | 0.044585   | 0.051951   |   0.7 |  6.61
Comm    | 0.19395    | 0.25085    | 0.2757     |   2.7 | 37.16
Output  | 5.3058e-05 | 5.4426e-05 | 7.0232e-05 |   0.0 |  0.01
Modify  | 0.037534   | 0.046873   | 0.053816   |   2.3 |  6.94
Other   |            | 0.004888   |            |       |  0.72

Nlocal:        83.3333 ave          90 max          73 min
Histogram: 1 1 4 2 7 5 6 13 6 3
Nghost:        2106.06 ave        2147 max        2086 min
Histogram: 8 3 8 11 11 6 0 0 0 1
Neighs:        13836.3 ave       15516 max       11526 min
Histogram: 1 2 1 0 10 13 6 14 0 1

Total # of neighbors = 664142
Ave neighs/atom = 166.03550
Neighbor list builds = 145
Dangerous builds = 15

#############################
# L I N E A R  Q U E N C H  #
#############################

# Define solid atoms. This closely follows ten Wolde  Ruiz-Montero and Frenkel  Faraday Discuss  1996  104  93-110
# Compute components of the per-atom q6 vector
compute q6 all orientorder/atom degrees 1 6 components 6 nnn NULL cutoff 1.3 # compute the Q6 parameter.
                                                                             # Use all neighbours within 1.3 unit cell.

# get number of connections
compute coord_number all coord/atom orientorder q6 0.5

# An atom is solid if it has 8 or more connections (of a possible 14)
variable is_solid atom c_coord_number>=8
group solid dynamic all var is_solid    # Must be dynamic to update
dynamic group solid defined

# do clustering
compute cluster solid cluster/atom 1.3 # Create a cluster where all atoms within are solid and max 1.3 units from another member

# define chunks one chunk per cluster
compute clus_chunks solid chunk/atom c_cluster nchunk every compress yes  # Says which atoms are in which chunk

# count the size of each chunk
compute size_chunks solid property/chunk clus_chunks count


# Find the maximum entry in the vector of chunk sizes
variable max_n equal max(c_size_chunks)


# Thermo style which includes this variable
# thermo_style custom step temp pe vol v_max_n

thermo ${N}  # Print the thermo information every 100 steps
thermo 1000  

# Reset the npt fix at a lower temperature (below freezing)
fix 1  all npt temp  ${temp} ${temp}  0.1  iso  5.68  5.68  0.5  mtk yes tchain  5  pchain  5
fix 1  all npt temp  0.45 ${temp}  0.1  iso  5.68  5.68  0.5  mtk yes tchain  5  pchain  5
fix 1  all npt temp  0.45 0.45  0.1  iso  5.68  5.68  0.5  mtk yes tchain  5  pchain  5

dump dmp2 all dcd ${N} traj.dcd
dump dmp2 all dcd 1000 traj.dcd


compute msd all msd com yes
variable twopoint equal c_msd[4]/6/(step*dt+1.0e-6)
fix 9 all vector 10 c_msd[4]
variable fit equal slope(f_9)/6/(10*dt)
thermo_style custom step temp pe c_msd[4] v_twopoint v_fit v_max_n

fix 1 all npt temp 1.25 ${temp} 0.1 iso 5.68 5.68 0.5 mtk yes tchain 5 pchain 5
fix 1 all npt temp 1.25 0.45 0.1 iso 5.68 5.68 0.5 mtk yes tchain 5 pchain 5
run 2000000 # 5000000  # Run for this many steps
Neighbor list info ...
  update every 1 steps, delay 10 steps, check yes
  max neighbors/atom: 2000, page size: 100000
  master list distance cutoff = 3.8
  ghost atom cutoff = 3.8
  binsize = 1.9, bins = 8 8 8
  4 neighbor lists, perpetual/occasional/extra = 1 3 0
  (1) pair lj/cut, perpetual
      attributes: half, newton on
      pair build: half/bin/atomonly/newton
      stencil: half/bin/3d
      bin: standard
  (2) compute orientorder/atom, occasional
      attributes: full, newton on
      pair build: full/bin/atomonly
      stencil: full/bin/3d
      bin: standard
  (3) compute coord/atom, occasional
      attributes: full, newton on
      pair build: full/bin/atomonly
      stencil: full/bin/3d
      bin: standard
  (4) compute cluster/atom, occasional
      attributes: full, newton on
      pair build: full/bin/atomonly
      stencil: full/bin/3d
      bin: standard
Per MPI rank memory allocation (min/avg/max) = 9.847 | 9.850 | 9.854 Mbytes
Step Temp PotEng c_msd[4] v_twopoint v_fit v_max_n 
   12000    1.2403614    -6.684083 9.6694625e-31 6.7149043e-33 8.3333333e+20            1 
   13000    1.2797554   -6.6618463   0.47460048 0.0030423107  0.037919198            2 
   14000    1.2766637   -6.7114095   0.89266297 0.0053134699  0.036635729           13 
   15000    1.2555561   -6.6769403    1.3723467  0.007624148  0.036825316            4 
   16000    1.2613175   -6.7452543    1.7583792 0.0091582246  0.036878309            3 
   17000    1.2428665   -6.6680645     2.217348  0.010869352  0.036348451            2 
   18000       1.2509   -6.6612678    2.6948264  0.012476048  0.036744515            3 
   19000    1.2435152   -6.7364078    3.0797824  0.013507817  0.036608531            2 
   20000    1.2436548    -6.743137    3.5087619  0.014619841  0.036391685            3 
   21000    1.2557468   -6.7597449    3.8789911  0.015392822  0.036170531            3 
   22000    1.2571254    -6.715336    4.3800765  0.016591198  0.036055272            3 
   23000    1.2455191   -6.7072575    4.8153265  0.017446835  0.036120604            3 
   24000    1.2455072   -6.7376384    5.2753085  0.018317043  0.036245417            4 
   25000    1.2497304   -6.6867939    5.7760245  0.019253415  0.036404098            2 
   26000    1.2359245     -6.70563    6.2869223  0.020150392  0.036689859            3 
   27000    1.2844504   -6.7652469    6.9050671  0.021311935  0.037060442            3 
   28000    1.2422953   -6.6776859     7.371595   0.02193927  0.037531959            2 
   29000    1.2220311   -6.7528154    7.7586874  0.022295078  0.037829132            3 
   30000     1.235589   -6.6937966    8.1278343  0.022577317  0.037852564            2 
   31000    1.2389841     -6.74364    8.4395099  0.022686854  0.037807715            3 
   32000    1.2513063   -6.6784237    9.0115791  0.023467653  0.037675593            4 
   33000    1.2335495   -6.7578071    9.3076954  0.023504281  0.037610631            1 
   34000    1.2483714   -6.6852017    9.7493131  0.023895375  0.037438621            2 
   35000    1.2562481   -6.7035915     10.11682  0.024087667  0.037303281            2 
   36000     1.231824   -6.7727656    10.653499  0.024660878  0.037217913            5 
   37000    1.2726673   -6.6821562    11.184038  0.025189274   0.03722252            2 
   38000    1.2411043   -6.6825868    11.660117  0.025570432  0.037217076            2 
   39000    1.2348937    -6.698564    12.136151  0.025931947  0.037265001            3 
   40000    1.2403253   -6.7008888    12.452115  0.025941906  0.037239225            3 
   41000    1.2357974   -6.7420038    12.728534  0.025871003  0.037182193            1 
   42000    1.2166803   -6.7514627    13.257148  0.026303866   0.03710419            2 
   43000    1.2308395   -6.7463392    13.712783  0.026575161  0.037048579            2 
   44000    1.2363121   -6.7687441    14.042078  0.026594845  0.036976249            5 
   45000    1.2300732   -6.7687003    14.454708  0.026767977  0.036906394            1 
   46000    1.2395647   -6.7255611    14.904441  0.027000799  0.036829744            2 
   47000    1.2534708   -6.7309201     15.42088  0.027341985  0.036792648            5 
   48000     1.248517   -6.7791982    15.749083  0.027342158   0.03675276            3 
   49000     1.241861   -6.6754637    16.433206  0.027947629   0.03671272            1 
   50000    1.2593088   -6.7292166    16.623246   0.02770541  0.036677311            4 
   51000    1.2408031   -6.7144449    17.005315  0.027786463  0.036616503            2 
   52000    1.2211053   -6.7071284    17.497243  0.028040453  0.036555784            2 
   53000    1.2216372    -6.722728    18.111463  0.028477143  0.036540543            2 
   54000    1.2418874   -6.7309906    18.655234  0.028788942  0.036564577            4 
   55000    1.2487429   -6.7530044    18.860531  0.028576561   0.03656421            2 
   56000    1.2239393   -6.7394656    19.351435  0.028796779  0.036551593            1 
   57000    1.2140237   -6.7719533    20.046125    0.0293072  0.036569886            4 
   58000    1.2480912   -6.7442375    20.418072   0.02933631  0.036619178            3 
   59000    1.2350131   -6.7716347    20.789717  0.029364007  0.036641183            2 
   60000    1.2438023    -6.770304    21.187573  0.029427184   0.03663826            1 
   61000    1.2070081   -6.7225049    21.662995  0.029594255  0.036642142            3 
   62000    1.2512792   -6.7659823    21.945633  0.029496819  0.036633474            2 
   63000    1.2343583   -6.7109062     22.29256  0.029487513  0.036604506            5 
   64000    1.2215154   -6.7420937    22.601382  0.029428883  0.036559773            2 
   65000    1.2565807   -6.7459334     23.04734  0.029547871  0.036498704            5 
   66000    1.2105351   -6.7571652    23.444901  0.029602148  0.036451307            2 
   67000    1.2245332    -6.742425    23.845193    0.0296582  0.036399948            3 
   68000    1.2193666   -6.7741981    24.244739   0.02971169  0.036347972            5 
   69000    1.2348169   -6.7505171     24.69487  0.029824722  0.036285863            3 
   70000    1.2104223   -6.7577844    24.955976  0.029709495  0.036232097            2 
   71000    1.2250907   -6.7578206    25.394362  0.029805589  0.036174873            1 
   72000    1.1917142   -6.7733906    25.652937    0.0296909  0.036106255            2 
   73000    1.2056759   -6.7564769     25.97684  0.029653926  0.036037291            1 
   74000    1.2461705   -6.7497154    26.459055  0.029796233  0.035965501            4 
   75000    1.2234031   -6.7873526    26.941174  0.029934637  0.035899737            2 
   76000    1.2165483   -6.7550685    27.589101  0.030251207  0.035849693            2 
   77000    1.2241479   -6.6974036    28.063384  0.030371627  0.035825209            1 
   78000    1.2128338   -6.7724999    28.404547  0.030346738  0.035792086            1 
   79000    1.2213415     -6.75218    28.561936  0.030128624  0.035758572            2 
   80000    1.2097921   -6.7131194    29.079159  0.030290791  0.035710091            5 
   81000    1.2277066   -6.8092024    29.448331  0.030296637  0.035670273            3 
   82000    1.2325682   -6.7423063    30.097112  0.030586496  0.035641577            5 
   83000    1.2061119   -6.7615197    30.299822  0.030421508  0.035608957            3 
   84000    1.2231134   -6.7572927    30.727625  0.030483755  0.035581039            3 
   85000     1.239727   -6.7527518    31.405955  0.030790152  0.035558365            2 
   86000    1.1941048   -6.7426718    31.570737  0.030591799  0.035534605            3 
   87000    1.1846673   -6.7390243     31.93685  0.030590852  0.035506869            2 
   88000    1.2254333   -6.7912722    32.282515  0.030570563  0.035472061            2 
   89000    1.1945429    -6.814197    32.705843  0.030623448  0.035443926            3 
   90000    1.2292018   -6.7718164    33.400595  0.030926476  0.035419819            2 
   91000    1.2149944   -6.8106856    33.719653  0.030878803  0.035399155            2 
   92000     1.198093   -6.7554528     34.14026  0.030924148  0.035374618            4 
   93000    1.1985186   -6.7952368    34.510073  0.030923005  0.035354996            2 
   94000    1.2054863   -6.7723583    35.015347  0.031041974  0.035334593            2 
   95000    1.2462441   -6.7561337    34.945227  0.030653708  0.035299522            1 
   96000    1.1997959   -6.8148259    35.318404  0.030658337  0.035255738            2 
   97000    1.2166478   -6.7772751    35.959753  0.030893259  0.035216793            1 
   98000    1.2042822   -6.7616802    36.415206  0.030965311  0.035189977            2 
   99000    1.2160859    -6.783232    36.769827  0.030951033  0.035166248            3 
  100000    1.2228553   -6.7998419    37.003657   0.03083638  0.035136859            1 
  101000    1.1960833   -6.7679295    37.493875   0.03093554  0.035102009            2 
  102000    1.1997129   -6.7876265    37.792332  0.030876088  0.035067859            2 
  103000    1.2129594   -6.7517113    38.329442  0.031010876  0.035036843            2 
  104000    1.2149491   -6.8163879    38.700973  0.031010395  0.035010896            3 
  105000    1.2258027   -6.8053642    39.016855  0.030965757  0.034986302            3 
  106000     1.217354    -6.818764    39.529996  0.031077041  0.034962807            1 
  107000     1.219828   -6.8040158    40.261116  0.031356009  0.034950874            2 
  108000    1.1743442   -6.8214296    40.519232  0.031264839  0.034940224            3 
  109000     1.213561   -6.7972792    40.912755  0.031278865  0.034929313            2 
  110000    1.2267874   -6.7704032    41.584555  0.031503451   0.03492512            3 
  111000    1.2137246   -6.8506317    41.621912  0.031247681  0.034914101            2 
  112000    1.2156089   -6.8649071    42.167619  0.031374716  0.034909141            4 
  113000    1.2044631   -6.8187963    42.658253  0.031458888  0.034902841            3 
  114000     1.199796   -6.7606202    42.874482  0.031340995  0.034888241            2 
  115000    1.1991592   -6.7606274    43.348221  0.031411754  0.034867686            5 
  116000    1.2102018   -6.8312373    43.603848  0.031324604  0.034847643            3 
  117000    1.2093219   -6.8189741    44.015763  0.031350259  0.034827375            2 
  118000    1.2287921    -6.812611    44.582875  0.031485081  0.034809853            2 
  119000    1.2150565   -6.8577957    44.761364  0.031345493  0.034795606            4 
  120000    1.1945893   -6.8213096    45.307988   0.03146388  0.034778571            1 
  121000    1.1977692   -6.8010769    45.579262  0.031390676   0.03476195            5 
  122000    1.1977024   -6.8024146    45.794979  0.031280723  0.034737548            3 
  123000    1.1929786   -6.8087252    46.269701  0.031348036  0.034715876            3 
  124000    1.2067868   -6.8180352    46.925238  0.031535778   0.03469665            3 
  125000    1.2381392    -6.838219    47.269019  0.031512679  0.034680506            2 
  126000    1.2028477   -6.8403104    47.606003  0.031485452  0.034665641            5 
  127000    1.1746711   -6.8163909    48.322757  0.031707845  0.034651639            3 
  128000    1.2133011    -6.820646    48.819669  0.031783638  0.034643337            2 
  129000     1.199254   -6.8319234    48.992481   0.03164889  0.034637986            2 
  130000    1.1922844   -6.7819647    49.522851  0.031745417  0.034628212            3 
  131000    1.2018888   -6.8069837     50.20776  0.031938778  0.034619851            5 
  132000    1.2298041   -6.7906397    50.378331  0.031804502  0.034612723            6 
  133000    1.1786864   -6.8591869    50.584054   0.03169427  0.034604031            2 
  134000    1.1853673   -6.8252912    50.985439  0.031707363  0.034600996            4 
  135000    1.1885094   -6.7809216     51.76255  0.031952191  0.034597456            2 
  136000    1.1762736   -6.8568862    51.802291    0.0317416  0.034591779            3 
  137000    1.2001403   -6.8556815    51.951431  0.031600627  0.034578055            2 
  138000    1.1899314    -6.815659    52.494192  0.031699391  0.034560096            5 
  139000    1.1999642     -6.83146    52.880965  0.031703216  0.034545878            2 
  140000    1.2055549   -6.8590253    53.371232   0.03176859  0.034529621            1 
  141000    1.2217066   -6.7920672    53.631617  0.031697173  0.034513672            5 
  142000    1.2059152   -6.8165814    54.035819  0.031711161  0.034496604            4 
  143000    1.1970574     -6.86142    54.341072  0.031667291  0.034480174            5 
  144000    1.1904172    -6.845114    54.833419  0.031732302  0.034463944            2 
  145000    1.2078496   -6.8394772    55.544608  0.031922188  0.034454599            9 
  146000    1.2065981   -6.8650352    55.609122  0.031740367  0.034444016            1 
  147000     1.179768   -6.8644158    55.908071  0.031693918  0.034429713            2 
  148000    1.2239187    -6.845521    56.379828  0.031745399  0.034414444            3 
  149000    1.2064931   -6.8150659    56.831042  0.031784699  0.034401198            4 
  150000    1.2033811   -6.8311457    56.968581  0.031649211  0.034384068            2 
  151000    1.1932957   -6.8179093    57.516688  0.031742101  0.034366357            3 
  152000    1.1872371   -6.8320922     58.03356  0.031816645  0.034351154            3 
  153000    1.1784284   -6.8387267    58.154162   0.03167438  0.034333832            2 
  154000    1.1871858   -6.8684105    58.628581  0.031725423  0.034315311            3 
  155000    1.1909919   -6.8281146    58.661825  0.031538616  0.034291962            1 
  156000    1.1816184   -6.8714521    58.943606  0.031486969  0.034269083            2 
  157000    1.1993537   -6.8800314    59.235603  0.031441403  0.034244006            1 
  158000    1.1481223   -6.8368266     59.78205  0.031530617  0.034220603            4 
  159000    1.1897021   -6.8147171    60.322595  0.031615616  0.034194715            4 
  160000    1.1732567    -6.822134    60.693325  0.031611107  0.034174218            2 
  161000    1.2034118   -6.8749505    60.958788  0.031552168  0.034152207            5 
  162000    1.1890912   -6.8821809    61.171728  0.031466938  0.034127595            1 
  163000    1.1976565   -6.8565058    61.879004  0.031635482  0.034102994            2 
  164000    1.1756886   -6.8824719    62.138337  0.031574358  0.034082293            3 
  165000    1.1795246   -6.8498121    62.694503   0.03166389  0.034063701            4 
  166000    1.2019239   -6.8432394    63.060172  0.031656713  0.034044374            4 
  167000    1.2001058   -6.8795422    63.424216   0.03164881  0.034024768            2 
  168000    1.1991282   -6.8684067    63.608316  0.031551744  0.034001981            2 
  169000    1.1887586   -6.8515236    64.173627    0.0316438  0.033978048            3 
  170000     1.203182   -6.8548262    64.596411  0.031664907  0.033958358            4 
  171000    1.1919112   -6.8302053    65.008462  0.031680537  0.033937942            3 
  172000    1.2092759    -6.860995    65.177765  0.031578374  0.033918244            6 
  173000    1.1648173   -6.8858108    65.181169   0.03139748  0.033893015            5 
  174000    1.1771802   -6.8301357    65.599238   0.03141726  0.033867312            2 
  175000    1.1551355   -6.8787215    65.924781  0.031392753  0.033840774            7 
  176000    1.1773139   -6.8934131     66.32809  0.031405345  0.033814015            1 
  177000    1.1799378   -6.8641693    66.580186  0.031346604  0.033790575            2 
  178000    1.1888659    -6.831085    67.043028  0.031387185  0.033767138            2 
  179000    1.1625605   -6.8701439    67.478072  0.031414373   0.03374357            3 
  180000    1.1837329   -6.8305811    67.788795  0.031383701  0.033717631            2 
  181000    1.1545515   -6.8900808    67.917686  0.031269653  0.033691007            3 
  182000    1.1822483   -6.8625743    68.382323  0.031310587  0.033662076            3 
  183000    1.1871145   -6.8656976     68.77389  0.031317801  0.033634772            3 
  184000    1.2010181   -6.8719867    69.166348  0.031325339  0.033607464            4 
  185000    1.1850901   -6.8944019    69.232385  0.031185759  0.033575961            3 
  186000    1.1706316   -6.8606914    69.587785  0.031177323  0.033543207            4 
  187000     1.184505   -6.8312112    69.577235  0.031005898  0.033510903            2 
  188000    1.1935409    -6.895635    69.984017  0.031021284  0.033480026            2 
  189000     1.169838   -6.8070439    70.733855  0.031187767  0.033449351            3 
  190000    1.1729098   -6.8385657    70.821803  0.031062194  0.033419694            4 
  191000    1.1652369   -6.8634372    71.279122  0.031099093  0.033391966            2 
  192000    1.1652656   -6.8792088    71.482681  0.031025469  0.033361918            5 
  193000    1.1612619   -6.9126216    71.949012  0.031066067  0.033331459            1 
  194000    1.2124617   -6.8627532    72.513755   0.03114852  0.033301633            3 
  195000     1.182535   -6.8663271    72.827867   0.03112302   0.03327376            2 
  196000    1.1651659   -6.9366381     72.93223  0.031008601  0.033245943            4 
  197000    1.1788337   -6.8832762    73.581485  0.031125839  0.033218722            4 
  198000    1.1834845   -6.9313245    73.549198   0.03095505  0.033191928            4 
  199000    1.1678547   -6.8787117    74.312707  0.031119224  0.033165804            2 
  200000    1.1659358   -6.8812593    74.585743  0.031077393  0.033140994            4 
  201000    1.1703377   -6.8995701    75.176776  0.031167818  0.033116461            2 
  202000      1.18997   -6.9318301     75.27752  0.031055082  0.033092131            3 
  203000    1.1806543   -6.9541783    75.519417  0.031001403  0.033065788            2 
  204000    1.1712215   -6.9215854    76.112418  0.031091674  0.033042382            1 
  205000    1.1889986   -6.8890573    76.673732  0.031168184   0.03302153            4 
  206000    1.1591793   -6.9250148    76.822354  0.031077004  0.033001206            4 
  207000    1.1742923   -6.8681321    77.522678  0.031208808  0.032984584            1 
  208000    1.1526841   -6.8850655    77.727515  0.031140831   0.03296496            3 
  209000    1.1684662   -6.8710356     78.13562  0.031154553  0.032944825            4 
  210000    1.1645711   -6.9148588    78.558581   0.03117404  0.032926103            2 
  211000    1.1794965   -6.9112768     78.62869  0.031053985  0.032906777            5 
  212000    1.1551403   -6.9034725    79.038565  0.031068618  0.032885447            1 
  213000    1.1680677    -6.898183    79.691301   0.03117813  0.032864437            5 
  214000    1.1782954   -6.9025166    79.392842  0.030916216  0.032842569            3 
  215000      1.18083   -6.8782987    80.475892  0.031192206  0.032822247            4 
  216000     1.179861   -6.9254888    80.415177  0.031024374  0.032803156            3 
  217000    1.1632014   -6.9199519     81.15109  0.031164013  0.032787068            2 
  218000    1.1636306   -6.9350653    81.477915  0.031145992   0.03277137            2 
  219000    1.1500498   -6.8903397    81.809641      0.03113   0.03275451            2 
  220000    1.1663175   -6.8861355    82.145357  0.031115666  0.032736036            1 
  221000    1.1292928   -6.9060754    82.383394  0.031064628  0.032717727            3 
  222000    1.1596594   -6.9117831    82.466414  0.030955861    0.0326966            1 
  223000    1.1592665   -6.9322118    82.621528   0.03087501   0.03267396            2 
  224000    1.1542996   -6.9479627    83.042488  0.030893783  0.032651475            2 
  225000    1.1475736   -6.9272969    83.379337  0.030881236  0.032629448            4 
  226000    1.1658692    -6.874159    83.903612   0.03093791  0.032607105            2 
  227000    1.1459194   -6.9347064    84.209536  0.030913927  0.032585327            4 
  228000    1.1476673   -6.9080111     84.44509  0.030864433  0.032564547            2 
  229000    1.1639291   -6.9127105    84.699179  0.030822118  0.032542604            2 
  230000    1.1405715   -6.8887007    85.195481  0.030867928  0.032518545            3 
  231000    1.1490236   -6.9216431      85.2511  0.030754365  0.032497701            4 
  232000    1.1473923   -6.8842161    86.036602  0.030903952  0.032476032            3 
  233000    1.1439236   -6.9005559    86.151652  0.030812465  0.032454161            5 
  234000     1.157479   -6.9019888    86.286295  0.030728737  0.032430849            3 
  235000    1.1668817   -6.9181321    86.520115  0.030680892  0.032408606            2 
  236000    1.1674483   -6.8712738    87.490297  0.030893466  0.032387565            3 
  237000    1.1464089   -6.9225241    88.024015  0.030950779  0.032368407            2 
  238000    1.1404799   -6.8947036    88.322582  0.030925274  0.032349493            6 
  239000    1.1703278   -6.9219755    88.778917  0.030954992  0.032331241            2 
  240000    1.1444112   -6.8739907    89.426558  0.031050888  0.032313778            3 
  241000    1.1251284   -6.9440711    89.112188  0.030813343  0.032297684            3 
  242000    1.1597525   -6.9825927    89.328513  0.030760507  0.032280044            3 
  243000    1.1669139   -6.9411857     90.12864  0.030908313   0.03226363            3 
  244000    1.1489592      -6.9097    90.621398  0.030949931  0.032245755            4 
  245000    1.1596233   -6.9133917    90.702592  0.030851222    0.0322287            3 
  246000    1.1573599   -6.9366967    90.763006  0.030746276  0.032208913            3 
  247000    1.1629393   -6.9360342    90.952759  0.030685816  0.032188519            2 
  248000    1.1738167   -6.9701955    91.346491  0.030694385  0.032167512            3 
  249000    1.1681076   -6.9419827     91.82819  0.030732326  0.032145655            2 
  250000    1.1393946    -6.993349    91.494047  0.030498015  0.032122895            2 
  251000    1.1668946   -6.9377189    92.059818  0.030564348  0.032101186            3 
  252000    1.1711465    -6.913728    92.624373  0.030629753  0.032078928            3 
  253000    1.1492857   -6.9341327    92.445105  0.030449639  0.032056491            2 
  254000    1.1513986   -6.9622757    92.718234  0.030419368  0.032033192            2 
  255000    1.1417354   -6.9060977    92.985482  0.030387413   0.03200771            2 
  256000    1.1538277   -6.9801802    93.064931  0.030294574  0.031982393            2 
  257000    1.1444072   -6.9408202    93.558268  0.030336663  0.031956851            2 
  258000    1.1536361   -6.9053302    93.815273  0.030302091  0.031932109            3 
  259000    1.1499205   -6.9941492    93.797441  0.030179357   0.03190641            2 
  260000     1.139971   -6.9076415    94.701315  0.030352986  0.031881879            1 
  261000    1.1563158   -6.9517468    95.105573  0.030365764   0.03185898            2 
  262000    1.1583509    -6.965318    95.354268  0.030328966  0.031835798            3 
  263000    1.1243414   -6.9616542    95.672575  0.030314504  0.031813293            2 
  264000    1.1439351   -6.9150436    96.172394  0.030357448   0.03179037            5 
  265000    1.1180522   -6.9669544    96.085364  0.030215523  0.031765274            2 
  266000    1.1239547    -6.965331    96.412562  0.030204437  0.031740045            3 
  267000    1.1441557   -6.9705049    96.779719  0.030205905  0.031714167            4 
  268000    1.1507229   -7.0134967    96.441859   0.02998814  0.031687146            4 
  269000    1.1578703   -7.0031734    96.604088  0.029926917  0.031660814            3 
  270000     1.166063   -6.9660345    97.459787  0.030080181   0.03163321            4 
  271000    1.1458632   -6.9711723    97.584822  0.030007633  0.031607231            2 
  272000    1.1242567    -6.957772    97.956967  0.030011326  0.031581908            4 
  273000    1.1630991   -6.9469036    98.489698   0.03006401  0.031556262            5 
  274000    1.1493748   -6.9614444    98.728386  0.030026881  0.031531398            2 
  275000    1.1591284   -6.9432298    99.598165  0.030181262  0.031505978            4 
  276000    1.1425328   -6.9587212    99.355024  0.029998497  0.031481197            3 
  277000     1.132471    -6.966313    99.549266  0.029948636  0.031456072            2 
  278000    1.1697637   -6.9997815    99.549205  0.029840889  0.031430318            3 
  279000    1.1550492   -6.9486005    100.47682  0.030010997   0.03140588            4 
  280000    1.1655378   -6.9806366    100.42974  0.029889804  0.031381399            4 
  281000    1.1571856   -6.9683417    101.27417  0.030033859  0.031357429            1 
  282000    1.1432118   -6.9401091    101.09136  0.029873333  0.031333163            4 
  283000    1.1538197   -6.9678019    101.58921  0.029914373  0.031309913            6 
  284000    1.1572757   -7.0017212    101.66314  0.029830734   0.03128498            3 
  285000     1.160564   -6.9456392     102.5077  0.029973012  0.031262334            2 
  286000     1.162319   -6.9571768    102.35749  0.029824444  0.031238145            5 
  287000    1.1560181   -6.9790974     102.8125  0.029852643  0.031211941            2 
  288000    1.1246516    -6.994501    102.91532  0.029778738  0.031186959            2 
  289000    1.1138085   -7.0075819    103.17553  0.029750728  0.031162403            2 
  290000    1.1568565    -7.023821    103.45402  0.029728166  0.031137243            4 
  291000     1.160644   -7.0253443    103.70009  0.029696474   0.03111196            1 
  292000    1.1480724   -6.9991659    103.84987  0.029637519  0.031087501            2 
  293000    1.1364538   -6.9895999    104.03107  0.029587905  0.031062267            3 
  294000     1.147458   -6.9640543    104.56563  0.029638784  0.031036786            2 
  295000    1.1276384   -6.9862226    104.99045   0.02965832  0.031011393            2 
  296000    1.1185493   -7.0089556    104.89365   0.02953087  0.030986757            2 
  297000     1.139775   -6.9960443    105.43002  0.029581937  0.030961886            6 
  298000     1.152161   -6.9895729    105.80706  0.029588103  0.030937475            3 
  299000     1.146796    -6.938965    106.34724    0.0296397  0.030913862            3 
  300000    1.1424997   -7.0193218    105.98613  0.029440591  0.030887338            3 
  301000    1.1189784    -7.046067    106.51439  0.029489034  0.030861509            6 
  302000    1.1450531   -7.0022724    106.85719  0.029485981  0.030836379            2 
  303000    1.1288473   -6.9975857    107.19414  0.029481336  0.030811854            2 
  304000    1.1565912   -6.9754745    107.88854  0.029574709   0.03078843            5 
  305000    1.1311758   -7.0068112    108.24341  0.029574703  0.030765308            5 
  306000    1.1163834   -6.9981882    108.35909  0.029509555  0.030742132            2 
  307000    1.1205914   -7.0108443    108.82691  0.029540421  0.030718667            2 
  308000     1.101119   -7.0227527    108.65245  0.029397308  0.030695412            5 
  309000    1.1479272   -7.0271209     109.5907  0.029555206  0.030672211            3 
  310000    1.1396431   -6.9843223    109.75052  0.029502828   0.03064986            8 
  311000    1.1339348   -6.9919685    110.30297  0.029555994  0.030628255            4 
  312000    1.1549157   -6.9954162    110.48066  0.029508724  0.030606147            2 
  313000    1.1306434    -7.037624    110.34005  0.029377011  0.030583006            3 
  314000    1.1283059   -7.0252624    110.89417  0.029430511  0.030560165            2 
  315000    1.1281526   -7.0068299    111.22015  0.029423321  0.030538029            1 
  316000    1.1033642   -6.9674017    111.76296  0.029473355  0.030516866            2 
  317000    1.1320939    -6.993839    112.00526  0.029444074   0.03049606            1 
  318000    1.1074561    -6.989315    112.42756  0.029462148  0.030474808            5 
  319000    1.1115829   -7.0805479    112.03916  0.029268329  0.030453073            6 
  320000      1.11786   -7.0330681    112.49154  0.029294672   0.03043027            4 
  321000     1.112109   -6.9876918    113.45878  0.029454511  0.030409206           11 
  322000    1.1271256   -7.0173442    113.45242  0.029361393  0.030387942            1 
  323000    1.1119972   -7.0422018    113.69595  0.029333319  0.030365745            2 
  324000    1.1210126   -7.0252524    113.97419   0.02931435  0.030343908            3 
  325000     1.126857   -7.0231718    114.02311  0.029236694  0.030321294            2 
  326000     1.127598   -7.0523566    113.90361  0.029116465  0.030299322            4 
  327000    1.1312967   -7.0435232    114.71732  0.029234791  0.030277235            2 
  328000    1.1195953   -7.0232409    115.12741  0.029249849  0.030255509            5 
  329000    1.1237735   -7.0498345    115.33142  0.029212619  0.030233977            2 
  330000    1.1297712   -7.0337994    115.69908   0.02921694  0.030212523            2 
  331000    1.1425089   -7.0342155    115.92542  0.029185653  0.030192006            6 
  332000    1.1447446   -7.0715059    116.38702  0.029213609  0.030170642            3 
  333000    1.1431607   -7.0605033     116.4563  0.029143219  0.030149604           12 
  334000    1.1260701   -7.0191391     116.8103  0.029144287  0.030128725            2 
  335000    1.1297432   -7.0371662    116.97337  0.029097854  0.030107054            6 
  336000    1.1101456     -6.99601    117.87207  0.029234143  0.030086835            2 
  337000    1.1503772   -7.0226933    118.13179   0.02921162  0.030068699            4 
  338000    1.1058281   -7.0200788    118.77725  0.029284333   0.03005118            5 
  339000    1.1217062   -7.0083063    119.03953  0.029262421  0.030034031            3 
  340000    1.1113122    -7.019397     119.3286  0.029247205   0.03001608            3 
  341000    1.1205787   -7.0288956    119.32952  0.029161662  0.029998763            3 
  342000    1.1312251   -7.0562055    120.00133  0.029240091    0.0299815            1 
  343000     1.113132   -7.0370593    120.11245  0.029181839  0.029963538            3 
  344000    1.0889421   -7.0364076    120.52976  0.029198101  0.029946977            4 
  345000    1.1323448   -7.0273725    120.49484  0.029105033  0.029928451            5 
  346000    1.0929598   -7.0696502    120.26764  0.028966195  0.029908482            3 
  347000    1.1288803   -7.0096837    121.07624  0.029076906  0.029888735            3 
  348000    1.1304139   -7.0586189    120.79988  0.028927175  0.029869243            9 
  349000    1.1416072   -7.0104213    121.28721  0.028960651  0.029849777            3 
  350000    1.1331614   -7.0725096    121.74185  0.028986155  0.029830258            4 
  351000    1.1056277   -7.0760563    121.62882  0.028876737  0.029809901            4 
  352000    1.1110026   -7.0327005    122.24407  0.028940358   0.02978955            2 
  353000    1.1316695   -7.0214825    122.39876  0.028894891  0.029768647            2 
  354000    1.0998995   -7.0632594    121.73621  0.028657301  0.029746568            5 
  355000    1.1024907   -7.0594917    122.10229   0.02866251    0.0297243            4 
  356000     1.135645    -7.039678    122.48671  0.028671982  0.029700904            3 
  357000    1.1131951   -7.0724239    122.54764  0.028605892  0.029678635            4 
  358000    1.1017947   -7.0458929    123.10836  0.028656509  0.029655933            2 
  359000    1.1274641   -7.0647328    122.98515  0.028548086   0.02963267            2 
  360000    1.1025285   -7.0303991    123.47231  0.028581553  0.029609269            7 
  361000    1.0899069    -7.064448    123.51964  0.028513305  0.029585545            6 
  362000    1.0962616   -7.0549989    123.86925  0.028515021  0.029561035            2 
  363000    1.0861368   -7.0902661    124.06627  0.028481695   0.02953695            6 
  364000     1.101435   -7.0381194    124.61894  0.028529977   0.02951295            5 
  365000    1.1297717   -7.0925674    124.64826  0.028458508  0.029489348            2 
  366000    1.1149674    -7.053355     125.6398  0.028606511  0.029465762            3 
  367000    1.1126413   -7.0354452    125.69845  0.028541882  0.029443392            5 
  368000    1.1284058   -7.0869698    125.43252  0.028404103  0.029420555            4 
  369000    1.1223511   -7.0498769    125.93692  0.028441039  0.029397691            7 
  370000    1.1048632   -7.0978718    125.98883  0.028375862  0.029374721            7 
  371000    1.0904358   -7.0879956     126.0404  0.028310961  0.029351224            2 
  372000    1.1215052   -7.0560056    126.56255  0.028351826  0.029327935            3 
  373000    1.0933821   -7.0832534    127.31888   0.02844479  0.029304593            4 
  374000     1.117468   -7.1057142    127.20011  0.028342271  0.029282017            3 
  375000    1.1037247   -7.0812344    127.63168  0.028362596  0.029259372            2 
  376000    1.1376373    -7.104317    127.58182  0.028276112  0.029237473            2 
  377000    1.0977963   -7.0621979    128.27921  0.028355263  0.029216118            2 
  378000    1.1059776   -7.0746357    128.51784  0.028332857   0.02919431            5 
  379000    1.1136556   -7.0920367    128.77915  0.028315557  0.029172662            2 
  380000    1.0969162   -7.1151312    128.52022  0.028184258  0.029151229            1 
  381000    1.1288756    -7.102646    128.89755  0.028192815  0.029128927            4 
  382000    1.0835472   -7.0785297    129.59275   0.02827067  0.029107247            3 
  383000    1.1084978   -7.1073303    129.38335  0.028151295  0.029085518            3 
  384000    1.0895656   -7.0871544    129.52437  0.028108588  0.029063049            5 
  385000    1.1399558   -7.1113979     129.5347  0.028037813  0.029040036            2 
  386000    1.0909168   -7.1120443    129.86283  0.028036018  0.029017436            3 
  387000    1.1121183   -7.1205692    130.18714  0.028033406  0.028994537            2 
  388000    1.0996401   -7.1006657    130.64449  0.028059383  0.028971364            5 
  389000    1.0730743   -7.1021317    130.58693  0.027974921  0.028947753            5 
  390000    1.1109877   -7.0842603    130.95526  0.027981892  0.028923366            3 
  391000    1.0935174   -7.1246676     131.0588  0.027932396   0.02889803            3 
  392000    1.0783325   -7.1053636    131.06431   0.02786231  0.028872993            2 
  393000    1.0892368   -7.0708254    131.52007  0.027888054  0.028848669            3 
  394000    1.0987008   -7.1166954    131.49295  0.027811539  0.028823939            4 
  395000    1.1077036   -7.0830618    131.81821  0.027809749  0.028798517            3 
  396000    1.1089049   -7.1087524    131.73195   0.02772137  0.028773919            4 
  397000    1.1023085   -7.1337614    131.99505   0.02770677  0.028748758            3 
  398000    1.0862138   -7.0728638    132.92987  0.027832887  0.028723762            3 
  399000     1.102938    -7.080747    132.90788  0.027758537  0.028699304            3 
  400000    1.0916848   -7.0939664    132.80679  0.027668082  0.028674105            2 
  401000    1.0747628   -7.1131248    132.88446  0.027615225   0.02864935            3 
  402000    1.0931422   -7.1342418    133.30529  0.027633766  0.028624542            3 
  403000    1.0899472   -7.1214539    133.28504   0.02756101  0.028599541            4 
  404000    1.0862837   -7.1524756    133.61512  0.027560875  0.028574126            2 
  405000    1.1004868   -7.1628686    133.54225  0.027477829  0.028548907            7 
  406000    1.0737094   -7.1021427    134.27994  0.027561564  0.028524431            3 
  407000    1.1190679   -7.1297945    134.23698  0.027485049  0.028499547            3 
  408000    1.0861032   -7.0981421    134.78232  0.027529069  0.028474919            2 
  409000    1.0646441   -7.1235904    135.07978  0.027522367  0.028450652            2 
  410000    1.0970192   -7.1158753    135.54568  0.027549936  0.028426947            5 
  411000    1.0980161   -7.1213845     135.7926  0.027532969  0.028403664            5 
  412000    1.0963828   -7.1560128    136.07451  0.027523162  0.028380538            2 
  413000    1.0920951   -7.1311428     136.6962   0.02758196  0.028358198            2 
  414000     1.104175   -7.1312182    136.44205   0.02746418  0.028336154            1 
  415000      1.11241   -7.0963589    137.27628  0.027565518  0.028314145            4 
  416000    1.1085248   -7.1110577    137.26752    0.0274975    0.0282914            3 
  417000    1.0818841   -7.1162927    137.26739  0.027431532   0.02826859            7 
  418000    1.0906808    -7.111967    137.42867  0.027398061  0.028245834            2 
  419000    1.0937575   -7.1496115    137.70447  0.027387523  0.028222544            3 
  420000    1.0697676   -7.1400448    137.88663  0.027358458  0.028199375            8 
  421000    1.0697426   -7.1310044    138.15498  0.027346592  0.028176853            2 
  422000    1.0760098   -7.1274028     138.6884  0.027387126  0.028153948            3 
  423000    1.0915343   -7.1825224    138.19138  0.027224463  0.028130779            9 
  424000      1.09698   -7.1554331    138.72484  0.027265102  0.028107054            3 
  425000    1.0835841   -7.1526017     139.3691  0.027327274  0.028084017            2 
  426000    1.0890027   -7.1415404    138.98657  0.027188297  0.028061367            6 
  427000    1.1056631   -7.1245865    139.92864  0.027308478  0.028038503            4 
  428000    1.0815092   -7.1520445    139.65772  0.027191924   0.02801597            6 
  429000    1.0863926   -7.1505035    139.48895  0.027095756  0.027992956            6 
  430000    1.0634969   -7.1577359    140.32797  0.027195344  0.027969674            4 
  431000    1.0963077   -7.1447542    140.40022  0.027146214   0.02794629            2 
  432000    1.0992245     -7.20993    140.28422  0.027060999  0.027922732            6 
  433000    1.1124836   -7.1655437    140.44982  0.027030373  0.027899164            2 
  434000    1.0651296    -7.153818     141.1957   0.02711131  0.027875851            4 
  435000    1.0491509   -7.1363368    141.07965  0.027026752  0.027852114            5 
  436000    1.0866916   -7.1326108     141.6454  0.027072897  0.027828221            4 
  437000    1.0668836   -7.1902805     141.7782   0.02703627  0.027804899            2 
  438000    1.0859136   -7.1282003    142.55099  0.027121573  0.027782103            3 
  439000    1.0933999    -7.152561    141.80608   0.02691839  0.027759197           10 
  440000    1.0805337   -7.1709201    142.24363  0.026940082   0.02773618            6 
  441000    1.0743328    -7.155353    142.33075  0.026895456  0.027711906            2 
  442000    1.0842818   -7.1392197    142.70007  0.026904236  0.027688088            4 
  443000    1.0962037   -7.1971776    141.56552  0.026630083  0.027663784            7 
  444000    1.0706609   -7.1479976    142.19721  0.026688666  0.027638797            4 
  445000    1.0864969   -7.1431402    142.79847  0.026741287  0.027614262            2 
  446000    1.0696575   -7.1406508    143.19897  0.026756161  0.027590242            5 
  447000    1.0764552   -7.1694956    143.29321  0.026713872  0.027566701            2 
  448000    1.0892159   -7.2322204    143.30306  0.026656075   0.02754238            1 
  449000    1.0696603   -7.1871212    143.58747  0.026649493  0.027518228            6 
  450000     1.061833   -7.1785425    144.10608  0.026686312  0.027494675            3 
  451000    1.0889793   -7.1572187    144.52944  0.026705366  0.027471463            2 
  452000    1.0942558   -7.1452184    145.32423  0.026792815  0.027448136            4 
  453000    1.0524714   -7.1736025    144.86916  0.026649955  0.027424898            4 
  454000     1.068885   -7.1509679    145.36013  0.026681375  0.027401436            3 
  455000    1.0846436   -7.1710472    145.29268  0.026610382  0.027378667            3 
  456000    1.0722388   -7.1636553    146.07952  0.026695819  0.027355125            5 
  457000    1.0499342    -7.219134    145.38648  0.026511029   0.02733156            3 
  458000    1.0699343   -7.1885749    145.84115  0.026535871  0.027308225            6 
  459000    1.0741846   -7.2024926    145.97852  0.026502999  0.027285046            4 
  460000    1.0859662   -7.1675273    146.85347  0.026603889  0.027262687            7 
  461000    1.0511107   -7.1803096    147.20537  0.026609792  0.027240344            3 
  462000    1.0844088   -7.1797749    146.88073  0.026493638  0.027217709            5 
  463000     1.075222   -7.1948473     147.0108  0.026459828  0.027194893            6 
  464000    1.0798274   -7.1854688    147.43915  0.026479733  0.027172334            4 
  465000    1.0763956    -7.159874     147.8481  0.026496076  0.027149593            4 
  466000    1.0574969   -7.2132278    147.55565  0.026386919  0.027126879            4 
  467000    1.0549096   -7.1674805    148.35283  0.026472668  0.027104342            4 
  468000     1.069726   -7.1752069    148.11899  0.026374464  0.027081657            3 
  469000    1.0386131   -7.1849836    148.84647  0.026447489  0.027059516            3 
  470000    1.0610958   -7.1808017    148.72952  0.026370482  0.027037457            2 
  471000    1.0527456    -7.199601    149.70262  0.026486664  0.027015735            3 
  472000    1.0668338   -7.1419748    149.38784  0.026374972  0.026994052            2 
  473000    1.0720153   -7.1931098    150.03706  0.026433591  0.026973107            3 
  474000    1.0639867   -7.2012265    150.12961  0.026394095  0.026952746            8 
  475000    1.0892393   -7.1379441    150.37622  0.026381794  0.026931308            3 
  476000    1.0587664   -7.1628454    150.39143  0.026329032  0.026910294            4 
  477000    1.0716677   -7.2358809    150.00832  0.026206905  0.026888564            3 
  478000    1.0719451   -7.2159103    150.00239  0.026151044  0.026866077            6 
  479000    1.0586081   -7.2415538    150.83496  0.026241295  0.026843779            3 
  480000    1.0526466   -7.1911611    151.20198  0.026250344  0.026821156            2 
  481000     1.053583   -7.1834347    151.63338   0.02627051  0.026799184            2 
  482000    1.0558733   -7.2158817    151.65665   0.02622003   0.02677752            4 
  483000    1.0478178   -7.1862558    151.87279  0.026203035  0.026756326            6 
  484000    1.0506055    -7.181939    151.89187  0.026152181  0.026734682            3 
  485000    1.0576562   -7.2121317    152.01883  0.026120075  0.026712709            3 
  486000    1.0568972   -7.1964218    152.23441  0.026103293  0.026691007            2 
  487000    1.0866226   -7.1949597    152.65299   0.02612132  0.026669681            3 
  488000    1.0438412    -7.175059    153.18278  0.026158262   0.02664847            4 
  489000    1.0721462     -7.22361    152.94149  0.026063649    0.0266268            2 
  490000    1.0459973   -7.2021688    153.31907  0.026074672  0.026605353            1 
  491000    1.0559867   -7.2490157    153.08715  0.025982204  0.026583742            3 
  492000    1.0588047   -7.1822528    154.17927  0.026114375  0.026561981            3 
  493000    1.0585716   -7.2121226    153.76655  0.025991641  0.026540944            2 
  494000    1.0461781   -7.1888946     154.1783  0.026008484  0.026520003            3 
  495000     1.059161   -7.2398331    154.38765  0.025991188  0.026498667            5 
  496000    1.0675797   -7.2186554    154.05428  0.025882776  0.026477191            3 
  497000    1.0607903   -7.2186094    154.51025  0.025907151  0.026455334            3 
  498000    1.0592427   -7.2324667    154.37769  0.025832947  0.026433409            7 
  499000    1.0702837   -7.2533028     154.3922  0.025783601  0.026411847            2 
  500000    1.0640249   -7.2022576    155.17396  0.025862326  0.026390901            2 
  501000    1.0598876    -7.220772    155.00518  0.025782632  0.026369731            8 
  502000    1.0425385   -7.2696663     155.0358  0.025736355    0.0263475            3 
  503000    1.0591328   -7.2423471    155.48706  0.025759951   0.02632527            7 
  504000    1.0466458   -7.2185834     155.9116  0.025779034  0.026303269            2 
  505000    1.0615606   -7.2070287    156.11842  0.025762116  0.026281471            4 
  506000    1.0502195   -7.2112947    156.40148   0.02575782  0.026260192            4 
  507000    1.0490196   -7.2569843    156.52634  0.025727537   0.02623846            2 
  508000     1.034373   -7.2220745     156.7557  0.025714518  0.026216931            2 
  509000    1.0481995    -7.245895    156.79986  0.025671228  0.026195409            3 
  510000    1.0607614   -7.2342392    156.73489  0.025610276  0.026174176            3 
  511000    1.0628591   -7.2493567    157.45832  0.025678134  0.026153026            3 
  512000      1.05781   -7.2089255    157.67203  0.025662765   0.02613184            7 
  513000   0.99959641   -7.2142286    157.85529  0.025642509  0.026110455            2 
  514000    1.0407494   -7.2326437    157.92471  0.025603876  0.026089161            4 
  515000    1.0629935    -7.246887     157.9284  0.025554757  0.026068115            4 
  516000    1.0535006   -7.2236356    158.14964  0.025540962  0.026046936            3 
  517000    1.0333662   -7.2807619    157.86179  0.025445162  0.026025679            5 
  518000    1.0396686   -7.2590526    158.31117  0.025468335  0.026003764            3 
  519000    1.0457692   -7.2251111    158.60492   0.02546643  0.025982373            6 
  520000    1.0490288   -7.2010569    158.94901  0.025472597  0.025961065            2 
  521000    1.0289721   -7.2402772    158.83608  0.025405643  0.025939508            5 
  522000    1.0520375   -7.2473826    158.19093  0.025253979   0.02591777            3 
  523000    1.0419769   -7.1930705     159.5745  0.025426147  0.025896173            4 
  524000    1.0487067   -7.2514419    159.31819  0.025336862  0.025874672            5 
  525000    1.0440448   -7.2296872    159.61995    0.0253365  0.025853366            4 
  526000    1.0331474   -7.2733783    159.68548  0.025298713  0.025832219            2 
  527000    1.0394726   -7.2512994    159.90134  0.025284842  0.025811271            3 
  528000    1.0451787   -7.2566283    160.46924  0.025326584  0.025789924            3 
  529000    1.0514126   -7.2942661    159.90957  0.025190543  0.025768608            5 
  530000    1.0464533   -7.2806222    160.90652  0.025299768  0.025746892            5 
  531000    1.0586437   -7.2745143    160.56138  0.025197957  0.025725589            2 
  532000    1.0518813   -7.2639578    160.48906  0.025139264  0.025704052            4 
  533000     1.069284   -7.2419243    160.65253  0.025117656  0.025681833            3 
  534000    1.0200583   -7.2563542     161.0643  0.025134879  0.025659913            4 
  535000    1.0055075       -7.268    161.24163  0.025115519  0.025637832            6 
  536000    1.0412264   -7.2303435     161.8284  0.025159888  0.025616207            6 
  537000    1.0389527   -7.2669548    161.85993  0.025117929  0.025594668            3 
  538000    1.0248215   -7.2594667    162.08925  0.025106761  0.025573088            2 
  539000    1.0228885   -7.3143854    161.42291   0.02495716  0.025551707            4 
  540000    1.0621566   -7.2820041    162.18209  0.025028101  0.025530161            3 
  541000    1.0209215   -7.2581793    162.51614  0.025033293  0.025509046            3 
  542000    1.0380077   -7.2453537    163.05684   0.02507024  0.025488164            5 
  543000    1.0313652     -7.22634    163.46937   0.02508738  0.025467665            4 
  544000    1.0295673   -7.2180603    163.48457  0.025043593  0.025446941            4 
  545000    1.0504008   -7.2816052    163.57045  0.025010773  0.025426044            4 
  546000    1.0204871   -7.2403894    163.49599    0.0249536  0.025404333            6 
  547000    1.0386189   -7.2687911       163.47  0.024904021  0.025382771            4 
  548000    1.0361222   -7.2470285    164.05119  0.024946958  0.025361265            7 
  549000    1.0526057   -7.2640732    164.18205   0.02492138  0.025339938            4 
  550000    1.0477468   -7.2815627    164.21754  0.024881445  0.025318431            3 
  551000    1.0286436   -7.3455503    163.51601  0.024730189     0.025297            6 
  552000    1.0321394   -7.3216771    163.86163  0.024737564  0.025275453            7 
  553000    1.0562556   -7.2242663    164.80774  0.024835404  0.025254081            3 
  554000      1.01883   -7.2334487    165.18557  0.024847408  0.025233171            5 
  555000    1.0493195   -7.2799503    165.04563  0.024781626  0.025212115            4 
  556000     1.038584   -7.2874235    165.29368  0.024774233  0.025190893            2 
  557000   0.99959114   -7.2834594    165.46578  0.024755503  0.025169462            9 
  558000    1.0217799   -7.2890691    165.32032  0.024689414  0.025148342            6 
  559000    1.0259498   -7.3297329     165.5145  0.024674194  0.025126937            7 
  560000    1.0409434   -7.2938645    166.04753  0.024709453  0.025105332            2 
  561000     1.021142   -7.3215407    165.65596  0.024607244  0.025084233            4 
  562000    1.0028533   -7.2550215    166.55783  0.024697188  0.025063261            5 
  563000    1.0060572   -7.2732642    166.95335  0.024711864  0.025043015            2 
  564000    1.0343594   -7.2890437    167.25748  0.024712985  0.025023015            2 
  565000    1.0372118   -7.3402863    166.64998  0.024579643   0.02500267            4 
  566000    1.0372293   -7.2953068    167.47965  0.024658371  0.024982406            4 
  567000    1.0354774   -7.2770822    167.62231  0.024635848  0.024962264            5 
  568000    1.0382528   -7.2806642    167.64876  0.024596355  0.024942372            2 
  569000    1.0394105   -7.2471202    167.96584  0.024599567  0.024922067            2 
  570000    1.0390966   -7.3162158    167.75842  0.024526085  0.024901597            4 
  571000    1.0247933   -7.2710683    167.80557  0.024490014  0.024881149            3 
  572000    1.0098098   -7.3295621    168.11538  0.024492334  0.024860614            6 
  573000    1.0223619   -7.2977851    168.45096  0.024498394  0.024839835            4 
  574000    1.0097219   -7.3097096    168.43397  0.024453248  0.024819511            3 
  575000   0.99661142   -7.2915902    169.12099  0.024510288  0.024799201            5 
  576000    1.0156064   -7.3047968    169.30445  0.024494278  0.024779349            3 
  577000    1.0291551   -7.2881536    169.26557  0.024446211  0.024759421            5 
  578000    1.0215006   -7.2550578    169.98797  0.024508069  0.024739586            5 
  579000    1.0204288   -7.2809133     170.0475  0.024474309  0.024719851            2 
  580000    1.0014758   -7.2877425    170.12167  0.024442768  0.024700095            6 
  581000    1.0293096   -7.2812658    170.29084  0.024424963  0.024680195            3 
  582000    1.0211721   -7.3349974    170.31586  0.024386578  0.024660306            6 
  583000    1.0054488   -7.3531756    169.98459  0.024297398  0.024640385            4 
  584000    1.0282744   -7.3570075    170.54589  0.024335887  0.024620084            9 
  585000    1.0330991   -7.2699221    171.60595  0.024445292  0.024600673            3 
  586000    1.0332163    -7.291329    171.46894  0.024384093  0.024581312            3 
  587000     1.028049   -7.3037828    170.93883  0.024267296  0.024561807            4 
  588000    1.0173189   -7.3256983    170.82137  0.024209378  0.024542035            3 
  589000   0.99802547   -7.3413147     171.1171  0.024210116  0.024522107            4 
  590000    1.0241384   -7.3408698    171.29097   0.02419364  0.024502145            6 
  591000    1.0079054   -7.3712751    171.93699  0.024243795  0.024482402            4 
  592000    1.0066685   -7.3494613    171.45762  0.024135363   0.02446244            3 
  593000    1.0245677   -7.3354534    171.87198  0.024152892  0.024442536            2 
  594000    1.0220039   -7.3376504    171.73421  0.024092903  0.024422554            5 
  595000    1.0231636   -7.3059836    172.17498  0.024114142  0.024402501            6 
  596000    1.0382382    -7.282024    172.50835  0.024120295  0.024382435            5 
  597000    1.0225991   -7.3314901    172.57842  0.024089673  0.024362469            5 
  598000     1.010761   -7.2957044    172.86626  0.024089501    0.0243423            2 
  599000    1.0129875   -7.3313408    172.39339  0.023983499  0.024322481            3 
  600000    1.0288711   -7.3454543    172.68757  0.023984385   0.02430213            4 
  601000    1.0105431   -7.3027475    172.97922  0.023984917  0.024282087            3 
  602000    1.0247795   -7.3320517    173.59524  0.024030349  0.024262174            6 
  603000   0.99974082   -7.3063062    173.53652  0.023982383  0.024241999            4 
  604000    1.0184854   -7.3517897    173.48634  0.023935753  0.024222088            4 
  605000    1.0388053   -7.3387722    173.51178  0.023899694  0.024202197            4 
  606000    1.0047685   -7.3417361    174.18317  0.023952582  0.024181929            4 
  607000   0.99758559   -7.3540212    173.90709  0.023875218   0.02416173            2 
  608000   0.99655231   -7.3354532    173.99078   0.02384742  0.024141815            3 
  609000    1.0046337   -7.3621083    174.60654  0.023892521   0.02412212            4 
  610000    1.0093368   -7.3505223    174.20398  0.023798358  0.024102061            5 
  611000    1.0295396   -7.3332789    174.56702  0.023808923  0.024081843            3 
  612000    1.0039496   -7.3516939    174.18806  0.023718417   0.02406144            4 
  613000      1.00539    -7.358287    174.61288  0.023737477  0.024041089            4 
  614000    1.0146654   -7.3451452    174.56965  0.023692949   0.02402064            2 
  615000    1.0289551   -7.3230916    175.34802  0.023759894  0.024000747           24 
  616000     1.005635   -7.3752666     174.9651  0.023669521  0.023980565            4 
  617000   0.99948752   -7.3530575    175.05071  0.023642721  0.023960255            3 
  618000    1.0290388   -7.3412614    175.20154  0.023624803  0.023939946            5 
  619000    1.0048314   -7.3726301    175.47101  0.023622914  0.023919545            5 
  620000    1.0059507   -7.3611431      175.525   0.02359207  0.023898914            3 
  621000    1.0263373   -7.3789816    175.60972  0.023565449  0.023878479            6 
  622000    0.9875619   -7.3894531    175.73255  0.023544018  0.023858478            3 
  623000    1.0104346   -7.3730786    176.44283  0.023601235  0.023838403           15 
  624000     1.020422   -7.3388234    176.87931  0.023621703  0.023818513            2 
  625000    1.0341495   -7.3757301    176.75254  0.023567005  0.023798922            3 
  626000    1.0058408   -7.3908194    177.11665  0.023577829  0.023778932            4 
  627000     1.010775    -7.339316    177.30885   0.02356577   0.02375924            6 
  628000    1.0362978   -7.4048034    176.81657   0.02346292   0.02373945            1 
  629000    1.0047358   -7.3291654    177.38271  0.023500624  0.023719521            5 
  630000   0.99824126   -7.4217813    176.57524  0.023356513  0.023699646           10 
  631000    1.0144086   -7.3983811    177.60039  0.023454885  0.023679734            8 
  632000    1.0087587   -7.3875092    177.62669  0.023421241  0.023660059            7 
  633000    1.0196849   -7.3508424    178.27088  0.023469047  0.023640657            7 
  634000   0.99935921   -7.3531014    177.92768  0.023386919  0.023620972            4 
  635000    1.0080657     -7.38245    177.65071  0.023313742  0.023601265            9 
  636000    1.0088288   -7.4070868    178.14372  0.023341682  0.023581645            3 
  637000    1.0069189   -7.3691459    178.61862  0.023367167  0.023562126            4 
  638000   0.98739667   -7.3784401    178.47173  0.023311355  0.023542973            6 
  639000   0.98797262   -7.3937155    178.95953  0.023338489  0.023523785            7 
  640000      1.00649   -7.3960782    178.86386  0.023289565  0.023503971            6 
  641000    1.0098439   -7.3976224    178.85806  0.023252478   0.02348444            3 
  642000   0.99117445   -7.4110176    178.55441  0.023176844  0.023464753            6 
  643000    1.0215587   -7.3829576    179.26515  0.023232912  0.023444946            2 
  644000   0.99333833   -7.3528041    179.32194  0.023204185  0.023425254            3 
  645000   0.98670476   -7.3785756    179.35139  0.023172014  0.023405868            4 
  646000    1.0053768   -7.3913818    179.41284  0.023144071   0.02338604            2 
  647000     1.000336   -7.3814148    179.87972  0.023168434  0.023366213            6 
  648000     1.002964   -7.3679538    179.83347  0.023126732  0.023346424            5 
  649000    1.0112382   -7.3370672    180.08328  0.023123175  0.023326469            3 
  650000   0.97538404   -7.3887059    179.33653  0.022991863  0.023306746            8 
  651000    0.9922136   -7.4148708    179.51511  0.022979405  0.023286502            2 
  652000   0.99459831    -7.406174    179.71547  0.022969769  0.023266274           10 
  653000    1.0020178   -7.3820411    179.90123  0.022958299   0.02324608            3 
  654000   0.98923719   -7.3511823    180.52711  0.023002945  0.023226089            4 
  655000    0.9916016    -7.387925    180.49256  0.022963429  0.023206069            4 
  656000   0.99951938   -7.3777946    181.03392  0.022997195  0.023185817            4 
  657000      1.00033   -7.4370594    180.05194  0.022837638  0.023165702            6 
  658000   0.97878326   -7.4302135    180.44875  0.022853185   0.02314558           12 
  659000   0.98826375   -7.4059907     181.0643  0.022896345  0.023125306            5 
  660000    0.9912658   -7.4117655     180.6849   0.02281375  0.023104764            6 
  661000   0.98723862   -7.4211621    181.36409  0.022864862  0.023084529            4 
  662000   0.99222879   -7.3882384    180.97026  0.022780748  0.023064527            6 
  663000   0.98119199    -7.381214    181.65962  0.022833034  0.023044769            4 
  664000    0.9821684   -7.4276781    181.46556  0.022774293   0.02302496            4 
  665000    1.0024163   -7.4542576    181.63332  0.022761068  0.023005118            4 
  666000    1.0030566   -7.4104229    181.73928   0.02274015  0.022985387            4 
  667000   0.97287782   -7.4156123    182.06023  0.022746156  0.022965672            4 
  668000   0.99661164   -7.4112024    182.22444   0.02273259  0.022946175            6 
  669000    1.0066469   -7.3957164    182.62103  0.022748011   0.02292663            3 
  670000   0.98664771   -7.4390255    182.09457  0.022648578  0.022907003            5 
  671000   0.98268462   -7.4043269    183.02059  0.022729829   0.02288728            3 
  672000   0.98308677   -7.4153015    183.27588  0.022727663  0.022867746            7 
  673000    1.0008503   -7.3876362    182.99571  0.022659202  0.022848511            5 
  674000    1.0016842   -7.4137832    183.42656  0.022678852  0.022828974            2 
  675000   0.99185843   -7.4321113    183.08423  0.022602991  0.022809457            5 
  676000   0.98753505   -7.4870516    183.13909  0.022576318  0.022789949            5 
  677000   0.99158688    -7.448772    183.61692  0.022601788  0.022770426            3 
  678000    0.9857333   -7.4499778    183.78573  0.022589199  0.022751352            3 
  679000   0.96786078    -7.413405    184.52459  0.022646611  0.022732335            3 
  680000   0.98931535   -7.4229434    184.66212  0.022630162  0.022713384            3 
  681000   0.98038059   -7.4262002    184.20652   0.02254118  0.022694355            2 
  682000   0.99472423   -7.4229362    185.22194  0.022632202  0.022675555            5 
  683000   0.99455767   -7.4671985     184.5816  0.022520937   0.02265668            6 
  684000   0.99233715   -7.4273287    185.34105  0.022580538  0.022637971            8 
  685000   0.98774375   -7.4263014    185.59289  0.022578211  0.022619388            4 
  686000   0.98578566   -7.4087506    185.39377  0.022521109  0.022600893            5 
  687000   0.99769006   -7.3991049    185.90787  0.022550688  0.022582284            5 
  688000   0.96712431   -7.4244843    185.88776  0.022515475   0.02256359            3 
  689000   0.97196233   -7.4485201    185.52942  0.022439455  0.022544744            6 
  690000    1.0132898   -7.4593814    185.59794   0.02241521  0.022526049           17 
  691000   0.96486654   -7.5149962    185.06363  0.022318335  0.022506879            4 
  692000     1.007019   -7.4617291    185.62282  0.022353422  0.022487778            9 
  693000   0.96241825   -7.4970297    185.19092  0.022269231  0.022468524           11 
  694000   0.97382571   -7.4804819    185.68646  0.022296645  0.022449255            6 
  695000   0.95323189   -7.4842433    185.95829  0.022297157  0.022430072            3 
  696000    0.9685746   -7.4763997    186.13871  0.022286723  0.022410935            2 
  697000   0.97566467   -7.4538734    186.91552  0.022347623  0.022391658            3 
  698000   0.95714675   -7.4795596    185.49637  0.022146176  0.022372313            6 
  699000   0.98917491   -7.4865222    186.24824   0.02220413  0.022352887           10 
  700000   0.97555997   -7.4504492      186.063  0.022150358  0.022333277            3 
  701000   0.98072758   -7.4510274    186.22827  0.022138406  0.022313735            2 
  702000     0.979302   -7.4676826    186.49457  0.022138482  0.022294112            5 
  703000   0.98139059   -7.4475352    186.66528  0.022127226  0.022274679            3 
  704000    0.9899242      -7.4415    187.01537  0.022137236  0.022255364            3 
  705000   0.96135686   -7.4641046    186.46421  0.022040686  0.022235912           12 
  706000    0.9760151   -7.4613733    186.73041  0.022040889  0.022216342            5 
  707000   0.97935657   -7.4682509    187.18236  0.022062985  0.022197135            4 
  708000   0.97893358   -7.4354695    187.51892  0.022071436  0.022178009            6 
  709000   0.97091711    -7.490645     187.2287  0.022006194  0.022158766            6 
  710000   0.95545769   -7.4658062    187.60668  0.022019563  0.022139482            7 
  711000   0.95381476    -7.488753    187.53411  0.021980088  0.022120316            4 
  712000   0.95391063   -7.4654302    187.88538   0.02199033  0.022101236            5 
  713000   0.97926345   -7.4677366    188.36611  0.022015675  0.022082155            4 
  714000   0.94533819   -7.4754014    188.78491   0.02203372  0.022063353            4 
  715000   0.98390466   -7.4785964    188.43028  0.021961571  0.022044672            2 
  716000   0.98876713   -7.4687642    187.93812  0.021873617  0.022025642            3 
  717000   0.97108678    -7.481537     188.2101   0.02187472  0.022006364            7 
  718000   0.95808208   -7.5035617    188.19404   0.02184239  0.021987137            8 
  719000   0.96347701   -7.5077687    187.79543  0.021765812  0.021967937            6 
  720000   0.96471943   -7.4990203    188.97636  0.021872264  0.021948953           11 
  721000   0.95500587   -7.5101678    188.53497  0.021790912  0.021929932            7 
  722000   0.96046429   -7.4346476    189.77305   0.02190363  0.021911189            7 
  723000   0.96676892   -7.5172333    189.39873  0.021830191   0.02189246            2 
  724000   0.97589172   -7.4586457    188.97739  0.021751541  0.021873594            6 
  725000   0.96604587   -7.4949182    189.83745  0.021820396  0.021854754            6 
  726000   0.98316378   -7.4792167    189.10068  0.021705771  0.021836085            4 
  727000   0.95031189   -7.4827378    189.81705   0.02175803  0.021817382            7 
  728000   0.96903195   -7.4824545     190.1395  0.021765053  0.021798592            5 
  729000   0.94282782   -7.4795114    190.30436  0.021754042  0.021779903            4 
  730000   0.95539272   -7.4718675    189.58503  0.021642126  0.021760902            4 
  731000   0.95434547   -7.4752102    190.44397  0.021710439  0.021742081            8 
  732000   0.95346506   -7.4628865    190.68584  0.021708315  0.021723358            5 
  733000    0.9506447   -7.4779125    191.14728   0.02173116  0.021704762            4 
  734000   0.95248878   -7.4640256    190.69244  0.021649914  0.021686061           10 
  735000   0.95242439   -7.4689866    191.00749  0.021656178  0.021667389            7 
  736000   0.95667162   -7.5236415    190.15216   0.02152991  0.021648673            6 
  737000   0.95809988    -7.492998    190.50382  0.021540459  0.021629758            6 
  738000   0.95237187   -7.5009083    191.08928   0.02157738  0.021610914            3 
  739000   0.95026069    -7.522478    190.62826  0.021496196  0.021592366            4 
  740000    0.9555672    -7.492018     191.0954  0.021519752  0.021573671            5 
  741000   0.95752936   -7.4780699    191.34526   0.02151881  0.021555145            3 
  742000   0.95566206   -7.5080376    191.82893  0.021544129  0.021536701            4 
  743000   0.96353727   -7.5193445    191.28328  0.021453934  0.021518182           14 
  744000   0.94681462   -7.4938037    192.00096  0.021505483  0.021499492            3 
  745000   0.95604635   -7.5600145    191.15483  0.021381973  0.021480535            6 
  746000   0.94954893    -7.481989    191.68569  0.021412611   0.02146161            4 
  747000   0.97307821   -7.5130366    191.64076  0.021378934  0.021442708            6 
  748000   0.94954638   -7.5423391    191.84505  0.021373112  0.021423795           15 
  749000   0.97456591   -7.5340274    192.12855  0.021376118  0.021405231            3 
  750000   0.91714644   -7.5125064    192.80711  0.021423013  0.021386795            3 
  751000   0.94715238   -7.5253191     192.4741  0.021357535  0.021368405            4 
  752000   0.96008923   -7.4889733    193.18886   0.02140834  0.021350179           18 
  753000   0.94531258   -7.5176988    192.80143  0.021337033  0.021332136            7 
  754000   0.96712672   -7.5264819    192.80252  0.021308855  0.021314024            6 
  755000   0.96895412   -7.5473388    193.22299  0.021327041  0.021295789            9 
  756000   0.96167261   -7.5390964    193.10689  0.021286033  0.021277837            4 
  757000   0.95654444   -7.4864547     193.5213  0.021303533  0.021259511            3 
  758000    0.9421587   -7.5102287    193.46213  0.021268923  0.021241801            3 
  759000   0.94027131   -7.5105405    193.91783  0.021290935  0.021224227            6 
  760000   0.93847328    -7.488506    194.61355  0.021339205  0.021206603            5 
  761000   0.94572911   -7.4995791    194.70759  0.021321461  0.021189005            4 
  762000   0.96113753   -7.5407235    194.21761  0.021239897   0.02117137            1 
  763000   0.97287171   -7.5229821    194.71731  0.021266635  0.021153965            3 
  764000   0.97626242   -7.5822976    194.86689  0.021255115  0.021136372            7 
  765000   0.94894685   -7.5668584     194.3285  0.021168682   0.02111862            7 
  766000    0.9556971   -7.5784571    194.09688  0.021115849   0.02110078            6 
  767000   0.92726163   -7.5870186    194.83251  0.021168243  0.021082957            9 
  768000   0.94704141   -7.5534423    194.74304  0.021130972  0.021065047            9 
  769000   0.94164949   -7.5574909    194.88785  0.021119186  0.021047448           17 
  770000    0.9469929   -7.5331041    195.36959  0.021143895   0.02102983           10 
  771000    0.9414257   -7.5120197    195.66237  0.021148116   0.02101246            3 
  772000   0.95461208   -7.5254207     195.3702  0.021089184  0.020995047            3 
  773000   0.92892058   -7.5288965    195.62841  0.021089738  0.020977913            3 
  774000    0.9469424   -7.5379173    195.26433  0.021023291  0.020960421            4 
  775000   0.95462693   -7.5925573    194.82365   0.02094878  0.020942727           10 
  776000   0.94224458   -7.5136974    195.81903  0.021028676  0.020925037            5 
  777000   0.95745971   -7.5505819    195.29252  0.020945144   0.02090722            4 
  778000   0.95363966    -7.568686    195.77181   0.02096956  0.020889288            4 
  779000   0.92612848   -7.5552913    195.59472  0.020923697  0.020871406            4 
  780000   0.92877631   -7.5176757    196.33744  0.020976223  0.020853689            8 
  781000   0.94250508   -7.5475767    196.07415  0.020921271  0.020835999           12 
  782000   0.91705863   -7.5418283    195.84273  0.020869856  0.020818466           19 
  783000   0.93565704   -7.5501869    196.37882  0.020900257  0.020800806            5 
  784000   0.95265782   -7.5937564     196.3461  0.020870121  0.020783024            8 
  785000   0.94152479   -7.5700726    196.42776  0.020852204  0.020765196            8 
  786000   0.94779075   -7.5145369    197.25964  0.020913872   0.02074769            3 
  787000   0.94647241   -7.5542971    196.50064  0.020806929  0.020730168            8 
  788000   0.93024827   -7.5229521    197.05999  0.020839677  0.020712786            6 
  789000   0.95063614    -7.568911    196.26122  0.020728899  0.020695281            4 
  790000    0.9443784    -7.579338    196.57832  0.020736109  0.020677654           22 
  791000   0.94751225   -7.5837677    197.31619  0.020787631  0.020660043            5 
  792000   0.93179233   -7.5858982    196.83738  0.020711004  0.020642303            6 
  793000   0.92607487   -7.5863128    197.18089  0.020720985  0.020624441            8 
  794000   0.94483474   -7.5554341    196.74749  0.020649401  0.020606776            3 
  795000   0.94212018    -7.548181    197.31942  0.020683378  0.020589085            4 
  796000   0.93481221    -7.565942    197.14867  0.020639517  0.020571435            7 
  797000   0.94771664   -7.6202049    196.68698  0.020565348   0.02055361            9 
  798000   0.93297915   -7.6021783    197.01665  0.020574002  0.020535576           10 
  799000   0.93370616   -7.6188225     197.1785  0.020565134   0.02051754           10 
  800000   0.94177175   -7.5924183    197.19521  0.020541168  0.020499449            4 
  801000   0.95179247   -7.5505249    196.84832  0.020479434   0.02048156            5 
  802000   0.93540252   -7.5598597    197.26592   0.02049729  0.020463415            5 
  803000   0.92930089   -7.5951338    197.27489  0.020472695  0.020445269            3 
  804000     0.917719   -7.5432962    197.09529  0.020428616  0.020427047            4 
  805000   0.92651829   -7.5965337    197.08633  0.020402312  0.020408933            7 
  806000   0.92196527   -7.5463704    198.13572  0.020485496  0.020390894            5 
  807000    0.9133084   -7.5817172    198.07877  0.020454231  0.020372907            5 
  808000   0.89795819    -7.581089    197.56378  0.020375803  0.020354731            9 
  809000   0.91320873   -7.6075406    197.78903  0.020373818  0.020336531            7 
  810000   0.92709854   -7.5881471     197.6126  0.020330515  0.020318266            4 
  811000   0.92741595   -7.6408725     197.3484  0.020278299  0.020299998            5 
  812000   0.92357429    -7.566855    198.39058  0.020360282  0.020281781            4 
  813000   0.92120539   -7.6193048    197.18906  0.020212081  0.020263734           12 
  814000   0.92525951   -7.5949758     198.5725   0.02032888  0.020245751            7 
  815000   0.94409221   -7.5849928    198.65595  0.020312469  0.020227643            6 
  816000   0.92760253   -7.5895552    198.15615  0.020236534  0.020209568            8 
  817000   0.93007628   -7.5697138    199.00063  0.020297902  0.020191506            4 
  818000   0.93130717   -7.5954366    198.56536  0.020228744  0.020173526            3 
  819000   0.92015502    -7.617568    198.62658  0.020210274  0.020155619            7 
  820000   0.92553597   -7.6410528    198.42342  0.020164982   0.02013756            5 
  821000   0.92652133   -7.5633808    199.22957  0.020222246  0.020119692            5 
  822000   0.90757322   -7.6105136    199.11223  0.020185749  0.020101948           13 
  823000   0.91932586   -7.5799067    199.15397  0.020165448  0.020084435           16 
  824000   0.93067637   -7.5944248    199.08121  0.020133617  0.020066897            6 
  825000    0.9264062   -7.5629725    199.18163  0.020119356  0.020049245            7 
  826000   0.92245295   -7.5803387    199.30321  0.020107265  0.020031598           10 
  827000   0.92283398   -7.5801029    199.84091  0.020137133  0.020013863            3 
  828000   0.92450701   -7.5862812     199.3939  0.020067824  0.019996171            9 
  829000   0.91342068   -7.6149616    199.41559  0.020045797   0.01997842            5 
  830000   0.93000617   -7.6179912    199.43019  0.020023111  0.019960497            6 
  831000   0.92574206   -7.6269308    199.44244  0.020000244  0.019942521            5 
  832000    0.9123832   -7.6114134    199.96535   0.02002858  0.019924545            5 
  833000   0.92496648   -7.6585967    199.59709  0.019967696  0.019906594            5 
  834000   0.91046629   -7.6322009     199.5051  0.019934563   0.01988847            4 
  835000   0.91339396   -7.6420316    199.36912  0.019897117  0.019870273            8 
  836000   0.91548279    -7.649581    199.35055  0.019871466  0.019852054           11 
  837000   0.91915254   -7.6869749    199.91382  0.019903806  0.019833945           11 
  838000   0.94003888   -7.6708073    199.28635  0.019817656  0.019815777           15 
  839000   0.91903985   -7.6542781    200.17524  0.019882325   0.01979772            3 
  840000   0.91529964   -7.6706021    199.13514   0.01975547  0.019779797           10 
  841000      0.91256   -7.6364268    200.27345  0.019844773  0.019761853           11 
  842000   0.90886048   -7.6008834    200.92759  0.019885945  0.019744219            7 
  843000   0.90789904   -7.6465472    200.46056  0.019816188  0.019726625            7 
  844000   0.92295443   -7.6356945    200.40652  0.019787374  0.019708832           16 
  845000   0.91042137   -7.6936891    200.29854  0.019753308  0.019690977            5 
  846000   0.91482042   -7.6082391    201.04429  0.019803417  0.019673423            3 
  847000   0.91630436   -7.6386412    201.38005  0.019813071  0.019655936            5 
  848000    0.9244324   -7.6589917    200.58976  0.019712044  0.019638368            4 
  849000   0.92752489   -7.6716356    201.14879  0.019743698  0.019620807            8 
  850000   0.91241007   -7.6716245    200.62627  0.019669242  0.019603171            7 
  851000   0.90608751   -7.6659244    201.20908    0.0197032  0.019585399            7 
  852000   0.94098463   -7.6643269    201.12922  0.019672263  0.019567924            3 
  853000   0.90788203   -7.6120781      201.446  0.019680149  0.019550405            6 
  854000   0.90355623   -7.6358337    201.73993  0.019685785  0.019532774            7 
  855000   0.93057034   -7.6275964    201.64127  0.019653145  0.019515176            4 
  856000   0.90843924    -7.634272    201.81813  0.019647404  0.019497696            6 
  857000   0.91207735   -7.6993156    200.86566  0.019531861  0.019479993           11 
  858000   0.91902911   -7.6684629     201.5636  0.019576884  0.019462226            9 
  859000   0.89406876   -7.6331231    201.60228  0.019557846  0.019444603            8 
  860000   0.92791017   -7.6790493     200.9822  0.019475019  0.019426976            7 
  861000   0.91549636   -7.6511889    201.46289  0.019498925  0.019409385            4 
  862000   0.91081819   -7.6532442    201.81229  0.019510082  0.019391775           12 
  863000   0.91188124   -7.6403971     202.3696   0.01954129  0.019374292            9 
  864000   0.92094123   -7.6785044    201.78644  0.019462427  0.019356776            7 
  865000   0.92037186    -7.637142    201.80193  0.019441419  0.019339399            8 
  866000   0.91480879    -7.644948    202.10208  0.019447852  0.019322102            6 
  867000   0.89833178   -7.6914834    202.11328  0.019426498  0.019304671            6 
  868000   0.91477432   -7.6675404    202.70791  0.019461205  0.019287223            3 
  869000   0.92939111   -7.6728442    202.39375  0.019408684  0.019270024           11 
  870000   0.90272306   -7.6101116    202.97894  0.019442427  0.019252929            6 
  871000   0.92336183   -7.6218565    203.33872  0.019454528  0.019235808            7 
  872000   0.89215447   -7.6176494    203.59832  0.019457026  0.019218695            4 
  873000   0.90149792   -7.6305327    203.14111  0.019391095  0.019201701            6 
  874000   0.91541134   -7.6203546    203.38776  0.019392426  0.019184728            8 
  875000   0.91189929   -7.6818892    203.09668  0.019342541  0.019167744            5 
  876000   0.92077915   -7.6985181    202.62417  0.019275511   0.01915059            3 
  877000   0.90725785   -7.6733887    203.27184  0.019315074  0.019133586           16 
  878000   0.90933402   -7.6644834    202.91182  0.019258905  0.019116421           13 
  879000    0.9093475   -7.6547615    204.04872  0.019344778  0.019099475            4 
  880000   0.90995708   -7.6937597    203.97485    0.0193158  0.019082784            5 
  881000   0.90712658   -7.6633338    204.32676  0.019327162  0.019066006            8 
  882000   0.89274317   -7.6488973    204.23743  0.019296809  0.019049248            3 
  883000   0.90668478   -7.6822323    204.41889  0.019292081  0.019032478            9 
  884000   0.88829641   -7.6221987      204.979  0.019323058  0.019015843            6 
  885000     0.905984   -7.7033893     203.8654  0.019196365  0.018999203            6 
  886000   0.91211214   -7.7153387    203.29892  0.019121419  0.018982299            7 
  887000    0.9006521   -7.7016948    204.15817  0.019180587  0.018965291            6 
  888000   0.87693486   -7.7082823    203.57677  0.019104427  0.018948423            5 
  889000   0.89877944   -7.6632669    204.24935  0.019145983  0.018931505           14 
  890000   0.89261087   -7.6823659    203.83066  0.019085268   0.01891467            5 
  891000   0.90505822    -7.703555    203.70791  0.019052367  0.018897817           12 
  892000    0.8942667   -7.6766469    204.08514   0.01906625  0.018880945           12 
  893000   0.91935077   -7.6817293    204.52329  0.019085787  0.018864128            7 
  894000   0.88533722    -7.675532     204.3808  0.019051156  0.018847327            6 
  895000   0.87064019    -7.685978    204.78697  0.019067688  0.018830454            6 
  896000   0.91429137   -7.6870798     204.3802  0.019008575  0.018813549            7 
  897000     0.916679   -7.7364058    203.62895  0.018917591  0.018796496            6 
  898000   0.89714202   -7.7189178    204.00309  0.018931245  0.018779287           11 
  899000   0.86743711   -7.7153955    204.29036  0.018936815  0.018762147            3 
  900000   0.87258231   -7.7174255      204.182   0.01890574  0.018745052           11 
  901000   0.87694882   -7.7192694    204.06817   0.01887423  0.018727892           10 
  902000   0.90817227   -7.7195941    204.38322  0.018882411  0.018710834            8 
  903000   0.87329165    -7.728323    204.05981  0.018831655  0.018693819            6 
  904000   0.88416864   -7.7017675    204.71577  0.018871292  0.018676658            5 
  905000   0.86994996   -7.6974521    204.59497  0.018839316  0.018659577            4 
  906000   0.89891654   -7.7280669    204.62879  0.018821633  0.018642591           16 
  907000   0.90449851   -7.7376666    204.21367  0.018762741  0.018625474            7 
  908000    0.8854802   -7.6828713    205.06305   0.01882003  0.018608506            8 
  909000   0.88401716   -7.6800745     204.8084  0.018775981  0.018591664           33 
  910000   0.86508056   -7.6970083    205.01926  0.018774658  0.018574879           13 
  911000    0.8828506   -7.6678756    205.66642  0.018813247  0.018558175           17 
  912000   0.89914068   -7.6819927    205.41579  0.018769718  0.018541421           12 
  913000   0.88582333   -7.7356288    204.82456  0.018695196  0.018524594           30 
  914000   0.89935789    -7.711384    205.74211  0.018758398  0.018507582            6 
  915000   0.88429889   -7.7022115    205.19262  0.018687853  0.018490679            4 
  916000   0.88914487   -7.6786089    205.33351  0.018680268  0.018473835            8 
  917000   0.86893689   -7.6962186    206.20844  0.018739407   0.01845692            4 
  918000   0.86583132   -7.6793607    205.66615  0.018669767  0.018440143            6 
  919000   0.88782308   -7.7070999    205.46663   0.01863136  0.018423434            9 
  920000   0.89994108   -7.6777091    205.55514  0.018619125  0.018406749            9 
  921000   0.89029882   -7.7198888    206.17958  0.018655409   0.01838998            5 
  922000   0.87521914   -7.7183137    205.40049  0.018564759  0.018373183            6 
  923000   0.88852575   -7.7420719    205.51596   0.01855507  0.018356312           10 
  924000   0.88951195   -7.7326149    205.49945    0.0185335   0.01833949           21 
  925000    0.8916633   -7.7362922    206.02964  0.018561229  0.018322709           20 
  926000   0.87653882   -7.7290997    205.41851  0.018486187  0.018305889            9 
  927000   0.89324734   -7.7105983    206.47865  0.018561547   0.01828908            9 
  928000   0.89391511   -7.7640081    206.37591   0.01853232  0.018272415            8 
  929000   0.89666071   -7.7496106    206.44035  0.018518151  0.018255765           12 
  930000   0.90921114   -7.7792468    205.31607  0.018397497  0.018238944            6 
  931000    0.8829138   -7.7242474    206.54226  0.018487492  0.018222107            4 
  932000   0.87971192   -7.7462732    206.32525  0.018448252  0.018205471            8 
  933000   0.87939466    -7.726051    206.83906  0.018474371  0.018188905            6 
  934000   0.90618563   -7.7351273    206.15807  0.018393832  0.018172338            7 
  935000   0.86619241   -7.7758027    206.36164  0.018392303  0.018155619            4 
  936000   0.87244858   -7.7642934     205.6885  0.018312723  0.018138797            5 
  937000   0.87594356   -7.7590733    206.39235  0.018355776  0.018121997            8 
  938000   0.88735979   -7.7642286    205.63547  0.018268965  0.018105114            7 
  939000   0.88581668   -7.7325717    206.25443   0.01830444  0.018088395            3 
  940000   0.88382484   -7.7578603    206.56428  0.018312436  0.018071599            6 
  941000   0.88657307   -7.7243071    206.42715  0.018280832  0.018054937            5 
  942000   0.88137255   -7.7440057    206.66358   0.01828234  0.018038172           10 
  943000   0.88887887   -7.7553663    206.48012  0.018246741  0.018021319            5 
  944000   0.87811858   -7.7322582    206.36818   0.01821753  0.018004487            4 
  945000   0.86771691   -7.7791589    206.29546  0.018191839  0.017987687            5 
  946000     0.878618   -7.7602838    207.13267  0.018246359  0.017970826            8 
  947000   0.88174865   -7.7935094    206.34962  0.018158186  0.017954067           13 
  948000   0.87983101   -7.7979459    206.52392  0.018154353  0.017937424           11 
  949000   0.87587174   -7.7810741    207.14388  0.018189663  0.017920905            5 
  950000   0.88416866   -7.7531693    206.94402  0.018152984  0.017904488            6 
  951000   0.88024914   -7.7724038     207.1586  0.018152699  0.017888131           11 
  952000   0.87188169   -7.7828821    207.30054  0.018146056  0.017871783            7 
  953000   0.87900972   -7.7531223     207.9107  0.018180369  0.017855472            8 
  954000   0.87265712   -7.7346315    207.47383  0.018123151  0.017839211           13 
  955000    0.8708502   -7.7518587    208.05626  0.018154996  0.017822976            8 
  956000   0.87102288    -7.779923    207.36634  0.018075867  0.017806621            8 
  957000   0.87593106   -7.7889945    207.71279  0.018087147  0.017790163           10 
  958000   0.84763051   -7.7729045    207.53463  0.018052768  0.017773748            7 
  959000   0.88469375   -7.7762819    207.26668  0.018010661  0.017757274            6 
  960000   0.87667773   -7.7792676    207.80955  0.018039023  0.017740795            5 
  961000   0.86419954   -7.7850952    207.31715  0.017977554  0.017724325            8 
  962000   0.86423723   -7.7993446    207.93617  0.018012489  0.017707924           10 
  963000    0.8598807    -7.767557    208.09333  0.018007384  0.017691578           21 
  964000   0.86412651   -7.8067753    207.40437  0.017929147  0.017675144            5 
  965000   0.88146319   -7.8157875    207.51438  0.017920067  0.017658717           13 
  966000   0.88279425   -7.8136596    208.18929  0.017959739  0.017642247            7 
  967000   0.87462703   -7.7836634    207.67697  0.017897016  0.017625916            6 
  968000   0.87383096   -7.7474295    208.02359  0.017908367  0.017609681            9 
  969000   0.87475606   -7.7877901    208.04715  0.017891912   0.01759344           11 
  970000   0.86774703   -7.7919193    208.48025  0.017910674  0.017577325            3 
  971000   0.87775744     -7.76057     208.2641  0.017873678  0.017561172            6 
  972000   0.85937586   -7.7844817     208.3619  0.017863675  0.017544986            9 
  973000   0.85196637    -7.797808    207.99829  0.017814174  0.017528658            4 
  974000   0.86722238   -7.8050261    207.81277  0.017780011  0.017512276            7 
  975000   0.86160033   -7.8106158    207.74384  0.017755883  0.017495979            6 
  976000   0.89491375   -7.8195606    208.03894  0.017762887  0.017479565           14 
  977000   0.86596926   -7.7842297    208.34964  0.017771208  0.017463292            9 
  978000   0.84279203   -7.7803748     208.0589  0.017728264  0.017446854            4 
  979000    0.8471801   -7.8072326    207.19861  0.017636927  0.017430297           16 
  980000   0.84942951   -7.8041128    207.87599   0.01767653  0.017413835           17 
  981000   0.86949803   -7.8393337     207.6964  0.017643255  0.017397443            7 
  982000   0.84921839   -7.7699853    208.32562  0.017678685  0.017381091            9 
  983000   0.83832395   -7.7976963    207.66214  0.017604454  0.017364737            7 
  984000    0.8658812   -7.8388809    208.23447  0.017635033  0.017348363           11 
  985000   0.86690652   -7.8368268    208.43021   0.01763369  0.017331872           10 
  986000   0.86282769   -7.8294268    207.96299  0.017576318  0.017315463            6 
  987000     0.854668    -7.844269    207.96991  0.017559094  0.017299055           14 
  988000   0.86749421   -7.8235048    208.31009  0.017570015  0.017282682           24 
  989000    0.8569816   -7.8311868    208.24536  0.017546795  0.017266196            8 
  990000    0.8705899    -7.857331    207.98413  0.017507081  0.017249732           13 
  991000   0.86057623   -7.8391845    207.84767  0.017477941  0.017233124           13 
  992000   0.86646919   -7.8760045    207.89687  0.017464455  0.017216536           12 
  993000   0.85511047   -7.8745689    208.14945  0.017468064   0.01719993            4 
  994000   0.87696847   -7.8475124    208.05297  0.017442402  0.017183373           12 
  995000   0.85272404   -7.8753956    208.02693  0.017422691  0.017166745           16 
  996000   0.84292024   -7.8547165    207.75523  0.017382466  0.017150223           19 
  997000   0.84891942   -7.8386803    208.07463  0.017391728  0.017133825           11 
  998000   0.85123462   -7.8513194     208.4646  0.017406863  0.017117372           18 
  999000   0.87614398   -7.8240672    208.43421  0.017386905  0.017100943           27 
 1000000   0.84372598   -7.8210247    208.92484  0.017410403  0.017084649           41 
 1001000   0.87114268   -7.8886627    208.11168  0.017325315  0.017068277           43 
 1002000    0.8431974   -7.8374536    208.68018  0.017355304  0.017051993            9 
 1003000   0.84870305   -7.8480342     208.7394  0.017342921  0.017035668           27 
 1004000   0.86307516   -7.8434578    208.11082  0.017273474  0.017019395           17 
 1005000   0.87951071   -7.8745883    208.44198  0.017283746  0.017003176           26 
 1006000   0.84639322     -7.81724    209.00275  0.017313017  0.016986932            9 
 1007000   0.83537041   -7.8679505    208.88514  0.017286093  0.016970704           14 
 1008000   0.86308414   -7.8630205    208.58409  0.017244055  0.016954379            7 
 1009000    0.8569948   -7.8871708    208.01478  0.017179946  0.016938055            9 
 1010000    0.8544733   -7.8781577    208.14121  0.017173367  0.016921744           22 
 1011000   0.85075233    -7.857701    209.04144  0.017230583  0.016905545           18 
 1012000    0.8374383   -7.8531323    208.52326  0.017170888  0.016889372           21 
 1013000   0.84427871   -7.8386907    209.19722   0.01720938  0.016873352           28 
 1014000   0.84937207   -7.8318945    209.28693  0.017199781  0.016857279           11 
 1015000    0.8482775   -7.8458586    208.96427  0.017156344  0.016841154            7 
 1016000   0.83126103   -7.8689273    208.88794  0.017133197  0.016824885           20 
 1017000   0.85539705    -7.846806      208.477  0.017082678  0.016808588           25 
 1018000   0.85773391   -7.8792032    208.65134  0.017080169  0.016792333           25 
 1019000    0.8288596   -7.8785848    208.91938  0.017085327  0.016776099           26 
 1020000   0.84433833   -7.8950418    208.34173  0.017021383   0.01675988           20 
 1021000   0.84877861   -7.8602094    208.99548   0.01705807  0.016743764           20 
 1022000   0.84366273   -7.8304584    209.04731  0.017045605  0.016727632           17 
 1023000   0.85216793   -7.8756693    208.92697   0.01701914  0.016711443           17 
 1024000   0.83777083   -7.8990742    208.39991  0.016959628  0.016695203           22 
 1025000   0.84876539   -7.8486637    209.34392  0.017019831   0.01667892           10 
 1026000   0.84043643   -7.8528528    208.55261  0.016938971  0.016662656           10 
 1027000   0.83438418   -7.8899728    209.34953  0.016987141  0.016646396           11 
 1028000   0.86277436   -7.8663195    209.42932  0.016977085  0.016630262           11 
 1029000   0.83595721   -7.8738309    209.48494  0.016965091  0.016614229           11 
 1030000   0.84236683   -7.9019938    209.27987  0.016932029  0.016598177           23 
 1031000   0.83570953   -7.9005392    209.33533  0.016920088   0.01658215           29 
 1032000   0.85117299   -7.8965623    209.06626  0.016881966  0.016566135           34 
 1033000   0.84869257   -7.8845142    209.61452  0.016909851  0.016550263            7 
 1034000   0.84286243   -7.8616102    209.60875  0.016893032  0.016534335           22 
 1035000   0.85789739   -7.9019389    208.86522  0.016816845  0.016518443           33 
 1036000   0.83406327   -7.8888623    209.70159  0.016867889  0.016502557           26 
 1037000   0.82857151    -7.899375    209.44233  0.016830788  0.016486727           36 
 1038000    0.8454767   -7.8716795    209.59779  0.016827055  0.016470891           13 
 1039000   0.85200603   -7.8927168    209.31073  0.016787836  0.016455138           10 
 1040000    0.8408158   -7.8502368    210.19572  0.016842606  0.016439396           29 
 1041000   0.83174418   -7.8821154    210.32612  0.016836865  0.016423716           17 
 1042000   0.85754546   -7.8825922    209.92643  0.016788742  0.016407988           12 
 1043000   0.83351054   -7.8809189    210.03088  0.016780991  0.016392225           11 
 1044000   0.83432779   -7.8909548    209.91269  0.016755483  0.016376423            9 
 1045000   0.83799679   -7.9021275    209.45455  0.016702915   0.01636068           11 
 1046000   0.83640025   -7.8897645    209.83361  0.016717146  0.016344915            9 
 1047000   0.82777598   -7.9100523    210.05074  0.016718461  0.016329151           16 
 1048000   0.84043882   -7.9229515    209.53701  0.016661658  0.016313467           15 
 1049000   0.83044158   -7.8903901    210.17167  0.016696193  0.016297657           16 
 1050000   0.84284476   -7.9168637    209.72958  0.016645205  0.016281888           19 
 1051000   0.82242491   -7.9397104    209.74685  0.016630737  0.016266143           24 
 1052000   0.82704406   -7.9226054    209.96979  0.016632588  0.016250411           23 
 1053000   0.82310315   -7.9165641    210.28647  0.016641855  0.016234676           20 
 1054000   0.84848219   -7.9259305    209.90548  0.016595942   0.01621904           15 
 1055000   0.81950704   -7.8910504     210.3108  0.016612228  0.016203385           11 
 1056000   0.84428071   -7.9186226    210.37522   0.01660158  0.016187741           17 
 1057000   0.82021963   -7.9226704    210.32065  0.016581571  0.016172082           16 
 1058000   0.83369973   -7.9222185    210.62456  0.016589836  0.016156493           12 
 1059000   0.83863025    -7.922631    210.45618  0.016560921     0.016141           15 
 1060000   0.83366575   -7.8806251    210.54502  0.016552282  0.016125504            5 
 1061000    0.7995077   -7.9020748    210.28258  0.016516068  0.016109998           15 
 1062000   0.81962476   -7.9142037    210.38496   0.01650855  0.016094542            7 
 1063000   0.81994424   -7.9225775    210.74498  0.016521243  0.016079036            6 
 1064000   0.82395397   -7.9059843    210.57355  0.016492289  0.016063551           10 
 1065000   0.80855739   -7.9118686     210.5434  0.016474444  0.016048058            7 
 1066000   0.82036098   -7.9664774    210.35301  0.016444106  0.016032548           17 
 1067000    0.8426716   -7.9361128      209.933  0.016395892  0.016017009           11 
 1068000   0.82644102   -7.9103413    210.57186  0.016430389  0.016001482           10 
 1069000   0.85324002   -7.9011176    210.60669  0.016417734  0.015985993           22 
 1070000   0.82891496   -7.9380988    209.93231  0.016349868  0.015970489            7 
 1071000   0.81800034   -7.9277622    210.59216  0.016385944  0.015955044           40 
 1072000   0.83032076   -7.9114366    211.17859  0.016416246  0.015939627           10 
 1073000   0.81058084   -7.9703624     210.4166  0.016341767  0.015924211           15 
 1074000   0.80910182   -7.9408345    211.10247   0.01637977   0.01590886           25 
 1075000   0.82799412    -7.921985    210.51029  0.016318627  0.015893506           10 
 1076000   0.81358254   -7.9279567    210.54947  0.016306495  0.015878195           24 
 1077000   0.83398513   -7.9097589    211.37226  0.016355018  0.015862921           10 
 1078000    0.8251272   -7.9440342     210.8251   0.01629755  0.015847653           18 
 1079000   0.81490385   -7.9563912    210.36563   0.01624696  0.015832383           17 
 1080000   0.80974966   -7.9525657    211.02963  0.016283151  0.015817165           21 
 1081000   0.81511343   -7.9294157    210.45248  0.016223595    0.0158019           27 
 1082000   0.80999399   -7.9617646    210.97423  0.016248786  0.015786596           24 
 1083000   0.82349769   -7.9588964    210.76379  0.016217589  0.015771396           25 
 1084000   0.82120594   -7.9529796     210.7145  0.016198839  0.015756123           12 
 1085000   0.80676464   -7.9718781    210.96863  0.016203428   0.01574081           22 
 1086000   0.81588332   -7.9230721    211.58977   0.01623617  0.015725688           18 
 1087000   0.84150081   -7.9613176    210.76325  0.016157869   0.01571056           15 
 1088000   0.81751658   -7.9504532     211.4996  0.016199418  0.015695456           14 
 1089000   0.83056996   -7.9450624    211.10113  0.016154051  0.015680361           15 
 1090000   0.81503021   -7.9554117    211.26794  0.016151983  0.015665216           11 
 1091000   0.83224812   -7.9553478    211.44651  0.016150818  0.015650046            6 
 1092000   0.82451728   -7.9332179    210.95248  0.016098327  0.015634809            6 
 1093000   0.83267859   -7.9634829    211.11495  0.016095986  0.015619672            4 
 1094000    0.8111932    -7.968692    211.14634  0.016083664  0.015604576            7 
 1095000   0.82125179   -7.9523986    211.16534  0.016070421   0.01558949            9 
 1096000   0.81927094   -7.9257642    211.66352  0.016093638  0.015574526            4 
 1097000   0.81688948   -7.9323341     212.0149   0.01610566  0.015559596            4 
 1098000   0.80979489   -7.9247293    211.65976  0.016064038   0.01554472            4 
 1099000    0.8304021   -7.8965975    211.89555    0.0160673  0.015529859            6 
 1100000   0.80109285   -7.9710097    211.42783   0.01601726  0.015514933            8 
 1101000   0.82967909   -7.9785918    211.43809  0.016003489  0.015500001           20 
 1102000   0.82403202     -7.95559    211.32342  0.015980295  0.015485084           12 
 1103000   0.80252218   -7.9933825    211.96003  0.016013903  0.015470168           10 
 1104000   0.82532644   -7.9408857    212.05719  0.016006732  0.015455265           14 
 1105000   0.83087635   -7.9316768    212.26267  0.016007743  0.015440371           11 
 1106000   0.79701964   -7.9779811    211.29816  0.015920597  0.015425415           19 
 1107000   0.78909504   -7.9562639    212.24627  0.015977587  0.015410462           12 
 1108000   0.80100116   -7.9796315    211.38227  0.015898185  0.015395549           17 
 1109000   0.80345744   -7.9920281    211.50131  0.015892794  0.015380597           11 
 1110000   0.81638311    -7.977987    211.50615   0.01587884  0.015365707           13 
 1111000   0.82218923   -7.9742006    211.84106  0.015889668  0.015350842           20 
 1112000    0.8203197   -7.9627151     211.4088  0.015842986   0.01533599           16 
 1113000   0.82140823   -8.0098851    211.58098  0.015841643  0.015321162           19 
 1114000   0.81515781   -8.0005506      211.233  0.015801391  0.015306253           14 
 1115000   0.79127853   -8.0056055     211.3444  0.015795546  0.015291342           25 
 1116000   0.79401773   -7.9711046    211.49937  0.015792963  0.015276504            8 
 1117000   0.80098538   -7.9811909    211.95807  0.015813046  0.015261668           10 
 1118000   0.80910389   -8.0087783    211.49792  0.015764604  0.015246839           13 
 1119000    0.8060907   -7.9931714    211.42055  0.015744753  0.015231939           20 
 1120000   0.80858168   -8.0311065    211.12638  0.015708808  0.015217136           14 
 1121000   0.79870841   -8.0096947    211.72273  0.015739127  0.015202352            9 
 1122000   0.77785029   -8.0270185    211.45947  0.015705546  0.015187558           15 
 1123000   0.80764504   -8.0245646    211.44092  0.015690184  0.015172743           23 
 1124000   0.79729064   -7.9935112    211.90645  0.015710739  0.015157992           16 
 1125000   0.79605766   -8.0370419    211.41559  0.015660414   0.01514324           19 
 1126000   0.81123581   -8.0602486    211.15268  0.015627048  0.015128521           16 
 1127000   0.80216674   -8.0327466    211.51655  0.015640088  0.015113755           40 
 1128000   0.79378143   -8.0366984    211.59379  0.015631929  0.015099012           26 
 1129000   0.82770302   -8.0559722    211.23586  0.015591663  0.015084192           17 
 1130000   0.78960133   -8.0195123    211.90182  0.015626978  0.015069426           35 
 1131000   0.79143547   -8.0214713    211.37275  0.015574179  0.015054717           19 
 1132000   0.79431954   -7.9767476    212.74624  0.015661531   0.01504016           12 
 1133000   0.81551263   -8.0048854    211.86117   0.01558261  0.015025645           18 
 1134000   0.79073095   -7.9855947    212.64164  0.015626223    0.0150112           22 
 1135000   0.79933112   -7.9809989    212.42662  0.015596668  0.014996698           21 
 1136000   0.79311633   -8.0447403    211.40498  0.015507995  0.014982174           23 
 1137000   0.81026918   -8.0100241    212.45378  0.015571224  0.014967675           11 
 1138000   0.81356364   -8.0110167    212.03964  0.015527214  0.014953168           10 
 1139000   0.80112195   -8.0081326    212.45966  0.015544312  0.014938769           36 
 1140000   0.79249483     -8.00848    211.95073  0.015493474  0.014924371           20 
 1141000   0.81413622    -8.009516    212.18756  0.015497192  0.014909901           18 
 1142000   0.76451097    -8.004876    211.96972  0.015467726   0.01489543           50 
 1143000   0.80379282   -7.9813059    211.89125  0.015448473  0.014881022           29 
 1144000   0.78583776   -8.0115144    212.44669  0.015475429   0.01486668           18 
 1145000   0.79006387   -8.0302135    212.48643  0.015464806  0.014852365           20 
 1146000   0.77816469   -8.0012348    212.82307  0.015475791  0.014838001           32 
 1147000   0.77891481   -8.0529867    211.77632  0.015386248  0.014823628           24 
 1148000   0.80457914   -8.0278573    212.25784  0.015407799  0.014809231           31 
 1149000   0.79875827   -8.0316993    212.28704  0.015396507  0.014794818           29 
 1150000   0.82512142   -8.0605548    211.89948  0.015355035  0.014780383           14 
 1151000   0.78060544   -8.0551865    212.07985  0.015354753  0.014765991           14 
 1152000   0.79891169   -8.0503319    211.78844  0.015320344  0.014751606           60 
 1153000    0.7992506   -8.0462269    212.02338  0.015324037  0.014737213           30 
 1154000   0.80073873   -8.0348858    211.59246  0.015279641  0.014722886           42 
 1155000    0.7989411    -8.078166    212.05418  0.015299724  0.014708482           26 
 1156000   0.79439796   -8.0463363    211.92834  0.015277417  0.014694116           86 
 1157000   0.79740789   -8.0767768    211.71634  0.015248944   0.01467963          118 
 1158000   0.79391978   -8.0927121    211.73862  0.015237379   0.01466517          149 
 1159000   0.78656637    -8.051139    211.58795  0.015213398  0.014650725          156 
 1160000   0.78896135   -8.0592783    212.40374  0.015258889  0.014636294          118 
 1161000   0.79422078   -8.0621229    212.08717  0.015223024  0.014621879          101 
 1162000   0.78819994   -8.0587128    211.76766  0.015187009  0.014607451          143 
 1163000   0.79411211   -8.0875665    212.10671  0.015198245  0.014593095          179 
 1164000    0.7947276   -8.1010332    211.64609  0.015152211  0.014578775          155 
 1165000   0.78728105    -8.069062    212.23309  0.015181194  0.014564417          111 
 1166000   0.78633986   -8.0506951    212.22335  0.015167478  0.014550144          192 
 1167000   0.79352226   -8.0801108    211.15818  0.015078419   0.01453584          167 
 1168000    0.7899537   -8.0629439    211.95325  0.015122235  0.014521495          108 
 1169000   0.79211733   -8.0773155    211.66332  0.015088632  0.014507162          174 
 1170000   0.78661332   -8.0881625    211.68637  0.015077377  0.014492847          191 
 1171000   0.80733174   -8.0886227    212.02184  0.015088374   0.01447847          177 
 1172000    0.7942338   -8.0761091    211.93881  0.015069597  0.014464093          153 
 1173000   0.76774445   -8.0879457    211.63412  0.015035104  0.014449774          193 
 1174000   0.76371015   -8.0620492    212.15475  0.015059253  0.014435445          216 
 1175000   0.77883801   -8.0902875    211.70194  0.015014322  0.014421085          228 
 1176000   0.78620368   -8.1065164    211.67178  0.014999417  0.014406745          194 
 1177000   0.76663765   -8.0801897    211.62444  0.014983322  0.014392428          168 
 1178000   0.76465138    -8.110529    211.65467  0.014972741  0.014378086          186 
 1179000   0.79724173   -8.0915085    211.62404  0.014957877  0.014363761          212 
 1180000   0.76727684   -8.0958117    211.80202   0.01495777   0.01434946          239 
 1181000   0.76959469   -8.1140365    211.43875  0.014919471  0.014335161          211 
 1182000   0.79498506    -8.105438    211.63332  0.014920567  0.014320854          201 
 1183000    0.7929533   -8.0929149    211.59822  0.014905482  0.014306597          146 
 1184000   0.77228239   -8.0902145    211.60371  0.014893279  0.014292281          117 
 1185000   0.79100549   -8.0838679    212.00826  0.014909161  0.014278008          179 
 1186000   0.76693306   -8.1209985    211.96526  0.014893568  0.014263779          228 
 1187000   0.78933209   -8.0962236    211.64309  0.014858403  0.014249621          178 
 1188000   0.77352493   -8.1272316    211.93464  0.014866347  0.014235454          213 
 1189000   0.77649033   -8.1309308    211.27989  0.014807954  0.014221189          191 
 1190000   0.75610501   -8.1434639    211.61517  0.014818989  0.014206933          287 
 1191000   0.78365812   -8.1325565    211.71874  0.014813794  0.014192694          230 
 1192000    0.7911996   -8.1147602    211.40756  0.014779611  0.014178468          265 
 1193000   0.77626363   -8.1392443    211.59304  0.014780179  0.014164272          337 
 1194000    0.7801225    -8.123361    211.55745  0.014765316  0.014150128          291 
 1195000   0.77809791   -8.1392867    211.25504  0.014731871  0.014135968          340 
 1196000   0.79177528   -8.1231274    211.36874  0.014727476  0.014121798          303 
 1197000   0.77791607   -8.1305071    211.32499  0.014712127  0.014107692          263 
 1198000   0.77003672   -8.1330337    211.33101  0.014700265  0.014093623          262 
 1199000   0.77448002   -8.1209386    211.42204  0.014694331  0.014079558          261 
 1200000   0.76109295   -8.1358598    211.65262  0.014698098  0.014065434          248 
 1201000   0.78895776   -8.1483565    211.97024  0.014707899  0.014051323          318 
 1202000   0.78001059   -8.1533649    211.74026  0.014679719  0.014037231          297 
 1203000   0.79212636   -8.1291581    211.50505  0.014651223  0.014023133          187 
 1204000   0.77844155   -8.1726345    211.81043   0.01466019  0.014009081          175 
 1205000    0.7752426   -8.1587671    211.15333  0.014602582  0.013994986          205 
 1206000   0.75265114   -8.1207834    211.53964  0.014617167  0.013980898          226 
 1207000   0.77313778   -8.1292348    211.53442  0.014604696  0.013966839          259 
 1208000   0.77103296   -8.1597034     211.4882  0.014589418  0.013952754          156 
 1209000   0.76985368   -8.1649832    211.37704  0.014569688  0.013938641          343 
 1210000   0.76877607   -8.1972905    210.99973  0.014531662  0.013924575          222 
 1211000   0.75857276   -8.1898618    211.01718  0.014520863  0.013910494          310 
 1212000   0.76574287   -8.1832515     211.3567  0.014532227  0.013896422          282 
 1213000   0.76020739   -8.1564995    211.51088  0.014530838  0.013882357          179 
 1214000   0.76768535   -8.1823618    211.30847  0.014504975  0.013868305          384 
 1215000   0.76789746   -8.1644872     211.7189  0.014521186  0.013854256          280 
 1216000   0.76324959   -8.1742074    211.31766  0.014481748  0.013840215          315 
 1217000   0.75337169    -8.163765    211.68979  0.014495329  0.013826236          228 
 1218000   0.74865716   -8.1551723    211.42373  0.014465225  0.013812256          305 
 1219000   0.77240486   -8.1826551    211.40337  0.014451967  0.013798302          323 
 1220000   0.75946587   -8.1736952    210.97148   0.01441062   0.01378436          327 
 1221000   0.76762528   -8.1770115    211.20313  0.014414628  0.013770439          253 
 1222000   0.75064329    -8.206651    210.88651   0.01438124  0.013756446          238 
 1223000   0.77248949   -8.1780969    211.63626  0.014420568  0.013742471          283 
 1224000   0.76721748   -8.2079383    211.35428  0.014389588  0.013728531          302 
 1225000   0.76038781   -8.1905669    211.31217  0.014374978  0.013714611          240 
 1226000   0.77140463   -8.2064109    210.79005  0.014327763  0.013700698          287 
 1227000   0.76056253   -8.1878346    211.58875  0.014370331  0.013686811          296 
 1228000    0.7831124   -8.1642397    211.50302  0.014352811  0.013672982          291 
 1229000   0.76700714   -8.1826824     211.4444  0.014337158  0.013659189          300 
 1230000   0.75269328   -8.1774771    211.67298  0.014340988  0.013645372          296 
 1231000   0.74414465   -8.1730388    211.45156  0.014314348  0.013631579          285 
 1232000   0.74579095   -8.1937083    211.39732  0.014299061  0.013617814          313 
 1233000   0.76363962   -8.1760397    211.86897  0.014319341  0.013604081          313 
 1234000   0.76203976   -8.1783464    211.61838  0.014290815  0.013590348          297 
 1235000   0.77827885    -8.175659    212.20314    0.0143187  0.013576666          337 
 1236000   0.76919964   -8.1722132    211.36721  0.014250756  0.013563022          343 
 1237000   0.74275245   -8.1771445    211.24969  0.014231319  0.013549366          346 
 1238000   0.75565275   -8.2008383    211.37174  0.014228039  0.013535692          369 
 1239000   0.74009405     -8.20368    211.11761  0.014199463  0.013522001          350 
 1240000   0.75677139   -8.1750825    211.56601  0.014218146  0.013508258          310 
 1241000   0.76959402   -8.1998144    211.00747  0.014169183  0.013494553          395 
 1242000   0.75373086    -8.205004      211.135  0.014166331  0.013480831          341 
 1243000   0.77182205   -8.2083916    211.28009  0.014164661  0.013467113          359 
 1244000   0.75294136   -8.1811075    211.42714  0.014163125   0.01345346          290 
 1245000   0.77844982   -8.2033867    211.42276  0.014151457  0.013439813          311 
 1246000   0.74761206   -8.1983527    211.41091  0.014139307  0.013426174          348 
 1247000   0.75705485   -8.1867351    211.26143  0.014117978  0.013412634          281 
 1248000   0.75050733   -8.2062833    211.21364  0.014103475  0.013399095          262 
 1249000    0.7502227   -8.1998232    211.76019  0.014128649   0.01338557          306 
 1250000   0.75794196   -8.1866446    211.52473  0.014101649  0.013372071          308 
 1251000   0.74968776   -8.2020012     211.4534  0.014085625  0.013358544          371 
 1252000   0.74497122   -8.2127986    211.46298  0.014075012  0.013344999          361 
 1253000   0.73793135   -8.1684284    212.00911  0.014100101  0.013331541          359 
 1254000   0.76381332   -8.2297494    211.22335  0.014036639  0.013318052          377 
 1255000   0.74085975   -8.2180247    211.13488   0.01401958  0.013304581          312 
 1256000   0.73667848   -8.2088011    211.64665  0.014042374  0.013291105          292 
 1257000   0.76542046   -8.1817841    211.74128  0.014037476  0.013277648          366 
 1258000   0.74015763   -8.1914705    211.83344  0.014032422  0.013264243          383 
 1259000   0.74409635   -8.2127516    211.24347  0.013982226   0.01325081          409 
 1260000   0.75458038   -8.1959767    211.46504  0.013985783  0.013237434          402 
 1261000   0.73196707   -8.2384176    211.38931  0.013969688  0.013224063          399 
 1262000   0.75162157   -8.2009906    211.50155  0.013966029  0.013210667          439 
 1263000   0.73168131   -8.2169042    211.70122  0.013968146  0.013197312          401 
 1264000   0.75829736   -8.2153922    211.31242  0.013931462  0.013183935          338 
 1265000     0.740574   -8.2426717    211.25913  0.013916939  0.013170526          372 
 1266000   0.74251967   -8.2127651    211.86347  0.013945726  0.013157156          346 
 1267000   0.74599576   -8.2478184    211.15003  0.013887795  0.013143784          415 
 1268000   0.73941345   -8.2410376     210.9558  0.013864077  0.013130425          412 
 1269000   0.73941276   -8.2398993    211.37709  0.013880817  0.013117065          433 
 1270000   0.75491663   -8.2102287    211.16476  0.013855955  0.013103732          374 
 1271000   0.73144329   -8.2376517    211.35824   0.01385774  0.013090406          369 
 1272000   0.75065412   -8.2244034    211.10224  0.013830073  0.013077093          396 
 1273000   0.74812571   -8.2430389    211.50555  0.013845611  0.013063816          394 
 1274000    0.7409455   -8.2104944    211.41575  0.013828869  0.013050581          451 
 1275000   0.74397584   -8.2218231    211.79525  0.013842826   0.01303736          391 
 1276000   0.75584099    -8.251178    210.96065  0.013777472  0.013024132          386 
 1277000    0.7689273   -8.2397862    211.02145  0.013770651  0.013010912          394 
 1278000    0.7440856   -8.2352261    210.68833  0.013738154    0.0129977          453 
 1279000   0.74466695   -8.2309975    210.98519  0.013746754  0.012984472          427 
 1280000   0.75218536   -8.2300193    211.00278   0.01373716  0.012971262          454 
 1281000    0.7598307   -8.2253292    211.29078  0.013745172  0.012958084          423 
 1282000   0.74900351   -8.2306779    211.41416   0.01374247  0.012944893          381 
 1283000    0.7371248   -8.2632213    211.17396  0.013716158  0.012931732          403 
 1284000   0.73107677   -8.2092933    211.00281  0.013694367   0.01291856          451 
 1285000    0.7607737   -8.2322537    211.13312  0.013692161  0.012905398          456 
 1286000   0.73491932   -8.2443576     211.2823  0.013691181  0.012892262          436 
 1287000   0.73320247   -8.2592749    211.31918  0.013682931  0.012879166          427 
 1288000   0.72061373   -8.2288812    211.20958  0.013665216  0.012866055          382 
 1289000   0.73467997   -8.2688056    211.17063  0.013652097  0.012852973          446 
 1290000   0.73171514   -8.2471812    210.86112  0.013621519  0.012839874          459 
 1291000   0.73934571   -8.2453109    211.09654  0.013626165  0.012826814          445 
 1292000   0.75029705   -8.2577767    211.25828   0.01362605  0.012813729          313 
 1293000   0.72240418   -8.2441643    210.91791  0.013593575  0.012800654          443 
 1294000   0.74433296   -8.2647526    211.08495  0.013593827  0.012787617          512 
 1295000   0.74114977   -8.2640676    210.64305  0.013554894  0.012774568          549 
 1296000   0.74628687   -8.2455301    210.88205  0.013559802  0.012761561          528 
 1297000   0.72974942   -8.2324732    211.42808  0.013584431  0.012748583          528 
 1298000   0.73099149   -8.2594403    211.66965  0.013589474  0.012735596          571 
 1299000   0.74341466   -8.2700117    210.93073   0.01353161  0.012722615          533 
 1300000   0.73648209   -8.2506755    210.76632  0.013510661  0.012709669          579 
 1301000   0.73109023   -8.2870417    210.89983  0.013508829  0.012696683          533 
 1302000   0.72025061   -8.2486373    211.29523   0.01352376  0.012683721          375 
 1303000   0.73265715   -8.2563074    210.48944  0.013461847  0.012670789          554 
 1304000   0.73690687   -8.2729227    210.76962  0.013469429   0.01265783          565 
 1305000   0.73866267   -8.2620791    210.99787  0.013473683  0.012644889          618 
 1306000   0.74538205   -8.3018786    210.83463   0.01345295  0.012631947          628 
 1307000   0.72481836   -8.2717507    210.65147  0.013430979  0.012619012          626 
 1308000   0.72641273   -8.2817126    211.02682  0.013444624  0.012606061          540 
 1309000   0.72098542   -8.2851625    210.89618  0.013426037  0.012593126          650 
 1310000   0.71639981   -8.3053057    210.41392  0.013385109  0.012580207          708 
 1311000   0.72714471   -8.2684937    210.75855  0.013396806  0.012567309          544 
 1312000   0.72717727   -8.2987264    210.38593  0.013362927  0.012554435          634 
 1313000   0.73010161   -8.3070275    210.73947  0.013375189  0.012541572          512 
 1314000   0.73273367   -8.2930362    210.72678  0.013364205  0.012528692          604 
 1315000   0.72908214    -8.309541    210.32839  0.013328795  0.012515817          542 
 1316000    0.7256169   -8.3328873    210.70422  0.013342466  0.012502974          657 
 1317000   0.73561503   -8.3058969    210.18927  0.013299751  0.012490128          546 
 1318000   0.74206234    -8.320713    210.27031  0.013294784   0.01247728          636 
 1319000   0.72163361   -8.3167958    210.22194  0.013281649  0.012464437          684 
 1320000   0.71818698   -8.3098408    210.70356  0.013301992  0.012451617          573 
 1321000   0.72116093   -8.3370363    210.53351  0.013281195  0.012438821          578 
 1322000    0.7220196   -8.3189129     210.6234  0.013276815  0.012426055          696 
 1323000   0.71190924   -8.3461559    210.50372  0.013259241  0.012413291          696 
 1324000   0.71025058   -8.3237527    210.44028  0.013245234  0.012400543          724 
 1325000    0.7332699    -8.328727    210.98875  0.013269733   0.01238778          717 
 1326000   0.71496535   -8.3345134    210.60985  0.013235913  0.012375022          813 
 1327000   0.71806681   -8.3533893    210.67881  0.013230269  0.012362321          755 
 1328000   0.72627216   -8.3510882    210.28091  0.013195338  0.012349615          757 
 1329000     0.722202   -8.3537041    210.76912  0.013216022  0.012336928          693 
 1330000   0.73347989   -8.3367831    210.34226   0.01317934  0.012324261          725 
 1331000   0.72104614   -8.3413446    210.52733  0.013181025  0.012311618          707 
 1332000   0.72293138   -8.3290792    210.67851  0.013180587  0.012298994          708 
 1333000   0.71931228   -8.3385713    210.48968  0.013158895  0.012286396          730 
 1334000   0.72726551   -8.3339992    210.24331   0.01313364  0.012273793          803 
 1335000   0.70736807   -8.3312365    210.83518  0.013160748  0.012261194          732 
 1336000   0.73199832   -8.3530305    210.13556  0.013107258  0.012248608          792 
 1337000   0.71080581    -8.360247    210.48834  0.013119442  0.012236024          766 
 1338000   0.71066713    -8.359962    210.16937  0.013089772  0.012223445          741 
 1339000   0.71197067   -8.3559119    210.12757  0.013077394  0.012210858          747 
 1340000   0.72601645   -8.3510607    210.24448  0.013074906  0.012198313          763 
 1341000   0.70947756    -8.358778    210.49366   0.01308064  0.012185755          782 
 1342000   0.71744501   -8.3586531    210.59235  0.013077022  0.012173195          776 
 1343000   0.70823615   -8.3677566    210.08654  0.013035899  0.012160659          782 
 1344000   0.71219503   -8.3749413    210.29968  0.013039415  0.012148162          833 
 1345000   0.73197353   -8.3586078    210.02209  0.013012521  0.012135672          779 
 1346000   0.71717533   -8.3522436    210.14077  0.013010201   0.01212317          811 
 1347000   0.72696339   -8.3724537    210.62353  0.013030409  0.012110696          785 
 1348000   0.71418747   -8.3655012    210.75824   0.01302907  0.012098216          855 
 1349000   0.71253426   -8.3829013    210.33721  0.012993403   0.01208573          792 
 1350000   0.71741419   -8.3720133    209.99536  0.012962677  0.012073257          780 
 1351000   0.70139763   -8.3775274    210.03806  0.012955716  0.012060816          883 
 1352000   0.72373927   -8.3873554    210.26877  0.012960353  0.012048371          836 
 1353000    0.7240296   -8.3753349    209.93558  0.012930253  0.012035956          843 
 1354000   0.69311062    -8.365349    209.64142  0.012902598  0.012023534          792 
 1355000   0.70897456   -8.3698491    210.14109  0.012923806  0.012011155          824 
 1356000   0.71508199   -8.3983609    209.83989  0.012895765  0.011998772          794 
 1357000   0.71511288   -8.3652184    210.09993  0.012902231  0.011986423          861 
 1358000   0.72809593   -8.3736122    210.27727  0.012903613  0.011974073          798 
 1359000   0.71050616   -8.3951341    210.16447  0.012887201  0.011961727          874 
 1360000   0.71672722   -8.3934426    210.84204  0.012919243    0.0119494          919 
 1361000   0.71418464   -8.3802951    210.08994    0.0128637  0.011937076          879 
 1362000   0.71670617   -8.3697554    210.09563  0.012854603  0.011924769          858 
 1363000   0.70931667   -8.3872744    209.82182  0.012828431  0.011912461          904 
 1364000   0.71796091   -8.4059485    209.81013  0.012818312  0.011900141          981 
 1365000   0.71409089   -8.3980381    209.48128  0.012788845  0.011887845          840 
 1366000   0.70162866   -8.3828309    209.89129  0.012804495  0.011875576          976 
 1367000   0.70707181   -8.3881186    209.91748  0.012796725  0.011863338          930 
 1368000   0.72534679   -8.3878844    210.12744  0.012800161  0.011851079          908 
 1369000   0.70680925   -8.3832558    210.14601  0.012791941  0.011838813          852 
 1370000   0.71461347    -8.403658    209.61275  0.012750167  0.011826549          801 
 1371000   0.70804392   -8.3836865    210.18119  0.012775419  0.011814322          865 
 1372000   0.69900307   -8.3943189    210.00647  0.012755495  0.011802119          873 
 1373000   0.71018136   -8.3961201    209.68919  0.012726948  0.011789897          917 
 1374000   0.68670561    -8.385662    209.63452  0.012714369   0.01177772          888 
 1375000   0.70230443   -8.4303357    209.68013  0.012707887  0.011765554          931 
 1376000   0.70864025   -8.4025374    209.90691  0.012712385    0.0117534          965 
 1377000   0.71059268   -8.4134115    210.45131  0.012736099  0.011741272          939 
 1378000   0.70958547   -8.4133039    209.83029  0.012689302  0.011729147          882 
 1379000   0.69263093   -8.4017432    210.44955  0.012717522  0.011717019          898 
 1380000   0.69882654   -8.4147662     209.9336   0.01267715  0.011704917          909 
 1381000    0.7026443   -8.4359879    209.70372  0.012654098  0.011692815          924 
 1382000   0.70130713    -8.388341    210.11536  0.012669763  0.011680744          851 
 1383000   0.69811718   -8.3740974    210.46725  0.012681806  0.011668674          916 
 1384000   0.70816069   -8.4013867    209.95567   0.01264184  0.011656643          863 
 1385000   0.69661636   -8.4140531    209.72971  0.012619116  0.011644621          916 
 1386000    0.6960974   -8.4032295     209.8871  0.012619475  0.011632601          930 
 1387000   0.70374086   -8.4247887    209.73806  0.012601421  0.011620595          946 
 1388000   0.68819045   -8.4334222    209.52567  0.012579591  0.011608611          890 
 1389000    0.6876964   -8.4147629      209.884  0.012592033  0.011596626          880 
 1390000   0.70207881   -8.4177776    210.08471  0.012595007  0.011584671          904 
 1391000   0.70858235   -8.4128197    209.70761   0.01256336  0.011572743          938 
 1392000    0.6941656   -8.4123826    209.81426   0.01256072  0.011560839          958 
 1393000   0.70220608   -8.4253964    209.59664  0.012538684  0.011548959          979 
 1394000    0.6904082   -8.4160415    209.53684  0.012526114  0.011537074          868 
 1395000   0.69600011   -8.4331528    209.55249   0.01251807  0.011525211          906 
 1396000    0.7010702   -8.4207918    210.15969  0.012545349  0.011513354          880 
 1397000   0.70709395   -8.4238018    209.61211  0.012503705   0.01150153          883 
 1398000   0.70050048   -8.4138934    209.89525  0.012511639  0.011489709          854 
 1399000   0.69311618   -8.4228003    210.55095  0.012541753  0.011477885          925 
 1400000   0.70205276   -8.3969755    209.91515  0.012494949  0.011466089          921 
 1401000   0.69297512    -8.444548    209.51585   0.01246228  0.011454279          887 
 1402000   0.69483745   -8.4072303     209.8685  0.012474352  0.011442499          894 
 1403000   0.68703242   -8.4328377    209.87437  0.012465809  0.011430745          936 
 1404000   0.69644686   -8.4319201    209.60008  0.012440651  0.011418991         1007 
 1405000   0.69414115   -8.4184284    209.86932  0.012447765  0.011407238         1027 
 1406000   0.68574137   -8.4240632    210.10428  0.012452838  0.011395513          961 
 1407000   0.69696664   -8.4420174    209.96112  0.012435508   0.01138379          939 
 1408000   0.67799196   -8.4306764    209.58085  0.012404169  0.011372095          932 
 1409000   0.71391207   -8.4652986    209.39093  0.012384134  0.011360379         1017 
 1410000   0.69945719   -8.4228017    209.47623  0.012380392  0.011348677          943 
 1411000    0.6990723   -8.4635815    209.66516  0.012382776  0.011336977          969 
 1412000   0.68883914   -8.4546279    209.41714  0.012359368  0.011325276          894 
 1413000   0.68843644   -8.4481928    209.39795   0.01234949  0.011313616          959 
 1414000   0.68862154    -8.450993    209.74593  0.012361264   0.01130196          964 
 1415000   0.69231883   -8.4630105    209.61438  0.012344781  0.011290308          965 
 1416000   0.69022952   -8.4466674    210.35624  0.012379722  0.011278677          935 
 1417000   0.70851641   -8.4557482    209.88694  0.012343386   0.01126705          944 
 1418000   0.66648904   -8.4452068    209.53794  0.012314171  0.011255454          924 
 1419000   0.67559555   -8.4530961    210.08855  0.012337829  0.011243846         1007 
 1420000   0.68099249   -8.4739421    209.57859  0.012299213  0.011232252          989 
 1421000    0.6827421   -8.4792255     209.5158  0.012286875  0.011220667         1000 
 1422000   0.68167962    -8.466413    209.35368  0.012268734  0.011209092         1004 
 1423000   0.71232786   -8.4653647      209.547  0.012271434  0.011197539         1025 
 1424000   0.68243805   -8.4521551    209.50082  0.012260114   0.01118599         1004 
 1425000   0.67839401   -8.4447555    209.16503  0.012231873  0.011174475          989 
 1426000   0.68124346    -8.483942    209.26913  0.012229379  0.011162961          998 
 1427000    0.6813086   -8.4730784    209.46018  0.012231966  0.011151446          987 
 1428000   0.68845162   -8.4568185    209.42602  0.012221406  0.011139971         1019 
 1429000   0.67489647   -8.4740406    208.97806  0.012186731  0.011128484         1022 
 1430000   0.67989999   -8.4674503    209.12122  0.012186551  0.011117018         1052 
 1431000    0.6971316    -8.460873    209.16937  0.012180839  0.011105563         1056 
 1432000    0.6914934   -8.4763187    208.88806  0.012155963  0.011094143         1019 
 1433000    0.6794355   -8.4706671    209.54065   0.01218543  0.011082709          835 
 1434000   0.68295092   -8.4714368    209.11066  0.012151945  0.011071294         1045 
 1435000   0.69594899   -8.4770853    209.26393  0.012152377  0.011059905          991 
 1436000   0.68081438   -8.4818624     209.1934  0.012139821  0.011048529         1094 
 1437000   0.68255976   -8.4831335     208.9881  0.012119468  0.011037153         1077 
 1438000   0.68476184    -8.455947    209.16987  0.012121573  0.011025784         1030 
 1439000   0.65326667   -8.4637192    209.48403  0.012131343  0.011014448         1105 
 1440000   0.68978847   -8.4641777    208.79028  0.012082771  0.011003134         1053 
 1441000   0.65996305   -8.4684396    208.84429  0.012077509  0.010991834          909 
 1442000   0.68632348   -8.4809835    209.40298   0.01210142  0.010980511         1060 
 1443000   0.67687569   -8.4758924    209.08792   0.01207484  0.010969247         1096 
 1444000   0.67523937   -8.4612601    209.40043  0.012084512  0.010957976         1049 
 1445000   0.67477052   -8.4668482    209.34491  0.012072947  0.010946737         1057 
 1446000    0.6843062   -8.4678467    209.06824  0.012048654  0.010935508         1049 
 1447000    0.6721915   -8.4770936     209.4343  0.012061409   0.01092428         1034 
 1448000   0.68666098   -8.4463098    209.24883  0.012042405  0.010913055         1083 
 1449000   0.68763412   -8.4835453    208.89107  0.012013519  0.010901837         1103 
 1450000    0.6828196   -8.4560859    209.66743  0.012049853  0.010890637          995 
 1451000   0.66356309   -8.4732918    208.98831  0.012002545  0.010879458         1112 
 1452000   0.66606759    -8.464161    209.10956  0.012001237  0.010868299         1150 
 1453000   0.65341239   -8.4929339    209.03562  0.011988737  0.010857138         1027 
 1454000   0.65725626   -8.4744487    209.31886  0.011996725   0.01084599         1103 
 1455000   0.67305129   -8.4777191    208.80687  0.011959156  0.010834841         1106 
 1456000   0.68365717   -8.4904378    209.02654  0.011963515  0.010823704         1066 
 1457000   0.68073683   -8.4833454    208.96804  0.011951959  0.010812596         1148 
 1458000   0.67606042   -8.4781954    208.87238  0.011938293  0.010801469         1060 
 1459000   0.64939304   -8.4773635    209.27718  0.011953232  0.010790371         1215 
 1460000   0.66633589   -8.4789416    209.00009  0.011929229   0.01077929         1148 
 1461000   0.67373326   -8.4788904    208.65642  0.011901462  0.010768183         1207 
 1462000   0.68503261   -8.4985967    208.72275  0.011897102  0.010757083         1150 
 1463000   0.66375444   -8.4948675    208.91793  0.011900087  0.010745983         1177 
 1464000   0.68072288    -8.493961    209.20329  0.011908202  0.010734933         1287 
 1465000   0.68019259   -8.5063376    208.75269  0.011874442  0.010723866         1210 
 1466000   0.67777375   -8.5133376    208.27356  0.011839106  0.010712813         1150 
 1467000   0.68307437   -8.4802901    209.22027  0.011884814  0.010701793         1150 
 1468000   0.66110868   -8.4914572    209.03606  0.011866262  0.010690797         1266 
 1469000   0.66865415   -8.5213667    208.69297  0.011838721  0.010679805         1286 
 1470000   0.66623367   -8.5310303    208.63078  0.011827142  0.010668818         1171 
 1471000   0.66899669   -8.5099648    209.18254  0.011850359  0.010657825         1215 
 1472000    0.6835897   -8.5053623    208.74304  0.011817427  0.010646869         1246 
 1473000   0.66285681   -8.5041673    209.08851  0.011828949  0.010635914         1177 
 1474000   0.67460519   -8.5570247    208.72606  0.011800433  0.010624994         1263 
 1475000   0.65992751   -8.5108386    208.84948  0.011799405  0.010614067         1185 
 1476000   0.66843267   -8.5228532    208.31447  0.011761205  0.010603157         1285 
 1477000   0.66243957   -8.5308472    208.26786  0.011750613  0.010592248         1223 
 1478000   0.66506345   -8.5142203    208.56941  0.011759664  0.010581357         1109 
 1479000    0.6732048   -8.5321421    208.42146  0.011743377  0.010570467         1226 
 1480000   0.67018858   -8.5302009    208.80418  0.011756992  0.010559593         1208 
 1481000   0.66063825   -8.5050731    208.61151  0.011738212   0.01054873         1196 
 1482000   0.66465905   -8.5327508    208.34945  0.011715556  0.010537898         1171 
 1483000   0.64359737   -8.5216548    208.28502  0.011704036  0.010527072         1170 
 1484000   0.66259371   -8.5221621    209.05685  0.011739491   0.01051625         1190 
 1485000   0.64452426   -8.5405751    208.20062  0.011683536  0.010505442         1176 
 1486000   0.66542522   -8.5211138    208.66765  0.011701865  0.010494655         1199 
 1487000   0.64787875   -8.5159655    208.78781  0.011700729  0.010483875         1173 
 1488000    0.6677199   -8.5290281    208.31994  0.011666663  0.010473098         1190 
 1489000   0.65169976   -8.5151168     208.6547  0.011677563  0.010462335         1139 
 1490000   0.66705987   -8.5339687    208.38981  0.011654911  0.010451623         1241 
 1491000    0.6692022   -8.5396684    208.41516  0.011648511  0.010440915         1268 
 1492000   0.64402856   -8.5052663    208.38514  0.011639027  0.010430198         1218 
 1493000   0.64299233   -8.5232595    208.50011  0.011637649  0.010419492         1299 
 1494000   0.65768428   -8.5482999    208.67788  0.011639775  0.010408817         1232 
 1495000   0.65614332    -8.535626    208.52681  0.011623568  0.010398134         1271 
 1496000   0.66443168   -8.5127797    208.85651  0.011634164  0.010387474         1300 
 1497000   0.64908956   -8.5377469    208.77445  0.011621824  0.010376825         1140 
 1498000   0.64562173     -8.54276    208.43927   0.01159542   0.01036619         1252 
 1499000   0.64273816   -8.5206055     208.4096  0.011586035  0.010355543         1136 
 1500000   0.65576266   -8.5325676    208.45215  0.011580675  0.010344903         1211 
 1501000   0.66860141   -8.5422084    208.27868  0.011563329   0.01033429         1204 
 1502000   0.65547836   -8.5357175    208.02173  0.011541374  0.010323701         1269 
 1503000   0.65965907   -8.5598801    208.07722  0.011536772  0.010313125         1236 
 1504000    0.6568848   -8.5332447    209.13015  0.011587442  0.010302568         1230 
 1505000   0.65279746   -8.5314131    208.22072  0.011529387   0.01029201         1232 
 1506000   0.64716501   -8.5401243    208.37025  0.011530005  0.010281455         1242 
 1507000   0.63772118   -8.5611027    208.06508  0.011505479  0.010270933         1239 
 1508000   0.65936515   -8.5506271    208.36793  0.011514585  0.010260411         1168 
 1509000   0.64612188   -8.5466533    208.19926   0.01149764  0.010249894         1191 
 1510000   0.65995885   -8.5305203    208.28515  0.011494765  0.010239406         1219 
 1511000   0.65542618   -8.5717285    207.96247  0.011469362  0.010228925         1355 
 1512000   0.64771246   -8.5378149    208.24684   0.01147745  0.010218454         1124 
 1513000    0.6569257   -8.5505762    208.34654  0.011475355  0.010207998         1198 
 1514000   0.64040123    -8.535498     208.6647  0.011485288  0.010197565         1233 
 1515000    0.6499339   -8.5352368    208.02146  0.011442325  0.010187138         1254 
 1516000   0.64199189   -8.5290848    208.52344   0.01146237  0.010176717         1188 
 1517000   0.64075106   -8.5546001    208.13426  0.011433435  0.010166322         1242 
 1518000   0.64034483    -8.562115    207.96639  0.011416688  0.010155934         1271 
 1519000   0.62557551   -8.5447442    208.79921  0.011454861  0.010145562         1107 
 1520000   0.64853144   -8.5539874    208.38689   0.01142472  0.010135204         1302 
 1521000   0.65827429   -8.5660758    208.71268  0.011435058  0.010124851         1155 
 1522000   0.65166165   -8.5424984     207.9735  0.011387073  0.010114528         1164 
 1523000   0.65088575   -8.5752302    207.99956  0.011381022  0.010104195         1276 
 1524000   0.65856284   -8.5565793     208.8235  0.011418608  0.010093885         1240 
 1525000   0.64980986   -8.5443934    208.44659  0.011390524  0.010083589         1231 
 1526000   0.65262279   -8.5497594    208.13465  0.011366025  0.010073317         1249 
 1527000      0.62837   -8.5586869    208.24911  0.011364828  0.010063045         1203 
 1528000   0.63258178   -8.5621821    208.21036  0.011355277  0.010052792         1263 
 1529000   0.64220577   -8.5788848    208.03296  0.011338182  0.010042549         1257 
 1530000   0.64654381   -8.5639578    207.96762  0.011327212  0.010032301         1179 
 1531000   0.65505568   -8.5541365    208.15372  0.011329943  0.010022083         1280 
 1532000   0.64659609   -8.5621787    207.75835  0.011301042  0.010011879         1281 
 1533000   0.64773226   -8.5912123    207.75674  0.011293582  0.010001696         1215 
 1534000   0.64311182   -8.5633448    208.18916  0.011309711 0.0099915236         1309 
 1535000   0.63668299   -8.5385726    208.24679  0.011305472  0.009981358         1366 
 1536000   0.63894858   -8.5671803    208.01838  0.011285719 0.0099711966         1370 
 1537000   0.62706323   -8.5682166     208.3081  0.011294085 0.0099610528         1267 
 1538000   0.64550272   -8.5616481    208.35208  0.011289124 0.0099509238         1388 
 1539000   0.62527433   -8.5707989    207.96815     0.011261  0.009940799         1397 
 1540000   0.63010176   -8.5652087     208.2769  0.011270395 0.0099306817         1351 
 1541000   0.64715482   -8.5664167     207.9584  0.011245858  0.009920569         1390 
 1542000   0.62418492   -8.5618141    208.13137  0.011247913  0.009910467         1460 
 1543000   0.64298655   -8.5568834     208.3458  0.011252204 0.0099003905         1411 
 1544000   0.64470928   -8.5784027    208.04184   0.01122851 0.0098903221         1419 
 1545000   0.64775285   -8.5813266    208.17265  0.011228298 0.0098802692         1413 
 1546000   0.64925611   -8.5725731    208.42606  0.011234695 0.0098702201         1409 
 1547000   0.63846646   -8.6099681    207.80319   0.01119388 0.0098601703         1416 
 1548000    0.6446773   -8.5873332    208.29421  0.011213082 0.0098501384         1427 
 1549000   0.64244947   -8.5884615    207.74774  0.011176444 0.0098400979         1483 
 1550000   0.63779883   -8.5855794    208.14682  0.011190689  0.009830089         1525 
 1551000   0.62809969   -8.5922625    208.29551  0.011191463 0.0098200842         1491 
 1552000   0.63591287   -8.5653457    208.02969  0.011169979 0.0098100793         1475 
 1553000   0.63765083   -8.5847468    207.67916  0.011143977 0.0098001141         1442 
 1554000   0.62481745   -8.5923346    207.63685  0.011134537 0.0097901401         1580 
 1555000   0.63666839   -8.5902698    208.08665  0.011151482 0.0097801695         1548 
 1556000   0.63237606   -8.5936762    207.40318  0.011107711 0.0097702254         1615 
 1557000   0.62046227   -8.5953912    207.61752  0.011112049 0.0097602832         1511 
 1558000   0.64026216   -8.6101173     207.5628   0.01110199 0.0097503491         1609 
 1559000   0.64034035   -8.6029048    207.46485  0.011089633  0.009740434         1526 
 1560000   0.62689155   -8.5952231    207.61433  0.011090509 0.0097305373         1623 
 1561000   0.63193621   -8.5953461    207.84768  0.011095862 0.0097206397         1566 
 1562000   0.62778728    -8.615885    207.60384  0.011075749 0.0097107603         1644 
 1563000    0.6397189    -8.574777     207.6629  0.011071811 0.0097009098         1535 
 1564000   0.63425256   -8.6100735    207.89841  0.011077281 0.0096910797         1619 
 1565000   0.61469051   -8.6031013    207.30599  0.011038658   0.00968123         1642 
 1566000   0.63038453   -8.6281031    207.45979  0.011039793 0.0096714021         1628 
 1567000   0.63423487    -8.632131    207.54173  0.011037105 0.0096615868         1681 
 1568000    0.6305875   -8.6039403    207.68812  0.011037847  0.009651795         1673 
 1569000   0.63147327   -8.6210987    207.64686   0.01102862 0.0096420046         1615 
 1570000    0.6282264   -8.6094923    207.54719  0.011016305 0.0096322231         1677 
 1571000   0.62396077   -8.6119568    207.64387  0.011014421 0.0096224463         1620 
 1572000    0.6178979   -8.6148688    207.69664  0.011010212 0.0096126962         1678 
 1573000   0.62569064   -8.5995118    207.57915  0.010996988 0.0096029509         1626 
 1574000   0.63176408   -8.6199928    207.77044  0.011000129 0.0095932161         1622 
 1575000    0.6189462   -8.6161146    207.64592  0.010986556 0.0095835215         1671 
 1576000   0.62868357   -8.6330052    207.31508  0.010962092 0.0095738109         1577 
 1577000    0.6272414   -8.6179715    207.65346  0.010973022 0.0095641105         1610 
 1578000   0.62805618   -8.6167663    208.11738  0.010990567 0.0095544335         1617 
 1579000   0.61752904   -8.6191093     207.6515  0.010959019 0.0095447643         1710 
 1580000   0.63425703   -8.6341398    207.62506  0.010950689 0.0095351135         1618 
 1581000   0.64031201   -8.6067661    207.70721  0.010948093 0.0095254731         1614 
 1582000   0.60979678   -8.6398289    207.31914   0.01092073 0.0095158476         1686 
 1583000   0.62226932   -8.6075526    207.69123  0.010933419  0.009506215         1671 
 1584000    0.6176481   -8.6301682    207.41717  0.010912099  0.009496589         1730 
 1585000   0.61970698   -8.6099498    208.08578  0.010940367 0.0094869841         1627 
 1586000   0.61624106   -8.6261215    207.47405  0.010901327 0.0094773927         1642 
 1587000   0.61261918    -8.623808     208.0816   0.01092636 0.0094678003         1706 
 1588000   0.62874064   -8.6138566    207.65674  0.010897184 0.0094582429         1680 
 1589000   0.61986437   -8.6375369    207.07804  0.010859977  0.009448681         1692 
 1590000   0.62066929   -8.6093805    207.44035  0.010872136   0.00943913         1678 
 1591000   0.60267088   -8.6306495      207.188  0.010852085 0.0094295923         1665 
 1592000   0.60227329   -8.6511751    207.28768  0.010850486 0.0094200505         1608 
 1593000   0.61040907   -8.6492902    207.12641  0.010835238 0.0094105194         1740 
 1594000   0.61293894    -8.613789    207.65235  0.010855936 0.0094010189         1686 
 1595000   0.61434082   -8.6299331    207.35204   0.01083344 0.0093915318         1652 
 1596000   0.61772941   -8.6244055     207.4109  0.010829725 0.0093820342         1739 
 1597000   0.62082962   -8.6404453     207.3547  0.010820011 0.0093725781         1734 
 1598000   0.61572077   -8.6279124    207.30454  0.010810625 0.0093631245         1718 
 1599000   0.61020256   -8.6362877    207.49649  0.010813868 0.0093536782         1797 
 1600000   0.60746259   -8.6315441    207.59718  0.010812353 0.0093442384         1697 
 1601000   0.61362812   -8.6583098    207.30402  0.010790341 0.0093348174         1725 
 1602000   0.62202143   -8.6306924    207.60769  0.010799401 0.0093254086         1609 
 1603000   0.61742131   -8.6297274    207.37763  0.010780705 0.0093160164         1702 
 1604000    0.6038006   -8.6522279     207.3218  0.010771083 0.0093066339         1781 
 1605000   0.61062288   -8.6397592    207.39621  0.010768235 0.0092972635         1739 
 1606000   0.59823427   -8.6387768    207.36434  0.010759877 0.0092879025         1779 
 1607000   0.60114011   -8.6571057    207.68557  0.010769839 0.0092785529         1751 
 1608000   0.61340362   -8.6425612     207.3795  0.010747279 0.0092692153         1773 
 1609000   0.61510806   -8.6432671    207.40457  0.010741898 0.0092598986         1671 
 1610000   0.61407199   -8.6131359    207.51849  0.010741122  0.009250594         1742 
 1611000   0.60458594   -8.6335661     207.3276  0.010724581 0.0092412933         1741 
 1612000   0.59757673   -8.6417201    207.59455  0.010731728     0.009232         1782 
 1613000   0.61455641   -8.6496462    207.39618  0.010714826 0.0092227228         1722 
 1614000   0.60204247    -8.642179    207.23673  0.010699955  0.009213465         1801 
 1615000   0.61364161   -8.6512496    207.30947  0.010697083 0.0092042174         1783 
 1616000   0.60929883   -8.6648922    207.45817  0.010698132 0.0091949749         1783 
 1617000   0.60048725   -8.6569403    207.31372  0.010684071 0.0091857631         1789 
 1618000   0.60314224   -8.6374345    207.27164  0.010675301 0.0091765406         1814 
 1619000   0.62026686   -8.6464978    207.31318  0.010670845 0.0091673376         1820 
 1620000    0.6009162   -8.6567392    207.22161  0.010659548 0.0091581441         1776 
 1621000   0.62479916   -8.6640954    206.98193   0.01064065 0.0091489571         1831 
 1622000   0.60639873    -8.662068    207.26923  0.010648851 0.0091397802         1824 
 1623000    0.6046272   -8.6813174    206.79478  0.010617929  0.009130608         1867 
 1624000   0.61177737   -8.6646197    207.12686  0.010628431 0.0091214542         1837 
 1625000   0.60868891   -8.6722605    207.09484  0.010620248 0.0091123151         1732 
 1626000    0.6108004   -8.6690283     207.2115  0.010619696 0.0091031858         1870 
 1627000   0.59491857   -8.6553135    207.28195  0.010616777 0.0090940517         1857 
 1628000   0.61301963   -8.6755095    207.08372  0.010600109  0.009084931         1866 
 1629000   0.60932327   -8.6931852    206.92478  0.010585471  0.009075803         1845 
 1630000   0.59971123   -8.6820521    206.77624  0.010571383 0.0090667043         1899 
 1631000   0.59593864    -8.673374    206.95384  0.010573975 0.0090576146         1855 
 1632000   0.61659096   -8.6795893    207.03811  0.010571799 0.0090485424         1854 
 1633000    0.5995009   -8.6798706     206.8373  0.010555077 0.0090394675         1854 
 1634000   0.59677179   -8.6885779    206.97458  0.010555619 0.0090304112         1845 
 1635000   0.60118404   -8.6662759    206.62661  0.010531428 0.0090213597         1800 
 1636000    0.5969025   -8.6768556    206.88538  0.010538171  0.009012325         1838 
 1637000    0.5932316   -8.6738444     206.8488  0.010529872 0.0090032983         1818 
 1638000   0.59508941   -8.6951326    206.96552  0.010529381 0.0089942952         1828 
 1639000   0.59274977   -8.6989327    206.66222  0.010507536 0.0089852821         1873 
 1640000   0.60058735   -8.6652149    206.88025  0.010512208 0.0089762832         1806 
 1641000   0.58368176     -8.68413    207.18043  0.010521045 0.0089673085         1837 
 1642000   0.59210732   -8.6845178    207.20768  0.010516021 0.0089583355         1863 
 1643000   0.59971966   -8.6734726    206.99464  0.010498815  0.008949384         1925 
 1644000   0.59294437   -8.6855497    206.92483   0.01048889 0.0089404278         1876 
 1645000   0.59606726   -8.7044524    206.55453  0.010463755 0.0089314836         1920 
 1646000   0.58525703   -8.7073443    206.54959  0.010457148 0.0089225449         1915 
 1647000   0.59594613   -8.6928876    206.49889  0.010448233  0.008913616         1877 
 1648000    0.6044919    -8.693838    206.96534  0.010465481 0.0089046931         1909 
 1649000   0.59586894   -8.6894131    206.77945   0.01044974 0.0088957937         1830 
 1650000   0.59863068   -8.6891683    206.85076  0.010447008 0.0088869109         1830 
 1651000   0.59236182   -8.6958178    206.82234  0.010439246 0.0088780282         2002 
 1652000   0.57387478   -8.6942685    207.05976  0.010444903 0.0088691548         1947 
 1653000   0.59187207   -8.6823074    206.91514  0.010431294  0.008860285         1943 
 1654000   0.59950759   -8.6851915    206.88518  0.010423477 0.0088514366         2015 
 1655000   0.58074397   -8.6878599    206.89326  0.010417586 0.0088426062         1905 
 1656000   0.60718893   -8.7127339    206.68759  0.010400946 0.0088337839         1956 
 1657000   0.58334803      -8.7092    206.46141  0.010383294 0.0088249655         1999 
 1658000   0.59795407   -8.6987697    207.08879  0.010408564 0.0088161694         2002 
 1659000   0.59943656   -8.6948122    207.18825  0.010407286 0.0088073765         1974 
 1660000   0.59071783   -8.7051333    206.79595  0.010381323 0.0087985943         2014 
 1661000   0.60215699    -8.716319    206.59256  0.010364868 0.0087898146         1999 
 1662000   0.59622491   -8.6976021    206.50367  0.010354175 0.0087810594         1982 
 1663000   0.59427885   -8.7071109      206.969  0.010371267 0.0087723116         2000 
 1664000   0.58948242   -8.7094609    206.95452  0.010364309 0.0087635646         2014 
 1665000   0.59077142   -8.6960675    206.71878  0.010346285 0.0087548301         1993 
 1666000   0.58724628    -8.735129    206.51229  0.010329746 0.0087461047         1976 
 1667000   0.58332036   -8.7136001    206.84469  0.010340167 0.0087373932         1936 
 1668000     0.587992   -8.7112857     206.8582  0.010334643 0.0087287071         2021 
 1669000   0.59976447   -8.7086115    207.02114  0.010336586 0.0087200293         2013 
 1670000   0.58498217   -8.7016822    206.86232  0.010322471 0.0087113573         2012 
 1671000   0.59514524    -8.719315    206.55986   0.01030121 0.0087026996         2038 
 1672000    0.5856698    -8.720178    206.66164  0.010300122 0.0086940406         2048 
 1673000   0.58067484   -8.7282004    206.59723  0.010290757 0.0086853971         2097 
 1674000   0.58379836   -8.7337639    206.45128  0.010277344  0.008676762         2072 
 1675000   0.58369023   -8.7000687    206.74582  0.010285862 0.0086681384         2089 
 1676000   0.57770689   -8.7192884    206.71498  0.010278191 0.0086595308         2092 
 1677000   0.58796803   -8.7219059    206.75224  0.010273914 0.0086509214         2087 
 1678000   0.58653631   -8.7233834      206.907  0.010275477 0.0086423314         2100 
 1679000     0.581481   -8.7161147    207.04349  0.010276131 0.0086337638         2074 
 1680000      0.58754   -8.7181388    206.80102  0.010257987 0.0086252037         2110 
 1681000   0.57716059   -8.7264657    206.55093  0.010239487 0.0086166492         2129 
 1682000   0.57998479   -8.7155109    206.79235   0.01024536 0.0086080964         2125 
 1683000   0.58576514   -8.7178134    206.37735  0.010218724 0.0085995561         2159 
 1684000   0.58673812   -8.7415127    206.21974  0.010204856 0.0085910292         2208 
 1685000   0.58218713    -8.697473    206.46564  0.010210961 0.0085825067         2110 
 1686000   0.58929713   -8.7613989    206.14362  0.010188989  0.008573981         2212 
 1687000   0.57680709   -8.7163451    206.08016  0.010179814 0.0085654706         2109 
 1688000   0.57082996   -8.7363974    206.76857  0.010207769 0.0085569732         2192 
 1689000   0.57945132   -8.7319433    206.19466  0.010173409 0.0085484816         2195 
 1690000   0.57461514   -8.7187452    206.23752  0.010169503 0.0085400101         2172 
 1691000   0.56545412   -8.7486916    206.48438  0.010175655 0.0085315476         2162 
 1692000    0.5778937   -8.7422413    206.27857  0.010159504 0.0085230876         2153 
 1693000   0.57875893   -8.7459072    206.26202  0.010152689  0.008514625         2276 
 1694000   0.57765527   -8.7591504    206.27562  0.010147364 0.0085061767         2141 
 1695000   0.57286523   -8.7448831     206.3705  0.010146042 0.0084977336         2173 
 1696000   0.58325856   -8.7655481    206.43601  0.010143279 0.0084893045         2223 
 1697000   0.56781551   -8.7572297    206.18894  0.010125169 0.0084808924         2207 
 1698000   0.56714891   -8.7505618    206.32843  0.010126052 0.0084724802         2262 
 1699000    0.5817552   -8.7429184    206.06493  0.010107167 0.0084640783         2219 
 1700000    0.5785006   -8.7491437    206.25834  0.010110703 0.0084556902         2306 
 1701000   0.57656304   -8.7590364    205.95475  0.010089886 0.0084472951         2221 
 1702000    0.5676674   -8.7497322    206.04671   0.01008846 0.0084389156         2272 
 1703000     0.571546   -8.7641221    205.93156  0.010076901 0.0084305454         2239 
 1704000   0.57156708    -8.791931    206.23704  0.010085927 0.0084221892         2371 
 1705000   0.56074556   -8.7671177    206.13467  0.010075009  0.008413842         2358 
 1706000   0.57564683   -8.7427998    206.08783  0.010066815 0.0084055038         2340 
 1707000   0.57439442   -8.7658379    206.34176  0.010073314 0.0083971772         2321 
 1708000   0.57532817   -8.7677136    205.97941  0.010049737 0.0083888586         2407 
 1709000   0.56913752   -8.7693235    206.35187  0.010062018 0.0083805479         2386 
 1710000    0.5573221   -8.7687514    205.82341  0.010030381 0.0083722401         2299 
 1711000   0.56553463   -8.7850776    205.93191  0.010029803  0.008363952         2357 
 1712000   0.55750311   -8.7874763    205.72554  0.010013899 0.0083556663         2436 
 1713000   0.56243945   -8.7903109    205.73536  0.010008531  0.008347384         2404 
 1714000   0.56234679   -8.7778767    206.42005  0.010035981 0.0083391087         2400 
 1715000   0.55983461    -8.781196    205.84439  0.010002157 0.0083308489         2409 
 1716000   0.58490617    -8.774437    205.98118  0.010002971 0.0083225971         2488 
 1717000   0.57424961   -8.7779262    206.05052  0.010000511 0.0083143534         2427 
 1718000   0.55567343   -8.7700865     205.6253 0.0099740636 0.0083061167         2472 
 1719000    0.5684103   -8.7766668    205.65415 0.0099696602 0.0082978946         2539 
 1720000   0.56522999   -8.8013698    205.70421 0.0099662892 0.0082896892         2484 
 1721000    0.5538905   -8.7900853    205.49196 0.0099502206 0.0082814859         2518 
 1722000   0.56700288   -8.7828228     205.5823 0.0099488143 0.0082732974         2460 
 1723000   0.55941479   -8.7670928    205.59737 0.0099437689  0.008265116         2424 
 1724000   0.56723787   -8.7803283    205.68301 0.0099421409 0.0082569479         2454 
 1725000    0.5651233   -8.7821374      205.977 0.0099505799 0.0082487886         2478 
 1726000   0.56719988   -8.7789967    205.80028 0.0099362826 0.0082406348         2503 
 1727000   0.56248163   -8.7853236    205.91698 0.0099361602 0.0082324899         2474 
 1728000   0.55975258   -8.7899384    205.84706 0.0099270381 0.0082243611         2484 
 1729000   0.56986192   -8.7911153    205.87001 0.0099224028 0.0082162437         2521 
 1730000   0.56556888   -8.7838085    205.96031 0.0099210167 0.0082081427         2508 
 1731000   0.56613151   -8.7608116    206.04137 0.0099191876 0.0082000555         2442 
 1732000   0.55529513   -8.7932569    205.78251 0.0099010063 0.0081919739         2464 
 1733000   0.55698558   -8.7972376    205.75581 0.0098940091 0.0081839024         2519 
 1734000   0.56298089   -8.8047391     205.6293 0.0098822231 0.0081758453         2563 
 1735000   0.55180832   -8.7963942     205.9916 0.0098939288 0.0081678015         2534 
 1736000   0.56384461    -8.803817    205.52673 0.0098659143 0.0081597549         2556 
 1737000   0.56429059   -8.7893995    205.86583 0.0098765032 0.0081517192         2519 
 1738000   0.56615646   -8.8009524    205.65764 0.0098608383 0.0081436996         2538 
 1739000   0.55834766   -8.7802505    205.72843 0.0098585601 0.0081356764         2549 
 1740000    0.5603556   -8.8029795    205.98743 0.0098652986 0.0081276665         2627 
 1741000   0.57670618   -8.8079386    205.64691 0.0098433327 0.0081196576         2562 
 1742000   0.56403765   -8.7953847    205.29014 0.0098206151 0.0081116654         2625 
 1743000   0.55546005   -8.8043493    205.67641 0.0098334485 0.0081036745         2587 
 1744000   0.56384548   -8.8057372    205.33122  0.009811316 0.0080956963         2624 
 1745000   0.57132247   -8.8188031    205.74998 0.0098256913 0.0080877314         2647 
 1746000    0.5582894   -8.8226057    205.27759 0.0097975177  0.008079771         2617 
 1747000   0.55271179   -8.8159697     205.5049 0.0098027522 0.0080718273         2595 
 1748000   0.54060376    -8.818466    205.45523 0.0097947766  0.008063891         2589 
 1749000   0.54729049   -8.8048777    205.47987 0.0097903503 0.0080559579         2610 
 1750000   0.54336709   -8.8181458    205.55324 0.0097882494 0.0080480415         2658 
 1751000    0.5490736   -8.8344499    205.69781 0.0097895398   0.00804013         2610 
 1752000   0.55012105   -8.8224679     205.3751 0.0097686024 0.0080322361         2587 
 1753000   0.55099029   -8.8059483    205.48739 0.0097683681 0.0080243487         2578 
 1754000   0.54162081   -8.7996841    205.55937 0.0097662184 0.0080164626         2606 
 1755000    0.5502891   -8.8181428    205.37115 0.0097517165 0.0080086013         2584 
 1756000   0.55041469   -8.8378356    205.84756  0.009768772  0.008000751         2603 
 1757000    0.5685374   -8.8211476    205.64731 0.0097537142 0.0079929045         2538 
 1758000   0.55669592   -8.8098946    205.63582 0.0097476214  0.007985082         2543 
 1759000   0.54386199   -8.8251089    205.44747 0.0097331564 0.0079772608         2544 
 1760000   0.53155588   -8.8241657    205.59096 0.0097344206 0.0079694477         2637 
 1761000   0.54674623   -8.8281361     205.1706 0.0097090006 0.0079616474         2566 
 1762000   0.56248806   -8.8193154    205.06635 0.0096985598 0.0079538548         2621 
 1763000   0.54552495   -8.8240622    205.79095 0.0097273089  0.007946069         2627 
 1764000   0.53926219   -8.8295732    205.62491 0.0097139507 0.0079382968         2622 
 1765000   0.54976717   -8.8231758    205.38623  0.009697178 0.0079305317         2622 
 1766000   0.54500074   -8.8315587    205.34255 0.0096896257 0.0079227723         2647 
 1767000   0.55548599   -8.8379584    205.59494  0.009696045 0.0079150216         2588 
 1768000    0.5485318   -8.8211528    205.66743 0.0096939778 0.0079072822         2603 
 1769000   0.54222286   -8.8215373    205.41911 0.0096768002 0.0078995537         2541 
 1770000   0.55262641   -8.8457858    205.45042 0.0096728072 0.0078918236         2631 
 1771000   0.53628084   -8.8294652    205.37629 0.0096638572 0.0078841056         2610 
 1772000   0.54023657   -8.8560423    205.29909 0.0096547727 0.0078763931         2557 
 1773000   0.54407213   -8.8614984     205.4455 0.0096562086  0.007868685         2613 
 1774000   0.54763951   -8.8264352     205.3896 0.0096481398 0.0078609991         2598 
 1775000   0.53428694   -8.8348509    205.12742 0.0096303952 0.0078533208         2613 
 1776000    0.5514525   -8.8349253    205.09716 0.0096235531 0.0078456425         2576 
 1777000   0.53995233   -8.8346959    205.27051 0.0096262668 0.0078379765         2593 
 1778000   0.54284238   -8.8415655    205.24548 0.0096196794 0.0078303158         2615 
 1779000   0.55283888   -8.8475178    205.13059 0.0096088905 0.0078226688         2591 
 1780000   0.53305975   -8.8437073    205.24431  0.009608816 0.0078150353         2673 
 1781000    0.5526475   -8.8358136    205.45457 0.0096132587 0.0078074136         2519 
 1782000   0.53543165   -8.8337189    205.20319 0.0095961086 0.0077997977         2657 
 1783000   0.55978825    -8.824878    205.53442 0.0096062077 0.0077921927         2584 
 1784000   0.53893619   -8.8490693    205.26821  0.009588388 0.0077845978         2565 
 1785000   0.53330659   -8.8433225    205.34802 0.0095867422 0.0077770189         2625 
 1786000   0.52923246   -8.8544745    204.99259 0.0095647907   0.00776945         2640 
 1787000   0.53151703   -8.8781567    204.86519 0.0095534969 0.0077618861         2662 
 1788000   0.53754482   -8.8548679    205.22352 0.0095648544 0.0077543324         2617 
 1789000   0.53504196   -8.8378614     205.3582 0.0095657818 0.0077467926         2662 
 1790000   0.53622857   -8.8502812    205.09417 0.0095481456 0.0077392634         2643 
 1791000   0.53369495   -8.8679752    205.31607 0.0095531392 0.0077317433         2679 
 1792000   0.53397486   -8.8552417    205.15988  0.009540545   0.00772423         2651 
 1793000   0.54533208   -8.8622334    205.31691 0.0095425221 0.0077167316         2664 
 1794000   0.53836141   -8.8539161    205.00867 0.0095228852 0.0077092436         2661 
 1795000   0.52476635   -8.8612821    205.25169 0.0095288623 0.0077017622         2701 
 1796000    0.5222515   -8.8588524    205.44889 0.0095327066 0.0076942882         2655 
 1797000   0.54322452   -8.8531212    205.24818 0.0095180941 0.0076868242         2678 
 1798000   0.53290953   -8.8670093    204.92198 0.0094976817 0.0076793641         2731 
 1799000   0.54937258   -8.8659969    204.96847  0.009494556 0.0076719212         2725 
 1800000   0.53748804   -8.8643921    204.99179 0.0094903605 0.0076644793         2703 
 1801000   0.54551208   -8.8700278    205.31473 0.0095000339 0.0076570515         2715 
 1802000   0.53825633   -8.8778983    204.93746  0.009477315 0.0076496249         2693 
 1803000   0.54103486   -8.8670129    204.93416  0.009471906 0.0076422075         2722 
 1804000   0.53518041   -8.8628829    205.09619 0.0094741403 0.0076348014         2687 
 1805000   0.52978898     -8.86911    205.57533 0.0094910127 0.0076274087         2691 
 1806000   0.55046119    -8.870412    205.05908 0.0094619363 0.0076200287         2683 
 1807000   0.52919421   -8.8698987    204.98078  0.009453089 0.0076126537         2656 
 1808000   0.52588636   -8.8643778    205.11111 0.0094538676  0.007605288         2621 
 1809000   0.52436942   -8.8693466    205.06324 0.0094464362 0.0075979382         2688 
 1810000   0.53840861   -8.8624059    205.25218 0.0094499161 0.0075905916         2704 
 1811000   0.52794982   -8.8787123    204.98915 0.0094325946 0.0075832616         2744 
 1812000   0.52807892   -8.8457732    205.31191 0.0094422326 0.0075759491         2717 
 1813000   0.52219208   -8.8935486    205.17354 0.0094306645 0.0075686408         2795 
 1814000   0.51661288   -8.8738612    205.53989 0.0094422954 0.0075613383         2711 
 1815000   0.53810747   -8.8737401    205.24175 0.0094234047 0.0075540424         2748 
 1816000   0.52747852   -8.8848211    204.97193 0.0094058339 0.0075467554         2725 
 1817000   0.52431336    -8.860066    205.28616  0.009415069 0.0075394843         2659 
 1818000   0.53068886   -8.8603472    204.98315 0.0093960004 0.0075322221         2788 
 1819000   0.51852901   -8.8887239    204.65988 0.0093760255 0.0075249649         2638 
 1820000    0.5247555   -8.8748453     204.7746 0.0093761262 0.0075177072         2741 
 1821000   0.52974435   -8.8885232    205.03384  0.009382841 0.0075104673         2636 
 1822000   0.52354494   -8.8579836    205.18594 0.0093846477 0.0075032381         2674 
 1823000    0.5236697   -8.8864999    205.25224 0.0093825304 0.0074960125         2707 
 1824000   0.52384971   -8.8748352    204.73181 0.0093536099 0.0074888002         2696 
 1825000   0.52512234    -8.887815    204.72892 0.0093483525 0.0074816026         2702 
 1826000   0.51643241   -8.8719406     204.8371 0.0093481698  0.007474411         2695 
 1827000   0.53248392   -8.8953191    205.10401 0.0093552274 0.0074672218         2720 
 1828000   0.51960641     -8.87094    204.86991 0.0093394379 0.0074600493         2670 
 1829000   0.52014396   -8.8766534    204.75745 0.0093292078 0.0074528807         2729 
 1830000   0.52932364   -8.8770315    204.65549 0.0093194667 0.0074457208         2752 
 1831000   0.51995534   -8.8895365    205.11686  0.009335375 0.0074385719         2623 
 1832000   0.51573666   -8.8974397    204.85305 0.0093182792 0.0074314366         2736 
 1833000   0.52505293   -8.8745021    204.96056 0.0093180835 0.0074243079         2669 
 1834000   0.52166998    -8.872113    204.64973 0.0092988788 0.0074171944         2751 
 1835000    0.5197016   -8.8817532    205.04293 0.0093116682 0.0074100892         2730 
 1836000   0.51395075   -8.8944678    204.80371 0.0092957385 0.0074029856         2730 
 1837000   0.50641302   -8.8836373    205.15546 0.0093066351 0.0073958941         2708 
 1838000   0.53208053   -8.8958936    204.74495 0.0092829592 0.0073888119         2730 
 1839000   0.52897329   -8.8924555    204.87727 0.0092839074 0.0073817401         2738 
 1840000   0.51978163   -8.8891129    205.00486 0.0092846402 0.0073746718         2706 
 1841000   0.51795769    -8.889068    205.07821 0.0092829174 0.0073676192         2726 
 1842000   0.53624268   -8.8961963    204.74023 0.0092625872 0.0073605703         2681 
 1843000   0.51893636   -8.8817158    204.67992 0.0092548346 0.0073535341         2713 
 1844000   0.53464906   -8.8823978     205.2239 0.0092743988 0.0073465102         2684 
 1845000   0.51385083   -8.8721262     204.9394 0.0092565222 0.0073394967         2761 
 1846000   0.50207974   -8.9009979    204.54115 0.0092335299 0.0073324791         2738 
 1847000   0.51576972   -8.8945347     204.6202 0.0092320973 0.0073254776         2693 
 1848000   0.50697591   -8.8865489    204.78746 0.0092346437 0.0073184853         2753 
 1849000   0.51581077   -8.9079872    204.57722 0.0092201741 0.0073114942         2712 
 1850000   0.50475786   -8.8903771     205.1292  0.009240054 0.0073045172         2743 
 1851000   0.50972121   -8.9015745     204.6787 0.0092147802  0.007297549         2742 
 1852000   0.51865434   -8.8760374     204.8875    0.0092192 0.0072905874         2739 
 1853000   0.52295613   -8.8835312    204.91995 0.0092156839 0.0072836355         2722 
 1854000   0.51217029   -8.8876858    204.73716 0.0092024973 0.0072766915         2696 
 1855000   0.51536609   -8.9035272    204.34952  0.009180122 0.0072697535         2737 
 1856000   0.50321908   -8.8963421     205.1827 0.0092125854 0.0072628256         2652 
 1857000   0.49275269   -8.8776541    204.73524 0.0091875443 0.0072559114         2680 
 1858000   0.50894803   -8.8952038    205.15258 0.0092013175 0.0072490036         2722 
 1859000   0.51657085   -8.9061593    204.67625 0.0091750157 0.0072421069         2716 
 1860000   0.50757999   -8.9092523    204.69574  0.009170956 0.0072352162         2748 
 1861000   0.51642332   -8.8926711    204.71906 0.0091670721 0.0072283386         2709 
 1862000   0.50863289   -8.9053488    204.93195 0.0091716771 0.0072214636         2723 
 1863000   0.50258975   -8.9043006      204.928 0.0091665771 0.0072146038         2727 
 1864000   0.51182262    -8.926294     204.6444 0.0091489808 0.0072077432         2709 
 1865000   0.51298065   -8.9075688    204.59093 0.0091416859 0.0072008881         2745 
 1866000   0.50488474   -8.9077592    204.68723 0.0091410876 0.0071940378         2733 
 1867000   0.50180009   -8.8837717    204.25514 0.0091169052 0.0071871994         2720 
 1868000   0.50673992   -8.8993623    204.76443 0.0091347445 0.0071803673         2752 
 1869000   0.50938582   -8.9174526    204.46509 0.0091165101 0.0071735421         2763 
 1870000   0.50654853   -8.8967396     204.7901 0.0091261184 0.0071667297         2762 
 1871000   0.51497649   -8.9087649    204.50632 0.0091086013 0.0071599281         2718 
 1872000   0.49604241    -8.909941    204.61575 0.0091086072 0.0071531383         2769 
 1873000   0.49750867   -8.9055873    204.88647 0.0091157888 0.0071463558         2759 
 1874000    0.5088935   -8.9196037    204.43575 0.0090908819 0.0071395798         2757 
 1875000   0.50589215   -8.9051263    204.65956 0.0090959804 0.0071328118         2725 
 1876000    0.5076608   -8.9180834    204.69591 0.0090927466 0.0071260498         2744 
 1877000   0.49476213    -8.918559    204.47746 0.0090782036 0.0071192944         2686 
 1878000   0.50245859   -8.9146268    204.47128 0.0090730954 0.0071125482         2712 
 1879000   0.50027688   -8.9183709    204.70129 0.0090784678 0.0071058151         2711 
 1880000   0.50269567   -8.9147827    204.45774 0.0090628429 0.0070990873         2705 
 1881000   0.50527232   -8.9052059    203.98846 0.0090372345 0.0070923705         2695 
 1882000   0.51354331   -8.9196629    204.63684 0.0090611424 0.0070856617         2744 
 1883000   0.50356577   -8.9194433     204.8462 0.0090655956 0.0070789621         2695 
 1884000   0.49691016   -8.9094692     204.2879 0.0090360891  0.007072274         2776 
 1885000    0.4966412   -8.9127577    204.44199 0.0090381074 0.0070655931         2727 
 1886000   0.48994172   -8.9299022    204.44558  0.009033474  0.007058922         2770 
 1887000   0.49579227   -8.9126604    204.41801  0.009027469  0.007052257         2739 
 1888000   0.49462047      -8.9223    204.77634 0.0090385038 0.0070456037         2694 
 1889000   0.50130275   -8.9144636    204.47388 0.0090203759 0.0070389588         2731 
 1890000   0.49638655   -8.9269407    204.52926 0.0090180449 0.0070323218         2725 
 1891000   0.50826976   -8.9336084    204.60513 0.0090166196 0.0070256906         2767 
 1892000   0.49823282   -8.9304874    204.40655 0.0090031074 0.0070190667         2750 
 1893000   0.49578829   -8.9388371    204.44811 0.0090001808  0.007012453         2784 
 1894000   0.49737158    -8.927152    204.48653 0.0089971192  0.007005847         2766 
 1895000   0.49283932   -8.9251746    204.41537 0.0089892422 0.0069992553         2777 
 1896000   0.48501991   -8.9451236    204.60286 0.0089927417  0.006992666         2754 
 1897000   0.49818427   -8.9488259    204.32097  0.008975618 0.0069860829         2720 
 1898000   0.49286754   -8.9277486    204.67374 0.0089863777 0.0069795094         2791 
 1899000   0.48890575   -8.9376966    204.41813 0.0089704289  0.006972945         2777 
 1900000   0.50037241   -8.9227762    204.63732 0.0089753213 0.0069663892         2802 
 1901000   0.50181001   -8.9175705    204.59008 0.0089685288 0.0069598389         2815 
 1902000   0.48921226   -8.9190603    204.31891 0.0089519328 0.0069532953         2773 
 1903000    0.4962188   -8.9226137    204.57838  0.008958591 0.0069467546         2761 
 1904000   0.48945228   -8.9455013    204.19722 0.0089372032   0.00694023         2812 
 1905000   0.48349158   -8.9354967    204.40564  0.008941629 0.0069337134         2754 
 1906000   0.48929477   -8.9228432    204.34518 0.0089342943  0.006927208         2777 
 1907000     0.491038   -8.9268386    204.23727 0.0089248939 0.0069207018         2752 
 1908000   0.48309785   -8.9397574    204.49529 0.0089314855  0.006914204         2767 
 1909000   0.49918891   -8.9393088    204.34247 0.0089201357 0.0069077156         2814 
 1910000   0.50018646   -8.9375503    204.47457 0.0089212289 0.0069012375         2818 
 1911000   0.49163818   -8.9401625    204.51675    0.0089184 0.0068947691         2780 
 1912000   0.49344945     -8.94895    204.24883 0.0089020586 0.0068883041         2848 
 1913000   0.50849549   -8.9579124    204.22328 0.0088962921 0.0068818486         2813 
 1914000    0.4882947   -8.9507364    204.38627 0.0088987405 0.0068754013         2757 
 1915000   0.49242656   -8.9376445    204.41859    0.0088955  0.006868961         2748 
 1916000   0.49239928    -8.940701    204.06074 0.0088752931 0.0068625295         2794 
 1917000   0.48726851   -8.9422484    203.74768 0.0088570546 0.0068561038         2790 
 1918000   0.48474165   -8.9450184    204.50538 0.0088853573 0.0068496843         2798 
 1919000   0.48617797   -8.9437715    204.35197 0.0088740648 0.0068432706         2786 
 1920000   0.48373889   -8.9339508    204.32935 0.0088684615 0.0068368649         2818 
 1921000   0.48888546   -8.9558573    204.26693  0.008861137 0.0068304727         2761 
 1922000   0.47756328    -8.961492    204.20834 0.0088539862 0.0068240858         2775 
 1923000   0.47246977   -8.9535264    204.01559 0.0088410291 0.0068177067         2832 
 1924000   0.48469684   -8.9482149     204.0289 0.0088370106 0.0068113354         2793 
 1925000   0.48165334   -8.9530475    204.11735 0.0088362488 0.0068049746         2832 
 1926000   0.48478351   -8.9449772     204.2257 0.0088363491 0.0067986221         2786 
 1927000   0.48847752    -8.959317     204.2795 0.0088340899 0.0067922763         2863 
 1928000   0.48721762   -8.9530638    203.84304 0.0088106433 0.0067859454         2789 
 1929000   0.47134927   -8.9608709    204.14107 0.0088189508 0.0067796122         2755 
 1930000    0.4731413   -8.9457756    204.09319 0.0088123141  0.006773285         2823 
 1931000   0.48788354   -8.9456779    203.99753  0.008803622 0.0067669735         2861 
 1932000   0.47269943   -8.9602759    203.88658 0.0087942799 0.0067606678         2769 
 1933000   0.47764194   -8.9662489    204.33372 0.0088090067  0.006754372         2835 
 1934000   0.47655299   -8.9727649    204.24228 0.0088005117 0.0067480815         2826 
 1935000   0.49966786   -8.9526613     204.1812 0.0087933334 0.0067417939         2848 
 1936000   0.47629001   -8.9475084    203.79957 0.0087723643  0.006735519         2850 
 1937000   0.47161185   -8.9595772    204.03731 0.0087780634 0.0067292464         2838 
 1938000   0.47840139    -8.953654    204.19696 0.0087803991 0.0067229821         2806 
 1939000   0.47876985   -8.9574703    204.00499 0.0087676202 0.0067167269         2872 
 1940000   0.48567723   -8.9516962    203.87254 0.0087574117 0.0067104763         2821 
 1941000   0.48594369   -8.9532276    204.22195 0.0087679009 0.0067042375         2856 
 1942000   0.47671646   -8.9608066    203.88571 0.0087489576 0.0066980074         2805 
 1943000   0.46931072   -8.9550035    204.14183 0.0087554396 0.0066917836         2855 
 1944000   0.47104419   -8.9574515    204.29533 0.0087575158  0.006685567         2823 
 1945000   0.47691212   -8.9548494    204.21056 0.0087493812 0.0066793601         2825 
 1946000   0.48633609   -8.9706003    204.21173 0.0087449355  0.006673161         2868 
 1947000   0.47906907   -8.9646649     204.1614 0.0087382896 0.0066669629         2821 
 1948000   0.47094175   -8.9735353    204.09569  0.008730993 0.0066607791         2814 
 1949000   0.46981555   -8.9670717    204.03976 0.0087241219 0.0066546042         2801 
 1950000   0.48104725   -8.9778607    203.84038 0.0087111272 0.0066484301         2821 
 1951000   0.47859666   -8.9707501    203.89315 0.0087089165 0.0066422647         2838 
 1952000    0.4768953    -8.976707    203.94123 0.0087065074 0.0066361112         2870 
 1953000   0.48199927    -8.969171    203.97477 0.0087034804 0.0066299676         2881 
 1954000   0.47550982   -8.9691253    204.04107 0.0087018537 0.0066238246         2870 
 1955000   0.46365939   -8.9913445    204.18863 0.0087036929 0.0066176917         2844 
 1956000   0.46373256   -8.9778619    203.97714 0.0086902327  0.006611563         2858 
 1957000   0.47143267   -8.9693379    204.06556 0.0086895571 0.0066054453         2865 
 1958000   0.46560733   -8.9742064    204.32461 0.0086961443 0.0065993298         2838 
 1959000   0.46115846   -8.9870358    203.98313 0.0086771793 0.0065932287         2872 
 1960000   0.48176418    -8.965351    204.24193 0.0086837554 0.0065871376         2811 
 1961000   0.47625485   -8.9700833     203.9813 0.0086682517 0.0065810509         2890 
 1962000    0.4628007   -8.9806012      203.773 0.0086549866 0.0065749685         2867 
 1963000   0.47968741   -8.9852636    203.72816 0.0086486738 0.0065688929         2853 
 1964000   0.47915774    -8.996984    204.20497 0.0086645014 0.0065628308         2937 
 1965000   0.47040704    -8.984503    204.12273 0.0086566042 0.0065567732         2930 
 1966000   0.47234214   -8.9846893    203.71847 0.0086350656 0.0065507227         2867 
 1967000   0.46637587    -8.978687    203.90971 0.0086387778 0.0065446879         2816 
 1968000   0.46832853   -8.9703025    203.82527 0.0086308126  0.006538657         2860 
 1969000   0.46161937    -8.976153    204.13754 0.0086396451 0.0065326264         2898 
 1970000   0.47261064   -8.9862352    204.03247 0.0086308151 0.0065266028         2872 
 1971000   0.47431748   -8.9792071    203.73508 0.0086138629 0.0065205899         2855 
 1972000    0.4716159   -8.9962407      203.914 0.0086170554 0.0065145836         2881 
 1973000   0.45999473   -8.9949991    203.91161 0.0086125871  0.006508584         2879 
 1974000    0.4719261   -8.9800644    204.00334 0.0086120966 0.0065025961         2870 
 1975000    0.4663138   -8.9672674    204.17389 0.0086149322 0.0064966178         2823 
 1976000   0.46665615   -8.9786449    203.57539  0.008585332 0.0064906392         2882 
 1977000   0.46801105   -8.9929374     203.9586 0.0085971423 0.0064846708         2867 
 1978000   0.46163248   -8.9816184    204.21893 0.0086037634 0.0064787154         2819 
 1979000   0.45274318   -8.9750615    203.93986 0.0085876646 0.0064727639         2820 
 1980000   0.45653403   -8.9970787    203.64169 0.0085707783 0.0064668164         2883 
 1981000   0.46034447   -8.9947744    203.66693 0.0085675135 0.0064608763         2861 
 1982000   0.46846077   -8.9794525    203.81161 0.0085692739 0.0064549415         2822 
 1983000    0.4611408   -8.9777163    203.69063 0.0085598686  0.006449016         2891 
 1984000   0.46581798   -8.9922486    203.92213 0.0085652776 0.0064431012         2867 
 1985000   0.46498309    -8.990123     203.6258 0.0085485222 0.0064371914         2852 
 1986000   0.46185756   -8.9782969    203.53886 0.0085405699 0.0064312904         2902 
 1987000     0.454333   -8.9877825    203.57132  0.008537633 0.0064253943         2871 
 1988000   0.46996348   -9.0080578    203.72861 0.0085399318 0.0064195077         2869 
 1989000   0.46740552   -8.9701929    203.64879  0.008532294 0.0064136309         2846 
 1990000   0.45202952   -9.0015713    203.65827 0.0085284033 0.0064077602         2870 
 1991000   0.45382437   -8.9924845    204.02589 0.0085395067 0.0064018937         2891 
 1992000   0.45586425   -9.0079795    203.72684 0.0085227091 0.0063960333         2839 
 1993000    0.4596704   -8.9907645    203.75754 0.0085197164 0.0063901743         2869 
 1994000   0.46381653   -8.9960646    203.54492 0.0085065582 0.0063843266         2880 
 1995000    0.4603717   -8.9926983      203.817  0.008513659 0.0063784889         2896 
 1996000    0.4553289   -9.0092361    203.47683 0.0084951917 0.0063726543         2917 
 1997000   0.45779278   -9.0069809    203.83737 0.0085059828 0.0063668298         2864 
 1998000   0.45252889   -9.0065795    203.76624 0.0084987588 0.0063610094         2915 
 1999000   0.45183915    -8.991839    203.87629 0.0084990949  0.006355202         2880 
 2000000   0.44888398   -8.9922094    203.70673 0.0084877802 0.0063493988         2847 
 2001000    0.4482711   -9.0004233    203.71529  0.008483895 0.0063436014         2884 
 2002000   0.45506078   -8.9923592    203.77166 0.0084820037  0.006337807         2916 
 2003000   0.46296213   -8.9972036     203.5554  0.008468772 0.0063320247         2915 
 2004000   0.44230357   -8.9828629    203.85531 0.0084770172 0.0063262501         2944 
 2005000   0.44555126   -9.0033324    203.71175 0.0084668227 0.0063204797         2888 
 2006000   0.45542956   -9.0064283    203.32513 0.0084465406 0.0063147134         2922 
 2007000   0.45370454   -9.0040464     203.6714   0.00845671 0.0063089566         2906 
 2008000   0.44768353   -9.0148075    203.67778 0.0084527629  0.006303204         2890 
 2009000   0.44335741   -9.0053901    203.65593 0.0084476495 0.0062974558         2945 
 2010000    0.4571806   -8.9993763    203.32854  0.008429873 0.0062917162         2925 
 2011000   0.44262816   -9.0149951    203.38731 0.0084281165 0.0062859826         2892 
 2012000   0.45230421   -9.0062713    203.68152 0.0084361134 0.0062802562         2945 
Loop time of 5276.03 on 48 procs for 2000000 steps with 4000 atoms

Performance: 65503.805 tau/day, 379.073 timesteps/s
99.4% CPU use with 48 MPI tasks x no OpenMP threads

MPI task timing breakdown:
Section |  min time  |  avg time  |  max time  |%varavg| %total
---------------------------------------------------------------
Pair    | 391.56     | 426.94     | 464.35     |  92.6 |  8.09
Neigh   | 36.886     | 38.21      | 39.889     |  12.1 |  0.72
Comm    | 330.5      | 372.31     | 408.73     |  99.1 |  7.06
Output  | 5.7986     | 5.801      | 5.8468     |   0.3 |  0.11
Modify  | 4373.6     | 4384.3     | 4399.8     |   9.6 | 83.10
Other   |            | 48.47      |            |       |  0.92

Nlocal:        83.3333 ave          90 max          77 min
Histogram: 3 2 4 10 1 9 13 4 1 1
Nghost:        2429.96 ave        2451 max        2413 min
Histogram: 4 3 3 8 8 12 5 1 3 1
Neighs:        16803.2 ave       19363 max       14465 min
Histogram: 2 5 8 4 7 7 3 7 2 3
FullNghs:      33605.8 ave       36809 max       30914 min
Histogram: 3 2 8 4 7 12 5 5 1 1

Total # of neighbors = 1613079
Ave neighs/atom = 403.26975
Neighbor list builds = 106418
Dangerous builds = 0

#clear
#
#next RN
#
#jump SELF
Total wall time: 1:27:59
