
units lj                  # Use reduced LJ style units
atom_style atomic         # Uncharged point particles
atom_modify map hash      # Needed for indexing of clusters etc
                          # Used to be able to find where atoms are in relation to each other.

lattice fcc 1.0 spacing 1 1 1
Lattice spacing in x,y,z = 1.5874011 1.5874011 1.5874011
region box block 0 10 0 10 0 10 units lattice
create_box 2 box
Created orthogonal box = (0.0000000 0.0000000 0.0000000) to (15.874011 15.874011 15.874011)
  3 by 4 by 4 MPI processor grid
create_atoms 1 box
Created 4000 atoms
  using lattice units in orthogonal box = (0.0000000 0.0000000 0.0000000) to (15.874011 15.874011 15.874011)
  create_atoms CPU = 0.004 seconds
set type 1 type/fraction 2 0.51 78393
Setting atom values ...
  2042 settings made for type/fraction
mass 1 1.0
mass 2 1.0
pair_style lj/cut  3.5
pair_modify tail  yes
pair_coeff 1  1  1.0  1.0   # Intearaction between 1 and 1 set with epsilon = 1 and sigma = 1
pair_coeff 1  2  1.5  0.8
pair_coeff 2  2  0.5  0.88

write_data data.0
System init for write_data ...
Neighbor list info ...
  update every 1 steps, delay 10 steps, check yes
  max neighbors/atom: 2000, page size: 100000
  master list distance cutoff = 3.8
  ghost atom cutoff = 3.8
  binsize = 1.9, bins = 9 9 9
  1 neighbor lists, perpetual/occasional/extra = 1 0 0
  (1) pair lj/cut, perpetual
      attributes: half, newton on
      pair build: half/bin/atomonly/newton
      stencil: half/bin/3d
      bin: standard
WARNING: Not all mixed pair coeffs generated from mixing. Use write_data with 'pair ij' option to store all pair coeffs. (../write_data.cpp:312)


#############################
#   M E L T   S Y S T E M   #
#############################

velocity all create 2.4 5300450 mom yes dist gaussian # Assign velocities
                                                    # Temperature 2.4, random number seed, zero linear momentum
                                                                                # Gaussian distribution

timestep 0.002   # simulation timestep
thermo 1000       # output thermodynamic data every 1000 steps bf 100

# Define a fix  in this case with index 1 applied to all
# particles in the simulation. This fix is for simulations
# in the anisotropic NPT ensemble. Note that we use the MTK
# correction.
fix 1 all npt temp 2.4 2.4 0.1 iso 5.68 5.68 0.5 mtk yes tchain 5 pchain 5 # Use NPT ensemble
                                                                         # Set temperature and pressure and damping
                                                                         # Numbers of thermostats in chain and in barostat
run 10000          # run for 10000 steps
Per MPI rank memory allocation (min/avg/max) = 3.642 | 3.644 | 3.648 Mbytes
Step Temp E_pair E_mol TotEng Press Volume 
       0          2.4   -5.2404118            0   -1.6413118   -4.2035775         4000 
    1000    2.4146572   -4.7698423            0   -1.1487621    5.6999453    3723.6174 
    2000    2.3674779   -4.8756723            0   -1.3253432    5.7784723    3666.4853 
    3000     2.397016   -4.8673361            0    -1.272711    5.6298085    3682.7449 
    4000     2.418414   -4.8607248            0   -1.2340107    5.7588385    3690.4169 
    5000    2.3681706   -4.8655407            0   -1.3141729     5.735581     3687.347 
    6000    2.4576257   -4.8573671            0   -1.1718501    5.7597733    3687.5948 
    7000    2.3824206   -4.8847989            0   -1.3120614    5.7403134    3675.3905 
    8000    2.3620051   -4.8394585            0   -1.2973366    5.6232651    3701.7064 
    9000    2.4108012   -4.8482466            0    -1.232949    6.0593002    3661.5654 
   10000    2.3786087    -4.831097            0   -1.2640759    5.6586681    3707.4227 
Loop time of 2.78664 on 48 procs for 10000 steps with 4000 atoms

Performance: 620101.768 tau/day, 3588.552 timesteps/s
99.5% CPU use with 48 MPI tasks x no OpenMP threads

MPI task timing breakdown:
Section |  min time  |  avg time  |  max time  |%varavg| %total
---------------------------------------------------------------
Pair    | 1.1295     | 1.2399     | 1.311      |   3.1 | 44.50
Neigh   | 0.21478    | 0.22054    | 0.23288    |   0.8 |  7.91
Comm    | 0.81607    | 0.88763    | 1.0042     |   4.0 | 31.85
Output  | 0.00024536 | 0.00025002 | 0.00031314 |   0.0 |  0.01
Modify  | 0.35351    | 0.42283    | 0.46234    |   3.5 | 15.17
Other   |            | 0.01547    |            |       |  0.55

Nlocal:        83.3333 ave          93 max          74 min
Histogram: 1 3 5 7 8 6 13 3 1 1
Nghost:        1737.27 ave        1756 max        1715 min
Histogram: 1 5 4 7 4 8 4 5 5 5
Neighs:        10290.9 ave       11902 max        8945 min
Histogram: 3 4 2 10 7 9 9 3 0 1

Total # of neighbors = 493965
Ave neighs/atom = 123.49125
Neighbor list builds = 903
Dangerous builds = 190

# Equilibrate just above the melting temperature to avoid step fn in T

fix 1 all npt temp 1.25 1.25 0.1 iso 5.68 5.68 0.5 mtk yes tchain 5 pchain 5
run 2000
Per MPI rank memory allocation (min/avg/max) = 3.644 | 3.646 | 3.649 Mbytes
Step Temp E_pair E_mol TotEng Press Volume 
   10000    2.3786087    -4.831097            0   -1.2640759    5.6586681    3707.4227 
   11000    1.2469015   -6.9808168            0   -5.1109321     5.536546    2869.5986 
   12000    1.2575607   -7.0561138            0   -5.1702444    5.7529925    2843.6733 
Loop time of 0.677244 on 48 procs for 2000 steps with 4000 atoms

Performance: 510303.265 tau/day, 2953.144 timesteps/s
99.5% CPU use with 48 MPI tasks x no OpenMP threads

MPI task timing breakdown:
Section |  min time  |  avg time  |  max time  |%varavg| %total
---------------------------------------------------------------
Pair    | 0.28637    | 0.31044    | 0.33595    |   2.2 | 45.84
Neigh   | 0.04068    | 0.043237   | 0.045876   |   0.6 |  6.38
Comm    | 0.20138    | 0.23075    | 0.28058    |   3.4 | 34.07
Output  | 5.0023e-05 | 5.1903e-05 | 6.7519e-05 |   0.0 |  0.01
Modify  | 0.046091   | 0.088076   | 0.092563   |   2.2 | 13.01
Other   |            | 0.004688   |            |       |  0.69

Nlocal:        83.3333 ave          89 max          77 min
Histogram: 4 2 2 6 5 11 5 4 4 5
Nghost:        2069.42 ave        2090 max        2053 min
Histogram: 3 3 9 4 8 11 4 3 2 1
Neighs:        13424.3 ave       14899 max       11967 min
Histogram: 4 2 1 7 13 4 7 5 2 3

Total # of neighbors = 644365
Ave neighs/atom = 161.09125
Neighbor list builds = 145
Dangerous builds = 12

#############################
# L I N E A R  Q U E N C H  #
#############################

# Define solid atoms. This closely follows ten Wolde  Ruiz-Montero and Frenkel  Faraday Discuss  1996  104  93-110
# Compute components of the per-atom q6 vector
compute q6 all orientorder/atom degrees 1 6 components 6 nnn NULL cutoff 1.3 # compute the Q6 parameter.
                                                                             # Use all neighbours within 1.3 unit cell.

# get number of connections
compute coord_number all coord/atom orientorder q6 0.5

# An atom is solid if it has 8 or more connections (of a possible 14)
variable is_solid atom c_coord_number>=8
group solid dynamic all var is_solid    # Must be dynamic to update
dynamic group solid defined

# do clustering
compute cluster solid cluster/atom 1.3 # Create a cluster where all atoms within are solid and max 1.3 units from another member

# define chunks one chunk per cluster
compute clus_chunks solid chunk/atom c_cluster nchunk every compress yes  # Says which atoms are in which chunk

# count the size of each chunk
compute size_chunks solid property/chunk clus_chunks count


# Find the maximum entry in the vector of chunk sizes
variable max_n equal max(c_size_chunks)


# Thermo style which includes this variable
# thermo_style custom step temp pe vol v_max_n

thermo ${N}  # Print the thermo information every 100 steps
thermo 1000  

# Reset the npt fix at a lower temperature (below freezing)
fix 1  all npt temp  ${temp} ${temp}  0.1  iso  5.68  5.68  0.5  mtk yes tchain  5  pchain  5
fix 1  all npt temp  0.45 ${temp}  0.1  iso  5.68  5.68  0.5  mtk yes tchain  5  pchain  5
fix 1  all npt temp  0.45 0.45  0.1  iso  5.68  5.68  0.5  mtk yes tchain  5  pchain  5

dump dmp2 all dcd ${N} traj.dcd
dump dmp2 all dcd 1000 traj.dcd


compute msd all msd com yes
variable twopoint equal c_msd[4]/6/(step*dt+1.0e-6)
fix 9 all vector 10 c_msd[4]
variable fit equal slope(f_9)/6/(10*dt)
thermo_style custom step temp pe c_msd[4] v_twopoint v_fit v_max_n

fix 1 all npt temp 1.25 ${temp} 0.1 iso 5.68 5.68 0.5 mtk yes tchain 5 pchain 5
fix 1 all npt temp 1.25 0.45 0.1 iso 5.68 5.68 0.5 mtk yes tchain 5 pchain 5
run 500000 # 5000000  # Run for this many steps
Neighbor list info ...
  update every 1 steps, delay 10 steps, check yes
  max neighbors/atom: 2000, page size: 100000
  master list distance cutoff = 3.8
  ghost atom cutoff = 3.8
  binsize = 1.9, bins = 8 8 8
  4 neighbor lists, perpetual/occasional/extra = 1 3 0
  (1) pair lj/cut, perpetual
      attributes: half, newton on
      pair build: half/bin/atomonly/newton
      stencil: half/bin/3d
      bin: standard
  (2) compute orientorder/atom, occasional
      attributes: full, newton on
      pair build: full/bin/atomonly
      stencil: full/bin/3d
      bin: standard
  (3) compute coord/atom, occasional
      attributes: full, newton on
      pair build: full/bin/atomonly
      stencil: full/bin/3d
      bin: standard
  (4) compute cluster/atom, occasional
      attributes: full, newton on
      pair build: full/bin/atomonly
      stencil: full/bin/3d
      bin: standard
Per MPI rank memory allocation (min/avg/max) = 9.839 | 9.846 | 9.851 Mbytes
Step Temp PotEng c_msd[4] v_twopoint v_fit v_max_n 
   12000    1.2575607   -7.0561138 1.9291593e-30 1.3396939e-32 8.3333333e+20            1 
   13000    1.2529925   -7.1033616   0.46793426 0.0029995784  0.038343266            1 
   14000    1.2568668   -7.0840298   0.89702384 0.0053394275  0.036665413            1 
   15000    1.2701229   -7.1054886    1.2713728  0.007063182   0.03456873            1 
   16000    1.2474585   -7.1218194    1.6914629 0.0088097022  0.034225297            2 
   17000    1.2424863   -7.1016259    2.0888029  0.010239229  0.033914046            1 
   18000    1.2187579   -7.1310492    2.4716784  0.011442955  0.033712064            1 
   19000    1.2619738   -7.1532022    2.8197264  0.012367221  0.033330561            4 
   20000    1.2413819   -7.0977572    3.2676174  0.013615072  0.033184916            1 
   21000    1.2613255   -7.1039262    3.5969433  0.014273584  0.032988519            1 
   22000    1.2509522   -7.1146652    3.9728021  0.015048493  0.032695728            2 
   23000    1.2209943   -7.1401538    4.3331224  0.015699719  0.032396862            1 
   24000    1.2139069   -7.1231821    4.7509155  0.016496234  0.032239939            2 
   25000    1.2106277   -7.1226575    5.2817203  0.017605734  0.032332668            2 
   26000    1.2193528   -7.1513843    5.6457704  0.018095418  0.032577105            1 
   27000    1.2446287   -7.1571145    5.9297741  0.018301772  0.032633744            3 
   28000    1.2471472   -7.1448482    6.2165982   0.01850178  0.032501016            3 
   29000    1.2212017   -7.1400062    6.5020031  0.018683917  0.032241493            4 
   30000    1.1894523   -7.1212024    6.8732731  0.019092425  0.031940206            2 
   31000    1.2151254   -7.1295873    7.2419723  0.019467667  0.031735098            3 
   32000    1.2120245   -7.1525507    7.6151103  0.019831016  0.031562979            1 
   33000    1.2152591   -7.1669555    7.9409663  0.020052945  0.031405364            2 
   34000    1.1911295   -7.2183374    8.2508979  0.020222789  0.031230125            4 
   35000    1.2059319   -7.1385412    8.5978013  0.020470955  0.031047042            1 
   36000    1.1974982     -7.17577    8.9714501  0.020767245    0.0308928            1 
   37000    1.2039365   -7.1733938    9.3789846  0.021123839  0.030766059            1 
   38000    1.1942318   -7.1746989    9.6500988  0.021162497  0.030675707            2 
   39000    1.1995416   -7.1516722     9.982125  0.021329327  0.030521378            1 
   40000    1.2120833   -7.1621091    10.317789  0.021495394  0.030402843            3 
   41000    1.2198241   -7.1696982    10.706553  0.021761286  0.030311086            3 
   42000    1.2081331   -7.2350883    11.016996  0.021859119  0.030225987            2 
   43000    1.1962265   -7.2305122    11.396798  0.022086817  0.030141634            1 
   44000    1.2003805   -7.1987938    11.785779   0.02232155  0.030072667            1 
   45000    1.1869332   -7.2309594    12.111011  0.022427798  0.030019118            2 
   46000    1.1896562    -7.215537    12.438729  0.022533929  0.029971386            6 
   47000    1.2083469   -7.2064846    12.786748  0.022671539  0.029921138            2 
   48000    1.2059436   -7.2031703    13.065582  0.022683302  0.029852794            2 
   49000    1.1836507    -7.232822    13.422708  0.022827735  0.029803637            2 
   50000    1.1995551   -7.2619813    13.847066  0.023078443  0.029765037            2 
   51000     1.216723   -7.2489731    14.202432  0.023206588  0.029728684            3 
   52000    1.1730117   -7.2577401    14.485906  0.023214592  0.029682181            4 
   53000    1.1604042   -7.2302655    14.810174  0.023286438  0.029629761            2 
   54000     1.187552   -7.2166395    15.206662  0.023467071  0.029590742            2 
   55000    1.2090574   -7.2284992    15.474228  0.023445799  0.029550466            4 
   56000    1.1511736   -7.2611927    15.629578  0.023258301  0.029487923            3 
   57000    1.1624229    -7.226146    16.076631  0.023503846  0.029396385            1 
   58000    1.1817777   -7.2263554    16.330141  0.023462847  0.029329422            2 
   59000    1.1767421   -7.2579848    16.682787  0.023563258  0.029259075            1 
   60000    1.1750576   -7.3329819    16.881199   0.02344611  0.029185283            1 
   61000    1.1583405   -7.3085232    17.120874  0.023389172  0.029089953            2 
   62000    1.1610027   -7.3413396    17.476946  0.023490519  0.029003175            2 
   63000    1.1518142   -7.2562227    17.937872  0.023727344  0.028926909            1 
   64000    1.1694018    -7.298418    18.228198  0.023734633  0.028869267            2 
   65000    1.1711896   -7.3220539    18.666788   0.02393178  0.028825134            4 
   66000    1.1706491   -7.3096707    18.858798  0.023811613  0.028780083            2 
   67000    1.1577135   -7.2957774    19.263416  0.023959473  0.028738176            3 
   68000    1.1653386   -7.3148604     19.65206  0.024083407  0.028694519            2 
   69000    1.1744269   -7.3305297    19.877806  0.024007012  0.028653244            3 
   70000    1.1737092   -7.3054013    20.041803  0.023859289  0.028601686            2 
   71000    1.1507279   -7.2948145    20.358044  0.023894417  0.028528645            3 
   72000    1.1850652   -7.3147044    20.551893  0.023786912  0.028455439            6 
   73000    1.1721429   -7.3032668    20.897492  0.023855584  0.028383539            3 
   74000    1.1486133   -7.2625545    21.212667  0.023888138  0.028306462            2 
   75000    1.1449785   -7.3137782    21.467275  0.023852528  0.028238266            3 
   76000    1.1463364   -7.3362115    21.828424  0.023934675  0.028173873            2 
   77000    1.1378574   -7.3232846      22.2033  0.024029545  0.028113753            3 
   78000    1.1281171   -7.3760231    22.412548  0.023945029  0.028046832            1 
   79000    1.1264888   -7.3418522    22.573785  0.023812009  0.027975106            4 
   80000    1.1273438   -7.3625279    22.908039   0.02386254  0.027898693            4 
   81000    1.1366369   -7.3929178    23.077254  0.023742031   0.02782451            3 
   82000    1.1421765   -7.4181703    23.364821  0.023744737  0.027746628            3 
   83000    1.1475023   -7.3838051    23.589134  0.023683869  0.027668813            4 
   84000    1.1395701   -7.3610479    23.903969  0.023714255  0.027592267            1 
   85000    1.1448596   -7.3515867    24.326072   0.02384909  0.027520686            2 
   86000    1.1544165   -7.3835622    24.578469  0.023816346  0.027454362            1 
   87000    1.1221241   -7.3907141    24.844765  0.023797668  0.027390208            2 
   88000    1.1102625     -7.41743    25.215992  0.023878781   0.02733145            3 
   89000    1.1382697   -7.3334464    25.507841  0.023883746  0.027273052            2 
   90000    1.1388517   -7.3885591    25.749006  0.023841672  0.027217644            3 
   91000    1.1186887   -7.3763518    25.895317   0.02371366  0.027152203            3 
   92000    1.1083647   -7.3759944     26.06742  0.023611793  0.027079868            2 
   93000    1.1190638   -7.3702355    26.283553   0.02355157  0.027001992            4 
   94000    1.1150843   -7.4311974    26.528528  0.023518198  0.026924398            2 
   95000    1.1293756   -7.4175164    26.775535  0.023487311  0.026842954            4 
   96000    1.1129027   -7.4254815    27.103454  0.023527304  0.026770133            3 
   97000    1.1050053   -7.4359052    27.351346   0.02349772  0.026701068            1 
   98000    1.1093113   -7.4366322    27.714723  0.023566941  0.026636401            1 
   99000     1.121389   -7.3945033    27.840428  0.023434704   0.02657165            2 
  100000    1.1166062   -7.4202736     28.13869  0.023448909  0.026502857            2 
  101000    1.1133919    -7.473464    28.304208  0.023353307  0.026435202            3 
  102000    1.1135434   -7.4199529    28.686502  0.023436685  0.026365223            4 
  103000    1.1349923   -7.4289473    28.707442  0.023226086  0.026291555            2 
  104000    1.0955644   -7.4914693    28.991785  0.023230597  0.026221018            3 
  105000    1.1276848   -7.4709294    29.401494  0.023334519  0.026154679            3 
  106000    1.0784828   -7.4587285    29.666536  0.023322748  0.026086878            2 
  107000    1.0766785   -7.4301381    29.899305  0.023286063    0.0260254            2 
  108000    1.0766023   -7.4689176    30.079818  0.023209736  0.025961664            2 
  109000    1.0835929   -7.4709148    30.292435  0.023159354  0.025893174            2 
  110000    1.1112907   -7.5021635    30.566343   0.02315632  0.025828447            4 
  111000    1.1022158   -7.4899539    30.582125  0.022959553   0.02575992            3 
  112000    1.0745113    -7.520163    30.907055   0.02299632  0.025685294            3 
  113000    1.0838539   -7.5102767    31.089276  0.022927195  0.025613574            2 
  114000    1.0871798   -7.5255768     31.30685  0.022885124  0.025545707            3 
  115000    1.0853976   -7.5222668     31.65547  0.022938746  0.025476607            2 
  116000    1.0705454   -7.5358894    31.865784  0.022892086  0.025409315            3 
  117000    1.0941062   -7.5140507    32.145411  0.022895592  0.025343364            1 
  118000    1.0768791   -7.5473631    32.309179  0.022817217  0.025276755            3 
  119000    1.0795691    -7.554149    32.581858  0.022816427  0.025209573            3 
  120000    1.0778759   -7.5702495    32.635804  0.022663753  0.025138075            2 
  121000    1.0528646   -7.5453433    32.879868  0.022644537  0.025066197            4 
  122000    1.0662138    -7.552827    33.116543  0.022620589  0.024998235            3 
  123000    1.0626507   -7.5185747    33.469468  0.022675791   0.02493316            2 
  124000    1.0612566   -7.5358885    33.586742  0.022571735  0.024866833            4 
  125000    1.0811428   -7.5243158    33.817869  0.022545246  0.024796885            3 
  126000     1.061748   -7.5659449    34.085009  0.022542995   0.02473255            6 
  127000    1.0628535   -7.5566089    34.348796   0.02253858  0.024666451            6 
  128000    1.0739861   -7.5576791    34.454775  0.022431494  0.024601877            3 
  129000    1.0774784   -7.5913957    34.780415  0.022467968  0.024536195            4 
  130000    1.0517126   -7.5357167    34.915048  0.022381441  0.024474737            6 
  131000    1.0692927   -7.5755374    34.958319  0.022238116  0.024410117            5 
  132000    1.0534462   -7.6321286    35.231596  0.022242169  0.024345261            2 
  133000    1.0765395   -7.5561254     35.42304  0.022194887  0.024279343            2 
  134000    1.0426237   -7.5737228    35.616824  0.022149766  0.024213368            2 
  135000    1.0564671   -7.5896784    35.795791  0.022096167  0.024145136            2 
  136000    1.0667507   -7.5611967    35.957573  0.022032826  0.024076895            4 
  137000    1.0400282   -7.5760516    36.283725  0.022070392  0.024009986            3 
  138000    1.0489519    -7.630151    36.416927  0.021990898  0.023946453            3 
  139000    1.0526362   -7.5945961     36.71816  0.022013285  0.023883362            2 
  140000    1.0473112   -7.6168072    37.045724  0.022051026  0.023821271            5 
  141000    1.0502633   -7.6353554    36.956379  0.021841832  0.023758689            2 
  142000    1.0325807   -7.6217278    37.305617  0.021892967   0.02369563            4 
  143000     1.038419   -7.6192799      37.6166  0.021921095  0.023635796            3 
  144000    1.0390036   -7.6886358     37.58025   0.02174783   0.02357738            3 
  145000    1.0272013   -7.6370906    38.001351  0.021839857   0.02351828            4 
  146000    1.0344782    -7.633402    38.218786  0.021814376  0.023459247            4 
  147000    1.0498871   -7.6374575    38.271364  0.021695785  0.023400564            7 
  148000    1.0314156   -7.6151717    38.717225  0.021800239  0.023342907            3 
  149000    1.0204886   -7.6209796    38.867744  0.021738112  0.023285848            5 
  150000    1.0112029   -7.6599219    38.819387  0.021566326  0.023227393            2 
  151000    1.0421329   -7.6416732     39.13535  0.021597875  0.023169446            7 
  152000    1.0512969   -7.6626716    39.356602  0.021577084  0.023111484            7 
  153000    1.0214478   -7.6779001      39.5352  0.021533333  0.023055999            4 
  154000    1.0304913   -7.6667799    39.704023  0.021484861  0.022998719            4 
  155000    1.0196198   -7.7278461     39.83769  0.021418113  0.022940482            6 
  156000    0.9881396   -7.7508276    39.763106  0.021240975  0.022879689            4 
  157000    1.0004469   -7.7113873     39.83661  0.021144697  0.022817122            4 
  158000     1.016091   -7.7099133    40.025959  0.021110738   0.02275326            3 
  159000    1.0249921   -7.7149242    40.333983  0.021139404  0.022688994            2 
  160000   0.99325368   -7.6986182    40.504738  0.021096218  0.022627028            5 
  161000   0.98955074   -7.7014406    40.783809  0.021109632  0.022564257            3 
  162000    1.0092578   -7.7413421    40.741943   0.02095779  0.022503083            6 
  163000    1.0156533   -7.7206475    41.092003  0.021008182  0.022443153            3 
  164000    1.0022864    -7.695777    41.280721  0.020975976  0.022381433            2 
  165000   0.99853626   -7.7666363    41.185381  0.020800697  0.022320145            8 
  166000   0.98057895   -7.7438578    41.366998  0.020766565  0.022257563            2 
  167000   0.99119474   -7.7236668    41.582783  0.020749892  0.022195522            5 
  168000    1.0169208   -7.7629018     41.81777  0.020742941  0.022134139            3 
  169000    1.0016502   -7.7474369    41.823513  0.020623034  0.022071801            6 
  170000   0.99473195   -7.7487029    41.907402  0.020542844  0.022008473            2 
  171000    0.9660702   -7.7664689    42.085061  0.020509289  0.021945898            3 
  172000     1.000225   -7.7487267    42.407719  0.020546375  0.021883957           12 
  173000    1.0038387   -7.7903587     42.44506  0.020445597  0.021822172            2 
  174000    1.0029138   -7.7402248    42.681891  0.020441519  0.021759973            5 
  175000   0.98819948   -7.7753671    42.645877   0.02030756  0.021695851            5 
  176000   0.96979426     -7.82057    42.810625  0.020270182  0.021633472            2 
  177000   0.98545053   -7.8027363     42.98844  0.020239379  0.021571035            6 
  178000    1.0043957   -7.8148086    43.122371  0.020188376  0.021509218            1 
  179000   0.96393972   -7.7801986    43.420208   0.02021425  0.021447486            2 
  180000   0.97259591   -7.7777445    43.550727  0.020162374  0.021388576            3 
  181000   0.96610354   -7.7867736    43.613494  0.020079877   0.02132726            1 
  182000   0.98602082   -7.7692578    43.799161  0.020054561  0.021266436            3 
  183000   0.98265092     -7.78971    43.997529  0.020035305  0.021206724            5 
  184000   0.96458924   -7.7911068    44.095745  0.019970899   0.02114635            4 
  185000   0.97335103   -7.8389016    44.396295  0.019998331  0.021089597            5 
  186000   0.96296877     -7.83257    44.544784  0.019957341  0.021033087            2 
  187000   0.99374412   -7.8611799    44.311141  0.019746498   0.02097392            2 
  188000   0.99237387   -7.8560358    44.324345  0.019647316  0.020911215            2 
  189000   0.95417031   -7.8240697    44.492086  0.019617322  0.020848684            5 
  190000   0.96968364   -7.8074667    44.557774  0.019542883  0.020785762            5 
  191000   0.96985191   -7.8284961     44.78833  0.019541156  0.020723021            9 
  192000   0.96088271   -7.8622789    44.869682  0.019474688  0.020659803            3 
  193000   0.97266493   -7.8895887    44.658411  0.019282561  0.020594221            4 
  194000     0.976115   -7.8536897    44.899421  0.019286693  0.020527459            3 
  195000   0.95847929   -7.9031919    44.875508  0.019177567  0.020461561            4 
  196000   0.94569181    -7.864642    45.121742  0.019184414    0.0203969            4 
  197000   0.94557973    -7.873874    45.347988  0.019182736  0.020332448            4 
  198000   0.93290489   -7.8754206    45.327417  0.019077196  0.020267561            6 
  199000    0.9430622   -7.8735904    45.389897  0.019007495  0.020202462            7 
  200000   0.95341654   -7.8876821    45.411089  0.018921287  0.020137506            5 
  201000   0.94662676   -7.8829455    45.691125  0.018943252   0.02007199            7 
  202000   0.95471777   -7.9280024    45.517241   0.01877774  0.020005765            3 
  203000   0.94978819   -7.9035048    45.709089  0.018763994  0.019940027           13 
  204000   0.94891806   -7.8845286    45.863406  0.018735052  0.019875298            3 
  205000    0.9464802   -7.9038981    46.124892  0.018749956   0.01981074            8 
  206000   0.94252146   -7.9524945    46.004778  0.018610347  0.019746056            4 
  207000   0.93181933   -7.8765596    46.173166  0.018588231  0.019680763            4 
  208000   0.92515159   -7.9323321    46.254431  0.018531423  0.019615851            6 
  209000   0.94728312   -7.9186223    46.281859  0.018453692  0.019551109           10 
  210000   0.94577943   -7.9613852    46.633216  0.018505244  0.019486235            6 
  211000   0.94667479   -7.9372578    46.573063  0.018393785  0.019421704            8 
  212000    0.9275076   -7.9177691    46.811341  0.018400684   0.01935848            5 
  213000   0.94775893   -7.9698066    46.676379  0.018261494  0.019294742            7 
  214000   0.93514597   -7.9967153    46.657484  0.018168802  0.019230209            4 
  215000   0.91040974   -7.9535906    46.867844  0.018165831  0.019165354            5 
  216000   0.92090446    -7.991134    46.673641  0.018006806  0.019100022            7 
  217000   0.93841652   -7.9744724    46.957336  0.018032771  0.019034072           10 
  218000   0.92097148   -7.9766651    47.045635  0.017983805  0.018969211            9 
  219000   0.93024219   -7.9986968    46.977239  0.017875662  0.018904788           14 
  220000   0.91179206   -8.0023463    46.970563   0.01779188  0.018839137            8 
  221000   0.90742898   -7.9747268    47.116374  0.017766355  0.018773727            9 
  222000   0.89769703   -7.9970399    47.165078  0.017704609  0.018708065            6 
  223000    0.9019877   -7.9886106    47.239973  0.017653203  0.018643028           22 
  224000   0.91972841   -7.9904886    47.460856  0.017656568  0.018578512            4 
  225000   0.88523065   -8.0050759    47.465921  0.017579971  0.018513355            7 
  226000   0.90227843   -8.0363883    47.368631  0.017466309   0.01844754           10 
  227000   0.91140434   -8.0341806    47.575896  0.017465454  0.018381906           17 
  228000   0.90203316   -8.0250606    47.651885  0.017416625  0.018318563           14 
  229000   0.90021675   -8.0186032     47.70192  0.017358777  0.018255268            8 
  230000    0.9137862   -8.0325068    47.907896  0.017357933  0.018191816           19 
  231000   0.88844942   -8.0555157    47.791316  0.017240735  0.018127938           19 
  232000   0.89894004    -8.073866    47.785679  0.017164396  0.018063289           16 
  233000   0.90159716    -8.072033    47.860725   0.01711757  0.017999128            8 
  234000   0.88759966   -8.0538118     48.05939  0.017115167  0.017935396           10 
  235000   0.88627328   -8.0620994    48.001517  0.017021814  0.017871494            3 
  236000   0.90937573   -8.0639088    48.193702   0.01701755  0.017808106            8 
  237000   0.86500088   -8.0548454    48.108363  0.016915739  0.017744445            6 
  238000   0.88164243   -8.0772141    48.192064  0.016873972  0.017681043           12 
  239000   0.88245879   -8.0488634    48.338851  0.016854551  0.017617784            4 
  240000   0.86706543   -8.0929713    48.293778  0.016768673   0.01755481            9 
  241000   0.88989447   -8.0623857    48.230662  0.016677269  0.017491613            9 
  242000   0.87776642    -8.041563    48.465325  0.016689161  0.017428572            4 
  243000   0.88588088   -8.1012456    48.564582   0.01665452  0.017366343            5 
  244000   0.87796489   -8.0918636    48.618714  0.016604752  0.017304383           10 
  245000   0.87668658   -8.0699358    48.694115  0.016562624  0.017243227           11 
  246000   0.86862799   -8.0822545    48.683106  0.016491567  0.017182145            5 
  247000    0.8669105   -8.0955757    48.862598  0.016485357  0.017120975            5 
  248000   0.89233881   -8.1002032    48.794215  0.016395906  0.017060414            5 
  249000   0.87166951   -8.1264891    48.901473  0.016365955  0.016999792            5 
  250000   0.87885863   -8.1259024    48.813745  0.016271248  0.016939237            3 
  251000   0.85708153   -8.1280628    48.958752  0.016254566  0.016878741            7 
  252000   0.85315812   -8.1119927    49.028887  0.016213256  0.016818064            9 
  253000   0.87291704   -8.1519932    49.012686  0.016143836  0.016757408           13 
  254000   0.85788033   -8.1223482    49.082142  0.016103065  0.016697136            6 
  255000   0.86408151    -8.140095    48.929327  0.015989976  0.016636254           12 
  256000   0.86261048   -8.1274834    49.008792  0.015953383  0.016575307            7 
  257000   0.88588011   -8.1770012     49.02726  0.015897296  0.016513918            5 
  258000   0.84374362   -8.1816287    49.178224  0.015884439  0.016453033            8 
  259000   0.86354179   -8.1578436    49.142162  0.015811506  0.016393193            4 
  260000   0.86910237   -8.1561499    49.367466  0.015822906  0.016333319           15 
  261000   0.84060302   -8.1736068    49.307893  0.015743261  0.016274486           23 
  262000   0.85076018    -8.189145    49.432777  0.015722893  0.016215716            6 
  263000    0.8486944   -8.1516652    49.581706    0.0157103  0.016157188            8 
  264000   0.83889304   -8.2212315    49.352001  0.015578283  0.016098562            6 
  265000   0.85683178   -8.1799217    49.545738  0.015580421   0.01604001           11 
  266000    0.8745631   -8.1946804    49.569403  0.015529262  0.015981422           14 
  267000   0.84576385   -8.1913213    49.594468  0.015478922  0.015922731            3 
  268000   0.84530319   -8.2117588    49.507631  0.015394164  0.015864879            4 
  269000   0.82428103   -8.2006873      49.5287  0.015343463  0.015806947            6 
  270000   0.84457547   -8.2490402    49.551332  0.015293621  0.015748537            3 
  271000   0.83439385   -8.2352622    49.605891  0.015253964  0.015690583            9 
  272000   0.83119633   -8.2793035    49.691784  0.015224198  0.015632521            8 
  273000    0.8335797   -8.2712658    49.667011   0.01516087  0.015575216            7 
  274000   0.83840086    -8.273949    49.821811  0.015152619  0.015518223            5 
  275000   0.85159416   -8.2687587    49.923536  0.015128344  0.015461686           17 
  276000   0.81619938   -8.2374027    50.088968  0.015123481  0.015405605           11 
  277000   0.82874789   -8.2471088     50.11842  0.015077744  0.015350074           21 
  278000   0.81677322   -8.2476958    50.108912  0.015020657  0.015294744            9 
  279000   0.80044992   -8.2667637    50.073991  0.014956389  0.015239243            6 
  280000   0.81469918   -8.2612132    50.165371   0.01493017  0.015183894            7 
  281000   0.81933223   -8.2879462    50.093332  0.014855674  0.015128622           10 
  282000    0.8148251   -8.2807306    50.057347   0.01479236  0.015073531            6 
  283000   0.79970497   -8.2875839     49.97522  0.014715907   0.01501821           17 
  284000    0.8142076   -8.2991519     49.97771  0.014664821  0.014963034           13 
  285000    0.8193352   -8.2731831    50.205477  0.014679964  0.014907964           17 
  286000   0.81855409   -8.2712115    50.292787  0.014654075  0.014853405           14 
  287000   0.80224424   -8.3098563    50.219763  0.014581813  0.014799213           17 
  288000    0.8326691     -8.30968    50.375188  0.014576154  0.014745457           20 
  289000   0.81648515   -8.3230262    50.285519  0.014499861  0.014691751           14 
  290000   0.80985519   -8.3310536    50.389009    0.0144796  0.014638124           18 
  291000   0.79101072   -8.3101147    50.386048  0.014428994  0.014584629           24 
  292000   0.81366467   -8.3481264    50.303166  0.014355926   0.01453104           15 
  293000   0.80118879   -8.3038412    50.369742  0.014325865  0.014477418            8 
  294000   0.79462936   -8.3274725    50.342503  0.014269417   0.01442396           21 
  295000   0.81914902   -8.3250413    50.435515  0.014247321  0.014370832            9 
  296000   0.79688874   -8.3232676    50.560044  0.014234247  0.014317909           21 
  297000    0.7798074   -8.3433954     50.46649   0.01416007  0.014264944           15 
  298000   0.79455222   -8.3208274    50.575804  0.014143122   0.01421283           16 
  299000   0.78776848   -8.3533138    50.589429  0.014099618  0.014161148           17 
  300000   0.80757345   -8.3691369      50.4635  0.014017639  0.014109154           18 
  301000   0.79358694   -8.3823585    50.489906  0.013978379  0.014057091           16 
  302000   0.79564781   -8.3631722     50.50505  0.013936272  0.014005356           15 
  303000   0.79423016   -8.3473037    50.486985  0.013885309   0.01395332           18 
  304000   0.78099926   -8.3385716    50.606207  0.013872315  0.013901496           11 
  305000   0.79323646   -8.3443221    50.384761  0.013766328  0.013849958           17 
  306000   0.79890263   -8.3766475    50.439529  0.013736255  0.013798036            9 
  307000   0.77510243   -8.3585424    50.387809  0.013677473  0.013745998           17 
  308000   0.80123928   -8.4247921    50.428912  0.013644186  0.013694267           11 
  309000   0.78995776    -8.385687    50.536317  0.013628996  0.013642677           12 
  310000     0.771546   -8.4105172    50.434416  0.013557639    0.0135914           10 
  311000   0.78187772   -8.4125312     50.49367  0.013529922  0.013540382           11 
  312000   0.77452989   -8.3873019    50.481371  0.013483272  0.013489354           14 
  313000   0.77764552   -8.4121793     50.62547   0.01347856  0.013438729           10 
  314000   0.76467614   -8.4200551    50.553203  0.013416455  0.013388329            5 
  315000   0.76298251   -8.4268725    50.604998  0.013387566  0.013338116           15 
  316000   0.76837056   -8.4382881     50.59383  0.013342255  0.013287678           11 
  317000   0.76141188   -8.4088671    50.685444  0.013324249  0.013237517           16 
  318000   0.74898765   -8.4210038    50.475133  0.013227236  0.013187803            8 
  319000    0.7794568   -8.4355837    50.534558  0.013201295  0.013138101           18 
  320000   0.76837733   -8.4328979    50.580031  0.013171883  0.013088396            7 
  321000   0.75725562   -8.4286715     50.70936  0.013164424  0.013038916           14 
  322000   0.74537018   -8.4294345    50.708249  0.013123253  0.012989741            8 
  323000     0.726942   -8.4660778      50.6925   0.01307856  0.012940966           14 
  324000   0.74942066   -8.4514795     50.62983  0.013022076  0.012892329            9 
  325000   0.73295143   -8.4710859    50.665978  0.012991276  0.012843786           11 
  326000   0.74433153   -8.4547771    50.605575  0.012935986   0.01279524           10 
  327000   0.72988135   -8.5018101    50.563064  0.012885592  0.012747127           11 
  328000    0.7530153   -8.4714564     50.78012  0.012901453  0.012699156            8 
  329000   0.74880578   -8.4758298    50.814263  0.012870887  0.012651526            8 
  330000   0.73810935   -8.4846595    50.786463  0.012824864  0.012604212            8 
  331000   0.74046391   -8.4649006    50.832651  0.012797747  0.012556927           10 
  332000   0.73911509   -8.4891154    50.777252  0.012745294  0.012509675           11 
  333000   0.73203093   -8.4974152     50.69513  0.012686469   0.01246279            6 
  334000    0.7380624   -8.5184823    50.654476  0.012638342  0.012415603            9 
  335000   0.74303486   -8.5251714    50.596441  0.012586179  0.012368541           15 
  336000   0.74343927   -8.5143336    50.585475  0.012546001  0.012321409           13 
  337000   0.74318789   -8.5376146    50.676318  0.012531236  0.012274763           20 
  338000   0.73035104   -8.5627091    50.598755  0.012475038  0.012228327            8 
  339000   0.71609967   -8.5701595    50.606678  0.012440186  0.012181958           12 
  340000   0.73520712   -8.5342698     50.64631  0.012413311   0.01213566           10 
  341000   0.72989072   -8.5614317    50.577687  0.012360139  0.012089586           17 
  342000   0.72132702   -8.5689333    50.646142  0.012340678  0.012043728            7 
  343000   0.71758358   -8.5684999    50.563474  0.012284615   0.01199807           10 
  344000   0.72495048   -8.5495604    50.574323  0.012251532  0.011952551            9 
  345000    0.7200331   -8.5627137    50.659599  0.012236618  0.011907127           14 
  346000   0.71114614   -8.5716838    50.502486  0.012163412  0.011861628           12 
  347000   0.70861642   -8.5690741    50.589127  0.012149166  0.011816416            9 
  348000   0.72058939   -8.5726995    50.636474  0.012125592  0.011771483            8 
  349000   0.71160815   -8.5666664    50.690626  0.012103779  0.011726694           12 
  350000   0.71389005     -8.57731    50.574638   0.01204158   0.01168225           16 
  351000   0.71811919   -8.5836513     50.68592  0.012033694   0.01163803           14 
  352000   0.71961458   -8.5746078    50.633861  0.011987183  0.011593941           18 
  353000   0.70401466    -8.605643    50.563146  0.011936531  0.011550093           15 
  354000   0.69816535   -8.5836302    50.782497  0.011954449  0.011506598           19 
  355000   0.70874605   -8.5833851    50.702515  0.011901999  0.011463249           12 
  356000   0.69255586   -8.6177307     50.69501  0.011866809  0.011420106            9 
  357000   0.69719202   -8.6041248    50.683953  0.011830988  0.011377165           14 
  358000   0.69127188   -8.5988496    50.769468  0.011817846  0.011334438           12 
  359000   0.70059627   -8.6339519    50.655746   0.01175853  0.011291813           12 
  360000   0.70384595   -8.6392841    50.605032  0.011714128  0.011249327           28 
  361000   0.68276506   -8.6055728    50.687648   0.01170075  0.011206874           15 
  362000   0.69078347   -8.6115403    50.723436  0.011676666  0.011164746           11 
  363000   0.68515978   -8.6179697     50.68522  0.011635725  0.011122692           24 
  364000   0.68692324    -8.640925    50.675007  0.011601421  0.011080877           16 
  365000   0.68387363   -8.6261155    50.761677  0.011589424  0.011039331           31 
  366000    0.6699778   -8.6531153    50.770234  0.011559707  0.010998003           30 
  367000   0.67779978   -8.6363662     50.65987  0.011503149  0.010956842           41 
  368000   0.68383128   -8.6401756    50.835396  0.011511638  0.010915799           19 
  369000   0.68821511   -8.6465419    50.686749  0.011446872  0.010875019           49 
  370000   0.68239435    -8.655177    50.637921  0.011404937  0.010834177           33 
  371000   0.66892639   -8.6752104    50.637154  0.011374024  0.010793466           59 
  372000   0.66737111   -8.6869603    50.603097  0.011335819  0.010752887           30 
  373000   0.69098475   -8.6669331     50.60066  0.011304884  0.010712468           57 
  374000   0.68580404   -8.6650767     50.63876  0.011283146  0.010672225           42 
  375000   0.68193481    -8.675984    50.643828  0.011254184  0.010632024           20 
  376000   0.67134955   -8.6854509    50.611764  0.011217146  0.010592013           46 
  377000   0.65667644   -8.6952906    50.553675  0.011174552  0.010552046           60 
  378000   0.67350976   -8.6851804    50.603296  0.011155929  0.010512159           48 
  379000   0.66891679   -8.7139108     50.51779  0.011107693  0.010472451           53 
  380000   0.66746814   -8.7055388    50.542636  0.011083911  0.010432875           29 
  381000   0.67472623   -8.7099295    50.560004  0.011058618  0.010393493           71 
  382000   0.65603089   -8.7183268    50.434366  0.011002261  0.010354179           47 
  383000   0.65157927   -8.7009204    50.541377  0.010996818  0.010315103           49 
  384000   0.64369967   -8.6925461    50.542047  0.010968326  0.010276106           58 
  385000   0.65435899   -8.7246053    50.498282  0.010930364  0.010237244           64 
  386000   0.64739147   -8.7145436    50.501992  0.010902848  0.010198589           61 
  387000   0.64383394   -8.7176559    50.487691  0.010871596  0.010159964           38 
  388000   0.66205526   -8.7335752    50.463986  0.010838485  0.010121604           47 
  389000   0.65285643   -8.7283125    50.502364  0.010818844  0.010083329           68 
  390000   0.65430635   -8.7348895    50.410409  0.010771455  0.010045222           51 
  391000   0.63765095   -8.7317408    50.394132  0.010740437  0.010007241           85 
  392000   0.64229825   -8.7488474    50.468933   0.01072894 0.0099694209           75 
  393000     0.626388   -8.7364298    50.371299  0.010680937 0.0099318197           46 
  394000   0.64227965    -8.741065    50.457721  0.010672107 0.0098943639           68 
  395000    0.6378284   -8.7675097    50.448242  0.010643089 0.0098570368           53 
  396000   0.63840149   -8.7537805    50.429574  0.010612284 0.0098199091           51 
  397000   0.62749479   -8.7518997    50.485557  0.010597304 0.0097830007           78 
  398000    0.6411548    -8.764601    50.450384  0.010563313  0.009746279           55 
  399000   0.63534701   -8.7696578    50.470421  0.010541024 0.0097097313           69 
  400000   0.63597093    -8.759423    50.398505  0.010499688 0.0096732799           44 
  401000   0.62536617   -8.7956982     50.37522  0.010468666 0.0096369997           47 
  402000   0.64321038   -8.7733681    50.365647   0.01044064 0.0096008857           64 
  403000   0.62103154   -8.7934121    50.332534  0.010407885 0.0095648526           60 
  404000   0.62302143   -8.7619554    50.431672  0.010402573 0.0095289912           54 
  405000   0.61047806   -8.7788052    50.491881  0.010389276   0.00949335           51 
  406000   0.61968636   -8.7838797    50.376567  0.010340018 0.0094579201           49 
  407000   0.62581964   -8.7749087    50.366515  0.010312554 0.0094225789           36 
  408000   0.60205376   -8.8162485    50.319995  0.010277777 0.0093873454           64 
  409000   0.60973575   -8.8010202    50.391322  0.010267181 0.0093523651           36 
  410000   0.60744575   -8.8200403    50.347891  0.010233311 0.0093174978           45 
  411000   0.61237086    -8.800378    50.351033   0.01020905 0.0092827274           46 
  412000   0.60815614   -8.8067748    50.362985  0.010186688 0.0092481825           62 
  413000    0.5966543   -8.8082611    50.348816  0.010159164 0.0092137839           55 
  414000   0.60976574   -8.7913372    50.397603  0.010144445 0.0091795323           61 
  415000   0.60098637   -8.8004175    50.423411  0.010125183 0.0091455215           78 
  416000   0.60910942   -8.8085722    50.381693  0.010092487 0.0091115753           56 
  417000   0.59900004   -8.8251152    50.313214  0.010054599 0.0090777919           45 
  418000   0.59082098    -8.838018    50.329325  0.010033757 0.0090441432           93 
  419000   0.59114844   -8.8208014    50.251546 0.0099943409 0.0090106977           42 
  420000   0.60117435   -8.8226454     50.35102 0.0099902817 0.0089774451           52 
  421000   0.60003656   -8.8188051    50.368394  0.009969991 0.0089443736           76 
  422000   0.59048066   -8.8238202     50.35441 0.0099436039 0.0089114803           50 
  423000   0.59654277   -8.8161597    50.306268 0.0099106124 0.0088787467           61 
  424000   0.58165807   -8.8292475    50.270581 0.0098802242 0.0088460861           55 
  425000   0.58026661    -8.827342    50.334544 0.0098695184 0.0088135898           41 
  426000   0.58805309   -8.8365438    50.330109  0.009845483 0.0087812702           49 
  427000    0.5841339   -8.8390691    50.322013 0.0098208455 0.0087491678           52 
  428000   0.58564924   -8.8551476    50.274741 0.0097886957 0.0087172264           41 
  429000   0.58821261   -8.8330968    50.286438 0.0097681504  0.008685446           49 
  430000   0.57086525   -8.8665291    50.258923 0.0097401014 0.0086537177           68 
  431000   0.58109428   -8.8673875    50.302582 0.0097259439 0.0086220832           61 
  432000   0.58361742   -8.8748753    50.291608 0.0097013133 0.0085905928           49 
  433000   0.57268913   -8.8735472    50.349309 0.0096900132 0.0085592932           57 
  434000   0.57468715   -8.8639066    50.243277 0.0096473266 0.0085281388           59 
  435000   0.57207033   -8.8775959    50.207227 0.0096182426 0.0084970957           46 
  436000   0.57345866   -8.8694506    50.376114 0.0096284622 0.0084661987           41 
  437000    0.5602654   -8.8583408    50.248117 0.0095820208 0.0084354042           44 
  438000   0.56625106   -8.8782817    50.277627 0.0095657586 0.0084047475           46 
  439000   0.55980939   -8.8709876    50.333622  0.009554598 0.0083742474           61 
  440000   0.55584958   -8.8947235    50.200364 0.0095076447 0.0083439363           45 
  441000   0.57547535   -8.8850811    50.226388  0.009491003 0.0083136936           66 
  442000   0.56308031    -8.888962    50.254214 0.0094747764 0.0082836712           49 
  443000   0.57145967   -8.9018274    50.203551 0.0094438583 0.0082537906           40 
  444000   0.55600656    -8.911557    50.280037 0.0094369438 0.0082240755           48 
  445000   0.56098125   -8.9001613    50.128572 0.0093873731 0.0081944266           73 
  446000   0.55284526   -8.8965244    50.235394 0.0093862844 0.0081649801           70 
  447000   0.55533787   -8.9151891    50.193261 0.0093574313 0.0081356289           43 
  448000   0.54305979   -8.9057557    50.171339 0.0093324664 0.0081064423           45 
  449000   0.54854177   -8.9137626    50.205307 0.0093179856  0.008077298           59 
  450000   0.55696124   -8.9229305    50.205253 0.0092972691 0.0080482317           64 
  451000   0.53677332    -8.907151    50.123459 0.0092615408 0.0080193021           38 
  452000   0.53624496   -8.9273329    50.128595 0.0092419977 0.0079905492           66 
  453000    0.5540362   -8.9064548     50.17383 0.0092299172 0.0079618779           72 
  454000   0.54943142   -8.9230516     50.13061 0.0092016537 0.0079333815           57 
  455000   0.53227979   -8.9166386    50.289701  0.009210568 0.0079049966           48 
  456000   0.53581173   -8.9240511    50.194643 0.0091729976 0.0078767567           72 
  457000   0.53743199    -8.934036    50.210502 0.0091558172 0.0078486115           73 
  458000   0.52802778   -8.9470712    50.140797 0.0091231435 0.0078206311           48 
  459000   0.53236439   -8.9328335    50.219586  0.009117572 0.0077928036           59 
  460000   0.54061822   -8.9529764    50.176868 0.0090900122  0.007765102           79 
  461000   0.54269411   -8.9519411    50.161878 0.0090675846 0.0077375496           56 
  462000   0.52823818   -8.9422542     50.09691 0.0090362391 0.0077100625          109 
  463000   0.52576093   -8.9716333    50.096756 0.0090166947 0.0076826821           65 
  464000   0.51997796   -8.9695394    50.119648 0.0090013735 0.0076553181           67 
  465000   0.53089259   -8.9462914    50.104197 0.0089792467 0.0076282111           52 
  466000    0.5211464   -8.9482301    50.189426 0.0089752192 0.0076011817           64 
  467000   0.52488678    -8.945512    50.078061 0.0089361279 0.0075743129          105 
  468000   0.52470778   -8.9772648    50.111226  0.008922939 0.0075474852           54 
  469000   0.50824412   -8.9723256     50.08342 0.0088989729 0.0075208215           51 
  470000     0.514983   -8.9700628    50.084467 0.0088802246 0.0074943265           65 
  471000   0.51655127   -8.9673576    50.076112 0.0088598925 0.0074678765           44 
  472000   0.51884594   -8.9839149    50.035851 0.0088340133 0.0074415856           74 
  473000   0.50882573    -8.973799    50.034646 0.0088151245 0.0074153497           61 
  474000   0.51590919   -8.9794233    50.016984  0.008793422 0.0073892933           75 
  475000   0.50803626   -8.9863532    50.096622  0.008788881 0.0073633679           78 
  476000   0.50647601   -8.9791263    50.074055 0.0087664663 0.0073375533           61 
  477000   0.50853474   -8.9725846    50.028615 0.0087401493 0.0073118465           69 
  478000   0.50726127    -8.986073    50.129246 0.0087394083 0.0072862841           78 
  479000   0.50138535   -8.9938166    50.126216  0.008720636 0.0072608628           62 
  480000   0.48547458   -8.9948311    50.059182 0.0086908301 0.0072355451           72 
  481000   0.50151217   -8.9936244    50.019854 0.0086659483 0.0072103561           57 
  482000   0.49656816    -9.007429    50.052774 0.0086536608  0.007185271           55 
  483000   0.49313089   -8.9990819     50.08269 0.0086409058 0.0071602866           63 
  484000   0.50136284   -9.0030032    49.950031  0.008600212 0.0071353801           83 
  485000   0.48782754   -9.0003696    49.992495 0.0085897758 0.0071106264           53 
  486000   0.49515262   -9.0000785    50.001711 0.0085736816 0.0070859405           45 
  487000    0.4873998   -9.0205997    49.969654  0.008550591 0.0070613334           67 
  488000   0.48769024   -9.0084372    50.001643  0.008538532 0.0070368733           68 
  489000   0.48462473   -9.0216212    49.977967  0.008517036 0.0070125585           67 
  490000   0.48502723   -9.0212157      49.9707 0.0084984184 0.0069883696           79 
  491000   0.48081074   -9.0113427    49.990174 0.0084844151 0.0069642691           83 
  492000   0.48944918   -9.0334069    50.009421 0.0084704304 0.0069402803           83 
  493000   0.47452775   -9.0336772    49.986966 0.0084494533 0.0069163694           74 
  494000   0.48077408   -9.0344156    49.965112 0.0084286626 0.0068925452           97 
  495000   0.47907177   -9.0393492    49.958453  0.008410514 0.0068688283           75 
  496000   0.46983486    -9.035826    49.905974 0.0083847402 0.0068452202          100 
  497000   0.47610867   -9.0499801    50.037252 0.0083898813 0.0068216955           78 
  498000    0.4813728   -9.0476347    49.896713 0.0083495168 0.0067983104           58 
  499000   0.46655555   -9.0359119    49.881477 0.0083302399 0.0067750161           87 
  500000   0.45904469   -9.0468423    49.871003 0.0083118338 0.0067518198           87 
  501000   0.47079448   -9.0585325    49.885631 0.0082976764 0.0067287572           74 
  502000   0.47294507   -9.0480076     49.87691 0.0082796996 0.0067057834           79 
  503000   0.47041397   -9.0490425    49.823219 0.0082543438 0.0066829478           84 
  504000   0.45660378   -9.0553231    49.840077 0.0082407535 0.0066601533          105 
  505000   0.47086106   -9.0492477    49.863328 0.0082282719  0.006637469           83 
  506000   0.46798983   -9.0629338    49.896027 0.0082173957 0.0066148653           83 
  507000   0.44510512   -9.0676297     49.83596 0.0081913149  0.006592392          131 
  508000   0.45727112   -9.0684855    49.947433 0.0081934766 0.0065699896           81 
  509000   0.45739666   -9.0763198    49.909258 0.0081711293 0.0065477161           90 
  510000   0.44751491   -9.0838879    49.860278 0.0081471042 0.0065255383           78 
  511000   0.45273511   -9.0734774    49.901144 0.0081378251 0.0065034455           96 
  512000   0.44953564   -9.0679942    49.801173 0.0081056596 0.0064814456           97 
Loop time of 1289.8 on 48 procs for 500000 steps with 4000 atoms

Performance: 66986.959 tau/day, 387.656 timesteps/s
99.4% CPU use with 48 MPI tasks x no OpenMP threads

MPI task timing breakdown:
Section |  min time  |  avg time  |  max time  |%varavg| %total
---------------------------------------------------------------
Pair    | 89.695     | 95.347     | 100.95     |  28.9 |  7.39
Neigh   | 8.5861     | 8.9602     | 9.3645     |   6.6 |  0.69
Comm    | 82.004     | 87.009     | 93.289     |  32.2 |  6.75
Output  | 0.89959    | 0.90054    | 0.92921    |   0.4 |  0.07
Modify  | 1080.1     | 1085       | 1089.3     |   8.2 | 84.12
Other   |            | 12.62      |            |       |  0.98

Nlocal:        83.3333 ave          88 max          78 min
Histogram: 2 3 5 6 5 4 4 5 3 11
Nghost:        2325.40 ave        2350 max        2308 min
Histogram: 4 8 9 5 6 5 2 3 3 3
Neighs:        15865.1 ave       17276 max       14486 min
Histogram: 3 9 2 5 4 8 5 3 2 7
FullNghs:      31731.6 ave       33502 max       29777 min
Histogram: 5 5 4 5 5 4 3 4 6 7

Total # of neighbors = 1523117
Ave neighs/atom = 380.77925
Neighbor list builds = 26618
Dangerous builds = 0

#clear
#
#next RN
#
#jump SELF
Total wall time: 0:21:33
