
units lj                  # Use reduced LJ style units
atom_style atomic         # Uncharged point particles
atom_modify map hash      # Needed for indexing of clusters etc
                          # Used to be able to find where atoms are in relation to each other.

lattice fcc 1.0 spacing 1 1 1
Lattice spacing in x,y,z = 1.5874011 1.5874011 1.5874011
region box block 0 10 0 10 0 10 units lattice
create_box 2 box
Created orthogonal box = (0.0000000 0.0000000 0.0000000) to (15.874011 15.874011 15.874011)
  3 by 4 by 4 MPI processor grid
create_atoms 1 box
Created 4000 atoms
  using lattice units in orthogonal box = (0.0000000 0.0000000 0.0000000) to (15.874011 15.874011 15.874011)
  create_atoms CPU = 0.017 seconds
set type 1 type/fraction 2 0.48 78393
Setting atom values ...
  1918 settings made for type/fraction
mass 1 1.0
mass 2 1.0
pair_style lj/cut  3.5
pair_modify tail  yes
pair_coeff 1  1  1.0  1.0   # Intearaction between 1 and 1 set with epsilon = 1 and sigma = 1
pair_coeff 1  2  1.5  0.8
pair_coeff 2  2  0.5  0.88

write_data data.0
System init for write_data ...
Neighbor list info ...
  update every 1 steps, delay 10 steps, check yes
  max neighbors/atom: 2000, page size: 100000
  master list distance cutoff = 3.8
  ghost atom cutoff = 3.8
  binsize = 1.9, bins = 9 9 9
  1 neighbor lists, perpetual/occasional/extra = 1 0 0
  (1) pair lj/cut, perpetual
      attributes: half, newton on
      pair build: half/bin/atomonly/newton
      stencil: half/bin/3d
      bin: standard
WARNING: Not all mixed pair coeffs generated from mixing. Use write_data with 'pair ij' option to store all pair coeffs. (../write_data.cpp:312)


#############################
#   M E L T   S Y S T E M   #
#############################

velocity all create 2.4 5833274 mom yes dist gaussian # Assign velocities
                                                    # Temperature 2.4, random number seed, zero linear momentum
                                                                                # Gaussian distribution

timestep 0.002   # simulation timestep
thermo 1000       # output thermodynamic data every 1000 steps bf 100

# Define a fix  in this case with index 1 applied to all
# particles in the simulation. This fix is for simulations
# in the anisotropic NPT ensemble. Note that we use the MTK
# correction.
fix 1 all npt temp 2.4 2.4 0.1 iso 5.68 5.68 0.5 mtk yes tchain 5 pchain 5 # Use NPT ensemble
                                                                         # Set temperature and pressure and damping
                                                                         # Numbers of thermostats in chain and in barostat
run 10000          # run for 10000 steps
Per MPI rank memory allocation (min/avg/max) = 3.642 | 3.644 | 3.648 Mbytes
Step Temp E_pair E_mol TotEng Press Volume 
       0          2.4   -5.4168687            0   -1.8177687   -4.2006027         4000 
    1000    2.4075076   -4.9747137            0   -1.3643551    5.6722889    3713.6198 
    2000    2.4561808   -4.9358464            0   -1.2524964    5.6967983    3733.5854 
    3000    2.3988854   -4.9327095            0    -1.335281      5.79298    3732.1911 
    4000    2.4459938    -5.023482            0   -1.3554085    6.0140347    3678.9665 
    5000    2.3628391   -4.9764484            0   -1.4330758    5.7004091    3710.3377 
    6000    2.3799326   -4.9085762            0   -1.3395698      5.99842    3713.5415 
    7000    2.4779012   -4.8963175            0   -1.1803949     5.861902      3750.87 
    8000    2.3905535   -4.9531255            0   -1.3681917    5.7011548    3723.6104 
    9000    2.4146345   -4.9628945            0   -1.3418481    5.6935223     3724.131 
   10000    2.3392527   -4.8857037            0   -1.3777019    5.7401736    3753.1641 
Loop time of 2.57286 on 48 procs for 10000 steps with 4000 atoms

Performance: 671626.670 tau/day, 3886.728 timesteps/s
99.6% CPU use with 48 MPI tasks x no OpenMP threads

MPI task timing breakdown:
Section |  min time  |  avg time  |  max time  |%varavg| %total
---------------------------------------------------------------
Pair    | 1.1784     | 1.239      | 1.3088     |   2.4 | 48.16
Neigh   | 0.21528    | 0.2205     | 0.23359    |   0.8 |  8.57
Comm    | 0.7874     | 0.85937    | 0.9258     |   3.2 | 33.40
Output  | 0.00024747 | 0.0002523  | 0.00031835 |   0.0 |  0.01
Modify  | 0.2176     | 0.23619    | 0.25913    |   2.0 |  9.18
Other   |            | 0.01753    |            |       |  0.68

Nlocal:        83.3333 ave          96 max          72 min
Histogram: 2 1 7 6 12 8 5 4 2 1
Nghost:        1710.17 ave        1730 max        1679 min
Histogram: 1 1 2 8 7 3 4 8 7 7
Neighs:        10166.6 ave       12039 max        8504 min
Histogram: 1 2 8 9 10 5 7 2 2 2

Total # of neighbors = 487996
Ave neighs/atom = 121.99900
Neighbor list builds = 902
Dangerous builds = 174

# Equilibrate just above the melting temperature to avoid step fn in T

fix 1 all npt temp 1.25 1.25 0.1 iso 5.68 5.68 0.5 mtk yes tchain 5 pchain 5
run 2000
Per MPI rank memory allocation (min/avg/max) = 3.644 | 3.646 | 3.649 Mbytes
Step Temp E_pair E_mol TotEng Press Volume 
   10000    2.3392527   -4.8857037            0   -1.3777019    5.7401736    3753.1641 
   11000    1.2544008   -7.0425684            0   -5.1614376    5.4168222    2927.0708 
   12000    1.2566696   -7.1206114            0   -5.2360783    5.8502946    2893.8579 
Loop time of 0.644671 on 48 procs for 2000 steps with 4000 atoms

Performance: 536087.209 tau/day, 3102.357 timesteps/s
99.6% CPU use with 48 MPI tasks x no OpenMP threads

MPI task timing breakdown:
Section |  min time  |  avg time  |  max time  |%varavg| %total
---------------------------------------------------------------
Pair    | 0.29037    | 0.31403    | 0.35766    |   2.4 | 48.71
Neigh   | 0.041521   | 0.043472   | 0.046583   |   0.5 |  6.74
Comm    | 0.19213    | 0.23728    | 0.26754    |   3.1 | 36.81
Output  | 7.0365e-05 | 7.1635e-05 | 8.8868e-05 |   0.0 |  0.01
Modify  | 0.039776   | 0.044972   | 0.050295   |   1.6 |  6.98
Other   |            | 0.004844   |            |       |  0.75

Nlocal:        83.3333 ave          93 max          75 min
Histogram: 2 1 7 8 9 10 5 3 2 1
Nghost:        2046.60 ave        2066 max        2029 min
Histogram: 2 4 6 5 11 5 8 3 2 2
Neighs:        13208.2 ave       14887 max       11696 min
Histogram: 1 6 6 7 6 9 6 3 2 2

Total # of neighbors = 633994
Ave neighs/atom = 158.49850
Neighbor list builds = 144
Dangerous builds = 11

#############################
# L I N E A R  Q U E N C H  #
#############################

# Define solid atoms. This closely follows ten Wolde  Ruiz-Montero and Frenkel  Faraday Discuss  1996  104  93-110
# Compute components of the per-atom q6 vector
compute q6 all orientorder/atom degrees 1 6 components 6 nnn NULL cutoff 1.3 # compute the Q6 parameter.
                                                                             # Use all neighbours within 1.3 unit cell.

# get number of connections
compute coord_number all coord/atom orientorder q6 0.5

# An atom is solid if it has 8 or more connections (of a possible 14)
variable is_solid atom c_coord_number>=8
group solid dynamic all var is_solid    # Must be dynamic to update
dynamic group solid defined

# do clustering
compute cluster solid cluster/atom 1.3 # Create a cluster where all atoms within are solid and max 1.3 units from another member

# define chunks one chunk per cluster
compute clus_chunks solid chunk/atom c_cluster nchunk every compress yes  # Says which atoms are in which chunk

# count the size of each chunk
compute size_chunks solid property/chunk clus_chunks count


# Find the maximum entry in the vector of chunk sizes
variable max_n equal max(c_size_chunks)


# Thermo style which includes this variable
# thermo_style custom step temp pe vol v_max_n

thermo ${N}  # Print the thermo information every 100 steps
thermo 1000  

# Reset the npt fix at a lower temperature (below freezing)
fix 1  all npt temp  ${temp} ${temp}  0.1  iso  5.68  5.68  0.5  mtk yes tchain  5  pchain  5
fix 1  all npt temp  0.45 ${temp}  0.1  iso  5.68  5.68  0.5  mtk yes tchain  5  pchain  5
fix 1  all npt temp  0.45 0.45  0.1  iso  5.68  5.68  0.5  mtk yes tchain  5  pchain  5

dump dmp2 all dcd ${N} traj.dcd
dump dmp2 all dcd 1000 traj.dcd


compute msd all msd com yes
variable twopoint equal c_msd[4]/6/(step*dt+1.0e-6)
fix 9 all vector 10 c_msd[4]
variable fit equal slope(f_9)/6/(10*dt)
thermo_style custom step temp pe c_msd[4] v_twopoint v_fit v_max_n

fix 1 all npt temp 1.25 ${temp} 0.1 iso 5.68 5.68 0.5 mtk yes tchain 5 pchain 5
fix 1 all npt temp 1.25 0.45 0.1 iso 5.68 5.68 0.5 mtk yes tchain 5 pchain 5
run 2000000 # 5000000  # Run for this many steps
Neighbor list info ...
  update every 1 steps, delay 10 steps, check yes
  max neighbors/atom: 2000, page size: 100000
  master list distance cutoff = 3.8
  ghost atom cutoff = 3.8
  binsize = 1.9, bins = 8 8 8
  4 neighbor lists, perpetual/occasional/extra = 1 3 0
  (1) pair lj/cut, perpetual
      attributes: half, newton on
      pair build: half/bin/atomonly/newton
      stencil: half/bin/3d
      bin: standard
  (2) compute orientorder/atom, occasional
      attributes: full, newton on
      pair build: full/bin/atomonly
      stencil: full/bin/3d
      bin: standard
  (3) compute coord/atom, occasional
      attributes: full, newton on
      pair build: full/bin/atomonly
      stencil: full/bin/3d
      bin: standard
  (4) compute cluster/atom, occasional
      attributes: full, newton on
      pair build: full/bin/atomonly
      stencil: full/bin/3d
      bin: standard
Per MPI rank memory allocation (min/avg/max) = 9.837 | 9.841 | 9.846 Mbytes
Step Temp PotEng c_msd[4] v_twopoint v_fit v_max_n 
   12000    1.2566696   -7.1206114 9.5945208e-31 6.6628614e-33 8.3333333e+20            5 
   13000    1.2511647   -7.1360863   0.47177401 0.0030241923  0.039272353            2 
   14000    1.2715277   -7.1256707   0.84622353 0.0050370446  0.034427164            4 
   15000    1.2445464    -7.146999    1.2745039 0.0070805769  0.034056276            2 
   16000    1.2304362   -7.1253255     1.676583 0.0087322026   0.03389228            3 
   17000    1.2339029   -7.1408864    2.1311385  0.010446757  0.034222452            4 
   18000    1.2536954   -7.1177989    2.5653921  0.011876815  0.034590589            7 
   19000    1.2628936   -7.1386072    2.9358059  0.012876341  0.034851372            1 
   20000    1.2263127   -7.1204878    3.3048105  0.013770043  0.034553838            4 
   21000    1.2269456   -7.1270817    3.6987705   0.01467766  0.034251983            2 
   22000    1.2255713   -7.0936716    4.1463409  0.015705836  0.034038479            3 
   23000    1.2760007   -7.1413346    4.5805203  0.016596088  0.034169502            5 
   24000    1.2693322   -7.1590471    5.0137698  0.017408923  0.034267012            2 
   25000     1.235549   -7.1189024    5.4101811  0.018033937  0.034337328            1 
   26000    1.2366994   -7.1439429    5.7838332  0.018537927  0.034232253            2 
   27000    1.2571846   -7.1601158    6.1452843  0.018966926   0.03406123            1 
   28000    1.2558289   -7.1539395    6.6666656  0.019841266  0.034071911            2 
   29000    1.2577499   -7.0906147    7.0448453  0.020243808  0.034113082            1 
   30000    1.2363863   -7.1250357    7.4351549  0.020653208  0.034163542            2 
   31000    1.2432734   -7.1722074    7.7559188  0.020849244  0.034079011            4 
   32000    1.2683309    -7.152055     8.094779  0.021080153  0.033966766            2 
   33000    1.2278216   -7.1931868    8.4489184  0.021335652  0.033796673            1 
   34000    1.2235391   -7.1960264    8.8135592   0.02160186  0.033604018            1 
   35000    1.2668197    -7.185307    9.1226746  0.021720653  0.033419645            2 
   36000    1.2420726   -7.1395415    9.5772501   0.02216956  0.033286727            1 
   37000    1.2537582   -7.1270923    10.011447  0.022548304  0.033186814            2 
   38000    1.2215252    -7.141606    10.486064  0.022995754  0.033167142            1 
   39000    1.2250327   -7.1868564    10.752969  0.022976429  0.033146353            3 
   40000    1.2542048   -7.1768197     11.10474  0.023134875  0.033064835            3 
   41000    1.2431392   -7.1838386    11.573442  0.023523255   0.03299731            1 
   42000      1.24415   -7.1492859    11.886116  0.023583564  0.032937998            2 
   43000    1.2336661    -7.168195    12.432171  0.024093355  0.032931058            1 
   44000    1.2375571   -7.1683797    12.820749  0.024281721  0.032927395            1 
   45000    1.2362905   -7.1643242    13.067105  0.024198343  0.032893726            2 
   46000    1.2360912   -7.1581713    13.517936  0.024489015  0.032833733            1 
   47000    1.2379591   -7.1577515    13.841095  0.024540948  0.032815825            1 
   48000    1.2356533   -7.1542103    14.232495  0.024709192  0.032759394            2 
   49000    1.2302316   -7.1707077    14.564719   0.02476993  0.032689491            2 
   50000    1.2146863   -7.1790423     14.99416  0.024990266   0.03265121            1 
   51000     1.234917   -7.1454862    15.377749   0.02512704  0.032601281            3 
   52000    1.2294205   -7.1513983    15.758249  0.025253605  0.032568393            1 
   53000    1.2279978   -7.2472679    16.126743  0.025356514  0.032548862            1 
   54000    1.2512079   -7.1163513    16.563004  0.025560191  0.032514787            1 
   55000    1.2464936   -7.1277208     16.96352  0.025702304  0.032500984            1 
   56000    1.1877417   -7.1557631    17.351821  0.025821162  0.032484923            3 
   57000    1.2370621   -7.2057775      17.6575  0.025815058  0.032467405            2 
   58000    1.2328722   -7.1704201    18.038779  0.025917785  0.032447829            2 
   59000    1.2449799   -7.2129973    18.529536   0.02617166  0.032436081            2 
   60000    1.2608247   -7.1681876    18.792694  0.026100964  0.032426852            3 
   61000    1.2370192   -7.1704516    19.186772  0.026211436   0.03240816            3 
   62000     1.255306   -7.1782707    19.590984  0.026331967  0.032383512            1 
   63000    1.2560214   -7.1787083    20.118561  0.026611852  0.032375354            6 
   64000    1.2339843   -7.2296055     20.46516  0.026647343  0.032382396            2 
   65000    1.2311593   -7.1982439    20.737505  0.026586544  0.032367202            2 
   66000     1.201928   -7.2365851     21.01282  0.026531338  0.032337198            4 
   67000    1.1959227   -7.1888813    21.540184  0.026791273  0.032318709            1 
   68000    1.2458413   -7.1774804    22.001178  0.026962227  0.032313264            2 
   69000    1.2332286   -7.1891259    22.528771   0.02720866  0.032324985            4 
   70000    1.2241603   -7.2092875    22.888981  0.027248787   0.03234955            2 
   71000    1.2424416   -7.1858432    23.391562  0.027454885  0.032378345            1 
   72000    1.2514772   -7.1849239    23.750465  0.027488963  0.032405524            2 
   73000    1.2244598   -7.1920799    24.044941  0.027448563  0.032430662            1 
   74000      1.21748   -7.1615937    24.403693  0.027481636  0.032441585            2 
   75000    1.2364724    -7.156334     24.77054  0.027522822  0.032437545            3 
   76000    1.2139987   -7.1974627    25.199456  0.027630982  0.032441053            4 
   77000    1.2058793   -7.1583642    25.400444  0.027489658  0.032439252            1 
   78000    1.2120987   -7.2090981    25.812286  0.027577228  0.032427496            3 
   79000    1.2064329   -7.1901437    26.386224   0.02783357  0.032425288            3 
   80000    1.2105132   -7.1859046    26.805394  0.027922285   0.03242386            2 
   81000    1.2222559   -7.1789488    27.235388  0.028019946  0.032431015            3 
   82000    1.2094018   -7.1727244    27.890368   0.02834387  0.032455717            2 
   83000    1.1950081   -7.1994617    28.194935  0.028308167  0.032485791            7 
   84000    1.2074342   -7.2116024    28.437078  0.028211387  0.032501143            1 
   85000    1.1869586   -7.2086749    28.822265  0.028257123  0.032512338            2 
   86000     1.211157   -7.2096682    29.334049  0.028424466  0.032531215            1 
   87000    1.2356762   -7.2599769    29.508696  0.028265035  0.032540469            2 
   88000    1.2225736   -7.2156965    29.940845  0.028353072  0.032543727            3 
   89000    1.2164819   -7.1954982    30.260071    0.0283334  0.032547363            2 
   90000    1.2166176    -7.191931    30.755767  0.028477562  0.032554841            3 
   91000     1.219337   -7.2081836    31.364214  0.028721808  0.032568052            3 
   92000    1.2052543   -7.2417936    31.632174  0.028652332  0.032587718            2 
   93000    1.2042812   -7.1538039    32.080087  0.028745598  0.032599657            3 
   94000    1.2341939   -7.1912271    32.239817  0.028581398  0.032602429            3 
   95000    1.1999568   -7.2273687     32.60876  0.028604175  0.032597999            2 
   96000    1.2269677   -7.2059771    33.051483  0.028690523  0.032598285            3 
   97000    1.2323393   -7.2244935    33.251626  0.028566689  0.032596355            1 
   98000    1.2170746   -7.1989088    33.787767  0.028731094  0.032588572            1 
   99000    1.2432405    -7.238778    33.892652  0.028529168  0.032574928            2 
  100000    1.2145603   -7.2201225    34.327798  0.028606498  0.032553558            3 
  101000    1.2187117   -7.2341249    34.681339  0.028614966  0.032528447            2 
  102000    1.1961127   -7.2307439     35.08599  0.028665024  0.032513863            2 
  103000    1.2099365   -7.1877644    35.539128   0.02875334  0.032509168            1 
  104000     1.209006   -7.1907728    35.968436  0.028820862  0.032500833            6 
  105000    1.2346071   -7.2299943    36.391336  0.028882012  0.032493181            1 
  106000    1.2317888   -7.2128933    36.658687  0.028819722  0.032486114            1 
  107000    1.1948346   -7.2170838    37.056006  0.028859818  0.032474545            4 
  108000     1.223596   -7.2303797    37.362548  0.028829126   0.03246666            2 
  109000    1.2053239    -7.259737    37.611065  0.028754637  0.032453837            2 
  110000    1.2113559   -7.2344785    38.002796  0.028789997  0.032440463            4 
  111000    1.2154918   -7.2658127    38.440369  0.028859136  0.032423571            1 
  112000    1.2050204   -7.1855704    38.771079  0.028847529   0.03240689            1 
  113000    1.2014447   -7.2413355    39.168066  0.028885005  0.032386735            5 
  114000    1.1915885   -7.2351667    39.278493  0.028712348  0.032366736            2 
  115000    1.1680241   -7.2590404    39.743062   0.02879932  0.032344567            2 
  116000    1.1785033   -7.2653417    40.168699  0.028856824  0.032322225            4 
  117000    1.1908548   -7.2391294    40.561705  0.028890103  0.032300659            3 
  118000    1.2331467   -7.2356722    40.913229  0.028893523  0.032279115            4 
  119000     1.245554    -7.219545    41.447735  0.029025024  0.032261349            6 
  120000    1.1925276   -7.2575728    41.521719  0.028834527  0.032240164            2 
  121000    1.2171915   -7.1996077    42.061873  0.028968232  0.032218705            2 
  122000    1.2057123   -7.2352574     42.30483  0.028896742   0.03219797            3 
  123000    1.2106002   -7.2738745    42.570858  0.028842045  0.032178552            1 
  124000     1.197618   -7.2450808    43.017657  0.028909715  0.032157547            1 
  125000     1.214759   -7.2064603    43.444356  0.028962904  0.032134986            3 
  126000    1.2059147   -7.2768881    43.465892  0.028747283  0.032107526            3 
  127000    1.2019546   -7.2256697     44.11858  0.028949199  0.032083062            1 
  128000      1.19888   -7.1780914     44.44869  0.028937949  0.032060282            3 
  129000    1.1856938   -7.2166658     44.64869  0.028842823  0.032035724            1 
  130000    1.1801385    -7.182358    45.175597  0.028958716  0.032011934            1 
  131000    1.1993336   -7.2218347    45.649367  0.029039037  0.031991463            3 
  132000    1.1969092   -7.2327967    46.065155  0.029081537   0.03197365            1 
  133000    1.2264601   -7.2352843    46.422752  0.029086937  0.031960433            1 
  134000    1.2001156   -7.2657965    46.609205  0.028985824  0.031944745            2 
  135000    1.2006833   -7.2546991    47.181264  0.029124237   0.03192836            5 
  136000    1.2286766   -7.2236472    47.360466  0.029019893  0.031911878            2 
  137000    1.2007554   -7.2612461    48.033824  0.029217655  0.031898794            1 
  138000    1.1701478   -7.2940482    48.280667  0.029154992  0.031890454            1 
  139000    1.2056476   -7.2358455    49.034704  0.029397304  0.031887686            2 
  140000    1.2190904   -7.2542762    49.444011  0.029430959  0.031887047            1 
  141000    1.1895285   -7.2023663    49.679427  0.029361363  0.031885954            2 
  142000    1.1750274   -7.2828553      49.9576   0.02931784  0.031878386            1 
  143000    1.1822227   -7.2517633    50.471897  0.029412527  0.031869503            1 
  144000    1.2091295   -7.2497663    50.630182  0.029299874  0.031861198            4 
  145000    1.1819233   -7.2892764    51.053979  0.029341367  0.031851343            1 
  146000    1.2158753   -7.2579969    51.514037  0.029402989  0.031843757            2 
  147000    1.1971341   -7.3011447    51.469017  0.029177447  0.031833823            1 
  148000    1.2364528   -7.2783935    52.031762  0.029297163  0.031822654            4 
  149000    1.1719412   -7.2875791    52.449667  0.029334266  0.031812777            2 
  150000    1.2026613     -7.27048    52.844824  0.029358236  0.031800103            3 
  151000    1.2032157   -7.2591825    53.172984  0.029344914  0.031786471            5 
  152000    1.2006584   -7.2949114    53.587029  0.029378854   0.03177308            1 
  153000    1.2033587   -7.2625745    53.790014  0.029297393  0.031760911            1 
  154000     1.208461   -7.2773244    54.016861  0.029229903  0.031747681            4 
  155000    1.1980071   -7.3001582    54.343875  0.029217137  0.031733009            3 
  156000    1.1770928   -7.3279874    54.806748  0.029277109  0.031717953            2 
  157000    1.2208406   -7.3014312    55.177659  0.029287504  0.031703689            6 
  158000    1.1883733   -7.2423141    55.798857  0.029429777  0.031691587            1 
  159000    1.2099284   -7.2415908    55.944337  0.029320931  0.031679921            1 
  160000    1.1750731   -7.3052568     56.00985  0.029171797  0.031666158            4 
  161000    1.1924765   -7.2458751    56.604613  0.029298454  0.031649468            2 
  162000    1.1695626   -7.3110934     56.83336  0.029235268  0.031632991            1 
  163000    1.1687456   -7.2846537    57.041218  0.029162177  0.031618514            1 
  164000    1.1905632   -7.3125584    57.399886  0.029166609  0.031601046            1 
  165000    1.1963608   -7.2321791    57.968099  0.029276818  0.031584697            1 
  166000    1.1812593   -7.2909342     58.28776  0.029260924  0.031569561            2 
  167000    1.2037098   -7.2555111    58.737442  0.029310101    0.0315563            3 
  168000    1.1970598   -7.2504601    59.009901  0.029270784  0.031540567            1 
  169000    1.1813829   -7.2997788    59.370064  0.029275179  0.031524034            3 
  170000    1.1854592   -7.2740493    59.803506  0.029315444   0.03150976            3 
  171000    1.1611134   -7.2735345    60.069999  0.029273878  0.031494169            2 
  172000    1.1958367    -7.282902    60.811381  0.029462878  0.031481794            1 
  173000    1.1812088   -7.3354962    60.823421  0.029298372  0.031471944            2 
  174000    1.1845945   -7.2913311    61.214299  0.029317193  0.031458887            1 
  175000    1.1739351   -7.2766394    61.472032  0.029272396   0.03144459            2 
  176000    1.1846939   -7.2780476    61.818348  0.029270051  0.031428029            2 
  177000    1.1841085   -7.2853577      62.3314  0.029346233  0.031412119            2 
  178000    1.1739313   -7.3399751    62.418048  0.029221933  0.031399018            2 
  179000    1.1830882   -7.2923665    62.857038  0.029263053  0.031384338            4 
  180000    1.1640354   -7.2895919    63.088717   0.02920774  0.031368119            1 
  181000    1.2059337    -7.303494    63.649512  0.029304563  0.031353921            6 
  182000    1.2029807   -7.3338185    63.861532  0.029240628  0.031338925            3 
  183000    1.1854545   -7.2906173    64.381132  0.029317455   0.03132502            1 
  184000    1.2184555   -7.3314653    64.537626  0.029228997  0.031310036            4 
  185000    1.1743026   -7.3049697    64.778592  0.029179546  0.031294719            3 
  186000    1.1463562   -7.3232282    65.104259  0.029168575  0.031276609            2 
  187000    1.1717235   -7.2865739     65.48195  0.029180905  0.031260907            2 
  188000    1.1871855   -7.3302795    66.170975  0.029331106  0.031247337            3 
  189000     1.187981   -7.2813696    66.590667  0.029360964  0.031234642            2 
  190000    1.2145161   -7.2950507    67.000015  0.029385972  0.031223787            2 
  191000    1.1904406    -7.291212     67.28169  0.029355013  0.031215208            1 
  192000    1.1991836   -7.3266116    67.701208  0.029384205  0.031204178            3 
  193000    1.2091744   -7.3198357    68.102797  0.029405353  0.031193253            2 
  194000    1.1687052   -7.2862339    68.353865  0.029361626  0.031182958            1 
  195000    1.1801065   -7.3509633    68.755122  0.029382531  0.031175004            2 
  196000    1.1868011   -7.3643883    68.813798  0.029257567  0.031162701            2 
  197000    1.1427381   -7.3245398     69.06226  0.029214154  0.031147951            2 
  198000    1.1685189   -7.3639661     69.62762  0.029304554  0.031135044            2 
  199000    1.1873923   -7.2781155    70.052192  0.029335089  0.031123629            2 
  200000    1.1702689   -7.3061673    70.035353  0.029181397  0.031109169            3 
  201000    1.1786911   -7.3365255    70.451668  0.029208817  0.031096024            2 
  202000    1.1511357   -7.3308092    70.603383  0.029126808  0.031082612            2 
  203000    1.1657231   -7.3492846    71.004653  0.029148051  0.031068074            2 
  204000    1.1763714   -7.3433382    71.413853  0.029172325  0.031052436            2 
  205000    1.1913775   -7.2955787    71.658218  0.029129357  0.031035672            4 
  206000    1.1958639   -7.3285328    71.691859  0.029001561   0.03101604            1 
  207000    1.1471927   -7.3421132      72.3756  0.029136715   0.03099843            4 
  208000    1.1937197   -7.3063436    72.614978  0.029092539  0.030981461            4 
  209000    1.1809512   -7.3276042     73.08627  0.029141256  0.030965146            3 
  210000    1.1570953   -7.3194803    73.524248  0.029176289  0.030947066            2 
  211000    1.1613699   -7.3221279    73.673371  0.029096908  0.030930476            2 
  212000    1.1682479   -7.3188037    74.054229  0.029109367  0.030912946            4 
  213000    1.1691151   -7.3242578    74.218991  0.029037164  0.030896411            2 
  214000    1.1853494   -7.3563501     74.70974  0.029092578  0.030879382            2 
  215000    1.1577411   -7.3330538    75.204912  0.029149191  0.030862638            2 
  216000    1.1897353   -7.3199413    75.389675  0.029085523  0.030846996            5 
  217000    1.1689664   -7.3192497    75.450368  0.028974795  0.030828731            1 
  218000     1.165637   -7.3494521    75.554604  0.028881729  0.030809405            1 
  219000    1.1630202   -7.3624451    75.721158  0.028813226  0.030787222            1 
  220000    1.1507396   -7.3291324    76.166616  0.028850991   0.03076424            1 
  221000    1.1781897   -7.3672393    76.239476  0.028747917  0.030740458            2 
  222000    1.1731332   -7.3312254    76.419253  0.028685906  0.030716052            2 
  223000    1.1706109   -7.3534094    76.894801  0.028734978   0.03069142            2 
  224000    1.1676033   -7.3189682    77.012049  0.028650316  0.030666367            3 
  225000    1.1858695   -7.3284047    77.227377  0.028602732  0.030639449            1 
  226000    1.1681296   -7.2976076    77.983075  0.028754821  0.030612832            1 
  227000    1.1338994   -7.3453944     77.85757  0.028582074  0.030586215            1 
  228000    1.1711433   -7.2839371    78.240656  0.028596731  0.030559713            1 
  229000    1.1637875   -7.3488226    78.238299  0.028470997    0.0305322            2 
  230000    1.1912158   -7.3488114    78.499503  0.028441849  0.030503191            2 
  231000    1.1619075   -7.3452041    78.749749     0.028409  0.030473248            3 
  232000    1.1682773   -7.3592463    78.951605  0.028359053  0.030442627            9 
  233000    1.1174241   -7.2931476    79.427493  0.028407544  0.030413589            1 
  234000    1.1488176   -7.3031754    79.965231  0.028477646  0.030384793            1 
  235000    1.1654225   -7.3781045    79.526634  0.028200934  0.030355836            3 
  236000    1.1738312   -7.3556609    80.496248  0.028423816  0.030326442            1 
  237000    1.1289992   -7.3388553     80.38001  0.028263013  0.030297322            1 
  238000    1.1549716   -7.3780635    80.853655  0.028310103  0.030268219            1 
  239000    1.1814738   -7.3602118    81.474562  0.028408146  0.030240534            3 
  240000    1.1565017   -7.3028154    81.753966  0.028386794  0.030214343            3 
  241000    1.1769711   -7.3385546    82.183892  0.028417667   0.03018829            2 
  242000    1.1518631    -7.374987     82.10842  0.028274249  0.030161129            1 
  243000     1.189575   -7.3858693    82.428887  0.028267794  0.030135637            2 
  244000    1.1616705   -7.4105584    83.117224   0.02838703   0.03011095            1 
  245000    1.1721784    -7.306984    83.563897  0.028423094  0.030086098            2 
  246000    1.1403143   -7.3794844    82.987692  0.028112362  0.030060282            1 
  247000    1.1421546   -7.3614111    83.733586  0.028250198  0.030033418            2 
  248000    1.1806714   -7.4071188     83.91223  0.028196314  0.030006326            3 
  249000    1.1278473   -7.3629746    84.384163  0.028241018  0.029979924            1 
  250000    1.1369802   -7.3917515    84.237394  0.028079131  0.029952885            1 
  251000    1.1565923    -7.383117    85.089912  0.028250303  0.029925893            1 
  252000    1.1469423   -7.3671827    85.176482  0.028166826  0.029900469            9 
  253000    1.1586932   -7.3812171    85.324977  0.028104406  0.029874985            1 
  254000    1.1529841   -7.4021684    85.345513  0.028000496  0.029849206            5 
  255000    1.1372259   -7.3621639    86.198416  0.028169417  0.029823143            1 
  256000    1.1562824    -7.400342    86.146856  0.028042596   0.02979769            3 
  257000    1.1568953   -7.3924927     86.35648  0.028001453  0.029771388            2 
  258000    1.1395468   -7.3773376    86.890387  0.028065371  0.029744933            2 
  259000    1.1357708   -7.3643446    87.073881  0.028016049  0.029718364            5 
  260000    1.1347028   -7.3730474    87.147761  0.027931975  0.029690765            8 
  261000    1.1887589   -7.3599095    87.558948  0.027956241  0.029663491            3 
  262000    1.1491252   -7.3775311    87.794602  0.027924492   0.02963694            2 
  263000    1.1129077   -7.3753877     88.14915  0.027930656  0.029609616            1 
  264000     1.161265   -7.3878055     88.47664  0.027928232   0.02958242            2 
  265000    1.1331349   -7.3909153    88.512689  0.027834179  0.029555135            1 
  266000    1.1560231   -7.4082348    88.540036  0.027738106   0.02952796            2 
  267000    1.1373755   -7.3502276    89.224651  0.027847893  0.029499878            2 
  268000     1.158191   -7.3642081    89.518231  0.027835271  0.029472153            5 
  269000    1.1230946   -7.3964349    89.445622  0.027709301  0.029443775            2 
  270000    1.1666652   -7.3595207    90.006502  0.027779785    0.0294146            1 
  271000    1.1190625   -7.4017955    89.837401  0.027625277  0.029385364            4 
  272000    1.1523988    -7.401522    90.136042  0.027615209  0.029356712            1 
  273000    1.1368281   -7.4618919    90.425487  0.027602408    0.0293276            2 
  274000    1.1500327   -7.4711148    90.352293  0.027479408  0.029298357            2 
  275000    1.1502769   -7.4152912    90.897128  0.027544584  0.029269076            2 
  276000    1.1714513   -7.3944024    91.393813   0.02759475  0.029240075            2 
  277000    1.1499465   -7.4298985    91.399227  0.027496759  0.029211596            1 
  278000    1.1672151   -7.4199458    91.704142  0.027489251  0.029181969            2 
  279000    1.1395349    -7.413304    92.059703  0.027496924  0.029152028            2 
  280000    1.1482233   -7.4313675    91.808182  0.027323864  0.029121087            3 
  281000     1.114039   -7.4332714    92.114373   0.02731743  0.029089448            2 
  282000    1.1337627   -7.4376693     92.64474  0.027377287  0.029058477            3 
  283000     1.164316   -7.3996124    92.868271   0.02734637  0.029028737            2 
  284000    1.1488459   -7.3870238    92.934273  0.027269446  0.028997626            1 
  285000    1.1762761   -7.4112967    92.802425  0.027135212  0.028965315            1 
  286000    1.1305692   -7.4214436    93.123221  0.027133806  0.028932858            5 
  287000    1.1273063   -7.3777649    93.416248  0.027124346  0.028900622            5 
  288000    1.1480609   -7.4232221    93.628087   0.02709146  0.028868779            1 
  289000    1.1549728   -7.3942592    93.846894  0.027060811  0.028835592            3 
  290000    1.1325567   -7.4457593    94.297606  0.027097013  0.028802669            3 
  291000    1.1192739   -7.4351528    94.131217  0.026956248  0.028769188            2 
  292000    1.1275778   -7.4185983      94.6033  0.026998659  0.028736827            2 
  293000    1.1097533   -7.4429897    95.045549  0.027032295  0.028705397            3 
  294000    1.1363335    -7.403229    95.702542  0.027126571  0.028674621            2 
  295000    1.1503775   -7.4409105    95.601632  0.027006111  0.028643426            4 
  296000    1.1426272   -7.3962912    96.027422  0.027034747  0.028612435            5 
  297000     1.137361   -7.4441489    96.146373  0.026977097  0.028581288            3 
  298000    1.1363524    -7.397323    96.239012  0.026912475  0.028550343            3 
  299000    1.1429324   -7.4266644    96.690574   0.02694832  0.028518398            1 
  300000    1.1419693   -7.4156557    96.920095  0.026922249  0.028488078            2 
  301000    1.1432088   -7.3704107    97.676133  0.027042119  0.028458011            1 
  302000     1.130323   -7.4206794    97.681734  0.026954121  0.028428683            2 
  303000    1.1478842   -7.3823004    98.236234  0.027017666  0.028399918            3 
  304000    1.1382101   -7.4188399    97.991986  0.026861838  0.028371569            3 
  305000     1.132481   -7.4626155    98.284175    0.0268536   0.02834245            2 
  306000    1.1311343   -7.4253226    99.085703  0.026984124  0.028314638            4 
  307000    1.1446253    -7.420599    98.585091   0.02676034  0.028286803            2 
  308000    1.1171649   -7.4052639    99.687788  0.026971804  0.028259317            1 
  309000    1.1567976   -7.4443549     99.31486  0.026783943  0.028231536            2 
  310000    1.1354035   -7.4445501    99.441821  0.026731672  0.028203199            2 
  311000    1.1280572   -7.4280668     99.87759  0.026762484   0.02817325            2 
  312000    1.1310832   -7.4745706    99.888671  0.026679666  0.028143293            1 
  313000     1.117426   -7.4678107    100.11019  0.026653406  0.028113617            3 
  314000    1.1250505   -7.4128453    100.41601  0.026649685  0.028084234            1 
  315000    1.1184886   -7.4039298    100.91643  0.026697468    0.0280548            3 
  316000    1.1501298   -7.4180398    101.19848  0.026687363  0.028026182            2 
  317000    1.1151457    -7.456589    101.50936    0.0266849  0.027997836            2 
  318000    1.1409254   -7.4691097    101.24562  0.026531872  0.027968196            3 
  319000    1.1180137   -7.4262537    101.74504  0.026579163  0.027939004            4 
  320000    1.1296637   -7.4156379    102.06752  0.026580082   0.02791115            1 
  321000      1.14783   -7.4524463    102.58177  0.026630781  0.027883489            4 
  322000    1.1239596   -7.4494823     102.3703  0.026493349  0.027855212            1 
  323000    1.1291983   -7.4556841    102.85883  0.026537365  0.027826295            1 
  324000    1.1320539   -7.4709298    102.77789  0.026434642   0.02779772            3 
  325000    1.1095929   -7.3824374    103.31824  0.026491856  0.027768626            1 
  326000    1.1221727    -7.452542    103.43487  0.026440406   0.02774042            4 
  327000    1.1477287   -7.4682097    103.08288  0.026269846  0.027711079            2 
  328000    1.1129068   -7.4675691    103.41367  0.026273798  0.027681264            2 
  329000     1.126709   -7.4858149    103.56343  0.026231871  0.027652055            1 
  330000    1.1323498   -7.4307044    104.02272  0.026268362  0.027623355            3 
  331000    1.1148939   -7.4252829    104.49893  0.026308895  0.027594297            2 
  332000    1.0922357   -7.4769865    104.07536  0.026123334  0.027564449            3 
  333000    1.1073223   -7.4304872    104.74748  0.026213083  0.027533408            3 
  334000    1.1095106   -7.4369082    105.00244  0.026198213  0.027503767            2 
  335000    1.0988349    -7.462727    105.31033  0.026196598  0.027474895            3 
  336000     1.129303   -7.4108576    105.51141  0.026168504  0.027445744            2 
  337000    1.1263931   -7.4521749    105.74884  0.026149565   0.02741772            2 
  338000    1.1252814   -7.4586252    106.00663  0.026135758   0.02738931            3 
  339000    1.1133592     -7.46303    106.30265  0.026131429  0.027361143            1 
  340000    1.1243837   -7.4342136    106.50753  0.026104788  0.027333238            3 
  341000    1.1192893   -7.4612321    106.93566  0.026132859  0.027306015            2 
  342000    1.1143315   -7.4729257    107.65616  0.026232007  0.027279863            3 
  343000     1.113944   -7.4717857    107.60747    0.0261437  0.027253106            4 
  344000    1.1027523   -7.4978693    108.20261  0.026211873  0.027227317            4 
  345000    1.1159475   -7.4916266    108.08694  0.026107958  0.027201654            1 
  346000    1.1375403   -7.4368129    108.78047  0.026199535  0.027176823            1 
  347000    1.0813745   -7.4390878    109.56475  0.026312379  0.027152425            4 
  348000    1.1347197    -7.432882    109.54854  0.026232889  0.027128441            1 
  349000    1.1128032   -7.4437261    109.55176  0.026158491   0.02710496            2 
  350000     1.133016   -7.4565318    109.85966  0.026157061  0.027081348            1 
  351000    1.1082228    -7.480227    109.94822  0.026103566  0.027059192            3 
  352000    1.1059617   -7.5118716    110.48395  0.026156238  0.027036819            2 
  353000    1.1134944   -7.4911687    110.66791  0.026125569  0.027014823            2 
  354000    1.1388012   -7.4905611    110.98402  0.026126182  0.026993698            1 
  355000    1.1160294   -7.4778766    111.37416  0.026144169  0.026972944            3 
  356000    1.1022207   -7.5120445    111.56596  0.026115628    0.0269524            2 
  357000    1.1269767   -7.4314236    112.07034   0.02616021   0.02693102            2 
  358000    1.1328304   -7.4866335    112.32971  0.026147511  0.026910457            2 
  359000    1.0941464   -7.4979998    112.55846  0.026127775  0.026889533            4 
  360000    1.0856915   -7.4893578    112.81303  0.026114127  0.026869156            3 
  361000    1.1218745   -7.5172197    112.63145  0.025999874  0.026849059            3 
  362000    1.1080621   -7.5074005    113.19162  0.026057002  0.026828658            2 
  363000    1.1410985   -7.4880119    113.63498  0.026087003  0.026808822            2 
  364000    1.0936411   -7.4863338    114.24354  0.026154656  0.026789351            3 
  365000    1.1236288    -7.515561    114.09296   0.02604862  0.026769583            3 
  366000    1.1163908   -7.5125342    114.25247  0.026013769  0.026748966            1 
  367000    1.1119371    -7.483957    114.94604  0.026100372  0.026729263            1 
  368000    1.0920661   -7.4608366    115.02507  0.026047345  0.026709775            9 
  369000    1.1078004   -7.4743682    115.25886  0.026029553  0.026689883            2 
  370000    1.1278382   -7.5070321    115.43959  0.025999907  0.026670526            2 
  371000    1.0942742   -7.5066048    115.81992  0.026015257  0.026651287            2 
  372000    1.0892141    -7.555364    115.63184  0.025903189  0.026631038            4 
  373000    1.0904457   -7.5128255     116.1914  0.025958757  0.026610804            3 
  374000    1.1142645   -7.5229498    116.43712  0.025944099  0.026591237            2 
  375000    1.0941079   -7.4856577    116.71187  0.025935972  0.026571999            2 
  376000    1.0974979   -7.4851343    117.29259  0.025995698  0.026553481            3 
  377000    1.1558163   -7.4899323      117.339  0.025937002  0.026535057            2 
  378000    1.0926946   -7.5323387    117.59995  0.025925915  0.026516725            2 
  379000    1.0994489   -7.5609507    117.93991  0.025932258    0.0264986            2 
  380000    1.1034883   -7.5183546    118.08682  0.025896232  0.026480655            2 
  381000    1.1010775   -7.5213035    118.20217  0.025853492  0.026462512            4 
  382000    1.1146339   -7.5129998    118.18365  0.025781774  0.026444001            5 
  383000    1.0878843    -7.520057    118.93984  0.025878991  0.026425861            3 
  384000    1.1137687   -7.5503789    118.79902  0.025781038  0.026407204            3 
  385000    1.1054312   -7.5191119    119.34306   0.02583183  0.026388965            1 
  386000    1.0925871   -7.5013779    119.64868   0.02583089  0.026370648            3 
  387000    1.1001453   -7.5025215    119.48469   0.02572883  0.026352273            3 
  388000    1.0854131   -7.5195484    120.22728  0.025822011  0.026333754            2 
  389000    1.1051802   -7.5037592    120.19014  0.025747674  0.026315337            4 
  390000     1.078059   -7.5077696    120.74135  0.025799433  0.026297028            2 
  391000    1.0912141   -7.5305018    120.91739   0.02577097  0.026279522            1 
  392000    1.1041807   -7.5168095    120.97391  0.025717244  0.026261859            6 
  393000    1.0781273   -7.5227414    121.29038   0.02571891    0.0262435            3 
  394000    1.0878466   -7.5100673    121.75637  0.025752193  0.026224805            7 
  395000    1.0799869   -7.5135104    121.61881  0.025657976   0.02620692            3 
  396000    1.0776404   -7.5396925    121.91853  0.025656257  0.026189333            2 
  397000    1.0891614   -7.4864843    122.46117  0.025705535  0.026172155            3 
  398000    1.1046268   -7.5238845    122.12673  0.025570923   0.02615466            1 
  399000    1.0883957   -7.5430948    122.64665  0.025615423  0.026136863            1 
  400000    1.0902805   -7.5420263    122.56188  0.025533725  0.026119007            2 
  401000    1.0723075   -7.5086548    122.97592  0.025556092  0.026100637            1 
  402000    1.1017978    -7.555436    123.42876  0.025586394  0.026082612            2 
  403000    1.0699172   -7.5382897    123.58744  0.025555715  0.026064565            3 
  404000     1.081813   -7.5997237    123.46652  0.025467516  0.026045881            1 
  405000    1.1049028   -7.5665202    123.94451  0.025502986  0.026028008            3 
  406000    1.0856053   -7.5543789    124.60272  0.025575272   0.02601085            4 
  407000    1.0766058   -7.4840817    125.44744   0.02568539  0.025994477            4 
  408000    1.0758186   -7.5231529    125.19029  0.025569911  0.025978429            3 
  409000     1.072999   -7.4952158    125.47592  0.025565592  0.025961913            3 
  410000    1.1025757   -7.5599047    124.93538   0.02539337  0.025944719            4 
  411000    1.0609687   -7.5484717    126.04376  0.025556319   0.02592743            2 
  412000    1.0755651    -7.598589     125.5999  0.025404511  0.025909759            2 
  413000    1.0833167   -7.5323887    126.19277  0.025462625  0.025892549            4 
  414000    1.1063738   -7.5365773    126.14393   0.02539129  0.025875721            2 
  415000    1.0927463   -7.5486736    126.67863  0.025437475  0.025858475            2 
  416000    1.1169242   -7.5144611    126.48036   0.02533661  0.025841333            3 
  417000    1.0938869    -7.544349    127.02752  0.025385195  0.025823866            2 
  418000     1.087633   -7.5541094    127.25122  0.025369063  0.025806483            3 
  419000    1.0828034   -7.5698091    127.52783   0.02536353  0.025788978            4 
  420000    1.0881842   -7.5273171    127.83423  0.025363935  0.025771254            3 
  421000    1.1059369   -7.5224907    127.80036  0.025296984  0.025753971            2 
  422000    1.1168438    -7.561767    127.75747  0.025228569   0.02573682            1 
  423000     1.086118   -7.5783919    127.86006  0.025189138  0.025718827            4 
  424000    1.0677413   -7.5397074    128.08042  0.025173038  0.025700062            4 
  425000    1.0872146   -7.5962979    128.38095  0.025172735  0.025682177            5 
  426000    1.0836177   -7.5526244    128.90505  0.025216169  0.025664624            2 
  427000    1.0906706   -7.5661042    129.10395   0.02519593   0.02564708            2 
  428000    1.0870725   -7.5277799    129.70031  0.025253176  0.025630251            3 
  429000    1.0774889   -7.5645969    129.83289  0.025220064  0.025613195            2 
  430000    1.1135217   -7.5574285    129.98292  0.025190489   0.02559603            4 
  431000    1.0832854   -7.5444284    130.43269  0.025219003  0.025578467            1 
  432000    1.0767331   -7.5713335    129.65405  0.025010425   0.02556047            4 
  433000    1.0715575   -7.5216472    130.68477  0.025151034  0.025542825            2 
  434000    1.0565371   -7.5605723    130.47222   0.02505227  0.025524835            2 
  435000    1.0805187   -7.5596132     130.8156   0.02506046  0.025506397            3 
  436000    1.0933308   -7.5747263    130.56853  0.024955759  0.025488104            1 
  437000    1.0871351   -7.5717139     131.1158  0.025003013  0.025469713            4 
  438000    1.0947796   -7.5636468    131.21832  0.024965433  0.025451594            3 
  439000    1.0807544   -7.5418386    131.59719  0.024980484  0.025433032            4 
  440000    1.0447169   -7.5515656    131.63941  0.024931707  0.025414782            4 
  441000    1.0627086   -7.5437368    132.03131  0.024949227  0.025396577            3 
  442000    1.0787726   -7.5971906    131.76194  0.024841995  0.025378444            2 
  443000    1.0651375   -7.5278972     132.5417  0.024932601  0.025360116            2 
  444000    1.0652339   -7.5864668    132.86202  0.024936565  0.025342955            2 
  445000    1.0663504   -7.5905263    132.97008  0.024900764  0.025326075            1 
  446000    1.0965849   -7.6152784    132.97096  0.024845098  0.025308984            2 
  447000    1.0632994   -7.5781426     133.3339  0.024857178   0.02529153            1 
  448000     1.063744   -7.5793989    133.18658   0.02477429  0.025273449            4 
  449000    1.0772714   -7.5977743    133.70152  0.024814684  0.025254824            6 
  450000    1.0437637   -7.6126858    133.01279  0.024631998   0.02523571            1 
  451000    1.0679265    -7.571838    133.72164  0.024708359  0.025216772            3 
  452000    1.0799623   -7.6083114    134.10694  0.024724732  0.025198372            2 
  453000    1.0978417   -7.5984442    134.36144  0.024716968  0.025179895            3 
  454000    1.0802323     -7.59819    134.41678  0.024672683  0.025161734            3 
  455000    1.0755483   -7.6006236    134.35012  0.024606249  0.025143541            2 
  456000    1.1009683    -7.586974    135.08274  0.024686173  0.025124829            3 
  457000    1.0547201   -7.5971104    135.19991   0.02465352  0.025106413            3 
  458000    1.0765616   -7.5951587    135.17868  0.024595829  0.025088407            3 
  459000    1.0824766   -7.5361548    135.96844  0.024685628  0.025070138            4 
  460000    1.0539844   -7.6455937    135.80527  0.024602405  0.025051432            3 
  461000    1.0651427   -7.6014469    136.17742  0.024616309  0.025033017            2 
  462000     1.070168   -7.6195639    135.92958  0.024518323  0.025014947            5 
  463000    1.0637365   -7.5795275    136.71845  0.024607353   0.02499673            2 
  464000    1.0663718   -7.5893342    137.07795  0.024618885  0.024978982            3 
  465000    1.0691557   -7.6123601    136.46922  0.024456849  0.024960995            4 
  466000     1.074937   -7.5713998    136.99181   0.02449782   0.02494319            4 
  467000    1.0622083   -7.6352405    137.44769  0.024526712  0.024925491            2 
  468000    1.0492066   -7.6255396    137.39152  0.024464302  0.024908266            1 
  469000    1.0642081   -7.6279349    138.04044  0.024527441  0.024891073            3 
  470000    1.0932271   -7.6020799    138.27488  0.024516822   0.02487427            1 
  471000    1.0386441   -7.5787796    138.47517  0.024500207  0.024857667            3 
  472000    1.0557937   -7.5641165    139.25256   0.02458555  0.024840961            2 
  473000     1.073022   -7.6261583    139.05974  0.024499602  0.024823915            1 
  474000       1.0527   -7.6223407     139.0399  0.024444427  0.024806648            3 
  475000    1.0723099   -7.6009803    139.61622  0.024494073  0.024789395            1 
  476000    1.0829816   -7.5808012    140.06631  0.024521413  0.024772236            7 
  477000    1.0569055   -7.6345389    139.63845  0.024395257  0.024755392            2 
  478000     1.059818   -7.6317254    139.60965  0.024339199  0.024738119            2 
  479000    1.0525106   -7.5898264     140.2398  0.024398017  0.024720943            3 
  480000    1.0742867   -7.6255621    140.41203  0.024377088  0.024703765            1 
  481000    1.0554693   -7.6109846    140.29478  0.024306094  0.024686386            3 
  482000     1.057863    -7.574767    141.09343  0.024393747  0.024669172            2 
  483000    1.0673453   -7.6081253    141.32954  0.024383978  0.024652308            3 
  484000    1.0639324   -7.6208532    140.73691  0.024231562  0.024635464            3 
  485000    1.0558759   -7.5744925    141.46179   0.02430615  0.024618654            3 
  486000    1.0602064   -7.6464594    141.24212   0.02421847  0.024601046            1 
  487000    1.0615308   -7.6101697    141.57745  0.024226122  0.024584035            1 
  488000    1.0340197   -7.6269189    141.76033  0.024207707   0.02456631            3 
  489000    1.0720464   -7.6553656    141.61738  0.024133842  0.024548991            2 
  490000     1.064179   -7.6501949    142.21331  0.024185937  0.024531987            3 
  491000    1.0663311   -7.5898992    142.78351  0.024233454  0.024515425            4 
  492000    1.0391652   -7.6312014    142.92035  0.024207376   0.02449897            1 
  493000    1.0449759   -7.5992727    143.04414  0.024179199  0.024482498            4 
  494000    1.0724333   -7.6223787    143.30616  0.024174453  0.024465952            3 
  495000    1.0597762   -7.5852301    143.44673  0.024149281  0.024449189            3 
  496000    1.0654496   -7.6289088    143.61154  0.024128283  0.024432578            3 
  497000    1.0735136   -7.5968462    144.29663  0.024194606  0.024415817            4 
  498000    1.0652788   -7.6041586    144.40364  0.024163929  0.024399358            3 
  499000    1.0436201   -7.6422708    144.57764  0.024144563  0.024383097            2 
  500000     1.046282   -7.6180354    145.16113  0.024193521  0.024366694            2 
  501000    1.0640555   -7.6472466    144.49736  0.024034823  0.024349875            5 
  502000    1.0543611   -7.6397088    144.69838  0.024020316  0.024332922            2 
  503000    1.0280816    -7.641694    144.62673  0.023960692  0.024315633            3 
  504000    1.0343373   -7.6238996    145.14218  0.023998377  0.024298124            4 
  505000    1.0542169   -7.6271787    145.24928  0.023968527  0.024280396            2 
  506000    1.0454199   -7.6338277    145.45569  0.023955153  0.024262755            2 
  507000    1.0588402   -7.6767766    145.75603   0.02395727  0.024245041            6 
  508000    1.0756645   -7.6779779    145.19706  0.023818415   0.02422748            5 
  509000    1.0442797   -7.6292364    146.36002   0.02396202  0.024210508            3 
  510000    1.0548998   -7.6311702    146.37244  0.023917065   0.02419396            3 
  511000    1.0542939   -7.6364537    146.09547  0.023825093  0.024177041            2 
  512000    1.0353563   -7.6617184    146.88022  0.023906285  0.024160477            2 
  513000    1.0424125   -7.6241346    146.92785  0.023867423  0.024144017            2 
  514000    1.0705313   -7.6311774    147.08427  0.023846348  0.024127293            2 
  515000    1.0595477   -7.6177801    147.65722  0.023892754  0.024110963            2 
  516000    1.0677531   -7.6321272    147.99365  0.023900783  0.024094757            4 
  517000    1.0795435    -7.626269    147.71018  0.023808861  0.024078211            4 
  518000    1.0621939   -7.6065687    148.25393  0.023850374  0.024061652            3 
  519000     1.058729   -7.6626342    148.12377   0.02378352  0.024044534            2 
  520000    1.0578937   -7.6465753    148.42112  0.023785436  0.024027191            2 
  521000    1.0256463   -7.6603648    148.53527   0.02375804  0.024010217            4 
  522000    1.0344859   -7.6325268    148.49051  0.023705382  0.023993234            3 
  523000    1.0281193   -7.6523569    148.68716   0.02369139   0.02397609            2 
  524000    1.0121886   -7.6590633    148.96352  0.023690128  0.023958968            1 
  525000    1.0603184   -7.6329527    149.24794  0.023690149  0.023942434            3 
  526000    1.0618738   -7.6772087     149.4914  0.023683682  0.023925925            1 
  527000    1.0302323   -7.6203616    149.82893  0.023692115  0.023909369            3 
  528000    1.0341906   -7.6232221    149.95402  0.023666985  0.023892688            7 
  529000    1.0452059   -7.6704266    149.23765  0.023509397  0.023875936            2 
  530000    1.0644259   -7.6708935    150.00323  0.023585414   0.02385909            3 
  531000     1.038863   -7.6129816    150.35783  0.023596647   0.02384256            2 
  532000    1.0686813   -7.6177252    151.00356  0.023653439  0.023826192            2 
  533000    1.0488392   -7.6398784    150.90816  0.023594147  0.023809754            1 
  534000    1.0492412   -7.6900719    150.74819  0.023524999  0.023793307            2 
  535000    1.0485683   -7.6645771    151.44985   0.02359032  0.023777118            2 
  536000    1.0641981    -7.695522    151.41211   0.02354044  0.023760643            9 
  537000    1.0646219   -7.6671566    151.69722  0.023540847   0.02374444            5 
  538000     1.041158   -7.6700372     151.4151  0.023453392  0.023727944            3 
  539000    1.0257218   -7.6442141    152.17707  0.023527686  0.023711677            2 
  540000    1.0652046   -7.6400039    152.44437  0.023525366  0.023695355            3 
  541000     1.047459    -7.634579    151.97858  0.023410133  0.023678936            3 
  542000    1.0293407    -7.673385     152.1368  0.023391267  0.023661985            1 
  543000    1.0451335   -7.6590299    152.51309  0.023405938  0.023645074            2 
  544000    1.0259644   -7.6720019     152.4457  0.023352588  0.023628638            3 
  545000    1.0600593   -7.6915058     153.0936  0.023408807  0.023611989            6 
  546000    1.0593095   -7.6758028    153.26313  0.023391808  0.023595038            2 
  547000    1.0294234   -7.6527971    153.62625  0.023404364  0.023578186            2 
  548000    1.0300849   -7.6787216     153.5789  0.023354455  0.023561756            3 
  549000    1.0320769   -7.6670758    153.70771  0.023331468  0.023545127            3 
  550000    1.0329908   -7.6929256    154.06308  0.023342892  0.023528695            2 
  551000    1.0380142   -7.6932762    153.50892  0.023216715  0.023511596            4 
  552000    1.0136813   -7.6644198    154.06133  0.023258051  0.023494223            1 
  553000    1.0392208   -7.7021332    154.05951  0.023215718  0.023477133            5 
  554000    1.0198533    -7.707928     154.1414  0.023186132  0.023460043            1 
  555000    1.0578305   -7.6860233    153.78428  0.023090732  0.023442785            2 
  556000    1.0265589   -7.6674468    154.65182  0.023179229  0.023425831            4 
  557000    1.0588847    -7.723851    154.28452  0.023082663  0.023408657            3 
  558000    1.0262623   -7.7071735    154.50423  0.023074108   0.02339149            3 
  559000    1.0559628   -7.6675697    155.06262  0.023116073  0.023374492            1 
  560000    0.9867163    -7.687098    155.41442  0.023127146  0.023357893            1 
  561000    1.0500291   -7.7007044    155.42639    0.0230877  0.023341108            5 
  562000    1.0296808   -7.6940734    155.30491  0.023028604  0.023323932            4 
  563000    1.0397603   -7.6789141    155.51887  0.023019371  0.023306727            1 
  564000     1.019772   -7.6732746    156.02473    0.0230533   0.02328993            2 
  565000    1.0481449   -7.6386015    156.53732    0.0230881  0.023273106            2 
  566000    1.0513756   -7.6997526    155.97962  0.022965197   0.02325596            2 
  567000    1.0236916   -7.6868941    156.04813  0.022934763  0.023238744            2 
  568000    1.0189551   -7.7144365    155.84482  0.022864557  0.023221055            2 
  569000    1.0463041   -7.7220317    156.15049   0.02286914  0.023202796            2 
  570000     0.998331    -7.712795    155.86296  0.022786983  0.023184804            1 
  571000    1.0402172   -7.6824912    156.67374  0.022865402   0.02316691            5 
  572000    1.0194899    -7.702291    156.93488  0.022863473  0.023149214            1 
  573000    1.0182738   -7.7162351    156.38585  0.022743724  0.023131206            1 
  574000     1.050922   -7.7215731    156.97763  0.022790015  0.023113085            5 
  575000      1.01416   -7.7250786    156.62024  0.022698586  0.023094551            3 
  576000     1.029227   -7.6895139    157.13502  0.022733655  0.023076327            5 
  577000    1.0173972   -7.7612174    156.94439  0.022666723  0.023057837            3 
  578000    1.0437529   -7.7276695    157.57713  0.022718732  0.023039444            1 
  579000    1.0379095   -7.6931795     157.8617  0.022720451  0.023021133            3 
  580000   0.98189095   -7.7121867    157.24064  0.022592046  0.023002766            6 
  581000    1.0145683   -7.7395294      157.865  0.022642713  0.022984475            4 
  582000    1.0084522   -7.7003933    157.89003  0.022607392  0.022966097            1 
  583000    1.0286522   -7.7217277    158.60058   0.02267018  0.022948093            5 
  584000    1.0137539   -7.7502286    158.48995  0.022615575   0.02293025            2 
  585000    1.0145128   -7.7143016    159.17799  0.022674927  0.022912212            5 
  586000    1.0149862    -7.705942    159.02766  0.022614856  0.022894578            3 
  587000    1.0087039   -7.6798946    159.43285  0.022633852  0.022877317            2 
  588000    1.0267757   -7.7033601     159.4159  0.022592956  0.022859793            2 
  589000    1.0158189   -7.7210272    159.39278  0.022551328  0.022842495            5 
  590000    1.0152145   -7.6981662    159.73667  0.022561677  0.022825137            3 
  591000    1.0082566   -7.7369904    159.20766  0.022448909   0.02280729            5 
  592000    1.0112154   -7.7061602    159.87972  0.022505591  0.022789435            6 
  593000    1.0101566    -7.734984    159.74401  0.022448569  0.022771625            1 
  594000    1.0137928   -7.7074857    160.54238  0.022522781  0.022754152            2 
  595000    1.0278227   -7.7317122    160.59498  0.022492293  0.022736783            1 
  596000    1.0267664   -7.7409758    160.32614  0.022416966  0.022719075            5 
  597000    1.0294458   -7.7326617    160.59511  0.022416961  0.022701571            3 
  598000   0.99488889   -7.7303989    161.32997   0.02248188  0.022684266            4 
  599000      1.02793   -7.7019071    161.18009  0.022423495  0.022666689            3 
  600000    1.0345799   -7.7641721    161.38981  0.022415251  0.022648893            2 
  601000    1.0210735   -7.7833144    160.93354  0.022314689  0.022631297            3 
  602000    1.0018098   -7.7591935    161.59057  0.022368573  0.022613961            7 
  603000   0.99621034   -7.7546199    161.69117  0.022345379  0.022596818            3 
  604000    1.0170643   -7.7389171    161.33773  0.022259621  0.022579395            3 
  605000    1.0103532   -7.7184814    162.14963  0.022334659  0.022562184            2 
  606000    1.0200589   -7.7826818    161.80427  0.022250312  0.022544584            7 
  607000    1.0154388   -7.7609033     161.8868  0.022224986  0.022526493            1 
  608000    1.0155505    -7.768971    161.73344  0.022167412  0.022508566            3 
  609000   0.99515159   -7.7308895    162.32397  0.022211819  0.022490683            5 
  610000   0.98492213   -7.7484122     162.3235  0.022175341  0.022472448            1 
  611000   0.98731448   -7.7332943    162.56335  0.022171761  0.022454519            3 
  612000   0.99107127    -7.740526    162.56871  0.022136262  0.022436365            4 
  613000    1.0163333   -7.7632939    162.33149  0.022067902  0.022418293            2 
  614000    1.0040855   -7.7501427    162.98197  0.022120246    0.0224003            2 
  615000     1.008371   -7.7585156    163.04606  0.022092962  0.022382383            3 
  616000     1.038606   -7.8040612    163.18059  0.022075296  0.022364799            2 
  617000    1.0091444   -7.8187958    162.87509  0.021998256  0.022346811            4 
  618000    1.0156576   -7.7553128    163.65651  0.022068029  0.022329038            4 
  619000   0.99303797   -7.7765281    163.70236  0.022038551  0.022311093            3 
  620000    1.0115849   -7.7549347    163.69845  0.022002479  0.022293294            2 
  621000   0.99407528   -7.7654712    163.53225  0.021944747  0.022275459            1 
  622000   0.98464042   -7.7597539    163.89271  0.021957758  0.022257809            4 
  623000    1.0118339   -7.7707294    164.18655  0.021961818  0.022240333            5 
  624000   0.99547404   -7.7447927    164.61186  0.021983422  0.022222689            1 
  625000    1.0190885   -7.7458168    164.75917  0.021967889  0.022205101            2 
  626000     1.013927   -7.7455016    164.87759  0.021948561   0.02218736            3 
  627000    1.0135953   -7.7697598    164.92914  0.021920407   0.02216956            1 
  628000    1.0047135   -7.7565437    164.81722   0.02187065  0.022152029            1 
  629000    1.0095399    -7.813516     164.7998  0.021833572  0.022134218            1 
  630000   0.99090126   -7.8166655    164.58156  0.021770048  0.022116338            3 
  631000    1.0014734   -7.7735608    164.55855  0.021732508  0.022098306            3 
  632000   0.99718272   -7.7907004    164.86991  0.021739175   0.02208028            3 
  633000    1.0124583   -7.8010503    165.45701  0.021782124  0.022062533            3 
  634000    1.0057537   -7.7581969    165.61181  0.021768114  0.022044757            6 
  635000   0.99031703    -7.799772    165.60732  0.021733245  0.022027009            3 
  636000   0.98462105   -7.7327234    166.44248  0.021808501  0.022009196            1 
  637000   0.98399396   -7.7876087    166.38571  0.021766837  0.021992006           10 
  638000   0.99246463   -7.7348881    166.21082  0.021709877  0.021974965            2 
  639000    0.9903691   -7.8133765    166.70081  0.021739803  0.021957879            5 
  640000   0.98978021   -7.7397831    167.20025  0.021770865   0.02194078            2 
  641000   0.98922993   -7.7535667    167.13192  0.021728019  0.021923483            3 
  642000    0.9769097   -7.7624101    167.20948  0.021704241  0.021905977            2 
  643000    1.0115491   -7.8182447    166.85869  0.021625024  0.021888286            3 
  644000   0.99025515   -7.7785557    167.26491  0.021644009  0.021870638            5 
  645000   0.97254926    -7.795997    167.60951  0.021654976  0.021853382            3 
  646000    0.9836293   -7.7759455    167.81453  0.021647901  0.021836063            3 
  647000   0.98090865   -7.7508994    168.51307  0.021704414  0.021818951            1 
  648000    1.0029432   -7.8086566    168.11992   0.02162036  0.021801799            3 
  649000   0.98415033   -7.7921287    168.07162  0.021580844  0.021784614            2 
  650000    1.0097942   -7.7665267    168.56516  0.021610918  0.021767461            5 
  651000     1.005184   -7.7982177    168.83139  0.021611801  0.021750319            2 
  652000    1.0006581   -7.7929241    168.42887  0.021527208  0.021733376            7 
  653000   0.98765799   -7.8066943    168.73465  0.021533263  0.021716647            5 
  654000   0.98446311   -7.8294066    168.64585  0.021489023  0.021699758            4 
  655000    1.0014093   -7.8146932    169.20148  0.021526906  0.021682715            6 
  656000   0.99507463   -7.8199349    169.51531  0.021533957   0.02166591            3 
  657000   0.96409294    -7.806435    169.71416  0.021526403   0.02164928            7 
  658000   0.98058356   -7.8226983    169.71834  0.021494217  0.021632877            2 
  659000    1.0060129   -7.8344849    170.01945  0.021499678  0.021616485            2 
  660000    0.9833446   -7.8018828    170.31525   0.02150445   0.02160004            7 
  661000   0.98742773   -7.7955196    170.52319  0.021498133  0.021583855            5 
  662000   0.97922097   -7.8107673    170.69962  0.021487868   0.02156757            4 
  663000   0.99414423   -7.8381255    170.88232  0.021478421  0.021551372            4 
  664000   0.96933799   -7.8057616    170.60014  0.021410661  0.021534866            4 
  665000    1.0038979   -7.8434321    170.72254  0.021393802  0.021518491            2 
  666000   0.99952309   -7.8376402    170.82725  0.021374782  0.021502239            3 
  667000   0.98518969   -7.7861932    171.74374  0.021457239  0.021485704            4 
  668000   0.99948776   -7.8010488    172.07758  0.021466764   0.02146967            3 
  669000   0.98625022    -7.833535    171.52055   0.02136529  0.021453639            4 
  670000   0.98657737   -7.8024146    171.61296  0.021344895  0.021437391            4 
  671000   0.98113332   -7.7836332    172.46208  0.021418539  0.021421355            5 
  672000   0.98841969    -7.822943    171.89475  0.021316313  0.021405406            2 
  673000   0.99672969   -7.8358671     171.7732  0.021269589   0.02138917            4 
  674000   0.99291593   -7.8260732    171.89979  0.021253683  0.021372923            1 
  675000    0.9853325    -7.773256      172.927  0.021349012  0.021356748            3 
  676000   0.98352785   -7.8463603    172.54441  0.021270267  0.021340702            4 
  677000   0.96793098   -7.8631432    172.61107  0.021247054  0.021324655            1 
  678000   0.97385058   -7.8403249    172.91666  0.021253277  0.021308427            2 
  679000   0.98367884   -7.8209314    173.20777  0.021257704  0.021292205            2 
  680000   0.97677675   -7.8002783    173.45815  0.021257126  0.021276417            3 
  681000   0.98961787   -7.8217212    173.52072  0.021233568  0.021260517            4 
  682000    1.0111771    -7.821313    173.55698  0.021206864  0.021244791            4 
  683000   0.97646783   -7.8644986    173.37664  0.021153811  0.021228739            9 
  684000   0.98627681   -7.8364383    173.73694  0.021166781   0.02121268           16 
  685000   0.96465173   -7.8369288    174.12746  0.021183389   0.02119654            4 
  686000    0.9793516   -7.8710624    173.93526  0.021129162  0.021180465            2 
  687000   0.98235842   -7.8330386    173.89545  0.021093577  0.021164578            3 
  688000   0.95171323   -7.8144192    174.82288  0.021175252  0.021148776            5 
  689000   0.98786322   -7.8119649    175.47007  0.021222795  0.021133281            6 
  690000   0.98830106   -7.8079181    175.37702  0.021180799  0.021118005            4 
  691000   0.98054067   -7.8250995    175.23123  0.021132565  0.021102703            7 
  692000    0.9789594   -7.8574904    175.20158  0.021098457  0.021087371            4 
  693000   0.98177203   -7.8659842    175.69627  0.021127498  0.021071917            3 
  694000   0.96054149   -7.8603579    175.00497  0.021014045  0.021056244            3 
  695000   0.99192315   -7.8662698    174.98318  0.020981197   0.02104057            4 
  696000    1.0053947   -7.8238934    175.85917  0.021055936  0.021024769            3 
  697000   0.96814018   -7.8359893    175.49572  0.020982271  0.021009146            2 
  698000   0.96759335   -7.8606317    175.49851  0.020952544  0.020993264            3 
  699000   0.96737672   -7.8525436    175.46946  0.020919106  0.020977488            2 
  700000   0.95873537   -7.8849494    175.51961  0.020895192   0.02096125            4 
  701000   0.96695677   -7.8365465    175.62944   0.02087844  0.020945184            2 
  702000    0.9884631   -7.8832635     175.1613  0.020793127  0.020929044            3 
  703000    0.9792944   -7.8921592    175.87315  0.020847931  0.020912674            3 
  704000   0.98854613   -7.8603158    175.78849  0.020808297  0.020896488            6 
  705000   0.98730781    -7.920607    175.47112  0.020741268  0.020880277            5 
  706000   0.97518097   -7.8541679    176.33863  0.020814286  0.020864202            4 
  707000   0.98540473   -7.8409938    176.00759  0.020745827    0.0208481            4 
  708000   0.97869914   -7.8283791    176.51338  0.020776057  0.020832202            4 
  709000   0.97648314     -7.84045    176.84696  0.020785961  0.020816338            3 
  710000   0.96529095    -7.855992    177.66916  0.020853188   0.02080054            5 
  711000   0.95014467   -7.8441772     177.2792  0.020778153  0.020785013            2 
  712000   0.95640569    -7.849928    177.54872  0.020780515  0.020769574            2 
  713000    0.9862846   -7.8528969    177.69736  0.020768742  0.020753954            2 
  714000   0.95065201   -7.8696819    177.71498  0.020741711  0.020738265            3 
  715000   0.96924656   -7.8657406    177.66839  0.020707271   0.02072268            2 
  716000   0.97746465   -7.8983544    177.45035  0.020652973  0.020706973            5 
  717000   0.98334342   -7.9071986    177.47273   0.02062677  0.020690992            9 
  718000   0.96953321   -7.8864616    177.46345  0.020596964  0.020674901            4 
  719000   0.98514531   -7.8661238    177.19923  0.020537694  0.020658725            3 
  720000   0.93978523   -7.8739409     178.0719  0.020610173  0.020642413            3 
  721000   0.94902924   -7.8567384    178.06117  0.020580348  0.020626352            6 
  722000   0.97111084   -7.8809821    177.85689  0.020528266  0.020610289            3 
  723000   0.97705316   -7.8663083    178.44227  0.020567343   0.02059438            6 
  724000   0.94287295   -7.8571323    178.81314  0.020581623  0.020578406            5 
  725000   0.95100076   -7.8941049    178.21039  0.020483953  0.020562368            3 
  726000   0.94694768   -7.8974613    178.41675  0.020479425  0.020546187            4 
  727000   0.95547097   -7.8893952     177.9051  0.020392607  0.020529932            2 
  728000   0.96478148   -7.9258799    178.51361   0.02043425  0.020513603            8 
  729000    0.9743415   -7.9120975    178.73579  0.020431618  0.020497508            4 
  730000   0.98320821   -7.8852206    178.51021  0.020377877  0.020481451            3 
  731000   0.95145267   -7.8364779    179.22945  0.020431994  0.020465469            5 
  732000   0.96343268   -7.8362927    179.36466  0.020419474  0.020449684            2 
  733000   0.94778119    -7.883859    179.11493  0.020363225  0.020433765            1 
  734000   0.98985132   -7.8954469    179.31381  0.020358061  0.020417868            2 
  735000   0.95772624   -7.8947421    179.69549  0.020373639  0.020401728            3 
  736000   0.94614041   -7.9346147    179.54318  0.020328712  0.020385832            5 
  737000   0.96047609   -7.9106655    179.92457  0.020344253  0.020369884            2 
  738000   0.96279429   -7.9245743    179.70226  0.020291583  0.020353851            2 
  739000   0.96014082   -7.8796183    180.63132   0.02036889  0.020338039            5 
  740000   0.95498729    -7.882381    180.30615  0.020304747  0.020322021            3 
  741000   0.95507799    -7.880648     180.4187  0.020290002  0.020306054            3 
  742000   0.95589652   -7.8640284    181.06794  0.020335573   0.02029028            3 
  743000   0.95301349   -7.9181105    180.90403  0.020289819  0.020274486            3 
  744000   0.96422017    -7.875023     180.8985  0.020261929  0.020258912           11 
  745000   0.92620105   -7.9114421    180.39463  0.020178371  0.020243039            4 
  746000   0.95250724   -7.9089539     180.6602  0.020180987  0.020227225            3 
  747000   0.97590898   -7.9378443    180.58909  0.020146038  0.020211152            2 
  748000   0.94107761   -7.8856278    181.44005  0.020213909  0.020195013            1 
  749000   0.96379398   -7.8752619    181.37531  0.020179718  0.020179052            2 
  750000   0.96359528   -7.9046759    181.45899   0.02016211  0.020163023            4 
  751000   0.96932741   -7.9192454     181.4618  0.020135574  0.020146984            4 
  752000   0.95348861     -7.88837    181.75304  0.020141073  0.020130981            6 
  753000   0.95732296   -7.8854233    181.65579  0.020103563  0.020115141            2 
  754000   0.97347758   -7.9228552    181.43414  0.020052403  0.020099279            2 
  755000    0.9578895    -7.914723    181.75942  0.020061746  0.020083428            5 
  756000   0.96985504   -7.9221098    181.97139  0.020058575  0.020067346            3 
  757000   0.96336061   -7.9638424    181.19311  0.019946401   0.02005118           11 
  758000   0.95673273   -7.9394179    181.52704  0.019956798  0.020034874            5 
  759000   0.93470866   -7.9981746    181.47885  0.019925214  0.020018495            2 
  760000   0.95945543   -7.9576061    181.80352  0.019934596  0.020002344            3 
  761000   0.96566438   -7.9181883    181.97789  0.019927496  0.019986258            4 
  762000   0.95374254    -7.942976    182.66313  0.019976283  0.019970313            3 
  763000   0.95722993   -7.9064312    183.25106  0.020014314  0.019954682            4 
  764000   0.92875398   -7.9035029    182.79871  0.019938777  0.019939009            2 
  765000   0.93353663   -7.9072514    182.89182  0.019922856  0.019923286            7 
  766000   0.94211858   -7.9547553    182.98077  0.019906525  0.019907534            4 
  767000   0.94485561   -7.9753833    182.94885  0.019877102    0.0198917            3 
  768000   0.93468244   -7.9409701    182.52067   0.01980476  0.019875857            8 
  769000   0.93515403   -7.9246477    183.28142  0.019861445  0.019860124            2 
  770000   0.94967278    -7.939576     183.6503  0.019875573  0.019844446            6 
  771000   0.94869114   -7.9285094    183.73634  0.019859095   0.01982878            5 
  772000   0.95211344   -7.9450585    183.91781  0.019852958  0.019813076           12 
  773000   0.93962525   -7.9776354    183.35282  0.019766367  0.019797339            4 
  774000   0.93778846   -7.9767224     183.2941  0.019734506  0.019781539            5 
  775000   0.93600738   -7.9633437    183.75395  0.019758489  0.019765476            2 
  776000   0.95488609   -7.9506522    184.09229  0.019769362  0.019749781            6 
  777000   0.93678343   -7.9489927    184.04046   0.01973836  0.019734085            4 
  778000   0.95384288   -7.9546272    184.61322  0.019774338  0.019718396            2 
  779000   0.93514714    -7.966418    183.82622  0.019664765  0.019702478            3 
  780000   0.93903168   -7.9525962    184.06003  0.019664533  0.019686677            2 
  781000   0.92874498   -7.9692237    183.88498  0.019620677  0.019670789            7 
  782000    0.9424137   -7.9286979    184.22576  0.019631902  0.019654794            5 
  783000   0.95465538   -7.9368253    184.68665   0.01965588  0.019638978            4 
  784000   0.92840736   -7.9429023    184.94993  0.019658794  0.019623132            6 
  785000   0.92617147   -7.9486762    184.57397  0.019593839  0.019607291            4 
  786000   0.92508881    -7.958171    185.06479  0.019620948  0.019591458            4 
  787000   0.94412576    -7.930511    184.98276  0.019587332  0.019575578            5 
  788000   0.94838864   -7.9296346    184.87472  0.019551049  0.019559692            7 
  789000    0.9423316   -7.9556346    184.90992  0.019529987  0.019543841            2 
  790000   0.95630649   -7.9517728    184.65668  0.019478552  0.019527901            3 
  791000   0.92844858   -7.9611885    185.07842  0.019498359  0.019511998            5 
  792000   0.93047195    -7.932482    185.62358    0.0195311  0.019496255           12 
  793000   0.95156524   -7.9774754    185.22394  0.019464475   0.01948048            2 
  794000   0.92017182   -7.9682043    185.65582  0.019485287  0.019464699           14 
  795000   0.91287919    -7.984691    186.06514  0.019503684  0.019448906           19 
  796000   0.92041203   -7.9699932    185.71151  0.019442159  0.019433076            8 
  797000   0.91519945   -7.9733712    185.31795  0.019376616  0.019417357            2 
  798000   0.92793011   -7.9525561    186.03242  0.019426945  0.019401599            7 
  799000   0.92057552    -7.962964    185.97603  0.019396749  0.019386042            4 
  800000   0.94563881   -7.9368855    186.50556  0.019427662  0.019370442            2 
  801000   0.92019853   -7.9396207    186.23022  0.019374763  0.019354899            2 
  802000   0.94662924   -7.9556719     186.0805  0.019335048  0.019339315            3 
  803000   0.92447308   -7.9668886    186.57798  0.019362597  0.019323696            3 
  804000   0.92690788   -7.9740468    186.74181  0.019355495  0.019308041            2 
  805000   0.92115547    -7.959116    186.61762  0.019318594  0.019292461            6 
  806000   0.92491287   -7.9786992    186.67557  0.019300617  0.019276743            6 
  807000   0.94143553    -7.975603    186.70555  0.019279796  0.019261088            3 
  808000    0.9316119   -7.9630789    187.29461  0.019316689  0.019245456            6 
  809000   0.91822316     -7.97123    187.04159  0.019266748  0.019229916            2 
  810000   0.94044655   -7.9719086    186.97588  0.019236201  0.019214517            4 
  811000   0.92886207   -7.9666517    187.49711   0.01926604  0.019199074            7 
  812000   0.93400947   -7.9697254    187.35726  0.019227962  0.019183694           13 
  813000   0.93409522   -7.9632714    187.78116  0.019247761  0.019168287            9 
  814000   0.91463621    -7.975173     187.6337  0.019209019  0.019152919            9 
  815000   0.91460594   -8.0003587    187.94608  0.019217391  0.019137536            5 
  816000   0.94856778   -7.9433929    188.71976  0.019272852  0.019122446            5 
  817000   0.93527849   -7.9752882    188.07483  0.019183479  0.019107337            3 
  818000   0.90361187   -7.9756095    188.33919  0.019186959  0.019092268            3 
  819000   0.93456374    -7.977958    188.56494  0.019186502  0.019077203            1 
  820000    0.9449923   -7.9785547    188.57893  0.019164525  0.019062199            3 
  821000   0.91268393   -7.9601402    189.00547  0.019184477  0.019047153           11 
  822000   0.92176513   -7.9718653    189.30477  0.019191481  0.019031993            3 
  823000   0.92856669    -8.010606    188.99062  0.019136352  0.019017046            2 
  824000   0.91064737   -7.9595613    189.11552  0.019125761  0.019002036            2 
  825000   0.93730367   -7.9952652    189.01815  0.019092742  0.018987034            2 
  826000   0.91670192    -7.983735    189.03022  0.019070846  0.018972088            4 
  827000   0.93353571   -7.9687788    189.61155  0.019106363  0.018957261            4 
  828000   0.94802062   -7.9946579     188.8319  0.019004821  0.018942278            3 
  829000   0.93446257   -7.9506877    189.92214   0.01909149  0.018927328            3 
  830000   0.93535831   -7.9741224    189.83096  0.019059333  0.018912442            5 
  831000   0.93126232   -8.0185446    189.80879  0.019034175  0.018897576            3 
  832000   0.93182435    -7.958857    189.98506  0.019028952  0.018882636            7 
  833000   0.92167637   -8.0110819    189.44707  0.018952288  0.018867577            2 
  834000   0.91174718   -8.0227893    189.36778  0.018921641  0.018852381            7 
  835000   0.90156621   -7.9951615    189.39855   0.01890205   0.01883724            3 
  836000   0.91951699   -8.0142789    189.68261  0.018907757   0.01882204            3 
  837000   0.93197811   -7.9997165    189.59923  0.018876865  0.018806731            2 
  838000   0.89488018   -8.0310509    189.54535  0.018848981  0.018791264            8 
  839000   0.92477138   -8.0003681    189.83831  0.018855613  0.018775786            3 
  840000   0.90874156   -7.9821442    189.84341  0.018833672  0.018760408            4 
  841000   0.92069037   -7.9868841    189.54835  0.018782041  0.018745147            8 
  842000   0.91161557   -8.0229379    189.52492  0.018757415  0.018729834            8 
  843000   0.92359828   -8.0317885    189.73717  0.018756145  0.018714515           21 
  844000   0.92516102    -7.943748    190.54647   0.01881383  0.018699117            3 
  845000   0.90905151   -7.9760276    190.38951  0.018776086  0.018683903            5 
  846000   0.90488796   -7.9983766    190.39653  0.018754584  0.018668704            6 
  847000   0.92596529   -8.0284621    190.50131   0.01874275  0.018653535            4 
  848000   0.91667096   -8.0204009    190.00713  0.018672084   0.01863822            2 
  849000   0.90814875   -8.0215985    190.64075  0.018712285  0.018622857            7 
  850000   0.91802585   -8.0074868    190.33929  0.018660715  0.018607518            3 
  851000   0.91774827    -8.017444    190.45617  0.018650232  0.018592143            4 
  852000   0.91851515   -8.0112226    191.07005  0.018688385  0.018576885            3 
  853000   0.91824972   -7.9979499    190.90476  0.018650328  0.018561809            5 
  854000    0.8900461   -8.0087883    190.87664  0.018625746  0.018546731            2 
  855000   0.92576574   -7.9994525    191.37008  0.018652054  0.018531563            4 
  856000   0.91876396   -8.0061566    191.11348  0.018605284  0.018516397            7 
  857000   0.91826646   -8.0424292    191.33305  0.018604925    0.0185012            3 
  858000   0.91323474    -7.987496    191.94897  0.018643063  0.018486119            5 
  859000   0.94310021   -8.0044104    191.62917  0.018590334  0.018471035            5 
  860000   0.93503186   -8.0334116    191.23249   0.01853028  0.018456109            3 
  861000   0.92753466   -8.0542049    191.51526  0.018536126  0.018441184           12 
  862000   0.90097572   -8.0200598    191.73957  0.018536308  0.018426293            8 
  863000   0.91384603   -8.0097091    192.35203   0.01857397  0.018411498            2 
  864000   0.90486807   -8.0248765    192.34003  0.018551315  0.018396699            6 
  865000   0.93175911   -8.0402386    192.10207  0.018506943  0.018381916            2 
  866000   0.92546003   -8.0351741     191.7539  0.018452069  0.018366826            2 
  867000   0.91656688     -8.03728    192.04609  0.018458871  0.018351665            2 
  868000   0.92234627    -8.049521    192.23861  0.018456088  0.018336524            2 
  869000   0.89175837   -8.0303236    192.05313  0.018417063  0.018321348            5 
  870000   0.90642646   -8.0380397    191.99292  0.018390126  0.018306193            4 
  871000   0.90147763   -8.0131189    192.93998  0.018459623  0.018291085            3 
  872000    0.9145953    -8.048738    192.16052  0.018363964  0.018275947            5 
  873000   0.90272143    -8.052543    192.43827  0.018369442  0.018260875            4 
  874000   0.89769015    -8.077602    192.00923  0.018307517  0.018245737            2 
  875000   0.87683389   -8.0614716    192.14233  0.018299269  0.018230508            6 
  876000   0.90351882   -8.0576619     192.1454  0.018278672  0.018215232            5 
  877000   0.88640314   -8.0576625    192.33883   0.01827621  0.018200057            7 
  878000   0.90714223   -8.0371342    192.67696  0.018287486  0.018184788            3 
  879000   0.91364807   -8.0536927    192.32159  0.018232991  0.018169575            4 
  880000   0.89232336   -8.0223482    192.82803   0.01826023  0.018154409            2 
  881000   0.91362481   -8.0851878    192.58906    0.0182169  0.018139383            3 
  882000   0.89515469   -8.1116002    192.81114  0.018217228  0.018124269            3 
  883000   0.91858525   -8.0731965    192.89064  0.018204099  0.018109164            5 
  884000   0.91533877   -8.0595156    193.27804  0.018220027  0.018094167           12 
  885000   0.91160595   -8.0848386    193.24035   0.01819589  0.018079148            3 
  886000   0.88634821   -8.0552009    193.51488  0.018201174  0.018064245           11 
  887000   0.90050608   -8.0538532    193.44894  0.018174459  0.018049267            5 
  888000   0.89999117   -8.0731331    193.70249  0.018177786  0.018034375           11 
  889000   0.88139287   -8.0813012    193.18714  0.018109031  0.018019531            5 
  890000   0.91050622   -8.1033994    193.86471  0.018152126  0.018004473            2 
  891000   0.88895301   -8.0983851    193.40902  0.018089134  0.017989392            6 
  892000    0.9031303   -8.0478444    194.09307   0.01813276  0.017974431            6 
  893000   0.91082761    -8.040589    193.67788   0.01807371  0.017959426            3 
  894000   0.89835002   -8.0919604    193.87754  0.018072104  0.017944509            3 
  895000   0.89849605   -8.0732017    193.43902  0.018011082  0.017929539            3 
  896000   0.88524937   -8.1025701    193.83573  0.018027877  0.017914448           11 
  897000   0.90302921   -8.0841298    193.63204  0.017988856  0.017899252            1 
  898000   0.89851091   -8.0742093    193.96098  0.017999348  0.017884125            3 
  899000   0.90268976   -8.0729911    193.97782  0.017980888  0.017869126            6 
  900000    0.8893792   -8.0657143    194.22889  0.017984156  0.017854026            3 
  901000   0.88418565   -8.0728551    194.40196  0.017980204  0.017838952            6 
  902000   0.90259789   -8.0896659    193.92826  0.017916506  0.017823963            3 
  903000   0.88216664   -8.0797228    194.06593   0.01790937  0.017808828            4 
  904000    0.8738709   -8.0594981    194.03726  0.017886916  0.017793799            4 
  905000   0.87335735   -8.0604344    194.52518   0.01791208  0.017778872            4 
  906000   0.89428636   -8.0591996    194.11523  0.017854602  0.017763991            2 
  907000   0.90149432   -8.0868822    194.69747  0.017888412   0.01774899            3 
  908000   0.88205809   -8.0757729    194.82422  0.017880344  0.017733878            3 
  909000   0.88720098   -8.0878981    195.13134  0.017888829  0.017718781            4 
  910000   0.87096562   -8.0998247     194.5026  0.017811594   0.01770383            7 
  911000   0.89232699   -8.0848459    195.41481  0.017875486  0.017688944            6 
  912000   0.89507779   -8.1006335    194.47248  0.017769781  0.017674001            4 
  913000   0.91581911   -8.0828704    195.04746  0.017802798   0.01765901            3 
  914000   0.91046684   -8.1250749    194.18629  0.017704804  0.017644016            3 
  915000   0.90070041   -8.1055256    195.13643  0.017771988  0.017628944            3 
  916000   0.88489704   -8.0828828    195.24982  0.017762902   0.01761402            6 
  917000   0.90550828   -8.1132713     195.0174   0.01772241  0.017599256            4 
  918000   0.88471467   -8.0927021    195.49532  0.017746489   0.01758457            5 
  919000   0.88968991   -8.1262916    195.08178  0.017689679  0.017569677            8 
  920000   0.88814897   -8.1345039    195.34132   0.01769396  0.017554695           11 
  921000   0.87512467   -8.1075169    195.38032  0.017678278  0.017539767           12 
  922000   0.88174066   -8.1369179    195.56316  0.017675629  0.017524918           14 
  923000   0.89501267   -8.1143913    196.00785  0.017696628  0.017510074            2 
  924000   0.87408657   -8.1153082    195.67139  0.017647132  0.017495308            5 
  925000   0.87529329   -8.0844986    196.28877  0.017683673   0.01748052            4 
  926000   0.89705756   -8.1427236    195.37671  0.017582497  0.017465819            9 
  927000   0.89126262   -8.1326288    195.84096  0.017605264  0.017451084            7 
  928000   0.87125285   -8.0980914    195.93676  0.017594896  0.017436389            4 
  929000     0.887135   -8.1038946    196.52349  0.017628587  0.017421734            6 
  930000   0.87235922   -8.0970719     196.4945  0.017607034  0.017407001            2 
  931000   0.88074719   -8.1324354    196.03572  0.017547057  0.017392229            4 
  932000    0.8824776    -8.153716    196.47834  0.017567806  0.017377574            3 
  933000   0.88266626   -8.1161585    196.10646  0.017515761  0.017362856            2 
  934000   0.87248617   -8.1599795    196.28918   0.01751331  0.017348152            3 
  935000   0.89035158   -8.1318238    196.03585  0.017472001  0.017333458            5 
  936000   0.84725582   -8.1521468    195.49305  0.017405008  0.017318726            4 
  937000   0.87787498   -8.1397129    196.33284  0.017461121  0.017303929            7 
  938000   0.87019883   -8.1327538     196.7434   0.01747898  0.017289132            5 
  939000   0.89065537   -8.1014152    196.18737   0.01741102   0.01727443            9 
  940000   0.87176308    -8.148602    196.57353  0.017426731  0.017259616            3 
  941000   0.87403382   -8.1244816    196.45879  0.017398051  0.017244885            2 
  942000   0.88719631    -8.115648     196.6444  0.017396001  0.017230182            3 
  943000   0.87997328   -8.1401504     196.8158    0.0173927  0.017215563            3 
  944000   0.90320598    -8.135875    196.52824  0.017348891  0.017200918           11 
  945000   0.87622981   -8.1209005    196.88716  0.017362183  0.017186211            9 
  946000   0.85372773   -8.1753665    196.75225  0.017331946  0.017171454            4 
  947000   0.88582082    -8.136648     196.6748  0.017306828  0.017156819           12 
  948000   0.87920363   -8.1394639    197.47806  0.017359182  0.017142322            9 
  949000   0.85210977   -8.1301995    197.58458  0.017350244  0.017127813            1 
  950000     0.872549   -8.1168392    197.34141   0.01731065  0.017113296            3 
  951000   0.86906629   -8.1063641    198.21911  0.017369358  0.017098949            3 
  952000   0.85597518   -8.1455308    197.75178  0.017310205  0.017084608            5 
  953000   0.87338348   -8.1268174    197.76094  0.017292841  0.017070309            2 
  954000   0.86555712   -8.1497565    197.50569  0.017252418  0.017055967            5 
  955000   0.85894994   -8.1265545    197.67042  0.017248728  0.017041604            3 
  956000   0.86971061    -8.145435    197.64496  0.017228466  0.017027138            3 
  957000   0.87768734   -8.1314922    197.37019  0.017186537  0.017012647            5 
  958000   0.85955704   -8.1393024     197.7265  0.017199591  0.016998049            4 
  959000   0.87820324   -8.1451429    197.47378  0.017159695  0.016983424            4 
  960000   0.86374317     -8.15434    197.56956  0.017150135  0.016968791            2 
  961000   0.88923976   -8.1795494    197.09114  0.017090803  0.016954241            4 
  962000   0.86920331   -8.1500358     197.8028  0.017134684  0.016939663            5 
  963000   0.87659031   -8.1471107    198.03977  0.017137398  0.016925191            3 
  964000   0.87010146   -8.1416424    197.82604  0.017101144  0.016910798            4 
  965000   0.88793596   -8.1333541    197.91804  0.017091367  0.016896373            7 
  966000   0.88098986    -8.155918     198.1765  0.017095971  0.016881987            5 
  967000   0.87019335   -8.1391644    198.05104   0.01706748  0.016867511            4 
  968000   0.87064082   -8.1505976     198.2928  0.017070661  0.016852973            4 
  969000   0.86557993   -8.1071329    198.31396  0.017054864  0.016838429            6 
  970000   0.85412514   -8.1595042    198.33943   0.01703947  0.016823951            5 
  971000   0.88440756   -8.1497723      198.539  0.017039049  0.016809429            6 
  972000   0.87975597   -8.1510168    198.40038  0.017009634  0.016794993            3 
  973000   0.84749794   -8.1533244    198.65882  0.017014287  0.016780502            7 
  974000   0.86454981   -8.1651594    198.51895  0.016984852  0.016766097           13 
  975000   0.86004545    -8.163956    198.69319  0.016982324  0.016751621            9 
  976000   0.86937917   -8.1646164     198.0706  0.016911766  0.016737016            4 
  977000   0.85367046   -8.1884732    197.89967  0.016879876  0.016722333            4 
  978000   0.86180892   -8.1844899    198.05133  0.016875539  0.016707705            4 
  979000   0.87403947    -8.174737    198.27153  0.016877045  0.016693084            4 
  980000   0.87646739   -8.1593873    198.34624  0.016866177  0.016678531            3 
  981000   0.85282636   -8.1836383    197.72594  0.016796291  0.016664045            4 
  982000   0.88744198   -8.1821305    198.35846  0.016832863  0.016649494            5 
  983000   0.85261659   -8.1714645    198.14987  0.016798056  0.016634902            3 
  984000   0.85812425   -8.1527341      198.519  0.016812246  0.016620264            9 
  985000   0.86578095   -8.2009772    198.61939  0.016803671   0.01660561            8 
  986000   0.85458788   -8.2138182    197.84264   0.01672098  0.016590906            5 
  987000   0.83141778    -8.184909    197.93039  0.016711448   0.01657614            4 
  988000   0.86053216   -8.1811996    198.62932  0.016753485   0.01656142           11 
  989000   0.87584116   -8.1930253    198.26036  0.016705456  0.016546756            4 
  990000   0.86118591   -8.1874652    198.32881  0.016694344  0.016532134            7 
  991000   0.85879985   -8.1928006    199.04867  0.016738032  0.016517563            4 
  992000   0.84602563   -8.1745426    198.65612  0.016688182  0.016502981            5 
  993000   0.86087807   -8.1547955    199.09426  0.016708145  0.016488401            4 
  994000   0.84537069   -8.1595866    198.78603  0.016665496  0.016473888            8 
  995000   0.87335516   -8.1875324    199.07003  0.016672532  0.016459466            4 
  996000   0.85398943   -8.1857862    199.08119  0.016656726  0.016445148            7 
  997000   0.84660138   -8.1853434    199.16971  0.016647418  0.016430761           14 
  998000   0.83784307   -8.1716739    199.23543  0.016636225  0.016416376           10 
  999000   0.86745263   -8.1888252    199.07132  0.016605882  0.016401977            9 
 1000000   0.84016259    -8.205498    199.01576  0.016584647  0.016387562            4 
 1001000   0.86318988   -8.2174814    199.02272  0.016568658  0.016373123            3 
 1002000    0.8672111   -8.2204876    199.13754  0.016561671  0.016358858            5 
 1003000   0.82911604   -8.2067493    199.66274  0.016588796  0.016344661            4 
 1004000   0.84438026   -8.1950099    199.54217  0.016562265  0.016330474            5 
 1005000   0.84311092   -8.1780177    200.03277  0.016586465  0.016316344            6 
 1006000   0.85966296   -8.2249384    199.32977  0.016511744  0.016302257            7 
 1007000   0.86564146   -8.2130023    199.72497  0.016528051  0.016288028            5 
 1008000   0.84768381    -8.204346    199.31718  0.016477942   0.01627374            6 
 1009000   0.85536428   -8.2473534    199.45534  0.016473021   0.01625947            4 
 1010000   0.84083065   -8.2117115    199.78133  0.016483608  0.016245214            9 
 1011000   0.87027187   -8.1794193    200.34923  0.016514114  0.016230941            4 
 1012000   0.84881693   -8.2482843    199.52834  0.016430199   0.01621673            5 
 1013000    0.8463487   -8.2294714    199.65532  0.016424426  0.016202452            4 
 1014000   0.83672113   -8.2250291     199.7345  0.016414735  0.016188225            2 
 1015000   0.84379945   -8.2188772    200.18767  0.016435769  0.016173955           10 
 1016000   0.83676865   -8.2450012    200.05945  0.016409075  0.016159646            9 
 1017000   0.86586407   -8.2020701    200.56148  0.016434077  0.016145415            7 
 1018000   0.84243317    -8.226792    200.10834   0.01638084  0.016131194            4 
 1019000   0.85096744   -8.2142938    200.03592  0.016358842  0.016116918            4 
 1020000   0.85160909   -8.2494543    199.64403  0.016310787  0.016102587           10 
 1021000   0.85082282    -8.232031    200.02934   0.01632626  0.016088298           12 
 1022000   0.84364559    -8.230302    199.48466  0.016265873  0.016074049            7 
 1023000   0.84759527   -8.2199809    199.78968  0.016274819  0.016059771           10 
 1024000    0.8402936   -8.2197153    199.79923  0.016259703  0.016045458           12 
 1025000   0.83565722   -8.2543784    199.50577  0.016219981  0.016031119           10 
 1026000   0.86016556    -8.234774    200.41954   0.01627839  0.016016839           10 
 1027000   0.85808743   -8.2121488    200.17884  0.016243009  0.016002528            5 
 1028000   0.84211228   -8.2443736     199.9721  0.016210449  0.015988251            6 
 1029000   0.83288194   -8.2297012    200.13083   0.01620755  0.015973969            7 
 1030000   0.84958981   -8.2422188    200.29199  0.016204854  0.015959681            4 
 1031000   0.85921252   -8.2346141    200.01311  0.016166595  0.015945429            5 
 1032000    0.8306584   -8.2333306     200.5865   0.01619723  0.015931223            9 
 1033000   0.83566775   -8.2140742    200.04404   0.01613779  0.015916986           11 
 1034000   0.85278972   -8.2431573    200.14119  0.016130012  0.015902801            6 
 1035000   0.83260557   -8.2202466    200.67914   0.01615774  0.015888628            7 
 1036000    0.8462354   -8.2282282    200.81368  0.016152966  0.015874515           11 
 1037000   0.80484409    -8.255417    200.42006  0.016105759  0.015860433            5 
 1038000   0.83442635   -8.2062034    201.00159  0.016136929   0.01584634            7 
 1039000   0.81608622   -8.2510814    200.55987   0.01608597  0.015832177            4 
 1040000   0.83350275   -8.2722995    200.38978  0.016056873  0.015818065            8 
 1041000   0.84083137   -8.2725053    200.77039  0.016071917  0.015803931            8 
 1042000   0.84579285   -8.2744262    200.49768  0.016034683  0.015789834            7 
 1043000   0.82610008    -8.278558    200.25785  0.016000148  0.015775621            3 
 1044000   0.85671259    -8.234672    200.69965  0.016020087  0.015761418            8 
 1045000   0.81932388    -8.278818    200.47694  0.015986997  0.015747248            4 
 1046000   0.81494722   -8.2736132    200.58547  0.015980359  0.015733055            7 
 1047000   0.82094556    -8.262486    200.94445  0.015993668  0.015718887            6 
 1048000    0.8232129   -8.2210596      200.921  0.015976543  0.015704764            4 
 1049000   0.83903936   -8.2537978    200.87533  0.015957684  0.015690631            3 
 1050000   0.83205653   -8.2570401    201.19788  0.015968086   0.01567649            3 
 1051000   0.83192962   -8.2565391    200.68472  0.015912204  0.015662342            5 
 1052000   0.85060295   -8.2715768    201.01871  0.015923535  0.015648097            5 
 1053000   0.83031491   -8.2449731    200.96838   0.01590443  0.015633929            4 
 1054000   0.82705258   -8.2930296    200.61375  0.015861302  0.015619728           16 
 1055000   0.83167467   -8.3103396    200.34836  0.015825305  0.015605489            3 
 1056000   0.83365253    -8.276026    200.25219   0.01580273  0.015591317            7 
 1057000   0.82302289   -8.2835394    201.07787  0.015852875  0.015577181            3 
 1058000   0.83709124    -8.266979    201.09265  0.015839056  0.015563047            5 
 1059000   0.82413244   -8.2598719     200.9314   0.01581141  0.015548956            6 
 1060000   0.83336081   -8.2435616     201.1424  0.015813081  0.015534909            4 
 1061000   0.82234366   -8.2779668    201.08907  0.015793989  0.015520906           11 
 1062000   0.82894375   -8.2601625    201.49296   0.01581081   0.01550694            4 
 1063000   0.81855795   -8.2797541    201.19821  0.015772829  0.015492987            6 
 1064000   0.84059854   -8.2436961    201.18635  0.015757076  0.015478999            5 
 1065000   0.81238936    -8.303828    201.14565  0.015739097  0.015465021            9 
 1066000   0.82508979    -8.277915    201.39962  0.015744186  0.015450952            6 
 1067000   0.84214405   -8.2610632    201.24925  0.015717686   0.01543694            6 
 1068000   0.83467179   -8.2590454    201.09397  0.015690853  0.015422952            3 
 1069000   0.81412892   -8.2471029    201.62713  0.015717737  0.015408957            7 
 1070000   0.83929264   -8.2871093    201.09897  0.015661914  0.015394966            2 
 1071000    0.8088606   -8.2490711    201.54304  0.015681842  0.015380936            7 
 1072000    0.8301979   -8.2457528    201.83658  0.015690033   0.01536697            4 
 1073000   0.81172236     -8.28531    201.23826  0.015628942   0.01535304            8 
 1074000   0.82534404   -8.2798102    201.63878  0.015645467  0.015339127           10 
 1075000   0.82482184   -8.2804858    201.06021  0.015586063  0.015325144           14 
 1076000   0.81695575   -8.2469449    201.56223  0.015610458  0.015311179            3 
 1077000   0.81348649   -8.2807642    201.56969  0.015596541  0.015297196            6 
 1078000   0.81364763   -8.2953144    201.55342  0.015580815   0.01528331            8 
 1079000    0.8279386   -8.2762938    201.52695   0.01556433  0.015269415            9 
 1080000   0.83590012   -8.2750857    201.08228  0.015515608  0.015255496            4 
 1081000   0.82349516   -8.2947334    201.37473  0.015523799  0.015241577            3 
 1082000   0.81334876   -8.3138953    201.22846  0.015498187  0.015227629            4 
 1083000   0.82636543   -8.2943022    201.55999  0.015509387  0.015213687            2 
 1084000   0.82026651   -8.3080785    201.84661  0.015517113  0.015199784            2 
 1085000   0.79916758   -8.2857609     201.7412  0.015494716  0.015185934            9 
 1086000   0.84374762   -8.2970038    201.81072  0.015485782  0.015172114            4 
 1087000   0.82274099   -8.2789559    201.86874  0.015475985  0.015158313            3 
 1088000   0.82808069   -8.2767668    201.91124  0.015465015  0.015144509           18 
 1089000   0.82000429    -8.285073    201.93487  0.015452622  0.015130768           14 
 1090000   0.82792901   -8.2736124    201.51137  0.015406068  0.015117003           12 
 1091000   0.82643181   -8.3000531    201.53812   0.01539399  0.015103299           12 
 1092000   0.80820286    -8.307593    202.07305  0.015420715  0.015089575           17 
 1093000   0.79829871   -8.3063085    201.63216  0.015372991  0.015075776           30 
 1094000   0.81952378   -8.3323433    201.39471  0.015340852  0.015062019           10 
 1095000   0.79988739   -8.2862605    201.88717   0.01536432  0.015048288           36 
 1096000   0.80494636   -8.3290435    201.98423  0.015357682  0.015034592            4 
 1097000    0.8258652   -8.2700529     201.6527  0.015318497  0.015020912           21 
 1098000   0.83057003   -8.3004169    202.21596  0.015347295  0.015007246           19 
 1099000   0.82271122   -8.2957101     202.3024  0.015339885   0.01499362            7 
 1100000   0.80551745   -8.2985372    201.89621  0.015295167  0.014980046           14 
 1101000   0.80908938   -8.3029876    201.74388  0.015269746  0.014966419           16 
 1102000   0.81288239   -8.3136419    202.20735  0.015290937   0.01495281           15 
 1103000   0.81662369   -8.3246278    201.96206  0.015258542   0.01493916            8 
 1104000   0.79024425   -8.3375935    201.57484  0.015215492  0.014925467           16 
 1105000   0.80989974   -8.3237705    201.95514  0.015230403  0.014911775           16 
 1106000   0.80900464   -8.3402711    202.24622  0.015238564  0.014898096            9 
 1107000    0.8139813   -8.3136797    201.69914  0.015183615  0.014884467           12 
 1108000    0.8097094   -8.2957332    202.42417  0.015224441  0.014870849           19 
 1109000   0.81820873   -8.2998909    202.39108  0.015208227  0.014857276           11 
 1110000   0.80611623   -8.3215903    202.11356   0.01517369  0.014843746           18 
 1111000   0.79829875   -8.3294323     202.4045  0.015181856  0.014830194           19 
 1112000   0.80420382   -8.3397649    202.16126  0.015149974  0.014816614           19 
 1113000    0.8177634   -8.3567327    202.51387  0.015162763   0.01480301           26 
 1114000   0.81497382   -8.3605276    202.08929  0.015117392  0.014789398           14 
 1115000   0.80998835   -8.3095828    202.36157  0.015124183  0.014775776           22 
 1116000   0.79180817   -8.3198268     202.6621  0.015133072  0.014762177            9 
 1117000   0.80772697   -8.3541132    202.04787    0.0150737  0.014748504            7 
 1118000   0.80825601   -8.3145694    202.74132  0.015111905  0.014734847           10 
 1119000   0.80610518   -8.3503692    202.11754  0.015051946  0.014721214           33 
 1120000   0.81179716   -8.3328877    202.79364  0.015088813  0.014707649           26 
 1121000   0.79340466   -8.3257922    202.61816  0.015062307  0.014694158           55 
 1122000   0.81087999   -8.3172361    203.11822  0.015086023   0.01468069           45 
 1123000   0.80746418   -8.3315133    202.42267  0.015020976  0.014667217           36 
 1124000   0.80112207   -8.3012763    202.71814  0.015029518  0.014653768           56 
 1125000    0.8044511   -8.3499153    202.34226  0.014988315  0.014640311           43 
 1126000   0.80125332   -8.3244154     202.8477  0.015012411  0.014626808           46 
 1127000   0.81435346   -8.3411284    202.50819  0.014973986   0.01461334           36 
 1128000   0.80594284   -8.3240099    202.30538  0.014945728  0.014599914           29 
 1129000   0.80564604   -8.3768679    202.05636   0.01491411  0.014586421           24 
 1130000    0.8146237   -8.3433119    202.28502  0.014917774  0.014572979           31 
 1131000   0.79983246   -8.3412747    202.09942  0.014890909  0.014559487           36 
 1132000   0.81741698   -8.3419998    202.49816  0.014907108  0.014546039           30 
 1133000   0.79393195   -8.3327978     202.4248  0.014888555  0.014532587           42 
 1134000   0.80016622   -8.3330492    202.78588  0.014901961  0.014519095           51 
 1135000   0.78456423   -8.3608889    202.56786  0.014872824  0.014505619           40 
 1136000   0.79561209   -8.3677963    202.19807  0.014832605  0.014492122           33 
 1137000     0.797851   -8.4008341      202.178  0.014818089  0.014478612           43 
 1138000   0.79708915   -8.3685594    202.57933  0.014834456  0.014465088           34 
 1139000   0.80328361   -8.3874479    202.20447  0.014794006  0.014451545           25 
 1140000   0.80123931   -8.3752586    202.13984  0.014776304  0.014438007           36 
 1141000   0.79693097   -8.3758017    201.61199  0.014724802  0.014424451           56 
 1142000   0.80088954   -8.3827882    202.08807  0.014746649  0.014410948           47 
 1143000   0.78910419     -8.34372    202.62557  0.014772935  0.014397499           34 
 1144000   0.79936721    -8.356099     202.6864  0.014764452  0.014384132           38 
 1145000   0.79187037   -8.3769851    202.57846  0.014743702  0.014370698           41 
 1146000   0.79647073   -8.3719486    202.53524  0.014727693  0.014357267           31 
 1147000   0.80421834   -8.3544313    202.65764  0.014723746  0.014343912           17 
 1148000   0.78740165   -8.3636678    202.58152  0.014705395  0.014330551           45 
 1149000   0.80757704   -8.3887214    202.74709  0.014704605  0.014317221           43 
 1150000    0.7980142   -8.3853156    202.69187  0.014687816  0.014303954           48 
 1151000   0.78949917    -8.373721     202.7356  0.014678222  0.014290616           63 
 1152000   0.77406513   -8.3738866    202.90571  0.014677786  0.014277341           63 
 1153000   0.80333305   -8.3834322     203.1104   0.01467985  0.014264091           59 
 1154000   0.80787804   -8.3847345    202.92893  0.014654024  0.014250831           54 
 1155000   0.79619264   -8.3623965    202.73533  0.014627369  0.014237585           39 
 1156000   0.79576193   -8.3840787    203.04532  0.014637062  0.014224337           45 
 1157000   0.78801672   -8.4073406    202.78223  0.014605461     0.014211           48 
 1158000   0.78796739   -8.4046569    203.16163  0.014620152  0.014197768           44 
 1159000   0.78200906   -8.3835899    203.10723  0.014603626  0.014184567           39 
 1160000   0.80561081   -8.3812199     202.7173  0.014563024  0.014171322           75 
 1161000   0.80989489   -8.3703775    203.33672  0.014594941  0.014158129           55 
 1162000   0.77955715   -8.3966574    202.70335  0.014536959  0.014144906           55 
 1163000   0.78634331   -8.4054476    202.34908  0.014499075  0.014131681           57 
 1164000   0.81156324   -8.3949554    202.96932  0.014531023  0.014118467           76 
 1165000   0.79096023   -8.3616197    203.01049  0.014521494  0.014105239           80 
 1166000   0.79598636   -8.4056371    202.81461  0.014495041  0.014091928           96 
 1167000   0.77728484   -8.3842587    202.98448   0.01449475  0.014078676           76 
 1168000   0.77854883   -8.4007497    203.06835  0.014488324  0.014065488           72 
 1169000   0.79041216   -8.4122399    203.06101  0.014475407  0.014052365           83 
 1170000   0.78981218   -8.4095074    202.83421  0.014446881  0.014039233           84 
 1171000   0.78548764   -8.4158695    202.90622  0.014439669  0.014026129           89 
 1172000    0.7981454   -8.4391958    202.79212  0.014419235  0.014013018           83 
 1173000   0.77811364   -8.3995154    202.78537  0.014406463  0.013999903           72 
 1174000   0.79672733    -8.409959    202.78527  0.014394184  0.013986818           87 
 1175000   0.77621797   -8.4230728    202.94181  0.014393036  0.013973731           94 
 1176000   0.79863564   -8.4059374    202.93586  0.014380375  0.013960636           99 
 1177000   0.79272242   -8.4252189    203.17757  0.014385271  0.013947528           84 
 1178000   0.78178709    -8.441751    202.80286  0.014346552  0.013934422           90 
 1179000   0.76876841   -8.4490779    203.06427  0.014352861  0.013921333           91 
 1180000   0.79799158   -8.3949358    202.81518  0.014323106  0.013908257           93 
 1181000   0.79537358   -8.4093014    202.97919  0.014322551   0.01389521          104 
 1182000   0.77774117   -8.3778572    203.05598  0.014315847  0.013882141           85 
 1183000   0.79624772   -8.4238835    202.73289  0.014280987  0.013869112           71 
 1184000   0.78418626   -8.4046247    203.18628  0.014300836   0.01385618          100 
 1185000   0.77350111   -8.4250618    202.95947  0.014272818  0.013843204           88 
 1186000   0.77698507   -8.3948887    203.69526  0.014312483   0.01383023           74 
 1187000   0.76284077   -8.4246703    203.03301  0.014253932  0.013817253           62 
 1188000   0.78997306   -8.4237058     203.4483  0.014271065  0.013804242           58 
 1189000   0.77254619   -8.4544858    202.72041  0.014208046  0.013791251           80 
 1190000   0.78554713   -8.4329807    202.81715  0.014202882  0.013778222           65 
 1191000   0.78914576   -8.4208906    202.57235  0.014173828  0.013765179           58 
 1192000   0.77018768   -8.4229024    202.81174  0.014178673  0.013752183           57 
 1193000   0.77766559   -8.4362962    202.88032  0.014171579  0.013739163           52 
 1194000   0.77758191   -8.4356294    203.08382  0.014173913  0.013726178           71 
 1195000   0.77581981   -8.4223749    203.00687  0.014156685  0.013713182           92 
 1196000   0.77545488   -8.4339889    203.00318  0.014144592  0.013700208           86 
 1197000   0.78619616   -8.4454715    203.45976  0.014164561  0.013687242           72 
 1198000   0.77450328   -8.4646551    203.09176   0.01412714   0.01367432           86 
 1199000   0.78411809   -8.4752837    203.06371  0.014113408  0.013661346           74 
 1200000   0.76509767   -8.4313096    203.01625  0.014098351  0.013648389           59 
 1201000   0.78975774   -8.4489932    202.70141  0.014064766  0.013635426           91 
 1202000   0.76078749   -8.4645886    202.95725  0.014070802  0.013622509           96 
 1203000   0.78053476   -8.4470302    202.37707  0.014018916  0.013609612           75 
 1204000   0.78815196   -8.4334833      203.339  0.014073851  0.013596701           99 
 1205000   0.78085825   -8.4284153    203.08399  0.014044536  0.013583804           79 
 1206000   0.77832332   -8.4750342    202.78657  0.014012339   0.01357086           90 
 1207000    0.7602933   -8.4539047    202.96221  0.014012856  0.013557914           81 
 1208000   0.78708017   -8.4910986    202.63544  0.013978714  0.013545004           90 
 1209000   0.78076493   -8.4597225    202.80004  0.013978497   0.01353214           99 
 1210000   0.76565879   -8.4420537    203.16821  0.013992301  0.013519331           91 
 1211000   0.76816986   -8.4552233    203.23717  0.013985492  0.013506524           83 
 1212000   0.77629534   -8.4908662    202.88603  0.013949809  0.013493714          101 
 1213000   0.77573537   -8.4820579    203.26791  0.013964545  0.013480924          113 
 1214000   0.78819994   -8.4604999    202.94634  0.013930968   0.01346814           99 
 1215000    0.7684789   -8.4504481    203.10547  0.013930416  0.013455327          112 
 1216000    0.7697659   -8.4894506    202.58857  0.013883537  0.013442532          129 
 1217000   0.77466104   -8.4622303    203.64143  0.013944223  0.013429747          126 
 1218000   0.76708512   -8.4840315    202.96906  0.013886772  0.013416965          112 
 1219000   0.75048789   -8.4923802    203.06827  0.013882162  0.013404224          137 
 1220000   0.78130999   -8.4526351     203.2886  0.013885833  0.013391504          126 
 1221000   0.74677001   -8.4623717    203.32738  0.013877107  0.013378817          130 
 1222000   0.75486129   -8.4599663     203.4135  0.013871625   0.01336611          156 
 1223000    0.7636373   -8.4932601    203.59748  0.013872818  0.013353399          164 
 1224000   0.77511086   -8.4843402    203.40259  0.013848216  0.013340685          151 
 1225000   0.75807504   -8.4921933    203.03398  0.013811835  0.013327939          165 
 1226000   0.75777404   -8.4753011    203.32736  0.013820511  0.013315228          194 
 1227000    0.7675209   -8.4757192      202.847  0.013776623  0.013302467          189 
 1228000   0.74951955    -8.455154    203.16765  0.013787164  0.013289716          209 
 1229000   0.75589868    -8.503249    202.89536  0.013757483   0.01327699          208 
 1230000   0.77075592   -8.5107713    203.11149  0.013760941  0.013264277          234 
 1231000   0.76187663   -8.4892828    203.30914  0.013763142  0.013251611          235 
 1232000    0.7760706    -8.470837    203.49938  0.013764839  0.013238972          226 
 1233000    0.7540433   -8.4826164    202.58917  0.013692158  0.013226335          242 
 1234000   0.75808863   -8.4819993    203.20871    0.0137229   0.01321372          211 
 1235000   0.76005194    -8.475486    203.27428  0.013716213  0.013201067          259 
 1236000   0.76467678   -8.5176481    203.10117  0.013693444  0.013188408          236 
 1237000   0.77452051    -8.518196     202.8431  0.013664989  0.013175765          294 
 1238000   0.75555587   -8.4823069    203.35051  0.013688106  0.013163158          296 
 1239000   0.75377742   -8.5109111    202.85648  0.013643831  0.013150561          347 
 1240000   0.75788821   -8.4984148    202.85054  0.013632429     0.013138          263 
 1241000   0.77154877   -8.4683858    203.32852   0.01365354  0.013125489          349 
 1242000   0.78095103   -8.4972273    203.32441  0.013642271  0.013112953          355 
 1243000   0.76063702   -8.5028841    202.93996  0.013605521   0.01310037          372 
 1244000   0.75881382   -8.5013007    202.98524  0.013597618  0.013087808          373 
 1245000   0.76126997   -8.5264909    202.76063  0.013571662  0.013075288          308 
 1246000   0.75514569   -8.5086783    203.00539  0.013577139  0.013062721          351 
 1247000   0.76252808   -8.5188868    202.95359   0.01356279  0.013050199          366 
 1248000   0.74849092   -8.5241047    203.07683  0.013560151  0.013037726          398 
 1249000   0.75135067   -8.5469347    203.27539  0.013562543  0.013025205          410 
 1250000   0.75923618   -8.5389014    203.26674  0.013551116  0.013012696          410 
 1251000   0.75128617   -8.5087077    203.35722  0.013546311  0.013000257          428 
 1252000   0.75132657   -8.5720684    203.15941  0.013522325  0.012987828          452 
 1253000    0.7440881   -8.5630233    203.04324  0.013503807  0.012975374          455 
 1254000   0.73961605   -8.5468673    202.79631  0.013476629  0.012962907          460 
 1255000   0.75605896   -8.5467265    202.90094  0.013472838  0.012950436          472 
 1256000   0.75929261   -8.5637736    202.94273  0.013464884  0.012938004          457 
 1257000   0.74918785   -8.5703079    202.56435  0.013429087  0.012925557          423 
 1258000    0.7445382   -8.5601492    203.07064   0.01345195  0.012913103          429 
 1259000   0.75263804   -8.5581318    202.97017  0.013434615  0.012900667          476 
 1260000   0.76903774   -8.5513339    203.45541  0.013456046   0.01288825          504 
 1261000   0.75735672   -8.5488429    203.32664  0.013436865  0.012875874          518 
 1262000   0.74742445   -8.5574517    203.01568  0.013405684  0.012863493          464 
 1263000   0.74987678   -8.5683995    202.92272  0.013388937  0.012851131          495 
 1264000   0.74645588    -8.562968    203.34802  0.013406383  0.012838736          518 
 1265000   0.74553913   -8.5701168    203.03881  0.013375416  0.012826376          527 
 1266000   0.74381679   -8.6036434    202.80803  0.013349659     0.012814          506 
 1267000   0.74499159   -8.6013549    202.40731  0.013312767  0.012801628          524 
 1268000   0.73455244   -8.6053728    202.87223  0.013332823  0.012789288          493 
 1269000    0.7593904   -8.6074255    202.91474  0.013325108  0.012776914          521 
 1270000   0.74785233   -8.5862514    203.49895   0.01335295  0.012764596          520 
 1271000   0.75356129   -8.5915697    202.60928  0.013284112  0.012752299          548 
 1272000   0.74483307   -8.5926347    202.83813  0.013288662  0.012740018          558 
 1273000   0.72994711   -8.5808331    203.02757  0.013290624  0.012727762          556 
 1274000   0.75528482   -8.5964646    203.13041  0.013286919  0.012715547          560 
 1275000   0.73324429   -8.6134376    202.90505  0.013261768  0.012703303          610 
 1276000    0.7349412   -8.6133025    203.40502  0.013284027  0.012691056          588 
 1277000   0.75037811   -8.6155538    202.88766  0.013239863  0.012678828          571 
 1278000   0.74288533   -8.5768704    202.96512  0.013234554  0.012666615          562 
 1279000   0.73563324    -8.594032    203.35741  0.013249766  0.012654408          604 
 1280000   0.73954227   -8.5880005    202.93052  0.013211622  0.012642188          557 
 1281000   0.73478916   -8.6007261    202.87517  0.013197708  0.012629993          559 
 1282000   0.72970195   -8.5817132    202.82169  0.013183937  0.012617812          540 
 1283000   0.73719871   -8.5803911    202.95949  0.013182612  0.012605661          623 
 1284000   0.74936947   -8.6111331    202.62809  0.013150837  0.012593484          596 
 1285000   0.73355918   -8.6162276    202.93453  0.013160475  0.012581322          583 
 1286000   0.72091094   -8.6128743    202.77974  0.013140211  0.012569127          639 
 1287000    0.7348185   -8.6038783    203.32587  0.013165363  0.012556937          636 
 1288000   0.73956126   -8.6211796    203.11347    0.0131414  0.012544779          654 
 1289000   0.73527683   -8.6280507    202.73789  0.013106924  0.012532641          673 
 1290000   0.73164375   -8.6491685    202.90072  0.013107281  0.012520494          695 
 1291000   0.73435669   -8.6427266    202.69666  0.013083957  0.012508342          741 
 1292000    0.7440423   -8.6473266    202.64793  0.013070687  0.012496174          717 
 1293000   0.71285074   -8.6406995    201.97922   0.01301748  0.012484036          767 
 1294000   0.72962683   -8.6535511    202.59876  0.013047319  0.012471895          738 
 1295000   0.73778993   -8.6360329    202.80138  0.013050282   0.01245976          770 
 1296000   0.75740806   -8.6444833    202.80142  0.013040215  0.012447625          774 
 1297000   0.74705355   -8.6192387    202.92456  0.013038072  0.012435545          737 
 1298000   0.73388885   -8.6394919    203.19864  0.013045624  0.012423469          772 
 1299000   0.73484333   -8.6495291    202.49425  0.012990393  0.012411391          775 
 1300000   0.73161587   -8.6777091    202.41864  0.012975554  0.012399285          746 
 1301000   0.73541444   -8.6538952     202.5484  0.012973892  0.012387249          763 
 1302000   0.72568931   -8.6645867    202.48834  0.012960084  0.012375194          800 
 1303000    0.7329704   -8.6434191    203.05992  0.012986692  0.012363147          785 
 1304000   0.74198419   -8.6470492    202.64338  0.012950114  0.012351066          786 
 1305000    0.7327546   -8.6520063    202.58141  0.012936233  0.012339006          754 
 1306000   0.75523099   -8.6823065    202.57244  0.012925755     0.012327          794 
 1307000   0.73607347   -8.6711779    202.55604   0.01291482  0.012314967          781 
 1308000    0.7310795   -8.6528604    202.79578  0.012920221  0.012302932          779 
 1309000   0.72379508   -8.6792047    202.78633  0.012909748  0.012290905          794 
 1310000   0.73052019   -8.6768031     202.4632  0.012879338  0.012278875          802 
 1311000   0.73172468   -8.6789631    202.43398  0.012867657  0.012266848          828 
 1312000   0.71795628   -8.6607038    202.48071  0.012860818  0.012254861          853 
 1313000   0.72139495   -8.6760432    201.89578  0.012813898  0.012242849          839 
 1314000   0.73900426   -8.7014899     202.2116  0.012824176  0.012230861          868 
 1315000   0.71879563   -8.6803815    202.15186  0.012810637  0.012218852          903 
 1316000   0.73070125   -8.6751301    202.36754  0.012814561  0.012206847          937 
 1317000   0.73480781   -8.7052853    201.84395    0.0127717  0.012194842         1008 
 1318000   0.71543282    -8.690556    202.42631  0.012798831  0.012182858          956 
 1319000   0.71654179   -8.6879931     202.3044  0.012781425  0.012170867          958 
 1320000   0.71899832   -8.7042722    202.04225  0.012755192  0.012158882          970 
 1321000   0.71841681   -8.6747487     202.0519  0.012746146  0.012146891          960 
 1322000   0.73921775   -8.6878842     202.3697  0.012756537  0.012134944          974 
 1323000    0.7289305   -8.7011391    202.18983  0.012735565  0.012122989         1014 
 1324000   0.73247199   -8.6885704    202.07826  0.012718923  0.012111056         1051 
 1325000   0.72721664   -8.7248875    201.81944  0.012693046  0.012099109         1050 
 1326000   0.70771146    -8.701512    202.39779  0.012719821  0.012087151         1060 
 1327000   0.71451194   -8.7331234    201.86883  0.012677018    0.0120752         1073 
 1328000   0.71414405   -8.6911782    202.37513  0.012699243  0.012063236         1051 
 1329000   0.73027663    -8.728026    202.07089   0.01267061  0.012051302         1095 
 1330000   0.72485697   -8.7298845    201.98431  0.012655658  0.012039379         1106 
 1331000   0.72469799   -8.7129302    201.87689  0.012639424   0.01202748         1154 
 1332000    0.7193451     -8.72507    202.10578  0.012644255  0.012015539         1139 
 1333000   0.72105029   -8.7296208    202.05023  0.012631297  0.012003632         1188 
 1334000   0.72844899   -8.7345522     201.6717  0.012598182  0.011991706         1245 
 1335000   0.71299009    -8.738982    202.02767  0.012610966  0.011979808         1215 
 1336000   0.72030982    -8.750325    201.67727   0.01257967  0.011967912         1266 
 1337000   0.72565049   -8.7561571    201.83077  0.012579829  0.011956059         1226 
 1338000   0.72869778    -8.747188    201.55576  0.012553298  0.011944195         1288 
 1339000   0.72656596   -8.7583262    201.99205  0.012571076  0.011932326         1297 
 1340000   0.70676185   -8.7933088    201.82112  0.012551065  0.011920463         1323 
 1341000   0.71814399   -8.7721886    201.72958  0.012536017  0.011908579         1362 
 1342000   0.71179855   -8.8050922    200.89788   0.01247503  0.011896671         1304 
 1343000   0.71548034   -8.7766948    201.68223   0.01251441  0.011884771         1329 
 1344000   0.71681999   -8.7906233    201.58067  0.012498801  0.011872897         1366 
 1345000   0.72274637   -8.7790765    201.39925  0.012478268  0.011861021         1362 
 1346000   0.71539853   -8.7909279    201.76473  0.012491625  0.011849165         1383 
 1347000   0.70960155   -8.8059542    201.44367  0.012462489  0.011837291         1451 
 1348000   0.71147645   -8.8086192    201.22345  0.012439629  0.011825424         1466 
 1349000   0.71990758   -8.8225057     201.1306  0.012424673  0.011813558         1488 
 1350000   0.71863628   -8.8036265    201.00686  0.012407831  0.011801697         1480 
 1351000   0.73266244   -8.7942064    201.41069  0.012423556  0.011789861         1467 
 1352000   0.71724006   -8.8107729    201.26892  0.012405629  0.011778054         1497 
 1353000   0.72217433   -8.7974893    201.18438  0.012391253  0.011766242         1501 
 1354000   0.72883599   -8.8509274    201.15778  0.012380464  0.011754421         1536 
 1355000   0.70225964   -8.8377685    201.16534  0.012371792  0.011742592         1572 
 1356000   0.71690166   -8.8373112    200.97438  0.012350933  0.011730773         1541 
 1357000   0.71146394   -8.8104779    201.09591  0.012349295  0.011718975         1481 
 1358000   0.71001459   -8.8128116     201.5457  0.012367802  0.011707194         1607 
 1359000   0.71949592   -8.8443985    201.17556  0.012336004  0.011695432         1533 
 1360000   0.70285385   -8.8297034    201.22091  0.012329713  0.011683649         1555 
 1361000   0.71148845   -8.8197852    201.15159  0.012316409  0.011671912         1556 
 1362000   0.71715808   -8.8327816    200.97225  0.012296393   0.01166018         1595 
 1363000   0.70032478   -8.8354968    201.16376   0.01229908  0.011648458         1601 
 1364000   0.71295802   -8.8317907    201.01205  0.012280795  0.011636713         1627 
 1365000   0.70931555   -8.8628155    200.92835  0.012266688  0.011624992         1610 
 1366000   0.70711324   -8.8367366    200.77334  0.012248251  0.011613257         1698 
 1367000   0.69940068   -8.8607484    200.50407  0.012222877  0.011601538         1641 
 1368000   0.69104908   -8.8433688    200.68568  0.012225005  0.011589836         1640 
 1369000   0.71453429   -8.8520079    201.26695  0.012251458  0.011578143         1709 
 1370000   0.69899983   -8.8686771    200.97854  0.012224972   0.01156649         1725 
 1371000   0.69861162   -8.8753862    200.96256  0.012215084  0.011554846         1728 
 1372000   0.72006126    -8.882245    200.80537  0.012196633  0.011543152         1737 
 1373000   0.70400858   -8.8871031    200.56523  0.012173175  0.011531489         1733 
 1374000   0.69825342   -8.8774702    200.69596  0.012172244  0.011519845         1761 
 1375000   0.71109295   -8.8623453     200.7945  0.012169364   0.01150824         1794 
 1376000    0.7001122   -8.8700858     200.6413  0.012151242   0.01149662         1730 
 1377000   0.70170285   -8.9076828    200.71371  0.012146799  0.011485007         1750 
 1378000   0.72395591   -8.8811516    200.76855  0.012141301  0.011473385         1732 
 1379000   0.70595658   -8.9095945    200.82899  0.012136149  0.011461758         1813 
 1380000    0.7027574   -8.8935107    201.09557  0.012143452  0.011450174         1763 
 1381000   0.69650284   -8.8856419    200.74703  0.012113627   0.01143859         1815 
 1382000    0.6925873   -8.8904615    200.79557  0.012107789  0.011427047         1810 
 1383000    0.6913255   -8.9132592    200.42042  0.012076429  0.011415481         1807 
 1384000   0.69497667   -8.9047878    200.67019  0.012082743  0.011403921         1833 
 1385000   0.70117092   -8.8978145    200.57196  0.012068108  0.011392384         1813 
 1386000   0.71005519   -8.8919497    201.39761  0.012109043   0.01138084         1858 
 1387000   0.69403444   -8.9032841    200.79539   0.01206413  0.011369344         1780 
 1388000   0.69446539   -8.9067902    200.59482  0.012043397  0.011357841         1852 
 1389000   0.68967219   -8.8948267    200.78159  0.012045932  0.011346344         1873 
 1390000   0.68980814   -8.9067888    201.08861  0.012055672  0.011334891         1906 
 1391000   0.69348953   -8.9130682    200.76406  0.012027562  0.011323411         1839 
 1392000   0.70020994   -8.9245617    200.45986   0.01200071   0.01131195         1901 
 1393000   0.71678895   -8.9036072    200.78286  0.012011418   0.01130051         1884 
 1394000   0.69653132    -8.945488    200.52139   0.01198717  0.011289075         1942 
 1395000   0.69274238   -8.9392195    200.22495  0.011960869  0.011277641         1865 
 1396000   0.68952267   -8.9328716    200.41601  0.011963706  0.011266215         1944 
 1397000    0.7002165   -8.9344336    200.60179  0.011966225  0.011254816         1867 
 1398000   0.68549745   -8.9295265    200.57085  0.011955821  0.011243417         1906 
 1399000   0.68641678   -8.9357167     200.6721  0.011953306  0.011232042         1890 
 1400000   0.68981527   -8.9295586    200.74382  0.011949037  0.011220681         1955 
 1401000   0.70995321   -8.9242069    200.79811  0.011943737  0.011209344         1945 
 1402000   0.68587964    -8.910967    200.86572  0.011939237  0.011198021         1891 
 1403000   0.70144876   -8.9200478    200.85452  0.011930062  0.011186702         1947 
 1404000    0.6967079   -8.9233924    200.37649  0.011893191  0.011175405         1956 
 1405000   0.69176711    -8.929737    200.78579  0.011909003  0.011164132         1949 
 1406000   0.70206355   -8.9349186    200.57011  0.011887749  0.011152854         1901 
 1407000   0.68132381   -8.9354939    200.62256  0.011882407  0.011141577         1958 
 1408000   0.69715639   -8.9759882    200.43077  0.011862617  0.011130283         1999 
 1409000   0.68846195   -8.9611943    200.32843  0.011848145  0.011119007         2000 
 1410000   0.67231319   -8.9577376    200.00953  0.011820894   0.01110773         2003 
 1411000   0.69561624   -8.9502993    200.30896  0.011830201  0.011096444         1990 
 1412000   0.70578371   -8.9668707    200.26982  0.011819512  0.011085206         2021 
 1413000   0.69668321   -8.9545862    200.35218  0.011816005  0.011074004         2047 
 1414000   0.69617003   -8.9811322    200.59216  0.011821792  0.011062791         2080 
 1415000   0.69131866   -8.9715563    200.58725  0.011813148  0.011051587         2083 
 1416000    0.6870598   -8.9421827    200.53897  0.011801964  0.011040389         2023 
 1417000    0.6956106   -8.9400979     200.3726  0.011783851  0.011029204         2070 
 1418000   0.71015547    -8.968188    200.17349  0.011763839   0.01101805         2092 
 1419000   0.69247751   -8.9659218    200.32887  0.011764674  0.011006885         2069 
 1420000   0.68058106   -8.9659891    200.54907  0.011769312  0.010995731         2082 
 1421000   0.68499592   -8.9595833    200.43482  0.011754329  0.010984586         2062 
 1422000    0.6905417   -8.9712862    200.20123  0.011732374  0.010973453         2116 
 1423000   0.70035093   -8.9418767    200.41021  0.011736367  0.010962354         2107 
 1424000   0.68629587   -8.9861894     200.0696  0.011708193  0.010951261         2092 
 1425000   0.68848573   -8.9801232    200.21796  0.011708653  0.010940147         2108 
 1426000   0.68081154   -8.9686483    200.28262   0.01170422  0.010929039         2137 
 1427000   0.67948076   -8.9846661    200.33261  0.011698938  0.010917951         2033 
 1428000   0.67648726   -8.9830615    200.45074  0.011697639  0.010906899         2128 
 1429000   0.67784232   -8.9650101    200.41397  0.011687308  0.010895851         2102 
 1430000    0.6837006     -8.98298    200.03135  0.011656839  0.010884834         2095 
 1431000   0.69663311   -8.9920036    199.97848  0.011645614  0.010873794         2091 
 1432000   0.68967854   -8.9950298    200.10286  0.011644719  0.010862774         2110 
 1433000   0.68616224    -8.978973    200.31763  0.011649083  0.010851765         2172 
 1434000   0.67871518   -8.9878103    199.62789  0.011600877  0.010840756         2176 
 1435000   0.69157895   -9.0035696    199.97225  0.011612791  0.010829766         2157 
 1436000   0.69294928   -8.9770947    199.85386  0.011597833  0.010818786         2185 
 1437000   0.68392865   -9.0107989    199.70829   0.01158132  0.010807804         2126 
 1438000   0.67295248   -9.0021331    200.23822  0.011603977  0.010796841         2184 
 1439000   0.68494242   -8.9879957    199.96445  0.011580059  0.010785906         2185 
 1440000   0.66610345    -8.998923    199.54743  0.011547884  0.010774982         2203 
 1441000   0.69054503   -9.0212068    200.24787  0.011580377  0.010764057         2213 
 1442000   0.67442056   -8.9895178    199.70051  0.011540713  0.010753142         2196 
 1443000   0.68353474   -9.0203786    200.05758  0.011553337  0.010742235         2252 
 1444000   0.67613964   -9.0112948    199.96059  0.011539739   0.01073133         2243 
 1445000     0.672399   -9.0037226     200.0056  0.011534348  0.010720435         2239 
 1446000   0.67949753   -9.0050528    199.94001  0.011522592  0.010709553         2229 
 1447000   0.68390025   -9.0268763    199.78878  0.011505919  0.010698695         2178 
 1448000   0.67900951   -9.0342569    199.98007  0.011508982  0.010687852         2249 
 1449000   0.68142976   -9.0127249    199.90832  0.011496913  0.010677027         2278 
 1450000   0.67099831   -9.0180235    199.92007  0.011489659  0.010666219         2301 
 1451000    0.6728178   -9.0168743    199.94798  0.011483343  0.010655414         2286 
 1452000   0.67904453   -9.0407014    199.76533  0.011464952  0.010644615         2303 
 1453000   0.68266563   -9.0263647    200.22806    0.0114836  0.010633837         2262 
 1454000   0.68245879   -9.0343124    199.93515  0.011458915  0.010623073         2345 
 1455000   0.66598173   -9.0114649    199.60724  0.011432259  0.010612293         2289 
 1456000   0.67372593   -9.0263212    199.93691  0.011443276  0.010601516         2325 
 1457000   0.67931901    -9.022192    199.72706  0.011423419   0.01059073         2347 
 1458000    0.6747044    -9.050725     199.5505  0.011405493  0.010579973         2329 
 1459000   0.66063292   -9.0540066    199.27116   0.01138172  0.010569213         2329 
 1460000    0.6679475   -9.0536263    199.88155  0.011408764  0.010558482         2395 
 1461000    0.6701805   -9.0387477    199.43713  0.011375606  0.010547744         2417 
 1462000   0.66983624   -9.0477382    199.47775  0.011370141  0.010537044         2438 
 1463000    0.6710828   -9.0615976    199.25458  0.011349657  0.010526326         2382 
 1464000   0.65506428   -9.0445324    199.33404  0.011346428  0.010515637         2348 
 1465000   0.66845324   -9.0451263    199.69119  0.011358998  0.010504962         2404 
 1466000   0.67781351   -9.0579535    199.75812  0.011355055  0.010494274         2392 
 1467000   0.67345655   -9.0522161    199.43833  0.011329148  0.010483591         2386 
 1468000   0.66264256   -9.0517816    199.36586  0.011317317  0.010472945         2424 
 1469000   0.65595448   -9.0767387    199.55755  0.011320487   0.01046228         2417 
 1470000   0.66102886    -9.085966     199.2638  0.011296134   0.01045163         2398 
 1471000   0.66982265   -9.0824069    199.43822  0.011298336  0.010440998         2422 
 1472000   0.65890596   -9.0661037    199.80003  0.011311143  0.010430386         2421 
 1473000   0.67594877   -9.0639626    199.55001  0.011289319  0.010419786         2447 
 1474000   0.65901006   -9.0660732    199.48862   0.01127819  0.010409199         2395 
 1475000   0.66279824   -9.0788967    199.53039  0.011272904  0.010398602         2426 
 1476000   0.65713127   -9.0765442    199.48149  0.011262505  0.010388029         2411 
 1477000   0.65814206   -9.0865999    199.36334  0.011248214   0.01037748         2396 
 1478000   0.65658007   -9.0727877    199.55396  0.011251351  0.010366932         2409 
 1479000    0.6697786   -9.0830966    199.48863  0.011240063  0.010356401         2409 
 1480000   0.66185761   -9.0438652    199.27136  0.011220234  0.010345897         2368 
 1481000   0.67656644   -9.0504823    199.35222  0.011217208  0.010335412         2383 
 1482000   0.65008262   -9.0807092    199.59435  0.011223254  0.010324938         2408 
 1483000   0.64673527   -9.0645662    199.50626  0.011210736  0.010314465         2406 
 1484000   0.66886987   -9.0802484    199.44751  0.011199882  0.010303993         2395 
 1485000   0.64953507   -9.0821512    199.41793  0.011190681  0.010293544         2400 
 1486000   0.64673561   -9.0828155    199.87336   0.01120869  0.010283106         2415 
 1487000   0.67450169   -9.1146072    199.30651  0.011169385  0.010272696         2376 
 1488000   0.65337404   -9.0716702    199.20934  0.011156437  0.010262282         2430 
 1489000   0.65764059    -9.076998    199.35941  0.011157343  0.010251877         2390 
 1490000   0.65970877   -9.0872202    199.10651  0.011135711  0.010241502         2430 
 1491000   0.66161114    -9.087707    199.18472  0.011132614   0.01023114         2388 
 1492000   0.64922234   -9.0886327    199.52841  0.011144348  0.010220795         2409 
 1493000   0.66323071   -9.0745256    199.26626  0.011122252  0.010210447         2394 
 1494000   0.66045512   -9.0670821    199.30193  0.011116797  0.010200104         2413 
 1495000   0.64926268   -9.0875554    199.19588  0.011103449  0.010189781         2435 
 1496000   0.66698901   -9.0971509    198.96747  0.011083304  0.010179473         2429 
 1497000   0.64364668   -9.0859956    199.02268  0.011078974   0.01016918         2492 
 1498000   0.67090062   -9.0885348    199.24881  0.011084157  0.010158893         2474 
 1499000   0.63493525   -9.0925796    199.08341  0.011067568  0.010148618         2433 
 1500000   0.65125029   -9.0761047    199.17349  0.011065194  0.010138345         2562 
 1501000   0.65800202   -9.0979166    199.35463  0.011067879  0.010128079         2499 
 1502000   0.65828545   -9.1078072    199.17502  0.011050545  0.010117818         2457 
 1503000   0.65811376   -9.1083085    199.49766  0.011061081  0.010107582         2478 
 1504000   0.65147228   -9.0988887    198.68668  0.011008792  0.010097354         2485 
 1505000   0.65349066   -9.1052931    199.20369  0.011030105  0.010087138         2540 
 1506000   0.65689603   -9.0944229    199.08021  0.011015948  0.010076933         2498 
 1507000   0.64991879   -9.1063602    199.14451  0.011012194   0.01006674         2571 
 1508000   0.64269483   -9.0961231    199.31729  0.011014439  0.010056554         2510 
 1509000   0.64614461   -9.1066355     199.1298  0.010996786  0.010046366         2587 
 1510000   0.65342381   -9.1082907    199.37208  0.011002874  0.010036202         2563 
 1511000   0.65913696   -9.1060972    199.30657  0.010991979   0.01002605         2568 
 1512000   0.64945122   -9.1212936     198.8385  0.010958912  0.010015903         2561 
 1513000   0.64898004   -9.1270069    198.98616  0.010959802  0.010005784         2558 
 1514000   0.65072868    -9.104744    199.42311  0.010976613 0.0099956684         2559 
 1515000    0.6489059   -9.1212211    199.12738  0.010953101 0.0099855576         2583 
 1516000   0.63947269   -9.1399789    198.86486  0.010931446 0.0099754623         2597 
 1517000   0.65717502   -9.0969133    199.08547  0.010936359 0.0099653757         2553 
 1518000   0.63898078   -9.1340699    199.31084  0.010941526 0.0099553001         2556 
 1519000   0.64585609   -9.1364738    198.94024  0.010913992 0.0099452404         2599 
 1520000   0.64899033   -9.1332932    198.81476  0.010899932 0.0099351887         2570 
 1521000   0.63772014   -9.1239811    199.14054  0.010910615 0.0099251479         2577 
 1522000    0.6322607   -9.1334587    199.09558  0.010900984 0.0099151255         2545 
 1523000   0.63783345   -9.1360598    198.72416  0.010873504 0.0099050922         2555 
 1524000   0.62478489   -9.1450208    198.56423  0.010857624 0.0098950759         2576 
 1525000   0.63367626   -9.1118476    198.87737  0.010867616 0.0098850695         2589 
 1526000   0.65062435   -9.1095751    198.66438  0.010848863 0.0098750944         2528 
 1527000   0.63919462   -9.1336894    198.87326  0.010853158 0.0098651332         2567 
 1528000   0.66300577   -9.1344202    199.04746  0.010855555 0.0098551836         2591 
 1529000   0.64711411   -9.1294196    199.01792  0.010846845 0.0098452594         2571 
 1530000   0.64576503   -9.1400311    198.95087  0.010836104 0.0098353336         2593 
 1531000   0.65009355   -9.1448661    198.69504  0.010815101  0.009825422         2586 
 1532000   0.64933332   -9.1482255    198.81931  0.010814802   0.00981553         2555 
 1533000   0.63755457   -9.1543769    198.68509  0.010800451 0.0098056418         2552 
 1534000   0.63927219   -9.1154604    198.71165  0.010794853 0.0097957608         2539 
 1535000    0.6480593   -9.1511209    198.88458  0.010797209 0.0097858998         2539 
 1536000   0.63446477   -9.1438934    199.34855  0.010815351 0.0097760392         2580 
 1537000   0.62529847   -9.1497706    198.77848  0.010777406  0.009766192         2596 
 1538000   0.64542157   -9.1487766    198.97476  0.010781034 0.0097563677         2549 
 1539000   0.63847657   -9.1530497    198.77809  0.010763379 0.0097465465         2578 
 1540000   0.64685629   -9.1252969    198.87572  0.010761673 0.0097367473         2604 
 1541000   0.65236783   -9.1432709    199.20476  0.010772483 0.0097269609         2589 
 1542000   0.64088417   -9.1659167    198.69894  0.010738161 0.0097171841         2600 
 1543000   0.62948683   -9.1581489    198.84672  0.010739183 0.0097074083         2631 
 1544000   0.62994272   -9.1459523    198.94287  0.010737418 0.0096976565         2643 
 1545000   0.64414618   -9.1579802      198.919   0.01072918 0.0096879172         2565 
 1546000   0.64372882   -9.1461375    198.78996  0.010715285 0.0096781831         2624 
 1547000   0.63487268     -9.14851     198.7424  0.010705796  0.009668471         2544 
 1548000   0.62704193   -9.1720659    198.77378   0.01070057 0.0096587753         2566 
 1549000   0.63134215   -9.1477326    198.51294  0.010679629 0.0096490729         2615 
 1550000   0.63361445   -9.1454896    198.48173  0.010671061 0.0096393936         2591 
 1551000   0.62951416   -9.1443222    198.89333  0.010686295 0.0096297089         2562 
 1552000   0.64044321   -9.1686078    198.71959  0.010670081 0.0096200406         2641 
 1553000    0.6354803   -9.1404606      198.857  0.010670584 0.0096103758         2573 
 1554000   0.63596521   -9.1497676    198.68014  0.010654233 0.0096007347         2617 
 1555000   0.63212903   -9.1508213    198.69566  0.010648213 0.0095910937         2630 
 1556000   0.62166583   -9.1614015      198.825  0.010648297 0.0095814791         2616 
 1557000   0.64376793   -9.1807641    198.54699  0.010626579 0.0095718826         2580 
 1558000   0.65163043   -9.1638616    198.60915  0.010623083 0.0095622855         2571 
 1559000    0.6195266   -9.1507443    198.89701  0.010631656 0.0095526985         2591 
 1560000   0.63295821   -9.1798349     198.7009  0.010614365 0.0095431212         2626 
 1561000   0.63338569   -9.1686561    198.73888  0.010609592 0.0095335631         2620 
 1562000   0.62878578   -9.1655464    198.65857  0.010598515 0.0095240102         2633 
 1563000   0.62412908   -9.1620942    199.02836   0.01061145 0.0095144634         2601 
 1564000   0.61679365   -9.1570176    198.77064  0.010590933  0.009504936         2617 
 1565000   0.63156944   -9.1637237    198.55469  0.010572667 0.0094954147         2597 
 1566000   0.63004003   -9.1689481    198.07703  0.010540498 0.0094859122         2606 
 1567000   0.63713718   -9.1624059    198.90122  0.010577602 0.0094764283         2581 
 1568000   0.62256972   -9.1853621    198.38716  0.010543535 0.0094669454         2621 
 1569000   0.63932905   -9.1747861    198.54027  0.010544948 0.0094574758         2574 
 1570000   0.63556878    -9.153661    198.24522   0.01052257 0.0094480179         2590 
 1571000   0.62158731   -9.1435622    198.66209  0.010537985  0.009438574         2582 
 1572000   0.62959768   -9.1694851    198.30406  0.010512302 0.0094291567         2577 
 1573000   0.62271366   -9.1774863    198.52315  0.010517225 0.0094197568         2558 
 1574000   0.62497846   -9.1853956    198.54137  0.010511508 0.0094103515         2568 
 1575000   0.62449594    -9.186444    198.75153  0.010515954 0.0094009425         2606 
 1576000   0.61588546   -9.1814169    198.84708  0.010514334 0.0093915547         2573 
 1577000    0.6282786    -9.185218    198.67718  0.010498689  0.009382181         2586 
 1578000   0.61800925   -9.1787595    198.31083  0.010472688 0.0093728095         2610 
 1579000   0.62553016   -9.1935172    198.38869  0.010470165 0.0093634392         2555 
 1580000   0.61963174   -9.1768096    198.24505  0.010455962  0.009354094         2655 
 1581000   0.63036524    -9.174187    198.43249  0.010459229 0.0093447553         2613 
 1582000   0.61725827   -9.2056388    198.44358  0.010453201 0.0093354279         2575 
 1583000   0.62810525   -9.1709446     198.5159  0.010450405 0.0093261168         2600 
 1584000   0.61592408   -9.1806023    198.34206  0.010434662 0.0093168147         2590 
 1585000   0.61642551   -9.1858204     198.3888  0.010430537  0.009307526         2601 
 1586000   0.61829135   -9.1745967    198.20969  0.010414548 0.0092982413         2620 
 1587000   0.63174062   -9.1699264    198.51912  0.010424234  0.009288986         2610 
 1588000   0.62088067   -9.1810016    198.24616  0.010403346 0.0092797288         2622 
 1589000   0.60803273   -9.1885998    198.56292  0.010413411 0.0092704792         2605 
 1590000   0.61472151   -9.1887694    198.28722  0.010392412 0.0092612517         2662 
 1591000   0.60945956    -9.207001    198.12181  0.010377216 0.0092520279         2653 
 1592000    0.6282706   -9.1763294    198.40199  0.010385364 0.0092428102         2603 
 1593000   0.60272685   -9.1905184    198.54541  0.010386347 0.0092336062         2589 
 1594000   0.62259111    -9.189518    198.24172  0.010363955 0.0092244141         2637 
 1595000   0.61434061   -9.2035889    198.30958  0.010361002 0.0092152347         2616 
 1596000    0.6220441   -9.1893818    198.41696  0.010360117 0.0092060571         2582 
 1597000   0.61296158   -9.1887474    198.37233  0.010351301 0.0091968922         2585 
 1598000    0.6185397   -9.2014688    198.49661  0.010351304 0.0091877547         2617 
 1599000   0.61462342   -9.1809693    198.77653  0.010359419 0.0091786277         2631 
 1600000   0.61784998   -9.1805291    198.77624  0.010352929 0.0091695114         2580 
 1601000   0.61432083   -9.1979737    198.15284  0.010314014 0.0091604028         2603 
 1602000   0.61059102   -9.1899888    197.99913   0.01029958  0.009151307         2603 
 1603000   0.61640837   -9.2037254    197.99073  0.010292719 0.0091422183         2618 
 1604000   0.62400757   -9.1885413    198.45564  0.010310455 0.0091331479         2610 
 1605000    0.6107425   -9.1921825    198.25974   0.01029386 0.0091240873         2633 
 1606000    0.6119335   -9.1909413    198.44396  0.010297009  0.009115049         2618 
 1607000   0.61329508   -9.2077933    198.09777   0.01027265 0.0091060082         2636 
 1608000   0.62795738   -9.1958215    198.43054  0.010283506 0.0090969886         2663 
 1609000   0.61511779   -9.1820151     198.2031  0.010265336 0.0090879854         2660 
 1610000   0.60349778   -9.2139035    198.10058  0.010253653  0.009078972         2708 
 1611000   0.61492717   -9.1999391    198.08653  0.010246562 0.0090699739         2676 
 1612000   0.62159587   -9.2005014    198.63752  0.010268689 0.0090609964         2676 
 1613000   0.59918651   -9.2123932     198.3786  0.010248946 0.0090520269         2654 
 1614000   0.59356413   -9.2033735    198.45809    0.0102467 0.0090430788         2688 
 1615000   0.61751066   -9.2167586    198.27072  0.010230687 0.0090341479         2702 
 1616000   0.61938144   -9.2265634    198.00741  0.010210778 0.0090252167         2680 
 1617000    0.6057695    -9.217254    198.19367  0.010214062 0.0090162951         2737 
 1618000   0.60701237   -9.2079671    198.48845  0.010222932 0.0090073757         2682 
 1619000   0.60008361   -9.2020387    198.67713   0.01022633 0.0089984733         2721 
 1620000    0.6151088   -9.2032656    198.76266  0.010224416 0.0089895845         2706 
 1621000   0.61383544   -9.1943372    198.42247  0.010200621 0.0089807179         2719 
 1622000   0.60902548   -9.2205819    197.81065  0.010162898  0.008971844         2753 
 1623000   0.60827445   -9.2221218    198.49276   0.01019166 0.0089629786         2710 
 1624000   0.60338452   -9.2355769     198.0791  0.010164157 0.0089541214         2729 
 1625000     0.616744   -9.2272254    198.07703  0.010157796 0.0089452815         2722 
 1626000   0.60097884   -9.2074331    198.19244  0.010157464 0.0089364448         2757 
 1627000   0.61038482   -9.2064027    197.98826  0.010140763 0.0089276196         2727 
 1628000   0.61272671   -9.2274287    198.07082   0.01013876 0.0089188019         2781 
 1629000   0.60388181   -9.1979558    198.23437  0.010140903 0.0089100009         2738 
 1630000   0.61081765   -9.2062622    198.39034  0.010142655 0.0089012171         2735 
 1631000   0.60159095   -9.2238796    198.19684   0.01012655 0.0088924367         2756 
 1632000   0.59569379   -9.2288536    198.41186  0.010131325 0.0088836691         2720 
 1633000   0.59701721   -9.2101767    197.90418  0.010099213 0.0088749122         2795 
 1634000   0.60920006   -9.2264544    198.01115  0.010098488 0.0088661505         2768 
 1635000   0.60657284   -9.2137934    198.13671  0.010098711 0.0088574162         2805 
 1636000   0.59575848    -9.226003    198.24169  0.010097885 0.0088486814         2747 
 1637000    0.5960824    -9.206689    198.05672  0.010082301 0.0088399557         2766 
 1638000   0.60695014   -9.2217798    197.80245   0.01006321 0.0088312484         2766 
 1639000   0.59521948   -9.2295536    198.11541  0.010072982 0.0088225265         2770 
 1640000    0.6150068   -9.2228709    198.24467  0.010073408 0.0088138454         2720 
 1641000   0.59358892   -9.2438633    197.97903   0.01005378 0.0088051691         2799 
 1642000   0.58902178   -9.2200556    197.88812  0.010043043 0.0087965031         2745 
 1643000   0.58607694   -9.2479604    198.24437  0.010054999 0.0087878463         2751 
 1644000   0.60446181   -9.2138112    198.23219  0.010048266  0.008779198         2732 
 1645000    0.6155709   -9.2273385    198.35071  0.010048162 0.0087705634         2779 
 1646000   0.59894385   -9.2225688    197.74429  0.010011355 0.0087619327         2766 
 1647000   0.61189457    -9.227548    198.05929  0.010021215 0.0087533185         2747 
 1648000   0.60082848   -9.2237083     197.8178  0.010002923 0.0087447218         2744 
 1649000   0.59101192   -9.2466716    198.05938  0.010009065 0.0087361277         2768 
 1650000   0.58506183   -9.2360015    198.09616  0.010004857 0.0087275438         2782 
 1651000   0.59327071   -9.2247896    198.13722  0.010000869 0.0087189645         2774 
 1652000   0.58909974   -9.2205422    197.98107 0.0099869384 0.0087103998         2781 
 1653000   0.58568185   -9.2415789    198.10311 0.0099870493 0.0087018393         2776 
 1654000   0.58254443   -9.2480666    197.87694 0.0099696163 0.0086933007         2805 
 1655000   0.58627717    -9.236695    197.85581 0.0099625281 0.0086847626         2790 
 1656000    0.5984125   -9.2552324    197.57173 0.0099422166 0.0086762384         2820 
 1657000   0.59500194   -9.2415699    197.95565 0.0099555248 0.0086677276         2790 
 1658000   0.59295516   -9.2384733    197.63216 0.0099332611 0.0086592225         2762 
 1659000   0.57838701   -9.2394909    197.95322 0.0099434005 0.0086507341         2787 
 1660000   0.58828903   -9.2370074    197.68683 0.0099240375 0.0086422638         2810 
 1661000    0.5958142   -9.2589556    198.06398 0.0099369847 0.0086337889         2775 
 1662000   0.58530222    -9.236219    197.63433  0.009909463 0.0086253349         2773 
 1663000   0.58936167   -9.2409483     197.6266  0.009903117 0.0086168836         2835 
 1664000   0.59464037   -9.2474008    198.20647 0.0099262057 0.0086084528         2819 
 1665000   0.57879312   -9.2384829    197.87651 0.0099037291 0.0086000251         2792 
 1666000   0.59412862   -9.2504353    197.81946  0.009894931 0.0085916084         2779 
 1667000   0.59152844   -9.2310556    197.48479  0.009872265  0.008583198         2818 
 1668000   0.58658778    -9.224406    198.25565 0.0099048588 0.0085747973         2786 
 1669000   0.58493016   -9.2620233    197.69381 0.0098708714 0.0085664047         2779 
 1670000   0.58091823   -9.2614652    197.74184 0.0098673575 0.0085580219         2788 
 1671000   0.58272406   -9.2519575    197.75073 0.0098618956 0.0085496548         2854 
 1672000     0.585398    -9.260835    197.68119 0.0098525316 0.0085412885         2808 
 1673000   0.58461458   -9.2552327    197.56637 0.0098409228 0.0085329324         2840 
 1674000   0.58415784   -9.2682057    197.79749 0.0098465494 0.0085245832         2842 
 1675000   0.58155247   -9.2569779    197.52334 0.0098270319 0.0085162468         2815 
 1676000   0.57484015   -9.2714064    197.63363 0.0098266521 0.0085079095         2837 
 1677000   0.58093524   -9.2699243    197.33216  0.009805812 0.0084995852         2821 
 1678000   0.56892478    -9.269538    197.38264 0.0098024751 0.0084912689         2838 
 1679000   0.56256439   -9.2718418    197.50843 0.0098028801 0.0084829601         2835 
 1680000   0.57611994   -9.2610679    197.68703 0.0098059044 0.0084746603         2876 
 1681000   0.59229516   -9.2533527    197.73978 0.0098026859 0.0084663848         2859 
 1682000   0.58068955   -9.2874086    197.81466  0.009800568 0.0084581056         2900 
 1683000   0.59252501   -9.2666927    197.60181 0.0097842053 0.0084498333         2844 
 1684000   0.58683242   -9.2784606    197.47231 0.0097719867 0.0084415818         2869 
 1685000   0.57676208   -9.2640115    197.56034 0.0097705411 0.0084333339         2874 
 1686000   0.57955288   -9.2568774    197.64771 0.0097690644 0.0084251086         2838 
 1687000   0.59057601   -9.2680479    197.71815  0.009766753 0.0084168928         2811 
 1688000   0.58697201   -9.2736851    197.63382 0.0097568038  0.008408688         2876 
 1689000   0.57990547   -9.2598053    197.54585 0.0097466869 0.0084004913         2866 
 1690000   0.58861906   -9.2601355    197.58923 0.0097430586 0.0083923037         2892 
 1691000    0.5776504   -9.2733591    197.72264 0.0097438714 0.0083841274         2896 
 1692000   0.57994535   -9.2661581    197.82799 0.0097433015 0.0083759675         2825 
 1693000   0.57836233   -9.2843524    197.46474 0.0097196662 0.0083678063         2845 
 1694000    0.5769237   -9.2719168    197.51879 0.0097165875 0.0083596511         2871 
 1695000   0.58574668   -9.2869005    197.34386 0.0097022548 0.0083515077         2864 
 1696000   0.58929622   -9.2928005    197.41094 0.0096998301 0.0083433759         2894 
 1697000   0.57299039   -9.2769875    197.49249 0.0096981189 0.0083352535         2834 
 1698000   0.57477907   -9.2738816    197.62971 0.0096991416 0.0083271551         2836 
 1699000   0.58349312   -9.2935739    197.24905 0.0096747623 0.0083190518         2895 
 1700000   0.56687918   -9.2900563    197.54788 0.0096837194  0.008310964         2849 
 1701000   0.56347629   -9.2775858    197.75661 0.0096882526 0.0083028831         2899 
 1702000   0.58057624   -9.2865832    197.50505 0.0096702431 0.0082948091         2895 
 1703000   0.57131295   -9.2840344    197.58458 0.0096684564 0.0082867508         2879 
 1704000   0.55921155   -9.2959755    197.48621 0.0096579721 0.0082787044         2840 
 1705000   0.56229605   -9.2743175     197.3163 0.0096440028 0.0082706591         2876 
 1706000   0.56816276   -9.3007549    197.54802 0.0096496689 0.0082626341         2855 
 1707000   0.57249057   -9.3209997    197.39226 0.0096364118 0.0082546122         2903 
 1708000   0.56179655    -9.292925    197.25657 0.0096241497 0.0082465976         2912 
 1709000   0.56762342   -9.2819331    197.38963 0.0096250063 0.0082386033         2908 
 1710000   0.55685484   -9.2931654    197.40829 0.0096202871  0.008230606         2874 
 1711000   0.57894296   -9.2765499    197.55018 0.0096215753 0.0082226264         2874 
 1712000   0.58942779    -9.285011    197.48654 0.0096128572 0.0082146618         2871 
 1713000   0.56453333   -9.2970031    197.53256 0.0096094843 0.0082067008         2874 
 1714000   0.55888867   -9.2857568    197.46596 0.0096006399 0.0081987535         2866 
 1715000   0.57446359   -9.3036156    197.40126 0.0095918979 0.0081908119         2907 
 1716000   0.57003327   -9.2898185    197.30179  0.009581478 0.0081828817         2924 
 1717000   0.57057915   -9.2874482    197.31699 0.0095766349 0.0081749572         2894 
 1718000   0.56638313   -9.2864317     197.6166 0.0095855935 0.0081670469         2923 
 1719000   0.56629303   -9.2838546    197.26224 0.0095628388 0.0081591498         2852 
 1720000   0.57880856   -9.3062433      197.291 0.0095586725 0.0081512653         2876 
 1721000   0.57201343   -9.3142277    197.36885  0.009556888  0.008143379         2873 
 1722000   0.55904989   -9.2883505    197.48871 0.0095571386  0.008135506         2905 
 1723000   0.56281516   -9.3071367    197.53794 0.0095539727  0.008127638         2910 
 1724000   0.55844083   -9.2857691    197.24474 0.0095342585 0.0081197842         2867 
 1725000   0.56186572   -9.2881573    197.32581 0.0095326478 0.0081119323         2894 
 1726000   0.56472559   -9.3102936    197.23224  0.009522607 0.0081040909         2897 
 1727000   0.55354106    -9.291261    197.27444 0.0095191293 0.0080962611         2859 
 1728000   0.56797743   -9.3149289    197.42461 0.0095208626 0.0080884466         2882 
 1729000   0.56253887   -9.3009655    197.13585 0.0095014386 0.0080806352         2904 
 1730000   0.56024182   -9.3190478     197.1256 0.0094954526 0.0080728393         2883 
 1731000   0.56294092    -9.308367    197.21133 0.0094940947 0.0080650553         2904 
 1732000   0.55418167   -9.2760534     197.1361 0.0094849931 0.0080572675         2926 
 1733000   0.56894781     -9.31451    197.25146 0.0094850673 0.0080495009         2861 
 1734000   0.56537721   -9.3009165    197.55421 0.0094941469 0.0080417439         2935 
 1735000   0.55844346    -9.305442    197.29469 0.0094762099 0.0080339958         2904 
 1736000   0.56262577   -9.2958737    197.40489 0.0094760412 0.0080262536         2832 
 1737000   0.56014972    -9.315154    197.16427 0.0094590421 0.0080185264         2903 
 1738000   0.55028272   -9.3079299    197.28029 0.0094591623 0.0080107928         2904 
 1739000   0.54979621    -9.309783    197.18871 0.0094493344 0.0080030892         2907 
 1740000   0.55145999   -9.3150141    197.08611 0.0094389902 0.0079953925         2915 
 1741000   0.55909191   -9.3120919    197.20895 0.0094394481  0.007987702         2912 
 1742000   0.55360357   -9.3046136    197.06089 0.0094269465 0.0079800262         2928 
 1743000   0.55827093   -9.3329287    196.98121 0.0094177285 0.0079723632         2916 
 1744000     0.554134   -9.3200276    197.30547 0.0094278224 0.0079647095         2936 
 1745000   0.55583024   -9.3140307    196.96326 0.0094060774 0.0079570549         2950 
 1746000   0.56173538   -9.3024886    197.15266 0.0094097299 0.0079494107         2924 
 1747000   0.54334937   -9.3258488    196.97389 0.0093958162 0.0079417808         2938 
 1748000   0.55892871   -9.3144474     196.9026 0.0093870424 0.0079341525         2959 
 1749000   0.56420665   -9.3176133    197.63367 0.0094165082 0.0079265413         2906 
 1750000   0.56239021   -9.3132378    197.09562 0.0093855057 0.0079189362         2943 
 1751000   0.55773438   -9.3312814    197.13158 0.0093818571  0.007911341         2919 
 1752000   0.55893508   -9.3272739    197.11036 0.0093754927 0.0079037605         2932 
 1753000   0.55616385   -9.3307369    197.12209 0.0093707023 0.0078961832         2910 
 1754000   0.55134925   -9.3208586    196.76689 0.0093484839 0.0078886132         2869 
 1755000   0.55127973   -9.3448707    196.94118 0.0093514331 0.0078810589         2952 
 1756000   0.54497932    -9.324398    197.16718 0.0093568326 0.0078735055         2955 
 1757000   0.54372832   -9.3448722    197.21124 0.0093535969 0.0078659658         2971 
 1758000   0.54718922   -9.3193655    196.92912 0.0093349035 0.0078584327         2968 
 1759000   0.54174032   -9.3296563    197.30025 0.0093471788 0.0078509164         2968 
 1760000   0.55383788   -9.3248441      197.118 0.0093332386 0.0078434047         2891 
 1761000   0.55729409   -9.3182093    197.06369 0.0093253686 0.0078358984         2930 
 1762000   0.54219861    -9.324603    197.00554 0.0093173261 0.0078284069         2944 
 1763000   0.55799928     -9.32499    196.89184 0.0093066665 0.0078209237         2943 
 1764000   0.55067466   -9.3177259    197.46941 0.0093286759 0.0078134558         2984 
 1765000   0.55031683   -9.3361029    196.77774 0.0092907337 0.0078059951         2944 
 1766000   0.55328224   -9.3131913    197.10184 0.0093007662  0.007798542         2927 
 1767000   0.55541456   -9.3205475    197.10997 0.0092958862 0.0077911006         2930 
 1768000   0.52861788   -9.3173389     196.7945  0.009275759 0.0077836699         2940 
 1769000   0.54502839   -9.3320705    196.93456 0.0092771131 0.0077762425         2934 
 1770000   0.55494116   -9.3267534     196.9174  0.009271064 0.0077688266         2953 
 1771000   0.55005859   -9.3189891    197.34489 0.0092859445 0.0077614195         2921 
 1772000   0.55464461    -9.331995    197.06676 0.0092676243 0.0077540213         2923 
 1773000   0.53984356   -9.3317068    197.11481 0.0092646553 0.0077466337         2938 
 1774000   0.54413602   -9.3633148    196.94896 0.0092516422 0.0077392469         2986 
 1775000   0.54733772   -9.3194771    196.74425 0.0092368192 0.0077318721         2968 
 1776000   0.55286167   -9.3244807    197.27486 0.0092565156 0.0077245186         2956 
 1777000   0.53903651    -9.346504    196.80409 0.0092292294 0.0077171714         2960 
 1778000   0.53322521   -9.3492571    196.83323 0.0092254044 0.0077098213         2951 
 1779000   0.54447485   -9.3197633    197.23817 0.0092391872 0.0077024813         2931 
 1780000   0.53171367   -9.3494907     196.7825  0.009212664 0.0076951587         2947 
 1781000   0.54752187    -9.338318    196.70258 0.0092037516 0.0076878365         2926 
 1782000   0.52833753   -9.3295707     196.7373 0.0092002106 0.0076805217         2929 
 1783000   0.52751008    -9.334057    197.10409 0.0092121934 0.0076732229         2955 
 1784000   0.53901687   -9.3424305     196.7461 0.0091903073 0.0076659288         2930 
 1785000   0.54997617   -9.3505387    196.75978 0.0091857973 0.0076586481         2960 
 1786000   0.54431242   -9.3539893    197.00971 0.0091923158 0.0076513801         2937 
 1787000   0.53649371   -9.3358781    196.77735  0.009176336 0.0076441121         2931 
 1788000   0.54762268   -9.3381269    196.71724 0.0091684022 0.0076368639         2949 
 1789000   0.53642814   -9.3247181    196.94819 0.0091740355 0.0076296198         2926 
 1790000   0.55535232   -9.3628035    196.96656 0.0091697654  0.007622383         2967 
 1791000   0.53546577   -9.3460478    196.50097 0.0091429819 0.0076151478         2961 
 1792000   0.54730336   -9.3492416    197.07474 0.0091645618 0.0076079284         2925 
 1793000   0.54428305    -9.355312    196.80887 0.0091470937 0.0076007102         2947 
 1794000   0.52200718   -9.3509679    196.75557 0.0091395194 0.0075935025         2886 
 1795000   0.53672949   -9.3598934    196.53184 0.0091240408 0.0075863129         2937 
 1796000   0.53657448   -9.3478636    196.81786 0.0091322317 0.0075791253         2920 
 1797000   0.53464356   -9.3538424    196.44465 0.0091098428 0.0075719514         2926 
 1798000   0.52818599   -9.3517304    196.88789 0.0091253194 0.0075647865         2935 
 1799000   0.53611982   -9.3367805     196.7805 0.0091152725 0.0075576319         2907 
 1800000   0.52819836   -9.3446302    196.94273 0.0091177188 0.0075504818         2906 
 1801000   0.53494463   -9.3467757    197.12038 0.0091208763 0.0075433338         2950 
 1802000    0.5287307    -9.341343    196.80491 0.0091012261 0.0075361999         2909 
 1803000   0.53064408   -9.3626698    196.66238 0.0090895907 0.0075290682         2930 
 1804000   0.53349343   -9.3416102    196.59516 0.0090814467 0.0075219497         2950 
 1805000   0.54418583   -9.3530138    196.67887 0.0090802801 0.0075148415         2941 
 1806000   0.53497649   -9.3770066     196.9172 0.0090862493 0.0075077469         2935 
 1807000   0.53066374   -9.3557431    196.53269 0.0090634886 0.0075006529         2933 
 1808000   0.52258467   -9.3574638    197.12397 0.0090857288  0.007493571         2943 
 1809000   0.53542218   -9.3723726    196.32767 0.0090440239 0.0074864984         2954 
 1810000   0.52849613   -9.3761615    196.46981 0.0090455713 0.0074794302         2950 
 1811000   0.53329607   -9.3546425    196.85247 0.0090581846 0.0074723732         2951 
 1812000   0.53524702   -9.3624626    196.45842 0.0090350634 0.0074653195         2946 
 1813000   0.52699293   -9.3554276     196.7627  0.009044066 0.0074582842         2957 
 1814000   0.52326517   -9.3525807    196.80327  0.009040944 0.0074512554         2959 
 1815000   0.52861571   -9.3580691    196.69988 0.0090312156 0.0074442379         2985 
 1816000   0.53128144    -9.367191    196.74313 0.0090282274 0.0074372196         2991 
 1817000   0.52323165   -9.3668795    196.53969  0.009013928 0.0074302171         2956 
 1818000   0.52209561   -9.3674624    196.68153 0.0090154718 0.0074232271         2952 
 1819000   0.52917815   -9.3747217    196.51343 0.0090028142 0.0074162459         2952 
 1820000   0.51874169   -9.3550557    196.56857 0.0090003926 0.0074092697         2952 
 1821000   0.53117054   -9.3607269    196.48238 0.0089915054 0.0074023005         2963 
 1822000    0.5171471   -9.3657873    196.82518 0.0090022496 0.0073953452         2959 
 1823000   0.53757222   -9.3599068    196.77528 0.0089950301 0.0073883969         2976 
 1824000   0.51942267   -9.3716944    196.62267 0.0089831262 0.0073814503         2969 
 1825000   0.52654372   -9.3707321    196.44748 0.0089702047 0.0073745109         2947 
 1826000   0.52832735   -9.3618048    196.69187 0.0089764452 0.0073675812         2992 
 1827000    0.5316675   -9.3587368    196.68911 0.0089714061 0.0073606715         2974 
 1828000   0.51148676   -9.3620539    196.53351 0.0089594049 0.0073537652         2938 
 1829000   0.52189356   -9.3697885      196.406 0.0089486967 0.0073468704         2928 
 1830000   0.52176007     -9.38153     196.6158 0.0089533608 0.0073399844         2993 
 1831000   0.51471175   -9.3692121    196.49952 0.0089431788 0.0073331062         2987 
 1832000   0.51444563   -9.3786314     196.4431 0.0089357307 0.0073262351         2920 
 1833000   0.51230606   -9.3761101    196.54316 0.0089354048 0.0073193719         2954 
 1834000   0.52327236   -9.3725396    196.78972 0.0089417357 0.0073125176         2960 
 1835000   0.53878003   -9.3734929    196.82139 0.0089383011 0.0073056673         2925 
 1836000    0.5169977   -9.3903457    196.73208 0.0089293789 0.0072988333         3006 
 1837000   0.52297443   -9.3643279    196.94509 0.0089341813  0.007292006         2969 
 1838000   0.53292203    -9.379298    196.65131 0.0089160007 0.0072851875         2966 
 1839000   0.51467122   -9.3579825     196.7257 0.0089145233 0.0072783731         2988 
 1840000   0.52306408   -9.3832324    196.68039 0.0089076265 0.0072715639         2978 
 1841000   0.52593458   -9.3971513     196.2562 0.0088835868 0.0072647607         2981 
 1842000   0.53021126   -9.3742509    196.49596 0.0088896107  0.007257973         2952 
 1843000   0.51834646   -9.4093396    196.41997 0.0088813517   0.00725119         2985 
 1844000   0.51125833   -9.3853972    196.78994 0.0088932546 0.0072444205         2991 
 1845000   0.51651996   -9.3807108    196.61203 0.0088803989   0.00723766         2944 
 1846000    0.5194797   -9.3772018    196.34909 0.0088637185 0.0072309042         2951 
 1847000   0.51995552   -9.4027159    196.63644 0.0088718843 0.0072241546         2979 
 1848000   0.53217097   -9.3841549      196.791 0.0088740529 0.0072174175         2982 
 1849000   0.50300211   -9.3872828    196.63404 0.0088621795 0.0072106863         2963 
 1850000   0.51736526   -9.4003502    196.47947 0.0088504267 0.0072039635         2968 
 1851000   0.50514241   -9.3903992    196.23906 0.0088348216 0.0071972496         2948 
 1852000   0.51311555   -9.3765714    196.46816   0.00884036 0.0071905437         2951 
 1853000   0.52793188   -9.3843333    196.40494  0.008832746  0.007183849         2972 
 1854000   0.51587528   -9.3823306    196.49454 0.0088320093 0.0071771619         2964 
 1855000   0.51753757   -9.3986883    196.45987 0.0088256905 0.0071704798         2988 
 1856000   0.52176955   -9.3993708    196.61579  0.008827936 0.0071638078         2907 
 1857000   0.52421849   -9.3968302    196.24957 0.0088067477 0.0071571474         3025 
 1858000   0.50776212   -9.3751375    196.46171 0.0088115225 0.0071504927         2973 
 1859000   0.51622454   -9.3993609    196.45343 0.0088064117 0.0071438438         2966 
 1860000   0.52342242   -9.3883612    196.57863 0.0088072862 0.0071372082         2944 
 1861000   0.51633654    -9.405812    196.48346 0.0087982923 0.0071305805         2992 
 1862000   0.49621297   -9.3921609    196.69877 0.0088032033  0.007123956         2963 
 1863000   0.51117313   -9.3833336    196.31101  0.008781133 0.0071173427         2938 
 1864000   0.51511982     -9.37828    196.12934 0.0087683003 0.0071107327         2997 
 1865000   0.49722486   -9.3865112    196.51114 0.0087806586 0.0071041373         2942 
 1866000   0.49873222   -9.3996331    196.50865  0.008775842 0.0070975485         2950 
 1867000   0.50128187   -9.3986542     196.3076 0.0087621673 0.0070909669         2952 
 1868000   0.51323971   -9.3995518    196.42654 0.0087627827 0.0070843935         2957 
 1869000   0.50571879   -9.4047805    196.32438 0.0087535395 0.0070778247         2942 
 1870000   0.51370072   -9.4176911    196.54202  0.008758557 0.0070712676         2960 
 1871000   0.50843181   -9.4005846    196.28627 0.0087424848 0.0070647212         3006 
 1872000   0.50591613   -9.3898333    196.14091 0.0087313438 0.0070581819         3013 
 1873000   0.51409968    -9.398261    196.81614 0.0087567245 0.0070516556         2974 
 1874000   0.51260972   -9.3938829    196.59197 0.0087420833 0.0070451287         3006 
 1875000   0.50181963    -9.394658    196.78929 0.0087461907 0.0070386107         2940 
 1876000   0.51150674   -9.4113229    196.31211 0.0087203319 0.0070321021         2969 
 1877000   0.49422001   -9.4057884    196.35089 0.0087174077 0.0070256003         2983 
 1878000   0.50784298    -9.408531    196.27374 0.0087093426 0.0070191101         2966 
 1879000   0.50647211   -9.3854956    196.21341 0.0087020318 0.0070126321         2969 
 1880000   0.48819288   -9.4057239    196.39748 0.0087055622 0.0070061533         2989 
 1881000   0.49477556   -9.4146422    196.16879 0.0086908025 0.0069996822         2990 
 1882000   0.49854927   -9.3996067    196.34138 0.0086938265 0.0069932222         3003 
 1883000   0.48692362   -9.4076546      196.229  0.008684236 0.0069867659         2990 
 1884000   0.50886126   -9.4104753    196.34656 0.0086848267 0.0069803257         2975 
 1885000     0.492477   -9.4056113    196.44941  0.008684766 0.0069738984         3001 
 1886000   0.50450938   -9.4069016    196.39027 0.0086775483 0.0069674734         2996 
 1887000   0.49671133   -9.3988667    196.12197 0.0086611009 0.0069610457         2963 
 1888000   0.50083612   -9.4042488    196.42051 0.0086696905 0.0069546314         2971 
 1889000   0.50619168   -9.4088629    196.31694 0.0086605319 0.0069482207         2961 
 1890000   0.50560324   -9.4122715    195.93219 0.0086389855 0.0069418202         2978 
 1891000   0.50372603    -9.418461    196.28662 0.0086500363  0.006935426         3005 
 1892000   0.49725169   -9.4129397    196.17697 0.0086406349 0.0069290392         2969 
 1893000   0.49333839   -9.4118449    196.17387 0.0086359335 0.0069226621         2973 
 1894000    0.4995393   -9.4212217    196.13603  0.008629709 0.0069162925         2980 
 1895000   0.49477007   -9.4077694    196.33387 0.0086338554 0.0069099296         2956 
 1896000   0.49956661   -9.4001749     196.3819 0.0086314127 0.0069035801         3004 
 1897000    0.4956628   -9.4108074    196.37248 0.0086264488 0.0068972371         2964 
 1898000   0.48263668   -9.4058104    196.12264 0.0086109343 0.0068908981         2987 
 1899000   0.49950008   -9.4140032    195.96781 0.0085996056   0.00688457         2935 
 1900000   0.49284983   -9.4130327    196.08621 0.0086002723 0.0068782462         2982 
 1901000   0.48473493   -9.4099135    196.16409 0.0085991624 0.0068719323         2965 
 1902000   0.48722743   -9.4038408    196.30361  0.008600754 0.0068656232         2976 
 1903000   0.48785559   -9.4093258    196.29768 0.0085959747 0.0068593198         2958 
 1904000   0.50014485   -9.4110352    196.10339 0.0085829563 0.0068530289         2956 
 1905000   0.49428391   -9.4245931    196.24386  0.008584596  0.006846742         2983 
 1906000   0.49284644   -9.4149007    196.40347 0.0085870704 0.0068404708         3020 
 1907000   0.48682652   -9.4256385    196.15711 0.0085718016 0.0068342038         3008 
 1908000   0.48462211    -9.446666    196.18643 0.0085685899 0.0068279421         2966 
 1909000   0.49394703   -9.4109421    196.22065 0.0085655949 0.0068216891         2994 
 1910000   0.49062059   -9.4200377    196.37352 0.0085677801  0.006815447         2939 
 1911000   0.47972064   -9.4238872    196.12219 0.0085523371 0.0068092129         2970 
 1912000   0.50036834   -9.4227648    195.88991   0.00853774 0.0068029807         2948 
 1913000   0.48351462   -9.4190884    196.23785 0.0085484338 0.0067967661         2978 
 1914000    0.4875332   -9.4191795    196.30944 0.0085470848 0.0067905503         2967 
 1915000    0.4909079   -9.4210991    196.37611 0.0085455225 0.0067843462         2987 
 1916000   0.49794973   -9.4187177    195.84578 0.0085179968 0.0067781461         2987 
 1917000    0.5098093   -9.4356463    196.10771 0.0085249398 0.0067719602         2973 
 1918000   0.48361184   -9.4250588    196.40117 0.0085332451 0.0067657776         2964 
 1919000   0.48641097   -9.4452509    195.97313 0.0085102105 0.0067596001         2996 
 1920000   0.48748103   -9.4305522    195.94512 0.0085045625 0.0067534315         2971 
 1921000   0.49149475    -9.441921    196.12631 0.0085079954  0.006747267         2949 
 1922000   0.48319042   -9.4202067    196.16769 0.0085053629  0.006741117         2923 
 1923000    0.4819993    -9.425848     195.9161 0.0084900372 0.0067349675         2978 
 1924000   0.48249162    -9.428268    195.95383 0.0084872588 0.0067288319         2956 
 1925000   0.49330753   -9.4331426    196.39226 0.0085018295 0.0067227049         2990 
 1926000   0.48595811   -9.4169978    196.11397 0.0084853741   0.00671658         2969 
 1927000   0.48584468   -9.4343283    196.03709 0.0084776464 0.0067104636         2973 
 1928000   0.48812857   -9.4104142    196.17223   0.00847909 0.0067043562         2969 
 1929000    0.4755054   -9.4127611      196.256 0.0084783135 0.0066982551         2975 
 1930000   0.48513121   -9.4343556    196.09556 0.0084669929 0.0066921614         2953 
 1931000   0.48281899   -9.4352208    196.04912 0.0084606041 0.0066860732         2976 
 1932000    0.4899432   -9.4512349    196.15129 0.0084606318 0.0066799953         2937 
 1933000    0.4779545   -9.4284642    196.11721 0.0084547856 0.0066739192         2973 
 1934000   0.48472585   -9.4360606    196.00648 0.0084456431  0.006667859         2986 
 1935000   0.47493525   -9.4233509    196.34365 0.0084557987 0.0066618129         3044 
 1936000   0.48463207   -9.4350861    196.04928 0.0084387604 0.0066557618         2999 
 1937000    0.4829222   -9.4235047    196.38958 0.0084490442 0.0066497239         2949 
 1938000    0.4863082   -9.4426504    195.92289 0.0084246169 0.0066436905         3011 
 1939000   0.46683346    -9.440838    195.82986 0.0084162738 0.0066376641         2962 
 1940000   0.48498494   -9.4409851    195.81504 0.0084112988 0.0066316471         2964 
 1941000   0.48551432   -9.4320208    195.68622 0.0084014346 0.0066256394         2947 
 1942000   0.48891895   -9.4371957      195.989 0.0084101011 0.0066196368         2993 
 1943000   0.47174578   -9.4185383    196.46263 0.0084260862 0.0066136421         2969 
 1944000   0.47568492   -9.4368627    195.97785 0.0084009711 0.0066076507         2942 
 1945000   0.47412375   -9.4531726    195.92912  0.008394564 0.0066016656         2972 
 1946000   0.47984691   -9.4276008    196.01369 0.0083938717 0.0065956848         2973 
 1947000   0.47713714   -9.4356017    195.88326 0.0083839781 0.0065897129         2967 
 1948000   0.47370521   -9.4285621    196.02891 0.0083859048 0.0065837472         2984 
 1949000   0.48242521   -9.4357505    195.97821 0.0083794345 0.0065777907         3000 
 1950000   0.47838146   -9.4474686    196.28849 0.0083883969 0.0065718435         3002 
 1951000   0.48524307   -9.4372618    195.87819 0.0083665724 0.0065659026         2967 
 1952000    0.4903443   -9.4438718    195.99643 0.0083673341 0.0065599685         2955 
 1953000   0.47143453   -9.4353126    195.65591 0.0083485196   0.00655404         2945 
 1954000   0.47500513   -9.4624638    196.02487 0.0083599825 0.0065481194         2945 
 1955000   0.48356564   -9.4338031    196.06109 0.0083572504  0.006542205         2984 
 1956000   0.46748792   -9.4380248    195.79167 0.0083414991  0.006536298         2963 
 1957000   0.47044686   -9.4464832    196.04242 0.0083479144 0.0065303966         3007 
 1958000   0.47593751   -9.4431282     196.0167 0.0083425562 0.0065245047         2986 
 1959000   0.45394049   -9.4480816    195.78978 0.0083286446 0.0065186184         2946 
 1960000   0.47671849   -9.4644883    195.98552 0.0083327176 0.0065127428         2983 
 1961000   0.46713291   -9.4417804    196.01821 0.0083298578 0.0065068712         2969 
 1962000   0.46975423    -9.447276     195.8629 0.0083190156 0.0065010022         2975 
 1963000   0.46939526   -9.4567191    195.75062  0.008310011 0.0064951473         2962 
 1964000   0.48180983   -9.4442163    195.83635 0.0083094175 0.0064892995         2956 
 1965000   0.47203693   -9.4571555     195.8273 0.0083048051 0.0064834599         2964 
 1966000   0.46609914   -9.4570441    195.50199 0.0082867917 0.0064776231         2985 
 1967000   0.46666628   -9.4546523    195.79974 0.0082951932 0.0064717954         2988 
 1968000   0.46944378   -9.4646411    195.70703 0.0082870524   0.00646597         3018 
 1969000   0.46141032   -9.4597228     195.7726 0.0082856186 0.0064601552         2992 
 1970000   0.46303885   -9.4590164    195.70459  0.008278536 0.0064543476         2978 
 1971000   0.46357767   -9.4550549    195.80269 0.0082784836  0.006448547         2979 
 1972000   0.46217047   -9.4459723    195.75658 0.0082723367 0.0064427557         3025 
 1973000   0.45957652   -9.4745188    196.19833 0.0082868022 0.0064369709         2955 
 1974000   0.47342133   -9.4608071    195.83681 0.0082673425 0.0064311922         3024 
 1975000   0.45910894   -9.4640103    195.62045 0.0082540276 0.0064254201         2990 
 1976000   0.46087944   -9.4630391      195.969 0.0082645497 0.0064196523         2963 
 1977000   0.46232913   -9.4743641    195.94017 0.0082591542 0.0064138934         2958 
 1978000    0.4669504   -9.4466706    195.86522  0.008251821 0.0064081407         2966 
 1979000   0.46060236   -9.4426351    195.87127  0.008247906 0.0064023987         2945 
 1980000   0.46127721   -9.4628262    196.04337 0.0082509837 0.0063966594         2972 
 1981000   0.45489385   -9.4568517    195.54793 0.0082259774 0.0063909305         2955 
 1982000   0.46328767   -9.4741379    195.80063 0.0082324518 0.0063852037         2962 
 1983000   0.46654678   -9.4723662    195.74205 0.0082258384 0.0063794862         2984 
 1984000    0.4665032   -9.4578945     195.6711 0.0082187121 0.0063737801         2985 
 1985000   0.46703958   -9.4542368    195.64509   0.00821348 0.0063680829         2993 
 1986000   0.45467478   -9.4760327    195.92543 0.0082211074 0.0063623852         3004 
 1987000   0.45341683   -9.4624297    195.84936 0.0082137794  0.006356692         2986 
 1988000   0.46552364   -9.4535427    195.99764 0.0082158637 0.0063510076         3007 
 1989000   0.46328565   -9.4631619    195.84242 0.0082052297 0.0063453344         2979 
 1990000    0.4620198   -9.4604885    195.65488 0.0081932528 0.0063396606         2981 
 1991000   0.46293257   -9.4715542    195.73902 0.0081926594 0.0063339952         3003 
 1992000   0.46760725   -9.4569129    195.81617 0.0081917742 0.0063283373         2957 
 1993000   0.45535111   -9.4647263    196.08051 0.0081987166 0.0063226874         2993 
 1994000   0.45528104   -9.4643551    195.63176 0.0081758507 0.0063170431         2989 
 1995000   0.46381974   -9.4709077    195.72904 0.0081758162 0.0063114113         2972 
 1996000   0.46402161   -9.4614519    195.72549 0.0081715721  0.006305783         2978 
 1997000   0.46141001   -9.4783067    195.67292 0.0081652863  0.006300157         3005 
 1998000   0.46919205    -9.482755    195.52492 0.0081550268 0.0062945386         3007 
 1999000   0.44986275   -9.4597712    195.75134 0.0081603861 0.0062889317         2972 
 2000000   0.44232783   -9.4795311    195.63661 0.0081515253 0.0062833248         3025 
 2001000   0.45218433   -9.4786851     195.5827 0.0081452066  0.006277727         2974 
 2002000   0.45579991   -9.4860515    195.51914 0.0081384925 0.0062721369         3001 
 2003000    0.4639607   -9.4705475    195.70427 0.0081421313  0.006266553         2993 
 2004000   0.46156869   -9.4709301    195.68324  0.008137194 0.0062609748         3014 
 2005000   0.44278363   -9.4770707    195.56078 0.0081280457 0.0062554026         2980 
 2006000   0.45923784   -9.4731919    195.78126 0.0081331532 0.0062498378         2980 
 2007000   0.45856998   -9.4683624    195.44263 0.0081150402 0.0062442806         2979 
 2008000   0.45140536   -9.4763065    195.68025 0.0081208603 0.0062387317         3021 
 2009000   0.45219818   -9.4704196    195.71361  0.008118202  0.006233188         3015 
 2010000    0.4554665   -9.4792864     195.7269 0.0081147138 0.0062276496         2967 
 2011000   0.44512093   -9.4791345    195.60797 0.0081057504 0.0062221195         2981 
 2012000   0.44585581   -9.4755941    195.55377  0.008099477 0.0062165957         2990 
Loop time of 5097.5 on 48 procs for 2000000 steps with 4000 atoms

Performance: 67797.974 tau/day, 392.349 timesteps/s
99.4% CPU use with 48 MPI tasks x no OpenMP threads

MPI task timing breakdown:
Section |  min time  |  avg time  |  max time  |%varavg| %total
---------------------------------------------------------------
Pair    | 357.57     | 391.26     | 425.16     |  86.5 |  7.68
Neigh   | 33.593     | 35.472     | 37.096     |  14.2 |  0.70
Comm    | 322.41     | 355.95     | 394.75     |  97.4 |  6.98
Output  | 5.449      | 5.4508     | 5.4962     |   0.3 |  0.11
Modify  | 4238.8     | 4261.1     | 4280.4     |  15.2 | 83.59
Other   |            | 48.25      |            |       |  0.95

Nlocal:        83.3333 ave          90 max          72 min
Histogram: 1 1 2 4 4 8 9 8 7 4
Nghost:        2324.92 ave        2356 max        2294 min
Histogram: 2 6 4 4 6 9 6 5 3 3
Neighs:        15840.4 ave       17837 max       12718 min
Histogram: 1 0 1 3 11 7 8 9 6 2
FullNghs:      31678.2 ave       35520 max       26623 min
Histogram: 2 0 4 3 9 8 7 7 6 2

Total # of neighbors = 1520554
Ave neighs/atom = 380.13850
Neighbor list builds = 106544
Dangerous builds = 0

#clear
#
#next RN
#
#jump SELF
Total wall time: 1:25:01
