
units lj                  # Use reduced LJ style units
atom_style atomic         # Uncharged point particles
atom_modify map hash      # Needed for indexing of clusters etc
                          # Used to be able to find where atoms are in relation to each other.

lattice fcc 1.0 spacing 1 1 1
Lattice spacing in x,y,z = 1.5874011 1.5874011 1.5874011
region box block 0 10 0 10 0 10 units lattice
create_box 2 box
Created orthogonal box = (0.0000000 0.0000000 0.0000000) to (15.874011 15.874011 15.874011)
  3 by 4 by 4 MPI processor grid
create_atoms 1 box
Created 4000 atoms
  using lattice units in orthogonal box = (0.0000000 0.0000000 0.0000000) to (15.874011 15.874011 15.874011)
  create_atoms CPU = 0.002 seconds
set type 1 type/fraction 2 0.84 78393
Setting atom values ...
  3354 settings made for type/fraction
mass 1 1.0
mass 2 1.0
pair_style lj/cut  3.5
pair_modify tail  yes
pair_coeff 1  1  1.0  1.0   # Intearaction between 1 and 1 set with epsilon = 1 and sigma = 1
pair_coeff 1  2  1.5  0.8
pair_coeff 2  2  0.5  0.88

write_data data.0
System init for write_data ...
Neighbor list info ...
  update every 1 steps, delay 10 steps, check yes
  max neighbors/atom: 2000, page size: 100000
  master list distance cutoff = 3.8
  ghost atom cutoff = 3.8
  binsize = 1.9, bins = 9 9 9
  1 neighbor lists, perpetual/occasional/extra = 1 0 0
  (1) pair lj/cut, perpetual
      attributes: half, newton on
      pair build: half/bin/atomonly/newton
      stencil: half/bin/3d
      bin: standard
WARNING: Not all mixed pair coeffs generated from mixing. Use write_data with 'pair ij' option to store all pair coeffs. (../write_data.cpp:312)


#############################
#   M E L T   S Y S T E M   #
#############################

velocity all create 2.4 5300450 mom yes dist gaussian # Assign velocities
                                                    # Temperature 2.4, random number seed, zero linear momentum
                                                                                # Gaussian distribution

timestep 0.002   # simulation timestep
thermo 1000       # output thermodynamic data every 1000 steps bf 100

# Define a fix  in this case with index 1 applied to all
# particles in the simulation. This fix is for simulations
# in the anisotropic NPT ensemble. Note that we use the MTK
# correction.
fix 1 all npt temp 2.4 2.4 0.1 iso 5.68 5.68 0.5 mtk yes tchain 5 pchain 5 # Use NPT ensemble
                                                                         # Set temperature and pressure and damping
                                                                         # Numbers of thermostats in chain and in barostat
run 10000          # run for 10000 steps
Per MPI rank memory allocation (min/avg/max) = 3.642 | 3.644 | 3.648 Mbytes
Step Temp E_pair E_mol TotEng Press Volume 
       0          2.4   -3.4880302            0   0.11106983   -3.0192302         4000 
    1000    2.3841685   -2.7384898            0   0.83686893    5.6662816    3871.4257 
    2000    2.3502287   -2.6930428            0   0.83141889    5.5874331    3885.3033 
    3000    2.4114394   -2.6925146            0   0.92374019    5.8775621    3869.9736 
    4000    2.4074548   -2.7329024            0   0.87737693    5.9585656    3820.7588 
    5000    2.4103988   -2.7183094            0   0.89638488    5.3811473    3923.3446 
    6000     2.393444   -2.7199864            0   0.86928209    5.5071467    3899.4755 
    7000    2.4043491   -2.7310706            0   0.87455141    5.6396086    3876.0007 
    8000     2.426904   -2.6669309            0   0.97251494    6.0212163    3879.7557 
    9000     2.362408   -2.7385401            0   0.80418596    5.5106567     3879.192 
   10000     2.420683   -2.7214773            0    0.9086394    5.4193678    3919.2663 
Loop time of 2.81807 on 48 procs for 10000 steps with 4000 atoms

Performance: 613186.057 tau/day, 3548.530 timesteps/s
99.4% CPU use with 48 MPI tasks x no OpenMP threads

MPI task timing breakdown:
Section |  min time  |  avg time  |  max time  |%varavg| %total
---------------------------------------------------------------
Pair    | 1.1081     | 1.1876     | 1.2831     |   3.1 | 42.14
Neigh   | 0.21134    | 0.21764    | 0.22566    |   0.7 |  7.72
Comm    | 0.80667    | 0.87087    | 0.9421     |   3.5 | 30.90
Output  | 0.00024955 | 0.00025479 | 0.00032741 |   0.0 |  0.01
Modify  | 0.47424    | 0.52621    | 0.55257    |   2.3 | 18.67
Other   |            | 0.01545    |            |       |  0.55

Nlocal:        83.3333 ave          92 max          74 min
Histogram: 3 1 3 8 3 10 13 2 3 2
Nghost:        1657.06 ave        1682 max        1635 min
Histogram: 2 6 7 2 7 9 9 2 2 2
Neighs:        9740.83 ave       11024 max        8432 min
Histogram: 4 1 6 5 8 6 11 1 3 3

Total # of neighbors = 467560
Ave neighs/atom = 116.89000
Neighbor list builds = 909
Dangerous builds = 230

# Equilibrate just above the melting temperature to avoid step fn in T

fix 1 all npt temp 1.25 1.25 0.1 iso 5.68 5.68 0.5 mtk yes tchain 5 pchain 5
run 2000
Per MPI rank memory allocation (min/avg/max) = 3.643 | 3.645 | 3.649 Mbytes
Step Temp E_pair E_mol TotEng Press Volume 
   10000     2.420683   -2.7214773            0    0.9086394    5.4193678    3919.2663 
   11000    1.2332986   -4.0267266            0   -2.1772413    5.5889234    2988.1521 
   12000    1.2609336   -4.0704136            0    -2.179486    5.7111212    2966.2727 
Loop time of 0.614852 on 48 procs for 2000 steps with 4000 atoms

Performance: 562086.535 tau/day, 3252.816 timesteps/s
99.7% CPU use with 48 MPI tasks x no OpenMP threads

MPI task timing breakdown:
Section |  min time  |  avg time  |  max time  |%varavg| %total
---------------------------------------------------------------
Pair    | 0.27874    | 0.30097    | 0.32464    |   2.1 | 48.95
Neigh   | 0.040673   | 0.042514   | 0.044659   |   0.5 |  6.91
Comm    | 0.19592    | 0.22273    | 0.24591    |   2.7 | 36.22
Output  | 5.2503e-05 | 5.4345e-05 | 7.0846e-05 |   0.0 |  0.01
Modify  | 0.040029   | 0.043819   | 0.04711    |   0.9 |  7.13
Other   |            | 0.004766   |            |       |  0.78

Nlocal:        83.3333 ave          90 max          76 min
Histogram: 4 1 6 1 7 10 5 9 2 3
Nghost:        2006.31 ave        2025 max        1985 min
Histogram: 1 2 5 5 7 7 10 6 2 3
Neighs:        12875.9 ave       14518 max       11177 min
Histogram: 1 1 5 7 9 10 9 2 0 4

Total # of neighbors = 618041
Ave neighs/atom = 154.51025
Neighbor list builds = 145
Dangerous builds = 20

#############################
# L I N E A R  Q U E N C H  #
#############################

# Define solid atoms. This closely follows ten Wolde  Ruiz-Montero and Frenkel  Faraday Discuss  1996  104  93-110
# Compute components of the per-atom q6 vector
compute q6 all orientorder/atom degrees 1 6 components 6 nnn NULL cutoff 1.3 # compute the Q6 parameter.
                                                                             # Use all neighbours within 1.3 unit cell.

# get number of connections
compute coord_number all coord/atom orientorder q6 0.5

# An atom is solid if it has 8 or more connections (of a possible 14)
variable is_solid atom c_coord_number>=8
group solid dynamic all var is_solid    # Must be dynamic to update
dynamic group solid defined

# do clustering
compute cluster solid cluster/atom 1.3 # Create a cluster where all atoms within are solid and max 1.3 units from another member

# define chunks one chunk per cluster
compute clus_chunks solid chunk/atom c_cluster nchunk every compress yes  # Says which atoms are in which chunk

# count the size of each chunk
compute size_chunks solid property/chunk clus_chunks count


# Find the maximum entry in the vector of chunk sizes
variable max_n equal max(c_size_chunks)


# Thermo style which includes this variable
# thermo_style custom step temp pe vol v_max_n

thermo ${N}  # Print the thermo information every 100 steps
thermo 1000  

# Reset the npt fix at a lower temperature (below freezing)
fix 1  all npt temp  ${temp} ${temp}  0.1  iso  5.68  5.68  0.5  mtk yes tchain  5  pchain  5
fix 1  all npt temp  0.45 ${temp}  0.1  iso  5.68  5.68  0.5  mtk yes tchain  5  pchain  5
fix 1  all npt temp  0.45 0.45  0.1  iso  5.68  5.68  0.5  mtk yes tchain  5  pchain  5

dump dmp2 all dcd ${N} traj.dcd
dump dmp2 all dcd 1000 traj.dcd


compute msd all msd com yes
variable twopoint equal c_msd[4]/6/(step*dt+1.0e-6)
fix 9 all vector 10 c_msd[4]
variable fit equal slope(f_9)/6/(10*dt)
thermo_style custom step temp pe c_msd[4] v_twopoint v_fit v_max_n

fix 1 all npt temp 1.25 ${temp} 0.1 iso 5.68 5.68 0.5 mtk yes tchain 5 pchain 5
fix 1 all npt temp 1.25 0.45 0.1 iso 5.68 5.68 0.5 mtk yes tchain 5 pchain 5
run 500000 # 5000000  # Run for this many steps
Neighbor list info ...
  update every 1 steps, delay 10 steps, check yes
  max neighbors/atom: 2000, page size: 100000
  master list distance cutoff = 3.8
  ghost atom cutoff = 3.8
  binsize = 1.9, bins = 8 8 8
  4 neighbor lists, perpetual/occasional/extra = 1 3 0
  (1) pair lj/cut, perpetual
      attributes: half, newton on
      pair build: half/bin/atomonly/newton
      stencil: half/bin/3d
      bin: standard
  (2) compute orientorder/atom, occasional
      attributes: full, newton on
      pair build: full/bin/atomonly
      stencil: full/bin/3d
      bin: standard
  (3) compute coord/atom, occasional
      attributes: full, newton on
      pair build: full/bin/atomonly
      stencil: full/bin/3d
      bin: standard
  (4) compute cluster/atom, occasional
      attributes: full, newton on
      pair build: full/bin/atomonly
      stencil: full/bin/3d
      bin: standard
Per MPI rank memory allocation (min/avg/max) = 9.832 | 9.836 | 9.840 Mbytes
Step Temp PotEng c_msd[4] v_twopoint v_fit v_max_n 
   12000    1.2609336   -4.0704136 2.7856651e-30 1.9344896e-32 8.3333333e+20            3 
   13000    1.2222899   -3.9931164   0.87810444 0.0056288744  0.073062263            1 
   14000    1.2347874   -4.0336067    1.8138694  0.010796841  0.077148633            2 
   15000     1.232838   -4.0663414    2.7286677  0.015159264  0.077307022            1 
   16000    1.2470819   -4.0901728    3.5866926   0.01868069  0.075945358            3 
   17000    1.2188703   -4.0399545    4.5754895  0.022428869  0.075625054            1 
   18000     1.243482    -4.020776    5.5275552  0.025590533  0.076668181            2 
   19000    1.2616254   -4.0294629    6.4989942   0.02850436  0.077145249            2 
   20000    1.2378914    -4.021808    7.4624179  0.031093407  0.077854782            1 
   21000    1.2745561   -4.0571941    8.2468349  0.032725534  0.077786962            1 
   22000    1.2175298   -4.0713213    9.0997268  0.034468661  0.077253566            2 
   23000    1.2339383   -4.1173477    10.073622  0.036498629  0.076841375            2 
   24000    1.2487999   -4.0605512    10.896172  0.037833929  0.076626324            5 
   25000    1.2287185   -4.0498617    11.723848  0.039079492   0.07614401            2 
   26000    1.2493543   -4.0730943    12.593097  0.040362489  0.075663146            4 
   27000     1.231059   -4.0902034    13.486994  0.041626524  0.075316209            4 
   28000    1.2221135   -4.0697996    14.410546  0.042888528  0.075147758            1 
   29000    1.2308254    -4.094214      15.4179  0.044304311  0.075094201            1 
   30000    1.2408301   -4.1179392    16.307104   0.04529751  0.075105475            1 
   31000    1.2383066   -4.0791243       16.986   0.04566129  0.074986714            2 
   32000    1.1975493    -4.075502    18.164601  0.047303647  0.074992661            2 
   33000    1.2157799   -4.0840755    19.133504  0.048316928  0.075100498            1 
   34000    1.2226581   -4.0904895    20.197102  0.049502701  0.075317426            4 
   35000    1.2237795   -4.0690178    21.243085  0.050578774  0.075591676            2 
   36000    1.2090593   -4.0887027    22.007522  0.050943337  0.075836621            2 
   37000    1.2285873   -4.1428856    22.818126  0.051392174  0.075954547            3 
   38000    1.1935932   -4.0678789    23.841263   0.05228347  0.076070734            2 
   39000    1.2078304   -4.1042766    24.478386  0.052304242  0.076055002            1 
   40000    1.1987088   -4.1110031     25.61637  0.053367436  0.076056485            2 
   41000    1.2056646   -4.0700881    26.454035  0.053768364  0.076062037            2 
   42000    1.2082701    -4.108445    27.197609  0.053963508  0.075990824            4 
   43000    1.1994367   -4.1425903    28.004751  0.054272774  0.075882046            1 
   44000     1.214648   -4.1330658    28.927489   0.05478691  0.075788976            1 
   45000    1.2090419   -4.1591021    29.750685  0.055093861  0.075706313            3 
   46000    1.2169475   -4.1078336    30.764675  0.055733106  0.075658419            1 
   47000    1.1680532   -4.1304057    31.659192  0.056133318  0.075602221            1 
   48000    1.1936953    -4.123165    32.552418  0.056514614  0.075528663            2 
   49000    1.2005172   -4.1262805    32.832277  0.055837206  0.075383522            1 
   50000    1.1792224   -4.1388103    33.806479  0.056344131  0.075186163            3 
   51000    1.1887113   -4.1407058    34.675125  0.056658701  0.075009929            1 
   52000    1.1692628   -4.0958623    35.678463  0.057177023  0.074853347            1 
   53000    1.1669048   -4.1497969    36.305856  0.057084678   0.07468791            3 
   54000    1.1979365   -4.1250733    37.127097  0.057294902   0.07449779            1 
   55000    1.1911566   -4.1483351    38.105012  0.057734866  0.074323911            2 
   56000    1.1518845   -4.1519676    38.598347  0.057438017  0.074127183            3 
   57000    1.1661332   -4.1529233    39.330801   0.05750117  0.073916721            2 
   58000    1.1795269   -4.1708168    40.018224  0.057497448  0.073677767            3 
   59000    1.1844089   -4.1673133    40.429073  0.057103211  0.073407483            2 
   60000    1.1873225   -4.1219044    41.364857   0.05745119  0.073125553            2 
   61000    1.1870644   -4.1930151    41.819843  0.057130932  0.072840094            2 
   62000    1.1859092   -4.1623302    42.786398  0.057508599  0.072561305            2 
   63000    1.1470959   -4.1590794    43.542921  0.057596456  0.072307978            1 
   64000    1.1863919   -4.1832668    44.219252  0.057577151  0.072044601            1 
   65000    1.1554432   -4.1932031    44.710563  0.057321234  0.071772139            2 
   66000     1.152004   -4.1752813    45.508642  0.057460406  0.071501153            3 
   67000    1.1617263   -4.1689279    46.547378  0.057894749  0.071264582            3 
   68000    1.1843156    -4.132875    47.326235  0.057997836  0.071039607            3 
   69000     1.146916   -4.1686681    47.917957  0.057871929  0.070826297            1 
   70000    1.1782205   -4.1881797    48.506605  0.057745958  0.070605665            4 
   71000    1.1498825   -4.1605177    49.797661  0.058447958  0.070408664            1 
   72000    1.1720539   -4.1548509    50.535249  0.058489871  0.070253399            1 
   73000    1.1559683   -4.2021236    51.718256  0.059039105  0.070116763            4 
   74000    1.1623508   -4.2030578    52.400127  0.059009152  0.070001451            3 
   75000    1.1528328   -4.1766976     53.17502  0.059083356  0.069892865            2 
   76000    1.1446376   -4.1952142    53.847748  0.059043582  0.069775883            1 
   77000    1.1467632   -4.1991378     54.77165  0.059276677  0.069685552            3 
   78000    1.1283971   -4.1772877    55.707963  0.059517054  0.069598867            1 
   79000    1.1517009   -4.1835235    56.444208  0.059540303  0.069514027            4 
   80000    1.1548104   -4.2154764    56.991281  0.059365918  0.069417894            3 
   81000    1.1386978   -4.1936753    58.042641   0.05971465  0.069333375            2 
   82000    1.1527015   -4.1917602    58.708271  0.059662877   0.06924938            2 
   83000    1.1278168   -4.1971983     59.27976  0.059517831  0.069140824            3 
   84000    1.1247933   -4.1981138    60.171093  0.059693544  0.069040066            4 
   85000    1.1259729   -4.1784986    60.694903  0.059504806  0.068941929            3 
   86000    1.1468444   -4.2359996    61.385088  0.059481674  0.068820661            2 
   87000     1.109435   -4.2288414    61.924676  0.059314823  0.068710376            3 
   88000    1.1199493   -4.2052976    63.118934  0.059771718  0.068620958            6 
   89000    1.1248676   -4.2243677    63.549384  0.059503169   0.06853291            2 
   90000    1.1135594   -4.2265489    64.194095  0.059438977  0.068415714            2 
   91000    1.1100829    -4.252417    64.835117  0.059372818  0.068298004            4 
   92000    1.1181691   -4.2088775    65.457366  0.059291092  0.068178151            4 
   93000     1.102896    -4.226803    66.121403  0.059248569  0.068051975            2 
   94000    1.1086034   -4.2659196    66.646089  0.059083412  0.067913959            3 
   95000    1.1132228   -4.2583068    67.409608  0.059131235  0.067776719            2 
   96000    1.0977275   -4.2151577    68.286979  0.059276891  0.067634549            2 
   97000    1.1160999    -4.247742    68.821586  0.059125074  0.067509804            3 
   98000    1.1035062   -4.2450398    69.080558  0.058741971  0.067372987            4 
   99000    1.1273542    -4.235275    69.915924  0.058851788  0.067218224            3 
  100000    1.0820762   -4.2310347    70.154235  0.058461862  0.067055065            1 
  101000    1.1222938   -4.2915195    70.482245  0.058153667  0.066886758            2 
  102000    1.1099256   -4.2400948    71.772947  0.058638029  0.066718938            1 
  103000    1.1083505   -4.2569356    72.032796  0.058278961  0.066562173            5 
  104000    1.1092666   -4.2636316    72.916501  0.058426684  0.066396111            1 
  105000    1.1223607    -4.232481    73.446523  0.058290891  0.066237528            2 
  106000     1.091185   -4.3060403    73.898614  0.058096395  0.066083106            2 
  107000    1.1047661   -4.2705243    74.682345   0.05816382  0.065928545            3 
  108000    1.1240574   -4.2506345    75.713768  0.058421117  0.065784032            4 
  109000    1.1033173   -4.2954957    76.413738  0.058420289  0.065651319            3 
  110000    1.0789329    -4.297547    77.290405  0.058553337  0.065525264            2 
  111000    1.1098374   -4.2946117    77.939339  0.058513017  0.065402708            8 
  112000    1.0732069   -4.2902664    78.500946  0.058408442  0.065280985            2 
  113000    1.1093123    -4.264394    79.446113  0.058588579  0.065160149            2 
  114000    1.0728451   -4.3156647    79.455359  0.058081403  0.065031291            2 
  115000    1.0822741   -4.3082337    80.118832  0.058057124  0.064894757            2 
  116000    1.1132984   -4.3215075    80.597365  0.057900406  0.064757306            4 
  117000    1.0860864   -4.3019266    81.808662  0.058268277  0.064628376            2 
  118000    1.0782641   -4.3036328    82.119014  0.057993654  0.064490307            2 
  119000    1.0874146   -4.3528524    82.359297  0.057674578  0.064356189            2 
  120000    1.0941351   -4.2859852    83.438435  0.057943358  0.064230723            2 
  121000    1.0667562   -4.2949023    84.217618  0.058001114  0.064117563            2 
  122000    1.0959783   -4.3343058    84.788186  0.057915428  0.063996442            3 
  123000    1.0488883   -4.3119562    85.540444   0.05795423   0.06387729            5 
  124000    1.0903688   -4.3444611    86.433965  0.058087342  0.063765038            2 
  125000    1.0571635   -4.3242528    86.961372  0.057974248  0.063653914            2 
  126000    1.0480671   -4.3217601    87.611637  0.057944204  0.063545487            2 
  127000    1.0843243   -4.3322602    88.134782  0.057831221  0.063437036            3 
  128000    1.0688124   -4.3186119    88.812913  0.057820907  0.063333581            4 
  129000    1.0588794   -4.3265426    89.241889  0.057649799  0.063222558            3 
  130000     1.066451   -4.3415493    90.127115  0.057773791  0.063112276            2 
  131000    1.0693699   -4.3700716    90.323512  0.057457704  0.063006347            3 
  132000    1.0404852   -4.3261618    90.732532  0.057280638  0.062892837            2 
  133000    1.0560984   -4.3559338    91.470527   0.05731236   0.06277458            2 
  134000    1.0478957   -4.3777332     91.68104  0.057015572  0.062659537            3 
  135000    1.0548636   -4.3369677    93.049969  0.057438252  0.062541686            2 
  136000    1.0182767   -4.3252525    93.399835  0.057230291  0.062428827            3 
  137000    1.0662981   -4.3718348    93.808746  0.057061281  0.062310578            2 
  138000    1.0566195   -4.3872193    94.080333  0.056811795  0.062189393            2 
  139000    1.0349997   -4.3572762    94.975405  0.056939691  0.062072755            5 
  140000    1.0571597   -4.3640778    95.858867  0.057058849  0.061954822            2 
  141000    1.0245768   -4.3901754    96.197166  0.056854117  0.061842489            4 
  142000    1.0395669   -4.3879433    96.423861  0.056586773  0.061729759            2 
  143000    1.0416505   -4.3579027    97.730022  0.056952227  0.061620398            3 
  144000    1.0315632   -4.3749697    98.177913  0.056815922  0.061517128            2 
  145000    1.0467979   -4.3953464    98.447508  0.056579027   0.06140685            2 
  146000    1.0473747   -4.3634481    99.317282  0.056687946  0.061294344            2 
  147000    1.0315961   -4.4051834     99.90159  0.056633554  0.061184481            4 
  148000    1.0400723    -4.357348    100.96737  0.056850994  0.061084631            4 
  149000    1.0250696    -4.383522    101.50013  0.056767413  0.060991173            2 
  150000    1.0496039   -4.3877016    101.81924  0.056566244  0.060889414            5 
  151000    1.0297589   -4.4048196     102.2606  0.056435207  0.060785838            3 
  152000    1.0253606   -4.4141207    102.71852  0.056314976   0.06067994            6 
  153000    1.0087083   -4.3910363    102.70504  0.055939562  0.060568245            4 
  154000    1.0174478   -4.3900591    103.79998  0.056168821  0.060461111            3 
  155000    1.0277695   -4.4186561    103.63311  0.055716728  0.060352369            4 
  156000   0.99089783   -4.4230796    104.96516  0.056071131  0.060245056            2 
  157000    1.0204837   -4.4087094    105.42819   0.05595976  0.060139465            2 
  158000    1.0140916   -4.4195228    106.15924  0.055991162  0.060033251            6 
  159000     1.016117    -4.414074    107.15873  0.056162855  0.059927413            2 
  160000    1.0273552   -4.4078655    106.82738   0.05563926  0.059821542            2 
  161000   0.99524055   -4.4205779    107.48083    0.0556319  0.059716633            3 
  162000    1.0126664   -4.4326505    107.89286  0.055500442  0.059614461            2 
  163000    0.9992281   -4.4392453    108.77929  0.055613135  0.059511668            4 
  164000    1.0194935   -4.4299803    108.51308   0.05513876  0.059404796            3 
  165000   0.99746754   -4.4362111    109.64181  0.055374651  0.059297891            3 
  166000   0.99616849   -4.4104724    110.78195  0.055613431  0.059198136            5 
  167000    1.0057418   -4.4368739    111.07826  0.055428272  0.059098216            5 
  168000    1.0129643   -4.4507953    111.28925  0.055203002  0.059000751            1 
  169000    1.0123241    -4.481503    112.04117  0.055247127  0.058897339            2 
  170000   0.99246089   -4.4484181    112.54033  0.055166826  0.058797875            2 
  171000   0.98893762   -4.4902311    112.31536  0.054734581  0.058694008            3 
  172000    0.9921741   -4.4451023    113.28662   0.05488693  0.058589048            5 
  173000   0.99669091   -4.4708556    113.42639  0.054636987  0.058486267            3 
  174000    1.0055521   -4.4593187    114.40627  0.054792273  0.058380756            3 
  175000    0.9834219   -4.4928717    114.64334  0.054592066   0.05827612            3 
  176000   0.99050216   -4.5055748    115.32566  0.054604952  0.058174116            4 
  177000   0.99307008   -4.4789303    115.38095  0.054322481  0.058067838            2 
  178000   0.97598073   -4.4900713    115.55721  0.054099819  0.057961313            3 
  179000   0.98502462   -4.4923764    116.66461  0.054313134  0.057850947            4 
  180000   0.98899396   -4.4633288    117.01447  0.054173365  0.057738501            2 
  181000    1.0106034   -4.4643928    117.26636  0.053990035  0.057630165            3 
  182000   0.97888204   -4.4864609    118.03072  0.054043371   0.05752419            3 
  183000   0.96357714   -4.4965088    118.69015  0.054048339  0.057421479            1 
  184000   0.96985647   -4.4815974    118.95723  0.053875558  0.057315007            3 
  185000   0.97566443   -4.4992642    119.08498  0.053641883  0.057207695            3 
  186000   0.98596543   -4.4972704    119.87218  0.053706173  0.057100213            2 
  187000    0.9686112   -4.4854872    120.85904  0.053858753  0.056997068            6 
  188000   0.96067846   -4.4953248    121.69391  0.053942337  0.056899149            3 
  189000   0.98591609   -4.5255912    121.76491   0.05368823   0.05680225            4 
  190000   0.97784693   -4.4970036    121.87572  0.053454264  0.056700346            4 
  191000   0.93734377   -4.5245545    122.19388  0.053313211  0.056597114            2 
  192000   0.97912842   -4.5226875    123.01223  0.053390723  0.056493547            3 
  193000   0.95171514   -4.5020356    123.57012  0.053354975  0.056391186            2 
  194000   0.95799252   -4.4775395    123.74678  0.053155833  0.056286575            2 
  195000   0.94098899   -4.5448603    123.96252  0.052975434   0.05617989            4 
  196000   0.95934267   -4.5547072    124.26826  0.052835146  0.056068574            5 
  197000   0.98084248   -4.5313868    124.82875  0.052804038  0.055958918            3 
  198000   0.94702532   -4.5413112    125.07154  0.052639538   0.05584703            2 
  199000   0.94699209   -4.5262333    125.10599  0.052389445  0.055733509            5 
  200000   0.93647774   -4.5678759    125.43673  0.052265302  0.055618259            5 
  201000    0.9582298   -4.5348225    126.32633  0.052374098  0.055504222            2 
  202000   0.93649707   -4.5314533    126.52441  0.052196538   0.05539462            2 
  203000   0.94590776    -4.554927    127.01698  0.052141619   0.05528066            2 
  204000   0.93520182   -4.5429069    126.82712  0.051808462    0.0551641            2 
  205000   0.94797924   -4.5064666    127.88286  0.051984901  0.055049577            4 
  206000   0.93848875   -4.5501227    127.80245  0.051700021  0.054937171            3 
  207000   0.92851286   -4.5681806    128.07897  0.051561581  0.054824512            2 
  208000   0.94282031   -4.5461031    129.12796   0.05173396  0.054709667            3 
  209000   0.93884745   -4.5831597    128.91389  0.051401072  0.054597522            3 
  210000   0.93270944   -4.5661861    129.98487  0.051581297  0.054486365            2 
  211000   0.93170654   -4.5855806     130.1791  0.051413545  0.054376126            4 
  212000   0.93350433   -4.5823908    130.98341  0.051487189  0.054267143            3 
  213000   0.92839553   -4.5782918    131.19926  0.051329913  0.054156463            8 
  214000   0.92976063    -4.547521    132.20625  0.051482184  0.054050146            2 
  215000   0.92547895   -4.6244136    131.66432  0.051032682  0.053943075            5 
  216000   0.92190155   -4.5748819    132.38092  0.051072887   0.05383643            6 
  217000   0.92280937   -4.5832042     132.4608  0.050868204    0.0537272            3 
  218000   0.92668539   -4.6019145    132.34489  0.050590555  0.053615743            3 
  219000   0.90385993   -4.5909147    133.18018  0.050677389  0.053504188            8 
  220000   0.92771997   -4.5851451    134.00729  0.050760336  0.053393582            3 
  221000   0.92786059   -4.5933435    133.98058  0.050520582  0.053284531            2 
  222000   0.90847237   -4.6071002     134.0081  0.050303341   0.05317434            2 
  223000   0.91683327   -4.5866826    134.72203  0.050344557  0.053063714            2 
  224000   0.92838454   -4.6221946    135.18353   0.05029149  0.052951553            3 
  225000   0.90491612   -4.5780975    135.25394  0.050094053  0.052839349            3 
  226000   0.89315548    -4.602834     135.7696  0.050062537  0.052724553            5 
  227000   0.89142912   -4.6215032    135.90796  0.049892791  0.052610696            7 
  228000   0.90486695   -4.6244849    136.00183  0.049708271  0.052495351            4 
  229000   0.91220897   -4.5991275    136.22144  0.049571121  0.052382122            3 
  230000   0.88421869   -4.6290014    136.87444  0.049592187  0.052268106            6 
  231000   0.86919541    -4.606132    137.49667  0.049601972  0.052156979            4 
  232000   0.90385437   -4.5929909    138.24745  0.049657848  0.052047151            3 
  233000   0.89363119   -4.6355287    137.67038  0.049238332  0.051934548            9 
  234000   0.87727245   -4.6454178     138.8344  0.049442452  0.051821911            6 
  235000   0.90724425   -4.6578709    138.59131  0.049145854  0.051710785            5 
  236000   0.89669388   -4.6218257    139.41046  0.049226856  0.051599603            5 
  237000   0.91795383   -4.6205608    139.25487  0.048964442  0.051489624            6 
  238000   0.88397719   -4.6389003    139.56273    0.0488665  0.051378477            3 
  239000   0.88598308   -4.6887736    139.31543  0.048575811  0.051265164            5 
  240000    0.8760565   -4.6925627    140.08091  0.048639204   0.05115132            4 
  241000   0.88758962   -4.6699785    140.56399  0.048604422  0.051038971            2 
  242000   0.89244935   -4.6388343    141.08723  0.048583758   0.05092701            8 
  243000   0.86140117   -4.6594613    140.69099   0.04824794   0.05081285            5 
  244000   0.89147239   -4.6575533    141.62669  0.048369772  0.050699894            6 
  245000   0.88032229   -4.6363843    142.16426  0.048355191  0.050588886            2 
  246000   0.87864915   -4.6951139    142.00317  0.048104056  0.050477591            3 
  247000   0.87310991    -4.654479    142.21185  0.047979707  0.050365271            3 
  248000   0.86384683   -4.6844117    143.16108    0.0481052  0.050254648            3 
  249000   0.86616522   -4.6646053    142.79018  0.047787879   0.05014462            3 
  250000   0.87631999   -4.6646298    143.27681  0.047758936  0.050034348            5 
  251000   0.87076051     -4.69114    142.25577   0.04722967  0.049921485            4 
  252000   0.87657491   -4.6894382    143.25766  0.047373564  0.049808236            2 
  253000   0.84498575   -4.6879011    143.70811  0.047334686  0.049696426            4 
  254000    0.8622197   -4.6800542    143.98405  0.047238861  0.049584032            5 
  255000   0.85523477   -4.6963737    144.58142  0.047248831   0.04947223            6 
  256000   0.85597787   -4.6825174    144.94701  0.047183273  0.049360096            4 
  257000   0.85380979   -4.7048786    145.48738  0.047174895  0.049248169           11 
  258000   0.86027214   -4.7061441    145.79401  0.047091089  0.049138015            3 
  259000   0.88561683   -4.7494289    145.25871  0.046737037  0.049026836            4 
  260000   0.86335933   -4.7340046    145.69476  0.046697037  0.048917606            6 
  261000   0.86681403   -4.7303578    146.53841  0.046787486  0.048808824            5 
  262000   0.83735851   -4.7104971    147.44371  0.046896856   0.04870177            2 
  263000    0.8624883   -4.7185423    147.13874  0.046621907  0.048594348            5 
  264000   0.84509363   -4.7590321     147.3679  0.046517644  0.048487047            4 
  265000   0.83502147   -4.7451113    147.83136  0.046487848  0.048378604            8 
  266000   0.82877263    -4.731929    148.09142  0.046394554  0.048271309            4 
  267000   0.83571444    -4.732963    148.58589   0.04637512  0.048163476            3 
  268000   0.84699671   -4.7627365    148.23116  0.046091778  0.048055912            4 
  269000   0.82643252   -4.7435162    148.19494  0.045909212  0.047946775            4 
  270000   0.83970695   -4.7436089    148.54888   0.04584842  0.047838028            5 
  271000   0.84185159   -4.7551973    149.24594  0.045893585  0.047730667            3 
  272000   0.82029649   -4.7412573    148.94956  0.045634056  0.047620597            6 
  273000   0.84448326   -4.7251829    150.12283  0.045825039  0.047512825            5 
  274000   0.83331212   -4.7681691    149.66743   0.04551929  0.047404557            4 
  275000   0.84904356   -4.7764307    149.81148  0.045397418  0.047295851            5 
  276000   0.84082736   -4.7722626     150.3636  0.045399637  0.047186365            6 
  277000   0.82410924   -4.7747092    149.80575  0.045067914  0.047077434            7 
  278000   0.80915527   -4.7459233    150.61854  0.045149443  0.046968112            5 
  279000   0.82618893   -4.7364941    150.53711  0.044963296  0.046858711            4 
  280000   0.83690354   -4.7644695    150.65102  0.044836612  0.046749634            7 
  281000   0.81625282   -4.7767053    151.09931  0.044809997  0.046639398            4 
  282000   0.82634425   -4.7798874    150.94233  0.044604707  0.046528099            4 
  283000   0.81212113   -4.7687558    151.80017  0.044699698  0.046415475            6 
  284000   0.83176244   -4.8004488     151.5081  0.044456602  0.046305185            6 
  285000   0.79485415   -4.7803546    151.92437  0.044422329   0.04619548            6 
  286000   0.80329412   -4.8006525    151.71479  0.044205941  0.046085253            3 
  287000   0.80486627   -4.8084478    152.14716  0.044177455  0.045976146            4 
  288000   0.81985782   -4.7915225    152.82537  0.044220303  0.045867886            4 
  289000   0.78825962   -4.8147385    152.76181  0.044048965  0.045759798            3 
  290000   0.82692511   -4.7802739    153.55634  0.044125386  0.045652094            3 
  291000    0.8059202   -4.7934996    152.88917  0.043782694  0.045543551           10 
  292000   0.79877452   -4.8122635    153.54336  0.043819451  0.045434544            5 
  293000   0.80573585   -4.8367902    153.60106  0.043686307  0.045326724            8 
  294000   0.80546354   -4.8246502    153.93453  0.043632236  0.045219655            7 
  295000    0.7880953   -4.8430588    154.31764  0.043592553  0.045112355            7 
  296000   0.78867329   -4.8413901    154.52237   0.04350292  0.045004643            8 
  297000   0.79648348   -4.8359508    154.22449  0.043272866  0.044897437           16 
  298000   0.80767276   -4.8193018    154.89539  0.043315266  0.044790255            4 
  299000    0.7881123   -4.8183272    155.01931  0.043204935  0.044684336            8 
  300000   0.76926854      -4.8239    155.65702  0.043238062   0.04457866           13 
  301000   0.79745425   -4.8526772    155.31025  0.042998408  0.044472518            5 
  302000    0.7674043   -4.8248887    155.59495  0.042934588  0.044366465            5 
  303000   0.78666897   -4.8469249    155.63746  0.042804583  0.044259795           11 
  304000   0.78238623    -4.847766     155.7017  0.042681388   0.04415312            8 
  305000   0.78644413   -4.8400835    155.67464  0.042534055  0.044047928            9 
  306000    0.7990158    -4.866271    156.30943  0.042567926  0.043941506            5 
  307000   0.76925078   -4.8788543    156.42726  0.042461254  0.043836411           15 
  308000   0.77465905   -4.8470793    156.56035  0.042359402  0.043732606            4 
  309000   0.76476337   -4.8769351      157.304  0.042422871  0.043629788            2 
  310000   0.76472253   -4.8564948    157.25071  0.042271695  0.043527325            9 
  311000   0.76921571   -4.8665363    157.62977  0.042237345  0.043425617            5 
  312000   0.79035555   -4.8644975    157.73648  0.042130469  0.043323527            4 
  313000   0.76290678   -4.8807195    157.61833  0.041964412  0.043221368            6 
  314000   0.76629002   -4.8803252    158.13451  0.041967758  0.043118616            6 
  315000   0.77331972   -4.8677391    158.06225  0.041815409  0.043015607           10 
  316000   0.76367694   -4.9203792    157.80562  0.041615406  0.042911926            7 
  317000   0.75756475   -4.8878587    158.67114  0.041711657   0.04280774            7 
  318000    0.7535947    -4.881027    157.89902   0.04137815  0.042703546            9 
  319000   0.75813108   -4.9004101     158.0201  0.041280067  0.042598769            4 
  320000   0.75695837   -4.9054434    157.91201   0.04112292  0.042494066            6 
  321000   0.74871846   -4.9264425    158.70223  0.041199955  0.042389873            7 
  322000   0.74600027   -4.9030732    158.80057  0.041097456  0.042286653           15 
  323000   0.73412906   -4.9020346    158.83676  0.040979556   0.04218299            6 
  324000   0.74208132   -4.9119457    158.41736  0.040745207  0.042078544            4 
  325000    0.7385645   -4.9077816    159.16308  0.040811046  0.041973927            5 
  326000   0.74864815   -4.9423944    158.97565  0.040637948  0.041869803            4 
  327000   0.76668685    -4.949463    158.91822  0.040499038  0.041766297           12 
  328000   0.74337063   -4.9133781     159.4149  0.040501753  0.041662614           11 
  329000   0.74849617   -4.9098388    159.81964  0.040481166  0.041559302            2 
  330000    0.7362059   -4.9081908    160.18019  0.040449543  0.041456461            5 
  331000   0.72906192   -4.9548712    159.87691  0.040250984  0.041353508           12 
  332000   0.73836257   -4.9267322    160.42804  0.040268081  0.041250147            8 
  333000   0.74321201   -4.9518422    160.22382  0.040096051  0.041148575            6 
  334000   0.73923424   -4.9285028    161.04769  0.040181558  0.041046771            7 
  335000   0.73709167   -4.9417873    160.50763  0.039927272  0.040944217           11 
  336000   0.73187318   -4.9513534    160.47051  0.039799234  0.040842006           10 
  337000   0.72965297   -4.9816084    160.48855  0.039685595  0.040739995            6 
  338000   0.73218532   -4.9753277    161.33306  0.039776394  0.040637544            5 
  339000    0.7318085   -4.9864693    160.57781  0.039473405   0.04053408            7 
  340000   0.72455316   -4.9815454    161.08867  0.039482518  0.040431811            8 
  341000   0.72559473   -4.9652641    161.10208  0.039370009  0.040330284            8 
  342000   0.72766759   -4.9983585    161.01107  0.039232717  0.040228053            7 
  343000   0.73486662   -4.9782144    161.16228  0.039155072  0.040126864            5 
  344000   0.70987614   -4.9703015    161.90264  0.039220602    0.0400262            4 
  345000   0.72492287   -4.9562391    161.86476  0.039097769  0.039926367            7 
  346000   0.71697205   -4.9714568     162.0892  0.039038824  0.039826688            8 
  347000   0.72564829   -4.9774133    162.25046  0.038965048  0.039727464           16 
  348000   0.71209202    -4.984009    162.10247   0.03881764  0.039628709            9 
  349000   0.73357357   -5.0334847    162.13646  0.038714532   0.03952865            6 
  350000   0.71443626     -4.99645    162.43955  0.038676083  0.039428653            6 
  351000   0.71584962   -5.0185588    162.10367  0.038486151  0.039327996           11 
  352000   0.70169391   -5.0115527    163.06194  0.038603679  0.039228175            4 
  353000   0.69814738   -5.0238172    162.55743   0.03837522  0.039129035           11 
  354000    0.7131913   -5.0266627    163.12784  0.038401091  0.039030184           16 
  355000   0.70972693   -5.0203944    163.17822  0.038304747  0.038931933            9 
  356000   0.70270071   -5.0181122    163.35346  0.038238171  0.038833984            4 
  357000    0.7015089   -5.0217015    163.18833  0.038092513  0.038735509            5 
  358000   0.68689233   -5.0526444    163.21693  0.037992767  0.038637063           14 
  359000   0.70883732   -5.0295124    162.84444  0.037800474  0.038538894            9 
  360000   0.69900946   -5.0477413    162.72448  0.037667704  0.038440878           19 
  361000   0.70336845   -5.0350253    163.55127  0.037754217  0.038342089            6 
  362000   0.68118253   -5.0339854    163.09704  0.037545358  0.038243824            4 
  363000   0.69032606    -5.037314    163.76942  0.037596285  0.038145807            9 
  364000    0.7033913   -5.0659597     163.5304  0.037438279  0.038048684           10 
  365000   0.71347322   -5.0529637    163.72387   0.03737988    0.0379517           10 
  366000    0.6819965   -5.0703429     163.8317  0.037302299  0.037854676           18 
  367000   0.67659734   -5.0413331    164.10601  0.037262945  0.037758003            6 
  368000   0.69310652   -5.0384011     164.0624  0.037151812  0.037662196           14 
  369000   0.67608478   -5.0535467     164.3768  0.037122131  0.037566326           11 
  370000   0.67344896   -5.0657331    164.39001  0.037024776  0.037471486            4 
  371000   0.66649971   -5.0482076    165.09957  0.037084361  0.037377235           12 
  372000   0.67139945   -5.0577467    164.96966  0.036955569  0.037283276            7 
  373000    0.6742298   -5.0916968    164.63567  0.036781875  0.037189431           19 
  374000   0.65769531   -5.0919516    165.30161  0.036831909  0.037095336           10 
  375000   0.66673089   -5.0633878     165.0306  0.036673467  0.037001218            7 
  376000   0.66746925   -5.0777798    164.86129  0.036538406  0.036907683            7 
  377000   0.68068502   -5.1026839    165.19022  0.036514195  0.036813896            8 
  378000   0.65750489    -5.101116    165.08709  0.036394861  0.036720163            9 
  379000   0.65808211   -5.1173317    165.45505  0.036379738  0.036626528           11 
  380000   0.66147443     -5.12612    165.20426  0.036229004  0.036533287            6 
  381000    0.6587598   -5.0953745    165.14614  0.036121203  0.036439667            7 
  382000   0.66382246   -5.1167231    165.29565  0.036059261  0.036346715            9 
  383000   0.65668158   -5.1148648    165.81635  0.036078405  0.036254183            7 
  384000    0.6500724   -5.1104628      165.623  0.035942492  0.036161939            8 
  385000   0.65781655   -5.1222208     165.5071  0.035824048  0.036070871           16 
  386000   0.64368451   -5.1221312    165.46322  0.035721765  0.035978616            7 
  387000   0.66177932   -5.1261872    166.20515  0.035789224  0.035887113            5 
  388000   0.64986132   -5.1540803    165.84659  0.035619972  0.035796009           13 
  389000    0.6433755   -5.1261624    166.38297   0.03564331  0.035704892           13 
  390000   0.64328398   -5.1563229    166.41808   0.03555942  0.035614005           14 
  391000   0.63499879   -5.1429593    166.39578  0.035463721  0.035523518           23 
  392000   0.65190967   -5.1480875    166.38399  0.035370746  0.035432908           16 
  393000   0.65976916   -5.1383723    166.53513  0.035312792   0.03534218           14 
  394000   0.62918068    -5.134501    166.24802   0.03516244  0.035252195           16 
  395000    0.6390882   -5.1454789    166.10205  0.035042627  0.035161719           17 
  396000   0.63427271   -5.1646899    166.22207  0.034979391  0.035071224            9 
  397000   0.62702749   -5.1544937    166.27705  0.034902823  0.034980969            7 
  398000   0.63538572   -5.1451425    166.50751  0.034863381  0.034891237            7 
  399000   0.62550662   -5.1689418    166.48825  0.034771982  0.034801505            9 
  400000   0.62094373   -5.1886405    167.00804  0.034793341  0.034711962            9 
  401000    0.6256086   -5.1700239    166.46007  0.034592699  0.034622247           12 
  402000   0.63293932   -5.1625178    166.83274  0.034583901  0.034532689           16 
  403000   0.61006992   -5.1851254    166.19998  0.034367242  0.034443036           14 
  404000   0.61703681   -5.1721543    166.51473  0.034347097  0.034352935            8 
  405000    0.6113892   -5.2062948    166.99955  0.034362048  0.034263987            6 
  406000   0.62146511   -5.1844504     166.7153  0.034219067  0.034175486            7 
  407000   0.61187651   -5.1675389    166.64489  0.034120576  0.034087065           13 
  408000   0.61111106   -5.1823107    167.39529  0.034190214  0.033998975           18 
  409000   0.62550157   -5.1745626     167.2065  0.034068155  0.033910791            7 
  410000   0.62116793   -5.1940422    166.97248  0.033937497  0.033822646            8 
  411000   0.60160102   -5.2057633    166.45439  0.033749876  0.033734158            5 
  412000   0.60169583    -5.201676    166.81343   0.03374058  0.033645851           12 
  413000   0.60730423   -5.2145314    166.80474  0.033657131  0.033557374            8 
  414000   0.59950554    -5.224853    167.09978  0.033635222  0.033469251           10 
  415000   0.60488573   -5.2006355    167.23692  0.033581712  0.033382003            7 
  416000   0.59952288   -5.2171575    167.02398  0.033458329   0.03329467           14 
  417000   0.59638049   -5.2282057    167.11163   0.03339561  0.033207219           17 
  418000   0.61126885   -5.2337559    167.21509  0.033336341  0.033119951            5 
  419000   0.58789614    -5.253673    166.59703  0.033133855  0.033032728            8 
  420000   0.60995163   -5.2411932    167.43749  0.033221725  0.032945201            8 
  421000   0.58949844   -5.2406185    167.11079  0.033078146  0.032858511           20 
  422000   0.59325281   -5.2533331    167.29845  0.033036818  0.032771971           14 
  423000   0.59071243   -5.2536145    167.65486  0.033028932  0.032685515            9 
  424000   0.59521677   -5.2425608    167.38834  0.032898652  0.032599707           20 
  425000   0.59010129   -5.2572071    167.03625  0.032752205  0.032513565           17 
  426000   0.59196402    -5.269456    167.54411  0.032774669   0.03242792           11 
  427000    0.5902199   -5.2771252    167.45491  0.032680506  0.032342547           20 
  428000   0.58554402   -5.2687235    167.51305  0.032615469   0.03225703           12 
  429000   0.57922798   -5.2692551    167.31546  0.032501061  0.032171529           12 
  430000   0.57845564   -5.2721911    167.45599   0.03245271   0.03208653           19 
  431000   0.58122064   -5.2741311    167.34962  0.032356849  0.032001552           18 
  432000   0.57297095   -5.3191151    167.51592  0.032314027  0.031916795           20 
  433000   0.58631079   -5.2842633     167.8112  0.032296228  0.031832283           12 
  434000   0.59010557   -5.2764058    167.94479  0.032247464  0.031748332           14 
  435000   0.57385781   -5.2851269    168.46962  0.032273873  0.031665075           11 
  436000   0.57404871   -5.2838059    167.83849  0.032079221  0.031581923           24 
  437000   0.56251437   -5.2912305    168.06501   0.03204901  0.031498824           19 
  438000   0.56617384   -5.2839644    168.12208  0.031986697  0.031416289           26 
  439000   0.57688836   -5.3059894    168.23738  0.031935721  0.031333663           31 
  440000   0.57030797   -5.3034025    167.92508  0.031803992  0.031250947           43 
  441000   0.56139246   -5.3077898    167.65624  0.031681073  0.031168184           12 
  442000   0.56144738   -5.3103361    167.68462  0.031614748  0.031085676            9 
  443000   0.55054747   -5.3197629    167.82679  0.031570126  0.031003591           13 
  444000   0.55158169   -5.3373847    167.56904  0.031450646  0.030921533           12 
  445000   0.55095088   -5.3305559    167.37641  0.031343897  0.030839216           11 
  446000    0.5661149   -5.3355561    167.55597  0.031307169   0.03075675           33 
  447000   0.55459899   -5.3507464    167.97311  0.031314898  0.030674577           24 
  448000   0.54707374   -5.3411324    167.48387  0.031153994  0.030592479           18 
  449000   0.54914221   -5.3357959    167.68193  0.031121369  0.030510719           13 
  450000   0.55758985     -5.34387    167.28583  0.030978858  0.030428749           23 
  451000   0.53147314    -5.358574    167.79092  0.031003496  0.030346822           10 
  452000   0.54863282   -5.3568215    167.59788  0.030899315    0.0302652           14 
  453000   0.53969055   -5.3485281    167.38041  0.030791099  0.030183558           31 
  454000   0.54245908   -5.3475396    167.71571  0.030784822   0.03010227           14 
  455000   0.55303676   -5.3643647    167.39067  0.030657632  0.030021198           17 
  456000   0.53708784   -5.3602722    167.74852  0.030655796  0.029940332           26 
  457000   0.53650802   -5.3813763    167.81288  0.030600451  0.029859467           28 
  458000   0.53876801   -5.3852691    167.40378  0.030459203  0.029778791           21 
  459000    0.5352394   -5.3749082    167.80154  0.030465058  0.029698474           30 
  460000   0.52311221   -5.3872957    167.72352  0.030384696  0.029618216           17 
  461000   0.54490356   -5.3962292    167.39613  0.030259603  0.029538248           49 
  462000   0.52016614   -5.3964625    167.56275   0.03022416  0.029458343           61 
  463000   0.52882103   -5.3614864    167.72086  0.030187339   0.02937877           25 
  464000   0.53017826   -5.3924305    167.75222  0.030127913  0.029299466           30 
  465000   0.51551932   -5.3770942    167.41257  0.030002253  0.029220277           66 
  466000   0.52782445   -5.4092902    167.61055  0.029973275   0.02914109           60 
  467000   0.51107215   -5.4045511    167.45624  0.029881556  0.029062234           36 
  468000   0.53198779   -5.4058395    167.51244  0.029827714  0.028983555           15 
  469000   0.52437237   -5.4019283    166.93779   0.02966201  0.028904768           21 
  470000   0.51841432   -5.4099142    167.49171  0.029697112  0.028825822           18 
  471000    0.5249253   -5.4177477    167.36605  0.029611828  0.028747205           27 
  472000   0.51247269   -5.4418165    167.09126  0.029500575  0.028668464           25 
  473000   0.50820837   -5.4385351    167.03577   0.02942843  0.028590059           19 
  474000   0.51132666   -5.4166711    167.23508  0.029401385  0.028511593           35 
  475000   0.51502862   -5.4219453    166.91345  0.029283061  0.028433384           14 
  476000     0.514341   -5.4504759    167.41433  0.029309232  0.028355484           14 
  477000   0.49637064   -5.4444399    167.30135  0.029228048  0.028277883           23 
  478000   0.50928548   -5.4555164    166.75137  0.029071019  0.028200265           12 
  479000   0.49982531   -5.4513117    167.13653  0.029077337  0.028122924           14 
  480000   0.49660712   -5.4607022    167.49173  0.029078426  0.028045848           18 
  481000   0.50857483   -5.4633221     167.0633  0.028943746  0.027968649           63 
  482000   0.49999102   -5.4698791    167.00011  0.028872771  0.027891437           44 
  483000   0.49761129   -5.4754854    166.73819  0.028767803  0.027814267           44 
  484000   0.50072366   -5.4506156    166.62448  0.028688788  0.027737204           48 
  485000   0.49874553   -5.4727643    166.73618  0.028648829  0.027660492           83 
  486000   0.49082984   -5.4728554    166.89963  0.028617906  0.027584133           76 
  487000   0.48720449   -5.4605017    166.99435  0.028575352  0.027508024           95 
  488000   0.48677481   -5.4894358    166.62264  0.028453319    0.0274319          169 
  489000   0.49067521   -5.4768284    166.91726  0.028445341  0.027355983          164 
  490000   0.49465998   -5.4988289    166.58096  0.028330095  0.027280241          107 
  491000   0.47577384   -5.4998144    166.92407   0.02833063  0.027204818          132 
  492000   0.47959128   -5.5088732    166.72617  0.028239528  0.027129409           67 
  493000   0.48625725   -5.5006551    166.68785   0.02817577  0.027054049          104 
  494000    0.4868005   -5.4836441    166.79123  0.028136172  0.026978822          143 
  495000   0.47691079   -5.4945618     166.7758  0.028076735  0.026904016          148 
  496000   0.46182199   -5.5241781    166.43446   0.02796278   0.02682949          109 
  497000   0.47392895   -5.5052045    166.30692  0.027885131  0.026755232          185 
  498000   0.47460596   -5.5208401    166.31583  0.027830628  0.026680994          142 
  499000   0.47288622   -5.5156336    166.66374  0.027832955  0.026607155          140 
  500000   0.46057916   -5.5360051    166.54956   0.02775826  0.026533461          125 
  501000   0.46234298   -5.5348279    166.62611  0.027715587  0.026459888           90 
  502000   0.46552984   -5.5285516    166.92305  0.027709669  0.026386542           38 
  503000   0.47475702   -5.5312683    166.57688   0.02759723  0.026313243           58 
  504000     0.466447   -5.5347701    166.16362  0.027474144  0.026240055           79 
  505000   0.46044627   -5.5418982    166.03642   0.02739875   0.02616698           67 
  506000   0.45120949     -5.54305    166.18249  0.027368658  0.026094184          104 
  507000   0.47285737    -5.545485    166.15489  0.027310139   0.02602159           69 
  508000   0.44795174   -5.5496292    166.23228  0.027269074  0.025949077           75 
  509000   0.45367309   -5.5609537    166.13911  0.027200247  0.025876892           62 
  510000   0.45046095   -5.5681091     166.0938   0.02713951  0.025804708           29 
  511000   0.45297166   -5.5800919     166.2483  0.027111594  0.025732868           50 
  512000   0.45784795   -5.5709427    166.04038  0.027024801  0.025661142           69 
Loop time of 1271.59 on 48 procs for 500000 steps with 4000 atoms

Performance: 67946.216 tau/day, 393.207 timesteps/s
99.4% CPU use with 48 MPI tasks x no OpenMP threads

MPI task timing breakdown:
Section |  min time  |  avg time  |  max time  |%varavg| %total
---------------------------------------------------------------
Pair    | 83.451     | 91.856     | 97.795     |  31.6 |  7.22
Neigh   | 8.539      | 8.9114     | 9.1771     |   5.4 |  0.70
Comm    | 80.525     | 87.089     | 96.634     |  36.4 |  6.85
Output  | 1.0391     | 1.0399     | 1.0663     |   0.4 |  0.08
Modify  | 1067.7     | 1070.6     | 1073.1     |   4.6 | 84.19
Other   |            | 12.13      |            |       |  0.95

Nlocal:        83.3333 ave          91 max          77 min
Histogram: 4 2 5 10 7 6 8 5 0 1
Nghost:        2319.52 ave        2333 max        2296 min
Histogram: 3 0 4 3 3 3 10 6 7 9
Neighs:        15799.5 ave       17454 max       13579 min
Histogram: 2 1 1 6 7 4 15 6 4 2
FullNghs:      31599.8 ave       34500 max       28855 min
Histogram: 4 1 3 7 12 4 9 5 2 1

Total # of neighbors = 1516790
Ave neighs/atom = 379.19750
Neighbor list builds = 26973
Dangerous builds = 0

#clear
#
#next RN
#
#jump SELF
Total wall time: 0:21:15
