
units lj                  # Use reduced LJ style units
atom_style atomic         # Uncharged point particles
atom_modify map hash      # Needed for indexing of clusters etc
                          # Used to be able to find where atoms are in relation to each other.

lattice fcc 1.0 spacing 1 1 1
Lattice spacing in x,y,z = 1.5874011 1.5874011 1.5874011
region box block 0 10 0 10 0 10 units lattice
create_box 2 box
Created orthogonal box = (0.0000000 0.0000000 0.0000000) to (15.874011 15.874011 15.874011)
  3 by 4 by 4 MPI processor grid
create_atoms 1 box
Created 4000 atoms
  using lattice units in orthogonal box = (0.0000000 0.0000000 0.0000000) to (15.874011 15.874011 15.874011)
  create_atoms CPU = 0.002 seconds
set type 1 type/fraction 2 0.53 78393
Setting atom values ...
  2126 settings made for type/fraction
mass 1 1.0
mass 2 1.0
pair_style lj/cut  3.5
pair_modify tail  yes
pair_coeff 1  1  1.0  1.0   # Intearaction between 1 and 1 set with epsilon = 1 and sigma = 1
pair_coeff 1  2  1.5  0.8
pair_coeff 2  2  0.5  0.88

write_data data.0
System init for write_data ...
Neighbor list info ...
  update every 1 steps, delay 10 steps, check yes
  max neighbors/atom: 2000, page size: 100000
  master list distance cutoff = 3.8
  ghost atom cutoff = 3.8
  binsize = 1.9, bins = 9 9 9
  1 neighbor lists, perpetual/occasional/extra = 1 0 0
  (1) pair lj/cut, perpetual
      attributes: half, newton on
      pair build: half/bin/atomonly/newton
      stencil: half/bin/3d
      bin: standard
WARNING: Not all mixed pair coeffs generated from mixing. Use write_data with 'pair ij' option to store all pair coeffs. (../write_data.cpp:312)


#############################
#   M E L T   S Y S T E M   #
#############################

velocity all create 2.4 8172548 mom yes dist gaussian # Assign velocities
                                                    # Temperature 2.4, random number seed, zero linear momentum
                                                                                # Gaussian distribution

timestep 0.002   # simulation timestep
thermo 1000       # output thermodynamic data every 1000 steps bf 100

# Define a fix  in this case with index 1 applied to all
# particles in the simulation. This fix is for simulations
# in the anisotropic NPT ensemble. Note that we use the MTK
# correction.
fix 1 all npt temp 2.4 2.4 0.1 iso 5.68 5.68 0.5 mtk yes tchain 5 pchain 5 # Use NPT ensemble
                                                                         # Set temperature and pressure and damping
                                                                         # Numbers of thermostats in chain and in barostat
run 10000          # run for 10000 steps
Per MPI rank memory allocation (min/avg/max) = 3.642 | 3.644 | 3.648 Mbytes
Step Temp E_pair E_mol TotEng Press Volume 
       0          2.4   -5.1225569            0   -1.5234569   -4.1795691         4000 
    1000     2.414222    -4.886508            0   -1.2660803    5.5426367    3633.0404 
    2000    2.3992482   -4.7602824            0   -1.1623098    5.9533057    3654.8406 
    3000    2.3845973   -4.8178648            0    -1.241863    5.6392744    3658.3653 
    4000    2.3935218   -4.8053761            0   -1.2159909    5.8692256    3637.6073 
    5000    2.4138271   -4.7460256            0   -1.1261901    5.5107152    3694.2737 
    6000    2.3973951   -4.8385939            0   -1.2434003    5.9217322    3616.7794 
    7000    2.3526463   -4.7993897            0   -1.2713024     5.665572     3655.661 
    8000    2.3931269   -4.8518381            0   -1.2630452    5.4209474    3654.8937 
    9000    2.4198562   -4.7903004            0   -1.1614236     5.501529    3668.7524 
   10000     2.423398   -4.8154435            0   -1.1812552    5.7919901    3637.8054 
Loop time of 2.70772 on 48 procs for 10000 steps with 4000 atoms

Performance: 638175.206 tau/day, 3693.144 timesteps/s
99.6% CPU use with 48 MPI tasks x no OpenMP threads

MPI task timing breakdown:
Section |  min time  |  avg time  |  max time  |%varavg| %total
---------------------------------------------------------------
Pair    | 1.2246     | 1.2801     | 1.3731     |   2.9 | 47.28
Neigh   | 0.21935    | 0.22604    | 0.23469    |   0.8 |  8.35
Comm    | 0.8195     | 0.91895    | 1.0053     |   4.4 | 33.94
Output  | 0.0002694  | 0.00027448 | 0.00034093 |   0.0 |  0.01
Modify  | 0.22399    | 0.26656    | 0.30205    |   3.7 |  9.84
Other   |            | 0.0158     |            |       |  0.58

Nlocal:        83.3333 ave          91 max          73 min
Histogram: 1 2 5 2 4 9 9 7 7 2
Nghost:        1747.98 ave        1789 max        1727 min
Histogram: 6 4 14 9 5 5 3 0 0 2
Neighs:        10496.6 ave       11924 max        9159 min
Histogram: 4 2 7 5 5 8 6 9 1 1

Total # of neighbors = 503839
Ave neighs/atom = 125.95975
Neighbor list builds = 909
Dangerous builds = 223

# Equilibrate just above the melting temperature to avoid step fn in T

fix 1 all npt temp 1.25 1.25 0.1 iso 5.68 5.68 0.5 mtk yes tchain 5 pchain 5
run 2000
Per MPI rank memory allocation (min/avg/max) = 3.644 | 3.646 | 3.650 Mbytes
Step Temp E_pair E_mol TotEng Press Volume 
   10000     2.423398   -4.8154435            0   -1.1812552    5.7919901    3637.8054 
   11000    1.2540953   -6.8617831            0   -4.9811104    5.8711184    2841.0832 
   12000    1.2676194    -6.987964            0   -5.0870104    5.8241984    2814.8331 
Loop time of 0.654514 on 48 procs for 2000 steps with 4000 atoms

Performance: 528025.408 tau/day, 3055.703 timesteps/s
99.6% CPU use with 48 MPI tasks x no OpenMP threads

MPI task timing breakdown:
Section |  min time  |  avg time  |  max time  |%varavg| %total
---------------------------------------------------------------
Pair    | 0.30343    | 0.32454    | 0.34942    |   2.1 | 49.58
Neigh   | 0.040841   | 0.043671   | 0.046658   |   0.6 |  6.67
Comm    | 0.2097     | 0.23581    | 0.25755    |   2.7 | 36.03
Output  | 5.3781e-05 | 5.4958e-05 | 6.994e-05  |   0.0 |  0.01
Modify  | 0.039522   | 0.045421   | 0.051278   |   1.6 |  6.94
Other   |            | 0.00502    |            |       |  0.77

Nlocal:        83.3333 ave          92 max          76 min
Histogram: 2 1 6 10 3 18 5 0 2 1
Nghost:        2084.54 ave        2097 max        2064 min
Histogram: 1 0 6 3 6 5 4 10 3 10
Neighs:        13561.5 ave       15341 max       11924 min
Histogram: 2 3 5 10 4 11 5 3 2 3

Total # of neighbors = 650951
Ave neighs/atom = 162.73775
Neighbor list builds = 142
Dangerous builds = 11

#############################
# L I N E A R  Q U E N C H  #
#############################

# Define solid atoms. This closely follows ten Wolde  Ruiz-Montero and Frenkel  Faraday Discuss  1996  104  93-110
# Compute components of the per-atom q6 vector
compute q6 all orientorder/atom degrees 1 6 components 6 nnn NULL cutoff 1.3 # compute the Q6 parameter.
                                                                             # Use all neighbours within 1.3 unit cell.

# get number of connections
compute coord_number all coord/atom orientorder q6 0.5

# An atom is solid if it has 8 or more connections (of a possible 14)
variable is_solid atom c_coord_number>=8
group solid dynamic all var is_solid    # Must be dynamic to update
dynamic group solid defined

# do clustering
compute cluster solid cluster/atom 1.3 # Create a cluster where all atoms within are solid and max 1.3 units from another member

# define chunks one chunk per cluster
compute clus_chunks solid chunk/atom c_cluster nchunk every compress yes  # Says which atoms are in which chunk

# count the size of each chunk
compute size_chunks solid property/chunk clus_chunks count


# Find the maximum entry in the vector of chunk sizes
variable max_n equal max(c_size_chunks)


# Thermo style which includes this variable
# thermo_style custom step temp pe vol v_max_n

thermo ${N}  # Print the thermo information every 100 steps
thermo 1000  

# Reset the npt fix at a lower temperature (below freezing)
fix 1  all npt temp  ${temp} ${temp}  0.1  iso  5.68  5.68  0.5  mtk yes tchain  5  pchain  5
fix 1  all npt temp  0.45 ${temp}  0.1  iso  5.68  5.68  0.5  mtk yes tchain  5  pchain  5
fix 1  all npt temp  0.45 0.45  0.1  iso  5.68  5.68  0.5  mtk yes tchain  5  pchain  5

dump dmp2 all dcd ${N} traj.dcd
dump dmp2 all dcd 1000 traj.dcd


compute msd all msd com yes
variable twopoint equal c_msd[4]/6/(step*dt+1.0e-6)
fix 9 all vector 10 c_msd[4]
variable fit equal slope(f_9)/6/(10*dt)
thermo_style custom step temp pe c_msd[4] v_twopoint v_fit v_max_n

fix 1 all npt temp 1.25 ${temp} 0.1 iso 5.68 5.68 0.5 mtk yes tchain 5 pchain 5
fix 1 all npt temp 1.25 0.45 0.1 iso 5.68 5.68 0.5 mtk yes tchain 5 pchain 5
run 5000000 # 5000000  # Run for this many steps
Neighbor list info ...
  update every 1 steps, delay 10 steps, check yes
  max neighbors/atom: 2000, page size: 100000
  master list distance cutoff = 3.8
  ghost atom cutoff = 3.8
  binsize = 1.9, bins = 8 8 8
  4 neighbor lists, perpetual/occasional/extra = 1 3 0
  (1) pair lj/cut, perpetual
      attributes: half, newton on
      pair build: half/bin/atomonly/newton
      stencil: half/bin/3d
      bin: standard
  (2) compute orientorder/atom, occasional
      attributes: full, newton on
      pair build: full/bin/atomonly
      stencil: full/bin/3d
      bin: standard
  (3) compute coord/atom, occasional
      attributes: full, newton on
      pair build: full/bin/atomonly
      stencil: full/bin/3d
      bin: standard
  (4) compute cluster/atom, occasional
      attributes: full, newton on
      pair build: full/bin/atomonly
      stencil: full/bin/3d
      bin: standard
Per MPI rank memory allocation (min/avg/max) = 9.842 | 9.846 | 9.851 Mbytes
Step Temp PotEng c_msd[4] v_twopoint v_fit v_max_n 
   12000    1.2676194    -6.987964 8.3954522e-31 5.8301749e-33 8.3333333e+20            3 
   13000    1.2589967   -7.0125762   0.45505527 0.0029170209  0.036895713            1 
   14000    1.2614447   -7.0624803   0.84396179 0.0050235819  0.034094469            1 
   15000    1.2919321   -7.0081351    1.2499428 0.0069441266  0.033596798            3 
   16000    1.2556975   -7.0068746    1.6694993 0.0086953084  0.033705074            2 
   17000    1.2513052   -7.0329513    2.0741581  0.010167442  0.033855321            2 
   18000    1.2577788   -7.0009711    2.4589283  0.011383927  0.033721325            6 
   19000    1.2360499   -6.9875148    2.8410708  0.012460837  0.033523124            1 
   20000     1.247861   -7.0075537    3.2459415  0.013524756  0.033324996            2 
   21000    1.2515757   -7.0321318    3.6167588  0.014352217  0.033231753            2 
   22000    1.2550951   -7.0192764    4.0564238  0.015365241  0.033174071            1 
   23000    1.2464647   -7.0181091    4.3829158  0.015880129  0.033050254            3 
   24000    1.2680167   -7.0310873    4.8265846  0.016758974  0.032967397            3 
   25000     1.229776   -7.0089664    5.2377568  0.017459189  0.032990231            3 
   26000    1.2391641    -7.020327    5.6964577  0.018257877  0.033092229            1 
   27000    1.2278993   -7.0138663    6.1625423  0.019020192  0.033393035            2 
   28000    1.2517322   -7.0289648    6.5138688  0.019386514  0.033543327            2 
   29000     1.219181   -7.0413397    6.8940583  0.019810512  0.033558057            2 
   30000    1.2625137   -7.0855896    7.3260663  0.020350184   0.03360333            2 
   31000     1.268056   -7.0520685    7.7430879  0.020814752  0.033670672            3 
   32000    1.2398352   -6.9949059    8.1206888  0.021147627  0.033720713            2 
   33000    1.2364384   -7.0107852    8.5269164  0.021532617  0.033735837            4 
   34000    1.2491833   -7.0391511    8.8886996  0.021786028  0.033716465            2 
   35000    1.2460504   -7.0001034    9.2974314  0.022136741  0.033647471            4 
   36000    1.2623021   -7.0232335    9.6097974  0.022244901  0.033568382            2 
   37000    1.2488863   -6.9599078    10.043418   0.02262031  0.033520657            2 
   38000    1.2073809   -7.0325502    10.443926  0.022903347  0.033490386            3 
   39000     1.240935   -7.0053786     10.93343   0.02336203  0.033479295            1 
   40000    1.2310831   -6.9861592    11.327645   0.02359926  0.033518415            2 
   41000    1.2345708   -7.0192396    11.727062  0.023835492  0.033536569            7 
   42000    1.2640754    -7.036703    12.106731  0.024021291  0.033546393            4 
   43000      1.26332    -6.977545    12.477262  0.024180739  0.033528237            2 
   44000    1.2228646   -7.0249537    12.851796  0.024340523  0.033504397            1 
   45000    1.2510926   -7.0163219     13.17693  0.024401722  0.033450034            3 
   46000    1.2404803   -7.0596534    13.479325  0.024419067   0.03335692            2 
   47000    1.2229613   -7.0221258    13.909139  0.024661593   0.03327046            1 
   48000    1.2443777   -7.0365614     14.20274  0.024657535  0.033184387            5 
   49000    1.2359242   -7.0460601     14.61715  0.024859098  0.033117449            3 
   50000    1.2056161   -6.9868006    15.056722  0.025094536  0.033047896            1 
   51000    1.2866954    -7.055286    15.267158  0.024946336  0.032959688            2 
   52000    1.2279051   -7.0214375    15.650892  0.025081557  0.032873813            1 
   53000    1.2197277   -7.0258855    16.076893  0.025278133  0.032782618            2 
   54000    1.2467671    -7.090357    16.436546   0.02536504   0.03271631            4 
   55000    1.2327868   -7.0466235     16.94042  0.025667303  0.032681891            1 
   56000    1.2534581    -7.103835    17.261313  0.025686478  0.032662902            3 
   57000    1.2528703   -7.0262442    17.679109  0.025846651  0.032633546            3 
   58000     1.225731   -7.0305145    17.981053  0.025834847  0.032596298            3 
   59000    1.2224414   -7.0058987    18.452664  0.026063084  0.032552861            2 
   60000    1.2668636   -7.0452528    18.818949  0.026137429  0.032527607            4 
   61000    1.2381666   -7.0315443    19.223514   0.02626163  0.032501432            2 
   62000    1.2159853   -6.9933137    19.669105  0.026436969  0.032479901            3 
   63000    1.2388831   -7.0539604    20.039331  0.026507051   0.03246823            5 
   64000    1.2409331   -7.0304766     20.56331  0.026775143  0.032475251            3 
   65000    1.2646667    -7.007522      20.9522  0.026861794  0.032494411            5 
   66000    1.2283004   -7.0249861    21.300107  0.026894074  0.032500878            1 
   67000     1.257031   -7.0449395     21.69083  0.026978644  0.032505377            5 
   68000    1.2730836   -7.0260738    22.026272  0.026992981  0.032495441            1 
   69000    1.2545031   -7.0505211    22.284184  0.026913266  0.032481499            4 
   70000    1.2603859   -7.0754095    22.572377  0.026871878  0.032455198            1 
   71000    1.2457371   -7.0571445    22.816993  0.026780508  0.032411796            1 
   72000    1.2528413   -7.0246732    23.257895   0.02691886  0.032373314            2 
   73000    1.2191362   -7.0446195    23.710198  0.027066436  0.032340829            2 
   74000    1.2341357   -7.0153264    23.957221  0.026978853   0.03230841            2 
   75000     1.272715   -7.0219972    24.260963  0.026956625  0.032263012            5 
   76000    1.2414934   -7.0192428    24.543381  0.026911601  0.032209753            2 
   77000    1.2217275   -7.0651236    24.888633   0.02693575  0.032156142            4 
   78000    1.2320648   -7.1181054    25.246587  0.026972849  0.032106274            1 
   79000    1.2175186   -7.0876179    25.608319  0.027012994  0.032058222            2 
   80000    1.2513885   -7.0615956    26.096546  0.027183901  0.032015455            5 
   81000    1.2515633    -7.056352    26.716491  0.027486101  0.031988285            1 
   82000    1.2222875   -7.0460371    27.082362  0.027522725  0.031974529            2 
   83000    1.2359519   -7.0377503    27.452895  0.027563147  0.031968891            3 
   84000     1.243573   -7.0540556    27.778188  0.027557726  0.031957998            3 
   85000    1.2337434    -7.029877    28.184133  0.027631503  0.031948292            2 
   86000    1.2455692    -7.032276     28.65259  0.027764137  0.031936536            3 
   87000    1.2494401   -7.0557479    29.010448  0.027787786  0.031927321           10 
   88000    1.2711893   -7.0477359    29.221366  0.027671748  0.031916314            5 
   89000    1.2348628    -7.058979     29.75724  0.027862584  0.031907921            3 
   90000    1.2312893   -7.0264705    30.237771  0.027997936  0.031912052            4 
   91000    1.2610163   -7.0232401    30.497805  0.027928393  0.031912099            3 
   92000     1.221965   -7.0946285    30.871777  0.027963566  0.031908189       -1e+20 
   93000    1.2244253   -7.0640284    31.254279  0.028005626  0.031897222            3 
   94000    1.2164341   -7.0408891    31.597328  0.028011816  0.031886139            1 
   95000    1.2187562   -7.0078529    32.000574  0.028070679  0.031871348            1 
   96000    1.2120198   -7.0527958    32.300568  0.028038688  0.031854476            1 
   97000    1.2209123   -7.0439487    32.971588  0.028326106  0.031850773            2 
   98000    1.2419139   -7.1104647    33.237464   0.02826315  0.031854171            1 
   99000    1.2327692   -7.0649936    33.844947  0.028489012  0.031861418            3 
  100000    1.2185884   -7.0391735    34.149987  0.028458322  0.031873697            2 
  101000    1.2277812   -7.0813657    34.697474  0.028628279  0.031887968            1 
  102000    1.2363274   -7.0503493    35.047679  0.028633725  0.031905582            2 
  103000    1.2148786   -7.0684485     35.50258   0.02872377  0.031921996            3 
  104000    1.2221265   -7.1003303    35.968141  0.028820626  0.031935871            2 
  105000    1.2443671   -7.0181489    36.382248    0.0288748  0.031953164            5 
  106000    1.2303711   -7.0847116     36.86517  0.028982051  0.031976742            4 
  107000    1.2196803   -7.0465589    37.431426    0.0291522   0.03200948            2 
  108000    1.2283592   -7.0487661    37.840648  0.029198031  0.032047574            3 
  109000    1.2275889   -7.0843376    38.462882  0.029405873   0.03208856            2 
  110000    1.2668667   -7.0604761    38.898597  0.029468634  0.032135722            2 
  111000    1.2321087   -7.0789378     39.25744  0.029472552  0.032182262            3 
  112000    1.2438054   -7.0743188    39.699295  0.029538166  0.032223765            1 
  113000     1.222174   -6.9920034    40.173446  0.029626435   0.03226412            3 
  114000    1.2436747   -7.0768527    40.395881  0.029529153   0.03229707            3 
  115000    1.2019751   -7.0766238    40.657743  0.029462133  0.032325499            2 
  116000    1.2484575   -7.0483822    41.166935  0.029573948  0.032355491            2 
  117000    1.2371381   -7.0485111    41.550371  0.029594281  0.032383544            2 
  118000    1.2208231   -7.0861952    42.140058  0.029759928  0.032416131            3 
  119000    1.2178498   -7.0214701    42.600353   0.02983218  0.032447843            2 
  120000     1.243257   -7.0860101    42.962481  0.029835056  0.032481082            3 
  121000    1.2470742   -7.0774226     43.41219  0.029898203  0.032508822            2 
  122000    1.2209379   -7.0496303     43.86851  0.029964829  0.032538827            4 
  123000    1.2224908    -7.091239    44.100243  0.029878214  0.032565156            1 
  124000    1.2048299   -7.0634278    44.597413   0.02997138  0.032595359            2 
  125000     1.236012    -7.039358    44.965122  0.029976748  0.032622139            1 
  126000    1.2302006   -7.0471239    45.376097  0.030010646   0.03264696            1 
  127000    1.2598073   -7.0961386     45.61806   0.02993311  0.032669853            1 
  128000    1.2326513   -7.0646271    46.020638  0.029961353  0.032687312            1 
  129000    1.2470115    -7.021445    46.382133  0.029962618  0.032702383            2 
  130000    1.2340399   -7.0934286    46.625605  0.029888208  0.032715076            6 
  131000    1.2084402   -7.1080062    46.902316  0.029836079  0.032726072            2 
  132000    1.1960036   -7.1087836    47.244875   0.02982631  0.032735263            2 
  133000    1.2049092    -7.094283    47.696553  0.029885058  0.032738701            5 
  134000    1.2237464   -7.0934131    48.026779    0.0298674  0.032738924            2 
  135000     1.243024   -7.0145057    48.469598  0.029919505  0.032741346            2 
  136000    1.2249302   -7.0896643    48.789575  0.029895573  0.032747169            1 
  137000    1.2434851   -7.1138636    49.227746  0.029943884  0.032749094            2 
  138000    1.2226643   -7.1101327    49.809258  0.030078054  0.032754571            2 
  139000    1.2262807   -7.0938639    50.321507  0.030168769   0.03276322            1 
  140000    1.2082412   -7.0334381    50.816306  0.030247801  0.032774384            2 
  141000    1.2351562   -7.1232337    50.725599  0.029979668  0.032781227            2 
  142000    1.2296138   -7.0522378    51.138578  0.030010903  0.032783627            2 
  143000    1.2151103    -7.123102    51.409139  0.029958705  0.032783791            3 
  144000    1.2148913   -7.0641604     51.86879  0.030016661  0.032784031            2 
  145000     1.258441   -7.1040676    52.094809  0.029939545  0.032785453            3 
  146000     1.201802   -7.0629792    52.973217  0.030235854  0.032789214            4 
  147000    1.2386112   -7.0576686    53.338509   0.03023725  0.032795927            2 
  148000    1.2571051   -7.0646832    53.594941  0.030177332  0.032799185            5 
  149000    1.2153716   -7.0756171    54.003512  0.030203306  0.032800606            1 
  150000    1.2182976   -7.0467419    54.479521    0.0302664    0.0328014            1 
  151000    1.2280146   -7.0954951    54.514108  0.030085048  0.032801945            6 
  152000    1.2608402   -7.0697379    54.925924  0.030112897  0.032802647            3 
  153000    1.2263106   -7.0650783    55.428544  0.030189839  0.032799327            3 
  154000    1.2545885   -7.0782603     55.78613    0.0301873  0.032799652            3 
  155000    1.2121668   -7.1291194    56.209642  0.030220238  0.032800554            2 
  156000    1.2071246   -7.0619293     56.90809   0.03039962  0.032800683            4 
  157000    1.2411065   -7.0516227    57.291393  0.030409444   0.03280499            3 
  158000    1.2746281   -7.0752057    57.623329  0.030392051  0.032808539            1 
  159000    1.2233667   -7.0503568    58.011659  0.030404433  0.032810687            3 
  160000    1.2271437   -7.0809432    58.409771  0.030421756   0.03281017            3 
  161000    1.2149891   -7.1031174    58.753295  0.030410608  0.032811857            2 
  162000    1.2479712    -7.123204     58.73273   0.03021231  0.032810771            3 
  163000    1.2170598   -7.0694332    59.399023  0.030367599   0.03280989            2 
  164000    1.2258175   -7.0822176    59.871356  0.030422437  0.032809508            1 
  165000    1.2222343   -7.0886687     60.26038  0.030434535  0.032811764            2 
  166000    1.1989938   -7.1034716    60.639062  0.030441296  0.032813552            2 
  167000    1.2097847   -7.0317515    61.012622   0.03044542   0.03281277            2 
  168000    1.2517729   -7.0776459    61.387029  0.030449915  0.032810711            3 
  169000    1.2170194   -7.0997671    61.658954  0.030403823  0.032809247            1 
  170000    1.2078987   -7.1327294    62.129923  0.030455845  0.032807453            1 
  171000    1.2509192   -7.0590528    62.784123  0.030596551  0.032808768            2 
  172000    1.2263581   -7.0920677     63.20203  0.030621139  0.032810222            2 
  173000    1.2265841   -7.1036929    63.552233  0.030612829  0.032813635            4 
  174000    1.2219583   -7.0657319    63.981138  0.030642307  0.032815976            3 
  175000     1.245057    -7.094498    64.224104  0.030582906  0.032817269            1 
  176000    1.2367278    -7.078911    64.551219  0.030564024  0.032817466            3 
  177000    1.2182933   -7.0833038    64.700797  0.030461769  0.032815029            3 
  178000    1.2263492   -7.1042072    65.067125  0.030462137  0.032812656            1 
  179000    1.2140964   -7.0868485    65.402273  0.030447985   0.03280827            2 
  180000     1.226905   -7.0595287    65.505584  0.030326659  0.032801864            2 
  181000    1.2246358   -7.0840421    66.091037  0.030428654  0.032794021            2 
  182000    1.2274158   -7.1135992    66.500499  0.030448946  0.032787621            2 
  183000    1.2092493    -7.080827    66.925095  0.030475909   0.03278003            3 
  184000    1.2154087   -7.0415793     67.56863  0.030601735  0.032775617            2 
  185000    1.2173634   -7.1092023    67.685038  0.030488756  0.032772904            1 
  186000    1.2113319   -7.0815272    68.122565  0.030520862  0.032767538            1 
  187000    1.2351272   -7.0761123    68.964187  0.030732704  0.032765635            2 
  188000    1.2403819    -7.103188    69.146117  0.030649874  0.032765826            1 
  189000    1.2178623   -7.0815508     69.44162  0.030617998   0.03276493            3 
  190000    1.2173775   -7.0941842    70.042139  0.030720236  0.032765109            1 
  191000    1.2327063   -7.0481858     70.68302  0.030839014  0.032767652            3 
  192000    1.2080874   -7.1557049    70.651768   0.03066483  0.032770152            7 
  193000    1.2138554   -7.0824661    71.364339  0.030813618  0.032774134            2 
  194000    1.2346488   -7.0763719    71.953704  0.030907948  0.032777421            2 
  195000    1.2310126   -7.1281486    72.089651  0.030807543  0.032779774            3 
  196000    1.2155305   -7.0947374    72.571853   0.03085538  0.032782238            3 
  197000     1.193853   -7.0928172    72.774982  0.030784679  0.032786354            2 
  198000      1.24532   -7.1405268    73.196581  0.030806642  0.032790241            4 
  199000    1.2180162   -7.1140644    74.003696  0.030989823  0.032794044            4 
  200000     1.235434   -7.1115366    74.398082  0.030999201  0.032798012            2 
  201000    1.2162033   -7.0550402    74.604458  0.030930538  0.032798656            2 
  202000    1.2141017   -7.0571305    74.803492  0.030859526  0.032799252            1 
  203000      1.18478   -7.0880068     75.28639  0.030905743  0.032798694            1 
  204000    1.2317791   -7.1099418    75.429544  0.030812722  0.032798024            4 
  205000    1.2291943   -7.0875472    75.630178  0.030743975   0.03279685            3 
  206000    1.2519703   -7.0877799    76.107947  0.030788004  0.032793152            3 
  207000    1.2052576   -7.1487514    75.943729   0.03057316  0.032785288            3 
  208000    1.2489195   -7.0795492     76.31957  0.030576751  0.032774766            2 
  209000     1.199753   -7.1214458    76.407961  0.030465694  0.032762908            2 
  210000    1.2248956   -7.1094741     77.01846  0.030562881  0.032751426            7 
  211000    1.1959077   -7.1162623    77.176353  0.030480392  0.032740749            2 
  212000    1.2457372   -7.0847659    77.775357  0.030572074  0.032730234            5 
  213000    1.1898589    -7.154816     77.81564  0.030444304  0.032719978            2 
  214000    1.2108184   -7.1424977    78.160504  0.030436333  0.032708665            4 
  215000    1.2254661   -7.1423601    78.512592  0.030431237  0.032695998            1 
  216000      1.24099   -7.0847434    79.282755  0.030587483  0.032684038            1 
  217000    1.2268697    -7.087068      79.4195   0.03049904  0.032673548            2 
  218000    1.1982822   -7.1120298    80.002571  0.030582022  0.032663743            3 
  219000    1.1950385   -7.0577008    80.203491  0.030518832  0.032654751            3 
  220000    1.2247305   -7.1292664    80.494919    0.0304905  0.032643994            2 
  221000    1.2292101    -7.126353    80.970518   0.03053187  0.032633507            2 
  222000    1.2033695   -7.0866088    81.209393  0.030484006  0.032621914            3 
  223000    1.1946644   -7.1237855    81.698665  0.030530144  0.032610704            2 
  224000    1.2108121   -7.1140988    81.435212  0.030295838  0.032596583            3 
  225000    1.2062762   -7.1185193    82.300252  0.030481575  0.032582913            1 
  226000    1.2104172   -7.1570041    82.598854  0.030456804  0.032568755            3 
  227000    1.2425336   -7.0770984    83.034652  0.030482618  0.032556327            1 
  228000    1.2248434   -7.0983516    83.646966  0.030572721  0.032545909            3 
  229000    1.2124471   -7.0548872    84.011845  0.030571996  0.032536337            2 
  230000    1.2284931   -7.1056373    84.375299  0.030570761  0.032525497            2 
  231000     1.202424   -7.0709577    84.797728  0.030590811  0.032514243            1 
  232000    1.2061645   -7.0769599    85.047649  0.030548724  0.032504517            1 
  233000    1.1896036   -7.0914368    85.251605   0.03049056  0.032494054            2 
  234000    1.2121629   -7.1421236    85.252984  0.030360749  0.032480839            4 
  235000     1.243898   -7.1450638    85.752286  0.030408612  0.032466558            2 
  236000    1.2051514    -7.112748    86.128943  0.030412762  0.032453097            1 
  237000    1.2357902   -7.0892459    86.813163  0.030525022  0.032442434            1 
  238000    1.2375551   -7.1523562    86.748886   0.03037426  0.032431414            3 
  239000    1.2369696   -7.1421088    87.452027  0.030492338  0.032419023            3 
  240000    1.1828435   -7.0827809    88.167364  0.030613668  0.032410132            2 
  241000    1.2178187   -7.0806845    88.395599   0.03056556  0.032399604            2 
  242000     1.222004      -7.1227     88.44507  0.030456291  0.032388864            1 
  243000    1.1976451   -7.1154308    88.880721  0.030480357  0.032377081            1 
  244000    1.2070258   -7.0876261    89.098939  0.030429966   0.03236769            1 
  245000    1.1754946   -7.1219901    89.987168   0.03060788   0.03235805            2 
  246000    1.2041795    -7.117916     90.54601  0.030672768   0.03234877            3 
  247000    1.2156507   -7.0973874    90.692827   0.03059812  0.032340679            2 
  248000    1.1947066   -7.1351168    91.068288  0.030600903  0.032331252            2 
  249000    1.2022048   -7.1446508    91.076765  0.030480845  0.032321665            1 
  250000    1.1975207   -7.1255523    91.385509  0.030461836   0.03231137            2 
  251000    1.1865783   -7.1244354     91.49747  0.030377646   0.03230092            2 
  252000    1.2109508   -7.0879916    92.207509  0.030491901  0.032292211            2 
  253000     1.197365   -7.0963595    93.007213  0.030634787  0.032284114            1 
  254000    1.1679911   -7.1471216    92.989416  0.030508338  0.032276441            1 
  255000     1.221069   -7.0984724    93.474831   0.03054733  0.032268513            5 
  256000    1.1926972   -7.1335305    93.648136  0.030484419  0.032259705            3 
  257000     1.169124    -7.075139    94.450489  0.030625969  0.032251248            2 
  258000    1.1996936   -7.0993317    94.414713  0.030495708   0.03224446            4 
  259000    1.2155297   -7.1198088    94.711739  0.030473532  0.032234409            3 
  260000    1.2062566   -7.1641921    95.426827  0.030585521  0.032226713            2 
  261000     1.205903   -7.1144077    95.819223  0.030593621  0.032218564            3 
  262000    1.2390645   -7.1316345    95.777128  0.030463463  0.032208535            2 
  263000     1.199226   -7.1311901    96.322871  0.030520555  0.032198612            6 
  264000    1.1763573   -7.0529916    97.448983  0.030760411  0.032190823            2 
  265000    1.2037416   -7.1364735    97.202365  0.030566781  0.032183715            3 
  266000    1.1993099   -7.1453947    97.498984  0.030544794  0.032176267            2 
  267000    1.1869546   -7.0866009    98.058379  0.030604987  0.032167697            1 
  268000    1.2032979   -7.1097684    98.680144  0.030684124  0.032160613            2 
  269000    1.2046297   -7.1421932     98.73785  0.030587934   0.03215144            3 
  270000    1.2112898   -7.1199464    99.092496  0.030584104  0.032143832            2 
  271000    1.1883727   -7.1231944     99.54627  0.030610784   0.03213547            9 
  272000    1.2239711   -7.0895731    99.836235  0.030587082  0.032126785            1 
  273000    1.2004087   -7.1122168    100.15018  0.030570873  0.032118962            3 
  274000    1.1903435   -7.1277845    100.52606  0.030573619   0.03211065            2 
  275000    1.2006047   -7.1355012    101.02958  0.030615024  0.032104512            2 
  276000     1.214362    -7.120365     101.5223  0.030652868  0.032098967            3 
  277000    1.1917259   -7.1578674     101.6355  0.030576265  0.032093932            2 
  278000    1.2413995   -7.1418296    102.01319  0.030579493  0.032088867            2 
  279000    1.2056717   -7.1367696    101.99622  0.030464821  0.032082133            2 
  280000    1.2215736   -7.1369833    103.00798  0.030657136  0.032075516            2 
  281000    1.2101165   -7.1329783    103.24333  0.030617833  0.032069522            2 
  282000    1.2166076   -7.1302601    103.84782   0.03068789  0.032064091            3 
  283000    1.2136146   -7.0995434    103.95334  0.030610525  0.032058353            5 
  284000    1.2326947   -7.0930713    104.99092  0.030807195  0.032053294            2 
  285000      1.20196   -7.0457405    105.16779  0.030750817  0.032049088            3 
  286000    1.2163505   -7.1417846    105.14241  0.030635902  0.032044885            1 
  287000    1.1949793   -7.0961255    105.73416  0.030700977  0.032040447            2 
  288000    1.1747029   -7.0865191    106.16041  0.030717711  0.032035996            3 
  289000     1.228072   -7.1281103    106.13868  0.030605156  0.032030273            2 
  290000    1.2038362   -7.1254247    106.50158  0.030603903  0.032024032            1 
  291000    1.2054751   -7.1109805    107.02627   0.03064899  0.032018283            5 
  292000    1.1902842   -7.1868821    107.23487  0.030603558  0.032012135            2 
  293000    1.2083925   -7.1592599    107.77691  0.030653275  0.032005353            2 
  294000    1.2076263    -7.115103    108.22117  0.030674935  0.032000716            2 
  295000    1.2166967   -7.1681747    108.70383  0.030707298  0.031997095            3 
  296000    1.2082637   -7.1145584    108.93491  0.030668611  0.031991837            3 
  297000    1.2097156   -7.1660114    108.84056  0.030538878  0.031985946            2 
  298000    1.2024703   -7.1437006    109.21836  0.030542046  0.031978757            2 
  299000    1.1909914   -7.1438953    109.60013  0.030546301  0.031971954            3 
  300000    1.2043233   -7.1665769    110.21234  0.030614539  0.031965157            3 
  301000     1.223052   -7.1543182      110.553  0.030607141   0.03195959            4 
  302000    1.2058872   -7.1083573    111.58261  0.030789903  0.031954259            1 
  303000    1.2053334   -7.1505494    111.42797  0.030645755   0.03194924            3 
  304000    1.1914106   -7.1496959    112.30404  0.030785099  0.031944814            2 
  305000    1.2105384   -7.1427478    112.42334   0.03071676  0.031941618            2 
  306000     1.216674   -7.1531932    112.81331  0.030722578  0.031938205            2 
  307000    1.2127439   -7.1437456    113.39352  0.030779999  0.031935131            3 
  308000    1.2146875   -7.1389203    113.19288  0.030625779  0.031932471            1 
  309000    1.1887623   -7.1178576    114.34446  0.030837232  0.031929145            8 
  310000    1.1953217   -7.1554413    114.55718  0.030794941  0.031926574            1 
  311000    1.2006381   -7.1960904    114.13842  0.030583715   0.03192245            1 
  312000    1.2035482   -7.1312826    114.80988  0.030665031  0.031916807            2 
  313000    1.2112961   -7.0901214    115.34502  0.030709537  0.031911945            2 
  314000    1.1992694   -7.1635624     114.9014  0.030494001  0.031906005            4 
  315000    1.2040822   -7.1343318    115.88427  0.030657213  0.031900529            2 
  316000    1.2056212   -7.1331384    116.43415  0.030705207  0.031895576            3 
  317000    1.2120381   -7.1414534    116.44458  0.030611087  0.031889896            2 
  318000    1.2040281   -7.1773934    116.38027  0.030497973   0.03188307            1 
  319000    1.1690114   -7.1206454    117.30135  0.030642985  0.031875508            2 
  320000      1.21531   -7.1544792    116.95676  0.030457491  0.031866732            1 
  321000    1.1999674   -7.1302368    117.52436  0.030509957  0.031859386            2 
  322000    1.1715534   -7.1284849    118.16197  0.030580219   0.03185168            3 
  323000    1.1820321   -7.1185039    118.14266  0.030480563  0.031842676            2 
  324000    1.2023571   -7.1417128     118.0779  0.030369831  0.031833283            3 
  325000    1.1724748    -7.126908    118.60676  0.030411989  0.031822804            3 
  326000    1.2166644   -7.1633049    118.51123  0.030294281  0.031812033            4 
  327000    1.1933765   -7.1487211    118.44771  0.030185451  0.031799225            5 
  328000    1.1727055   -7.1062288    118.97805  0.030228164  0.031787011            2 
  329000    1.1629304   -7.1404667    119.55599  0.030282671  0.031775678            3 
  330000     1.205652   -7.1659986    120.08782  0.030325208  0.031763879            2 
  331000     1.187771   -7.1670157    120.26515  0.030278234  0.031752342            1 
  332000    1.2085572   -7.1788791    119.99906  0.030120246  0.031739571            2 
  333000    1.2058622   -7.1995849    120.34239  0.030115714  0.031726489            2 
  334000    1.2004765   -7.1714757    120.98657   0.03018627  0.031713236            2 
  335000    1.1894134   -7.1259553    121.74151  0.030283959  0.031701152            5 
  336000      1.20127   -7.1405816    121.56262   0.03014946  0.031688568            2 
  337000    1.2127758   -7.1609762    122.40179  0.030267506  0.031677346            3 
  338000    1.2060725   -7.1549386    122.84354  0.030286869  0.031667213            1 
  339000    1.2250117   -7.1676745    122.95332  0.030224514  0.031656953            3 
  340000    1.2095574   -7.1660091    123.82255  0.030348665  0.031647077            3 
  341000    1.1897017    -7.163009    123.72492  0.030235807  0.031637701            2 
  342000    1.2088653   -7.2251951    123.93057  0.030197507  0.031626959            2 
  343000    1.2061275   -7.1061684      124.434  0.030231779  0.031615493            5 
  344000    1.2060878    -7.149805     125.1199  0.030310053  0.031604117            3 
  345000    1.1953043   -7.1689276    124.74327  0.030131224  0.031592423            2 
  346000    1.1806239   -7.1854558    125.08618   0.03012673  0.031580765            3 
  347000    1.1982321   -7.1324079    125.56401  0.030154662  0.031569147            5 
  348000    1.1996646   -7.2050594     125.5272  0.030059196  0.031557074            6 
  349000    1.2184566   -7.1860676    126.27479  0.030151573  0.031545182            6 
  350000    1.2114019   -7.1522353    126.56895  0.030135464  0.031533302            2 
  351000    1.1936311   -7.1229154    127.27296  0.030216752  0.031521798            3 
  352000    1.2051459   -7.1625313     127.0132  0.030069413  0.031511151            1 
  353000    1.1997177   -7.1476384    127.80514  0.030171185   0.03149998            8 
  354000    1.2069457    -7.196087    128.46207    0.0302406  0.031490327            2 
  355000    1.2312074   -7.1660372    128.53461  0.030172443  0.031480152            2 
  356000    1.2080895   -7.1413836    128.72798  0.030132953  0.031470441            2 
  357000    1.2017097   -7.1742955     129.2261  0.030164822  0.031461655            2 
  358000    1.1949425   -7.1479697     129.8884  0.030234731  0.031452144            2 
  359000    1.2046658   -7.1308113    130.20182  0.030223263  0.031442893            2 
  360000    1.2018822   -7.1453345    129.92542  0.030075329  0.031432783            1 
  361000    1.1901848   -7.1658545    130.45141  0.030113436  0.031422203            3 
  362000    1.1941739   -7.1272012    131.04325  0.030166493  0.031412674            1 
  363000    1.1908318   -7.1823077    131.31859  0.030146599  0.031403294            3 
  364000    1.1752855   -7.1699298     131.4064  0.030083882  0.031392458            1 
  365000    1.1679511   -7.1853916    131.79473  0.030090121  0.031382341            5 
  366000    1.2037374   -7.1612699    132.25035  0.030111646  0.031372009            2 
  367000    1.2204719   -7.2089475    132.79999  0.030154403  0.031361939            3 
  368000    1.2046051   -7.2057152    132.63344  0.030034745  0.031352148            4 
  369000    1.1980814   -7.1337127    133.68976  0.030191905  0.031342376            1 
  370000    1.1875858   -7.1785609    133.39968  0.030044972   0.03133205            3 
  371000    1.1876987   -7.1777368    133.92126  0.030081146  0.031321617            3 
  372000    1.1712088   -7.1992386     134.2442  0.030072625  0.031310573            3 
  373000    1.1838897   -7.1846293     134.8853  0.030135232  0.031300738            2 
  374000    1.1759494   -7.1980747    134.55424   0.02998089  0.031290259            3 
  375000    1.2050164   -7.1716908    135.12578  0.030027952  0.031280051            1 
  376000    1.1944517   -7.1627677    135.64317  0.030062759  0.031270272            2 
  377000    1.1735373   -7.1847459    135.89032  0.030037649  0.031259267            2 
  378000    1.1933483   -7.1597058    135.93943   0.02996901  0.031248701            2 
  379000    1.1722712   -7.1634208    136.23096  0.029954036  0.031239064            2 
  380000    1.1803256   -7.2075389    136.30804  0.029892115  0.031228591            3 
  381000    1.1914008   -7.1865466    137.23522  0.030016453  0.031218246            2 
  382000    1.1881257   -7.1678511    137.91196  0.030085506  0.031208877            1 
  383000     1.200893   -7.1901162    137.87652  0.029999243   0.03119917            5 
  384000    1.1843181   -7.1548122    138.26441  0.030005298  0.031188865            2 
  385000    1.1714217   -7.1944919    138.17371  0.029907729  0.031178919            6 
  386000     1.183003   -7.1575854    138.56884  0.029915553  0.031168709            2 
  387000    1.1790339   -7.1399926    139.38099  0.030013133  0.031159264            1 
  388000     1.187958   -7.1688198    139.78124  0.030021744   0.03114973            2 
  389000    1.1751008   -7.1634832    140.63744  0.030127987  0.031140611            1 
  390000    1.1617517   -7.2019359    139.82965   0.02987813  0.031130389            2 
  391000     1.180351   -7.1992463    140.42761  0.029929158  0.031119781            1 
  392000    1.1703997   -7.1962514    140.88459  0.029949954   0.03110999            2 
  393000    1.1804076   -7.2129574    140.38411  0.029767623  0.031099578            3 
  394000    1.1844691   -7.2064321     141.3122  0.029888367  0.031089106            3 
  395000    1.2136626   -7.1424607    142.25989  0.030012636  0.031079106            1 
  396000    1.1585327   -7.1865993    142.51924  0.029991423  0.031069809            2 
  397000    1.1769646   -7.2131161    142.58984  0.029930697  0.031060654            2 
  398000    1.1970787   -7.1666259    143.06036  0.029954012  0.031050833            3 
  399000    1.1976557   -7.2118838    142.82317  0.029829401  0.031041854            2 
  400000    1.1932886   -7.2101404    143.09699  0.029811873  0.031031768            1 
  401000    1.2158586   -7.1937615    143.69875  0.029862584  0.031022437            2 
  402000    1.1971382   -7.2136927    144.07668  0.029866642  0.031013261            3 
  403000    1.1910759   -7.1999025     144.3003  0.029838772  0.031003434            4 
  404000    1.1890437   -7.1727692    144.85313  0.029878947  0.030993331            4 
  405000    1.1947797    -7.170517    145.13835  0.029863857  0.030983365            2 
  406000    1.1967247   -7.2061722    145.09534  0.029781475  0.030973192            4 
  407000    1.1686558   -7.1388619    146.50361  0.029996644  0.030962751            1 
  408000    1.1869186   -7.1554313    146.26851  0.029875104  0.030953156            2 
  409000    1.2026741   -7.1372467    146.80141  0.029910638  0.030943818            4 
  410000    1.2038772   -7.1951432    146.60948  0.029798674  0.030934502            3 
  411000    1.1924858   -7.1345384    147.71993  0.029951324  0.030924972            2 
  412000     1.173072   -7.1690378    148.04303  0.029943978  0.030916455            5 
  413000    1.1986554   -7.2205686    147.88158  0.029838898  0.030907457            2 
  414000    1.1586943   -7.1952831    148.19569   0.02983005  0.030897972            2 
  415000     1.171959   -7.1964369    148.30469  0.029780057   0.03088823            2 
  416000    1.1963119   -7.1868523    149.57859   0.02996366  0.030879014            4 
  417000    1.2131007    -7.173444    149.45171  0.029866448  0.030869748            2 
  418000    1.1897866   -7.2151764    149.05459  0.029715827  0.030860455            3 
  419000    1.1654022   -7.1568279    150.26806  0.029886248  0.030850659            7 
  420000    1.2056093   -7.1925012    150.42992  0.029847206  0.030840596            2 
  421000    1.1899374   -7.2165114    150.11473  0.029713921  0.030830009            2 
  422000    1.1950316   -7.1961189    150.78307  0.029775487  0.030820059            2 
  423000     1.191883   -7.1974211    151.29675  0.029806295  0.030810557            1 
  424000    1.1676585   -7.1965087    151.23268  0.029723403  0.030800926            4 
  425000    1.1848886   -7.1893192    151.80159  0.029765017  0.030792356            2 
  426000    1.2054451   -7.2005658     152.4978  0.029831338  0.030783091            3 
  427000    1.1877406   -7.2225973    152.35049  0.029732726  0.030774118            4 
  428000    1.1662926     -7.15856    152.95032  0.029780047  0.030764716            3 
  429000    1.1945698   -7.1893072    153.32654   0.02978371  0.030754902            1 
  430000    1.2029788   -7.1862194    153.62171   0.02977165  0.030745865            3 
  431000    1.1903121   -7.2099668    154.21085  0.029816483  0.030737938            2 
  432000    1.1868591   -7.1679778    154.94346  0.029888785  0.030730527            1 
  433000    1.1766264   -7.1890561    154.70232  0.029773349  0.030722517            3 
  434000    1.1770088   -7.1903785    155.51345  0.029860493  0.030714598            2 
  435000    1.1734264   -7.1989948     155.5093  0.029791054   0.03070769            3 
  436000    1.2305618   -7.2247428     155.6045  0.029740921  0.030700028            2 
  437000    1.1791424   -7.1600626    156.65433   0.02987306  0.030692123            1 
  438000    1.1604989   -7.2109887    156.05753   0.02969131   0.03068446            2 
  439000    1.1774551   -7.2116403     156.7008  0.029745785  0.030675667            5 
  440000    1.1803982   -7.1607204    157.76579  0.029879884  0.030668488            2 
  441000    1.1765888   -7.2044039    157.00229  0.029667856  0.030660587            3 
  442000    1.1692173   -7.1666476    158.07137  0.029802294  0.030652128            1 
  443000    1.1693639   -7.2064835    158.07075  0.029734904  0.030643478            4 
  444000    1.1920129   -7.2149918    158.57045  0.029761722  0.030635101            1 
  445000    1.1806821   -7.2010181     158.5565  0.029692228  0.030626635            3 
  446000    1.1748393   -7.2323181    158.31701  0.029580906  0.030618367            3 
  447000    1.1937294   -7.2004033    159.25505  0.029689606  0.030609342            2 
  448000    1.1769074   -7.1744918    159.92568   0.02974808  0.030600701            2 
  449000    1.2014995   -7.1740482    160.28497   0.02974851  0.030591598            2 
  450000    1.1858988    -7.105048    160.45667  0.029714198  0.030582984            3 
  451000     1.171559   -7.2109013    160.48056  0.029652726  0.030574116            3 
  452000    1.1582383   -7.2235326    161.31529  0.029741019  0.030565267            2 
  453000    1.1570696   -7.2021806    160.69086  0.029560497  0.030556312            3 
  454000    1.1970075   -7.1632881    161.92429  0.029721787  0.030548334            2 
  455000    1.1746191   -7.2069542     162.0252  0.029674945  0.030540533            1 
  456000    1.1810535   -7.1866813    162.08437  0.029620682  0.030532357            3 
  457000    1.1509978   -7.1686607    162.98905  0.029720834  0.030524492            2 
  458000    1.2045211   -7.1933108    162.85417  0.029631399  0.030516555            2 
  459000    1.1816973   -7.2026125    163.15903  0.029622192   0.03050822            2 
  460000    1.1671273   -7.2064191    163.85959  0.029684708   0.03050006            2 
  461000    1.2183124   -7.2133028    164.11145  0.029665844  0.030491963            3 
  462000     1.182942   -7.2071608    164.46921  0.029666163  0.030484006            3 
  463000    1.1424012   -7.2158359    164.83392  0.029667732  0.030476157            4 
  464000    1.1779951   -7.2081839    165.28881   0.02968549  0.030468074            1 
  465000    1.1899636   -7.2232703    165.33648  0.029630193  0.030459873            2 
  466000    1.1678154   -7.2205284    165.77179  0.029644454  0.030451601            2 
  467000    1.2201582   -7.2131682    165.69732  0.029567687  0.030443402            5 
  468000    1.1821079   -7.2040452     166.5498  0.029656304  0.030434932            4 
  469000    1.1823608   -7.2030755    167.19665  0.029708004   0.03042677            2 
  470000    1.1739732   -7.1765484    166.98997  0.029608151  0.030418986            5 
  471000    1.2083806   -7.1987356    167.15108  0.029573793  0.030411647            7 
  472000    1.1591178   -7.2142901    167.55534  0.029582511  0.030403734            4 
  473000    1.1830352    -7.211014    167.66186  0.029538736  0.030395847            2 
  474000    1.1858119    -7.194091     168.0014   0.02953611  0.030387502            2 
  475000    1.1588447   -7.2310964    168.17013  0.029503531   0.03037881            1 
  476000    1.1754267   -7.2234968    168.97798   0.02958298  0.030370183            2 
  477000    1.1634829   -7.1947872    168.91396  0.029509776  0.030361574            3 
  478000    1.1557885   -7.1511329      169.616  0.029570432  0.030353714            2 
  479000    1.1699155   -7.2010298    169.43335  0.029476922  0.030345467            2 
  480000    1.1491443   -7.1600093    170.24416  0.029556279  0.030337716            2 
  481000    1.1834273   -7.2009423    170.32714  0.029509206  0.030330076            5 
  482000    1.1616283   -7.2238743    170.74916  0.029520947  0.030322303            1 
  483000    1.1908105    -7.203192    171.19934  0.029537498  0.030314615            3 
  484000    1.1736369    -7.200917    172.51031  0.029702188  0.030307374            1 
  485000    1.1775355   -7.2177662     171.8113  0.029520842  0.030300442            3 
  486000    1.1697819   -7.2260043    171.48252  0.029403725   0.03029282            3 
  487000    1.1657156   -7.1946405    171.96423  0.029425774  0.030284296            1 
  488000    1.1647866   -7.1952824    172.58458  0.029471411  0.030275698            2 
  489000    1.1702967   -7.2563241    172.54858  0.029405007    0.0302676            2 
  490000    1.1664593   -7.2409508    173.72638  0.029545302  0.030258998            4 
  491000    1.1905567   -7.2043809    173.63138  0.029469005  0.030251215            5 
  492000    1.1562402   -7.2295848    174.17434  0.029501074  0.030243111            2 
  493000    1.1771832   -7.2694862    174.30308  0.029462995  0.030235189            8 
  494000    1.1935791   -7.2627989    174.94807  0.029512158   0.03022699            4 
  495000    1.1911317   -7.2055792    175.84961  0.029604311  0.030219706            2 
  496000    1.1735107   -7.2207136    175.53758  0.029492201  0.030212972            5 
  497000    1.1978733   -7.2359611     174.8545  0.029318327  0.030205521            6 
  498000    1.1584339   -7.2086537    176.21253  0.029486702  0.030197646            1 
  499000    1.1817185   -7.2515038    176.46584  0.029469913  0.030190399            4 
  500000    1.1794771   -7.2781125    175.81117  0.029301861  0.030182567            3 
  501000    1.1914752   -7.1876056      176.991  0.029439621   0.03017469            2 
  502000    1.1920871   -7.2075463    177.41236  0.029450923  0.030166959            1 
  503000    1.1520008   -7.1905507    177.78102  0.029453449  0.030159976            1 
  504000    1.1735716   -7.2128008    177.63347  0.029370614  0.030152321            1 
  505000    1.1839609    -7.233637    177.84701  0.029347691  0.030144102            2 
  506000    1.1717312   -7.1903995    178.37228  0.029376199  0.030136605            1 
  507000    1.1597321   -7.2493174    179.08262  0.029435013  0.030129306            4 
  508000    1.2049081   -7.2526732    179.11729  0.029382758  0.030121803            2 
  509000    1.1986876   -7.2082995    180.19159  0.029500915    0.0301143            2 
  510000    1.1894713   -7.2416813    179.79762  0.029378696   0.03010703            2 
  511000    1.1521695   -7.2018049    180.30172  0.029403411  0.030099364            2 
  512000    1.1980377   -7.2589014    180.21625  0.029332072  0.030091386            1 
  513000    1.1793209   -7.2209611    180.38093  0.029301646  0.030083027            3 
  514000    1.1812875   -7.1940178    181.59763  0.029441899  0.030075449            2 
  515000    1.1703915   -7.1686474    181.86877  0.029428603  0.030068414            2 
  516000    1.1412697   -7.2443442    181.50112  0.029312196  0.030060932            3 
  517000    1.1362275   -7.2233639    181.45847  0.029248625  0.030052982            3 
  518000    1.1681436   -7.2593547    182.22459  0.029315411  0.030044741            7 
  519000    1.1825175   -7.2222919    183.53086  0.029468667  0.030036887            1 
  520000    1.1697671   -7.2262795    182.57738  0.029259196  0.030029095            2 
  521000    1.1846584   -7.2470912    183.26667  0.029313287  0.030021131            4 
  522000    1.1618158   -7.2209273    183.69921  0.029326182  0.030013484            4 
  523000    1.1775961   -7.2892965    183.51691  0.029241063   0.03000549            4 
  524000    1.1665135   -7.2591349    183.68881  0.029212597  0.029997255            3 
  525000    1.1688598   -7.2943832    183.68131  0.029155763  0.029989446            3 
  526000    1.1770718   -7.2222429    184.75053  0.029269729  0.029980969            6 
  527000    1.1544036   -7.2252062    185.03125  0.029258579  0.029972769            5 
  528000    1.1794945   -7.2319834    185.27444  0.029241546  0.029964539            4 
  529000    1.1790895    -7.241832    186.06105  0.029310185    0.0299566            1 
  530000    1.1696388   -7.2532049    186.22683  0.029280948  0.029948431            2 
  531000    1.1555439   -7.2772493    186.20569  0.029222488  0.029941058            2 
  532000    1.1636591   -7.2368596    186.60635  0.029230319  0.029933127            2 
  533000    1.1508077   -7.2630573    186.47087  0.029154295  0.029924904            3 
  534000     1.165191    -7.268232    186.78048  0.029148015  0.029917075            2 
  535000    1.1572975   -7.2373124    188.21032  0.029316249  0.029910147            3 
  536000    1.1525505   -7.2589831    187.88273  0.029210624  0.029902879            2 
  537000    1.1533579   -7.2356148    188.17469  0.029201535   0.02989472            6 
  538000    1.1452249   -7.2650483    188.42592  0.029186171  0.029887139            2 
  539000     1.153514   -7.2618372    188.10904   0.02908303   0.02987893            2 
  540000    1.1396259   -7.2437658    189.22109  0.029200786  0.029871065            4 
  541000    1.1849329   -7.2964925    188.59763  0.029050774  0.029863061            2 
  542000      1.15456   -7.2365673    189.82411  0.029185749  0.029854878            3 
  543000    1.1603998   -7.1949744    190.73014  0.029271046  0.029847628            2 
  544000    1.1575882   -7.2139485    190.62144  0.029200588  0.029840162            4 
  545000    1.1772171   -7.2318031    190.69817  0.029158742  0.029832834            1 
  546000    1.1529417   -7.2411482    191.02489  0.029155203  0.029825699            3 
  547000    1.1904305   -7.2558372    190.93689  0.029088497   0.02981803            2 
  548000    1.1537414   -7.2276572    191.36325  0.029100251  0.029810468            2 
  549000    1.1475889   -7.2246591    192.94435  0.029287241  0.029803888            1 
  550000     1.163493   -7.2509306    193.53574  0.029323597  0.029797919            1 
  551000    1.1772445    -7.267992    192.76807  0.029154275  0.029791356            1 
  552000    1.1716016   -7.2208413    193.38078  0.029193958  0.029784679            2 
  553000    1.1535346   -7.2199816    194.31754  0.029282329  0.029778405            2 
  554000      1.18079   -7.2789861    193.91433  0.029168821  0.029771873            6 
  555000    1.1708432   -7.2585315    194.73264  0.029239135  0.029765555            9 
  556000    1.1694823   -7.2622007    194.09405  0.029090834  0.029758681            5 
  557000    1.1796294   -7.2700038    194.52712    0.0291034  0.029752077            2 
  558000    1.1663214   -7.2658715    195.26006  0.029160702  0.029745591            1 
  559000    1.1882283   -7.2229742    196.45916  0.029287293  0.029739367            3 
  560000    1.1380562   -7.2711794    195.82072  0.029139988  0.029732941            2 
  561000    1.1527929   -7.2682945    196.02717  0.029118712  0.029726534            5 
  562000    1.1445493   -7.2314796    197.03723  0.029216672  0.029719879            3 
  563000    1.1492009   -7.2299843    197.45631  0.029226807   0.02971337            2 
  564000    1.1591929   -7.2564975    197.36721  0.029161821  0.029706894            2 
  565000    1.1753695   -7.2755153    197.95209  0.029196474   0.02970045            1 
  566000    1.1552571   -7.2548908    198.58944  0.029238728  0.029694379            2 
  567000    1.1709406   -7.2545903     198.2955   0.02914396  0.029688151            5 
  568000    1.1533405   -7.2404137    198.63285  0.029142143   0.02968194            1 
  569000     1.181599   -7.2081934    198.90721  0.029131109  0.029675402            4 
  570000    1.1751179   -7.2585739    199.53094   0.02917119  0.029669065            2 
  571000    1.1603086   -7.2568184    199.40555  0.029101802  0.029662401            2 
  572000     1.135271   -7.2370377    200.02236  0.029140786  0.029656229            4 
  573000    1.1643407   -7.2169361    200.13482  0.029106285   0.02965043            1 
  574000     1.163241   -7.2156146    201.44462  0.029245735  0.029644367            2 
  575000    1.1861178   -7.2045277     201.6972  0.029231479  0.029638456            3 
  576000    1.2029633   -7.2359552    201.53848  0.029157766  0.029632065            6 
  577000    1.1772662   -7.2322561    202.12973  0.029192624  0.029625943            2 
  578000    1.1674786    -7.247393    201.61341  0.029067678  0.029619922            3 
  579000    1.1611847   -7.2554862    202.21506  0.029104068  0.029613144            3 
  580000    1.1466089     -7.26073    202.05091  0.029030303   0.02960655            3 
  581000    1.1701761   -7.2599429    202.33101  0.029020512  0.029599827            2 
  582000    1.1646378   -7.2407458    202.75299   0.02903107  0.029593271            5 
  583000    1.1639433   -7.2461976    202.35426  0.028924279  0.029586552            5 
  584000    1.1757889   -7.2444021    202.29699   0.02886658  0.029579288            2 
  585000    1.1914064   -7.2814402    203.62917  0.029007004  0.029572402            2 
  586000     1.157962   -7.2721631    204.17227  0.029034737  0.029565183            2 
  587000    1.1521811   -7.2333697    204.02487  0.028964349  0.029557941            3 
  588000    1.1584416   -7.2832579    204.19718  0.028939509  0.029550487            3 
  589000    1.1526573   -7.3058362    204.17894  0.028887795   0.02954254            6 
  590000    1.1714537   -7.2273254    204.62666  0.028902071  0.029535118            2 
  591000    1.1582606   -7.2904721     204.5305  0.028839608  0.029528298            4 
  592000    1.1885139   -7.2642834    205.51729  0.028929799  0.029520844            2 
  593000    1.1708097   -7.2951065    205.57887  0.028889667  0.029513771           10 
  594000    1.1438101     -7.24468    206.22616  0.028931841  0.029507191            3 
  595000    1.1568267    -7.295127    206.84542  0.028969947  0.029500372            3 
  596000    1.1362402   -7.2082148    208.11121  0.029098324  0.029494028            3 
  597000    1.1448319   -7.2736894    208.34159  0.029081741  0.029487946            2 
  598000     1.170869   -7.2439415    208.07391  0.028995807  0.029481706            3 
  599000    1.1749659   -7.2570544    208.17703  0.028961746  0.029475316            4 
  600000    1.1566939   -7.2664451    208.90432  0.029014489   0.02946949            3 
  601000    1.1628999   -7.2614211    210.01268  0.029119895  0.029463481            3 
  602000    1.1533212   -7.2396659    209.92718  0.029059688  0.029457968            5 
  603000    1.1407893   -7.2847587    209.66871  0.028975775  0.029452643            3 
  604000    1.1586376   -7.2486642    210.36601  0.029024009  0.029447337            1 
  605000    1.1578626   -7.3300975    210.32882  0.028970912  0.029441935            2 
  606000    1.1411109   -7.2931253     211.2257  0.029046438  0.029436723            1 
  607000    1.1751178     -7.31069    211.24619  0.029001399  0.029431255            4 
  608000    1.1449031   -7.2699009    211.85497   0.02903714   0.02942632            2 
  609000     1.148445   -7.2513395    212.74247  0.029110902  0.029421798            3 
  610000    1.1674731   -7.2514272    213.43577  0.029157892  0.029417027            4 
  611000     1.175837   -7.2861149    213.10711  0.029065345   0.02941246            2 
  612000    1.1723479   -7.2544095    213.55552   0.02907891  0.029407775            3 
  613000    1.1444977   -7.2616729    214.09578  0.029104918  0.029402933            2 
  614000    1.1551015   -7.2678932      213.519  0.028979235  0.029398163            2 
  615000    1.1602153    -7.250166     214.4151  0.029053537  0.029393579            3 
  616000    1.1495132   -7.2597445      214.397  0.029003923  0.029388898            3 
  617000    1.1474242   -7.2892387    214.34661   0.02895011  0.029383814            5 
  618000    1.1655006   -7.2413744    215.28464  0.029029752  0.029378552            3 
  619000    1.1260551   -7.2451049    215.80522  0.029052937  0.029373039            2 
  620000    1.1615161   -7.2517098    215.88685   0.02901705  0.029367941            2 
  621000     1.151063   -7.2653047      215.765  0.028953972  0.029363099            3 
  622000    1.1285377   -7.3238383    215.12348  0.028821474  0.029357335            2 
  623000    1.1536023   -7.2655127    216.72976   0.02899007  0.029351538            3 
  624000    1.1762397   -7.2697454    216.90845  0.028967474  0.029345844            2 
  625000    1.1530855   -7.2873797    216.99828  0.028933104  0.029340076            2 
  626000    1.1655677   -7.3472893     216.5858  0.028831975  0.029335131            3 
  627000    1.1336122   -7.2906864    217.24859  0.028874082  0.029329177            4 
  628000    1.1559278   -7.3069254    218.26492  0.028962967  0.029323635            2 
  629000    1.1543792   -7.2448171    218.42973  0.028938756  0.029318175            2 
  630000    1.1362065   -7.2869893    218.10116   0.02884936  0.029312291            2 
  631000    1.1492021   -7.2955162    218.82562  0.028899316  0.029306636            3 
  632000    1.1711366   -7.2896597    219.13567  0.028894471  0.029300848            1 
  633000    1.1488831   -7.2370869    220.23218  0.028993177  0.029295223            3 
  634000    1.1499932   -7.2711376    219.85907  0.028898406   0.02928955            2 
  635000    1.1366756   -7.2930438    220.13843  0.028889557  0.029283574            1 
  636000    1.1631186   -7.2835892    220.15651  0.028846503  0.029277772            4 
  637000    1.1461733   -7.2599619    220.87527  0.028895247  0.029272348            2 
  638000    1.1179513    -7.291467    221.49485  0.028930884  0.029266966            1 
  639000    1.1560442   -7.2382488    222.04973  0.028957972  0.029261454            2 
  640000    1.1455035   -7.2765751    221.52835  0.028844837  0.029256435            3 
  641000    1.1612752   -7.2908555    222.28561  0.028898285   0.02925079            4 
  642000    1.1844453   -7.2680196    221.90479  0.028803841  0.029244693            2 
  643000    1.1561428   -7.2603856    222.32649  0.028813697  0.029238683            5 
  644000    1.1566824   -7.2740633    222.05104  0.028733312  0.029232577            1 
  645000    1.1343562   -7.2997922    222.07233  0.028691516  0.029226274            4 
  646000    1.1297605   -7.3206734    222.32658    0.0286799  0.029220137            1 
  647000    1.1399545   -7.2473015    224.27779  0.028886887  0.029213994            3 
  648000    1.1639499   -7.2683325    224.09615  0.028818949  0.029207862            2 
  649000    1.1335149   -7.2651622    223.72151  0.028726439  0.029201798            3 
  650000    1.1278391   -7.2626608    224.70023  0.028807721  0.029195575            2 
  651000    1.1146796   -7.2512877    224.72808  0.028767035  0.029189145            2 
  652000    1.1453712    -7.263094    224.35089  0.028674705  0.029182686            2 
  653000    1.1436343   -7.2635996    224.68553  0.028673497  0.029175865            3 
  654000    1.1509159   -7.2972372    224.89249  0.028656026  0.029168785            3 
  655000    1.1557429   -7.3077539    224.39916  0.028549511  0.029161325            1 
  656000    1.1706868   -7.2969544    225.17671  0.028604765  0.029154458            2 
  657000    1.1403101   -7.2855198    225.46336  0.028597585  0.029147379            3 
  658000    1.1364238   -7.3122279    226.17931  0.028644796  0.029139868            2 
  659000    1.1491656   -7.2971995    226.93839  0.028697318  0.029132612            2 
  660000    1.1510221     -7.28453    226.76507  0.028631953  0.029125688            5 
  661000     1.158373   -7.2734443    227.26547  0.028651724  0.029118436            2 
  662000    1.1540301   -7.2706509    227.22779    0.0286037  0.029111195            6 
  663000    1.1718354   -7.2816075    226.43881  0.028461389   0.02910376            3 
  664000    1.1470789   -7.3127831      226.596  0.028438253  0.029096303            4 
  665000    1.1478484   -7.2984317    227.91897  0.028561275  0.029089182            4 
  666000    1.1370694    -7.274552    227.56528  0.028474134  0.029081799            3 
  667000    1.1527943   -7.2497542    228.42722  0.028539133  0.029074428            1 
  668000    1.1494272   -7.2704278    227.56064  0.028388303  0.029066702            4 
  669000    1.1433395   -7.2912897    228.73565  0.028492233  0.029059055            4 
  670000    1.1651211   -7.3575583    228.42265  0.028410777  0.029051294            4 
  671000    1.1357984   -7.3069281    228.90199  0.028427967  0.029043823            3 
  672000    1.1360826   -7.2573071     230.1402  0.028539211  0.029036726            2 
  673000    1.1296229   -7.2841188    230.41059  0.028530286  0.029029602            4 
  674000     1.147866   -7.2766618     231.2959  0.028597416  0.029022478            2 
  675000    1.1453748   -7.3363432    230.59797  0.028468886  0.029015783            4 
  676000    1.1253745   -7.3053056    230.87709  0.028461179  0.029008423            2 
  677000    1.1526257   -7.3319074    230.87177  0.028418484  0.029001247            2 
  678000    1.1301582   -7.2768776    231.38966  0.028440224  0.028993972            1 
  679000    1.1130983    -7.318885    231.07335  0.028359517  0.028986755            4 
  680000    1.1359245   -7.2506893    232.98304  0.028551843  0.028979515            4 
  681000    1.1398806   -7.2674094    232.35626  0.028433218  0.028972247            3 
  682000    1.1579933   -7.2801131     232.1295   0.02836382  0.028964808            2 
  683000    1.1681903   -7.2707066    233.04546  0.028434048  0.028957229            2 
  684000    1.1421218   -7.2584988    233.32227  0.028426202  0.028949822            2 
  685000    1.1216639      -7.3451    232.44819  0.028278369  0.028941755            3 
  686000    1.1323056   -7.2946397    234.52858  0.028489866  0.028933766            5 
  687000    1.1451951   -7.2991349    233.35805  0.028306411  0.028926001            3 
  688000    1.1624576   -7.2709689    234.25631  0.028374069  0.028918441            1 
  689000    1.1341996   -7.3256533    233.89885  0.028289653  0.028911048            5 
  690000    1.1535619   -7.2702559    235.03879  0.028386327  0.028903932            2 
  691000    1.1303794   -7.2974702    234.95431  0.028335059  0.028896544            3 
  692000    1.1310713   -7.3047061    235.41856   0.02835002  0.028889677            2 
  693000    1.1316942   -7.3302265    235.57764  0.028328239  0.028882489            4 
  694000     1.137154   -7.3405753    235.72235  0.028304797  0.028875292            2 
  695000    1.1269698   -7.2883287    236.71368  0.028382935  0.028867745            3 
  696000    1.1432333   -7.3104811    236.61591   0.02833045  0.028860413            2 
  697000    1.1513185   -7.3663569     235.4937  0.028155632  0.028852796            2 
  698000    1.1347978   -7.3132837      236.606  0.028248089  0.028844823            1 
  699000     1.148065   -7.3357833    236.93934  0.028247418  0.028837376            5 
  700000    1.1321195   -7.2871831    237.93485  0.028325577  0.028829848            4 
  701000    1.1475357   -7.3054959    238.09834  0.028304606  0.028822601            2 
  702000     1.162088   -7.2956046    238.42351  0.028302886  0.028814809            4 
  703000    1.1472745   -7.3191169    237.70715  0.028177709  0.028806944            2 
  704000    1.1447042   -7.3352218     238.5168  0.028233522  0.028799073            5 
  705000    1.1186469   -7.3338497    237.81463  0.028110476   0.02879142            2 
  706000    1.1595924   -7.2608186     239.8952  0.028316242  0.028784004            1 
  707000    1.1379989   -7.3029795    239.25559    0.0282008  0.028776626            2 
  708000    1.1376254     -7.29482    240.38815  0.028294273  0.028769434            2 
  709000    1.1268298   -7.2602866    240.93753  0.028318939  0.028762177            4 
  710000    1.1613907     -7.35426    239.39711  0.028098253  0.028754631            3 
  711000    1.1236736    -7.313415    240.58434  0.028197884   0.02874693            3 
  712000     1.146451   -7.3326389    240.89135  0.028194212  0.028738862            3 
  713000    1.1519613   -7.2887154    241.52495  0.028228723  0.028731252            3 
  714000    1.1486228   -7.3440161    241.10723  0.028140433  0.028723691            3 
  715000    1.1239418   -7.3045259    241.80105   0.02818194  0.028716533            3 
  716000    1.1404555   -7.2648784    242.27686  0.028197959   0.02870944            1 
  717000    1.1267193   -7.2995645    242.73671  0.028212077  0.028701755            2 
  718000    1.1375859   -7.3134735     241.7533  0.028058647  0.028693985            1 
  719000    1.1241498   -7.3065096    242.83255  0.028144709  0.028686123            6 
  720000    1.1185503   -7.3488766    241.98162  0.028007132  0.028677886            3 
  721000     1.144323   -7.3548984    243.17523  0.028106245  0.028669609            1 
  722000    1.1615575   -7.3180549     243.4693  0.028101258  0.028661663            6 
  723000    1.1290892   -7.3091962    243.72004  0.028091291  0.028653752            3 
  724000    1.1238515   -7.2877661    244.19236  0.028106855  0.028645871            5 
  725000    1.1347781   -7.3476964    244.51293  0.028104934  0.028638145            4 
  726000    1.1614528   -7.3417947    244.81069  0.028100401  0.028630513            3 
  727000    1.1125208   -7.3131306    245.49518  0.028140209  0.028623103            1 
  728000    1.1197453   -7.3204609    245.22893  0.028071077  0.028615546            2 
  729000    1.1457921   -7.3254932    246.05024  0.028126456  0.028608455            3 
  730000    1.1148158   -7.2957196    246.65808  0.028157316  0.028601597            4 
  731000    1.1229235   -7.3208145    246.39581  0.028088898  0.028594586            2 
  732000    1.1397311   -7.3453719    246.55711  0.028068888  0.028587336            2 
  733000    1.1404799   -7.3019239    246.74602  0.028052071  0.028580297            4 
  734000    1.1430412   -7.3265209    247.79132   0.02813253  0.028572784            2 
  735000    1.1261579    -7.330377     248.0454  0.028123061  0.028565548            2 
  736000    1.1469362   -7.2896837    247.74489  0.028050826   0.02855811            2 
  737000    1.1354317   -7.3231141     247.8406  0.028023586  0.028551005            3 
  738000    1.1185521   -7.3023679    248.29177  0.028036559  0.028543669            3 
  739000    1.1211759   -7.3449539    248.20969  0.027989365  0.028536272            2 
  740000    1.1249562   -7.3021522      248.688  0.028005406  0.028528973            3 
  741000    1.1357408   -7.3013492    248.27585   0.02792126  0.028521567            2 
  742000    1.1473558   -7.3122051      249.332  0.028002246  0.028513988            3 
  743000    1.1414839    -7.287303    250.30092   0.02807323  0.028506432            4 
  744000    1.0985768   -7.3133952    249.65245  0.027962864  0.028498928            8 
  745000    1.1324672   -7.3230029    250.35256  0.028003642  0.028491517            2 
  746000     1.133994   -7.3442963    250.08474  0.027936186  0.028483902            2 
  747000    1.1774601   -7.3228881    251.13302  0.028015732  0.028476341            3 
  748000    1.1355764   -7.3413005    251.32718  0.027999908  0.028469049            5 
  749000    1.1458316   -7.3330114     252.2384  0.028063907  0.028461726            3 
  750000    1.1505692   -7.3049686     251.9779  0.027997544  0.028454792            2 
  751000    1.1403353   -7.3363737    252.10612  0.027974491  0.028447844            2 
  752000     1.120284   -7.3057262    252.73709  0.028007213  0.028440928            2 
  753000    1.1306768   -7.3057649    253.67575  0.028073898  0.028433672            3 
  754000    1.1434473   -7.3149685    252.81577  0.027941619  0.028426515            3 
  755000    1.1189867   -7.3004613    253.34936  0.027963505  0.028419315            1 
  756000    1.1017191   -7.3256834    252.80025  0.027865989  0.028411932            3 
  757000    1.1121022   -7.3459225    254.24064  0.027987741  0.028404697            5 
  758000    1.1352903   -7.3022071    254.10288  0.027935673  0.028397462            3 
  759000     1.153108   -7.3298664    254.23175  0.027913016  0.028390121            4 
  760000    1.1303589    -7.318331    254.83801  0.027942764  0.028382819            3 
  761000    1.1179877   -7.2700117    255.66061  0.027996125  0.028375652            4 
  762000    1.1165294   -7.3745922    254.96818  0.027883659  0.028368532            2 
  763000    1.0995031   -7.3175223     255.7498  0.027932481  0.028361352            3 
  764000    1.1205028   -7.3213914    255.74203  0.027895073  0.028354096            5 
  765000    1.1441358   -7.3340535    256.29648  0.027919006  0.028346593            2 
  766000     1.137699   -7.3333959    255.21409  0.027764805     0.028339            3 
  767000    1.1490353    -7.374117    256.20613   0.02783639  0.028331422            7 
  768000    1.1432249   -7.3441083    256.74239  0.027858332  0.028324166            4 
  769000    1.1348518   -7.3062407    257.57293  0.027912107  0.028316994            2 
  770000    1.1369533   -7.3579908    257.27244  0.027843338  0.028309485            3 
  771000    1.1351409   -7.3197473    257.57009  0.027839396  0.028302186            3 
  772000     1.141063   -7.2903812    258.55735  0.027909904  0.028294948            1 
  773000    1.1208832   -7.3409255    257.72357  0.027783912  0.028287297            2 
  774000    1.1394494   -7.3502731    257.36091   0.02770897  0.028279367            5 
  775000    1.1038225   -7.3169936    258.78921  0.027826796  0.028271533            4 
  776000    1.1362933    -7.376708    257.88635  0.027693981  0.028263737            3 
  777000    1.1472029   -7.3167068    258.90423  0.027767507  0.028255912            3 
  778000    1.1396315   -7.3451303    258.73237  0.027713407  0.028248079            4 
  779000    1.1465591   -7.3149992    259.63334  0.027774213  0.028240159            2 
  780000    1.1335403   -7.3679943    259.19446  0.027691716  0.028232301            2 
  781000    1.1069175   -7.3529589    260.11324  0.027754294  0.028224388            2 
  782000    1.1262714   -7.3731714    259.67871  0.027672497  0.028216522            5 
  783000    1.1263738   -7.3496727    259.70928  0.027640409  0.028208567            2 
  784000    1.1346409   -7.3836237    260.45212  0.027684111  0.028200508            2 
  785000    1.1395233   -7.3253485    260.98905  0.027705844  0.028192633            5 
  786000    1.1125177   -7.3627998    259.96812  0.027562354  0.028184364            2 
  787000    1.1241146    -7.329555    261.22136  0.027660034  0.028176055            2 
  788000    1.1191576   -7.2972847    262.40635  0.027750248  0.028168131            1 
  789000    1.1395249   -7.3156097    261.55732  0.027625404  0.028160421            2 
  790000     1.112607   -7.3299255    261.82871  0.027619063  0.028152341            3 
  791000    1.1351643   -7.3273212    262.20198  0.027623471  0.028144357            2 
  792000    1.1341407   -7.3198381    262.85425  0.027657224  0.028136457            2 
  793000    1.1286564   -7.3386355    262.35286  0.027569658  0.028128548            2 
  794000    1.1274193   -7.3450577    263.25712  0.027629841  0.028120572            3 
  795000     1.164632   -7.3261014    263.30735  0.027600351  0.028112642            2 
  796000    1.1383812   -7.3494008    263.03559  0.027537226  0.028104527            2 
  797000    1.1228121   -7.3445895    263.48671  0.027549844  0.028096519            4 
  798000    1.0955688   -7.3378043    263.97579  0.027566394  0.028088491            3 
  799000    1.0998354   -7.3441268    264.40796  0.027576967  0.028080527            2 
  800000    1.1104141   -7.3902054    264.15799  0.027516458  0.028072775            5 
  801000    1.1269506   -7.3452716    264.85106  0.027554209  0.028065164            5 
  802000    1.1324888   -7.3333445    266.02059  0.027641375  0.028057783            3 
  803000    1.1276059   -7.3237926    266.48659  0.027655312  0.028050285            4 
  804000    1.1273539    -7.331332    266.27242  0.027598716  0.028042737            2 
  805000    1.1228727   -7.3466809    266.40533  0.027578191   0.02803552            2 
  806000    1.1001866   -7.2937338     267.2199  0.027628195  0.028028358            3 
  807000    1.1008388   -7.3508944    267.09312  0.027580867  0.028020844            2 
  808000    1.1216145   -7.3520231    266.28904  0.027463803  0.028013313            2 
  809000    1.1137726   -7.3578168    267.38162    0.0275424  0.028005484            3 
  810000    1.1349184   -7.3818534    267.94117  0.027565964  0.027997953            2 
  811000    1.1176987    -7.307116    267.79272   0.02751672  0.027990322            2 
  812000    1.1483662   -7.3278125    268.78357  0.027584521  0.027983026            4 
  813000    1.1334234   -7.3255052    267.77639  0.027447354  0.027975424            2 
  814000    1.1238029   -7.3530515    269.10122  0.027549265  0.027967675            2 
  815000    1.1282187   -7.3384267    269.65909  0.027572504  0.027960018            5 
  816000    1.1367782   -7.3527974    269.22403  0.027494284  0.027952376            2 
  817000    1.1380073   -7.3601575    268.44551  0.027381223  0.027944769            2 
  818000      1.11891   -7.3648904    269.30555  0.027435365  0.027937381            4 
  819000    1.1282793    -7.311453    271.00607  0.027574895   0.02793003            3 
  820000    1.1361923   -7.3157236    270.70322   0.02751049  0.027922684            3 
  821000    1.1039236   -7.3657677     270.5079  0.027457156  0.027915252            4 
  822000     1.111362   -7.3486885    270.77733  0.027451067  0.027907535            3 
  823000    1.1281087   -7.3765455    271.20205  0.027460718  0.027900061            2 
  824000    1.1008225   -7.3416602    271.30813   0.02743812  0.027892554            3 
  825000    1.1605434   -7.3301861    272.66088  0.027541503  0.027885385            2 
  826000     1.132844   -7.3322941    272.33249  0.027475029  0.027878012            4 
  827000    1.1104566   -7.3116036    272.32792  0.027441347  0.027870501            4 
  828000    1.1135889   -7.3263503    272.22873  0.027398221  0.027863045            2 
  829000    1.0971639   -7.3298754    273.65348  0.027508392  0.027855721            9 
  830000    1.1010254   -7.3877489    272.37038  0.027346423  0.027848282            6 
  831000    1.1173473   -7.3896748    272.38984  0.027315467  0.027840718            1 
  832000    1.1244948   -7.3773874    273.12458  0.027356228  0.027833093            3 
  833000    1.1177608   -7.3399911    272.84123  0.027295041  0.027825252            3 
  834000    1.1334545   -7.3465233    273.47843  0.027325982  0.027817403            2 
  835000    1.1096972   -7.3937947      273.137  0.027259181  0.027809615            3 
  836000    1.1065101   -7.3745072    273.67716  0.027280419  0.027801695           10 
  837000    1.1042465   -7.3760592    273.69933  0.027250033  0.027793463            2 
  838000    1.1335981   -7.3744776    273.73172  0.027220735  0.027785083            3 
  839000    1.1215518   -7.4025236    273.68042  0.027183196   0.02777663            1 
  840000    1.1188329     -7.38309    274.52962  0.027235081  0.027768053            7 
  841000    1.1173823   -7.3383282    274.98569  0.027247889  0.027759678            1 
  842000     1.096238   -7.3604822    275.30111  0.027246745  0.027751476            2 
  843000    1.1114014   -7.3976656    274.64049  0.027149119  0.027743343            3 
  844000    1.1405472   -7.3916896    275.22394   0.02717456  0.027734963            4 
  845000    1.1343442   -7.4182059    275.47833  0.027167488  0.027726542            2 
  846000    1.0966791   -7.3591641      276.191  0.027205575  0.027718482            4 
  847000    1.1247024   -7.3675596    276.29755  0.027183938  0.027710242            3 
  848000    1.1036399   -7.3995622    276.94382  0.027215391  0.027702228            1 
  849000    1.1020581    -7.332426     277.9844  0.027285473  0.027694206            3 
  850000    1.1210626   -7.3877418    277.92419   0.02724747  0.027686262            5 
  851000    1.1524138   -7.4041821    277.66988  0.027190549  0.027678631            3 
  852000    1.1363337   -7.3516494    278.15607  0.027206188  0.027671142            2 
  853000    1.1067465   -7.4105673    278.16357  0.027175026  0.027663466            3 
  854000    1.1383559   -7.4029553    278.45686  0.027171825  0.027655685            1 
  855000     1.109265   -7.3634356    278.91072   0.02718428  0.027647763            4 
  856000    1.1199889    -7.391899     280.1021  0.027268506  0.027639984            5 
  857000    1.1327138   -7.3918041    279.24681  0.027153521  0.027632289            7 
  858000    1.1169776   -7.3945648    278.97981  0.027095941  0.027624231            3 
  859000    1.1124895   -7.4142677      279.405  0.027105646  0.027616237            2 
  860000    1.0953779   -7.3972713    279.68444  0.027101205  0.027608124            2 
  861000    1.1546969   -7.3690506    280.04456  0.027104584  0.027600036            1 
  862000    1.1353148   -7.3760561    280.39127  0.027106658  0.027591943            2 
  863000     1.110239   -7.3533158    280.83515   0.02711811  0.027583875            3 
  864000     1.112968   -7.4058543    280.90948  0.027093893  0.027575905            5 
  865000    1.1015194   -7.3614442    281.51976  0.027121364  0.027568151            2 
  866000    1.1087633   -7.3636139    282.38832  0.027173626  0.027560607            2 
  867000    1.0988887   -7.3792242    282.41505  0.027144853  0.027553003            2 
  868000    1.1053664   -7.3486363    281.78715  0.027053298  0.027545336            3 
  869000    1.1228311   -7.3627436    283.06085  0.027144308  0.027537659            4 
  870000    1.0868192   -7.4004746    283.35182  0.027140979  0.027530014            4 
  871000    1.1145513   -7.3621781     283.9867   0.02717056  0.027522583            2 
  872000     1.112064   -7.3784282    284.02067  0.027142648  0.027515516            1 
  873000    1.1192065    -7.404561     284.3106  0.027139232  0.027508342            3 
  874000    1.1189451   -7.3919196    284.04852  0.027083193   0.02750096            5 
  875000     1.123161    -7.377752    284.54724  0.027099737  0.027493572            6 
  876000    1.1238887    -7.424821    283.67202  0.026985542  0.027485997            3 
  877000    1.1148307   -7.3371164    285.23744   0.02710352  0.027478425            2 
  878000      1.11833   -7.4024527    283.96564   0.02695194  0.027470403            2 
  879000    1.1032024   -7.3724032    285.64359  0.027080355  0.027462409            4 
  880000    1.1294192   -7.3448581    286.04515  0.027087608  0.027454758            3 
  881000     1.107305   -7.4015919     285.0546  0.026963167  0.027447271            2 
  882000    1.0774954    -7.384229    286.00695  0.027022577  0.027439686            3 
  883000    1.0951727   -7.3719647    285.28601  0.026923935  0.027431854            5 
  884000    1.0912312   -7.4039542    285.25207  0.026890278  0.027423797            3 
  885000    1.1243609   -7.4361588    285.58526  0.026891267  0.027415717            3 
  886000    1.1252388   -7.4113732    286.00602  0.026900491  0.027407749            4 
  887000    1.1024377   -7.4237878    287.63147  0.027022874  0.027400262            3 
  888000    1.1237055   -7.3772404    287.82298  0.027010415  0.027392338            3 
  889000    1.1091729   -7.3475016    288.26418  0.027021389  0.027384799            4 
  890000    1.1186828    -7.375282    288.09945  0.026975604  0.027377415            3 
  891000    1.0822873   -7.4168404    288.98033  0.027027715  0.027369721            7 
  892000    1.1291749   -7.4081761    288.68597  0.026969915   0.02736241            5 
  893000    1.1109763   -7.4284392     288.1276  0.026887607  0.027354917            3 
  894000    1.1292862   -7.3608882    290.21901   0.02705248  0.027347518            2 
  895000    1.1085394   -7.3640589    289.92928  0.026995278  0.027340395            7 
  896000    1.0914712   -7.3915265    289.81399  0.026954426  0.027332959            5 
  897000    1.1123996   -7.3903596    289.10272  0.026858298  0.027325444            2 
  898000    1.1065617   -7.3835543    290.32257   0.02694159   0.02731776            3 
  899000    1.0995017   -7.3922097    290.16736  0.026897234   0.02731021            1 
  900000    1.1230432   -7.3831424    291.25847  0.026968377  0.027302656            4 
  901000    1.1128528   -7.3717117    291.73955   0.02698294  0.027295175            4 
  902000     1.094905   -7.4055984    291.05161  0.026889469   0.02728773            7 
  903000    1.1071371    -7.391221    290.72772    0.0268298  0.027280347            2 
  904000    1.0811078    -7.423609    291.88803  0.026907082  0.027272679            2 
  905000     1.087121   -7.3612293    291.25217    0.0268188  0.027264913            3 
  906000    1.0973437   -7.4041895    291.40568  0.026803319  0.027257088            3 
  907000    1.1199661   -7.4136406     292.2761   0.02685374  0.027249271            5 
  908000    1.1024193   -7.3593388    292.67714  0.026860971  0.027241349            4 
  909000    1.0780857   -7.3846455    293.32114  0.026890461  0.027233685            9 
  910000    1.1051655   -7.3997012    292.94711  0.026826658  0.027225909            3 
  911000    1.1129974   -7.3537169    293.89728  0.026884127  0.027218366            3 
  912000     1.093879    -7.399026    293.44321  0.026813158  0.027210826            2 
  913000    1.1168297   -7.4113123     294.2692  0.026859182  0.027203174            1 
  914000    1.1029129   -7.4116942    294.18164  0.026821812  0.027195395            4 
  915000    1.0776673   -7.3754887    294.20455  0.026794585  0.027187749            3 
  916000    1.1026672   -7.4279942    293.67143  0.026716833  0.027180072            3 
  917000    1.0774211    -7.386337    294.56109  0.026768547  0.027171985            5 
  918000    1.1051409   -7.4058991    294.11916   0.02669927  0.027164028            2 
  919000    1.0914178   -7.3953927    294.81646  0.026733448  0.027155963            4 
  920000    1.1254802   -7.3800035    294.82026  0.026704734  0.027147788            6 
  921000    1.0942904   -7.4048554    295.08775  0.026699941   0.02713968            1 
  922000    1.1038174   -7.3862006     296.1303  0.026765212  0.027131577            1 
  923000    1.0936932   -7.3665151    296.40402  0.026760926  0.027123734            3 
  924000    1.1119072   -7.3549578     296.0137  0.026696762    0.0271158            2 
  925000     1.112562   -7.3684908    296.05131  0.026671289  0.027107976            4 
  926000    1.1243104   -7.3834731    295.69693  0.026610595  0.027099977            2 
  927000    1.1186341   -7.4097649    297.09494  0.026707564  0.027092146            2 
  928000    1.1119657   -7.4000261    296.78759  0.026651184  0.027084508            1 
  929000    1.1298213   -7.4361097    297.84796  0.026717614  0.027076803            3 
  930000    1.0899063   -7.4001438    297.80532  0.026685064  0.027069319            2 
  931000    1.1016323   -7.3778539    298.25155  0.026696343  0.027061571            2 
  932000     1.096916   -7.4078731    298.07436  0.026651856  0.027053988            3 
  933000    1.1145183   -7.4051673     298.6259  0.026672553  0.027046505            2 
  934000    1.0920563    -7.399472    298.99796  0.026677192  0.027039108            2 
  935000    1.1200324   -7.3901557    300.08893  0.026745894  0.027031688            4 
  936000    1.0829089   -7.3832189    299.00508  0.026620822   0.02702426            2 
  937000    1.0807166    -7.479573    298.48419  0.026546086  0.027016618            5 
  938000    1.1043119    -7.381072     300.3534  0.026683849  0.027009078            4 
  939000    1.0968649    -7.419217    300.40941  0.026660402  0.027001918            3 
  940000    1.0946505   -7.4222346    301.90084  0.026764259  0.026994713            1 
  941000    1.1139635   -7.4204462    300.06327  0.026573085  0.026987213            3 
  942000    1.1050701   -7.4120046    300.54108  0.026587144  0.026979746            5 
  943000    1.0802125   -7.4456285    300.78656  0.026580644  0.026972105            2 
  944000     1.078049   -7.4235608    300.40975  0.026519222  0.026964452            4 
  945000    1.1232069    -7.459367    301.03542  0.026546333  0.026956903            1 
  946000    1.1097376   -7.4400242    300.99956  0.026515113  0.026949215            5 
  947000    1.0834189   -7.4412795    300.04216  0.026402865  0.026941234            4 
  948000    1.0979397   -7.4473495    301.25173  0.026481341  0.026933455            5 
  949000    1.0995954   -7.3799221    302.79863  0.026589272  0.026925721            4 
  950000    1.1100175   -7.3669837    303.43545  0.026617145  0.026917888            2 
  951000    1.1105364   -7.4132422    301.90232  0.026454812   0.02690992            4 
  952000    1.1102475   -7.4389789    301.99215  0.026434887  0.026902041            2 
  953000    1.0934929   -7.4349718    303.66003  0.026552994  0.026894223            2 
  954000    1.1099484   -7.4047588    304.08064  0.026561901  0.026886577            5 
  955000    1.0810158   -7.4448481    303.24618  0.026461272   0.02687887            2 
  956000    1.0833952   -7.4312992    303.86867  0.026487855  0.026871062            5 
  957000    1.0856205   -7.4255873    303.83476  0.026457224  0.026863188            3 
  958000    1.1120508   -7.4018157    303.48762   0.02639941  0.026855352            4 
  959000    1.1020287   -7.4257821     304.3178  0.026444022  0.026847595            4 
  960000    1.1041815    -7.416257    303.82266  0.026373495  0.026839806            3 
  961000    1.0847241   -7.4234811    305.16057  0.026462068  0.026832045            2 
  962000    1.1173122   -7.3990974    305.18505  0.026436681  0.026824337            2 
  963000    1.1028999   -7.3926754    305.23298  0.026413376  0.026816401            2 
  964000    1.0864763   -7.3982961     305.4816  0.026407469  0.026808447            2 
  965000    1.1029934   -7.4344118    305.46854  0.026378976  0.026800445            7 
  966000    1.0941082   -7.4386251    305.59389  0.026362482  0.026792373            2 
  967000    1.1128543    -7.451055    304.90792  0.026276105    0.0267844            3 
  968000     1.077082    -7.449055    305.97393  0.026340731  0.026776467            5 
  969000    1.1066235   -7.4039862     308.5993  0.026539327  0.026768919            3 
  970000    1.1035819   -7.4342601    306.49206  0.026330933  0.026761269            4 
  971000       1.1002   -7.4223972    306.54994  0.026308783  0.026753369            3 
  972000    1.0963015   -7.3933835    307.68223  0.026378792   0.02674577            3 
  973000     1.086155   -7.4109486    308.34158  0.026408151  0.026738105            3 
  974000     1.100531   -7.4366355    308.11244  0.026361434  0.026730431            2 
  975000    1.1083243   -7.3820324    308.53727  0.026370707  0.026722772            5 
  976000    1.1025482   -7.4281705    307.67654  0.026270196    0.0267151            2 
  977000    1.1008814   -7.4095627    309.03527    0.0263592  0.026707517            1 
  978000    1.1127712   -7.4302435     308.7869  0.026311086  0.026699813            6 
  979000    1.1231871   -7.4077805    309.86688  0.026376139  0.026692236            3 
  980000    1.0735416   -7.3916809    310.80562  0.026429049  0.026684746            3 
  981000    1.0894434   -7.4689041    309.60419   0.02630005  0.026677172            4 
  982000    1.0724306   -7.4134428    310.12264  0.026317264  0.026669535            3 
  983000    1.1103751   -7.4307167    310.20391  0.026297382  0.026662103            5 
  984000    1.0987065   -7.4383012    310.56103  0.026300901  0.026654635            3 
  985000    1.1038729   -7.4404201    311.37039  0.026342673  0.026647193            2 
  986000    1.1153709    -7.443479    311.75914  0.026348811  0.026639999            5 
  987000    1.1074359   -7.4087478    312.36536    0.0263733  0.026632788            3 
  988000    1.1014801   -7.4207948    312.08908  0.026323303  0.026625465            2 
  989000    1.0922463   -7.4640453    311.64811  0.026259531  0.026618204            3 
  990000    1.0788923    -7.437606    311.76557  0.026242893   0.02661085            3 
  991000    1.0830251   -7.4720897    311.85602  0.026224018  0.026603325            5 
  992000    1.0995052   -7.4409332    311.83999  0.026196235  0.026595903            3 
  993000    1.0959236   -7.4840468    311.97748  0.026181393  0.026588311            2 
  994000    1.0969096   -7.4118782    313.30216   0.02626611  0.026580779            6 
  995000    1.0976698    -7.438048     313.8063  0.026281935  0.026573252            3 
  996000    1.1136956   -7.4498752    313.43165  0.026224201  0.026565821            2 
  997000    1.1113255   -7.4203738    313.79931  0.026228629  0.026558385            1 
  998000    1.0994573   -7.4225793    313.21828  0.026153831  0.026551139            1 
  999000    1.0942909   -7.4396813    313.56827  0.026156846  0.026543681            4 
 1000000    1.1064578   -7.4491201    313.72297  0.026143581   0.02653607            4 
 1001000    1.0870956     -7.39763    314.68459  0.026197518  0.026528787            5 
 1002000    1.0797778   -7.4320002    315.67528  0.026253766  0.026521502            2 
 1003000    1.1005477   -7.4261633    315.13203  0.026182455  0.026513975            3 
 1004000    1.1087039   -7.4619475    314.43754  0.026098733  0.026506619            2 
 1005000    1.0918539   -7.4487418    315.88845  0.026193072    0.0264992            4 
 1006000     1.067297   -7.4485699    316.05026  0.026180439  0.026491989            3 
 1007000    1.0847719   -7.4540524    316.57719  0.026198046  0.026484595            3 
 1008000    1.1164803   -7.4758416    315.18665  0.026057097  0.026477073            2 
 1009000    1.0823196   -7.4166293    317.78684  0.026246023  0.026469615            2 
 1010000     1.115581   -7.4526252    316.71843  0.026131884  0.026462254            3 
 1011000    1.0899337   -7.4487304    316.68708  0.026103452  0.026455201            2 
 1012000    1.0917484     -7.41271    317.82185  0.026171101  0.026447972            3 
 1013000    1.0923582   -7.4616984    318.41902  0.026194391  0.026440771            2 
 1014000    1.0998439   -7.4443874     318.4332  0.026169724  0.026433578            3 
 1015000    1.0890084     -7.44288    318.70903  0.026166587  0.026426375            3 
 1016000    1.0832778   -7.4772971    318.20616  0.026099587  0.026419347            3 
 1017000    1.1018893   -7.4175063    319.68776  0.026195326   0.02641209            2 
 1018000    1.0901253    -7.444827    319.62144  0.026164165  0.026404779            2 
 1019000    1.1009302   -7.4608617    319.02882  0.026090025  0.026397597            9 
 1020000    1.1015826   -7.3976967    320.47864  0.026182895   0.02639065            2 
 1021000    1.0811588   -7.4391138    319.38133  0.026067689  0.026383661            5 
 1022000    1.0575855   -7.4294543    320.14037  0.026104075  0.026376428            5 
 1023000    1.0716661   -7.3990162    321.12091  0.026158432  0.026369276            4 
 1024000     1.083785   -7.4223993    319.87337  0.026031361  0.026361931            3 
 1025000    1.0597962   -7.3883862    321.83021  0.026165057  0.026354559            3 
 1026000    1.1003324   -7.4374662    320.84848  0.026059818  0.026347402            4 
 1027000     1.102645   -7.4270255    321.27039  0.026068678  0.026340174            2 
 1028000    1.0929298   -7.4573084    320.59426   0.02598851  0.026332918            4 
 1029000    1.1053965   -7.4403944    321.40038  0.026028538  0.026325432            2 
 1030000    1.0879513   -7.4397763    320.91531  0.025964022  0.026317961            3 
 1031000    1.0919393   -7.4181056    322.27473  0.026048717  0.026310653            3 
 1032000    1.0818197   -7.4659675    321.60478  0.025969378  0.026303403            7 
 1033000    1.0986697   -7.4620697    322.30625  0.026000827  0.026296358            2 
 1034000    1.0691686   -7.4478049     322.9967  0.026031326   0.02628897            5 
 1035000    1.0785997   -7.4293324      322.799  0.025990258  0.026281879            3 
 1036000     1.100066   -7.4429348    323.59302   0.02602904  0.026274845            2 
 1037000    1.0653685   -7.4559743      323.903  0.026028849  0.026267754            2 
 1038000    1.0699035   -7.4615881    324.27446  0.026033595  0.026260585            7 
 1039000    1.0979039   -7.4147029    325.18193  0.026081323  0.026253405            5 
 1040000    1.0932819   -7.4280879     324.7368  0.026020577  0.026246321            2 
 1041000    1.0829083    -7.442427    324.50041  0.025976658  0.026238968            3 
 1042000    1.0767687   -7.4635798    324.72185  0.025969438  0.026231522            2 
 1043000    1.0910747   -7.4587449    323.92304  0.025880716  0.026224201            1 
 1044000    1.1006525   -7.4579629    324.05518  0.025866474   0.02621687            3 
 1045000    1.0732729   -7.4405616    324.56462  0.025882346   0.02620936            3 
 1046000    1.0787975   -7.4271972      325.599  0.025940009  0.026202017            2 
 1047000    1.0767086   -7.4038242    325.99692  0.025946905  0.026194729            6 
 1048000    1.0931468   -7.4438599    326.67543    0.0259761  0.026187624            2 
 1049000    1.0760226   -7.4916346    325.14394  0.025829674  0.026180657            5 
 1050000    1.0732615   -7.4277672    327.83105  0.026018338  0.026173732            3 
 1051000    1.0906053   -7.4745587    326.56099  0.025892879  0.026166761            5 
 1052000    1.0735222   -7.4576031    326.51084  0.025864294  0.026159597            8 
 1053000    1.0659559   -7.5334614    326.00393  0.025799615  0.026152327            2 
 1054000    1.0835584   -7.4184833    328.33341  0.025959315  0.026145195            3 
 1055000    1.0802976   -7.4642987    326.94767   0.02582525  0.026138137            1 
 1056000    1.0950949   -7.4165433    329.38459  0.025993102  0.026131081            3 
 1057000     1.088747   -7.4290463    326.97383  0.025778447  0.026123792            2 
 1058000    1.0836859   -7.4861141    327.89275  0.025826461  0.026116295            7 
 1059000    1.0820565   -7.4592705    327.64613  0.025782667  0.026108944            3 
 1060000    1.0809259   -7.4355708    329.20175  0.025880641  0.026101598            4 
 1061000    1.0520139   -7.4969985    328.16996  0.025775209  0.026094371            7 
 1062000    1.0823742   -7.4552652    328.95814  0.025812786  0.026087134            1 
 1063000    1.0752649   -7.4596211    330.10433  0.025878358  0.026079903            5 
 1064000    1.0711121   -7.4579424    329.22783  0.025785388  0.026072749            2 
 1065000    1.0705731   -7.4196201    330.33742  0.025847998  0.026065784            3 
 1066000     1.077331   -7.4963712    330.35914  0.025825449  0.026058533            5 
 1067000    1.0834576   -7.4784487    330.36618  0.025801795  0.026051378            6 
 1068000    1.0628094   -7.4197099    331.22946  0.025844996  0.026044485            3 
 1069000    1.0858979   -7.4808559    331.23226  0.025821037  0.026037397            3 
 1070000    1.0654119   -7.4951828    329.84806  0.025689101   0.02603006            2 
 1071000    1.0815166   -7.4420605    331.19463   0.02576989   0.02602284            3 
 1072000    1.0808836   -7.4400457    331.86376  0.025797867  0.026015641            3 
 1073000    1.0871795    -7.467703    331.84189  0.025772126  0.026008535            3 
 1074000    1.0869479   -7.4473798      332.324  0.025785537  0.026001423            1 
 1075000     1.076324   -7.4542947    333.15217  0.025825749  0.025994404            3 
 1076000    1.0835356    -7.447926    332.71367  0.025767788  0.025987441            2 
 1077000    1.1042979   -7.4471597    333.12647  0.025775802  0.025980398            2 
 1078000    1.0690019   -7.4360781    333.16485  0.025754858  0.025973399            3 
 1079000    1.0780805   -7.4859814    333.03163  0.025720701  0.025966368            4 
 1080000    1.0670966   -7.4746338    332.59768  0.025663401  0.025959228            5 
 1081000    1.1108573   -7.4540857    333.83503  0.025735047   0.02595208            2 
 1082000    1.0867818   -7.4498323    334.18755  0.025738413  0.025944924            3 
 1083000    1.0706142   -7.4516949    333.12769  0.025633094  0.025937889            3 
 1084000    1.0824274    -7.460406    334.24467  0.025695316  0.025930731            4 
 1085000    1.0737197   -7.4515069    333.59234  0.025621531  0.025923441            4 
 1086000    1.0750274   -7.4673784    334.16107   0.02564158  0.025916116            2 
 1087000    1.0695962   -7.4718164    333.95113  0.025601896  0.025908608            3 
 1088000    1.0615605   -7.4946925    332.72371  0.025484353  0.025901019            2 
 1089000    1.0631424   -7.4816134    333.88813  0.025550056  0.025893448            2 
 1090000    1.0896257   -7.4643676    334.61415  0.025582122  0.025885801            4 
 1091000    1.0719677   -7.4789479    333.61235  0.025482153  0.025878041            7 
 1092000    1.0572902   -7.4813738    335.12681   0.02557439  0.025870466            3 
 1093000    1.0653474   -7.5159772    334.78538   0.02552496  0.025862828            2 
 1094000    1.0897898   -7.4709197    333.82794  0.025428698   0.02585527            5 
 1095000     1.065582   -7.4995099    335.06149  0.025499352  0.025847634            1 
 1096000    1.0815168   -7.4782823    336.22378  0.025564461  0.025840111            8 
 1097000     1.075651   -7.4678242     335.7037  0.025501648  0.025832572            2 
 1098000    1.0894221   -7.5035216     335.3371    0.0254506  0.025824886            3 
 1099000    1.0929317   -7.5031029    336.45455  0.025512174  0.025817172            6 
 1100000    1.0850872   -7.4653341    336.39712   0.02548463  0.025809585            8 
 1101000    1.0688503   -7.4734353    336.86631  0.025496996  0.025802148            3 
 1102000    1.0695493   -7.4855849    336.46638  0.025443616  0.025794297            5 
 1103000    1.0763777   -7.4832595    336.72782  0.025440301  0.025786435            5 
 1104000    1.0583085   -7.5008753    336.35087  0.025388804  0.025778589            4 
 1105000     1.081594   -7.4452143    337.92353  0.025484429  0.025770967            2 
 1106000    1.0635556   -7.4593427    338.14503  0.025478076  0.025763401            2 
 1107000    1.0594346   -7.4932745    336.49026  0.025330492  0.025755638            7 
 1108000    1.0914283   -7.4704407    337.39466  0.025375651  0.025747962            3 
 1109000    1.0692085   -7.4941477    337.19949  0.025338104  0.025740367            4 
 1110000     1.070569   -7.5256143    337.50143  0.025337945  0.025732601            3 
 1111000    1.0712377   -7.4838985     337.8569  0.025341802  0.025724655            3 
 1112000    1.0559155   -7.5139254    338.17558  0.025342894  0.025716842            5 
 1113000    1.0787958    -7.511874    337.58082  0.025275593  0.025708773            6 
 1114000    1.0624039   -7.4842276     339.3357  0.025384179  0.025701034            2 
 1115000    1.0956503   -7.4559671    339.30816  0.025359354  0.025693304            2 
 1116000    1.0410066   -7.5006003    340.06502  0.025393146  0.025685265            5 
 1117000    1.0594839   -7.5216733    337.55719  0.025183318  0.025676995            5 
 1118000    1.0587472   -7.4588931    339.84676  0.025331452  0.025668839            3 
 1119000    1.0704462   -7.4743283    339.13852  0.025256071  0.025661109            3 
 1120000    1.0826328   -7.4449126     340.5258  0.025336741  0.025653194            3 
 1121000    1.0744613   -7.4676879    340.18356  0.025288697  0.025645518            5 
 1122000    1.0744916   -7.4842137    342.21152  0.025416779  0.025637837            5 
 1123000    1.0530784   -7.5037266    340.65524  0.025278661  0.025629953            3 
 1124000     1.073933   -7.4579438    340.82184  0.025268523  0.025622214            4 
 1125000    1.0837135   -7.4650426     341.2603  0.025278541  0.025614548            4 
 1126000    1.0796325   -7.4731922    342.12323  0.025319955  0.025606965            5 
 1127000    1.0813589   -7.4701745    341.61315  0.025259771  0.025599322            6 
 1128000    1.0734436   -7.5220659    341.18189  0.025205518  0.025591542            3 
 1129000    1.0692994   -7.5208656    341.20831  0.025185142  0.025583659            3 
 1130000    1.0704253   -7.5030296    342.69414  0.025272429  0.025575934            2 
 1131000    1.0690651   -7.4982845     343.2613  0.025291873   0.02556823            2 
 1132000     1.085564   -7.5188732     341.6744  0.025152709  0.025560555            4 
 1133000    1.0483862   -7.5163315     342.6238  0.025200339  0.025552707            1 
 1134000    1.0635661   -7.4673463    343.16388  0.025217804  0.025544819            4 
 1135000    1.0527516   -7.4566133    343.70423  0.025235259  0.025537001            3 
 1136000    1.0809667   -7.5071924     342.2404  0.025105663  0.025529233            7 
 1137000    1.0672162    -7.496331    343.32655  0.025163189  0.025521421            2 
 1138000    1.0783596   -7.4742915    343.97886  0.025188845    0.0255135            4 
 1139000    1.0645732   -7.4872699    343.86262  0.025158225   0.02550556            2 
 1140000    1.0556715   -7.4557931     344.1434  0.025156681  0.025497789            5 
 1141000    1.0656147   -7.4964978    344.13494  0.025134016  0.025489928            3 
 1142000    1.0691998   -7.4960604    343.62456  0.025074764  0.025481941            3 
 1143000    1.0495612   -7.5361525     344.8227   0.02514018  0.025474038            5 
 1144000    1.0860903   -7.4534475    345.34125  0.025155977  0.025466102            4 
 1145000    1.0772069   -7.4949933    344.41274  0.025066429  0.025458243            3 
 1146000    1.0616778   -7.5255114    344.10348  0.025022068  0.025450115            3 
 1147000    1.0583924   -7.4960836    345.01542  0.025066508  0.025441946            3 
 1148000    1.0956634   -7.4932089    345.06093  0.025047977  0.025433718            1 
 1149000    1.0771812   -7.4725077    345.58567  0.025064235  0.025425604            5 
 1150000    1.0722593   -7.5012003    345.85699  0.025062101  0.025417635            8 
 1151000    1.0460217   -7.5313856    346.67461  0.025099523  0.025409824            5 
 1152000     1.061812   -7.5071137    345.71033  0.025007981  0.025401961            7 
 1153000    1.0658611   -7.5006891    346.42126  0.025037674  0.025393992            3 
 1154000    1.0657213   -7.5102836    346.40977  0.025015148  0.025386042            2 
 1155000    1.0589514   -7.5061485    346.93302  0.025031242  0.025378046            2 
 1156000    1.0708426   -7.4937714    346.98318  0.025013205  0.025370048            3 
 1157000    1.0667083   -7.5597048     346.0844  0.024926851  0.025362048            4 
 1158000     1.052712   -7.5084369     347.4418  0.025003008  0.025354089            2 
 1159000    1.0653899   -7.5280831    346.67209  0.024926092  0.025345962            3 
 1160000    1.0431113   -7.4556248    348.45676  0.025032813  0.025337928            3 
 1161000    1.0574318   -7.5006501    347.52727  0.024944536  0.025329789            7 
 1162000    1.0780423   -7.4797876    347.79264    0.0249421  0.025321787            3 
 1163000     1.088822   -7.4965324    347.94619  0.024931656  0.025313861            5 
 1164000     1.039211   -7.4567388    348.84427  0.024974532  0.025306121            4 
 1165000    1.0705201   -7.5117256    349.05108  0.024967888  0.025298135           11 
 1166000    1.0616184   -7.5509844    347.74121   0.02485286  0.025290157            4 
 1167000    1.0768195   -7.4719048    350.13797  0.025002711  0.025282136            4 
 1168000    1.0573933   -7.4914321    349.65763  0.024947034  0.025274228            5 
 1169000    1.0489701   -7.5138774    349.30048  0.024900234  0.025266146            3 
 1170000    1.0454816   -7.5252173    349.47918  0.024891679  0.025258059            3 
 1171000    1.0832517   -7.5091428    349.57222  0.024877044  0.025249873            2 
 1172000    1.0839258   -7.5425017     349.8594  0.024876237  0.025241687            2 
 1173000    1.0693889   -7.4799121    351.39784  0.024964325    0.0252336            6 
 1174000    1.0671485   -7.5436948    348.97197  0.024770866   0.02522556            5 
 1175000    1.0872043   -7.5373897    349.87444   0.02481379  0.025217434            4 
 1176000    1.0918293   -7.4958821    349.65444  0.024777101  0.025209329            2 
 1177000    1.0715535   -7.5320699    350.02654  0.024782395  0.025201276            4 
 1178000    1.0579076   -7.5000719    350.72163  0.024810528  0.025193201            2 
 1179000    1.0692487   -7.5309631     350.1824  0.024751371  0.025184987            2 
 1180000    1.0597026   -7.5064441    351.83437   0.02484706  0.025176969            3 
 1181000    1.0489433   -7.5492981    351.21465  0.024782293   0.02516888            2 
 1182000    1.0925327    -7.460161    352.28334  0.024836671  0.025160908            3 
 1183000     1.051847   -7.5140305    351.21926   0.02474072  0.025152763            5 
 1184000    1.0699971   -7.5467775    352.24999   0.02479237  0.025144511            5 
 1185000    1.0747008   -7.5485078    352.17331  0.024766056  0.025136307            4 
 1186000    1.0590312    -7.520637    352.83288  0.024791518  0.025128295            4 
 1187000     1.072394   -7.5512523    351.44187  0.024672976  0.025120327            4 
 1188000    1.0597514   -7.4635597    353.90539  0.024825014   0.02511244            3 
 1189000    1.0771587   -7.5075109    353.22686  0.024756578  0.025104617            2 
 1190000    1.0668367   -7.5099119    353.16461  0.024731415  0.025096545            3 
 1191000     1.073243    -7.537214    351.42952  0.024589247  0.025088442            2 
 1192000    1.0413798   -7.4960247    353.80658    0.0247348  0.025080447            2 
 1193000     1.046205   -7.5070194    352.94859  0.024654135  0.025072347            7 
 1194000    1.0808931   -7.5136967    354.53747  0.024744379  0.025064394            2 
 1195000    1.0757495   -7.5337047    353.93748  0.024681832  0.025056383            4 
 1196000    1.0556771   -7.5154702    355.37432   0.02476131  0.025048459            3 
 1197000    1.0497939   -7.5267564    353.51255   0.02461101  0.025040583            2 
 1198000    1.0717896   -7.5079313    355.74407  0.024745692  0.025032687            4 
 1199000    1.0532975   -7.5255582    355.65336  0.024718749  0.025024898            5 
 1200000     1.069362   -7.5316499    355.65232  0.024698078  0.025017141            3 
 1201000    1.0682452   -7.5410689    355.19093  0.024645499  0.025009184            2 
 1202000    1.0686406   -7.5297354    355.34128  0.024635418  0.025001229            2 
 1203000    1.0567284   -7.5580307    355.21245  0.024606016  0.024993091            4 
 1204000    1.0244873   -7.5389224    356.11531   0.02464807  0.024985032            5 
 1205000    1.0295372   -7.5102705    354.94912  0.024546965  0.024977095            5 
 1206000    1.0587449   -7.5294327    355.86434  0.024589852  0.024969056            4 
 1207000    1.0666181   -7.5284853    356.81051  0.024634805  0.024961041            2 
 1208000     1.069486   -7.5341474    356.62982  0.024601947   0.02495319            3 
 1209000    1.0545888   -7.5633955    355.83257  0.024526645  0.024945305            4 
 1210000    1.0647392   -7.5561378    356.76174  0.024570367  0.024937302            8 
 1211000    1.0516185   -7.5261303    357.82698  0.024623381   0.02492946            2 
 1212000    1.0542601   -7.5493445    357.86383  0.024605599  0.024921282            5 
 1213000    1.0694912   -7.5597839    357.49922  0.024560265  0.024913269            2 
 1214000    1.0433857    -7.540045    357.53723  0.024542643  0.024905155            2 
 1215000    1.0606583   -7.5207326    357.89542  0.024547011  0.024897297            3 
 1216000    1.0546288   -7.5441201    358.14106  0.024543658  0.024889336            4 
 1217000    1.0676645   -7.5104717    359.88731  0.024643064  0.024881487            2 
 1218000    1.0451581   -7.5196831     359.2636  0.024580159  0.024873565            2 
 1219000    1.0333339    -7.524866    358.05773  0.024477559  0.024865544            3 
 1220000    1.0678077   -7.5237038    360.01957  0.024591501  0.024857714            2 
 1221000     1.056592   -7.5542616    359.30247  0.024522418  0.024849768            4 
 1222000    1.0680565    -7.563855    359.13485   0.02449092  0.024841805            5 
 1223000     1.086964   -7.5570475    359.05348   0.02446535  0.024833796            3 
 1224000    1.0505762   -7.5032852    360.28534  0.024529231  0.024826083           10 
 1225000    1.0679031   -7.5159782     359.7569  0.024473259  0.024818276            7 
 1226000    1.0477796   -7.5026251    361.24563  0.024554488  0.024810527            7 
 1227000    1.0588109   -7.5358924    360.31782  0.024471463  0.024802702            4 
 1228000    1.0657502   -7.5269992    359.73239  0.024411807  0.024794808            3 
 1229000     1.019787    -7.529755    359.67031  0.024387734  0.024786914            6 
 1230000    1.0334221    -7.548215    360.69999  0.024437669  0.024778889            5 
 1231000    1.0507781   -7.5580268    359.93176  0.024365811  0.024770857            3 
 1232000    1.0513907   -7.5544355    360.57746  0.024389709   0.02476292            3 
 1233000     1.045327     -7.57736     361.2887  0.024417998  0.024754889            2 
 1234000    1.0597059   -7.5632227     361.2723  0.024397103  0.024746867            4 
 1235000    1.0584001   -7.4967583    362.49261   0.02445969  0.024738941            4 
 1236000    1.0544406   -7.5288038    361.53552  0.024375372  0.024731083            5 
 1237000    1.0484366   -7.5374616     362.2518  0.024403921  0.024723172            3 
 1238000     1.060695   -7.5789622     362.2629  0.024384956   0.02471517            5 
 1239000    1.0503756   -7.5990534    362.07179   0.02435242  0.024707263            5 
 1240000    1.0357623   -7.5575882    363.19942  0.024408563  0.024699377            3 
 1241000    1.0502431   -7.5718556    363.06686  0.024379993  0.024691523            2 
 1242000    1.0508617   -7.5233223    363.79031  0.024408904  0.024683657            3 
 1243000    1.0342521   -7.5433518    362.69271  0.024315681  0.024675839            4 
 1244000    1.0581149   -7.5396387    363.01634  0.024317815  0.024667842            3 
 1245000    1.0483788   -7.5625731    363.40714  0.024324441  0.024659888            4 
 1246000    1.0564336   -7.5212426    363.27138  0.024295838  0.024652023            2 
 1247000    1.0830479   -7.5327094    364.53391  0.024360727  0.024644169            4 
 1248000    1.0645246   -7.5424318    364.18598  0.024317974  0.024636302            4 
 1249000    1.0559603   -7.5435149    364.47496  0.024317785  0.024628445            6 
 1250000    1.0627803   -7.5628079    365.12875  0.024341916  0.024620627            3 
 1251000    1.0584782    -7.557407    364.75291  0.024297423  0.024612873            5 
 1252000    1.0642046   -7.5425672     365.6749  0.024339384  0.024605124            4 
 1253000    1.0591933   -7.5795552    365.15533  0.024285404  0.024597377            2 
 1254000    1.0675729   -7.5321955    365.87028  0.024313549  0.024589624            2 
 1255000    1.0601921   -7.5475523    365.64898  0.024279481  0.024581876            3 
 1256000    1.0746481    -7.561675    365.25883  0.024234264  0.024574216            3 
 1257000     1.058942    -7.590649    364.94805  0.024194381  0.024566261            2 
 1258000    1.0629754   -7.5895215    366.15427  0.024255052  0.024558574            2 
 1259000    1.0543629   -7.5090474    366.93632  0.024287551  0.024550858            3 
 1260000    1.0563091   -7.5384704    366.92858  0.024267763  0.024543147            2 
 1261000    1.0504919   -7.4960698    366.57015  0.024224832  0.024535417            6 
 1262000    1.0395676   -7.5155674    367.26132  0.024251276  0.024527743            2 
 1263000    1.0660539    -7.545429     368.2059  0.024294398   0.02452002            2 
 1264000    1.0412865   -7.5612015    366.81654   0.02418358  0.024512387            2 
 1265000    1.0480782   -7.5531117    367.98505  0.024241439  0.024504565            1 
 1266000    1.0502176   -7.5633539     367.7262  0.024205253  0.024496788            5 
 1267000    1.0548192   -7.5596773    367.40979  0.024165337  0.024488924            2 
 1268000    1.0298968   -7.5522857    368.47565  0.024216328   0.02448122            2 
 1269000    1.0710838    -7.528133    367.92275  0.024160937  0.024473319            4 
 1270000    1.0474317   -7.5318555    368.79062  0.024198859   0.02446553            2 
 1271000    1.0779154   -7.5564122    368.44265  0.024157006  0.024457673            2 
 1272000     1.034126   -7.5632758     368.3132  0.024129534  0.024449844            4 
 1273000    1.0712061    -7.516156    368.58081  0.024128097  0.024441885            3 
 1274000    1.0340588   -7.5713875    368.11891  0.024078945  0.024434039            6 
 1275000    1.0381437    -7.579899    368.59085  0.024090905  0.024426197            4 
 1276000    1.0357056   -7.5275146    370.32804  0.024185478  0.024418548            3 
 1277000     1.038678   -7.5428656    370.84616  0.024200349  0.024410938            2 
 1278000    1.0594718   -7.5157358    371.95883  0.024253966  0.024403489            2 
 1279000    1.0408164   -7.5367579    370.41947  0.024134706  0.024396077            6 
 1280000    1.0523729   -7.5538773    370.87585  0.024145563  0.024388653            3 
 1281000    1.0609811   -7.5549488    370.40766  0.024096257  0.024381099            2 
 1282000    1.0522874   -7.5388353    370.71529  0.024097458  0.024373403            2 
 1283000    1.0547154   -7.5641917    371.62007  0.024137443  0.024365879            5 
 1284000    1.0516414    -7.538789    371.85043  0.024133595  0.024358213            4 
 1285000    1.0438345   -7.5481924    372.42433  0.024152032  0.024350625            4 
 1286000    1.0313287   -7.5444802    373.75853  0.024219708  0.024343036           11 
 1287000    1.0495275   -7.6132725    370.64133   0.02399905  0.024335317            4 
 1288000    1.0225178    -7.581416     372.1402  0.024077394  0.024327633            2 
 1289000    1.0509816   -7.5585943    373.32074  0.024135036  0.024320042            2 
 1290000    1.0719552   -7.5304295    373.55604  0.024131527  0.024312551            4 
 1291000    1.0767024   -7.5731812    371.98595  0.024011487  0.024304855            4 
 1292000    1.0414613   -7.6376347    371.64495  0.023970907  0.024297034            3 
 1293000    1.0456976   -7.5726354    373.15575  0.024049739  0.024289186            4 
 1294000    1.0489224   -7.5313082    373.63413  0.024061961  0.024281395            2 
 1295000    1.0681308   -7.5680837    372.86867  0.023994123  0.024273569            2 
 1296000    1.0314377    -7.572129    373.91074  0.024042614  0.024265783            4 
 1297000    1.0531613   -7.5608554    372.73459  0.023948509   0.02425791            6 
 1298000    1.0472439   -7.5820854    372.18199   0.02389458  0.024250038            6 
 1299000    1.0419334   -7.5877359    372.56851  0.023900982  0.024241995            8 
 1300000    1.0552003   -7.5830778    372.39153  0.023871252  0.024233925            5 
 1301000    1.0381258   -7.6056648    371.99057   0.02382722  0.024225801            5 
 1302000    1.0462934   -7.5800513    374.52727   0.02397128  0.024217911            2 
 1303000    1.0441133   -7.5064307    376.01106  0.024047778  0.024210082            3 
 1304000    1.0318436   -7.5423231    375.00474  0.023965027  0.024202172            2 
 1305000    1.0526399    -7.590226    373.83336  0.023871862  0.024194177            4 
 1306000    1.0445273   -7.5673945    375.37858  0.023952181   0.02418624            3 
 1307000    1.0484518   -7.5681287    373.36758  0.023805635  0.024178301            3 
 1308000    1.0606645    -7.636676    372.85455   0.02375475  0.024170043            6 
 1309000    1.0277848   -7.5899964     373.7554  0.023793952  0.024161679            2 
 1310000    1.0292669   -7.5991583    373.64438  0.023768727  0.024153475            3 
 1311000    1.0481504   -7.5883444    373.56725  0.023745693   0.02414529            2 
 1312000    1.0390271   -7.5375541    374.82831  0.023807693   0.02413711            2 
 1313000    1.0495268   -7.5820599    374.36003  0.023759839  0.024129101            2 
 1314000    1.0409047   -7.6134757     375.0051  0.023782668  0.024121138            4 
 1315000    1.0310433   -7.6323199    374.73598  0.023747527  0.024113067            4 
 1316000    1.0395462   -7.6008442    375.05812  0.023749881  0.024104971            5 
 1317000    1.0317957   -7.5832177    375.53827  0.023762229  0.024096938            2 
 1318000    1.0568761   -7.5971846     376.0908  0.023779135  0.024089043            3 
 1319000    1.0175172   -7.5743924    376.99789  0.023818416  0.024081122            3 
 1320000    1.0499921   -7.5657058    376.86289  0.023791849  0.024073265            3 
 1321000    1.0255102    -7.595484    376.35762  0.023741964  0.024065399            3 
 1322000    1.0530837   -7.6091289    377.21369  0.023777969  0.024057582            7 
 1323000    1.0366127   -7.5832242    377.15891  0.023756545  0.024049737            5 
 1324000    1.0608674   -7.5745176    377.29924  0.023747435  0.024041922            4 
 1325000    1.0447628   -7.5814469    377.66663  0.023752619  0.024034125            8 
 1326000    1.0377043   -7.6024762    376.88618  0.023685657  0.024026241            4 
 1327000    1.0616988   -7.6006152    377.14888  0.023684305  0.024018456            5 
 1328000    1.0431468   -7.5711395    378.38911  0.023744296  0.024010579            3 
 1329000    1.0327261    -7.619388    377.56554   0.02367479  0.024002729            3 
 1330000    1.0524599   -7.5877907    378.89268  0.023740143  0.023995115            2 
 1331000    1.0335904   -7.5730066    379.45129  0.023757281  0.023987665            5 
 1332000    1.0289461    -7.587315    379.34199  0.023732607   0.02397999            5 
 1333000    1.0314532   -7.5977494    380.12582  0.023763805  0.023972295            7 
 1334000    1.0729033   -7.5931871    379.78302  0.023724576  0.023964572            8 
 1335000    1.0190575   -7.6544492    378.39449  0.023620131  0.023956822            4 
 1336000    1.0349773   -7.6147613    379.84874   0.02369316  0.023949144            3 
 1337000    1.0329417   -7.6137682    379.36738  0.023645436  0.023941479            2 
 1338000    1.0313561   -7.5830902    379.65996  0.023645986  0.023933771            2 
 1339000     1.036859   -7.5233078    381.31679  0.023731441  0.023926059            3 
 1340000    1.0359746   -7.5820742    380.83475  0.023683753  0.023918364            3 
 1341000    1.0117482     -7.60995    379.95379  0.023611347  0.023910597            2 
 1342000    1.0468983   -7.5947207    381.25455  0.023674525   0.02390278            9 
 1343000    1.0272771   -7.6517935    380.35443  0.023601044  0.023894894            6 
 1344000    1.0351747   -7.6653874    380.06806  0.023565728  0.023887001            8 
 1345000    1.0333355   -7.5817419    381.53154  0.023638881  0.023879193            3 
 1346000    1.0248701   -7.6306971     380.3882  0.023550532  0.023871318            2 
 1347000    1.0496459   -7.5858111    382.24611   0.02364799  0.023863683            3 
 1348000    1.0555733   -7.5609873    381.56103  0.023588095  0.023855932            4 
 1349000    1.0109897   -7.5950331    381.88665  0.023590725  0.023848208            3 
 1350000    1.0463092   -7.6020601    382.39549   0.02360466  0.023840531            2 
 1351000    1.0435291   -7.6215054    382.90668   0.02361872  0.023832826            2 
 1352000    1.0071409   -7.5588677    383.65565  0.023647414  0.023825348            6 
 1353000    1.0443327     -7.59158    382.89456   0.02358306  0.023817774            6 
 1354000    1.0396935   -7.6313699     381.8646  0.023502253  0.023810065            3 
 1355000    1.0510159   -7.6349289    382.47961  0.023522732  0.023802306            2 
 1356000    1.0325982   -7.6350679    383.33877  0.023558184  0.023794711            1 
 1357000    1.0275644   -7.5490932    385.11399   0.02364984  0.023787208            7 
 1358000    1.0698771   -7.5863152    384.73499  0.023609167  0.023779943            4 
 1359000    1.0336114   -7.5849113    384.43437  0.023573361  0.023772572            4 
 1360000    1.0392616   -7.5973463    384.03851  0.023531771  0.023764995            4 
 1361000    1.0376416   -7.6038213     385.0061  0.023573727  0.023757484            2 
 1362000    1.0309681    -7.612322    382.90917  0.023428118  0.023749956            4 
 1363000    1.0554806   -7.5913444    383.98741  0.023476853  0.023742386            3 
 1364000    1.0447897   -7.6068281    385.36409   0.02354375  0.023734886            4 
 1365000     1.015075   -7.5625352    386.35831  0.023587198  0.023727325            3 
 1366000    1.0570727   -7.6112722    384.85065  0.023477956  0.023719709            5 
 1367000    1.0357474   -7.5997099    386.43629  0.023557443  0.023712041            3 
 1368000    1.0501423   -7.5735408    386.03471   0.02351576   0.02370441            6 
 1369000    1.0410508   -7.6111946     385.5775  0.023470751  0.023696741            4 
 1370000    1.0253529   -7.6324808     385.0001  0.023418498  0.023688925            4 
 1371000    1.0061872   -7.6155325    385.20815  0.023414062  0.023681184            4 
 1372000    1.0340496   -7.6069621    385.36684  0.023406635    0.0236735            2 
 1373000    1.0598948   -7.5824072    387.32128  0.023508211  0.023665953            1 
 1374000    1.0113331   -7.5913513    386.54226  0.023443854  0.023658344            7 
 1375000    1.0348616   -7.6122547     386.7407   0.02343883  0.023650768            3 
 1376000    1.0407665   -7.6578702    386.34308  0.023397716  0.023643025            5 
 1377000    1.0476191   -7.6139681    387.50352  0.023450951  0.023635355            2 
 1378000    1.0410658   -7.6180803    386.71281  0.023386116  0.023627706            4 
 1379000     1.017902     -7.63302    386.58128  0.023361208  0.023620044            2 
 1380000     1.033841   -7.6288234    388.00549  0.023430283  0.023612304            5 
 1381000    1.0572968   -7.5830154    387.78044  0.023399737  0.023604687            3 
 1382000    1.0308647   -7.6088906    386.96103  0.023333395   0.02359712            6 
 1383000    1.0209738    -7.632755    388.55741  0.023412715   0.02358955            9 
 1384000    1.0214479    -7.618483    387.90645  0.023356602  0.023581914            4 
 1385000   0.99508285   -7.6224564    387.70922  0.023327871   0.02357431            3 
 1386000    1.0162206   -7.5747998    390.07505  0.023453286  0.023566641            4 
 1387000      1.03052   -7.5885789    389.29098  0.023389268  0.023558896            6 
 1388000    1.0480755   -7.5767323    389.40996   0.02337956  0.023551328            2 
 1389000     1.005827   -7.6090706    390.00478  0.023398415  0.023543954            3 
 1390000    1.0215681   -7.6287223    388.35889  0.023282907  0.023536577            4 
 1391000    1.0263501   -7.6133118    389.86969  0.023356679   0.02352919            4 
 1392000    1.0210049   -7.6117218    389.96836  0.023345807   0.02352176            3 
 1393000    1.0257249   -7.6150903    389.65716  0.023310431  0.023514265            5 
 1394000    1.0353068   -7.6133469    389.47431  0.023282778  0.023506815            5 
 1395000    1.0406262   -7.6063469    390.60504  0.023333634  0.023499532            3 
 1396000    1.0314035   -7.6127356    391.32435  0.023359859  0.023492283            1 
 1397000     1.032545   -7.5830117    392.31425  0.023402186   0.02348501            3 
 1398000    1.0487644   -7.5928226    391.09954  0.023313039  0.023477642            3 
 1399000    1.0363432   -7.5636338    391.20972  0.023302938   0.02347034            6 
 1400000    1.0301573   -7.5721195     391.8072  0.023321857  0.023463099            3 
 1401000     1.013834   -7.5649683    391.22838  0.023270781  0.023455921            4 
 1402000    1.0334202   -7.5806015    392.68708  0.023340887  0.023448711            6 
 1403000    1.0373207   -7.6042881    393.01751  0.023343877  0.023441447            5 
 1404000    1.0409069   -7.6200697    393.51178  0.023356587  0.023434161            5 
 1405000    1.0105717   -7.6142132    392.94797  0.023306523  0.023426951            3 
 1406000    1.0422868    -7.601901    393.93526  0.023348463  0.023419849            3 
 1407000    1.0270219   -7.6310924    393.42963  0.023301921  0.023412704            3 
 1408000    1.0468031   -7.6074823    393.82608  0.023308835  0.023405625            4 
 1409000    1.0022396   -7.6055137    392.16195  0.023193869  0.023398307            7 
 1410000    1.0251785   -7.6337762    392.74417   0.02321183   0.02339106            3 
 1411000    1.0183806   -7.6017631    394.17903  0.023280122  0.023383784            3 
 1412000    1.0249658   -7.6323892    392.77499  0.023180771  0.023376605            2 
 1413000     1.016126   -7.6108064    393.13867  0.023185815  0.023369272            3 
 1414000    1.0299729   -7.5878633    394.19993  0.023231962   0.02336208            2 
 1415000    1.0349847   -7.5783173    394.98154  0.023261575  0.023354999            3 
 1416000    1.0383266   -7.5925259    395.22704  0.023259595  0.023347752            9 
 1417000    1.0376888   -7.6046538    393.41603  0.023136676  0.023340458            4 
 1418000    1.0398529   -7.5886801    395.09476  0.023219015  0.023333003            2 
 1419000    1.0127101    -7.614865    395.25761  0.023212216  0.023325718            3 
 1420000    1.0364525    -7.632584    394.07481  0.023126456  0.023318422            3 
 1421000    1.0401902   -7.5905583    394.83203  0.023154588  0.023311119            3 
 1422000    1.0437241   -7.6356056    395.46708   0.02317552  0.023303788            4 
 1423000    1.0211776   -7.6082072    395.49456  0.023160843   0.02329649            5 
 1424000     1.020485   -7.6394259    396.74366  0.023217677  0.023289177            3 
 1425000   0.99372973   -7.6248691    396.04922  0.023160773  0.023281894            3 
 1426000    1.0288164   -7.6346632     395.4998  0.023112424  0.023274503            3 
 1427000    1.0230537   -7.6179538    396.13129  0.023133105   0.02326723            3 
 1428000     1.012137    -7.640577    395.36131  0.023071972   0.02325982            3 
 1429000    1.0091405   -7.6277905    396.64308  0.023130574  0.023252517            6 
 1430000    1.0419781   -7.6408599    395.82028   0.02306645  0.023245244            3 
 1431000    1.0071814   -7.6477794    396.00275  0.023060957  0.023237988            2 
 1432000    1.0216879   -7.6679334    396.32152  0.023063403  0.023230737            5 
 1433000    1.0247249   -7.6440709    395.60708  0.023005762  0.023223455            4 
 1434000    1.0271047   -7.6753024    395.63238  0.022991189  0.023216135            4 
 1435000    1.0067573   -7.6431287    398.34843  0.023132894  0.023208749            3 
 1436000    1.0116603   -7.6142945    397.81702  0.023085946  0.023201508            3 
 1437000    1.0202616   -7.6081815    398.78749   0.02312616   0.02319443            2 
 1438000    1.0105973   -7.6179138    399.03187  0.023124239  0.023187348           11 
 1439000    1.0196321   -7.6383103    398.03447  0.023050409  0.023180211            5 
 1440000   0.99846079   -7.6233941    398.57581   0.02306573  0.023173035            2 
 1441000    1.0239525   -7.6566833    398.34039  0.023036108   0.02316578            4 
 1442000     1.003133   -7.6332353    398.66303  0.023038779  0.023158421           13 
 1443000    1.0235698   -7.6315255    398.11164   0.02299097  0.023151143           13 
 1444000    1.0406613   -7.6324409    398.70193  0.023009114  0.023143786            5 
 1445000    1.0070036   -7.6581025    398.37348  0.022974249  0.023136484            6 
 1446000    1.0260848   -7.6632582    397.66838  0.022917726  0.023129185            3 
 1447000    1.0334709   -7.6100457    399.92728  0.023031979  0.023121915            7 
 1448000    1.0008106   -7.6348392    398.32291   0.02292374  0.023114689            3 
 1449000    1.0035622   -7.6239896    399.15874  0.022955989  0.023107352            8 
 1450000    1.0309443   -7.6600453     399.2703  0.022946569   0.02309998            8 
 1451000    1.0163709   -7.6757061     398.5634  0.022890156  0.023092547            7 
 1452000    1.0336682   -7.6442683    400.62893  0.022992937  0.023085107            3 
 1453000    1.0317447   -7.6561439    399.86035  0.022933032  0.023077716            3 
 1454000    1.0165972   -7.6604252    398.93128  0.022864012  0.023070331            6 
 1455000    1.0175524   -7.6194827    399.91338  0.022904547  0.023062941            5 
 1456000    1.0193651    -7.637657     400.3732  0.022915133  0.023055702            5 
 1457000    1.0046702   -7.6486518    400.22727  0.022891059  0.023048333            2 
 1458000   0.99480463   -7.6071793    400.87858  0.022912585  0.023041045            3 
 1459000    1.0135539   -7.5969876    400.94869  0.022900885  0.023033657            3 
 1460000    1.0475131   -7.6186493    400.78554  0.022875887  0.023026416            2 
 1461000    1.0082216   -7.6584983     400.7197  0.022856474  0.023019103            5 
 1462000    1.0176147   -7.6839546    401.36231  0.022877468  0.023011729            4 
 1463000    1.0122713   -7.6309258    401.22251  0.022853868  0.023004448            4 
 1464000    1.0289773   -7.6386776    401.67752  0.022864158   0.02299702            4 
 1465000   0.99701434   -7.6535502    400.97794  0.022808756  0.022989515           12 
 1466000    1.0400211   -7.6631354    402.13078   0.02285873  0.022981988            6 
 1467000    1.0149888   -7.6140266    401.96136  0.022833524  0.022974562            2 
 1468000    1.0148171   -7.6509032    402.23708  0.022833621  0.022967205           11 
 1469000     1.017232   -7.6386893     401.4881   0.02277559  0.022959819            3 
 1470000    1.0137614   -7.6301597    401.66901  0.022770352  0.022952421            2 
 1471000    1.0142094   -7.6125831    402.29398  0.022790278  0.022945103            3 
 1472000    1.0129774   -7.6602869    402.51389  0.022787245  0.022937809            4 
 1473000      1.00971   -7.6323705    402.63323  0.022778526  0.022930419            3 
 1474000    1.0127348   -7.6267407    401.75579  0.022713466  0.022923016            2 
 1475000    1.0225918    -7.645915     402.1564  0.022720701  0.022915501            3 
 1476000    1.0046364   -7.6508227    402.05672  0.022699679  0.022907975            7 
 1477000   0.98765265   -7.6116205    403.63027  0.022773091   0.02290054            6 
 1478000    1.0162904   -7.6466096    403.48104  0.022749269  0.022893168            4 
 1479000     1.028497   -7.6813551    402.92014  0.022702284  0.022885807            7 
 1480000    1.0234255   -7.6434412    405.05651  0.022807236  0.022878518            3 
 1481000    1.0206572   -7.6803304    404.15121  0.022740897  0.022871323            4 
 1482000     1.012159   -7.7015192    403.00753  0.022661242  0.022864082            4 
 1483000    1.0070164    -7.709302     403.7722   0.02268893  0.022856878            5 
 1484000    1.0295046   -7.6630698    406.37306  0.022819691  0.022849724            4 
 1485000     1.006783    -7.670525    405.88015  0.022776664  0.022842591            4 
 1486000    1.0092341   -7.6798989    405.86362  0.022760409  0.022835491            3 
 1487000    1.0113125   -7.6667179    407.17532  0.022818613   0.02282838            3 
 1488000    1.0042882   -7.6508524    406.15233  0.022745986  0.022821266            3 
 1489000   0.99817482    -7.674994      406.322  0.022740206  0.022814161            3 
 1490000    1.0167766   -7.6631334    406.20453  0.022718374  0.022807101            4 
 1491000    1.0044385   -7.6439045    406.20267  0.022703033  0.022800054            5 
 1492000    1.0076674   -7.6840478    406.40205  0.022698953  0.022792903            2 
 1493000    0.9940236   -7.6456251    407.08812  0.022722043  0.022785719            7 
 1494000    1.0056821   -7.6732626    406.96287  0.022699848  0.022778594            3 
 1495000    1.0039805   -7.6875991     406.6073  0.022664844  0.022771372            9 
 1496000    1.0132677   -7.6667935    406.41187  0.022638807  0.022764155            2 
 1497000    1.0144747   -7.6546267    406.12221   0.02260756  0.022756983            3 
 1498000      1.02217   -7.6879325     406.3634  0.022605886  0.022749728            1 
 1499000    1.0238658   -7.6459491    406.97658  0.022624894    0.0227425            2 
 1500000    1.0197512   -7.6747645     407.2147  0.022623039  0.022735317            2 
 1501000    1.0364379   -7.7087571    406.85202  0.022587832  0.022728124            3 
 1502000    1.0208542   -7.6268819    408.44841  0.022661363  0.022720915            1 
 1503000    1.0158983   -7.6449354    407.23798  0.022579174  0.022713757            5 
 1504000   0.99914523   -7.6808169    407.48789  0.022578008  0.022706475            2 
 1505000    1.0024802   -7.6661511    408.12724  0.022598408   0.02269921            4 
 1506000    1.0088231   -7.6583644    408.09669  0.022581711  0.022691903            5 
 1507000    1.0018915   -7.6437666     409.2024   0.02262787  0.022684608            6 
 1508000    1.0167709   -7.6507373    409.55932  0.022632588  0.022677447            4 
 1509000    1.0216664   -7.6578053    408.52131  0.022560267  0.022670188            3 
 1510000    1.0080137   -7.6808253    409.06938  0.022575573  0.022662896            6 
 1511000    1.0195123   -7.6794282    408.72907  0.022541863  0.022655644            3 
 1512000   0.99427671   -7.6828289    408.71139   0.02252598  0.022648341            3 
 1513000    1.0112012   -7.7196153    406.88063  0.022410257   0.02264101           10 
 1514000    1.0147139   -7.6721844    407.90469  0.022451821  0.022633699            4 
 1515000    1.0007103   -7.6863739    409.27799  0.022512541  0.022626497            2 
 1516000   0.99715944   -7.6504457    409.91823  0.022532884  0.022619251            5 
 1517000   0.99879597   -7.6394095    409.68441  0.022505186  0.022612131            2 
 1518000   0.96915051   -7.6362502    409.45209  0.022477607  0.022604932            4 
 1519000    1.0047781   -7.6399804    410.61804  0.022526774  0.022597696            3 
 1520000    1.0050302   -7.7083728    407.84877   0.02236013  0.022590323            3 
 1521000    1.0022558   -7.7015705    409.03698  0.022410529  0.022582902            4 
 1522000    1.0014058   -7.6478806     409.5583  0.022424348   0.02257556           15 
 1523000   0.99641901   -7.6540727    409.13476   0.02238645  0.022568251            3 
 1524000    1.0293344   -7.6847872    409.87038  0.022411985  0.022560926            2 
 1525000    1.0250192   -7.6731253    410.26073  0.022418619  0.022553609            3 
 1526000    1.0109386   -7.6458479    411.33904  0.022462813  0.022546257            2 
 1527000    1.0059088   -7.6852413     410.9935  0.022429246  0.022538951            4 
 1528000    1.0076521   -7.6882208    410.67498  0.022397195  0.022531619            4 
 1529000   0.99383648   -7.6678772    410.56869  0.022376755  0.022524259            2 
 1530000     1.011178   -7.6293434    411.86571  0.022432773  0.022516941            4 
 1531000   0.99528023   -7.6712616    409.95383  0.022314056  0.022509639            4 
 1532000    1.0222823   -7.6685694    410.12371  0.022308731  0.022502288            7 
 1533000    1.0159564   -7.7317627    409.09412  0.022238211  0.022494817            4 
 1534000    1.0126237   -7.6776557    410.46931   0.02229842  0.022487293            4 
 1535000    1.0064011   -7.6729818    410.03635  0.022260388  0.022479822            9 
 1536000    1.0313767   -7.6962082    410.84448   0.02228974  0.022472261            7 
 1537000    1.0206787   -7.6802797    409.51726  0.022203278  0.022464727            4 
 1538000    1.0115661   -7.7253358    410.02676  0.022216448  0.022456992            3 
 1539000    1.0057838   -7.6892336    409.58926  0.022178322  0.022449358            4 
 1540000   0.98050538   -7.6594649    410.78797  0.022228786  0.022441656            9 
 1541000    1.0219372    -7.657526     411.5954  0.022258025  0.022434062            3 
 1542000    1.0364907   -7.6991538    410.70687  0.022195572  0.022426483            3 
 1543000   0.99711008   -7.7324218    411.05599  0.022200042  0.022418763            5 
 1544000    1.0064825   -7.6888427    411.30176  0.022198929  0.022411139           11 
 1545000    1.0142045   -7.7082852    411.54551  0.022197708  0.022403576            2 
 1546000   0.98538579   -7.7066919    411.68711  0.022190983  0.022395873            5 
 1547000    1.0040697   -7.7086669    411.74093  0.022179537  0.022388281            4 
 1548000    1.0023175   -7.6914581    411.75301  0.022165859  0.022380753            8 
 1549000    1.0012854   -7.6993145    412.62206  0.022198303  0.022373339            6 
 1550000   0.98969235    -7.673456    414.43413  0.022281405  0.022365845            4 
 1551000    1.0073081   -7.7171357    412.48408  0.022162265  0.022358307            3 
 1552000   0.97190978   -7.7010391    412.32051  0.022139203  0.022350717            4 
 1553000    1.0047885   -7.7246386    411.89478  0.022102103  0.022343162            6 
 1554000    1.0106543   -7.6808472    413.47619  0.022172683  0.022335654            3 
 1555000   0.98676734   -7.6716633    414.29436   0.02220227    0.0223281            4 
 1556000    1.0055125   -7.6941167    413.16089  0.022127297   0.02232057            7 
 1557000   0.99626024   -7.7190777    412.05211  0.022053742  0.022312864            6 
 1558000    1.0095188   -7.7175495    413.30169  0.022106423  0.022305115            3 
 1559000   0.99772718   -7.7025986      412.925  0.022072108  0.022297504            3 
 1560000    1.0133528    -7.708526    413.57938  0.022092916  0.022289908            4 
 1561000   0.98431183   -7.7096363    414.44783  0.022125124  0.022282332            3 
 1562000    1.0097523   -7.6660456    414.24348  0.022100058  0.022274737            3 
 1563000   0.98281248   -7.6671772    413.27785  0.022034434  0.022267049            2 
 1564000    1.0092656   -7.6965582    414.11307  0.022064848  0.022259357            6 
 1565000    1.0145292   -7.7167965    412.07975  0.021942479  0.022251754            3 
 1566000    1.0129828   -7.6826303    414.27515  0.022045293   0.02224416            2 
 1567000    1.0041609   -7.6979191    414.73753  0.022055814  0.022236667           11 
 1568000    1.0137842   -7.6762812    414.47302   0.02202769  0.022229192            6 
 1569000     1.012643   -7.6808946    415.94877  0.022092031  0.022221694            5 
 1570000    1.0098279   -7.6514986    415.59478  0.022059171  0.022214224            4 
 1571000    0.9982415     -7.65143    415.73781  0.022052717  0.022206764            3 
 1572000    1.0024039   -7.6781657    414.78701  0.021988285  0.022199355            4 
 1573000   0.99604491   -7.6863309    416.34098  0.022056632  0.022191907            9 
 1574000    1.0180035   -7.7238742     415.2055  0.021982502  0.022184366            8 
 1575000    1.0100352   -7.6994725    415.96049  0.022008491  0.022176753            2 
 1576000   0.99539391   -7.7174449    415.31921  0.021960618  0.022169268            7 
 1577000    1.0052827   -7.6898988    416.44979  0.022006436  0.022161781            3 
 1578000   0.99987136   -7.7029067    415.38814  0.021936425  0.022154407            3 
 1579000   0.98168285   -7.7320415    417.04179  0.022009805  0.022146995            6 
 1580000   0.98693276   -7.7125693    416.86014  0.021986294  0.022139516            3 
 1581000    1.0105717   -7.7365649     416.0949  0.021932053  0.022132038            2 
 1582000    1.0033106   -7.7091418    416.50291  0.021939681  0.022124554            8 
 1583000    1.0134838   -7.7604728    416.17631  0.021908629  0.022116999           12 
 1584000   0.99988319   -7.6931378     416.1471  0.021893261   0.02210957            3 
 1585000   0.97923132    -7.694827     418.1569  0.021985116  0.022102154            7 
 1586000   0.98186924   -7.7254673     417.5662  0.021940216  0.022094651            3 
 1587000   0.97772355   -7.7020491    418.16303  0.021957731  0.022087202            5 
 1588000    1.0086434   -7.6715965    416.96712  0.021881146  0.022079756            4 
 1589000   0.99886383   -7.6667478    419.08309  0.021978345  0.022072336            2 
 1590000    0.9852045   -7.6777059    418.39277  0.021928342  0.022064952            4 
 1591000   0.99904149   -7.7027172    418.13913  0.021901274  0.022057425            5 
 1592000   0.98811861   -7.7354055    417.99064  0.021879744  0.022049876            3 
 1593000    1.0087155   -7.7371214    417.78162  0.021855076  0.022042505            3 
 1594000    1.0081036    -7.665322    418.94246  0.021902052  0.022035146            2 
 1595000   0.99653746    -7.665851    419.25354  0.021904574   0.02202781            2 
 1596000   0.98536657   -7.7150817    418.42522  0.021847599  0.022020457            4 
 1597000    1.0078515    -7.677213     418.0709   0.02181543  0.022013054            5 
 1598000   0.99799881   -7.7147643    419.32124  0.021866981  0.022005554            2 
 1599000    1.0220233   -7.7062691    419.01288  0.021837236  0.021998081            3 
 1600000   0.99378186   -7.6939844    419.15133  0.021830798  0.021990576            5 
 1601000      1.01028   -7.7156181    417.81653  0.021747685  0.021983031            4 
 1602000    1.0288294   -7.7113238    418.97902  0.021794581  0.021975431            6 
 1603000     0.997568   -7.7198966    418.11914  0.021736283  0.021967747            2 
 1604000   0.98970776   -7.6917596    418.72213  0.021754059  0.021960192            3 
 1605000   0.98717546   -7.7269717    419.76578  0.021794693  0.021952585            5 
 1606000    1.0058233   -7.7170048    418.98433  0.021740574  0.021944955            3 
 1607000   0.99391198   -7.6905607    420.29173  0.021794842  0.021937365            9 
 1608000   0.99631006   -7.7236487    419.66247  0.021748677  0.021929793            3 
 1609000    1.0034398    -7.764811    419.03014   0.02170241  0.021922166            8 
 1610000   0.98893564   -7.7090161    420.55644  0.021767932  0.021914603            5 
 1611000   0.98026857   -7.7081514    420.92035  0.021773244  0.021907055            5 
 1612000    1.0105304   -7.7508143    419.78741  0.021701169  0.021899462            9 
 1613000   0.99337277   -7.7403219    419.72264  0.021684369  0.021891824            7 
 1614000    1.0038368   -7.7521205    420.22407  0.021696823  0.021884236            9 
 1615000    1.0047824   -7.7513021    421.11782  0.021729506  0.021876666            3 
 1616000   0.98628321   -7.6866681    421.06442  0.021713306  0.021869143            5 
 1617000   0.99432735   -7.7418727    420.25238  0.021658028  0.021861645            7 
 1618000   0.97949721   -7.6777549    421.95906  0.021732543  0.021854147            9 
 1619000   0.97862256   -7.7378961    421.36523  0.021688554  0.021846613            3 
 1620000   0.98410919   -7.6690251    421.92034  0.021703721  0.021839158            6 
 1621000   0.96923752   -7.7031091    422.01787  0.021695346  0.021831737            3 
 1622000    0.9894085   -7.7189725    422.18039   0.02169032  0.021824263            3 
 1623000    0.9929206   -7.7077212    422.44933  0.021690765  0.021816753            3 
 1624000   0.98941443   -7.6974136    421.79468  0.021643816  0.021809391            2 
 1625000    1.0014264    -7.712714    422.31646  0.021657254  0.021801922            4 
 1626000    1.0036434   -7.7330558    422.39361  0.021647889  0.021794437            8 
 1627000    0.9771062    -7.729386    422.65384  0.021647912  0.021786982            2 
 1628000   0.99069916   -7.7095957    423.50443  0.021678155   0.02177965            6 
 1629000   0.96999117   -7.7102992    422.71313  0.021624367    0.0217722            4 
 1630000   0.99523937   -7.7088891    422.81358  0.021616236  0.021764866            7 
 1631000   0.98689688   -7.7291189    422.81071  0.021602836  0.021757536            5 
 1632000   0.97431024   -7.7033035    423.24538  0.021611794  0.021750163            4 
 1633000   0.99202364   -7.6976199    424.73055   0.02167435  0.021742859            3 
 1634000   0.97411305   -7.7374001    424.59786  0.021654317  0.021735594            4 
 1635000   0.98086902   -7.7401147    423.84022  0.021602458  0.021728275            8 
 1636000    1.0114355   -7.7296077     424.7175   0.02163394  0.021721038            4 
 1637000   0.98955578   -7.7060788    425.64013  0.021667691  0.021713777            7 
 1638000    1.0124949   -7.7183009    425.50154  0.021647412  0.021706578            2 
 1639000    1.0048672   -7.7560579    424.35282  0.021575799  0.021699318            5 
 1640000   0.97953062   -7.7109596    425.78735  0.021635536   0.02169198            4 
 1641000   0.99864502   -7.7452697    425.89949  0.021628046  0.021684722            2 
 1642000   0.97222931   -7.7524383    425.44452  0.021591784  0.021677508            4 
 1643000   0.98343522   -7.7144625    425.82225  0.021597801  0.021670341            3 
 1644000   0.98272165   -7.7188189    425.82769   0.02158494  0.021663249            7 
 1645000   0.98263469   -7.7183707    425.42394  0.021551365  0.021656137            2 
 1646000   0.98379441   -7.7460559    426.40608  0.021587995  0.021648963            4 
 1647000   0.98930649   -7.7436209    425.84723  0.021546611  0.021641841            4 
 1648000    0.9998515   -7.7364811    425.58407   0.02152023  0.021634662            6 
 1649000     1.006186   -7.7584836    425.06077  0.021480734  0.021627373            2 
 1650000    1.0024638    -7.701936     425.7334  0.021501687  0.021620046            4 
 1651000   0.97490366   -7.6951596    425.86787  0.021495451  0.021612707            4 
 1652000     1.007587   -7.7536727    425.52293  0.021465039  0.021605308            2 
 1653000    1.0102327   -7.7306443    425.58325  0.021455094  0.021597934            2 
 1654000    0.9950169   -7.7634407    424.59654  0.021392409  0.021590532            3 
 1655000    0.9626562   -7.7442736    426.10499  0.021455437  0.021583056            4 
 1656000   0.95344395    -7.734359    426.69181  0.021472012  0.021575589            6 
 1657000   0.99311973   -7.7388797    426.02412  0.021425474  0.021568097            4 
 1658000     0.984422   -7.7374016    426.48765  0.021435849  0.021560729            6 
 1659000   0.97597692   -7.7425113    425.88497  0.021392654  0.021553346            3 
 1660000    1.0082261   -7.7163726    426.75803  0.021423596   0.02154594            3 
 1661000   0.97598166   -7.7477661     426.6097  0.021403256  0.021538516            2 
 1662000   0.97259444   -7.7367182    426.86779  0.021403319  0.021531058            3 
 1663000   0.99149804   -7.7567224    426.47797  0.021370915  0.021523698            2 
 1664000   0.98915741   -7.7337346    427.09034  0.021388739  0.021516274            5 
 1665000   0.98739391   -7.7455862    427.10953  0.021376853  0.021508815            5 
 1666000   0.97898339   -7.7309478    426.44728  0.021330896  0.021501415            5 
 1667000   0.97461485   -7.7696065    427.67372   0.02137941  0.021494017            5 
 1668000   0.98755405   -7.7209223    426.45619  0.021305765  0.021486639            4 
 1669000    1.0229899   -7.7297393    427.42033  0.021341139  0.021479287            3 
 1670000   0.96038402    -7.699693    427.56931  0.021335794  0.021471911            5 
 1671000   0.98342124   -7.7944388     427.1433   0.02130178  0.021464418            4 
 1672000   0.99011076   -7.7601488    426.48661   0.02125631  0.021457008            4 
 1673000    1.0112613   -7.7714718      426.816  0.021260012  0.021449555            2 
 1674000   0.98415924   -7.7277847    428.00992  0.021306746  0.021442161            6 
 1675000   0.97690554   -7.7549126    427.59934  0.021273599  0.021434708            4 
 1676000   0.98143674   -7.7280509    429.42121  0.021351492  0.021427217            2 
 1677000   0.98785549   -7.7355543    428.58842  0.021297377  0.021419772            3 
 1678000   0.99669081   -7.7489592    429.32117  0.021321075  0.021412292            4 
 1679000   0.96919965   -7.7148068    428.02354  0.021243972  0.021404863            3 
 1680000   0.97951807   -7.7365882    428.37433  0.021248727  0.021397497            7 
 1681000   0.98578231   -7.7172521    428.79192  0.021256788   0.02139016            4 
 1682000   0.98646165   -7.7679833    428.74415  0.021241783  0.021382864            4 
 1683000    0.9624807   -7.7721972    429.38462  0.021260874  0.021375442            4 
 1684000    0.9789789   -7.7718468     429.2794  0.021243042  0.021368012            3 
 1685000   0.98822009   -7.7371118    429.63598   0.02124807   0.02136064            3 
 1686000   0.98115464   -7.7193648    430.45011  0.021275707  0.021353324            3 
 1687000   0.98756241   -7.7024323    430.10142  0.021245872  0.021346003            4 
 1688000   0.97053097    -7.673917    431.26417  0.021290688   0.02133877            6 
 1689000   0.95416726   -7.7412231    429.63259  0.021197582  0.021331552            6 
 1690000    0.9547904     -7.73355    430.65082  0.021235248  0.021324257            7 
 1691000   0.95063212   -7.7516592    430.71794  0.021225997  0.021316912            3 
 1692000   0.99298757   -7.7857818    430.07265  0.021181671  0.021309668            3 
 1693000   0.98785438   -7.7428002    431.53506  0.021241143  0.021302396            3 
 1694000    0.9749694   -7.7173391    432.01652  0.021252288  0.021295215            4 
 1695000   0.97768919   -7.7229345    432.40914  0.021259053  0.021288044            3 
 1696000   0.96692486   -7.7649767    430.59059  0.021157163  0.021280794            2 
 1697000   0.97434812   -7.7778014    431.37298  0.021183116  0.021273494           13 
 1698000   0.98768688   -7.6948077    432.69265  0.021235407  0.021266229            9 
 1699000   0.99612904   -7.7328315    430.99148  0.021139468  0.021258969            5 
 1700000   0.97624295   -7.7306425    431.14765  0.021134689  0.021251699            8 
 1701000   0.95649921   -7.7535584    432.46979  0.021187036  0.021244438            8 
 1702000   0.96928576   -7.7610696    432.08135  0.021155569  0.021237152            7 
 1703000    1.0104584   -7.7961725    430.19607  0.021050894  0.021229807            4 
 1704000    0.9682739   -7.7771686    431.89174  0.021121466  0.021222404            6 
 1705000   0.98137636   -7.7842735    431.95412  0.021112127  0.021215095            5 
 1706000    0.9673161   -7.7546106    432.29771  0.021116535  0.021207825            3 
 1707000   0.97700499   -7.7387726    432.85931  0.021131581  0.021200621            3 
 1708000   0.98498687   -7.7544411    431.38593  0.021047323  0.021193309            5 
 1709000   0.98798173   -7.7945114    431.16763  0.021024363   0.02118596            7 
 1710000   0.97657839    -7.766186    431.16788   0.02101208  0.021178545            5 
 1711000   0.97383785   -7.7751806    432.26208  0.021053092  0.021171059            3 
 1712000   0.99393711   -7.7886434    431.53982  0.021005637  0.021163568            3 
 1713000   0.97823866   -7.7803212    430.82002  0.020958359  0.021155976            5 
 1714000    0.9770273    -7.767159    430.51174  0.020931142  0.021148463            5 
 1715000   0.99042242   -7.7496609    432.17279  0.020999649  0.021141038            5 
 1716000   0.98714629   -7.7659354    431.67731   0.02096335  0.021133559            4 
 1717000   0.97821896   -7.7828684    431.63579  0.020949126  0.021126089            8 
 1718000   0.96327174   -7.8000383     431.9917  0.020954196  0.021118506            4 
 1719000   0.98806289   -7.7653765    431.84396  0.020934844   0.02111101            4 
 1720000   0.99262265    -7.800144    431.25591  0.020894182  0.021103476            4 
 1721000   0.96593798   -7.7775852    432.06232  0.020921088  0.021095916            3 
 1722000   0.99344493   -7.7230727    432.44613  0.020927513  0.021088327            3 
 1723000   0.98149514   -7.7763421    431.19946  0.020855072  0.021080734            6 
 1724000    0.9810183   -7.7342002    431.46264  0.020855696   0.02107313            3 
 1725000   0.98253056   -7.7527903    433.08216  0.020921844  0.021065572            5 
 1726000   0.99154186   -7.7859532    431.91613  0.020853424  0.021057911            2 
 1727000    0.9812365   -7.7109959    432.93755  0.020890636  0.021050243           19 
 1728000   0.99025844   -7.7535509     432.8219   0.02087297  0.021042703            7 
 1729000   0.97866443   -7.7441156    432.74208   0.02085705  0.021035156            3 
 1730000   0.99772932   -7.7653859    433.36164  0.020874838  0.021027573            5 
 1731000   0.95985479   -7.7504511    433.04869  0.020847713   0.02102003            5 
 1732000   0.97446156   -7.7576347    432.33973  0.020801565  0.021012459            3 
 1733000   0.94755419   -7.7532754    433.47232  0.020844024  0.021004861            9 
 1734000   0.97413894   -7.8120019    433.26983  0.020822272   0.02099727            4 
 1735000   0.96387954   -7.7754131    433.37901  0.020815515  0.020989635            7 
 1736000   0.96429976   -7.8103706    433.15766  0.020792898  0.020982006           13 
 1737000   0.95353169   -7.7490094    434.91293  0.020865137  0.020974455            2 
 1738000   0.98673971   -7.8128558    434.16144    0.0208171  0.020966865           14 
 1739000   0.97795588   -7.7526408     434.2989  0.020811716  0.020959316            4 
 1740000   0.96727164   -7.7723127    433.30004  0.020751918  0.020951848            6 
 1741000   0.96904098   -7.7802022     433.7797  0.020762957  0.020944303            5 
 1742000   0.96629913   -7.7950406    434.14094  0.020768319  0.020936751            5 
 1743000   0.97627894   -7.7996471    433.73893  0.020737183  0.020929229            3 
 1744000   0.96947005    -7.800844    433.49959  0.020713856  0.020921608            7 
 1745000   0.97210332   -7.7883763    435.90305  0.020816765  0.020914047            7 
 1746000   0.96565281   -7.7869861    435.12631   0.02076777  0.020906493            5 
 1747000   0.97535114   -7.7841448    434.69912  0.020735505  0.020898929            8 
 1748000   0.96232939   -7.7930104    435.35612  0.020754964  0.020891384            5 
 1749000   0.96051134    -7.784849    434.69218  0.020711463  0.020883824           15 
 1750000   0.98286659   -7.8042867    434.19604  0.020676002  0.020876245            4 
 1751000   0.98224704   -7.7692801    435.97428  0.020748823  0.020868639            4 
 1752000   0.98835066   -7.8011619    434.44958  0.020664459  0.020861075            4 
 1753000   0.97462767   -7.7700266     435.7572  0.020714832  0.020853546            2 
 1754000   0.96288805   -7.7701071    434.91321  0.020662923  0.020846095            3 
 1755000   0.97126664   -7.7802456    435.71654  0.020689294  0.020838568            5 
 1756000   0.98489191   -7.7941074    435.06931  0.020646797  0.020831042            6 
 1757000   0.96729024   -7.7863639    435.75039  0.020667349  0.020823525            5 
 1758000   0.96895871    -7.774957    435.34242  0.020636254  0.020816058            6 
 1759000   0.97737336   -7.7393584    437.18361   0.02071175  0.020808552            5 
 1760000   0.97712934   -7.7901457    436.16986  0.020651982  0.020801037            4 
 1761000   0.97698543   -7.7630382    436.83812  0.020671878  0.020793533            2 
 1762000   0.98555609   -7.7804355    435.67924  0.020605337   0.02078606            4 
 1763000    0.9850262    -7.820365    435.46462  0.020583504  0.020778521            5 
 1764000   0.97633098   -7.7900593    435.74438  0.020585052  0.020770964            3 
 1765000   0.95837976   -7.8179007    436.05056  0.020587845  0.020763345            3 
 1766000   0.95509346   -7.8202442    437.19404  0.020630145  0.020755733            4 
 1767000   0.95322914   -7.7736982    436.24603  0.020573761  0.020748234            5 
 1768000   0.95537236   -7.7771207    438.15083  0.020651905  0.020740819            2 
 1769000   0.97747631   -7.7796572    436.92185  0.020582337  0.020733405            7 
 1770000   0.95905749   -7.7824719     437.0273  0.020575673  0.020726019            6 
 1771000    0.9671916   -7.7821486    437.32864  0.020578234  0.020718498            6 
 1772000   0.98350886   -7.7978146    436.46663  0.020526083  0.020711059            5 
 1773000   0.95203313   -7.7785074    439.49055  0.020656634  0.020703657            3 
 1774000   0.97778458   -7.8143479    437.90336  0.020570432   0.02069623            4 
 1775000   0.96180014    -7.781218    437.90191  0.020558775  0.020688764            2 
 1776000   0.95677648   -7.7776815    438.70118  0.020584702  0.020681332            4 
 1777000   0.96641542   -7.7853266     439.2061  0.020596797  0.020673966            3 
 1778000   0.96196313   -7.7563927    438.55774  0.020554824  0.020666682            2 
 1779000   0.96624255   -7.8123236     438.2445  0.020528597  0.020659343            4 
 1780000     0.972922   -7.7869978    438.92648  0.020548993  0.020651957            4 
 1781000   0.96351752   -7.7711717    438.67909  0.020525879    0.0206446            5 
 1782000   0.97158042   -7.8155213    438.96602  0.020527779   0.02063722            4 
 1783000   0.97411738   -7.8298022    437.19859   0.02043366  0.020629776            5 
 1784000   0.98660526   -7.8096743    438.67879  0.020491349  0.020622315            5 
 1785000   0.97739959   -7.7986569    439.29345  0.020508565  0.020614839            7 
 1786000   0.97276337   -7.8457559    438.55858  0.020462793  0.020607383            6 
 1787000   0.96195316   -7.8064689    439.54568  0.020497373       0.0206            5 
 1788000   0.97188028   -7.8082654     439.5049  0.020484009  0.020592649            7 
 1789000   0.96779018   -7.7944491     440.4504  0.020516601    0.0205853            2 
 1790000   0.94523369   -7.8012815    438.96236  0.020435864  0.020577979            3 
 1791000   0.96524563   -7.7872522    438.95651  0.020424181  0.020570606            4 
 1792000   0.98092599   -7.7428426    441.11752  0.020513277  0.020563259            4 
 1793000   0.96602609   -7.7785405     440.2682  0.020462363  0.020555953            7 
 1794000   0.97776769   -7.8044466    439.87418  0.020432654  0.020548609            5 
 1795000   0.96603332   -7.7844884    439.40926  0.020399687  0.020541227            7 
 1796000   0.98756017   -7.7956737    440.00109  0.020415789  0.020533952            7 
 1797000   0.98746352   -7.7891518     441.0687  0.020453937  0.020526545           10 
 1798000   0.96903053    -7.778953    440.99492  0.020439142  0.020519175            4 
 1799000   0.97246228   -7.8046903    440.36438  0.020398572  0.020511849            6 
 1800000    0.9578568   -7.8238076    440.49652  0.020393358  0.020504554            6 
 1801000   0.95137677   -7.7796043    442.28399  0.020464741  0.020497327            3 
 1802000   0.95791915   -7.8185028    441.21445  0.020403924  0.020490005            3 
 1803000   0.96576162   -7.8020981    441.33951  0.020398388  0.020482753            6 
 1804000   0.98243186   -7.8100415    441.95975  0.020415731  0.020475428           10 
 1805000   0.95052271   -7.8038813     441.9726  0.020405014  0.020468197            3 
 1806000   0.96964545    -7.791132    442.27105  0.020407487  0.020460856            3 
 1807000    0.9508332   -7.8041217    440.27011  0.020303916  0.020453591            3 
 1808000   0.97642621   -7.7563296    442.40135  0.020390918  0.020446313            4 
 1809000   0.94209475    -7.811347    440.88933  0.020309993   0.02043911            3 
 1810000   0.96033597   -7.7995553     443.0744  0.020399374  0.020431885            7 
 1811000   0.95892407   -7.8063213     441.6898  0.020324397  0.020424593            6 
 1812000    0.9650781   -7.8048745    442.45398  0.020348325  0.020417318            3 
 1813000   0.96523039   -7.7803004    442.70186  0.020348495  0.020410063            3 
 1814000   0.95119092   -7.8477214    441.04852  0.020261325  0.020402749            2 
 1815000   0.96697348    -7.792377    442.75739  0.020328622  0.020395443            4 
 1816000   0.94464448   -7.8379558    441.81155  0.020274025  0.020388149           13 
 1817000   0.97738283   -7.7811365     444.2679  0.020375523  0.020380913            3 
 1818000   0.96406167   -7.8392434    442.60565  0.020288121  0.020373579            9 
 1819000   0.96808852    -7.851929    442.10396  0.020253984  0.020366181            5 
 1820000   0.95259671   -7.8279285    442.21509  0.020247944  0.020358813            3 
 1821000   0.94739126   -7.8430275     442.0019  0.020227068  0.020351426            5 
 1822000   0.94913521   -7.7980773    444.58115  0.020333935  0.020344112            7 
 1823000   0.97590686   -7.8052756    444.26678   0.02030841  0.020336875            3 
 1824000   0.96228306   -7.8223751     443.0491  0.020241644  0.020329679            6 
 1825000   0.95091035   -7.7810372    444.61912  0.020302243  0.020322498            3 
 1826000   0.96025969   -7.8265311    444.21807  0.020272822  0.020315374            5 
 1827000   0.95306333   -7.8009165    444.88073  0.020291951  0.020308173            7 
 1828000   0.96650146   -7.8031833    444.07158  0.020243963  0.020301075            5 
 1829000   0.95499689   -7.8114006        445.2  0.020284308  0.020294017            4 
 1830000   0.97024892   -7.8030836     444.9635  0.020262454  0.020286895            4 
 1831000   0.95934856   -7.7965562    444.94741  0.020250656  0.020279771            8 
 1832000   0.97869452   -7.8223197     444.3943  0.020214443  0.020272603            4 
 1833000   0.94195332   -7.8263654    444.65638  0.020215329  0.020265476            8 
 1834000   0.97456287   -7.8140551    443.95542  0.020172457  0.020258385            2 
 1835000    0.9587479   -7.8238235    445.62335   0.02023721  0.020251305            1 
 1836000   0.95448515    -7.820673    445.79753  0.020234093  0.020244218            4 
 1837000   0.95619855   -7.7951079    445.88367  0.020226986  0.020237097            3 
 1838000   0.96970315    -7.843141    445.70337  0.020207806  0.020230026            6 
 1839000     0.959722   -7.8085559    445.58733  0.020191559  0.020222902            5 
 1840000   0.98094647     -7.82543    446.44784  0.020219558  0.020215807            4 
 1841000   0.95386371   -7.7842258    445.86254  0.020182082  0.020208714            6 
 1842000   0.94875533   -7.8308066    446.51549  0.020200665  0.020201763            7 
 1843000   0.95301343   -7.7927322    447.18951  0.020220181  0.020194741            2 
 1844000   0.95909316   -7.7940498    445.83537  0.020148019  0.020187752            4 
 1845000    0.9748697   -7.8138505    448.10375  0.020239555  0.020180741            5 
 1846000   0.93722544   -7.7645753    447.93657  0.020221044  0.020173742            2 
 1847000   0.96693256   -7.7980789    447.29945   0.02018135  0.020166815            3 
 1848000   0.94485938   -7.7589315    448.56018  0.020227281  0.020159799            5 
 1849000   0.97163261   -7.8472186    446.17968  0.020109054  0.020152791            3 
 1850000   0.95275393   -7.8182221    448.20487  0.020189408  0.020145705            6 
 1851000   0.95895211    -7.839519    448.25619  0.020180812  0.020138648            5 
 1852000   0.95818434   -7.8219393    447.71474  0.020145552  0.020131603            7 
 1853000   0.94388565   -7.8341043    448.20635  0.020156789  0.020124567            3 
 1854000   0.95792262   -7.8051419    447.70118   0.02012321  0.020117563            4 
 1855000    0.9485322   -7.8121492    447.82535   0.02011794   0.02011053           12 
 1856000   0.92412128   -7.8252399    447.20599  0.020079292  0.020103461           19 
 1857000   0.95324891   -7.8392583    448.27791  0.020116582  0.020096401           10 
 1858000   0.95261785   -7.8345812    447.97926   0.02009236  0.020089323            4 
 1859000   0.94066392   -7.8090408    447.68665  0.020068435  0.020082208           18 
 1860000   0.95740658   -7.8336517     448.1163  0.020076895  0.020075164            6 
 1861000    0.9553669   -7.8271109     449.0517  0.020107993  0.020068144            6 
 1862000   0.94490975   -7.8270061    449.09115  0.020098959  0.020061137            8 
 1863000   0.95913219   -7.8232726    449.07719  0.020087546  0.020054144            4 
 1864000   0.96206269   -7.8493447    447.70717  0.020015521  0.020047127            3 
 1865000   0.95361534   -7.8243278    448.08147  0.020021514  0.020040127            5 
 1866000   0.95717591   -7.8193755    448.73655  0.020040039   0.02003312            3 
 1867000   0.95989573   -7.8110279    449.44705  0.020061018  0.020026163            6 
 1868000   0.96608051   -7.8599507    448.09988   0.01999018  0.020019103            4 
 1869000   0.97608881   -7.7947546    449.56534  0.020044825  0.020012097            5 
 1870000    0.9510222   -7.8698408    449.25688   0.02002036  0.020005076            4 
 1871000   0.95338561   -7.8284325    449.04627  0.020000279  0.019998061            5 
 1872000   0.96187242   -7.8033094    448.80945  0.019979053  0.019991029            8 
 1873000   0.96684981   -7.8079023    449.61444  0.020004202  0.019984021            5 
 1874000   0.96633766   -7.8136752    449.77012   0.02000045  0.019977042            2 
 1875000   0.94053355   -7.8654685    447.48025  0.019888011  0.019969895            4 
 1876000    0.9377483   -7.8522752    448.36048   0.01991651  0.019962774           14 
 1877000   0.95605976   -7.8638034    446.94167  0.019842909  0.019955557            4 
 1878000   0.95789065    -7.843612    449.28347  0.019936256  0.019948332            4 
 1879000   0.93645514   -7.8737478     448.6018  0.019895414   0.01994118            7 
 1880000   0.95202339   -7.8237492    450.80303  0.019982404  0.019934018            3 
 1881000   0.95986796   -7.8381637    448.54532  0.019871758  0.019926887            4 
 1882000   0.96008629   -7.8227771    450.05446  0.019928022  0.019919802            5 
 1883000   0.96411052    -7.835198    449.34368  0.019885983  0.019912761           11 
 1884000   0.93368179   -7.7950776    449.90087  0.019900074  0.019905706            9 
 1885000   0.95555997   -7.8258113    450.40648  0.019911869  0.019898719            4 
 1886000   0.95890241   -7.8215229    450.76006  0.019916934  0.019891699            5 
 1887000   0.93954667   -7.8308952    451.21822  0.019926613   0.01988465            3 
 1888000   0.93694582   -7.8549645    449.65152  0.019846907  0.019877496            8 
 1889000   0.95324669    -7.852696    449.78094   0.01984211   0.01987032            8 
 1890000   0.95223076   -7.8220287    451.22777  0.019895404  0.019863254            6 
 1891000   0.96588021   -7.8371857    450.20874  0.019839976  0.019856226            8 
 1892000   0.94846473   -7.8244342    450.55472  0.019844729  0.019849104            2 
 1893000   0.93217735   -7.8481016    450.52128  0.019832773  0.019842001            7 
 1894000   0.93467433    -7.827021    450.76626  0.019833081  0.019834853            4 
 1895000   0.95516198    -7.835473    450.01227  0.019789458  0.019827717            7 
 1896000   0.93111116    -7.825687    449.20141  0.019743381  0.019820616            3 
 1897000   0.94324577   -7.8167302    450.99268  0.019811662  0.019813501            3 
 1898000   0.93159729   -7.8131074    450.26134  0.019769114  0.019806452            3 
 1899000   0.95837971   -7.8398985    451.58944  0.019816984  0.019799459            4 
 1900000   0.93638071   -7.8143403    452.31515  0.019838384   0.01979238            3 
 1901000   0.95532914   -7.8175423     451.3757  0.019786766  0.019785321            9 
 1902000     0.940016   -7.8009429     451.4134  0.019778015  0.019778314            4 
 1903000   0.94901387   -7.8426298    451.54188  0.019773248   0.01977132            5 
 1904000   0.93730233   -7.8339449    451.29007  0.019751841  0.019764299            3 
 1905000   0.92954521   -7.8367749    452.72798  0.019804374  0.019757301           10 
 1906000   0.93960744   -7.8267255    453.25245  0.019816913  0.019750321            7 
 1907000   0.94858321   -7.8645127    453.04407  0.019797416  0.019743315           10 
 1908000   0.93408866    -7.871844    453.02446  0.019786183  0.019736281           11 
 1909000    0.9290744   -7.8406154    451.28947  0.019700082  0.019729268            5 
 1910000   0.93390994   -7.9055332    451.18767  0.019685326  0.019722245            6 
 1911000   0.91669177    -7.807545    453.28224  0.019766363  0.019715216            4 
 1912000   0.95114546    -7.845438    453.69922  0.019774199  0.019708289            3 
 1913000   0.93048642   -7.8608323    452.34816  0.019705008  0.019701351            7 
 1914000   0.93704112   -7.8527615    453.69192  0.019753218  0.019694373            3 
 1915000   0.94269485   -7.8253583    453.97498  0.019755221  0.019687412            9 
 1916000   0.93375853    -7.819534     454.5982  0.019772016  0.019680495            5 
 1917000   0.93340141   -7.8488487    452.65389  0.019677182    0.0196736           10 
 1918000   0.94743321   -7.8762279    452.66739  0.019667509  0.019666682            4 
 1919000   0.95153641   -7.8604264    453.98752  0.019714588  0.019659718           12 
 1920000   0.93909267   -7.8432189    453.12173  0.019666742  0.019652763            5 
 1921000   0.95747461   -7.9017791    454.10784  0.019699282   0.01964583            5 
 1922000   0.94061269   -7.8726014    453.04998  0.019643166  0.019638865            4 
 1923000   0.96838736   -7.8954045    452.84979  0.019624276  0.019631901            6 
 1924000   0.94269136   -7.8963773    452.92716  0.019617427  0.019624886            9 
 1925000   0.94580006   -7.8389203    454.18225  0.019661569  0.019617907            3 
 1926000   0.93403986   -7.8517681    454.08123   0.01964699  0.019611014            3 
 1927000   0.94587856    -7.904823    454.28547  0.019645626  0.019604066            8 
 1928000   0.94210106    -7.912959    454.10968  0.019627839    0.0195971           11 
 1929000   0.94212486   -7.8772192    454.13357  0.019618696  0.019590133           14 
 1930000   0.95679388   -7.8853785    454.41755  0.019620792  0.019583184            5 
 1931000   0.94879736    -7.875553    453.66681  0.019578233  0.019576256            7 
 1932000   0.93598446   -7.8686854    454.87305  0.019620128  0.019569368           11 
 1933000   0.94107713   -7.8846161    454.58304  0.019597475  0.019562503            7 
 1934000   0.94763946   -7.8309583    455.62748  0.019632346  0.019555636            5 
 1935000   0.93604618   -7.8582435     455.4725  0.019615525  0.019548733            7 
 1936000   0.95881192   -7.8922278    454.51698  0.019564264  0.019541749            9 
 1937000   0.95874649   -7.8713008    454.84401  0.019568233  0.019534751            4 
 1938000   0.94055111   -7.8587816    455.84082  0.019600998  0.019527878            9 
 1939000   0.93370492    -7.863499    455.10139  0.019559111  0.019520958            5 
 1940000   0.94331714   -7.8590006    454.94369  0.019542255  0.019514027           11 
 1941000   0.94258637   -7.8795719    455.03495  0.019536105  0.019507034            3 
 1942000   0.92350878   -7.8508049    455.59295  0.019549989   0.01950013            5 
 1943000   0.94240908   -7.8108714    457.70036  0.019630312  0.019493258            2 
 1944000   0.94676417   -7.8725485    454.45349  0.019481031  0.019486414            5 
 1945000   0.92507519   -7.8676546    455.37386  0.019510448  0.019479539            5 
 1946000   0.92348778    -7.870483    454.17395  0.019449039  0.019472647            2 
 1947000   0.94297205   -7.8517858    455.73922  0.019506044  0.019465822            7 
 1948000   0.94802914   -7.8096197    456.35692  0.019522455     0.019459            7 
 1949000   0.93340681   -7.8539485     456.9397  0.019537357  0.019452187            6 
 1950000   0.93358091   -7.8805966    456.95253  0.019527886  0.019445366            8 
 1951000   0.93885414   -7.8598083    456.97614  0.019518885  0.019438568            4 
 1952000   0.96691246   -7.8470099    457.37659  0.019525982  0.019431761            2 
 1953000   0.93778383   -7.8407236    456.43404  0.019475765  0.019424958            4 
 1954000   0.95168726   -7.8875939     456.2963  0.019459924  0.019418089            4 
 1955000   0.95054787   -7.8208376     457.9769  0.019521607   0.01941126            5 
 1956000    0.9382281   -7.8321568    458.19654  0.019520984   0.01940448            5 
 1957000   0.92042277   -7.8506179    457.28457  0.019472175  0.019397648            3 
 1958000   0.95211422   -7.8296119     456.9751   0.01944906  0.019390823            5 
 1959000   0.93448515   -7.8468532    457.85968   0.01947676  0.019383942            6 
 1960000   0.93307385   -7.8355158    457.04635  0.019432243  0.019377075            4 
 1961000   0.93777567   -7.8462266      457.521  0.019442504  0.019370197            7 
 1962000   0.93591794   -7.9125459    455.96455  0.019366486  0.019363312            4 
 1963000   0.92669429   -7.8772267    456.91283  0.019396877  0.019356416            4 
 1964000   0.93390975   -7.8608202    458.73741  0.019464418  0.019349551            4 
 1965000    0.9357686   -7.8970062    455.79233  0.019329615  0.019342601            9 
 1966000   0.93088585   -7.8599424    456.10145  0.019332886   0.01933564           17 
 1967000   0.94076288   -7.8640735    458.21413  0.019412563  0.019328657            6 
 1968000   0.92859356   -7.8802105    455.91233  0.019305231  0.019321686            8 
 1969000   0.94563956   -7.8837468    456.49135  0.019319932  0.019314688            7 
 1970000   0.95982373   -7.8323494    458.70931  0.019403947  0.019307808            3 
 1971000   0.95049239   -7.8644382    457.97401  0.019363014  0.019300953            5 
 1972000   0.93403855   -7.8161767    457.22876  0.019321702  0.019294079           11 
 1973000   0.91924676   -7.8815547    457.90631  0.019340527  0.019287144            5 
 1974000   0.94617976   -7.8316046    459.33032  0.019390844  0.019280284            2 
 1975000   0.93713049   -7.9004439    457.16675  0.019289736  0.019273362            8 
 1976000   0.92333861   -7.8966899    457.76246  0.019305097  0.019266379           10 
 1977000   0.92906371   -7.8920311    457.33227  0.019277199  0.019259359            2 
 1978000   0.94069682    -7.900294    457.08236  0.019256924  0.019252405            4 
 1979000   0.94184871   -7.9067999    456.37025  0.019217208  0.019245432            4 
 1980000    0.9361704   -7.8545075    458.51223  0.019297653   0.01923842            3 
 1981000   0.91975756   -7.8644346    457.82963  0.019259197    0.0192315            4 
 1982000    0.9415363    -7.862826    457.87146  0.019251239  0.019224585            5 
 1983000   0.94028551   -7.8485418     459.2825  0.019300828  0.019217659            3 
 1984000   0.92825817   -7.8486243    459.54041  0.019301933  0.019210785            2 
 1985000   0.92071279   -7.8733317    458.74878  0.019258975  0.019203917            3 
 1986000   0.92961801   -7.8989448    457.58184  0.019200312  0.019196927            4 
 1987000   0.94398312   -7.9059354    457.65587  0.019193754  0.019189959            9 
 1988000   0.92714238   -7.9123108    457.45603  0.019175722  0.019182953            4 
 1989000   0.93759513   -7.8786168    458.06995  0.019191803  0.019176009            4 
 1990000   0.91942423   -7.8957594     457.8395  0.019172508  0.019169079            4 
 1991000   0.92320044    -7.894354    457.76307   0.01915968   0.01916209            4 
 1992000   0.93509711   -7.8990646    457.72212  0.019148348  0.019155067            2 
 1993000   0.92720596   -7.9063119    457.73423  0.019139247   0.01914801            9 
 1994000   0.93950716   -7.8903665    458.43829  0.019159072  0.019141039           11 
 1995000   0.93392513   -7.8559969    458.78563  0.019163978  0.019134075            6 
 1996000   0.95479125   -7.9063539    457.43297  0.019097903  0.019127058            3 
 1997000   0.94282522   -7.9173001    458.21862  0.019121124  0.019119999            2 
 1998000    0.9415259   -7.8934377    458.10177   0.01910668  0.019112959           16 
 1999000    0.9334412   -7.8993001    459.19747  0.019142799  0.019105975            8 
 2000000   0.92886348   -7.9033729    459.01372  0.019125572  0.019098971            8 
 2001000   0.94285929   -7.8834639    458.25668  0.019084486  0.019091952            8 
 2002000   0.93101418   -7.9026423     459.8639  0.019141854  0.019084987            5 
 2003000   0.93539001   -7.8976493    459.05201  0.019098519  0.019077971            5 
 2004000   0.93637557   -7.9071224    459.50411  0.019107789  0.019070969            8 
 2005000   0.91425192   -7.8593647    459.04277  0.019079084  0.019063975            7 
 2006000   0.90824649   -7.8945637    459.24451  0.019077954  0.019057019            7 
 2007000   0.92936718   -7.8620592    461.19518  0.019149443  0.019050074            6 
 2008000   0.93896343   -7.9200964    458.36714  0.019022541  0.019043134            4 
 2009000   0.92527767   -7.8952495    460.46133  0.019099939  0.019036174           11 
 2010000   0.92259188   -7.9162723    460.47437  0.019090977  0.019029245            4 
 2011000   0.92721273   -7.9015454    459.69274  0.019049094  0.019022296            4 
 2012000   0.93839182    -7.870695    458.98977  0.019010511  0.019015346            3 
 2013000    0.9322471   -7.8798977    459.01687  0.019002189  0.019008343            7 
 2014000   0.92915496    -7.894577    459.28901  0.019004014  0.019001356            7 
 2015000   0.94028356   -7.9010032    458.74841  0.018972225   0.01899434           17 
 2016000   0.91989145   -7.8995492    458.84492  0.018966804  0.018987317            8 
 2017000   0.93803647   -7.9403675    459.50135  0.018984521  0.018980198            8 
 2018000   0.93588794   -7.9644871    458.58524  0.018937283  0.018973112            5 
 2019000   0.93067278   -7.8658046    460.76603  0.019017914  0.018966071            4 
 2020000   0.92717834   -7.8880494    460.65313  0.019003842  0.018959108            2 
 2021000   0.92637422   -7.9103889     459.3643  0.018941296  0.018952097            5 
 2022000   0.90839109   -7.8901607    460.26881  0.018969206  0.018945089            4 
 2023000   0.93259384   -7.8998176    461.24207   0.01899992  0.018938153            8 
 2024000   0.95035142   -7.8990879    460.86346  0.018974945  0.018931167            5 
 2025000   0.94139146   -7.9429011    460.15752  0.018936524  0.018924227            7 
 2026000    0.9306998   -7.9238054    459.53277   0.01890148   0.01891723            4 
 2027000   0.92100177   -7.8936891    461.15422  0.018958815   0.01891022            4 
 2028000    0.9354156   -7.9011206    460.96511  0.018941696  0.018903283           15 
 2029000   0.93249471   -7.9067388     461.1482   0.01893988  0.018896386            4 
 2030000   0.93250577    -7.888833    461.16817   0.01893137  0.018889404            5 
 2031000   0.92865654    -7.897661    461.61337  0.018940315  0.018882448            7 
 2032000   0.89929534   -7.9163396    460.21579  0.018873679   0.01887548            5 
 2033000   0.92520963    -7.943084    460.45247  0.018874097  0.018868468            5 
 2034000   0.94787494   -7.9017283    461.83248  0.018921357  0.018861479           10 
 2035000   0.91520688   -7.9522703    460.58165  0.018860838  0.018854475            5 
 2036000   0.90146399   -7.9338998    459.76699   0.01881823  0.018847483            4 
 2037000   0.91451507   -7.9207958    460.68196  0.018846423   0.01884046            8 
 2038000    0.9227389   -7.9059388    459.35728   0.01878301  0.018833458           14 
 2039000   0.94349977    -7.902236    460.21124  0.018808699  0.018826453            5 
 2040000   0.93689989   -7.9316639    460.37529   0.01880618  0.018819457            7 
 2041000   0.91536181   -7.9115488    461.55019  0.018844937  0.018812425           10 
 2042000   0.93353841   -7.9226797    461.45256  0.018831724  0.018805441            3 
 2043000   0.92861986   -7.8866445     461.6789  0.018831738  0.018798469            3 
 2044000   0.93177386   -7.9077226    461.78614  0.018826897  0.018791574            9 
 2045000   0.92648715   -7.9249329    460.92522  0.018782609  0.018784676            8 
 2046000   0.93891481   -7.9203545     462.4889  0.018837117  0.018777724            5 
 2047000    0.9314094   -7.9265769    461.85345  0.018802046  0.018770793            4 
 2048000   0.94149528   -7.9007931    462.36854  0.018813824  0.018763873           12 
 2049000   0.91631866   -7.9371265    462.73899  0.018819708  0.018756987            6 
 2050000    0.9433935   -7.9737203    461.35483  0.018754261  0.018750044            3 
 2051000   0.92015733   -7.9378336    461.81283  0.018763726  0.018743094            5 
 2052000   0.90750241   -7.9014311    462.21566  0.018770941  0.018736167            6 
 2053000   0.95135672   -7.8970974    462.86119  0.018788001  0.018729266            5 
 2054000   0.93749357   -7.9399416    462.00796  0.018744237  0.018722383            8 
 2055000   0.94301702   -7.9547834    461.19777  0.018702261  0.018715462            3 
 2056000   0.93859529   -7.9216733    462.53108  0.018747207  0.018708542            6 
 2057000   0.91667624   -7.9324917    462.59749  0.018740783  0.018701674            4 
 2058000   0.92878549   -7.8965768    463.15896  0.018754412  0.018694819            3 
 2059000   0.93275858   -7.9117919    463.84127  0.018772919  0.018688003            4 
 2060000   0.93409524   -7.9258039    464.10327  0.018774404  0.018681143            6 
 2061000   0.92254176   -7.9308315    463.31778  0.018733535  0.018674227            5 
 2062000   0.91601353     -7.94698     462.3374  0.018684829  0.018667312            7 
 2063000   0.92518282   -7.9414329    462.78599  0.018693892  0.018660356            6 
 2064000   0.90456547   -7.8918731    464.03196   0.01873514   0.01865347            3 
 2065000   0.94267767    -7.918307    462.69798  0.018672235  0.018646613           14 
 2066000   0.91391698    -7.893371    464.22162  0.018724654  0.018639778           11 
 2067000   0.91304973   -7.9642376    463.09841  0.018670312  0.018632919            4 
 2068000   0.92450686   -7.9604908    462.65829  0.018643548  0.018625966            5 
 2069000   0.91086603   -7.9560761     462.1455  0.018613883  0.018618983           10 
 2070000   0.93048126    -7.938107    463.92152   0.01867639  0.018612015            7 
 2071000   0.93045335   -7.9293089    464.66292  0.018697204  0.018605132            5 
 2072000   0.94572563   -7.9408255     464.3664  0.018676255  0.018598241            6 
 2073000   0.91559377   -7.8886298    464.49386  0.018672369  0.018591362            5 
 2074000   0.90676695   -7.9561726    463.99193  0.018643199  0.018584502            7 
 2075000   0.91074859   -7.9034343    463.94086  0.018632163  0.018577641            5 
 2076000   0.92758475   -7.9359808    465.20378  0.018673883  0.018570768           11 
 2077000   0.93849849   -7.9495181    463.77501  0.018607567  0.018563915            5 
 2078000   0.92581635   -7.9447709    463.23292  0.018576874  0.018557046            4 
 2079000   0.91476995   -7.9182904    464.74426  0.018628518  0.018550156            2 
 2080000   0.93203063   -7.9080751    462.90731  0.018545966   0.01854329            4 
 2081000   0.92576738   -7.9578056    464.37369  0.018595775  0.018536396            5 
 2082000   0.92367952   -7.8992159    464.42456  0.018588879  0.018529498            7 
 2083000   0.93059312   -7.9197726    465.03285  0.018604291  0.018522649            6 
 2084000   0.90712054   -7.9110379    464.80774  0.018586362  0.018515808            7 
 2085000   0.91858174   -7.8719069    466.68904  0.018652639  0.018508992            4 
 2086000   0.91523666   -7.9579409    465.09044  0.018579836  0.018502205            9 
 2087000   0.92869366   -7.9264557    465.82298  0.018600183  0.018495389           12 
 2088000   0.91675824   -7.9281281    464.14943  0.018524482   0.01848858            4 
 2089000   0.92325212   -7.9224441    464.73397  0.018538933  0.018481795            4 
 2090000   0.90071382   -7.9441214    464.71143  0.018529164  0.018474945            4 
 2091000   0.92759184   -7.9449033    465.43156  0.018549002  0.018468098            4 
 2092000   0.94410143   -7.9787224    466.78764  0.018594154  0.018461236           12 
 2093000   0.91650318   -7.9536909    464.83976  0.018507715  0.018454364            5 
 2094000   0.91230092   -7.9265464    466.64001  0.018570519  0.018447557            5 
 2095000   0.94280214   -7.9022771    465.49135  0.018515965  0.018440709            3 
 2096000   0.92778772   -7.9254583    466.36514  0.018541871  0.018433855            7 
 2097000   0.90993485   -7.9249982    465.53334  0.018499974  0.018426977            4 
 2098000   0.90795933   -7.9539172    464.95119  0.018468033  0.018420118           10 
 2099000   0.92108853   -7.9668407     464.6434  0.018447015  0.018413247            7 
 2100000   0.91301217   -7.9208334    465.93005  0.018489288  0.018406336            6 
 2101000   0.91482571   -7.9428958    465.03948  0.018445164  0.018399462            9 
 2102000   0.92052284   -7.9193759    465.58943  0.018458192   0.01839266            4 
 2103000    0.9178728   -7.9568304    465.43668  0.018443362  0.018385785            5 
 2104000   0.92388452   -7.9392208    465.20052  0.018425242  0.018378891            3 
 2105000   0.90371968   -7.9317555    466.15245  0.018454175  0.018371942           11 
 2106000   0.92107735   -7.9435705    465.02551   0.01840082  0.018365044            5 
 2107000   0.92633666   -7.9656941    465.66243  0.018417277   0.01835812            4 
 2108000   0.91031194   -7.9797946    464.35162  0.018356721   0.01835117            9 
 2109000   0.93574122   -8.0129336    463.88183  0.018329454  0.018344228            3 
 2110000   0.91363834   -7.9768951     463.9318  0.018322741  0.018337293            3 
 2111000   0.93486073   -7.9645461    464.14239  0.018322375   0.01833037            4 
 2112000   0.93053664   -7.9616938    467.11355  0.018430932  0.018323488            6 
 2113000   0.91126755   -7.9538428    466.01768   0.01837899  0.018316605            5 
 2114000   0.91838528   -7.9363529    465.69203  0.018357459  0.018309745            9 
 2115000   0.91250642   -7.9717795    466.34149  0.018374369  0.018302915            7 
 2116000   0.89208542   -7.9357377    467.00413  0.018391782  0.018296043            6 
 2117000   0.91646383   -7.9499342     466.5484  0.018365155  0.018289234            6 
 2118000    0.8860456   -7.9697486    466.50956  0.018354956  0.018282481            7 
 2119000   0.90312569   -7.9868978     465.1793  0.018293979  0.018275619           17 
 2120000   0.92544486    -7.937032       466.91   0.01835338  0.018268761            4 
 2121000   0.90107431   -7.9667348    467.01425  0.018348823  0.018261959            6 
 2122000   0.89818805   -7.9514405    466.44685  0.018317894  0.018255161            4 
 2123000   0.92862797   -7.9434045     467.3148  0.018343335  0.018248404            7 
 2124000   0.90987956   -7.9206864    467.82939  0.018354888  0.018241665            5 
 2125000   0.91340525    -7.986193    467.15186  0.018319681  0.018234868           20 
 2126000   0.89957537   -7.9555419     466.8817  0.018300474  0.018228025            6 
 2127000   0.90317455   -7.9377679    468.30618   0.01834768  0.018221282            4 
 2128000   0.91868919   -7.9883963    466.56256  0.018270777  0.018214553            6 
 2129000   0.88037331   -7.9354936    467.89147  0.018314211  0.018207813            4 
 2130000   0.91725874   -7.9834704    468.34732  0.018323448  0.018201026           20 
 2131000   0.91926853   -7.9644577    468.20163  0.018309152  0.018194286            6 
 2132000   0.89873171   -7.9729282    466.74153  0.018243493  0.018187529            3 
 2133000   0.90884291    -7.994562    468.14062  0.018289601  0.018180776            8 
 2134000   0.93196456   -7.9456397    467.47267  0.018254946  0.018174036            4 
 2135000   0.90320666   -7.9712351    467.40504  0.018243756  0.018167306            4 
 2136000   0.92478962   -7.9812947     467.3263  0.018232144  0.018160575            9 
 2137000   0.91845393   -7.9583874    468.20743  0.018257972  0.018153855            6 
 2138000   0.90606776   -8.0141644    467.20922  0.018210525  0.018147139           24 
 2139000    0.9014827    -7.986706    468.98179  0.018271069  0.018140398           19 
 2140000   0.92051903   -7.9777602    468.15807  0.018230454  0.018133636           26 
 2141000   0.93541384   -7.9326728    468.95436  0.018252933  0.018126904           30 
 2142000   0.90471507   -7.9828304    467.97004  0.018206117  0.018120187           16 
 2143000   0.90679756   -7.9772375    469.07336  0.018240526   0.01811345           11 
 2144000   0.90929692   -7.9932691     468.3958  0.018205683  0.018106733            4 
 2145000   0.93086765   -7.9686998    469.18033  0.018227674  0.018100017           17 
 2146000   0.88892034   -7.9686859    468.56235  0.018195183  0.018093287            8 
 2147000   0.91005879   -7.9971387    467.92318    0.0181619  0.018086595           12 
 2148000   0.90935084   -7.9774193     469.3869   0.01821023   0.01807991            6 
 2149000   0.91718543   -7.9993215    468.15021  0.018153801  0.018073231            5 
 2150000   0.90843032   -7.9301527    470.30763  0.018228978  0.018066551           18 
 2151000    0.9094782   -8.0083003    469.07047  0.018172574  0.018059843           14 
 2152000   0.90697839   -7.9941004    468.92614   0.01815854   0.01805307            4 
 2153000   0.91338957   -7.9300304    470.16349  0.018197999  0.018046386            8 
 2154000    0.8908733   -7.9817997    469.66734  0.018170355  0.018039755            4 
 2155000   0.90967765   -7.9488961    470.50883  0.018194464  0.018033136            7 
 2156000   0.90538327   -7.9682945    470.17726  0.018173209  0.018026511            8 
 2157000   0.89519588   -7.9777648    470.20417  0.018165823  0.018019903           13 
 2158000   0.90538082   -7.9617585    470.86398  0.018182885  0.018013263            3 
 2159000   0.90670425    -7.959601    469.38626  0.018117425  0.018006597            8 
 2160000   0.90196408   -7.9628965    470.48282  0.018151343  0.017999952            4 
 2161000   0.91695472    -7.986304    468.60542  0.018070547  0.017993281            8 
 2162000   0.90807417   -8.0002183    469.79548  0.018108059  0.017986637            8 
 2163000   0.89949531   -7.9865095     469.7878  0.018099391  0.017979965            5 
 2164000    0.9154339   -7.9318393    470.28587  0.018110208  0.017973329            3 
 2165000     0.926423    -7.960624    470.92112  0.018126294  0.017966761            5 
 2166000   0.91743754   -7.9722396    470.05741  0.018084695  0.017960159            6 
 2167000   0.89466499   -8.0122141    470.15144  0.018079966  0.017953528            6 
 2168000   0.90185392    -7.984081    470.33537  0.018078697  0.017946832            8 
 2169000   0.92077174   -7.9659496     470.2355  0.018066525  0.017940156           14 
 2170000   0.89756979   -7.9743012    470.22114  0.018057647  0.017933529           12 
 2171000   0.88839837   -7.9615983    470.64507  0.018065602  0.017926897           14 
 2172000   0.89800354   -7.9669019    470.41867  0.018048598  0.017920267           16 
 2173000   0.88737703   -7.9793502    470.52942   0.01804454  0.017913644           12 
 2174000    0.8854859   -7.9704606    470.91405  0.018050983  0.017906988           16 
 2175000   0.90794518   -7.9813328    470.84195  0.018039922  0.017900326            8 
 2176000   0.89569378   -7.9819757    470.63157  0.018023574  0.017893681            9 
 2177000    0.9053114   -7.9872256    469.57073  0.017974687  0.017887003            6 
 2178000   0.92894077   -7.9693956    470.60955  0.018006181  0.017880321            3 
 2179000   0.91229445   -7.9794878    469.96031  0.017973088   0.01787365            6 
 2180000   0.89671977   -7.9711799    471.25891  0.018014485  0.017866981            4 
 2181000   0.91410745    -7.962554    470.97183  0.017995256  0.017860288            6 
 2182000   0.91635394   -7.9867288    471.15216  0.017993896  0.017853633            7 
 2183000    0.9245134   -7.9799311    470.81773  0.017972886  0.017846944            9 
 2184000   0.90720385   -7.9631479    469.79021  0.017925451  0.017840199            5 
 2185000   0.86710774   -7.9883922    470.85526  0.017957866  0.017833484            2 
 2186000   0.89022539    -7.997702    470.72364  0.017944634  0.017826791            5 
 2187000   0.90820273   -7.9917997    470.82191  0.017940173  0.017820109            8 
 2188000   0.88700721   -8.0196827    469.92662  0.017897876  0.017813402            7 
 2189000   0.90263645   -8.0046649    470.47946  0.017910745  0.017806654            7 
 2190000   0.93183863   -7.9816605    469.87359  0.017879512  0.017799927            6 
 2191000   0.88163677   -7.9894257    470.69219  0.017902487   0.01779322            5 
 2192000   0.89132423   -7.9903756     469.9074  0.017864484  0.017786504            4 
 2193000   0.87996445   -8.0005284    472.03994  0.017937374  0.017779794            6 
 2194000    0.8941201   -7.9756651    471.74379   0.01791795   0.01777311            7 
 2195000   0.89599232   -7.9684697    471.77278  0.017910888  0.017766435            4 
 2196000   0.90802911   -7.9785507    471.92508  0.017908511    0.0177598            9 
 2197000   0.88855059   -7.9701211    472.41611  0.017918985  0.017753201            7 
 2198000   0.91332321   -7.9763201    471.56616  0.017878608  0.017746572            5 
 2199000   0.88915291   -7.9879008    470.45432  0.017828343  0.017739937            7 
 2200000   0.88766866   -7.9843923    472.17364  0.017885365  0.017733252            7 
 2201000   0.88742356    -8.000747    470.90969  0.017829384  0.017726528            4 
 2202000   0.90382731   -7.9759417    472.07441  0.017865365  0.017719893            5 
 2203000   0.90333891   -8.0090327    471.81061  0.017847277  0.017713262           15 
 2204000   0.89499151   -8.0026458    471.85827  0.017840981  0.017706568            9 
 2205000   0.87001135   -7.9533659    472.95322  0.017874271  0.017699903            4 
 2206000   0.91414215   -8.0267466    470.50428  0.017773658  0.017693179            9 
 2207000    0.9084123   -8.0029791    471.44066  0.017800961  0.017686431            6 
 2208000   0.90524914   -7.9887715    471.16031  0.017782318  0.017679683           13 
 2209000    0.8955361   -8.0189169    471.50118  0.017787128   0.01767293            5 
 2210000   0.90472991   -8.0077427    471.90296  0.017794229  0.017666207            7 
 2211000   0.89886648   -7.9945524     472.3713  0.017803833    0.0176595            4 
 2212000   0.90606752   -7.9808591    471.28722  0.017754943  0.017652799            7 
 2213000   0.88195736   -8.0159485    472.49189  0.017792284  0.017646142           10 
 2214000   0.88474708   -8.0025738    472.17446    0.0177723  0.017639485            5 
 2215000   0.89665683   -8.0151345    472.93729  0.017792976  0.017632826            5 
 2216000   0.91645697   -8.0220794    471.78915   0.01774177  0.017626172            3 
 2217000   0.90132245   -7.9413988    472.64637  0.017765989  0.017619571           11 
 2218000   0.89017188   -7.9796631    473.35174  0.017784481  0.017612988            7 
 2219000   0.89176778   -7.9587359     474.5482  0.017821399  0.017606385           10 
 2220000   0.90462412   -7.9868932    473.20125   0.01776281   0.01759982           10 
 2221000   0.90548309    -7.993215    474.02991  0.017785904  0.017593216            4 
 2222000   0.91742419   -7.9989671    471.68394  0.017689917  0.017586645            6 
 2223000   0.88906754   -8.0000169    474.05244  0.017770747  0.017580053            4 
 2224000   0.89952998   -7.9992597    473.73635  0.017750913  0.017573467            5 
 2225000   0.89684219    -8.026399    473.47818  0.017733265  0.017566892           15 
 2226000    0.8818476   -8.0098575    473.86975  0.017739958  0.017560403            4 
 2227000   0.89805319   -8.0365371    473.55496  0.017720213  0.017553887            7 
 2228000   0.88723692   -8.0323134    474.16196  0.017734963  0.017547369           13 
 2229000   0.88742957   -8.0133492    473.75336   0.01771173  0.017540829            3 
 2230000   0.88267046    -7.984748    473.71734  0.017702442  0.017534343            7 
 2231000   0.89471261   -8.0474132    473.18071  0.017674462  0.017527842            8 
 2232000   0.89378128   -8.0136515    473.90675  0.017693651  0.017521316           10 
 2233000   0.88891068   -8.0021548    475.51433  0.017745721  0.017514799            8 
 2234000   0.87862113   -8.0241371    473.63032  0.017667499  0.017508333            5 
 2235000   0.89991356   -8.0418588    474.10068  0.017677132  0.017501819            3 
 2236000   0.87437527   -7.9975322    475.67339   0.01772784  0.017495347            7 
 2237000   0.89559639    -8.072144    474.13704  0.017662682  0.017488838            6 
 2238000   0.90353695   -8.0278747    474.55908  0.017670505  0.017482322            8 
 2239000   0.90678606    -8.026458    472.59393  0.017589472  0.017475801            3 
 2240000   0.89179742   -8.0498446    473.94664  0.017631943  0.017469279            9 
 2241000   0.89747181   -8.0088482    475.38217  0.017677457   0.01746278            4 
 2242000   0.89393722    -8.022738    474.60367  0.017640636   0.01745627           15 
 2243000   0.88601402   -7.9814898    475.21792  0.017655592  0.017449802            4 
 2244000   0.91920477   -8.0379098    474.47602  0.017620173   0.01744333            8 
 2245000   0.90514982   -8.0152004    475.26549  0.017641629  0.017436841            6 
 2246000   0.90724323    -8.024638    474.78541  0.017615962  0.017430406            8 
 2247000    0.8899266   -8.0081167    475.95925  0.017651656  0.017423937            9 
 2248000   0.91169291   -7.9926995    475.70705  0.017634455  0.017417475           13 
 2249000    0.9109536   -8.0494858    475.35617  0.017613612  0.017410984           14 
 2250000   0.88427148   -8.0564075     474.2225  0.017563796  0.017404486           21 
 2251000   0.88970462   -8.0411872     473.6297  0.017534048  0.017397957           13 
 2252000   0.89002964   -7.9992489    476.52392   0.01763336   0.01739145           13 
 2253000     0.891444   -8.0182711    475.93493  0.017603748  0.017384932            7 
 2254000   0.88225576   -8.0138104    474.46285  0.017541513  0.017378436           15 
 2255000   0.88410833   -8.0862423     473.7637  0.017507897  0.017371883            7 
 2256000   0.91024747   -8.0940714     473.8732  0.017504182  0.017365301           11 
 2257000   0.89011563   -8.0504959    475.11013  0.017542096  0.017358753            6 
 2258000   0.88402982   -8.0341389    474.58045  0.017514779  0.017352223            7 
 2259000   0.89313289   -8.0637441    475.22444  0.017530782   0.01734568            6 
 2260000   0.90021324   -8.0211889    475.47129  0.017532127  0.017339156            5 
 2261000   0.89460769   -7.9995921    475.84872  0.017538284  0.017332653            5 
 2262000   0.89783516   -8.0176163     475.4672  0.017516475  0.017326128            9 
 2263000   0.87171177   -8.0375776    475.09701  0.017495103  0.017319603            6 
 2264000   0.90140541   -8.0187462    475.61404  0.017506406  0.017313096            3 
 2265000   0.89177811   -8.0082206    474.70033   0.01746506   0.01730657            8 
 2266000   0.90453064   -8.0166099    476.19821  0.017512438  0.017300068            7 
 2267000   0.89825771   -8.0173059    475.94068  0.017495246  0.017293541            6 
 2268000    0.8774349   -8.0553049    473.92611  0.017413511  0.017287017            8 
 2269000   0.89244281   -7.9992374     476.2182  0.017490017  0.017280466            7 
 2270000   0.89214237   -8.0225288     475.6668  0.017462071   0.01727392           10 
 2271000   0.90694951   -8.0330641    475.38523  0.017444049   0.01726734            4 
 2272000   0.88342395     -8.05144     475.4168  0.017437529  0.017260748           15 
 2273000    0.8904421   -8.0388631      474.044  0.017379528  0.017254146            6 
 2274000   0.89602538     -8.07709    475.36953  0.017420461  0.017247582            6 
 2275000   0.87766171   -8.0665418    474.28397  0.017373039  0.017240995            3 
 2276000   0.87871483   -8.0623412    475.03903  0.017393052  0.017234398           10 
 2277000   0.89513451   -8.0145207    476.14773  0.017425989  0.017227827            5 
 2278000   0.88749781   -8.0314596    475.60147  0.017398357  0.017221265            6 
 2279000   0.90594298   -8.0215968    475.22662  0.017377015  0.017214704           11 
 2280000   0.88914279   -8.0533894    475.35119  0.017373947   0.01720814            7 
 2281000   0.89076792   -8.0205085     475.3848  0.017367558  0.017201592           29 
 2282000    0.8815697   -8.0383673    475.64829   0.01736957  0.017195004            5 
 2283000   0.88334136    -8.029658    476.00149  0.017374853   0.01718846           15 
 2284000   0.91787556   -8.0543192    474.82251  0.017324231  0.017181891           14 
 2285000   0.85839666   -8.0451577    476.21189  0.017367319  0.017175304            7 
 2286000    0.8782235   -8.0147194    476.07935   0.01735489  0.017168778           17 
 2287000   0.89727727   -8.0237174    476.29187  0.017355046  0.017162236           14 
 2288000   0.90202841   -8.0397105    475.74094  0.017327394    0.0171557            8 
 2289000   0.89249753   -8.0610831    476.46119  0.017346046  0.017149175            8 
 2290000   0.88605101   -8.0242932    475.71181  0.017311201  0.017142689            4 
 2291000   0.89081615   -8.0684069    474.81806  0.017271135  0.017136182           10 
 2292000   0.89164802   -8.0676641    475.47526  0.017287495  0.017129666           10 
 2293000   0.88169535   -8.0531559    474.66914  0.017250659  0.017123171            4 
 2294000   0.87085706   -8.0092307    477.36473  0.017341061  0.017116678            9 
 2295000   0.88568764   -8.0809866    476.44127  0.017299973  0.017110124            9 
 2296000   0.88593523   -8.0594573    475.38589  0.017254134  0.017103631            4 
 2297000   0.90088223   -8.0376977    477.02192  0.017305976  0.017097104            6 
 2298000   0.87570258   -8.0503197    475.81323  0.017254614  0.017090602           15 
 2299000   0.88586925   -8.0625403    475.75921  0.017245151  0.017084091           32 
 2300000   0.88891324   -8.0727597    476.02245   0.01724719  0.017077559            8 
 2301000   0.85251088   -8.0524033    476.81465  0.017268385  0.017071029            6 
 2302000   0.87899914    -8.053997     476.2233  0.017239477  0.017064511           11 
 2303000   0.88912869    -8.072675    477.17187  0.017266315  0.017057987           13 
 2304000   0.87945945   -8.0569626    476.73413  0.017242988  0.017051488            5 
 2305000   0.89426493   -8.0781371    476.64326  0.017232222  0.017044986            5 
 2306000   0.87404514   -8.0620856    476.57044  0.017222118  0.017038478            7 
 2307000   0.89465268    -8.031826    476.36617  0.017207274  0.017031973            7 
 2308000   0.88227292   -8.0577098    475.82205  0.017180172  0.017025445           10 
 2309000   0.88251136   -8.0798954    476.65246  0.017202702  0.017018938            6 
 2310000   0.87643385   -8.0644605    476.89493  0.017204002  0.017012442            8 
 2311000   0.89518675   -8.0447967    477.32962  0.017212232  0.017005961            9 
 2312000    0.8830703    -8.050546     478.1123  0.017232998  0.016999511            8 
 2313000   0.88865974    -8.052757    478.09778  0.017225024  0.016993077           12 
 2314000   0.86285999   -8.0433661    477.21766  0.017185885  0.016986612            5 
 2315000     0.891489   -8.0102664    478.63028  0.017229312  0.016980175            9 
 2316000   0.87441386   -8.0715417    476.68373  0.017151833  0.016973724           10 
 2317000   0.89866769   -8.0297564    478.47506  0.017208857  0.016967274            6 
 2318000   0.88275532   -8.0726372     477.1424  0.017153523  0.016960821           11 
 2319000   0.85264589   -8.0277127    476.60291   0.01712674  0.016954401            5 
 2320000   0.90643139   -8.0037641     478.5278  0.017188498  0.016947966            3 
 2321000   0.87955982   -8.0395089    478.82236  0.017191669  0.016941538            4 
 2322000    0.8896257   -8.0544691    479.58015  0.017211461  0.016935128            3 
 2323000   0.87959335    -8.077069    477.79595  0.017140047  0.016928706            6 
 2324000   0.87747982   -8.0584134    478.46086  0.017156514  0.016922294            9 
 2325000   0.89128656   -8.0563605    477.53819  0.017116064  0.016915895            7 
 2326000   0.88022035   -8.0468277    478.73395  0.017151546  0.016909539            8 
 2327000   0.87957329   -8.0607072    478.44542  0.017133842  0.016903145            6 
 2328000   0.87956733   -8.0735496    479.26191   0.01715571  0.016896758            9 
 2329000   0.87416892   -8.0721197    478.51473  0.017121609  0.016890381           13 
 2330000   0.86521005   -8.0689767      479.445  0.017147532  0.016883991            7 
 2331000   0.87160801   -8.0793634    479.26908  0.017133887  0.016877596           12 
 2332000   0.87235916   -8.0484493     476.7688  0.017037193  0.016871219            9 
 2333000    0.8874921   -8.1196097    477.83819  0.017068088  0.016864821           11 
 2334000   0.88247238   -8.0978612    477.87671  0.017062151  0.016858356            8 
 2335000   0.87390611   -8.0770467     477.3165   0.01703485  0.016851952            6 
 2336000   0.86883064   -8.0761544    478.28593  0.017062141  0.016845586            8 
 2337000   0.89268203   -8.0733729    479.02797    0.0170813  0.016839191            6 
 2338000   0.87984045   -8.0878192    479.42622  0.017088189   0.01683283           18 
 2339000   0.88544384   -8.0642434    478.62306  0.017052268  0.016826469            6 
 2340000   0.88436691   -8.0599798    477.76827   0.01701454  0.016820101           18 
 2341000   0.88560974   -8.0807646    477.81921  0.017009085  0.016813778           22 
 2342000   0.85941107   -8.1139839    477.70443  0.016997738  0.016807389           23 
 2343000   0.88244758    -8.062469    478.16737  0.017006949  0.016801029            5 
 2344000   0.86113238    -8.043819    479.49065  0.017046738  0.016794668           21 
 2345000   0.87054473   -8.0423758     479.7885  0.017050053  0.016788316            7 
 2346000   0.88586674   -8.0968916    478.93447  0.017012449  0.016781923           17 
 2347000   0.89053384   -8.0358765    480.07971  0.017045864  0.016775611           26 
 2348000   0.86962359   -8.0441433    479.23628   0.01700867  0.016769319           14 
 2349000   0.86768494   -8.0757956     480.8908  0.017060125  0.016763022           24 
 2350000   0.86847144   -8.0446419     479.3069  0.016996698  0.016756747            7 
 2351000   0.89497429   -8.1006343    479.93256  0.017011646  0.016750469           20 
 2352000   0.88731108   -8.0397928    480.34346  0.017018972  0.016744157           19 
 2353000   0.87859765   -8.0773656    479.98064  0.016998889   0.01673786           31 
 2354000   0.85707976   -8.0355585    480.56577  0.017012382  0.016731575           11 
 2355000   0.87799148    -8.066245    480.16413  0.016990946  0.016725323           12 
 2356000   0.85638879   -8.0282234    481.47713  0.017030176  0.016719072           18 
 2357000   0.88311409   -8.0612491    480.09953  0.016974245   0.01671283           23 
 2358000   0.87944913   -8.0701083    480.68815  0.016987848  0.016706612           54 
 2359000   0.87546386   -8.0825609    481.27502  0.017001378  0.016700366           46 
 2360000   0.88342585   -8.0751103    480.98994  0.016984108  0.016694109           43 
 2361000   0.87410394   -8.0617326    481.08816  0.016980381  0.016687828           63 
 2362000   0.87289055   -8.0779959    480.02929  0.016935834  0.016681574           82 
 2363000   0.85658695   -8.0656125    481.06946   0.01696535  0.016675326           30 
 2364000   0.89044588   -8.0613075    480.98497  0.016955195  0.016669073           68 
 2365000    0.8691728    -8.057835    482.39486  0.016997705  0.016662828           46 
 2366000   0.86545876    -8.094441    480.35108  0.016918536  0.016656581           50 
 2367000   0.86590535   -8.0847634    481.16377      0.01694  0.016650343           30 
 2368000   0.90452306   -8.0457089    481.46491  0.016943444  0.016644154           58 
 2369000   0.87514945    -8.092296    481.38082  0.016933334  0.016637916           55 
 2370000   0.88941592   -8.0790545     479.4242  0.016857391  0.016631671           78 
 2371000   0.86386975   -8.0697529    479.84743  0.016865156  0.016625432           76 
 2372000   0.86826336   -8.0935896    482.34704  0.016945863  0.016619186           72 
 2373000   0.88411697   -8.0729665    480.94096  0.016889344  0.016612934          111 
 2374000   0.86245283   -8.0754967    480.52041  0.016867467  0.016606685           72 
 2375000   0.85678178   -8.0745421     481.0565  0.016879175  0.016600483           77 
 2376000   0.87939124   -8.1065581    482.38227   0.01691857  0.016594267           98 
 2377000   0.88659084   -8.1413394    480.50783  0.016845738  0.016588008          112 
 2378000   0.86773183   -8.1167483      481.032  0.016857023   0.01658172          139 
 2379000   0.86427222   -8.1181764    481.33699   0.01686062  0.016575441          125 
 2380000   0.86296699   -8.0838081    481.54808  0.016860927  0.016569172          130 
 2381000    0.8518791   -8.1544792    480.64337  0.016822181  0.016562884          145 
 2382000   0.85343256   -8.1542814    479.99033  0.016792273  0.016556581          136 
 2383000   0.87133703   -8.1396578    481.24233  0.016829009  0.016550296          146 
 2384000   0.88001328   -8.1522454    481.14408  0.016818515  0.016543981          160 
 2385000   0.86628612   -8.1317756    480.43719  0.016786764  0.016537641          144 
 2386000   0.87276298   -8.1531825    479.60159  0.016750545  0.016531319          195 
 2387000   0.88302542    -8.140101     479.7865  0.016749983  0.016524996          233 
 2388000   0.88255539   -8.1271082    481.60965   0.01680659   0.01651868          235 
 2389000   0.87369142   -8.1256303    480.67647  0.016767004  0.016512387          205 
 2390000    0.8683732   -8.1709096      480.013  0.016736855  0.016506076          265 
 2391000   0.87891393   -8.1989812     481.0533  0.016766112  0.016499747          238 
 2392000     0.883908   -8.1680659    479.58837  0.016708068  0.016493391          238 
 2393000   0.87227787   -8.1777688    480.95291  0.016748604  0.016487043          290 
 2394000   0.85178988   -8.2214786    479.45196  0.016689361  0.016480689          357 
 2395000   0.86705846   -8.1941634    480.65405  0.016724219  0.016474343          324 
 2396000   0.86559162   -8.1495602     481.1505  0.016734505  0.016467992          285 
 2397000   0.87230504   -8.1728987    480.67779   0.01671109  0.016461654          387 
 2398000   0.88106515   -8.1935015    481.29939  0.016725722  0.016455316          348 
 2399000    0.8878878   -8.2014246    482.18208  0.016749412  0.016448984          428 
 2400000    0.8859748   -8.1729068    482.10657  0.016739811  0.016442652          383 
 2401000   0.87679315   -8.1990136    480.94656  0.016692578   0.01643634          345 
 2402000   0.85304883   -8.2026247    480.64918  0.016675312  0.016430019          387 
 2403000   0.87711978   -8.1739232    481.43678  0.016695685  0.016423731          428 
 2404000   0.88447196    -8.226841    480.01135  0.016639328  0.016417368          400 
 2405000    0.8680159   -8.2199102    480.12455  0.016636332   0.01641098          400 
 2406000   0.88774564   -8.2097219    480.81273  0.016653253  0.016404621          469 
 2407000    0.8899153   -8.1865842    480.23381  0.016626292  0.016398267          417 
 2408000    0.8555944   -8.1976399    479.87317  0.016606906  0.016391877          472 
 2409000   0.87851305   -8.2143194    480.95064  0.016637285  0.016385527          537 
 2410000   0.86755132    -8.223476    481.50727  0.016649629  0.016379161          529 
 2411000   0.86908293    -8.201966     480.1984  0.016597484  0.016372796          493 
 2412000   0.87286594   -8.2203625    480.21324  0.016591115  0.016366421          504 
 2413000    0.8645851   -8.2079761    480.56574  0.016596413  0.016360034          508 
 2414000   0.85035784   -8.2424555    479.75655  0.016561604  0.016353593          511 
 2415000   0.85677117   -8.2141266    480.69239  0.016587039  0.016347155          473 
 2416000    0.8688995    -8.235627    480.05087  0.016558046  0.016340739          537 
 2417000   0.87021355   -8.2445161    479.09559  0.016518259  0.016334288          526 
 2418000   0.87372808   -8.2234981    479.00585  0.016508335  0.016327822          579 
 2419000   0.86737032   -8.2238729    479.61593  0.016522528  0.016321379          563 
 2420000     0.857355   -8.2350754    480.19283  0.016535566  0.016314933          587 
 2421000   0.87261844   -8.2347245    478.26489  0.016462374   0.01630851          665 
 2422000   0.86615082   -8.2502651      478.748  0.016472199  0.016302047          706 
 2423000   0.85610694   -8.2671528    479.93225   0.01650613  0.016295571          751 
 2424000   0.84776655   -8.2482519    480.37441  0.016514522  0.016289092          739 
 2425000   0.87041432   -8.2937536    479.78993  0.016487626   0.01628263          769 
 2426000   0.86493819    -8.302591    478.75029  0.016445118  0.016276112          718 
 2427000   0.86137083   -8.2799429    478.92417  0.016444313  0.016269584          725 
 2428000   0.86038054   -8.3009149    479.09304  0.016443336  0.016263042          750 
 2429000   0.86405704   -8.2854446    479.43075  0.016448152  0.016256553          787 
 2430000   0.86271924   -8.3018819    479.12484  0.016430893  0.016250037          836 
 2431000   0.86592011   -8.2667773    479.95547  0.016452608  0.016243546          861 
 2432000   0.84033935    -8.297503    478.94826   0.01641133  0.016237059          929 
 2433000   0.87361519   -8.3069776    479.41529  0.016420581  0.016230581          932 
 2434000   0.86889705   -8.2752955    479.47964  0.016416038  0.016224101          936 
 2435000   0.87051767   -8.3104539    478.68329  0.016382043   0.01621758          910 
 2436000   0.86235698   -8.3297764    478.87747  0.016381961  0.016211081          973 
 2437000   0.86505577    -8.319603    478.97978  0.016378737   0.01620454          976 
 2438000   0.84852881   -8.3435129    478.01149  0.016338922  0.016197974         1024 
 2439000   0.86757524   -8.3405895    477.92792  0.016329367  0.016191361         1063 
 2440000   0.87055597   -8.3629674    477.36125  0.016303321  0.016184765         1125 
 2441000   0.87787602   -8.3730228    477.49238  0.016301119  0.016178182         1186 
 2442000    0.8672861   -8.3793085    477.58218  0.016297508  0.016171538         1272 
 2443000   0.86175058   -8.4514892    475.74812  0.016228275  0.016164834         1351 
 2444000   0.84737755   -8.4136391    476.91486  0.016261418  0.016158114         1443 
 2445000   0.83367668   -8.4467203     475.3485   0.01620138  0.016151343         1471 
 2446000   0.87103819   -8.4463975    476.14686  0.016221956  0.016144576         1524 
 2447000   0.84147506   -8.4663363    475.15806  0.016181653  0.016137812         1664 
 2448000   0.85626294    -8.465096    473.82475  0.016129655     0.016131         1679 
 2449000   0.85949315   -8.4980994    474.23303  0.016136962  0.016124148         1750 
 2450000   0.85468882   -8.5051907    474.50414  0.016139596  0.016117257         1830 
 2451000   0.86323888   -8.5562844    473.27345  0.016091168  0.016110311         1967 
 2452000   0.85840197   -8.5781096    472.13891  0.016046048  0.016103327         2090 
 2453000   0.84395344   -8.5839723    471.08682  0.016003765  0.016096279         2187 
 2454000   0.86238762   -8.6186446    471.38738   0.01600745  0.016089152         2206 
 2455000   0.84749998   -8.6936925    469.57222  0.015939315  0.016082006         2437 
 2456000   0.85682113   -8.6752558    469.85474  0.015942411  0.016074814         2495 
 2457000   0.84867488   -8.6718244    470.23812  0.015948925  0.016067623         2490 
 2458000   0.86482844   -8.7224284    469.16494  0.015906053  0.016060415         2607 
 2459000   0.85226186   -8.7362003    469.10681  0.015897614  0.016053147         2710 
 2460000   0.84264063   -8.7429948    468.35733  0.015865763  0.016045847         2794 
 2461000   0.85626598   -8.7343566    469.45358  0.015896437  0.016038522         2845 
 2462000   0.87310708   -8.7306752    468.75089  0.015866196  0.016031179         2868 
 2463000   0.86732855   -8.7634157    467.84995  0.015829272  0.016023813         2881 
 2464000   0.85867929   -8.7866835    468.53261  0.015845935  0.016016447         3008 
 2465000   0.86844629   -8.7811149    468.59345  0.015841564  0.016009044         3034 
 2466000   0.83448488   -8.7956451    467.22908  0.015789033  0.016001642         3040 
 2467000   0.88587834   -8.8119606     467.5193  0.015792437  0.015994214         3056 
 2468000    0.8540742   -8.8080139    467.93638  0.015800121  0.015986782         3064 
 2469000   0.84685642   -8.8051473    466.72323  0.015752775  0.015979338         3129 
 2470000   0.84944605   -8.8579046    466.75885    0.0157476  0.015971878         3179 
 2471000   0.86913743   -8.8229485    467.67531  0.015772134  0.015964397         3155 
 2472000   0.84599981   -8.8223496    467.53729    0.0157611  0.015956914         3145 
 2473000   0.86538512   -8.8284063     466.1134  0.015706746  0.015949418         3169 
 2474000   0.86176022   -8.8582127    467.21665  0.015737559  0.015941922         3228 
 2475000   0.86030651   -8.8518173    466.18713  0.015696537  0.015934414         3197 
 2476000   0.83668608   -8.8546234    466.64827  0.015705717  0.015926899         3264 
 2477000   0.85791424   -8.9195655     466.3293  0.015688645  0.015919373         3240 
 2478000    0.8418999    -8.880628    466.13443  0.015675761  0.015911835         3244 
 2479000   0.84252799   -8.8646844    466.05185  0.015666662  0.015904313         3260 
 2480000   0.85827085   -8.8684882    466.22367  0.015666118  0.015896784         3326 
 2481000   0.85136171   -8.8733334     466.9722  0.015684946  0.015889274         3308 
 2482000   0.82216267   -8.9119595    464.86771  0.015607968  0.015881771         3291 
 2483000   0.84821952   -8.8914373    466.31127   0.01565013  0.015874247         3314 
 2484000   0.86214509   -8.8994801    466.56597  0.015652374  0.015866722         3244 
 2485000   0.84985671   -8.8617863    465.88096  0.015623104  0.015859212         3314 
 2486000   0.86376541   -8.9039552    465.61415  0.015607876  0.015851685         3351 
 2487000     0.859575   -8.8897529    465.62573  0.015601988  0.015844168         3322 
 2488000   0.83976665   -8.9150135    465.06546  0.015576951  0.015836649         3308 
 2489000   0.87023972   -8.9032736    466.25341  0.015610466   0.01582913         3367 
 2490000   0.82838191   -8.9513952     465.0946  0.015565415  0.015821602         3328 
 2491000   0.84490622   -8.8959799    466.14802  0.015594407  0.015814066         3362 
 2492000   0.85119831   -8.9140428    466.82291  0.015610718   0.01580655         3359 
 2493000   0.83056333   -8.9315179    466.01306  0.015577385  0.015799031         3422 
 2494000   0.85549174   -8.9267715    465.54303  0.015555434  0.015791499         3405 
 2495000   0.83394397    -8.908978    466.01869  0.015565087  0.015783978         3425 
 2496000   0.84630015   -8.9404464    465.30149  0.015534905  0.015776446         3402 
 2497000   0.83430831   -8.9136302    465.30913  0.015528939  0.015768906         3441 
 2498000   0.85460618   -8.9052839    466.48743  0.015562031  0.015761375         3457 
 2499000   0.85827942    -8.949217    464.98606  0.015505738  0.015753851         3480 
 2500000   0.84474658   -8.9408759    464.71447  0.015490482  0.015746314         3434 
 2501000   0.84102055   -8.9458978    465.20509  0.015500636  0.015738755         3489 
 2502000   0.84419023   -8.9411379      465.121   0.01549164  0.015731214         3456 
 2503000   0.84653171   -8.9327337    464.53075  0.015465799   0.01572365         3461 
 2504000   0.87186611   -8.9352353    464.61136  0.015462306  0.015716109         3450 
 2505000   0.86165377   -8.9262721     465.8623  0.015497748  0.015708579         3352 
 2506000   0.85024598   -8.9109607    466.04535  0.015497651   0.01570106         3414 
 2507000   0.84092595   -8.9245143    466.03703  0.015491192  0.015693551         3397 
 2508000   0.84657309   -8.9390729    463.47904  0.015400021  0.015686025         3386 
 2509000   0.84468807   -8.9194688    465.68096  0.015467017  0.015678502         3393 
 2510000   0.84970176   -8.9645256    465.11935   0.01544221  0.015670983         3406 
 2511000   0.86750727   -8.9583892    465.09507  0.015435254  0.015663456         3448 
 2512000   0.85555545   -8.9618654    464.91907  0.015423271  0.015655913         3444 
 2513000   0.86689293   -8.9438641    464.17635  0.015392504  0.015648358         3507 
 2514000   0.85985838   -8.9401271    464.29278  0.015390241  0.015640818         3467 
 2515000   0.85232007   -8.9611299    464.99105  0.015407258  0.015633277         3483 
 2516000   0.83488762   -8.9764968    464.81109  0.015395174  0.015625739         3488 
 2517000   0.86072754   -8.9324832    465.21334  0.015402375  0.015618188         3528 
 2518000   0.85695563   -9.0018815     463.8217  0.015350202  0.015610633         3580 
 2519000   0.83647499   -9.0014894    464.06713  0.015352228  0.015603065         3587 
 2520000   0.83539201   -8.9671358    463.92725  0.015341509  0.015595515         3518 
 2521000   0.83525934    -8.994308     463.7797  0.015330547  0.015587958         3595 
 2522000   0.85531076   -8.9774151    464.52729   0.01534917  0.015580402         3562 
 2523000   0.85632378   -8.9770331    464.39722  0.015338791  0.015572834         3607 
 2524000   0.84895133   -8.9874437    463.69689  0.015309591  0.015565279         3606 
 2525000   0.83285034   -8.9956863    462.64362  0.015268766  0.015557722         3557 
 2526000   0.84479196   -8.9898586    463.15187  0.015279489  0.015550167         3566 
 2527000   0.85228292   -8.9809215    464.59859  0.015321151  0.015542608         3556 
 2528000   0.84302789   -8.9955526     464.8818  0.015324426  0.015535056         3597 
 2529000   0.83376299   -9.0273602    463.55087  0.015274511  0.015527495         3639 
 2530000     0.849512   -9.0233847    463.95323  0.015281727  0.015519929         3616 
 2531000   0.85544751   -9.0172842    463.68728  0.015266933  0.015512369         3686 
 2532000   0.85889113   -8.9894189    463.53262  0.015255813  0.015504799         3711 
 2533000   0.84368783   -8.9821307    463.64533  0.015253498  0.015497246         3628 
 2534000   0.85374379   -8.9966515    463.47402  0.015241845  0.015489686         3668 
 2535000   0.84825981   -9.0186156    463.73738   0.01524449  0.015482138         3636 
 2536000   0.84354048   -9.0112963    463.86423  0.015242647  0.015474599         3677 
 2537000   0.85896611   -9.0116096     464.2353  0.015248827  0.015467053         3706 
 2538000   0.84712159   -9.0317361    463.28918  0.015211754  0.015459508         3700 
 2539000   0.82781298   -9.0126055    463.66466  0.015218086  0.015451964         3677 
 2540000   0.84163052   -9.0197697      463.857  0.015218406  0.015444413         3655 
 2541000   0.84758956   -9.0034844    463.99767   0.01521703  0.015436865         3700 
 2542000   0.85113873   -9.0224101    463.30868  0.015188457  0.015429319         3740 
 2543000   0.83539159   -9.0163147     463.9271  0.015202749  0.015421766         3724 
 2544000   0.85861956   -9.0430504    462.55455  0.015151813  0.015414203         3753 
 2545000   0.83758429   -9.0105283    463.48151  0.015176212   0.01540664         3752 
 2546000   0.82210352   -9.0423043    462.43538   0.01513601  0.015399075         3798 
 2547000   0.85342377   -9.0245263    462.99712  0.015148447    0.0153915         3755 
 2548000   0.83700622    -9.017781     462.9436  0.015140751  0.015383916         3751 
 2549000   0.83841462   -9.0560632    462.29399  0.015113574  0.015376341         3776 
 2550000    0.8582795   -9.0495237    462.57911  0.015116964  0.015368746         3805 
 2551000   0.86448785   -9.0615306    461.91125  0.015089222   0.01536115         3802 
 2552000   0.82491056    -9.049346    462.54866  0.015104123  0.015353556         3813 
 2553000   0.85596802   -9.0595499    461.37196  0.015059798   0.01534597         3825 
 2554000   0.82306543   -9.0536004    463.36764  0.015119017  0.015338372         3786 
 2555000   0.85445853    -9.084475    461.59467  0.015055273  0.015330785         3821 
 2556000    0.8291105   -9.0592545     461.4816  0.015045697  0.015323196         3785 
 2557000   0.84912296   -9.0901927    461.50169  0.015040467  0.015315609         3775 
 2558000   0.84424672   -9.0630066    462.25385  0.015059091  0.015308023         3769 
 2559000   0.83684173    -9.055441    462.64763  0.015066029  0.015300431         3779 
 2560000   0.83486855   -9.0706094    461.40094  0.015019562   0.01529285         3809 
 2561000    0.8292931   -9.0639185    462.43128  0.015047224  0.015285265         3826 
 2562000   0.84408593   -9.0465135    462.51607  0.015044108  0.015277675         3818 
 2563000   0.84388855   -9.0565836    462.48843   0.01503734  0.015270082         3805 
 2564000    0.8303444    -9.057034    462.64888   0.01503669  0.015262486         3822 
 2565000   0.82200657    -9.063119    461.72392  0.015000777   0.01525491         3762 
 2566000   0.86020496   -9.0761499    461.97657  0.015003136  0.015247335         3782 
 2567000   0.85368638   -9.0930655    461.38002  0.014977926  0.015239748         3804 
 2568000   0.83190469   -9.0815616     461.0719  0.014962094  0.015232144         3829 
 2569000   0.84811876   -9.0522593    461.72153  0.014977343  0.015224557         3783 
 2570000   0.82374181   -9.1171627    461.49047  0.014964023   0.01521697         3836 
 2571000   0.83108214   -9.0757645    461.52326  0.014959266  0.015209378         3821 
 2572000   0.82868569   -9.0870913    461.35619  0.014948036  0.015201789         3794 
 2573000   0.84492689   -9.0913172    461.05217   0.01493238  0.015194184         3831 
 2574000   0.84412359   -9.0799531    461.63695  0.014945511  0.015186572         3836 
 2575000   0.84408527   -9.0975363    461.42005  0.014932688  0.015178964         3854 
 2576000   0.85407421   -9.1086844     460.6913  0.014903316  0.015171349         3861 
 2577000   0.84696602   -9.1079275    461.25476  0.014915754  0.015163749         3839 
 2578000   0.85808012   -9.0910373    462.00252  0.014934139  0.015156156         3836 
 2579000   0.83868982   -9.1206997    460.75262  0.014887961  0.015148557         3847 
 2580000   0.83275013   -9.1022777    461.14882  0.014894988  0.015140967         3860 
 2581000   0.83061868    -9.120209    459.95087  0.014850538  0.015133373         3895 
 2582000   0.84032464   -9.1095409    460.45728  0.014861131  0.015125782         3873 
 2583000   0.84618912   -9.1166775     460.6358  0.014861137  0.015118206         3872 
 2584000    0.8653227   -9.1214188    460.47847  0.014850312  0.015110626         3856 
 2585000   0.84021958   -9.1288768    461.03506   0.01486251  0.015103051         3876 
 2586000   0.85898165   -9.1313036    460.57296  0.014841872  0.015095474         3874 
 2587000   0.82020867   -9.1060023    460.88381  0.014846148  0.015087896         3887 
 2588000   0.84489302   -9.1324122    460.92377  0.014841698  0.015080317         3836 
 2589000   0.84995147   -9.1097846    460.73761  0.014829973  0.015072747         3881 
 2590000    0.8345512   -9.1137719    461.60771  0.014852243  0.015065164         3875 
 2591000   0.82833983   -9.0981546    461.05039  0.014828586  0.015057594         3873 
 2592000   0.84208965   -9.1322256    459.66438  0.014778305  0.015050038         3872 
 2593000   0.84095396   -9.1492366    459.53939  0.014768588   0.01504248         3878 
 2594000   0.84142389   -9.1304708    459.69298  0.014767829  0.015034916         3867 
 2595000   0.83921262   -9.1128074     461.0111  0.014804467  0.015027368         3864 
 2596000   0.83381634   -9.1283185    461.23416  0.014805924  0.015019813         3872 
 2597000   0.83710271   -9.1373333    462.05689  0.014826624  0.015012262         3847 
 2598000   0.82973498   -9.1130038     461.4841  0.014802544  0.015004716         3902 
 2599000    0.8372182   -9.1354795    460.53253  0.014766337  0.014997173         3873 
 2600000   0.84047354   -9.1355869    460.73553  0.014767164  0.014989635         3870 
 2601000   0.82066271   -9.1195197    459.73084  0.014729298  0.014982089         3869 
 2602000   0.85209318   -9.1180594    460.08394  0.014734946  0.014974558         3890 
 2603000   0.82226468   -9.1543681    460.28705  0.014735787  0.014967022         3862 
 2604000   0.84448186   -9.1416509    460.94782  0.014751274  0.014959503         3862 
 2605000   0.84872515   -9.1249458    460.40145  0.014728133  0.014951981         3870 
 2606000   0.82810092   -9.1456654    459.36442   0.01468932  0.014944466         3850 
 2607000   0.84063101   -9.0936195    461.17621    0.0147416  0.014936949         3845 
 2608000   0.84881634   -9.1058477    460.78833  0.014723554  0.014929445         3871 
 2609000   0.82790964   -9.1277849    460.13077  0.014696907  0.014921934         3901 
 2610000   0.83352449   -9.1483848    460.40164  0.014699925  0.014914437         3877 
 2611000   0.81845381   -9.1081458    461.46607  0.014728267  0.014906941         3861 
 2612000   0.83032434   -9.1151241    459.79697  0.014669378  0.014899449         3865 
 2613000   0.84932952   -9.1400203    459.69459  0.014660498  0.014891965         3873 
 2614000   0.82713679    -9.168844    460.30956  0.014674495  0.014884486         3867 
 2615000   0.82557861   -9.1464455    460.81761  0.014685074  0.014876986         3883 
 2616000   0.84116031   -9.1397736    460.29959  0.014662958  0.014869482         3886 
 2617000   0.81398469   -9.1614283    460.94721  0.014677978  0.014861994         3885 
 2618000   0.84052648    -9.141852    461.90656  0.014702908  0.014854496         3886 
 2619000   0.84410441   -9.1684467    460.85937  0.014663974  0.014847009         3910 
 2620000   0.84403158   -9.1515509    460.74446  0.014654722   0.01483951         3896 
 2621000   0.80959892   -9.1464762     460.0173  0.014626011  0.014832014         3890 
 2622000   0.82880941   -9.1492247    460.00291  0.014619976  0.014824525         3900 
 2623000   0.84362954    -9.155211    460.03029  0.014615272  0.014817046         3910 
 2624000   0.82011118   -9.1500476    459.88819  0.014605189  0.014809576         3890 
 2625000   0.81578934    -9.149813    459.80298   0.01459692  0.014802104         3906 
 2626000   0.83657306   -9.1258795    460.02131   0.01459829  0.014794639         3892 
 2627000   0.81315566   -9.1591918     459.5476  0.014577706  0.014787181         3881 
 2628000   0.82151684    -9.149274    460.11921  0.014590284   0.01477971         3888 
 2629000   0.83782972   -9.1318112    459.99752  0.014580877  0.014772257         3874 
 2630000    0.8248234   -9.1345461    461.05256  0.014608763  0.014764804         3880 
 2631000   0.83344801   -9.1480014    459.93681  0.014567871  0.014757348         3877 
 2632000   0.83817607   -9.1630945    460.16959  0.014569706  0.014749891         3898 
 2633000   0.86096374   -9.1290562    460.75913  0.014582831  0.014742446         3878 
 2634000   0.83054307   -9.1387837    460.16804  0.014558594  0.014735013         3884 
 2635000   0.83494185   -9.1685068    460.16772  0.014553059  0.014727573         3886 
 2636000   0.82634075   -9.1719825    459.80781   0.01453616   0.01472014         3884 
 2637000   0.82200902   -9.1523085    460.30509  0.014546362  0.014712704         3873 
 2638000   0.83184048   -9.1735403    459.23171   0.01450694  0.014705274         3893 
 2639000   0.80807103    -9.158505    460.24544  0.014533454  0.014697849         3885 
 2640000   0.82874672   -9.1458459    459.17813  0.014494259  0.014690419         3886 
 2641000   0.82777307   -9.1745217    460.03019  0.014515657  0.014682991         3910 
 2642000   0.83559693   -9.1360731    459.86462   0.01450494  0.014675576         3890 
 2643000   0.82677552   -9.1672143    459.75106  0.014495871  0.014668165         3900 
 2644000   0.80492337    -9.171776    459.04012  0.014467982  0.014660751         3891 
 2645000   0.82496068   -9.1488214    460.90424  0.014521243  0.014653333         3872 
 2646000   0.82245435   -9.1464487    459.20642  0.014462283  0.014645936         3860 
 2647000   0.83388394    -9.165264     460.8023  0.014507061  0.014638538         3878 
 2648000   0.83299512    -9.196995    459.11881  0.014448603  0.014631145         3887 
 2649000   0.84863224   -9.1759526    460.28808  0.014479932  0.014623743         3904 
 2650000   0.83035858   -9.1481697    459.87091  0.014461349  0.014616358         3906 
 2651000   0.82569813   -9.1493864    459.55779  0.014446052  0.014608982         3897 
 2652000   0.84607162   -9.1615055    460.03139  0.014455486  0.014601605         3924 
 2653000   0.83748951   -9.1809685    458.53692  0.014403095  0.014594221         3903 
 2654000   0.82877545   -9.1748861    459.81567  0.014437819  0.014586845         3905 
 2655000   0.81738289   -9.1552581    459.87909  0.014434372  0.014579481         3903 
 2656000    0.8218701   -9.1405287    460.18031  0.014438388  0.014572114         3904 
 2657000   0.83383902   -9.1521338    460.29784   0.01443664  0.014564747         3892 
 2658000   0.84231615   -9.1559607    459.12648  0.014394485  0.014557394         3901 
 2659000   0.81859163   -9.1655698    457.95444  0.014352339  0.014550032         3866 
 2660000   0.82589792    -9.167448    459.39835  0.014392179  0.014542671         3903 
 2661000   0.83182953   -9.1654821    460.59994    0.0144244  0.014535339         3914 
 2662000   0.83770105   -9.1579267    459.83713  0.014395102  0.014527995         3897 
 2663000   0.82934515   -9.1220516    460.69559   0.01441656  0.014520662         3901 
 2664000   0.82618592   -9.1602326    459.72572   0.01438081  0.014513325         3897 
 2665000    0.8302173   -9.1683514    460.24148  0.014391541  0.014505988         3893 
 2666000    0.8230622   -9.1397206    461.13965  0.014414217  0.014498666         3889 
 2667000   0.81850849   -9.1716945    459.26316   0.01435018  0.014491345         3892 
 2668000   0.80534355   -9.1540203    460.50196  0.014383494  0.014484029         3870 
 2669000   0.84492321   -9.1591211    459.29103  0.014340297  0.014476725         3897 
 2670000   0.82433497   -9.2211144    459.70113  0.014347726   0.01446941         3885 
 2671000   0.82149487   -9.1750098    459.97254  0.014350822    0.0144621         3896 
 2672000   0.80457703   -9.1394939    460.10781   0.01434967  0.014454802         3906 
 2673000   0.82282064   -9.1616873    460.08316  0.014343533  0.014447502         3888 
 2674000   0.84294608   -9.1359147    461.24449  0.014374361  0.014440222         3849 
 2675000    0.7995502   -9.1722242     458.4649  0.014282396  0.014432944         3872 
 2676000   0.83428087   -9.1565707    458.90189  0.014290667  0.014425661         3913 
 2677000   0.82652119   -9.1471143    459.70828  0.014310431  0.014418377         3874 
 2678000   0.82246236   -9.1545881    460.06739  0.014316262  0.014411102         3883 
 2679000   0.84465219   -9.1883331    459.42479  0.014290929   0.01440383         3886 
 2680000   0.82510781   -9.1554623    459.83724  0.014298422  0.014396571         3872 
 2681000   0.82572887   -9.1432918    460.17179  0.014303487  0.014389302         3885 
 2682000   0.80404436   -9.1639493    459.09123   0.01426458  0.014382038         3884 
 2683000   0.82354909   -9.1686765    460.15847  0.014292411   0.01437479         3874 
 2684000   0.80117978   -9.1494599    459.25937  0.014259171  0.014367543         3897 
 2685000   0.82623552    -9.143308     460.7936  0.014301477  0.014360301         3888 
 2686000   0.82299042   -9.1704559    459.07601  0.014242865  0.014353067         3910 
 2687000   0.84411012   -9.1533222    460.57662  0.014284103  0.014345836         3906 
 2688000   0.82030454   -9.1748589    459.11782  0.014233563  0.014338602         3911 
 2689000   0.81330591    -9.181489    459.65695  0.014244978  0.014331367         3899 
 2690000   0.82413303   -9.1634624    460.07247  0.014252555  0.014324136         3898 
 2691000   0.81725458   -9.1683092    459.55938  0.014231369  0.014316908         3927 
 2692000   0.80857931    -9.163598     460.2334  0.014246948  0.014309686         3911 
 2693000   0.81323116   -9.1657413    459.34988  0.014214317  0.014302461         3915 
 2694000   0.85127149   -9.1742852    459.44586   0.01421201  0.014295247         3892 
 2695000   0.82949593   -9.1696088    460.35662  0.014234898  0.014288035         3887 
 2696000   0.81636797   -9.1647748    459.45935  0.014201884  0.014280827         3896 
 2697000   0.82803339   -9.1620902    459.70802  0.014204302  0.014273621         3884 
 2698000   0.81156363   -9.1667469    459.23554  0.014184444  0.014266417         3887 
 2699000   0.82035699   -9.1571743    460.72263  0.014225103  0.014259212         3885 
 2700000    0.8329807   -9.1735886    459.23401  0.014173889   0.01425203         3879 
 2701000   0.82482511   -9.1937092    459.46199  0.014175675  0.014244844         3884 
 2702000   0.81760598    -9.177023    459.44622  0.014169943  0.014237658         3884 
 2703000   0.81773322   -9.1577346    459.18416  0.014156621  0.014230486         3886 
 2704000   0.81069599   -9.1759468    459.53315  0.014162141  0.014223312         3867 
 2705000   0.81634397   -9.1746594    460.06872  0.014173405  0.014216148         3885 
 2706000   0.81079241   -9.1930734    459.10214  0.014138401  0.014208979         3901 
 2707000   0.82139618   -9.1954249    459.61238  0.014148885  0.014201812         3898 
 2708000   0.82949836   -9.1782737    459.70755  0.014146589  0.014194655         3908 
 2709000   0.83717818   -9.1799387    459.36722  0.014130898  0.014187508         3898 
 2710000   0.81788254    -9.174462    459.19377   0.01412035  0.014180354         3890 
 2711000   0.80202271   -9.1552762    460.13158  0.014143968  0.014173216         3879 
 2712000   0.84357812   -9.1639197    459.74917  0.014127003  0.014166064         3868 
 2713000   0.81898455   -9.1872806    459.16388  0.014103817  0.014158923         3904 
 2714000   0.82865618   -9.1893229    459.53446  0.014109999  0.014151787         3900 
 2715000   0.84196807   -9.1668401    459.14019  0.014092701   0.01414465         3885 
 2716000   0.80767657   -9.1782676    459.40862  0.014095748  0.014137519         3910 
 2717000   0.83062283   -9.1721703    459.91435  0.014106071  0.014130389         3929 
 2718000   0.81768176   -9.1935078     459.4165  0.014085617   0.01412325         3922 
 2719000   0.81636159   -9.1953875    459.49672  0.014082896  0.014116125         3898 
 2720000   0.82373619   -9.1893101    459.03047  0.014063434  0.014108998         3918 
 2721000   0.79470793   -9.1836614    460.22385  0.014094813  0.014101876         3898 
 2722000   0.80128585   -9.1607591    461.04444  0.014114758  0.014094758         3896 
 2723000   0.81265201   -9.1889285    459.69763  0.014068357   0.01408765         3884 
 2724000   0.81893648   -9.1766661    460.07719  0.014074804  0.014080545         3881 
 2725000    0.8127683   -9.1588881     458.9713   0.01403582  0.014073448         3893 
 2726000   0.82420303   -9.1835448    459.13622  0.014035712  0.014066355         3906 
 2727000   0.80988806   -9.1713752    460.28503  0.014065671  0.014059265         3891 
 2728000   0.81063778   -9.1308705    459.49376  0.014036344   0.01405218         3872 
 2729000   0.82339531   -9.1509897    459.93293  0.014044611  0.014045103         3904 
 2730000   0.83472368   -9.1821695     459.8669  0.014037451  0.014038023         3908 
 2731000   0.82659866   -9.1657081    459.98794  0.014036005  0.014030941         3913 
 2732000   0.83103244   -9.1983489    460.17548  0.014036587  0.014023873         3903 
 2733000   0.81749372    -9.185822      459.878  0.014022381  0.014016807         3915 
 2734000    0.8255862   -9.1990282    459.37846  0.014002026  0.014009725         3915 
 2735000   0.81585584   -9.1778629    458.97575  0.013984636  0.014002665         3918 
 2736000    0.8212806   -9.1753202      460.216    0.0140173  0.013995616         3881 
 2737000    0.8180364   -9.1942572    458.35593  0.013955545  0.013988555         3873 
 2738000   0.83192972   -9.1875783    459.16368  0.013975033  0.013981492         3880 
 2739000   0.81401145   -9.2084687    458.86071  0.013960713  0.013974444         3914 
 2740000   0.81672353   -9.1996938    459.78559  0.013983747    0.0139674         3874 
 2741000   0.81121518   -9.1723733    458.65193  0.013944179  0.013960356         3922 
 2742000   0.80361822   -9.1746119    460.23019  0.013987059   0.01395331         3909 
 2743000   0.82745899   -9.2064468    459.16087  0.013949473  0.013946273         3914 
 2744000   0.79657458   -9.1807657    459.26042  0.013947413   0.01393925         3868 
 2745000   0.81220874   -9.1482441    458.28881  0.013912836  0.013932223         3880 
 2746000   0.82402381   -9.1997176    458.68554  0.013919809  0.013925189         3914 
 2747000     0.801976   -9.1958442    459.55731  0.013941188   0.01391817         3899 
 2748000   0.82142875   -9.1640743    459.65316  0.013939021  0.013911158         3918 
 2749000   0.82734664   -9.1792361    459.59327  0.013932135   0.01390415         3899 
 2750000   0.82375797   -9.2077761    459.18298  0.013914636  0.013897139         3921 
 2751000   0.81130891   -9.1890114    459.22959   0.01391099  0.013890139         3908 
 2752000   0.79640356   -9.1756219    458.77091  0.013892046  0.013883138         3905 
 2753000   0.79291875    -9.185777    459.14603  0.013898354  0.013876145         3897 
 2754000   0.80911149   -9.1673125     459.6683  0.013909111  0.013869148         3907 
 2755000   0.80907234   -9.1753407    459.47384   0.01389818  0.013862165         3890 
 2756000   0.80776272   -9.1859557    459.96247  0.013907912  0.013855184         3873 
 2757000   0.80832251   -9.1646256    460.17574  0.013909314  0.013848203         3881 
 2758000   0.80656962   -9.1847408    459.39034   0.01388054  0.013841228         3897 
 2759000   0.80459672   -9.1891271    458.44461  0.013846944   0.01383426         3894 
 2760000   0.81008112   -9.2086413    458.86051  0.013854484  0.013827288         3905 
 2761000   0.80746851   -9.2042234    459.65703  0.013873507   0.01382032         3895 
 2762000   0.80291815   -9.1816535    458.98385  0.013848173   0.01381336         3896 
 2763000   0.79695994   -9.2123919    457.79089  0.013807181  0.013806396         3921 
 2764000   0.81779915    -9.215661    459.17993  0.013844064  0.013799436         3894 
 2765000   0.81255847   -9.1771557    459.48171  0.013848153  0.013792489         3910 
 2766000   0.80365455   -9.1873009    459.39985   0.01384068  0.013785546         3907 
 2767000   0.79610666   -9.2050556    459.48142  0.013838135  0.013778602         3915 
 2768000   0.82085057   -9.2190099    458.63556   0.01380767   0.01377166         3909 
 2769000   0.81432976   -9.1890983    459.83805  0.013838872  0.013764718         3890 
 2770000   0.80280956    -9.206771    457.81376  0.013772977  0.013757779         3914 
 2771000    0.8024636   -9.1903312    458.71516  0.013795115  0.013750849         3889 
 2772000   0.81181492   -9.2038372    459.30714  0.013807935  0.013743914         3878 
 2773000   0.81817875   -9.2036698    458.22907  0.013770557  0.013736989         3892 
 2774000   0.80739929   -9.2229302    458.59739  0.013776658  0.013730062         3916 
 2775000   0.82245914   -9.2031593      458.343  0.013764054   0.01372313         3897 
 2776000   0.81707972   -9.2028724    457.88638  0.013745389  0.013716204         3923 
 2777000   0.81664339   -9.2039525    459.22287  0.013780545  0.013709279         3902 
 2778000   0.80118573   -9.1907435    458.91952  0.013766484  0.013702368         3909 
 2779000   0.79577963   -9.1863211    459.66384   0.01378385  0.013695444         3936 
 2780000   0.81690945   -9.2211515    458.68759  0.013749628  0.013688534         3902 
 2781000   0.81171781   -9.1842015    458.93587  0.013752124  0.013681629         3919 
 2782000   0.79171487   -9.2158232    458.79341  0.013742913  0.013674712         3922 
 2783000   0.81797841   -9.2154573     458.1765  0.013719502  0.013667804         3911 
 2784000   0.80767533   -9.2061362    458.59595   0.01372713  0.013660906         3935 
 2785000   0.80691249   -9.2230529    458.07594  0.013706641   0.01365401         3913 
 2786000   0.81660795   -9.1965771    458.51367  0.013714814  0.013647111         3907 
 2787000   0.82436125   -9.2132406    458.46846  0.013708542  0.013640226         3920 
 2788000   0.82671756   -9.2092117    458.67505  0.013709799  0.013633345         3922 
 2789000   0.81482486   -9.1918845    458.83414  0.013709637   0.01362647         3903 
 2790000   0.81086095   -9.2215032    459.19753  0.013715577  0.013619589         3930 
 2791000   0.82698284   -9.2653904    456.46398  0.013629045  0.013612696         3900 
 2792000   0.80866475   -9.2182995     458.6927  0.013690685  0.013605817         3907 
 2793000   0.82213904    -9.249815    458.35891  0.013675824   0.01359894         3911 
 2794000   0.80933855   -9.2406725    458.42509  0.013672903  0.013592072         3924 
 2795000   0.82498235   -9.2265777    457.80193  0.013649431  0.013585206         3918 
 2796000   0.80277888   -9.2484247    458.18295  0.013655906  0.013578333         3898 
 2797000   0.79883424   -9.2170607    457.96667   0.01364458  0.013571474         3874 
 2798000   0.79439752   -9.2366091    458.68157  0.013660995  0.013564623         3905 
 2799000   0.81839518   -9.2295488    459.04972  0.013667075  0.013557774         3909 
 2800000   0.80265368   -9.2372001    458.22299  0.013637589   0.01355092         3907 
 2801000   0.79612626   -9.2391274    458.16442  0.013630978  0.013544074         3923 
 2802000   0.77475241   -9.2249609    457.97969  0.013620619  0.013537226         3898 
 2803000   0.80234238   -9.2783836     457.4636  0.013600416  0.013530379         3930 
 2804000   0.81227264   -9.2469412    457.82775  0.013606388   0.01352354         3911 
 2805000   0.79669686   -9.2191642    458.21512  0.013613046  0.013516704         3929 
 2806000   0.80826525   -9.2424259    459.08749  0.013634102  0.013509868         3911 
 2807000    0.7970741   -9.2215972    457.65564  0.013586737  0.013503041         3919 
 2808000   0.81958374   -9.2500207    458.90919    0.0136191  0.013496202         3926 
 2809000   0.79997607   -9.2267823    459.39601  0.013628694  0.013489372         3927 
 2810000   0.80927966   -9.2425439    458.50318  0.013597366  0.013482543         3920 
 2811000    0.7947553   -9.2221321    458.29277  0.013586291  0.013475707         3922 
 2812000   0.78852879   -9.2464946    458.50609  0.013587781  0.013468887         3920 
 2813000   0.79178933   -9.2404014    458.25686  0.013575567  0.013462063         3925 
 2814000   0.78617599   -9.2427978    459.05702  0.013594439  0.013455244         3926 
 2815000   0.81319945   -9.2616966    458.40366  0.013570268  0.013448435         3919 
 2816000   0.80368383   -9.2713572    456.66899  0.013514115  0.013441624         3942 
 2817000   0.79426642   -9.2338765     458.4148  0.013560963  0.013434815         3916 
 2818000   0.78513446   -9.2441517    458.45303  0.013557282  0.013428013         3903 
 2819000   0.81130814    -9.228376    458.37625  0.013550203  0.013421215         3920 
 2820000    0.7978534   -9.2656724    457.58882  0.013522128  0.013414428         3918 
 2821000   0.81177374   -9.2343132    457.97171  0.013528646  0.013407639         3900 
 2822000   0.79209652   -9.2436314     457.0089   0.01349542  0.013400849         3923 
 2823000   0.79615007   -9.2301751    458.12554  0.013523602  0.013394064         3924 
 2824000   0.78932117   -9.2522774    457.86222  0.013511043  0.013387285         3928 
 2825000   0.79318443   -9.2547574    457.88501  0.013506932  0.013380525         3925 
 2826000   0.78959547   -9.2576032    456.99776   0.01347599  0.013373753         3919 
 2827000   0.80694392    -9.242939    458.36089  0.013511405  0.013366985         3920 
 2828000   0.82146471   -9.2844793    457.66964  0.013486258  0.013360231         3918 
 2829000   0.79570331   -9.2508432    458.19401  0.013496937  0.013353483         3929 
 2830000   0.79179682   -9.2572063    458.29771  0.013495221  0.013346734         3922 
 2831000   0.79395639     -9.26812    458.00128  0.013481729  0.013339985         3917 
 2832000   0.81037649   -9.2871137    458.24902  0.013484258  0.013333235         3920 
 2833000   0.78852774   -9.2699482    457.62401  0.013461113  0.013326497         3930 
 2834000   0.80786339   -9.2386613    457.38397  0.013449305  0.013319761         3941 
 2835000   0.81265325   -9.2372845    457.21492  0.013439592   0.01331302         3909 
 2836000   0.80397574    -9.260145    457.03147  0.013429463  0.013306286         3913 
 2837000   0.79959905   -9.2463344    458.18515  0.013458617  0.013299556         3939 
 2838000   0.81194022   -9.2416372    458.96998   0.01347692  0.013292824         3925 
 2839000   0.80144604   -9.2502896    459.00469  0.013473191  0.013286103         3913 
 2840000   0.78006516    -9.254623    458.40182  0.013450758  0.013279382         3890 
 2841000   0.79566152   -9.2775787    457.21688  0.013411266  0.013272664         3926 
 2842000   0.78982676   -9.2614267    457.95374  0.013428153  0.013265952         3931 
 2843000   0.79362136   -9.2570182    457.78225  0.013418403  0.013259235         3915 
 2844000   0.78236645   -9.2286659     457.9092  0.013417405  0.013252532         3931 
 2845000   0.77661082   -9.2570276    458.01055  0.013415658  0.013245826         3932 
 2846000   0.79615598   -9.2717933    457.65988  0.013400676  0.013239132         3926 
 2847000   0.80725129   -9.2816409    457.39548   0.01338823   0.01323244         3935 
 2848000   0.80050912   -9.2878894     456.6562  0.013361897  0.013225748         3921 
 2849000   0.79564646   -9.2358297    458.56946   0.01341317  0.013219058         3905 
 2850000   0.78199217   -9.2633213    458.00991  0.013392103  0.013212371         3927 
 2851000   0.78867034   -9.2631855    458.36332  0.013397735  0.013205693         3929 
 2852000   0.79557477   -9.2910199     457.4326  0.013365843  0.013199012         3931 
 2853000   0.78945411   -9.2313896    458.49358  0.013392148   0.01319235         3920 
 2854000   0.80727111   -9.2597239    457.85908  0.013368929  0.013185679         3925 
 2855000   0.79894183   -9.2554507    457.60692  0.013356886  0.013179009         3923 
 2856000   0.79614815   -9.2818275    457.93774  0.013361862   0.01317234         3934 
 2857000   0.78572674   -9.2405206    457.95489  0.013357686  0.013165686         3910 
 2858000   0.78866045   -9.2481676    457.86497   0.01335039  0.013159034         3933 
 2859000    0.8049906   -9.2658993    457.96638  0.013348676  0.013152384         3927 
 2860000   0.78031401   -9.2539112    457.51567  0.013330876   0.01314574         3930 
 2861000   0.79444999   -9.2657757    457.41423  0.013323262  0.013139101         3922 
 2862000   0.80732752   -9.2662063    457.05841  0.013308246  0.013132466         3920 
 2863000   0.79685163   -9.2859525    457.51081  0.013316766  0.013125832         3929 
 2864000    0.7916797    -9.274127     458.2943  0.013334913    0.0131192         3932 
 2865000    0.7874337   -9.2543709    456.95226  0.013291223  0.013112575         3904 
 2866000   0.77859756   -9.2598605    457.48245  0.013302002  0.013105945         3930 
 2867000   0.78394527   -9.2598495    458.07683  0.013314639  0.013099319         3925 
 2868000   0.76717869   -9.2542297    456.96603  0.013277721  0.013092689         3930 
 2869000   0.79961886     -9.23927    457.45025  0.013287157  0.013086084         3916 
 2870000   0.79551574   -9.2781533    457.35586  0.013279787  0.013079485         3897 
 2871000   0.78353328   -9.2556313    456.99782  0.013264769  0.013072892         3924 
 2872000   0.79981028   -9.2681577    458.15306   0.01329367  0.013066299         3910 
 2873000   0.78814954   -9.2672173    457.53345  0.013271071  0.013059702         3889 
 2874000   0.79714774   -9.2545838    458.51266  0.013294846  0.013053111         3911 
 2875000   0.80111999   -9.2757793    457.18873  0.013251847  0.013046524         3921 
 2876000   0.79640128   -9.2639468    457.25794  0.013249245  0.013039945         3903 
 2877000   0.80363984   -9.2693149    457.86815  0.013262315  0.013033371         3935 
 2878000   0.79715936   -9.2892038    457.95327  0.013260171  0.013026786         3938 
 2879000   0.77420647   -9.2610553    457.02019  0.013228557  0.013020209         3919 
 2880000   0.78493135   -9.2962252    456.84291  0.013218834   0.01301363         3927 
 2881000   0.77975936   -9.2714058    457.39363  0.013230175  0.013007059         3928 
 2882000   0.79742867   -9.2621815    457.66061  0.013233305  0.013000488         3919 
 2883000   0.79808561    -9.282124     458.1103  0.013241713  0.012993923         3940 
 2884000    0.8034083   -9.2785101    457.32552  0.013214445  0.012987368         3919 
 2885000   0.79838246   -9.2610938    457.29896  0.013209098  0.012980814         3923 
 2886000   0.79758773   -9.2956187    458.14575  0.013228972  0.012974264         3930 
 2887000   0.78006118   -9.2660217    457.06849  0.013193294  0.012967711         3921 
 2888000   0.79897491   -9.2562028    458.40682  0.013227344  0.012961173         3898 
 2889000   0.77998606   -9.2693859    457.65678   0.01320113   0.01295464         3934 
 2890000   0.79836805    -9.272094     457.4861  0.013191641  0.012948107         3935 
 2891000   0.77359289   -9.2665886     457.6382  0.013191462  0.012941582         3908 
 2892000   0.79584791   -9.2974557    457.27856  0.013176538  0.012935065         3931 
 2893000   0.78184305   -9.2723843    457.66405  0.013183087  0.012928558         3924 
 2894000   0.81435755   -9.2761161    456.63353  0.013148858  0.012922048         3912 
 2895000   0.80305716   -9.2732418     456.9841  0.013154407  0.012915541         3915 
 2896000   0.78286727   -9.2842508    456.95514  0.013149032  0.012909044         3901 
 2897000   0.78840612   -9.2885281    457.50269  0.013160243  0.012902553         3922 
 2898000   0.78319248   -9.2938228    457.92997  0.013167988  0.012896056         3925 
 2899000   0.80230245   -9.2809056    457.19279  0.013142256  0.012889551         3934 
 2900000   0.79613082   -9.2829018    457.44153  0.013144872   0.01288306         3914 
 2901000   0.78894436   -9.2589663    458.10921   0.01315952  0.012876577         3913 
 2902000   0.79657292   -9.2662332    457.46442   0.01313647  0.012870102         3932 
 2903000   0.78575854   -9.2739853    457.04437  0.013119887  0.012863625         3932 
 2904000   0.78834892   -9.2669942    458.16469  0.013147517  0.012857151         3915 
 2905000   0.77605562   -9.2919785    457.79188  0.013132297  0.012850675         3923 
 2906000    0.7873825    -9.280389    457.82613   0.01312876  0.012844208         3904 
 2907000   0.79835919   -9.2918238    457.57335  0.013116998  0.012837733         3933 
 2908000   0.78499668    -9.298531    457.53335  0.013111341  0.012831266         3932 
 2909000     0.797266   -9.2908927     457.7575  0.013113255    0.0128248         3932 
 2910000    0.7848295   -9.3132932    456.19531  0.013064012   0.01281834         3923 
 2911000   0.79092903    -9.279068    456.80777  0.013077057  0.012811882         3921 
 2912000   0.80024363   -9.3153934    456.54148  0.013064946  0.012805431         3919 
 2913000   0.80425953   -9.2752461    457.50126  0.013087918  0.012798981         3919 
 2914000   0.77532265   -9.2730392     456.5622  0.013056572  0.012792532         3916 
 2915000   0.79091171   -9.3178856    456.49312  0.013050118  0.012786085         3931 
 2916000   0.80474747   -9.3023299     455.8913  0.013028444  0.012779638         3935 
 2917000   0.78400369   -9.3245214    456.36114    0.0130374  0.012773177         3926 
 2918000   0.79935887   -9.3079933    455.55536   0.01300992  0.012766723         3936 
 2919000   0.77291414   -9.3215246     456.6782  0.013037518  0.012760266         3929 
 2920000   0.78726921    -9.287519    456.64243  0.013032033   0.01275382         3949 
 2921000   0.79886221   -9.3061709    456.31911  0.013018347  0.012747373         3943 
 2922000    0.7864786   -9.3015141    457.50001   0.01304757  0.012740937         3941 
 2923000   0.77638808   -9.3159133    457.30319  0.013037495  0.012734504         3943 
 2924000   0.76967812   -9.3111218    456.73075  0.013016722  0.012728081         3930 
 2925000   0.78300604   -9.3398748    456.61475  0.013008967  0.012721658         3941 
 2926000   0.77634684   -9.3009469    457.12852  0.013019154  0.012715231         3925 
 2927000   0.78944311   -9.2941991    457.74883  0.013032366  0.012708815         3938 
 2928000   0.78200231   -9.3160951    457.32415  0.013015828  0.012702401         3938 
 2929000   0.77970047   -9.3053064    457.00413   0.01300228  0.012695982         3929 
 2930000    0.7758208   -9.3044977    456.04277    0.0129705  0.012689572         3940 
 2931000   0.77050126   -9.3215003    456.63205  0.012982829   0.01268317         3945 
 2932000    0.7873819   -9.3173876     455.6417  0.012950253  0.012676767         3926 
 2933000   0.78589272   -9.3087418    456.58696  0.012972695  0.012670365         3923 
 2934000   0.78148513   -9.3222056     456.0785  0.012953832  0.012663974         3945 
 2935000   0.79726872   -9.3421493    456.12306  0.012950683  0.012657586         3923 
 2936000   0.79163539   -9.3259499    456.08054  0.012945065  0.012651198         3933 
 2937000   0.77012711   -9.3123611    456.98858  0.012966422  0.012644811         3923 
 2938000   0.78035653   -9.3228871    456.34136  0.012943651  0.012638424         3940 
 2939000   0.78131866   -9.3022434    456.79833  0.012952204  0.012632039         3937 
 2940000   0.78075602   -9.2998592    456.73446  0.012945988  0.012625664         3932 
 2941000    0.7861089   -9.3142873     456.4124  0.012932461  0.012619296         3925 
 2942000   0.78781512   -9.3142881    457.10927  0.012947804  0.012612928         3939 
 2943000   0.76990327   -9.3203631    456.36397  0.012922301  0.012606566         3930 
 2944000   0.76960793   -9.3111255    456.79068   0.01292999  0.012600213         3933 
 2945000   0.78082503   -9.3362877    455.37497   0.01288554  0.012593858         3935 
 2946000   0.79406988   -9.2824803    456.11114   0.01290199  0.012587509         3927 
 2947000   0.78172797   -9.3039344    456.84058  0.012918238  0.012581164         3936 
 2948000   0.78171203   -9.3208861    456.39754  0.012901333  0.012574815         3944 
 2949000   0.77986302   -9.2918023    456.66427  0.012904495  0.012568475         3931 
 2950000   0.76525219   -9.3180237    456.27621  0.012889158  0.012562147         3930 
 2951000   0.78289397   -9.3249265    456.67908  0.012896167   0.01255582         3945 
 2952000   0.78009889   -9.3195668    456.26437  0.012880092  0.012549493         3946 
 2953000   0.77916028   -9.2991692    456.50554  0.012882536  0.012543172         3938 
 2954000   0.78977046   -9.2961677    455.93734  0.012862146  0.012536855         3938 
 2955000   0.76746676   -9.3037543    456.64763  0.012877824  0.012530546         3936 
 2956000   0.77643981   -9.3235571    456.56505  0.012871139  0.012524237         3939 
 2957000   0.79365774   -9.3176303    456.56965  0.012866916   0.01251793         3934 
 2958000   0.77153034   -9.3430795    455.61716  0.012835732  0.012511624         3944 
 2959000    0.7836015   -9.3332743    456.60502  0.012859215  0.012505325         3940 
 2960000   0.77036004   -9.3167031    455.84397  0.012833445  0.012499028         3946 
 2961000   0.76296991   -9.3168579    455.84297  0.012829083  0.012492736         3931 
 2962000   0.77334871   -9.3196178    455.68718  0.012820369  0.012486448         3916 
 2963000   0.76674428   -9.3410034    456.19323  0.012830274  0.012480157         3933 
 2964000   0.78774235   -9.3546394    455.79432   0.01281473  0.012473871         3932 
 2965000   0.78946362   -9.3358031     455.7647  0.012809576  0.012467588         3943 
 2966000   0.78450251   -9.3050657    457.06157  0.012841694  0.012461311         3925 
 2967000   0.78003545    -9.343698    456.65747  0.012826016  0.012455042         3953 
 2968000   0.76974168   -9.3096425    456.55494  0.012818816  0.012448786         3940 
 2969000   0.76793383   -9.3177024    456.71456  0.012818978  0.012442518         3934 
 2970000     0.760766   -9.3390035    455.51705  0.012781062  0.012436257         3946 
 2971000    0.7711657   -9.3300544    455.80744  0.012784905  0.012429996         3940 
 2972000   0.76835757   -9.3138265    456.06872   0.01278793  0.012423749         3948 
 2973000   0.79041648   -9.3325178    455.64332  0.012771704  0.012417503         3949 
 2974000   0.77758644    -9.328308    456.14668  0.012781514  0.012411263         3930 
 2975000   0.76587301   -9.3161982    456.08827  0.012775582   0.01240502         3938 
 2976000   0.79060894   -9.3073575     456.1963  0.012774314  0.012398783         3925 
 2977000   0.76344806   -9.3150593    455.87724  0.012761092  0.012392549         3947 
 2978000   0.78641819   -9.3462769    456.23175  0.012766727  0.012386326         3940 
 2979000   0.76139868   -9.3154336    455.00695  0.012728179  0.012380098         3949 
 2980000   0.77820147   -9.3285872    455.98737  0.012751325  0.012373879         3935 
 2981000   0.78161417   -9.3448771    456.67287   0.01276621  0.012367671         3951 
 2982000   0.78159657   -9.3283386    456.93396  0.012769225  0.012361458         3948 
 2983000    0.7608626   -9.3390646    456.36676  0.012749099   0.01235525         3950 
 2984000   0.76986967   -9.3168266    456.24902  0.012741539  0.012349048         3934 
 2985000   0.76995091   -9.3378217    456.82012  0.012753214  0.012342842         3935 
 2986000   0.76885799   -9.3161273    456.57262  0.012742036  0.012336649         3941 
 2987000   0.79063553   -9.3320871     456.5487  0.012737102  0.012330456         3949 
 2988000   0.77683966   -9.3296446    456.02301  0.012718179  0.012324268         3948 
 2989000    0.7739946   -9.3415306    456.55838   0.01272885  0.012318082         3938 
 2990000    0.7667689   -9.3057813    456.45677  0.012721761  0.012311895         3935 
 2991000   0.76483784   -9.3147925    454.94843  0.012675483  0.012305719         3940 
 2992000    0.7671864   -9.3238853    456.08655  0.012702945  0.012299541         3942 
 2993000   0.77682642   -9.3362601    456.46866   0.01270934  0.012293375         3947 
 2994000   0.78646272   -9.3008113    457.14491  0.012723918   0.01228721         3946 
 2995000   0.77476584   -9.3339091    455.38527  0.012670709  0.012281049         3957 
 2996000   0.77992821   -9.3373664    455.46263  0.012668631  0.012274889         3941 
 2997000   0.77115534   -9.3344588    455.60447  0.012668348  0.012268738         3956 
 2998000   0.78382153   -9.3093886    456.06791  0.012677004  0.012262587         3929 
 2999000   0.76530219    -9.336866    456.25992  0.012678113  0.012256435         3948 
 3000000   0.76905574   -9.3319912    455.63854  0.012656626  0.012250301         3938 
 3001000   0.76907619   -9.3157942    456.23736  0.012669037  0.012244161         3932 
 3002000   0.76744144   -9.3280646    455.98512  0.012657815  0.012238026         3943 
 3003000   0.76129991   -9.3384019    455.00925  0.012626519  0.012231892         3947 
 3004000   0.75610371    -9.310666    456.25044  0.012656748  0.012225764         3934 
 3005000   0.78597269   -9.3356457    455.93418  0.012643765  0.012219639         3950 
 3006000   0.77205669   -9.3427559    455.78322  0.012635374  0.012213523         3942 
 3007000   0.76929103   -9.3073529    456.20242   0.01264279  0.012207407         3937 
 3008000   0.76388129   -9.3538524    456.07493  0.012635054  0.012201288         3941 
 3009000   0.75903281   -9.3582542    456.75856  0.012649788  0.012195169         3931 
 3010000   0.78225147   -9.3262691    455.78261  0.012618566  0.012189063         3948 
 3011000   0.77784211   -9.3092511    456.03551  0.012621375  0.012182958         3949 
 3012000   0.76929269   -9.3348612    456.85089  0.012639743  0.012176859         3956 
 3013000     0.760976   -9.3400249    455.04857    0.0125857  0.012170754         3946 
 3014000   0.76905073   -9.3377091    455.86635  0.012604135  0.012164665         3940 
 3015000   0.76403991   -9.3151751    456.44812  0.012616034  0.012158579         3942 
 3016000   0.78084736   -9.3490846    456.79027  0.012621305  0.012152494         3946 
 3017000   0.76738807   -9.3210679    455.56537  0.012583288  0.012146401         3945 
 3018000   0.76287624   -9.3509173    455.76794  0.012584712  0.012140318         3948 
 3019000   0.77408038    -9.332475    455.19899  0.012564839  0.012134234         3933 
 3020000   0.76322309   -9.3306651    456.50414  0.012596693  0.012128144         3948 
 3021000   0.77734188   -9.3666542    455.40443  0.012562188  0.012122065         3946 
 3022000   0.77091152   -9.3608236     455.4206  0.012558477  0.012115997         3952 
 3023000   0.76480604   -9.3828063    456.36541  0.012580367  0.012109927         3948 
 3024000   0.77444286   -9.3334467     455.1927  0.012543891  0.012103856         3941 
 3025000   0.76304635   -9.3522363    455.61477  0.012551371  0.012097794         3939 
 3026000   0.77667505   -9.3513632    455.61748  0.012547298  0.012091735         3929 
 3027000   0.76847851   -9.3387041    454.92312  0.012524037  0.012085677         3945 
 3028000   0.76319172   -9.3316416    455.74594  0.012542546  0.012079625         3926 
 3029000   0.78089924   -9.3389037    455.89751  0.012542575  0.012073574         3936 
 3030000   0.77928528   -9.3532383    455.73438  0.012533949  0.012067533         3955 
 3031000   0.78298392   -9.3370825    455.93426  0.012535309  0.012061488         3936 
 3032000   0.78137891   -9.3536064    456.05907  0.012534605  0.012055447         3928 
 3033000   0.77331573   -9.3400233    456.28614  0.012536711   0.01204941         3939 
 3034000   0.76092942   -9.3368253    456.12196   0.01252807  0.012043378         3945 
 3035000   0.76608437   -9.3326351    455.14231  0.012497043  0.012037357         3953 
 3036000   0.77351544   -9.3618193    454.64637  0.012479314  0.012031333         3952 
 3037000   0.78105032   -9.3555892    455.58376  0.012500926  0.012025308         3946 
 3038000    0.7568885   -9.3397131    455.25639  0.012487832   0.01201929         3940 
 3039000   0.76236704   -9.3539254    455.76911  0.012497782  0.012013279         3950 
 3040000   0.77096683   -9.3497913    455.52538   0.01248699  0.012007276         3945 
 3041000   0.76352669    -9.349679    455.46812  0.012481314  0.012001272         3948 
 3042000   0.77853927   -9.3381321    456.26003  0.012498905  0.011995274         3940 
 3043000   0.75518326   -9.3652813    455.51383  0.012474363  0.011989278         3962 
 3044000   0.76542957   -9.3364857    455.23176  0.012462543  0.011983284         3930 
 3045000    0.7752522   -9.3411368    455.61588  0.012468962  0.011977298         3932 
 3046000   0.77563293   -9.3372901    455.89773   0.01247258  0.011971313         3945 
 3047000   0.78296934   -9.3173589    456.24709  0.012478041  0.011965327         3952 
 3048000   0.75663727   -9.3503702    455.68989  0.012458713  0.011959354         3956 
 3049000   0.77040593   -9.3369025    456.46314  0.012475761  0.011953384         3933 
 3050000   0.77820434   -9.3244342    456.35484  0.012468711  0.011947415         3949 
 3051000   0.76428267    -9.340489    456.14485  0.012458889  0.011941456         3944 
 3052000   0.75339341   -9.3455251    455.59145  0.012439697  0.011935504         3942 
 3053000   0.77423938    -9.349617    455.66016  0.012437498  0.011929549         3921 
 3054000   0.76525161   -9.3761913    455.33416  0.012424529  0.011923593         3935 
 3055000   0.73058453   -9.3393613    455.59134  0.012427478  0.011917644         3944 
 3056000   0.76479423   -9.3533329    455.08756  0.012409674  0.011911698         3963 
 3057000   0.77864132   -9.3451244    455.38863  0.012413821  0.011905754         3934 
 3058000   0.77259711    -9.368112    455.22125  0.012405201  0.011899811         3956 
 3059000   0.76851501   -9.3541476    455.79174  0.012416687  0.011893883         3943 
 3060000   0.76964692   -9.3098759    455.81003  0.012413127  0.011887957         3947 
 3061000   0.76166117   -9.3350543     455.7549  0.012407571  0.011882035         3938 
 3062000   0.77887439    -9.358344    456.04145  0.012411317  0.011876115         3949 
 3063000   0.76885951   -9.3582617    456.44475  0.012418238  0.011870198         3948 
 3064000   0.77799758   -9.3595653    456.54058  0.012416791  0.011864282         3941 
 3065000   0.74927676   -9.3244097    456.28658  0.012405834  0.011858371         3933 
 3066000   0.76565323   -9.3352447    455.63892  0.012384184  0.011852463         3955 
 3067000   0.77080313   -9.3458342    455.83891  0.012385581   0.01184656         3949 
 3068000   0.77828348   -9.3482725    456.28645    0.0123937   0.01184067         3954 
 3069000   0.76650644   -9.3476408    455.96824  0.012381021  0.011834769         3940 
 3070000    0.7544291   -9.3531146      455.492  0.012364061  0.011828871         3951 
 3071000    0.7489075   -9.3432407    454.56004  0.012334745  0.011822982         3945 
 3072000   0.75463137   -9.3646476    455.64167  0.012360071  0.011817098         3945 
 3073000   0.73249713   -9.3516924     455.4362  0.012350477  0.011811212         3938 
 3074000   0.75089327   -9.3493643    455.41397  0.012345857  0.011805331         3949 
 3075000   0.76288366   -9.3406579    455.33112  0.012339597  0.011799449         3940 
 3076000   0.75914409   -9.3500222    455.24811  0.012333336  0.011793577         3945 
 3077000   0.75852581   -9.3583648    456.33456  0.012358752   0.01178771         3946 
 3078000   0.76982346   -9.3720308     455.4759  0.012331489  0.011781852         3945 
 3079000   0.76002046   -9.3428779    455.85349  0.012337704  0.011775999         3951 
 3080000   0.77718819   -9.3474059    454.81911  0.012305712  0.011770142         3950 
 3081000   0.77425655   -9.3466311    455.94805  0.012332253  0.011764295         3945 
 3082000    0.7772949   -9.3503401    455.68446  0.012321124  0.011758447         3935 
 3083000   0.76115998   -9.3335921    455.35652  0.012308264  0.011752601         3937 
 3084000   0.76159006   -9.3519056    455.50589  0.012308309  0.011746766         3950 
 3085000   0.77148089   -9.3699423    456.31206  0.012326096  0.011740928         3942 
 3086000   0.75590868   -9.3478697     455.4536   0.01229892  0.011735088         3949 
 3087000   0.76038795   -9.3404085    455.80824  0.012304509  0.011729255         3940 
 3088000   0.75152785    -9.374024    455.29792  0.012286753  0.011723422         3950 
 3089000   0.73995891   -9.3633027    455.88845  0.012298706  0.011717595         3960 
 3090000   0.75276799   -9.3482831     455.6273  0.012287683  0.011711767         3953 
 3091000   0.76115554   -9.3665865    455.22372  0.012272828  0.011705945         3951 
 3092000   0.76149002   -9.3899519    455.32775  0.012271662  0.011700127         3947 
 3093000   0.75866126   -9.3587587    454.88973  0.012255893  0.011694311         3935 
 3094000   0.75880194   -9.3453201    455.42292  0.012266293  0.011688501         3932 
 3095000   0.75862022   -9.3707157    454.69779  0.012242805  0.011682693         3944 
 3096000    0.7676736   -9.3601484    455.16447  0.012251412  0.011676897         3953 
 3097000   0.74368196   -9.3612193    455.93797  0.012268269  0.011671103         3943 
 3098000   0.77615654   -9.3490639    456.21211  0.012271684   0.01166531         3940 
 3099000     0.759868   -9.3644893    455.72529  0.012254633  0.011659526         3945 
 3100000   0.73321748   -9.3808796    454.89408  0.012228335  0.011653747         3939 
 3101000   0.76190668    -9.385932    455.19519  0.012232484  0.011647965         3940 
 3102000   0.76707706   -9.3845963    454.66601  0.012214324  0.011642188         3938 
 3103000   0.76769787   -9.3628574    455.38983  0.012229827  0.011636412         3952 
 3104000    0.7340711   -9.3614519    455.41171  0.012226474  0.011630638         3941 
 3105000   0.75830779   -9.3497734    455.17544  0.012216195  0.011624876         3944 
 3106000   0.75789856   -9.3560739    454.95471   0.01220634  0.011619114         3945 
 3107000    0.7437984   -9.3525717    455.60361  0.012219816   0.01161336         3940 
 3108000   0.75731217   -9.3751671    455.33271  0.012208621   0.01160761         3933 
 3109000   0.74886159   -9.3612939    454.74116  0.012188838  0.011601858         3948 
 3110000   0.75168083   -9.3850269    455.45531  0.012204055   0.01159611         3950 
 3111000   0.74794531   -9.3567009    455.20114  0.012193323  0.011590372         3931 
 3112000   0.75194203     -9.37394     455.2655  0.012191128  0.011584639         3943 
 3113000    0.7663269   -9.3599824    454.68051  0.012171552  0.011578913         3942 
 3114000   0.76244098   -9.3453466    455.01425  0.012176575   0.01157318         3938 
 3115000   0.75991532   -9.3686452    455.65661   0.01218985  0.011567444         3942 
 3116000   0.74121292   -9.3854811    454.66953   0.01215954  0.011561719         3953 
 3117000    0.7436458   -9.3563062    455.63239  0.012181381  0.011555997         3943 
 3118000   0.75533091   -9.3484077    456.11296  0.012190318  0.011550282         3947 
 3119000   0.76026056   -9.3517241    455.52381  0.012170669  0.011544565         3948 
 3120000   0.74328645    -9.409982    454.37196  0.012136003  0.011538852         3953 
 3121000   0.73746792   -9.3840571    454.70488  0.012141004  0.011533142         3954 
 3122000   0.74609243    -9.362616    456.59709  0.012187623  0.011527433         3941 
 3123000   0.75283583   -9.3755492    454.52846  0.012128521  0.011521732         3953 
 3124000   0.76865988   -9.3773473    455.73361  0.012156786  0.011516029         3947 
 3125000   0.77170452   -9.3618068    455.39813   0.01214395  0.011510332         3939 
 3126000   0.76050397   -9.3372804    456.12061  0.012159325  0.011504639         3942 
 3127000   0.74893635    -9.368591    454.61617  0.012115344  0.011498944         3952 
 3128000   0.76754279   -9.3765431    455.80496  0.012143141  0.011493263         3942 
 3129000   0.76032402   -9.3746572    454.90945  0.012115411  0.011487581         3958 
 3130000   0.73580283     -9.35814     455.7531  0.012134002  0.011481904         3946 
 3131000   0.75716076   -9.3740028    454.91778  0.012107894   0.01147623         3956 
 3132000   0.74598536   -9.3872162    455.45069  0.012118207  0.011470554         3942 
 3133000   0.76339508   -9.3659558    455.21557  0.012108085  0.011464881         3948 
 3134000   0.75388341   -9.3633585    454.41915  0.012083045  0.011459214         3945 
 3135000   0.74293205   -9.3875936    455.14636  0.012098521  0.011453552         3945 
 3136000   0.74426812   -9.3921736    454.61042  0.012080421   0.01144789         3950 
 3137000   0.73318512   -9.3581638    455.99836  0.012113441  0.011442229         3946 
 3138000   0.74118529   -9.3469493    455.83171  0.012105155  0.011436576         3944 
 3139000   0.75059919   -9.3689351    454.19688  0.012057897  0.011430926         3947 
 3140000    0.7570253   -9.3966082     455.1028    0.0120781  0.011425283         3952 
 3141000   0.75217304   -9.3614437    454.43698   0.01205659  0.011419643         3941 
 3142000   0.74760939   -9.3786954     455.0157  0.012068101  0.011414001         3948 
 3143000   0.75338454   -9.3845933    455.52215   0.01207769  0.011408371         3943 
 3144000    0.7517192   -9.3463358    455.07581  0.012062018  0.011402737         3946 
 3145000   0.74686043   -9.3500789    454.74242  0.012049349  0.011397103         3944 
 3146000   0.75946839   -9.3664959    456.24235   0.01208525  0.011391477         3945 
 3147000   0.73087968   -9.3886889    454.78075  0.012042706  0.011385858         3943 
 3148000   0.74012148   -9.3978898    454.54051  0.012032521  0.011380236         3947 
 3149000   0.73764612   -9.3908478    454.32317  0.012022948  0.011374616         3922 
 3150000   0.74403427   -9.3856565    455.39977  0.012047613  0.011369002         3951 
 3151000   0.73408203   -9.4039279     456.0167  0.012060105  0.011363391         3935 
 3152000   0.74706736    -9.352356    455.42549  0.012040648  0.011357789         3939 
 3153000   0.74465377   -9.3711467    455.08847  0.012027922  0.011352187         3955 
 3154000   0.75941441   -9.3637555    455.64623  0.012038846  0.011346588         3949 
 3155000   0.75965705    -9.377803    454.88854  0.012015017  0.011340995         3948 
 3156000   0.74383211   -9.3808945    455.27871  0.012021512  0.011335412         3943 
 3157000     0.752911   -9.3614103    454.08682  0.011986243  0.011329827         3946 
 3158000   0.76027256   -9.3849511     454.9048  0.012004032  0.011324239         3938 
 3159000   0.73962589   -9.3978204    455.37348  0.012012596  0.011318655         3935 
 3160000   0.75460776   -9.3909522    455.86157  0.012021666   0.01131308         3952 
 3161000   0.74497793   -9.3785209    454.79295  0.011989691  0.011307513         3955 
 3162000   0.74554308   -9.3946027     454.6923  0.011983246  0.011301951         3951 
 3163000   0.74567193   -9.3961729    454.48425  0.011973976  0.011296393         3951 
 3164000   0.75100669   -9.3783075    454.56556  0.011972333  0.011290835         3946 
 3165000   0.75206765   -9.3816267    454.67775  0.011971505  0.011285276         3960 
 3166000   0.75659524    -9.380813    454.07929  0.011951971   0.01127972         3936 
 3167000   0.74052803   -9.3846239    455.32166  0.011980888  0.011274162         3949 
 3168000   0.73791124   -9.3855518    455.16714  0.011973041  0.011268614         3944 
 3169000   0.74149688   -9.3794897     454.5831  0.011953905   0.01126307         3940 
 3170000   0.75886109    -9.383288     454.8278  0.011956567  0.011257527         3937 
 3171000   0.75363179   -9.3651202    455.12435  0.011960589  0.011251994         3953 
 3172000   0.74384083   -9.3948152    454.75377  0.011947083  0.011246461         3960 
 3173000   0.75977438    -9.379509    455.17989  0.011954509   0.01124093         3938 
 3174000   0.73064995    -9.380211    454.62774  0.011936246  0.011235405         3944 
 3175000    0.7493558   -9.4090458    454.04616  0.011917222   0.01122988         3945 
 3176000   0.72894883    -9.377532    455.13549  0.011942052  0.011224359         3957 
 3177000   0.73016338   -9.3787006    454.61218  0.011924567  0.011218847         3953 
 3178000    0.7530432    -9.387265    455.91359   0.01195494  0.011213338         3936 
 3179000   0.74798894   -9.3549925    455.84362  0.011949345  0.011207834         3953 
 3180000   0.75286375   -9.3689036    454.40181  0.011907804  0.011202334         3942 
 3181000    0.7567572   -9.3719843    455.26755  0.011926741  0.011196832         3945 
 3182000   0.74930862   -9.3946712    454.46174  0.011901889  0.011191334         3958 
 3183000   0.74514964   -9.4023904    454.84319  0.011908137  0.011185849         3948 
 3184000   0.74839852   -9.4005283    455.31215  0.011916671   0.01118036         3949 
 3185000   0.74150725   -9.3797235    454.29197  0.011886237  0.011174872         3957 
 3186000   0.73304507   -9.3764148    454.98396  0.011900606  0.011169388         3954 
 3187000   0.74072526   -9.3598365    454.77756  0.011891475  0.011163907         3936 
 3188000   0.74244315   -9.3963658    455.26041  0.011900366  0.011158436         3948 
 3189000   0.74685593   -9.3876244    454.81916  0.011885104  0.011152961         3948 
 3190000   0.73818769   -9.3860641    454.97185  0.011885367  0.011147483         3943 
 3191000    0.7444603   -9.3795402    454.91897  0.011880261  0.011142018         3945 
 3192000   0.75136221   -9.3949858    455.58856  0.011894021  0.011136548         3945 
 3193000   0.71888639   -9.3826438    455.02284  0.011875531  0.011131084         3955 
 3194000   0.73453532   -9.4142255    454.20784  0.011850549  0.011125623         3961 
 3195000   0.74973429   -9.3715983    455.39456  0.011877792  0.011120168         3948 
 3196000   0.74264678   -9.3781353    454.32286  0.011846132  0.011114721         3944 
 3197000   0.72259243   -9.4027381    454.94125  0.011858546  0.011109269         3955 
 3198000   0.73990493   -9.3705313    455.17567  0.011860946  0.011103827         3943 
 3199000   0.71990767   -9.3662924    455.28921  0.011860196  0.011098384         3956 
 3200000   0.76417936   -9.4129062    454.57252  0.011837826  0.011092943         3952 
 3201000   0.72358351   -9.3686377    455.11971  0.011848373   0.01108751         3952 
 3202000   0.73633827   -9.4070333    454.50039  0.011828555   0.01108208         3967 
 3203000   0.73752196   -9.3948773    454.31078  0.011819929  0.011076654         3939 
 3204000   0.72676621   -9.3728477    454.93074  0.011832364  0.011071226         3944 
 3205000   0.73671186   -9.4044646    454.32141  0.011812829  0.011065801         3963 
 3206000   0.74327531   -9.3833599    454.87995  0.011823663   0.01106038         3947 
 3207000    0.7410333   -9.3791002    454.88424  0.011820087  0.011054961         3944 
 3208000   0.73810217   -9.4033968    454.45495  0.011805251  0.011049553         3958 
 3209000   0.74684973    -9.411859     454.6186  0.011805822  0.011044147         3956 
 3210000   0.72500117   -9.3665992    455.15253  0.011816005  0.011038749         3952 
 3211000      0.73593   -9.3952799    454.77236  0.011802459  0.011033345         3952 
 3212000   0.73467299   -9.3870451    455.35122  0.011813803  0.011027942         3932 
 3213000    0.7303562    -9.397337    453.93586  0.011773417  0.011022544         3954 
 3214000   0.75571556   -9.3889238    454.18832  0.011776299  0.011017155         3943 
 3215000   0.72656263   -9.3897479    454.40538  0.011778263   0.01101177         3952 
 3216000   0.72586942   -9.3877343     454.3972  0.011774388  0.011006386         3944 
 3217000   0.72597276   -9.4125376    454.08225   0.01176257  0.011001013         3940 
 3218000     0.731658   -9.3920564    454.94827  0.011781341  0.010995633         3949 
 3219000   0.73694813    -9.395328    455.39085  0.011789139  0.010990259         3945 
 3220000   0.74498685   -9.3798485    455.43495  0.011786619  0.010984883         3942 
 3221000   0.72175406   -9.3870493    455.16053   0.01177586  0.010979515         3948 
 3222000   0.74679251   -9.4129522    455.32411  0.011776436  0.010974149         3937 
 3223000   0.74830491    -9.383913    454.81086  0.011759511  0.010968791         3938 
 3224000   0.73631948   -9.3734436    453.98287  0.011734462  0.010963437         3953 
 3225000   0.72987939   -9.4228767    454.40633  0.011741766  0.010958087         3941 
 3226000   0.75424593      -9.4097    454.45021  0.011739259   0.01095273         3937 
 3227000   0.73646398   -9.3949758    454.91868  0.011747719  0.010947386         3946 
 3228000   0.71875093   -9.3854539    454.55606  0.011734719  0.010942043         3943 
 3229000   0.73000612   -9.3956082    455.17086  0.011746951  0.010936705         3948 
 3230000    0.7383181   -9.3991726    455.42142  0.011749779  0.010931374         3953 
 3231000   0.73830159   -9.4108963    454.96021  0.011734247  0.010926046         3950 
 3232000   0.72708286   -9.3965697    454.97432   0.01173098  0.010920717         3957 
 3233000   0.72321589   -9.4130485    455.28315  0.011735312  0.010915392         3964 
 3234000    0.7284317    -9.414272    454.68238  0.011716202  0.010910065         3959 
 3235000   0.72254673   -9.3986765    454.86996  0.011717413  0.010904744         3951 
 3236000   0.72308483   -9.3991874    454.02316  0.011691985  0.010899425         3954 
 3237000    0.7413609   -9.4136237    454.60058  0.011703238  0.010894109         3959 
 3238000   0.74271363   -9.4083783    454.04084  0.011685218  0.010888795         3947 
 3239000   0.73274599     -9.40675    454.90959  0.011703962  0.010883491         3945 
 3240000   0.72163327    -9.391101     455.1742  0.011707155  0.010878189         3944 
 3241000   0.71749584   -9.4104856    454.51915    0.0116867  0.010872886         3949 
 3242000   0.72222432   -9.3882624    454.97832  0.011694898   0.01086759         3968 
 3243000   0.75273559   -9.3715707    454.81424  0.011687076    0.0108623         3948 
 3244000   0.74685357   -9.4128511    452.92801  0.011635019   0.01085701         3958 
 3245000   0.72017597   -9.3917279    454.81327  0.011679848  0.010851722         3943 
 3246000   0.72811893   -9.3987454    455.29567  0.011688634  0.010846442         3963 
 3247000    0.7235334   -9.3914341    455.72707  0.011696106  0.010841169         3957 
 3248000   0.73925255   -9.4012387    454.13507  0.011651659  0.010835889         3949 
 3249000   0.72889328    -9.406703    454.67053  0.011661807  0.010830619         3947 
 3250000   0.72616626   -9.3930149    454.86917  0.011663312  0.010825353         3953 
 3251000   0.72419594   -9.4221704    454.30062  0.011645151  0.010820084         3937 
 3252000    0.7349612   -9.4004961     454.5859   0.01164888  0.010814819         3947 
 3253000   0.72071432   -9.4013119    453.51836  0.011617952   0.01080956         3952 
 3254000   0.73787973   -9.4141648    454.86909  0.011648973  0.010804304         3958 
 3255000   0.72661918    -9.409952    454.40391  0.011633485  0.010799053         3959 
 3256000   0.72268967   -9.4068371     454.7267  0.011638173  0.010793801         3953 
 3257000   0.73179473   -9.4120666    455.02134  0.011642139  0.010788555         3955 
 3258000   0.73718045   -9.3974412    455.22894  0.011643875  0.010783314         3943 
 3259000   0.73548796    -9.397904    453.83756  0.011604724  0.010778081         3949 
 3260000   0.72169076   -9.3938313    454.71607  0.011623621   0.01077285         3922 
 3261000   0.73899948   -9.4208889    454.57798  0.011616528   0.01076762         3959 
 3262000   0.71532174   -9.4143594    453.53787  0.011586396  0.010762395         3945 
 3263000   0.72196078   -9.3933463    454.29661  0.011602222  0.010757168         3936 
 3264000   0.72615032   -9.4100624    455.04962  0.011617893  0.010751942         3945 
 3265000   0.75200819   -9.3830956    455.18125  0.011617694  0.010746726         3946 
 3266000   0.73379679   -9.3988948    454.29693  0.011591573  0.010741509         3959 
 3267000   0.73375987   -9.4039136    453.80114  0.011575378  0.010736298         3957 
 3268000   0.72035077   -9.4063177    454.58543  0.011591836  0.010731087         3967 
 3269000   0.72884621   -9.3980772    455.45518  0.011610461  0.010725884         3942 
 3270000   0.72588297   -9.4030265    454.04131   0.01157088  0.010720681         3948 
 3271000    0.7390765   -9.4064375    454.46711   0.01157819  0.010715472         3948 
 3272000   0.71310616   -9.4101697    454.66561  0.011579707  0.010710268         3961 
 3273000   0.73560588   -9.4014469    454.11568  0.011562167   0.01070507         3944 
 3274000    0.7311652    -9.394787    453.87549  0.011552522  0.010699876         3959 
 3275000   0.73295404   -9.3896221    455.05388  0.011578979  0.010694688         3960 
 3276000   0.73629195   -9.4238069     454.1032  0.011551262  0.010689505         3952 
 3277000   0.71545496   -9.4259859    453.52984  0.011533156  0.010684325         3944 
 3278000   0.72731894   -9.4116438    453.70612  0.011534119  0.010679153         3950 
 3279000   0.74676395   -9.4000183    454.46281  0.011549832  0.010673973         3945 
 3280000   0.74141447   -9.4199109    454.22712  0.011540323  0.010668801         3945 
 3281000   0.73611565   -9.3867888    454.72375   0.01154942  0.010663639         3954 
 3282000   0.72320121   -9.4031208    453.82631  0.011523114  0.010658473         3954 
 3283000    0.7207449    -9.405826    454.16055  0.011528088  0.010653306         3958 
 3284000   0.73406718   -9.4162556    454.68768  0.011537954  0.010648154         3939 
 3285000   0.71487013   -9.4103991    454.66514   0.01153387  0.010642996         3964 
 3286000   0.72053578   -9.4167099    454.43175  0.011524441  0.010637844         3952 
 3287000   0.74380683   -9.4208238    453.93191  0.011508263  0.010632695         3948 
 3288000   0.71758857   -9.4228066    454.45175  0.011517938  0.010627546         3946 
 3289000   0.72039919   -9.3936605    454.07358  0.011504854  0.010622403         3952 
 3290000   0.70974362   -9.4491355    453.33578  0.011482669  0.010617264         3952 
 3291000   0.72459003    -9.434459    454.97296  0.011520636   0.01061213         3954 
 3292000   0.71879789   -9.3982954    454.32127   0.01150064     0.010607         3956 
 3293000   0.72870792    -9.429163    453.58412  0.011478493  0.010601872         3937 
 3294000   0.72353589   -9.3849266    453.95032  0.011484272   0.01059674         3943 
 3295000   0.71149333   -9.4166386      453.557   0.01147084  0.010591613         3953 
 3296000   0.72380867   -9.4161103    454.14193  0.011482148  0.010586498         3954 
 3297000   0.73538932   -9.4440572    453.59396  0.011464815  0.010581383         3951 
 3298000    0.7263884    -9.422497    455.05668  0.011498299  0.010576273         3929 
 3299000   0.71673585    -9.394053    454.63078  0.011484055  0.010571164         3953 
 3300000   0.71810277   -9.4159973    453.33851  0.011447942  0.010566054         3941 
 3301000    0.7118558   -9.4182566    453.75062  0.011454878  0.010560952         3947 
 3302000   0.73288912   -9.4209681    454.28127  0.011464801  0.010555848         3949 
 3303000   0.72348233   -9.4225913    453.79705  0.011449113  0.010550744         3958 
 3304000   0.72880504   -9.4297397      453.697  0.011443125  0.010545646         3964 
 3305000   0.72307859   -9.4295332    453.72753  0.011440432  0.010540557         3960 
 3306000   0.74320756   -9.4074662    453.86678  0.011440481  0.010535461         3947 
 3307000   0.70487057   -9.4169327    453.91317  0.011438191  0.010530372         3942 
 3308000   0.71415312   -9.4012216    453.76784  0.011431072  0.010525288         3956 
 3309000   0.74012545   -9.4143596    454.55036  0.011447324  0.010520209         3969 
 3310000   0.69896933   -9.3989036    454.68761  0.011447322  0.010515131         3958 
 3311000   0.71854331   -9.4067155    454.39618  0.011436529  0.010510055         3956 
 3312000    0.7215078   -9.4393856    454.75679  0.011442149  0.010504985         3944 
 3313000   0.72278361   -9.4508985    454.03161  0.011420455  0.010499912         3957 
 3314000   0.71199823   -9.4103941     453.7006  0.011408685  0.010494843         3943 
 3315000   0.72202291   -9.4154839    454.28136  0.011419843  0.010489777         3955 
 3316000   0.72542695    -9.428003    454.21797  0.011414806  0.010484719         3963 
 3317000   0.72804794   -9.4484621    453.40681  0.011390986  0.010479657         3968 
 3318000   0.71972625   -9.4305414    453.48921  0.011389622  0.010474604         3961 
 3319000   0.71974304     -9.41835    454.61475  0.011414451  0.010469553         3952 
 3320000   0.72031503   -9.4059309    455.57719   0.01143517  0.010464507         3948 
 3321000   0.71773348   -9.4231078    454.25395  0.011398523  0.010459462         3953 
 3322000   0.71670322   -9.4117966    454.29383  0.011396092  0.010454424         3958 
 3323000   0.72669515   -9.4080758     454.0182  0.011385751  0.010449383         3955 
 3324000    0.7278752   -9.4304022    453.59382  0.011371686  0.010444351         3950 
 3325000   0.72082433   -9.4174901    453.41882   0.01136388  0.010439325         3952 
 3326000   0.72256546    -9.440733    454.10586  0.011377677  0.010434294         3953 
 3327000   0.71248177    -9.423802    453.92958  0.011369842  0.010429271         3955 
 3328000    0.7373599   -9.4208197     453.8919  0.011365482  0.010424252         3963 
 3329000   0.72601494   -9.4435841     454.3972  0.011374717  0.010419232         3953 
 3330000   0.70971986   -9.4204588    453.88338  0.011358443  0.010414219         3962 
 3331000   0.71223837   -9.4212511    453.75749  0.011351884  0.010409203         3961 
 3332000   0.71344346   -9.4643154    454.52509  0.011367674  0.010404188         3949 
 3333000   0.72088563   -9.4155318    454.67827  0.011368094   0.01039918         3946 
 3334000   0.72209561   -9.4291659    455.03865  0.011373691  0.010394179         3955 
 3335000    0.7309779    -9.421647    454.20724  0.011349506  0.010389179         3941 
 3336000    0.7398792     -9.43587    453.80941  0.011336166  0.010384181         3938 
 3337000   0.71720554   -9.4155882    453.99591  0.011337427  0.010379187         3945 
 3338000   0.71824969   -9.4391481    454.15682  0.011338047  0.010374204         3955 
 3339000   0.71813678   -9.4364898    454.77271  0.011350023  0.010369217         3965 
 3340000   0.71261403   -9.4237001    454.38721  0.011337006  0.010364233         3960 
 3341000   0.70917144   -9.4304863    454.17414  0.011328298  0.010359259         3958 
 3342000   0.72599992    -9.465633    453.33834  0.011304068  0.010354285         3965 
 3343000   0.70995129   -9.4381611    453.73627  0.011310606  0.010349309         3945 
 3344000   0.72687624   -9.4380173    454.35037  0.011322527  0.010344339         3940 
 3345000    0.7159203   -9.4130761    453.14878  0.011289207  0.010339375         3952 
 3346000   0.72575952   -9.4268436     454.0355  0.011307917   0.01033441         3966 
 3347000   0.70831141   -9.4298639    453.80898  0.011298899  0.010329448         3954 
 3348000   0.72326093   -9.4548908    453.68974  0.011292556  0.010324487         3958 
 3349000   0.70028281   -9.4357641    453.74828  0.011290641  0.010319533         3950 
 3350000   0.71175918   -9.4352006    454.20182  0.011298553   0.01031458         3961 
 3351000   0.71089778   -9.4315211    454.53299  0.011303417   0.01030963         3954 
 3352000   0.70454601   -9.4255662     453.4509  0.011273143  0.010304686         3945 
 3353000   0.71056849   -9.4082117    454.37498  0.011292747  0.010299741         3951 
 3354000   0.70857765   -9.4205728    453.79676  0.011275014  0.010294803         3957 
 3355000   0.72103384   -9.4630072    454.27166  0.011283449  0.010289869         3946 
 3356000    0.7080537    -9.454695    453.05642  0.011249911  0.010284932         3958 
 3357000   0.71603294   -9.4123328    453.80152  0.011265056  0.010280004         3941 
 3358000    0.7204161    -9.429778    453.78467  0.011261283  0.010275075         3960 
 3359000   0.71204882   -9.4160554     453.9548  0.011262151   0.01027015         3952 
 3360000   0.70409735   -9.4352598    454.12955  0.011263134   0.01026523         3944 
 3361000   0.71393601   -9.4408688    454.73082  0.011274691  0.010260308         3947 
 3362000   0.71990499   -9.4235359    454.42384  0.011263728  0.010255395         3955 
 3363000   0.69336713   -9.4421578    453.73541   0.01124332  0.010250486         3963 
 3364000   0.71787327   -9.4378653     453.8331  0.011242398  0.010245577         3960 
 3365000   0.71754283   -9.4643483    453.72874  0.011236472   0.01024067         3941 
 3366000   0.70454637    -9.420022    452.48627  0.011202374  0.010235768         3959 
 3367000   0.72470535   -9.4367521    453.27526  0.011218574  0.010230872         3954 
 3368000   0.68965367   -9.4427544    453.17754  0.011212825   0.01022598         3956 
 3369000   0.70710064   -9.4286655    453.55016  0.011218714  0.010221091         3955 
 3370000   0.69204745    -9.441731    453.93367  0.011224868  0.010216204         3950 
 3371000   0.72027407   -9.4366291    452.88112  0.011195519  0.010211318         3960 
 3372000    0.7071088   -9.4257289    454.30935  0.011227495  0.010206436         3956 
 3373000   0.70575729   -9.4082044     454.5138  0.011229217  0.010201559         3951 
 3374000    0.7192907   -9.4285728    453.89007  0.011210484  0.010196684         3943 
 3375000   0.70913645   -9.4206045     453.7029  0.011202541  0.010191813         3959 
 3376000   0.70993617   -9.4554613    453.73277   0.01119996  0.010186941         3958 
 3377000   0.70586555   -9.4373755    453.16602  0.011182658  0.010182071         3950 
 3378000   0.71014697    -9.429232    453.77361  0.011194336  0.010177212         3943 
 3379000   0.70988904   -9.4187768    454.19078  0.011201311  0.010172358         3956 
 3380000     0.710346   -9.4361806    453.96239  0.011192367  0.010167503         3950 
 3381000   0.71040619   -9.4476254    453.70692   0.01118276  0.010162648         3955 
 3382000   0.71210817   -9.4461911    453.53382  0.011175188  0.010157801         3956 
 3383000   0.71914984   -9.4405422     453.6531  0.011174823  0.010152954         3962 
 3384000   0.70537878   -9.4397299    453.40076  0.011165306  0.010148114         3944 
 3385000   0.70507683   -9.4106852    454.89664  0.011198834  0.010143271         3935 
 3386000   0.71318369   -9.4440471    453.21987  0.011154259  0.010138435         3957 
 3387000   0.71759174   -9.4389954    453.35597  0.011154315  0.010133601         3957 
 3388000   0.71551265   -9.4388072    453.52844  0.011155265  0.010128771         3953 
 3389000   0.71660185   -9.4531953    453.87483  0.011160491  0.010123944         3963 
 3390000   0.71083627   -9.4415795    452.91673  0.011133646  0.010119126         3942 
 3391000    0.7176344   -9.4430646    454.49494  0.011169147  0.010114305         3946 
 3392000   0.71766185   -9.4283497    453.15609  0.011132962  0.010109488         3939 
 3393000    0.7163169   -9.4362892    453.00025  0.011125854  0.010104672         3949 
 3394000   0.70835861   -9.4482962    453.29818  0.011129891  0.010099862         3964 
 3395000   0.70537862    -9.454928    453.51934  0.011132041  0.010095052         3959 
 3396000   0.72030876    -9.427444    454.24003  0.011146447  0.010090241         3965 
 3397000   0.68668025   -9.4440216    453.14708  0.011116355  0.010085435         3953 
 3398000   0.70668055   -9.4410656    453.74098  0.011127648  0.010080634         3954 
 3399000   0.69178994   -9.4262004    453.74584  0.011124493  0.010075836         3955 
 3400000   0.72420913   -9.4400276    453.90266  0.011125065  0.010071043         3961 
 3401000   0.71111579   -9.4394896    453.29755  0.011106967  0.010066254         3948 
 3402000   0.69766255    -9.457222    453.72907  0.011114273   0.01006146         3963 
 3403000   0.70335078   -9.4642134     453.2384  0.011098991  0.010056672         3947 
 3404000   0.70480135   -9.4101881    453.36332  0.011098789  0.010051888         3963 
 3405000   0.70945775   -9.4495674    453.63225  0.011102111  0.010047108         3949 
 3406000   0.70961227   -9.4510543    453.09908  0.011085806  0.010042334         3958 
 3407000     0.702828   -9.4569896    452.86726  0.011076882  0.010037555         3952 
 3408000   0.70990211   -9.4484811     453.3161  0.011084607  0.010032782         3941 
 3409000   0.69351025   -9.4419494    454.46304  0.011109393  0.010028007         3957 
 3410000   0.70181002   -9.4319284    453.61919  0.011085513  0.010023241         3956 
 3411000   0.69816245   -9.4538183     453.8428  0.011087726  0.010018474         3956 
 3412000    0.7074356   -9.4869352    453.85503  0.011084775  0.010013714         3957 
 3413000   0.70425548   -9.4328049    453.63555  0.011076168  0.010008956         3954 
 3414000   0.70737896   -9.4421655    453.75611  0.011075867  0.010004198         3950 
 3415000   0.70857068   -9.4241569    453.48328  0.011065966 0.0099994494         3971 
 3416000   0.70110249   -9.4144621    454.04181  0.011076352 0.0099947034         3964 
 3417000     0.712991     -9.44613    453.81746  0.011067639 0.0099899595         3949 
 3418000    0.6917974   -9.4496007    454.20648  0.011073885 0.0099852127         3962 
 3419000   0.72586429   -9.4795369    452.48263   0.01102863 0.0099804706         3954 
 3420000   0.71206694   -9.4443451    453.31778  0.011045755 0.0099757368         3938 
 3421000   0.71921943   -9.4458291    454.06357  0.011060693 0.0099710045         3949 
 3422000    0.7047951   -9.4561935    453.65156  0.011047428 0.0099662733         3941 
 3423000   0.69937873   -9.4542555     453.1477  0.011031934 0.0099615484         3958 
 3424000   0.70465673   -9.4524382    453.34899   0.01103361 0.0099568258         3955 
 3425000   0.68581726   -9.4281801    453.34508  0.011030294 0.0099521103         3954 
 3426000   0.70890122   -9.4284411     453.9507  0.011041805 0.0099473932         3953 
 3427000   0.69540207   -9.4601604     453.3241  0.011023346 0.0099426786         3937 
 3428000   0.71064992     -9.45889    454.02179  0.011037091 0.0099379674         3966 
 3429000    0.6989427   -9.4251305    453.69031  0.011025817 0.0099332555         3949 
 3430000    0.7107328   -9.4262024    453.15099  0.011009499 0.0099285453         3949 
 3431000   0.69883507   -9.4659973    453.40117  0.011012367 0.0099238454         3949 
 3432000   0.70062992   -9.4582861    454.37209  0.011032733 0.0099191421         3952 
 3433000   0.72467832   -9.4625085    453.41683  0.011006331 0.0099144423         3939 
 3434000   0.69466099   -9.4730215    452.37144  0.010977758  0.009909746         3947 
 3435000   0.69198033   -9.4627444     453.2164  0.010995061  0.009905053         3959 
 3436000   0.67698555   -9.4699925    453.25851  0.010992882 0.0099003592         3955 
 3437000   0.70161379   -9.4670087    452.34603   0.01096756 0.0098956686         3952 
 3438000   0.70461333   -9.4571024    453.34343  0.010988546 0.0098909845         3952 
 3439000   0.71257708   -9.4555688    452.91227  0.010974902 0.0098863052         3956 
 3440000   0.69707119   -9.4527179    453.66492  0.010989945 0.0098816252         3949 
 3441000   0.69305515   -9.4270819    454.36035  0.011003593 0.0098769498         3970 
 3442000   0.69300084   -9.4737091    452.76297  0.010961722 0.0098722803         3963 
 3443000   0.68977545   -9.4586509    453.56999  0.010978071 0.0098676079         3967 
 3444000    0.7016977   -9.4577093    453.08682  0.010963192   0.00986294         3964 
 3445000   0.69807582   -9.4540691    452.74501  0.010951742 0.0098582776         3952 
 3446000   0.70039834   -9.4422177    453.46381  0.010965946 0.0098536153         3962 
 3447000   0.69788185   -9.4278662      453.648  0.010967218 0.0098489563         3957 
 3448000   0.68730539   -9.4441492    453.75159  0.010966541 0.0098443042         3954 
 3449000   0.68858553   -9.4634341    452.53362  0.010933933 0.0098396475         3969 
 3450000   0.69612861   -9.4592849    452.59757  0.010932308 0.0098350002         3955 
 3451000   0.70676134   -9.4579576    453.33822  0.010947026 0.0098303592         3968 
 3452000    0.7169007   -9.4730723    453.29792  0.010942881 0.0098257178         3963 
 3453000   0.69066267     -9.44354    453.07494  0.010934331 0.0098210793         3941 
 3454000   0.69826169   -9.4465656    452.83455  0.010925366 0.0098164378         3952 
 3455000   0.70273927   -9.4530598    453.56896  0.010939917 0.0098118009         3952 
 3456000   0.69867737   -9.4798654    453.05811  0.010924434 0.0098071679         3948 
 3457000    0.7022995   -9.4656966    453.37645  0.010928947 0.0098025379         3944 
 3458000   0.70456044   -9.4640895    452.82033  0.010912385 0.0097979102         3955 
 3459000   0.69330442   -9.4369185    453.79915  0.010932812 0.0097932832         3948 
 3460000   0.71484491   -9.4476205    453.08446  0.010912439 0.0097886628         3944 
 3461000   0.68737289   -9.4591776    452.45238  0.010894067 0.0097840448         3956 
 3462000    0.7007026   -9.4647018    452.88527   0.01090134 0.0097794313         3946 
 3463000   0.69755636   -9.4572279     453.4834  0.010912585 0.0097748212         3961 
 3464000   0.70220714   -9.4517158    453.96241  0.010920959  0.009770213         3960 
 3465000   0.69993112   -9.4755708    452.74292  0.010888478  0.009765604         3957 
 3466000   0.69259967   -9.4743796    453.31273  0.010899037 0.0097609991         3954 
 3467000   0.70355791   -9.4861479    453.77233   0.01090694 0.0097563932         3954 
 3468000   0.70215475    -9.485363    453.89685  0.010906787 0.0097517947         3955 
 3469000   0.69783415   -9.4861729    453.21805  0.010887337 0.0097471993         3944 
 3470000   0.71137787   -9.4618207    453.55814  0.010892366 0.0097426046         3965 
 3471000   0.70836176   -9.4738681    452.23479  0.010857457  0.009738011         3945 
 3472000   0.68810899   -9.4656896    452.80867  0.010868104 0.0097334241         3955 
 3473000    0.7132292    -9.448485    454.08217  0.010895531 0.0097288447         3946 
 3474000   0.71324359    -9.475132    452.98925  0.010866178 0.0097242636         3953 
 3475000   0.69541644   -9.4406062    453.07095  0.010865011 0.0097196872         3947 
 3476000   0.69106949   -9.4541918    452.92125  0.010858296 0.0097151123         3944 
 3477000   0.69211715   -9.4583837    453.40257  0.010866709 0.0097105438         3947 
 3478000   0.67950401   -9.4682351     453.1131  0.010856649 0.0097059741         3951 
 3479000   0.68663959   -9.4461283    452.59825  0.010841196 0.0097014079         3954 
 3480000   0.69274982   -9.4818012    452.67403  0.010839895 0.0096968439         3939 
 3481000    0.7050122   -9.4589568    453.65243  0.010860204 0.0096922835         3954 
 3482000   0.70772386   -9.4680456    453.40063  0.010851058 0.0096877246         3944 
 3483000    0.6960881   -9.4576091    453.67036  0.010854397 0.0096831679         3949 
 3484000   0.69037825   -9.4727012    453.41333  0.010845133 0.0096786135         3938 
 3485000   0.68751924   -9.4633087    453.50992  0.010844331  0.009674064         3947 
 3486000   0.68054184   -9.4611879    453.23618  0.010834676 0.0096695202         3929 
 3487000   0.68842671   -9.4484479    453.80198  0.010845091 0.0096649797         3935 
 3488000   0.69460383   -9.4657117    453.33612  0.010830851 0.0096604445         3942 
 3489000   0.68686315   -9.4669328     453.3349  0.010827718 0.0096559115         3947 
 3490000   0.70546774   -9.4833082    452.88308  0.010813827 0.0096513759         3942 
 3491000   0.68453279    -9.455083    454.02631  0.010838019 0.0096468436         3941 
 3492000   0.69876353    -9.473235    453.55809  0.010823742 0.0096423111         3943 
 3493000    0.6785774   -9.4594247    454.53839  0.010844031 0.0096377826         3942 
 3494000   0.69368107   -9.4549698    453.71216  0.010821221 0.0096332656         3951 
 3495000   0.70321298   -9.4631214      453.748   0.01081898 0.0096287447         3946 
 3496000   0.68298659   -9.4545417    453.57799  0.010811832 0.0096242228         3951 
 3497000   0.69141726    -9.457078    451.81267  0.010766673 0.0096197042         3931 
 3498000   0.69629951   -9.4721908    452.95636  0.010790842 0.0096151942         3939 
 3499000   0.71488685   -9.4757474    452.51576  0.010777264 0.0096106848         3951 
 3500000    0.6983565   -9.4518555    453.25707  0.010791835 0.0096061782         3942 
 3501000   0.69597936   -9.4769603    453.23142  0.010788142 0.0096016765         3949 
 3502000   0.69653105   -9.4739983    453.75115  0.010797429  0.009597173         3954 
 3503000   0.67853048   -9.4796421    454.29826  0.010807362 0.0095926768         3954 
 3504000   0.68824251   -9.4741905    453.54891  0.010786456 0.0095881837         3949 
 3505000   0.69126497   -9.4749839    453.38279  0.010779429 0.0095836918         3936 
 3506000   0.69604769    -9.467196    452.11956  0.010746329 0.0095792077         3958 
 3507000   0.68488533   -9.4807081    452.59816  0.010754637 0.0095747202         3942 
 3508000   0.69706441   -9.4638973    452.75339  0.010755259 0.0095702366         3945 
 3509000   0.69981269   -9.4637827    454.14084  0.010785144 0.0095657529         3956 
 3510000   0.68653934   -9.4782332    452.69538  0.010747754 0.0095612735         3948 
 3511000   0.68596244   -9.4730619    453.07299  0.010753655 0.0095567987         3946 
 3512000   0.69195292   -9.4561482    452.82828  0.010744787 0.0095523251         3945 
 3513000   0.68997614   -9.4817187    453.16441  0.010749701 0.0095478538         3939 
 3514000   0.68384736   -9.4769848    453.57173  0.010756302 0.0095433829         3948 
 3515000   0.67921277   -9.4693155    453.69092  0.010756067 0.0095389176         3938 
 3516000   0.68876557   -9.4474352    453.34915  0.010744908 0.0095344543         3949 
 3517000   0.68784965    -9.470828    453.32673  0.010741322 0.0095299925         3958 
 3518000   0.68982867   -9.4616149     453.1386  0.010733812 0.0095255339         3937 
 3519000   0.68253534   -9.4501519     453.4006  0.010736966 0.0095210783         3950 
 3520000   0.69234846   -9.4780486    453.53884  0.010737189 0.0095166242         3938 
 3521000   0.69014586   -9.4788096    452.63043  0.010712639 0.0095121729         3958 
 3522000   0.68289778   -9.4671458    452.52696  0.010707149 0.0095077231         3941 
 3523000   0.68510371   -9.4860008    452.58011  0.010705367 0.0095032738         3955 
 3524000   0.68147816    -9.493259    453.23561   0.01071783  0.009498828         3945 
 3525000   0.69001402   -9.4673646    453.04275   0.01071023 0.0094943882         3957 
 3526000   0.69291479   -9.4783596    453.22048  0.010711393 0.0094899537         3951 
 3527000   0.68375079   -9.4464173    453.11411  0.010705843 0.0094855221         3948 
 3528000   0.68211046   -9.4613792    453.36176  0.010708658 0.0094810927         3951 
 3529000   0.67921926   -9.4845987    452.81813  0.010692787 0.0094766684         3941 
 3530000   0.67130406    -9.502836    453.07783  0.010695888 0.0094722424         3938 
 3531000   0.69894653   -9.4647471    452.59856  0.010681548 0.0094678198         3943 
 3532000   0.69868844   -9.4939962    453.09555   0.01069025 0.0094634017         3952 
 3533000    0.6724044   -9.4778261    453.42425  0.010694977  0.009458985         3943 
 3534000   0.68414658   -9.4426344    453.39576  0.010691279 0.0094545715         3947 
 3535000   0.69310676   -9.4717321    452.49522  0.010667025 0.0094501623         3937 
 3536000   0.68488953   -9.4676244     452.7891  0.010670935  0.009445756         3946 
 3537000   0.68083391   -9.4723959    453.32783   0.01068061 0.0094413519         3932 
 3538000   0.67382742   -9.4734203    453.05797  0.010671235 0.0094369494         3943 
 3539000   0.69624141   -9.4631207    453.06271  0.010668332 0.0094325528         3953 
 3540000   0.68348854   -9.4740261    453.03699  0.010664712 0.0094281568         3947 
 3541000    0.6849643   -9.4706311    453.76057  0.010678729 0.0094237589         3941 
 3542000   0.68246192   -9.4756811    452.77445  0.010652514 0.0094193673         3943 
 3543000   0.67347243   -9.4852184    452.61658  0.010645794 0.0094149791         3946 
 3544000   0.68767275   -9.4814624    452.87567  0.010648882 0.0094105885         3946 
 3545000   0.68492372   -9.4902268    452.69953  0.010641738    0.0094062         3944 
 3546000   0.68694143   -9.4876826     452.6778  0.010638226 0.0094018218         3951 
 3547000   0.67160571   -9.4870367    452.80339  0.010638178 0.0093974429         3939 
 3548000   0.69344303   -9.4691866      452.703  0.010632821 0.0093930677         3952 
 3549000   0.69414473   -9.4874856    453.00686   0.01063696  0.009388694         3961 
 3550000   0.68261313   -9.4745041    452.90993  0.010631689 0.0093843246         3961 
 3551000   0.69208587   -9.4784773    452.28388  0.010614003 0.0093799538         3957 
 3552000   0.69100246   -9.4725705    453.02761  0.010628463 0.0093755834         3949 
 3553000   0.67586513   -9.4779131    452.87946  0.010621997 0.0093712232         3952 
 3554000   0.68936948   -9.4752919    452.49218  0.010609927 0.0093668651         3948 
 3555000   0.67735222   -9.4541089    452.50607  0.010607268 0.0093625077         3960 
 3556000   0.67958245    -9.463329    452.84936   0.01061233 0.0093581531         3946 
 3557000   0.66429581   -9.5084921    452.82212  0.010608709 0.0093538017         3952 
 3558000   0.68904943   -9.4809137    452.68647   0.01060255 0.0093494509         3958 
 3559000   0.67495545   -9.4970644    452.40699  0.010593027 0.0093451024         3947 
 3560000   0.69113009   -9.5041314    452.48995  0.010591993 0.0093407581         3954 
 3561000   0.69472472   -9.4708892     452.7854  0.010595933 0.0093364194         3943 
 3562000   0.68585877   -9.4892813     453.0611  0.010599408 0.0093320809         3953 
 3563000   0.68483779   -9.4736026    453.68102  0.010610932 0.0093277463         3960 
 3564000     0.681345   -9.4853341    453.16657  0.010595926 0.0093234096         3957 
 3565000   0.66843493   -9.4946396    451.94418   0.01056438 0.0093190772         3954 
 3566000   0.68752509   -9.4936491    452.97501  0.010585507  0.009314748         3945 
 3567000   0.67225875   -9.4802729    452.41974  0.010569567 0.0093104252         3940 
 3568000   0.68562091   -9.4696616    453.36653  0.010588717 0.0093061001         3951 
 3569000   0.67131587   -9.4925539    452.87831  0.010574351 0.0093017799         3941 
 3570000   0.67719826   -9.4795303    453.16879   0.01057817 0.0092974578         3949 
 3571000   0.68290533   -9.4936092    453.18841  0.010575665 0.0092931434         3942 
 3572000   0.68180132    -9.487686    452.15279  0.010548544 0.0092888331         3948 
 3573000    0.6848068   -9.4937413    452.74431  0.010559388 0.0092845252         3954 
 3574000   0.68333177   -9.4785291    452.79543  0.010557625 0.0092802163         3965 
 3575000   0.68288271   -9.4983708    452.52305  0.010548323 0.0092759102         3952 
 3576000   0.69507065   -9.4884537    453.52852  0.010568804 0.0092716111         3953 
 3577000   0.68253788   -9.4945671    452.91793  0.010551624 0.0092673097         3949 
 3578000   0.70330895   -9.4873339    453.22439  0.010555813 0.0092630118         3962 
 3579000   0.68479167   -9.4880219    453.02618  0.010548249 0.0092587237         3945 
 3580000   0.69607516   -9.4946941    452.89282  0.010542198 0.0092544322         3956 
 3581000   0.66583251   -9.4650108    453.10358  0.010544159 0.0092501394         3955 
 3582000    0.6739651   -9.4870955    453.60407  0.010552858 0.0092458548         3942 
 3583000   0.67556258    -9.494888    453.28198  0.010542422  0.009241572         3970 
 3584000    0.6668957   -9.4864011     452.6156  0.010523986 0.0092372902         3954 
 3585000   0.67815349   -9.4862645    452.68438  0.010522649 0.0092330117         3947 
 3586000   0.67882464   -9.4779941    452.55277  0.010516657 0.0092287321         3942 
 3587000   0.68684251   -9.4967935    452.56752  0.010514068 0.0092244626         3956 
 3588000    0.6835879    -9.510404     453.4831  0.010532402  0.009220192         3957 
 3589000   0.66581078    -9.522291    452.46802  0.010505898 0.0092159245         3956 
 3590000   0.67970238   -9.5004615    452.76029  0.010509756 0.0092116584         3960 
 3591000   0.67627387   -9.4968662    452.79523   0.01050764  0.009207396         3958 
 3592000      0.67407   -9.4979631     452.2017  0.010490945  0.009203136         3951 
 3593000   0.66476417   -9.4992028    451.84464  0.010479744 0.0091988787         3955 
 3594000   0.66638827    -9.472274    452.95052   0.01050247 0.0091946269         3955 
 3595000   0.67955501   -9.4931376    452.23876   0.01048305 0.0091903736         3964 
 3596000   0.66752267   -9.5051906    452.34602   0.01048262 0.0091861274         3955 
 3597000   0.67119041   -9.5053031    452.77417  0.010489625 0.0091818806         3947 
 3598000   0.67865176   -9.4930664    452.92449  0.010490191 0.0091776348         3954 
 3599000   0.65972649    -9.507355    452.77404  0.010483793 0.0091733934         3958 
 3600000   0.66615368   -9.4971729    453.15685  0.010489742 0.0091691529         3956 
 3601000   0.69053603   -9.4989914    452.25119   0.01046587 0.0091649155         3954 
 3602000   0.67716247   -9.5074804     451.8809  0.010454398 0.0091606814         3956 
 3603000   0.66508875   -9.4979099    452.68173  0.010470019 0.0091564502         3949 
 3604000   0.66609209   -9.4691242    453.19761  0.010479042 0.0091522211         3938 
 3605000   0.68234202   -9.4931312     452.7035  0.010464713 0.0091479947         3948 
 3606000   0.66950925    -9.502502    453.04164  0.010469626  0.009143771         3959 
 3607000   0.67955465   -9.4942706    452.45892   0.01045326 0.0091395482         3952 
 3608000   0.66951466   -9.4824552    452.70939  0.010456148 0.0091353316         3948 
 3609000   0.67836838   -9.4916141    452.80283  0.010455409 0.0091311148         3939 
 3610000   0.66782645   -9.4934076     452.1366  0.010437133 0.0091269015         3961 
 3611000   0.67975719   -9.4893168    451.50863  0.010419751 0.0091226917         3950 
 3612000   0.67491007   -9.5285376    452.22564  0.010433408 0.0091184864         3945 
 3613000   0.68389715   -9.5071441    452.55192  0.010438046 0.0091142794         3954 
 3614000   0.66448008   -9.4906316     451.8409  0.010418763 0.0091100795         3957 
 3615000   0.67004446   -9.4976041    452.14767  0.010422952 0.0091058808         3947 
 3616000   0.67970288   -9.4952772    452.54931  0.010429326 0.0091016854         3939 
 3617000   0.67470991   -9.4926761    452.55417  0.010426555 0.0090974916         3948 
 3618000    0.6721686    -9.505873    452.55107  0.010423601 0.0090932999         3949 
 3619000   0.66573223   -9.4979231    452.27351   0.01041433 0.0090891129         3952 
 3620000   0.67300328   -9.4815612     451.9073  0.010403023 0.0090849299         3946 
 3621000   0.65918019   -9.5333416    451.91673  0.010400367 0.0090807426         3957 
 3622000   0.67809925   -9.5014788    452.13556   0.01040253 0.0090765585         3962 
 3623000   0.67906552      -9.4891    452.31238  0.010403726 0.0090723769         3954 
 3624000   0.67619716   -9.5108615    452.76184   0.01041119 0.0090682003         3947 
 3625000   0.64947707    -9.512542     451.6888  0.010383651  0.009064028         3944 
 3626000   0.66110309   -9.4903913    452.39105  0.010396926 0.0090598558         3959 
 3627000   0.67313863   -9.5017791     452.3973  0.010394203 0.0090556878         3955 
 3628000   0.68803405    -9.526184     452.4652  0.010392898 0.0090515213         3950 
 3629000   0.67356027   -9.4964927    453.26685  0.010408442 0.0090473614         3951 
 3630000   0.66940407   -9.5075528    453.50496  0.010411041 0.0090432006         3960 
 3631000   0.65019178   -9.4964781    451.70664  0.010366902  0.009039039         3953 
 3632000   0.67001586   -9.5027463     452.8834  0.010391047 0.0090348824         3950 
 3633000   0.67767212   -9.5013264     452.6049  0.010381799  0.009030726         3955 
 3634000   0.67016721   -9.5036965    452.28451  0.010371595 0.0090265747         3952 
 3635000   0.67223696   -9.5022972     451.9645  0.010361405 0.0090224269         3953 
 3636000   0.66606096   -9.5093426    452.01802  0.010359782 0.0090182864         3944 
 3637000   0.67371816   -9.5015497    451.68791   0.01034937 0.0090141435         3960 
 3638000   0.66992776   -9.5028077    452.14021  0.010356886 0.0090100014         3951 
 3639000   0.67090144   -9.4992563    452.29528  0.010357591  0.009005863         3939 
 3640000   0.67645906   -9.4873923    452.60767  0.010361897 0.0090017304         3967 
 3641000   0.67403272    -9.493589    451.92078   0.01034333 0.0089975968         3958 
 3642000   0.65803983   -9.4957238    453.00067  0.010365199 0.0089934682         3938 
 3643000   0.66323929   -9.4972305    451.97476  0.010338886 0.0089893389         3955 
 3644000   0.65649675   -9.5211479     452.1832  0.010340816 0.0089852107         3951 
 3645000   0.65759801   -9.5009928    452.70483  0.010349905 0.0089810869         3943 
 3646000   0.66362188   -9.5179946    451.34472  0.010315979 0.0089769658         3947 
 3647000   0.66756158   -9.5009241    451.92634  0.010326441 0.0089728493         3953 
 3648000   0.67811399   -9.4952338    451.88443  0.010322652  0.008968734         3955 
 3649000   0.67747827   -9.5223621    452.40768  0.010331773 0.0089646196         3955 
 3650000   0.67306571   -9.5180774    452.75747  0.010336929  0.008960514         3944 
 3651000   0.68768865   -9.5216805    452.38855  0.010325677 0.0089564024         3959 
 3652000    0.6604787   -9.5063178    452.88893  0.010334267  0.008952297         3950 
 3653000   0.65724286   -9.5107782    452.64424  0.010325856 0.0089481923         3959 
 3654000   0.66832266   -9.4984439    452.20008  0.010312901 0.0089440927         3958 
 3655000   0.66917097   -9.5318355    451.60488  0.010296509 0.0089399897         3950 
 3656000   0.67130391     -9.51744    452.41862  0.010312241 0.0089358925         3954 
 3657000   0.65972316   -9.5185424    451.43151  0.010286927  0.008931796         3957 
 3658000   0.66669873   -9.4759221    452.42696  0.010306792 0.0089277064         3968 
 3659000   0.66806048   -9.4922843    452.24041  0.010299727 0.0089236188         3962 
 3660000   0.66528811   -9.4921591    450.97427  0.010268084 0.0089195323         3953 
 3661000   0.67589995   -9.5185855    451.70407  0.010281892 0.0089154474         3970 
 3662000   0.65551502   -9.5025336    452.00143  0.010285851 0.0089113673         3953 
 3663000   0.65340189   -9.5188663    452.02183  0.010283507 0.0089072873         3955 
 3664000   0.66593867   -9.5085464    452.24693   0.01028582 0.0089032115         3963 
 3665000   0.65987752   -9.5149265    451.95677  0.010276416   0.00889914         3960 
 3666000   0.66803755   -9.5163228    453.00623  0.010297468 0.0088950706         3952 
 3667000   0.66588967   -9.4931917    452.38518  0.010280547 0.0088910008         3957 
 3668000   0.66507715   -9.5266278    452.98762  0.010291431 0.0088869394         3950 
 3669000   0.64532333   -9.5140999    452.47397  0.010276959 0.0088828737         3954 
 3670000   0.66268629   -9.5006584    450.97918  0.010240218 0.0088788111         3962 
 3671000   0.65243873   -9.5079141    451.92005  0.010258786 0.0088747537         3958 
 3672000   0.66974504   -9.5090498     451.9057  0.010255667 0.0088706963         3950 
 3673000   0.66221046   -9.5117129    452.31034  0.010262055 0.0088666417         3965 
 3674000   0.65250413   -9.5281588    452.13666  0.010255322 0.0088625862         3967 
 3675000   0.66349508   -9.5097874    452.43672  0.010259336 0.0088585352         3958 
 3676000   0.68138461   -9.5202697    451.37353  0.010232443 0.0088544894         3961 
 3677000   0.66779446   -9.4969588     452.1831  0.010248008  0.008850444         3952 
 3678000    0.6761193   -9.5111718    451.69684  0.010234204  0.008846405         3955 
 3679000   0.68041818   -9.5278034    452.26453  0.010244281 0.0088423661         3957 
 3680000   0.66614097   -9.5105752    452.43763  0.010245417 0.0088383274         3959 
 3681000    0.6476774   -9.5192494    452.81504  0.010251178  0.008834293         3957 
 3682000    0.6561638   -9.5194894     452.0663  0.010231448 0.0088302634         3963 
 3683000   0.66783003   -9.5019205    452.61966  0.010241191 0.0088262362         3963 
 3684000   0.66166283   -9.5348803    452.21359  0.010229225 0.0088222119         3955 
 3685000   0.66151856   -9.4876452    452.27692  0.010227881 0.0088181913         3949 
 3686000   0.67331715   -9.5090974    452.94978  0.010240319 0.0088141709         3941 
 3687000   0.67665916   -9.5097309     452.3544  0.010224085 0.0088101536         3957 
 3688000   0.65870289   -9.5322932    451.80045  0.010208795 0.0088061356         3959 
 3689000   0.65857908   -9.5350422    451.57568  0.010200951 0.0088021189         3964 
 3690000   0.64645574   -9.5188574    451.80445  0.010203353 0.0087981063         3940 
 3691000   0.66941282   -9.4770214    453.04065  0.010228498 0.0087940986         3955 
 3692000   0.66352841   -9.5155758    452.44731  0.010212336 0.0087900911         3960 
 3693000   0.66727786   -9.5087824    452.21367  0.010204298 0.0087860874         3936 
 3694000   0.64638374   -9.5108864    451.49489  0.010185321 0.0087820854         3956 
 3695000   0.66371565   -9.5205231    451.85156  0.010190608 0.0087780856         3956 
 3696000   0.65151801   -9.5110706    451.84154  0.010187625 0.0087740948         3955 
 3697000   0.64576047   -9.5091049    452.18455  0.010192601 0.0087700974         3969 
 3698000   0.66668075   -9.5124237    451.74597  0.010179961 0.0087661039         3961 
 3699000   0.65672815      -9.5053    452.54259  0.010195156 0.0087621163         3957 
 3700000   0.65578576   -9.5038164    452.52781  0.010192068 0.0087581301         3957 
 3701000   0.65504673   -9.5256357    451.71814  0.010171083 0.0087541444         3962 
 3702000   0.65618595   -9.5036264    451.91813  0.010172837 0.0087501613         3952 
 3703000    0.6536216   -9.5117404    452.79735  0.010189876 0.0087461821         3958 
 3704000   0.65300339   -9.5233239    452.55645  0.010181706  0.008742209         3961 
 3705000   0.64881918   -9.5347928    451.71315   0.01015999 0.0087382326         3953 
 3706000    0.6494692   -9.5141846    451.73805  0.010157808 0.0087342584         3955 
 3707000     0.659607   -9.5438541    451.76769  0.010155734 0.0087302915         3963 
 3708000   0.64149292   -9.5256867    452.44575  0.010168234 0.0087263233         3964 
 3709000   0.65216263   -9.5244913    451.45094  0.010143141 0.0087223538         3963 
 3710000   0.65482288   -9.5110987    451.43818  0.010140121 0.0087183913         3959 
 3711000   0.66707556   -9.5315636     452.3752   0.01015843 0.0087144308         3954 
 3712000   0.66276281   -9.5245309    452.45158  0.010157408 0.0087104691         3958 
 3713000   0.65554196   -9.4993908    451.92426  0.010142837 0.0087065094         3961 
 3714000    0.6737988   -9.5472438    451.87695  0.010139045  0.008702558         3959 
 3715000   0.64502584   -9.5107869    452.43437  0.010148819 0.0086986063         3966 
 3716000   0.64712865   -9.4935963    451.61489  0.010127711  0.008694658         3958 
 3717000   0.65139925   -9.5172012    451.69858  0.010126863 0.0086907117         3952 
 3718000   0.65117023   -9.5276542    452.00194  0.010130938 0.0086867704         3949 
 3719000   0.65025904    -9.523005    452.13592  0.010131216 0.0086828279         3952 
 3720000   0.65883707   -9.5148255     452.2215   0.01013041 0.0086788898         3949 
 3721000   0.65939704   -9.5218263    452.68861  0.010138149 0.0086749531         3942 
 3722000    0.6537995   -9.5272672    451.54177  0.010109748 0.0086710203         3948 
 3723000   0.65605496   -9.5310416    451.05215  0.010096073 0.0086670881         3957 
 3724000   0.66369351   -9.5483555    452.17492  0.010118486 0.0086631585         3963 
 3725000   0.66438446   -9.5190828    452.56789  0.010124561  0.008659234         3961 
 3726000    0.6541934    -9.514977    452.01661  0.010109515 0.0086553108         3957 
 3727000   0.65627809   -9.5101406    452.76266  0.010123483 0.0086513894         3959 
 3728000   0.65380046   -9.5297327    452.42832  0.010113294 0.0086474718         3963 
 3729000   0.65416293   -9.5081606    452.04671  0.010102054 0.0086435565         3972 
 3730000   0.64843363   -9.5182316      451.756  0.010092851 0.0086396407         3945 
 3731000   0.66564681   -9.5376762    451.60146  0.010086694 0.0086357248         3959 
 3732000   0.66925743   -9.5396867    452.75317  0.010109708 0.0086318169         3959 
 3733000   0.66235824   -9.5292388    451.98784  0.010089915 0.0086279096         3955 
 3734000   0.66230571   -9.5378642    451.29322  0.010071711 0.0086240035         3958 
 3735000   0.65736668   -9.5272318    451.56508   0.01007508 0.0086200972         3953 
 3736000   0.65500587   -9.5171107    452.02594  0.010082663 0.0086161994         3962 
 3737000   0.64618222   -9.5077152    452.33566  0.010086871  0.008612302         3956 
 3738000   0.64356176   -9.5382102    451.68359  0.010069636  0.008608403         3964 
 3739000   0.66726629    -9.503137    452.58675  0.010087072 0.0086045081         3966 
 3740000   0.65824326   -9.5230728    451.61435  0.010062708 0.0086006153         3961 
 3741000   0.65601149   -9.5004372    452.34749   0.01007635 0.0085967257         3953 
 3742000   0.67192125    -9.527977    451.71371  0.010059543 0.0085928381         3962 
 3743000    0.6581117   -9.5180485    451.44768  0.010050932 0.0085889554         3967 
 3744000   0.65210633   -9.5428171    451.53605  0.010050215 0.0085850697         3970 
 3745000   0.66951714    -9.535924    450.91366  0.010033682 0.0085811896         3964 
 3746000   0.65273534   -9.5173654    452.18619  0.010059312 0.0085773135         3952 
 3747000   0.66546541   -9.5410952    451.19082   0.01003449 0.0085734402         3957 
 3748000   0.65671681   -9.5264074    452.42554  0.010059266 0.0085695665         3954 
 3749000   0.65683256   -9.5500976    451.49109  0.010035811 0.0085656936         3956 
 3750000    0.6410202   -9.5188404    451.28936  0.010028653 0.0085618275         3963 
 3751000   0.65690874   -9.5209307    452.01849  0.010042178 0.0085579644         3965 
 3752000   0.65565214   -9.5248385    452.25194  0.010044686 0.0085541002         3961 
 3753000    0.6531711   -9.5215046    451.43731  0.010023921 0.0085502382         3965 
 3754000   0.67123365   -9.5321343    451.04607  0.010012566 0.0085463781         3948 
 3755000   0.64532094   -9.5406722    450.84309  0.010005395 0.0085425173         3964 
 3756000   0.65065478   -9.5359356     451.3002  0.010012873 0.0085386611         3959 
 3757000   0.65673828   -9.5392891    451.91571   0.01002386 0.0085348071         3955 
 3758000   0.64731561   -9.5297405    451.91903  0.010021266 0.0085309549         3951 
 3759000   0.64354539   -9.5512561    451.81516  0.010016298 0.0085271037         3967 
 3760000   0.64616203   -9.5296055    451.82196  0.010013785 0.0085232572         3962 
 3761000   0.65371173   -9.5404346    451.01371 0.0099932134 0.0085194143         3964 
 3762000   0.64922935   -9.5175764    451.04692 0.0099912927 0.0085155744         3960 
 3763000   0.65852266   -9.5394422    451.92287  0.010008036 0.0085117336         3960 
 3764000   0.64996971   -9.5236677    451.46782 0.0099953024 0.0085079006         3966 
 3765000   0.64640361   -9.5417828    451.38306 0.0099907715 0.0085040676         3963 
 3766000   0.65951747   -9.5424398    451.52114  0.009991174 0.0085002384         3960 
 3767000   0.64186438   -9.5345044    451.34008 0.0099845165 0.0084964102         3967 
 3768000   0.65641962   -9.5665925    451.29508 0.0099808713 0.0084925828         3962 
 3769000   0.65425515    -9.529413    451.87187 0.0099909763 0.0084887577         3960 
 3770000   0.65399875   -9.5619669    451.14656 0.0099722936 0.0084849346         3955 
 3771000   0.65169285   -9.5400701    451.05146 0.0099675476  0.008481114         3956 
 3772000   0.64100836    -9.536942    450.89505 0.0099614495 0.0084773004         3962 
 3773000   0.62553594     -9.53477    451.05095 0.0099622527  0.008473488         3964 
 3774000   0.64587119   -9.5524369    451.53247 0.0099702454 0.0084696725         3958 
 3775000   0.64256991     -9.54462    451.65081 0.0099702166 0.0084658606         3965 
 3776000   0.63638351   -9.5298607    451.52348 0.0099647661 0.0084620496         3968 
 3777000   0.64871308   -9.5377092    450.44261 0.0099382802 0.0084582404         3960 
 3778000   0.63607387   -9.5340715    451.65383 0.0099623661 0.0084544409         3964 
 3779000   0.64118102   -9.5445966    451.71236 0.0099610205 0.0084506377         3968 
 3780000   0.65255906   -9.5288739      451.602 0.0099559524 0.0084468385         3960 
 3781000   0.65111699   -9.5344233    451.99459 0.0099619719 0.0084430432         3943 
 3782000   0.63483118   -9.5181315    451.95211 0.0099584018  0.008439246         3958 
 3783000   0.63358265   -9.5464879    451.07298 0.0099364037 0.0084354536         3964 
 3784000    0.6474043   -9.5448947    451.25771 0.0099378461 0.0084316625         3959 
 3785000   0.65356304   -9.5080019    450.99261 0.0099293837 0.0084278764         3958 
 3786000   0.62920185   -9.5244138    451.33241 0.0099342403 0.0084240902         3949 
 3787000   0.64659993   -9.5281073    452.67805  0.009961228 0.0084203087         3952 
 3788000   0.65678207   -9.5337284    451.31413 0.0099285933 0.0084165275         3958 
 3789000     0.637098   -9.5349061    450.70296 0.0099125309 0.0084127466         3955 
 3790000   0.64805866   -9.5336455    451.22835 0.0099214678 0.0084089707         3970 
 3791000   0.64947719   -9.5373146     451.7274 0.0099298206 0.0084051952         3964 
 3792000   0.64200389   -9.5276384    451.83427 0.0099295506 0.0084014213         3967 
 3793000    0.6321445   -9.5316332    452.05592 0.0099318024 0.0083976528         3961 
 3794000   0.64378516   -9.5451462    450.92982 0.0099044504 0.0083938857         3961 
 3795000   0.65851604   -9.5251461     451.8323 0.0099216578 0.0083901213         3950 
 3796000   0.65426921    -9.551857    451.43904 0.0099104111 0.0083863587         3970 
 3797000   0.64428408   -9.5477623    450.88801 0.0098957073 0.0083825979         3967 
 3798000   0.64389684   -9.5587089    451.35822 0.0099034189 0.0083788419         3969 
 3799000   0.64386165   -9.5267857    450.67022 0.0098857204 0.0083750857         3952 
 3800000   0.65228723   -9.5454953    451.32175 0.0098974067 0.0083713304         3955 
 3801000   0.65598977   -9.5552199    450.69481 0.0098810578 0.0083675787         3960 
 3802000    0.6554663   -9.5411898     451.6754 0.0098999518 0.0083638286         3954 
 3803000   0.63361936   -9.5500477     450.2283  0.009865639 0.0083600786         3958 
 3804000   0.63441245   -9.5301333    451.17101 0.0098836972 0.0083563329         3959 
 3805000   0.64402032     -9.54648    450.66444 0.0098700052 0.0083525901         3960 
 3806000   0.65250698   -9.5355448    451.31438 0.0098816426 0.0083488512         3971 
 3807000   0.64421458   -9.5437008    450.35931 0.0098581409 0.0083451098         3965 
 3808000   0.61687143   -9.5448094    451.36051 0.0098774621 0.0083413712         3960 
 3809000   0.64192257   -9.5635833    451.68528 0.0098819743 0.0083376369         3968 
 3810000   0.64780887   -9.5450564    451.16963 0.0098681021 0.0083339075         3958 
 3811000   0.65515922     -9.54425    451.51885  0.009873149 0.0083301754         3965 
 3812000   0.63066776   -9.5509043    451.14312 0.0098623452 0.0083264478         3957 
 3813000   0.63657647   -9.5488795    451.54807  0.009868609 0.0083227209         3973 
 3814000   0.61829923   -9.5731501    449.91558 0.0098303526 0.0083189943         3958 
 3815000    0.6440228   -9.5445935    451.34727 0.0098590492   0.00831527         3973 
 3816000   0.62522336   -9.5553808    450.47318 0.0098373772  0.008311548         3956 
 3817000   0.63161549   -9.5421279    451.89893 0.0098659273 0.0083078331         3956 
 3818000   0.64552597   -9.5430666    451.83236 0.0098618902 0.0083041185         3953 
 3819000   0.64160366   -9.5458843    450.71114 0.0098348419 0.0083004027         3956 
 3820000   0.65255502   -9.5470725    451.20693 0.0098430831 0.0082966927         3953 
 3821000    0.6411817    -9.544378     450.8505 0.0098327335 0.0082929881         3962 
 3822000   0.64716117   -9.5596098    451.90706 0.0098531978  0.008289284         3953 
 3823000     0.623423   -9.5321782     451.3615 0.0098387283 0.0082855812         3962 
 3824000   0.62397778   -9.5527278    451.56034 0.0098404887 0.0082818795         3953 
 3825000   0.63628516   -9.5524027    451.42219  0.009834906 0.0082781814         3953 
 3826000   0.64490104   -9.5453638    450.61337 0.0098147189 0.0082744867         3952 
 3827000   0.64528596   -9.5730995    451.98068 0.0098419275 0.0082707943         3962 
 3828000   0.65252509   -9.5571898    452.00285  0.009839839 0.0082670997         3963 
 3829000   0.65878417   -9.5136313    452.08806 0.0098391237 0.0082634111         3945 
 3830000   0.63729983   -9.5411168    451.33847 0.0098202453 0.0082597247         3952 
 3831000   0.63327105   -9.5600667    451.73694 0.0098263496 0.0082560421         3956 
 3832000   0.64050017   -9.5457815    451.05534 0.0098089627 0.0082523605         3965 
 3833000   0.65142839   -9.5401998    451.23175  0.009810239 0.0082486811         3955 
 3834000   0.65136652   -9.5377261    451.75654 0.0098190867 0.0082450056         3965 
 3835000   0.63271775   -9.5545046    450.63187 0.0097920877 0.0082413279         3964 
 3836000   0.63236454   -9.5708905    451.06865 0.0097990235 0.0082376518         3956 
 3837000   0.62522206   -9.5531873    451.16482 0.0097985584 0.0082339781         3958 
 3838000   0.62380043   -9.5675208    451.32633 0.0097995121 0.0082303086         3969 
 3839000   0.62873442   -9.5620975     451.4152 0.0097988885   0.00822664         3950 
 3840000   0.62322188   -9.5574238    451.50255 0.0097982325 0.0082229735         3949 
 3841000   0.62092589    -9.563227    451.40762  0.009793622 0.0082193118         3956 
 3842000   0.63368312   -9.5544491    451.59612 0.0097951615 0.0082156478         3955 
 3843000   0.64159442   -9.6025869    451.14835 0.0097829029  0.008211987         3961 
 3844000   0.63807776   -9.5679748    451.50294 0.0097880449 0.0082083263         3967 
 3845000   0.64955781   -9.5531253     451.3181 0.0097814932 0.0082046748         3964 
 3846000   0.63909073   -9.5535139    450.86273 0.0097690833 0.0082010214         3962 
 3847000   0.62832311   -9.5596964    450.90611 0.0097674836 0.0081973691         3955 
 3848000   0.63774835   -9.5652672    451.02099  0.009767433 0.0081937225         3966 
 3849000   0.63204366    -9.578928    450.80933 0.0097603128 0.0081900792         3953 
 3850000   0.63668061   -9.5542169     451.3445 0.0097693615 0.0081864351         3955 
 3851000   0.65051256   -9.5482021    451.37927  0.009767577 0.0081827942         3961 
 3852000   0.62916006   -9.5570631    451.21493  0.009761486  0.008179156         3959 
 3853000   0.64262725   -9.5421776     450.6832 0.0097474523 0.0081755161         3964 
 3854000   0.61723801   -9.5675085    451.01497 0.0097520967 0.0081718852         3957 
 3855000     0.634706   -9.5604306    451.35074 0.0097568254 0.0081682518         3967 
 3856000   0.63056647   -9.5764132    451.17039 0.0097503975 0.0081646192         3955 
 3857000   0.62802007   -9.5667054    451.19297 0.0097483574 0.0081609912         3958 
 3858000   0.64784303    -9.552329    451.46666 0.0097517424  0.008157365         3949 
 3859000   0.62568135    -9.570118    451.23549 0.0097442233 0.0081537409         3959 
 3860000   0.64946217   -9.5546703    450.31827  0.009721897 0.0081501168         3956 
 3861000   0.63954219     -9.55758    451.10512 0.0097363619 0.0081464957         3958 
 3862000   0.64319772   -9.5692791    450.72614 0.0097256634 0.0081428753         3963 
 3863000   0.64346195   -9.5359105    451.70867  0.009744341  0.008139262         3964 
 3864000   0.62927959   -9.5568868    451.15549 0.0097298889 0.0081356489         3964 
 3865000   0.62272522    -9.566341    450.65631 0.0097166086 0.0081320383         3949 
 3866000   0.62381956   -9.5573909    450.13438 0.0097028448 0.0081284259         3957 
 3867000   0.64176927   -9.5410842    452.00271  0.009740598 0.0081248212         3969 
 3868000   0.62184933   -9.5724982    451.09017 0.0097184198 0.0081212166         3960 
 3869000   0.61837379   -9.5562198    450.97898 0.0097135129 0.0081176123         3968 
 3870000   0.63097431   -9.5532031    451.73637  0.009727312  0.008114014         3958 
 3871000   0.63858403   -9.5616019    450.97362  0.009708379 0.0081104148         3946 
 3872000   0.63650247   -9.5557971    451.63596 0.0097201266 0.0081068181         3966 
 3873000   0.64340255   -9.5657053    450.68004 0.0096970487 0.0081032228         3956 
 3874000   0.63183541    -9.537927    450.65964 0.0096941069 0.0080996296         3954 
 3875000   0.63421731   -9.5763391    450.85019 0.0096957031 0.0080960384         3955 
 3876000   0.62960175   -9.5771529     451.9558  0.009716972 0.0080924514         3952 
 3877000   0.63495251   -9.5550059    451.23274 0.0096989239  0.008088863         3962 
 3878000   0.64436926   -9.5327557     450.7966 0.0096870509 0.0080852797         3952 
 3879000   0.64043204   -9.5561963    451.41096  0.009697752 0.0080817009         3966 
 3880000   0.63680185   -9.5510153    451.95915 0.0097070264 0.0080781202         3951 
 3881000   0.63300941   -9.5586242    451.26074 0.0096895289 0.0080745446         3956 
 3882000   0.62892031   -9.5455685    451.53672 0.0096929573 0.0080709671         3967 
 3883000   0.61888844   -9.5721423    450.36063 0.0096652209 0.0080673919         3945 
 3884000   0.62227581   -9.5527849     451.3862 0.0096847365 0.0080638194         3945 
 3885000   0.61834162   -9.5628341    450.72494 0.0096680596 0.0080602496         3946 
 3886000   0.62016998   -9.5560899    451.06399 0.0096728425 0.0080566837         3948 
 3887000   0.64750832   -9.5501102    451.46794 0.0096790142   0.00805312         3963 
 3888000   0.63057178   -9.5522895    449.83087 0.0096414367 0.0080495563         3953 
 3889000   0.63939075   -9.5694142    450.57364 0.0096548736 0.0080459954         3966 
 3890000    0.6287796    -9.563521    451.34946 0.0096690115 0.0080424347         3955 
 3891000   0.61627825   -9.5631769    450.57132 0.0096498612 0.0080388741         3948 
 3892000   0.63769904   -9.5677857    450.41851   0.00964411 0.0080353192         3958 
 3893000   0.62687766   -9.5830364    450.44207 0.0096421369 0.0080317662         3958 
 3894000   0.63630994   -9.5702722    450.51916 0.0096413105 0.0080282136         3944 
 3895000   0.63374378   -9.5599624    450.60558 0.0096406842 0.0080246631         3955 
 3896000   0.63140248   -9.5460142    451.48185 0.0096569527 0.0080211154         3957 
 3897000   0.62612672   -9.5562458    450.53101 0.0096341419 0.0080175703         3945 
 3898000   0.62623312      -9.5656    450.91046 0.0096397823 0.0080140262         3958 
 3899000   0.63090101   -9.5626466    451.73318  0.009654894 0.0080104838         3952 
 3900000   0.63027473   -9.5633976    451.23383 0.0096417485 0.0080069443         3958 
 3901000   0.63864575   -9.5784471    450.49952 0.0096235905 0.0080034085         3950 
 3902000   0.63043508   -9.5781661    450.68679 0.0096251236 0.0079998749         3948 
 3903000   0.63172935   -9.5641435    450.68959 0.0096227174 0.0079963416         3957 
 3904000   0.64000486   -9.6010073    450.78366 0.0096222605 0.0079928114         3953 
 3905000   0.62720241   -9.5872058    451.49397 0.0096349546 0.0079892807         3945 
 3906000   0.63282333   -9.5613691    450.84671 0.0096186788 0.0079857537         3950 
 3907000   0.62638101   -9.5903852    451.09976 0.0096216143 0.0079822308         3949 
 3908000   0.61054082   -9.5653243     450.4784 0.0096059025 0.0079787081         3954 
 3909000   0.61363288   -9.5655029    450.36693 0.0096010688 0.0079751873         3954 
 3910000    0.6252966   -9.5707402    451.28045 0.0096180829 0.0079716701         3951 
 3911000   0.62312787   -9.5932674    450.76158 0.0096045679 0.0079681517         3960 
 3912000   0.62167574   -9.5820974    450.42116 0.0095948611  0.007964635         3954 
 3913000   0.62199506   -9.5703782    450.00285 0.0095835005 0.0079611227         3974 
 3914000   0.62209446   -9.5793639    450.98201 0.0096018994 0.0079576149         3957 
 3915000   0.62776684   -9.5643042    451.02513 0.0096003646 0.0079541083         3951 
 3916000   0.61698978   -9.5663206    450.61627 0.0095892124 0.0079506021         3955 
 3917000    0.6362031    -9.568436    450.49037 0.0095840858 0.0079470972         3956 
 3918000    0.6157399   -9.5649614    450.67282 0.0095855202 0.0079435959         3950 
 3919000   0.61823927   -9.5746337    450.09776 0.0095708462 0.0079400978         3963 
 3920000   0.63451858   -9.5913244    450.76176 0.0095825204 0.0079365979         3956 
 3921000   0.61525816   -9.5796531    449.96839  0.009563215 0.0079331015         3960 
 3922000   0.62137565   -9.5726956    450.77328 0.0095778786  0.007929609         3955 
 3923000   0.62679781   -9.5720744    450.67857 0.0095734254 0.0079261199         3955 
 3924000   0.62236259   -9.5431443    450.63819 0.0095701281 0.0079226287         3955 
 3925000   0.60905778   -9.5580578    450.83783 0.0095719284 0.0079191435         3948 
 3926000    0.6285851   -9.5876529     450.4495 0.0095612476 0.0079156596         3954 
 3927000   0.62329332   -9.5715937    450.59931  0.009561992 0.0079121778         3962 
 3928000   0.62653197   -9.5617133    451.11623 0.0095705242 0.0079086961         3969 
 3929000   0.62432525   -9.5799893    451.06693 0.0095670427 0.0079052185         3970 
 3930000   0.62698089    -9.588157    450.69593 0.0095567415 0.0079017402         3956 
 3931000   0.62108704   -9.5838328     450.4118 0.0095482871 0.0078982639         3960 
 3932000   0.62003519    -9.568382    450.63771 0.0095506467 0.0078947895         3967 
 3933000   0.62215399   -9.5587879    450.20494 0.0095390486 0.0078913209         3961 
 3934000   0.62226175   -9.5766265    450.74559 0.0095480765 0.0078878506         3955 
 3935000   0.61411665   -9.5674379    450.43335 0.0095390375 0.0078843839         3957 
 3936000   0.62381377   -9.5624018    450.67079 0.0095416411 0.0078809176         3955 
 3937000   0.60519722   -9.5814838    450.72041 0.0095402677 0.0078774536         3969 
 3938000   0.61701436    -9.558204    450.49083 0.0095329869 0.0078739926         3949 
 3939000   0.62458656   -9.5734917    449.85266 0.0095170658 0.0078705352         3957 
 3940000   0.61577529   -9.5697532    450.80175 0.0095347239 0.0078670811         3958 
 3941000   0.62158434   -9.5764763    450.56669 0.0095273341 0.0078636254         3945 
 3942000   0.61661815   -9.5845305    450.39919 0.0095213764 0.0078601747         3951 
 3943000   0.62932226    -9.582746    451.48637 0.0095419386  0.007856724         3964 
 3944000   0.62033881   -9.5773408    449.84484 0.0095048352 0.0078532757         3940 
 3945000     0.613316   -9.5924663    450.29055 0.0095118409 0.0078498286         3955 
 3946000   0.62911464   -9.5841038    450.56272 0.0095151783 0.0078463832         3947 
 3947000   0.63512689   -9.5691966    450.60987  0.009513763 0.0078429429         3949 
 3948000   0.62683944   -9.5918124    451.37886 0.0095275849 0.0078395049         3951 
 3949000   0.61580022   -9.5916324     450.3801  0.009504096  0.007836067         3953 
 3950000   0.61819941   -9.5822779    451.20593 0.0095191125 0.0078326348         3953 
 3951000   0.62930908   -9.5888652    450.12186 0.0094938384 0.0078292045         3962 
 3952000   0.62223874    -9.583139    451.55032 0.0095215571 0.0078257746         3965 
 3953000   0.61943526   -9.5663872    450.77006 0.0095026997 0.0078223499         3958 
 3954000    0.6174108   -9.5703737    450.09126 0.0094859901 0.0078189212         3959 
 3955000   0.62107653   -9.5829384    450.01844 0.0094820572 0.0078154971         3959 
 3956000   0.62146644   -9.5899099    450.48406 0.0094894686 0.0078120771         3956 
 3957000   0.62278962   -9.5832384    450.43367 0.0094860093 0.0078086559         3951 
 3958000   0.62948058    -9.582836     450.3129   0.00948107  0.007805237         3966 
 3959000   0.61478453   -9.5975771    451.31929 0.0094998587 0.0078018207         3958 
 3960000   0.62247893   -9.5720594    450.49387 0.0094800899 0.0077984051         3956 
 3961000   0.61881427   -9.5886619    450.34745 0.0094746161 0.0077949929         3955 
 3962000   0.62113611   -9.5656903    449.78815 0.0094604608 0.0077915848         3970 
 3963000   0.60760013    -9.593546    450.05409 0.0094636658 0.0077881755         3963 
 3964000   0.63518009   -9.5710543    450.21943 0.0094647542 0.0077847687         3961 
 3965000   0.62861085   -9.5852604    450.04034 0.0094586032 0.0077813651         3952 
 3966000   0.60851595    -9.584121    450.79988 0.0094721777 0.0077779599         3955 
 3967000   0.62583064   -9.5744705     450.5852 0.0094652801 0.0077745606         3943 
 3968000   0.61560199   -9.5831904     450.7693 0.0094667612 0.0077711651         3963 
 3969000   0.59718567   -9.5898774    450.61716 0.0094611816 0.0077677652         3955 
 3970000    0.6182432   -9.5920138     450.2835 0.0094517946 0.0077643708         3951 
 3971000   0.62223129   -9.5908006    450.35409 0.0094508958 0.0077609788         3963 
 3972000   0.61432704   -9.6019951    449.80042 0.0094369004  0.007757587         3956 
 3973000   0.60152181   -9.5818438    450.64973 0.0094523394  0.007754199         3954 
 3974000    0.6161458   -9.5928162    449.89652 0.0094341663 0.0077508129         3959 
 3975000   0.62103045   -9.5872941    450.26515  0.009439521 0.0077474275         3961 
 3976000   0.63406461   -9.5885603    450.94658  0.009451429 0.0077440451         3950 
 3977000   0.61766915    -9.594935     450.5652 0.0094410612  0.007740663         3946 
 3978000   0.61366756   -9.5821902    450.25087 0.0094321029 0.0077372826         3957 
 3979000   0.61518611   -9.5777563    450.43865 0.0094336654 0.0077339032         3952 
 3980000   0.61516243   -9.5981429    450.41222 0.0094307416 0.0077305233         3954 
 3981000   0.60685255   -9.5761941    450.85963 0.0094377381 0.0077271511         3961 
 3982000   0.61369123   -9.5964273    450.04227 0.0094182628 0.0077237773         3958 
 3983000   0.60277363   -9.5903784    450.57392 0.0094270215 0.0077204049         3960 
 3984000   0.61332629   -9.5829955    449.96658 0.0094119516 0.0077170371         3956 
 3985000   0.60978767   -9.6067905     449.7969 0.0094060414 0.0077136711         3954 
 3986000   0.59854362   -9.5690378    451.14634 0.0094318938  0.007710307         3954 
 3987000   0.60915279   -9.5758948    451.00362 0.0094265451 0.0077069473         3954 
 3988000   0.61200665   -9.5956499    450.92851 0.0094226118 0.0077035908         3955 
 3989000   0.61877102   -9.5881579    450.18378 0.0094046917 0.0077002327         3954 
 3990000   0.61261905   -9.5939055    450.59907 0.0094110081 0.0076968766         3965 
 3991000   0.60611866   -9.6062907    449.77932 0.0093915334 0.0076935247         3963 
 3992000    0.6133254   -9.6022911    450.66426  0.009407654 0.0076901751         3948 
 3993000   0.61378672   -9.5806084      450.635 0.0094046874  0.007686825         3966 
 3994000   0.60342508   -9.6019038    449.19433 0.0093722736 0.0076834772         3958 
 3995000   0.61574567   -9.5974372    450.59124 0.0093990664 0.0076801342         3966 
 3996000   0.60404138    -9.608218    450.25633   0.00938973 0.0076767926         3964 
 3997000   0.60391577   -9.5757247    451.33748 0.0094099216 0.0076734499         3954 
 3998000   0.60143766   -9.5963567    450.00864 0.0093798699  0.007670111         3964 
 3999000    0.6135711   -9.5991253    450.61534 0.0093901671 0.0076667742         3961 
 4000000   0.61010498   -9.5957922    450.81596 0.0093919992 0.0076634418         3955 
 4001000   0.62520461   -9.5858469    450.19265 0.0093766694 0.0076601088         3947 
 4002000   0.61705085   -9.5895195    450.67089 0.0093842847  0.007656782         3947 
 4003000   0.62181119   -9.5941318    450.72572 0.0093830819 0.0076534564         3961 
 4004000   0.61899677   -9.5923266     449.6412 0.0093581668 0.0076501306         3964 
 4005000   0.61134225   -9.5722822    450.80326 0.0093800096 0.0076468072         3959 
 4006000   0.61318485   -9.5940363     449.7037 0.0093547949 0.0076434873         3961 
 4007000    0.6098064   -9.5929341     450.0975 0.0093606501 0.0076401677         3953 
 4008000   0.60829822   -9.5818563    450.84487 0.0093738538 0.0076368486         3946 
 4009000   0.61520837   -9.5813967    450.37124 0.0093616704 0.0076335323         3956 
 4010000   0.60273068   -9.6001852     450.2128 0.0093560432 0.0076302182         3948 
 4011000   0.60579419   -9.6060493    449.57545 0.0093404688 0.0076269031         3955 
 4012000   0.60318633   -9.5935191    450.02678 0.0093475155 0.0076235908         3952 
 4013000   0.61596536   -9.5992372    449.78873 0.0093402428 0.0076202823         3953 
 4014000   0.62783268   -9.5721719      450.663 0.0093560663 0.0076169755         3961 
 4015000   0.60982678    -9.599747    450.03942 0.0093407932 0.0076136728         3952 
 4016000   0.61944725   -9.6081805    449.30803 0.0093232908 0.0076103661         3953 
 4017000   0.60609036   -9.6054312    450.40308 0.0093436868 0.0076070641         3962 
 4018000   0.60807674   -9.6097727    449.90436 0.0093310179 0.0076037656         3950 
 4019000   0.61523785   -9.5968348     449.4832 0.0093199634 0.0076004664         3958 
 4020000   0.60774219   -9.6060724    449.37586 0.0093154199 0.0075971711         3962 
 4021000   0.59986671   -9.5941105    450.28919 0.0093320317 0.0075938745         3964 
 4022000   0.59519893   -9.5905899    450.37988 0.0093315905 0.0075905836         3942 
 4023000   0.61534035     -9.60481    449.49009 0.0093108396 0.0075872922         3962 
 4024000   0.61877995   -9.5848699    450.16838 0.0093225726 0.0075840038         3951 
 4025000   0.62426776   -9.5977905    449.47929 0.0093059895 0.0075807177         3958 
 4026000    0.6106134    -9.602241    449.93451 0.0093131005 0.0075774326         3956 
 4027000   0.60561963   -9.6021677    450.75767 0.0093278219 0.0075741494         3949 
 4028000   0.60844244   -9.5836315    449.99769 0.0093097834 0.0075708685         3946 
 4029000    0.6011668      -9.6182    449.52067 0.0092976063 0.0075675875         3966 
 4030000   0.60255497   -9.6138258    450.12386 0.0093077721 0.0075643081         3977 
 4031000   0.58789904   -9.6006932    450.53507  0.009313964 0.0075610351         3966 
 4032000   0.59877269   -9.5955917     450.1947 0.0093046192 0.0075577609         3941 
 4033000   0.59914365   -9.6072782    450.70996 0.0093129589 0.0075544872         3955 
 4034000   0.61215666   -9.6078174      449.815 0.0092921624 0.0075512171         3958 
 4035000   0.59976683   -9.5833855    449.97442  0.009293152 0.0075479504         3956 
 4036000   0.60080865   -9.6108931    450.30212 0.0092976156 0.0075446851         3958 
 4037000   0.61391248   -9.6021304    449.79911 0.0092849291  0.007541422         3953 
 4038000   0.59798402   -9.6026272    449.83448 0.0092833597 0.0075381627         3958 
 4039000   0.59635313   -9.6058964    449.87128 0.0092818206 0.0075349037         3959 
 4040000   0.61566418   -9.6211355    449.58578  0.009273634 0.0075316478         3969 
 4041000   0.60683343   -9.6074237    450.84017 0.0092972071 0.0075283929         3956 
 4042000   0.60562121   -9.6088773    449.91724  0.009275879 0.0075251414         3955 
 4043000   0.58392719   -9.6140979    449.27427  0.009260332 0.0075218889         3961 
 4044000   0.59897766   -9.5873371    449.91065 0.0092711557 0.0075186373         3949 
 4045000   0.59998511   -9.6016924    449.61925 0.0092628606 0.0075153882         3953 
 4046000   0.59999862   -9.6259384    450.80284  0.009284949 0.0075121421         3955 
 4047000   0.60345094   -9.5835894    450.81074 0.0092828174 0.0075088992         3958 
 4048000   0.59847119   -9.6021365    450.17954   0.00926753  0.007505658         3953 
 4049000   0.60820343   -9.5975024    450.69281 0.0092758049 0.0075024194         3964 
 4050000     0.614659   -9.5899511    449.80942 0.0092553379  0.007499181         3959 
 4051000    0.6062228   -9.6107172    450.04508 0.0092579009 0.0074959458         3952 
 4052000     0.605104   -9.5942586    449.98346  0.009254349 0.0074927124         3964 
 4053000   0.60855271   -9.6039515    449.71112  0.009246466 0.0074894773         3960 
 4054000     0.601884   -9.6138117    449.73166 0.0092446073 0.0074862473         3955 
 4055000   0.61041201   -9.6227632    450.02982 0.0092484549  0.007483016         3961 
 4056000   0.60133804   -9.5958079    450.25254 0.0092507506 0.0074797903         3949 
 4057000   0.59124355   -9.5994145    450.33693  0.009250204 0.0074765663         3964 
 4058000   0.59621998   -9.6105734    449.71964  0.009235248 0.0074733439         3949 
 4059000   0.60476922   -9.6016751    449.40709 0.0092265559  0.007470123         3959 
 4060000   0.59693343   -9.6125595    449.71423 0.0092305876 0.0074669038         3957 
 4061000   0.59676964   -9.5878452    450.66707 0.0092478674 0.0074636897         3952 
 4062000   0.60339096   -9.5970601     449.6376 0.0092244707 0.0074604717         3949 
 4063000   0.61047172   -9.6120313    450.05415 0.0092307439 0.0074572592         3957 
 4064000    0.5962756   -9.5954676    450.02673 0.0092279103 0.0074540494         3956 
 4065000    0.6027994   -9.6080571    450.60184   0.00923743  0.007450839         3958 
 4066000   0.59796902   -9.6148406    449.13517 0.0092050986  0.007447632         3958 
 4067000   0.60357715   -9.6024455    449.89826  0.009218471 0.0074444237         3952 
 4068000   0.60989174   -9.6077922    449.72134 0.0092125808 0.0074412212         3960 
 4069000    0.6057172   -9.6022606    449.94283 0.0092148526 0.0074380182         3961 
 4070000   0.60872639   -9.6098509    450.22465  0.009218359 0.0074348186         3962 
 4071000    0.5815605   -9.6107715    449.69848 0.0092053238 0.0074316192         3957 
 4072000   0.61245491    -9.616481    449.21987 0.0091932685 0.0074284225         3967 
 4073000   0.58992925   -9.6126229    449.80679 0.0092030197 0.0074252283         3961 
 4074000   0.60726243    -9.601677    450.43982 0.0092137093 0.0074220378         3959 
 4075000   0.59197681   -9.6072035    450.37276 0.0092100768 0.0074188484         3949 
 4076000   0.59251913   -9.6174648    449.85317 0.0091971943 0.0074156596         3959 
 4077000   0.59622091   -9.6055459     451.1986 0.0092224389 0.0074124709         3959 
 4078000   0.58554456   -9.6159508    450.51285 0.0092061642 0.0074092863         3965 
 4079000   0.60058908   -9.6092358    449.80412 0.0091894279 0.0074061023         3959 
 4080000   0.60754677   -9.6282864    448.90609 0.0091688336 0.0074029205         3962 
 4081000   0.58566251   -9.6208382    449.25125 0.0091736349  0.007399737         3968 
 4082000   0.60415731   -9.6115424    449.16095 0.0091695441 0.0073965575         3966 
 4083000   0.61274372   -9.6192569    450.05488 0.0091855433 0.0073933787         3959 
 4084000   0.60251939   -9.6091109    450.27623 0.0091878107 0.0073902055         3963 
 4085000   0.59870357   -9.6131016    449.90931 0.0091780765 0.0073870319         3966 
 4086000   0.59940862    -9.607958    449.73067  0.009172187 0.0073838646         3956 
 4087000   0.59725393   -9.5852407    449.68053 0.0091689203 0.0073806921         3950 
 4088000   0.58984417   -9.6206233    450.81938 0.0091898928 0.0073775257         3944 
 4089000   0.58455187   -9.5947794    450.21887 0.0091754069 0.0073743637         3953 
 4090000   0.59291555    -9.623057     450.4201 0.0091772636 0.0073712027         3954 
 4091000   0.60600573   -9.6151832    449.53041 0.0091568975   0.00736804         3949 
 4092000   0.60118612   -9.6218692    449.98035 0.0091638227 0.0073648813         3963 
 4093000    0.5925355    -9.627724    449.75652 0.0091570266 0.0073617236         3953 
 4094000   0.60175375    -9.616649    449.78152 0.0091552988 0.0073585672         3954 
 4095000    0.5991349   -9.6371929     450.0773 0.0091590822 0.0073554129         3954 
 4096000   0.60860324   -9.5992535     450.7085 0.0091696878 0.0073522617         3965 
 4097000   0.57490466   -9.6155276    450.05017 0.0091540592 0.0073491121         3958 
 4098000    0.5903386   -9.6339237    449.47824 0.0091401952 0.0073459629         3964 
 4099000   0.57621952   -9.6126504    449.23854 0.0091330923 0.0073428152         3957 
 4100000   0.59808882   -9.6107032    449.43776 0.0091349138  0.007339671         3962 
 4101000   0.60804103   -9.6236332     449.3867 0.0091316487 0.0073365282         3963 
 4102000   0.58912849   -9.6055342    449.97464 0.0091413668 0.0073333882         3959 
 4103000   0.59432954   -9.6068297    449.34639 0.0091263788 0.0073302516         3954 
 4104000   0.59787152   -9.6384925    449.52391 0.0091277598 0.0073271153         3959 
 4105000   0.59427949   -9.6342603    449.98558 0.0091349083   0.00732398         3966 
 4106000   0.59119124   -9.6077174    449.79075 0.0091287293 0.0073208458         3966 
 4107000   0.58322166   -9.6086367    449.66865 0.0091240292 0.0073177155         3963 
 4108000   0.61149686   -9.6067673    450.23863 0.0091333704 0.0073145869         3968 
 4109000   0.58652469   -9.6263091    449.36122 0.0091133532 0.0073114605         3970 
 4110000   0.59233912   -9.6371242    450.06044 0.0091253131 0.0073083327         3942 
 4111000   0.59016291   -9.6029403    449.66979 0.0091151744 0.0073052065         3963 
 4112000   0.59579112   -9.6116611    449.87476 0.0091171118 0.0073020814         3958 
 4113000   0.59423713   -9.6032238    449.24534 0.0091021425 0.0072989589         3949 
 4114000   0.60006182   -9.6338815    450.21793 0.0091196308 0.0072958378         3964 
 4115000   0.59596159   -9.6125335    448.86042 0.0090899235 0.0072927188         3962 
 4116000   0.59874572   -9.6300257    449.26291 0.0090958639 0.0072896036         3963 
 4117000   0.59284064   -9.6234049    449.75623 0.0091036401 0.0072864885         3958 
 4118000   0.58491596   -9.6318393     449.5696 0.0090976525 0.0072833744         3967 
 4119000   0.58022973   -9.6306448     450.0069 0.0091042911 0.0072802644         3958 
 4120000   0.58365089   -9.6301046    449.58045 0.0090934556 0.0072771545         3958 
 4121000   0.59370648   -9.6362481    449.25928 0.0090847546 0.0072740472         3962 
 4122000   0.59370663   -9.6162599    450.05321 0.0090986013 0.0072709446         3958 
 4123000   0.59352847   -9.6145633    449.62983 0.0090878371 0.0072678421         3971 
 4124000   0.58807318   -9.6209388     449.9652 0.0090924103 0.0072647377         3968 
 4125000   0.60324141    -9.611899    449.86291 0.0090881396 0.0072616368         3963 
 4126000     0.586512    -9.618122    450.13047 0.0090913409 0.0072585395         3961 
 4127000    0.5938222   -9.6121671    450.03091 0.0090871277  0.007255445         3954 
 4128000   0.60405792   -9.6225524    449.66448 0.0090775291  0.007252352         3962 
 4129000   0.59349974   -9.6374413    448.85474  0.009058988 0.0072492609         3965 
 4130000    0.5915008   -9.6246658    450.01663 0.0090802388 0.0072461691         3960 
 4131000   0.59249263   -9.6114083    450.06392 0.0090789945 0.0072430793         3967 
 4132000    0.5910734   -9.6416478    449.43768 0.0090641674 0.0072399934         3962 
 4133000   0.59239036   -9.6328935    449.33183 0.0090598401   0.00723691         3962 
 4134000   0.59888034    -9.624174    449.82835 0.0090676574 0.0072338282         3963 
 4135000   0.59011779   -9.6252162    449.18447 0.0090524884 0.0072307471         3957 
 4136000   0.59345919   -9.6173614    448.90958  0.009044761 0.0072276679         3965 
 4137000   0.58017227   -9.6119649    449.47842 0.0090540331 0.0072245882         3956 
 4138000   0.58511244    -9.639257    449.71202 0.0090565494 0.0072215139         3967 
 4139000   0.60090081   -9.6262424    449.30737 0.0090462144 0.0072184378         3960 
 4140000   0.59745819   -9.6217252    449.90393 0.0090560372 0.0072153663         3968 
 4141000   0.59308186   -9.6343334    449.93046 0.0090543842 0.0072122961         3968 
 4142000   0.59541331   -9.6362422    449.97461 0.0090530865 0.0072092261         3962 
 4143000   0.60436621    -9.623454    449.20605 0.0090354422 0.0072061585         3956 
 4144000   0.59650374    -9.622694    450.11861 0.0090516129  0.007203094         3972 
 4145000   0.57743223    -9.621388    450.08164  0.009048686 0.0072000289         3960 
 4146000   0.58956941   -9.6358113    450.51387 0.0090551912 0.0071969662         3957 
 4147000   0.58885881   -9.6097164    450.24627 0.0090476302 0.0071939046         3965 
 4148000    0.5773749   -9.6337866    449.48643 0.0090301837 0.0071908469         3967 
 4149000   0.59089715   -9.6428676    449.46915 0.0090276603 0.0071877893         3962 
 4150000   0.59010599   -9.6275642    448.90213 0.0090140991 0.0071847318         3963 
 4151000   0.59167843   -9.6379948    449.48527 0.0090236343 0.0071816771         3958 
 4152000   0.59221431   -9.6405586    449.12325 0.0090141949 0.0071786231         3952 
 4153000   0.57837321   -9.6187102    449.96042 0.0090288229 0.0071755721         3963 
 4154000   0.57921587   -9.6266822    449.67819 0.0090209876 0.0071725206         3959 
 4155000   0.58232205   -9.6171897    449.41418 0.0090135215 0.0071694727         3970 
 4156000   0.60160631   -9.6248409    450.06046 0.0090243115 0.0071664275         3963 
 4157000    0.5763431    -9.631677    449.38104 0.0090085206 0.0071633838         3958 
 4158000   0.57338245   -9.6408651    448.94024 0.0089975197 0.0071603397         3972 
 4159000    0.5864822   -9.6055569    450.42673 0.0090251408 0.0071573002         3973 
 4160000   0.58839397   -9.6333958    449.10351 0.0089964646 0.0071542622         3951 
 4161000   0.59034116   -9.6241576    448.91772 0.0089905816 0.0071512257         3957 
 4162000    0.5854553   -9.6212393    449.32792 0.0089966346 0.0071481921         3971 
 4163000    0.5928465   -9.6397102    449.45636 0.0089970445  0.007145158         3969 
 4164000   0.57219525   -9.6270175     450.3254 0.0090122759 0.0071421276         3964 
 4165000   0.58586753   -9.6282205    449.60429  0.008995684 0.0071390978         3960 
 4166000   0.57952416    -9.630985    449.41087 0.0089896556 0.0071360712         3963 
 4167000   0.59108638   -9.6141513     449.7116 0.0089935126 0.0071330466         3972 
 4168000   0.58208958   -9.6337726    449.13501 0.0089798266 0.0071300235         3958 
 4169000   0.59853666   -9.6267923    448.97819 0.0089745381 0.0071270012         3963 
 4170000   0.58644895   -9.6152547     449.5507 0.0089838269 0.0071239811         3969 
 4171000   0.58474655   -9.6157245    449.85044 0.0089876616 0.0071209612         3963 
 4172000    0.5797908   -9.6396287    449.42811 0.0089770715 0.0071179432         3963 
 4173000   0.58727175   -9.6237996    450.48206 0.0089959674 0.0071149286         3962 
 4174000   0.59673605   -9.6343861    449.53737 0.0089749515 0.0071119149         3971 
 4175000   0.58167171   -9.6168102    449.45017 0.0089710613 0.0071089013         3962 
 4176000   0.58590646   -9.6429655    448.89266 0.0089577878 0.0071058898         3970 
 4177000   0.58060736   -9.6274997    448.74849 0.0089527668 0.0071028823         3959 
 4178000   0.59325424   -9.6517311    449.10597 0.0089577544 0.0070998785         3949 
 4179000   0.57905925   -9.6416232    449.70916  0.008967639 0.0070968757         3963 
 4180000   0.58300275   -9.6371974    449.19227 0.0089551889 0.0070938733         3961 
 4181000   0.58958384    -9.608361     449.5654 0.0089604839 0.0070908726         3958 
 4182000   0.57176092   -9.6432931    450.12358  0.008969464 0.0070878723         3963 
 4183000   0.57820494   -9.6369122    448.84372 0.0089418224 0.0070848739         3963 
 4184000    0.5906906   -9.6450643    449.58615 0.0089544724 0.0070818783         3966 
 4185000   0.57431105   -9.6261273    449.42201 0.0089490644 0.0070788838         3973 
 4186000   0.57661501   -9.6555686    448.81623 0.0089348669 0.0070758902         3966 
 4187000   0.57856676   -9.6337855    449.10962 0.0089385722 0.0070729008         3967 
 4188000   0.57941249   -9.6548578    449.67494 0.0089476866 0.0070699124         3964 
 4189000   0.57353479   -9.6322937    448.94723  0.008931074 0.0070669244         3964 
 4190000   0.58341635   -9.6328837    448.93695 0.0089287382 0.0070639385         3953 
 4191000   0.57275147   -9.6301929    449.63079 0.0089404038 0.0070609561         3974 
 4192000    0.5882018   -9.6310147    449.04545  0.008926635 0.0070579749         3963 
 4193000   0.58166215   -9.6372299    449.95052 0.0089424939 0.0070549968         3958 
 4194000   0.57640778   -9.6394605    448.75939 0.0089166942 0.0070520194         3960 
 4195000   0.58211154   -9.6495004    449.25299  0.008924374 0.0070490407         3973 
 4196000   0.58079433   -9.6310968    449.20493 0.0089212927  0.007046065         3967 
 4197000    0.5829943   -9.6233631    448.67241 0.0089085935 0.0070430915         3958 
 4198000   0.57973122    -9.637696    448.87318 0.0089104569 0.0070401218         3970 
 4199000   0.58332909   -9.6372979    449.83639 0.0089274508   0.00703715         3970 
 4200000   0.58467356   -9.6549532    449.59148 0.0089204659 0.0070341818         3974 
 4201000   0.59263483   -9.6540838    448.83148 0.0089032667 0.0070312155         3972 
 4202000   0.57351388   -9.6355615    449.11345 0.0089067398 0.0070282532         3969 
 4203000   0.55795275   -9.6309986    449.52386 0.0089127579 0.0070252927         3975 
 4204000   0.59090901   -9.6516602    449.21336 0.0089044831 0.0070223309         3962 
 4205000   0.58100762   -9.6281315    449.24118 0.0089029168 0.0070193701         3965 
 4206000   0.58443157   -9.6414942    449.70095 0.0089099094 0.0070164129         3973 
 4207000   0.57365393   -9.6529467     448.9814 0.0088935385 0.0070134548         3960 
 4208000   0.56474846   -9.6364898     449.7784 0.0089072085 0.0070105015         3967 
 4209000   0.58703919   -9.6244205    449.99493 0.0089093793 0.0070075472         3962 
 4210000    0.5773536   -9.6368482    448.97907  0.008887155 0.0070045946         3972 
 4211000   0.55725968   -9.6329878    449.57338 0.0088968055 0.0070016433         3976 
 4212000   0.58529706   -9.6574724    449.48821 0.0088930082 0.0069986951         3972 
 4213000   0.57766628   -9.6397403    448.61704 0.0088736656 0.0069957484         3968 
 4214000   0.57832152    -9.635131     448.9068   0.00887729 0.0069928007         3962 
 4215000   0.57430792   -9.6413219    449.52585 0.0088874229 0.0069898584         3975 
 4216000   0.57582412   -9.6323504    449.38895 0.0088826089 0.0069869156         3965 
 4217000   0.59043754   -9.6371647    449.61739 0.0088850168 0.0069839767         3966 
 4218000   0.58643984   -9.6387891    448.69378  0.008864663  0.006981037         3971 
 4219000   0.56984445   -9.6286768    450.05608 0.0088894699 0.0069781018         3969 
 4220000   0.58068128   -9.6494792    449.83095 0.0088829177 0.0069751691         3973 
 4221000   0.57875839   -9.6429072     449.6011 0.0088762754 0.0069722365         3964 
 4222000   0.58701289   -9.6388028    448.95782 0.0088614759 0.0069693053         3965 
 4223000   0.57524778   -9.6424783    449.35729 0.0088672604  0.006966375         3974 
 4224000   0.58695369   -9.6459946    449.18352  0.008861733 0.0069634464         3961 
 4225000   0.57846941   -9.6365993    449.46414 0.0088651705 0.0069605214         3975 
 4226000   0.57623084   -9.6545594    448.67426 0.0088474968 0.0069575951         3969 
 4227000   0.57759803   -9.6379232    448.76057 0.0088471053 0.0069546723         3971 
 4228000   0.57714349   -9.6348775    449.09369 0.0088515786 0.0069517519         3976 
 4229000   0.57567868   -9.6365472    448.64455 0.0088406352 0.0069488316         3970 
 4230000   0.56671984   -9.6397255    449.43167 0.0088540517 0.0069459122         3975 
 4231000   0.56924163   -9.6385194    449.48325 0.0088529751 0.0069429952         3968 
 4232000    0.5772868   -9.6531024    448.91884 0.0088397693 0.0069400819         3967 
 4233000   0.57383119   -9.6609148    448.97281 0.0088387434 0.0069371693         3964 
 4234000   0.58280817   -9.6699496    449.13554 0.0088398587 0.0069342591         3978 
 4235000    0.5731191   -9.6523833    448.59434  0.008827122 0.0069313494         3971 
 4236000   0.58071699   -9.6376334    449.50121 0.0088428787 0.0069284424         3975 
 4237000   0.56656482   -9.6475296     449.7217 0.0088451282 0.0069255353         3975 
 4238000   0.57102527   -9.6426248    449.52023 0.0088390796 0.0069226315         3969 
 4239000   0.57452948   -9.6571895    449.26191 0.0088319161 0.0069197277         3970 
 4240000   0.57407575   -9.6555347     449.7614 0.0088396502 0.0069168255         3972 
 4241000   0.57002899    -9.624617    449.44914 0.0088314302 0.0069139245         3967 
 4242000   0.56371625    -9.650191     448.7757 0.0088161185 0.0069110275         3967 
 4243000   0.57519434   -9.6658131    449.17833 0.0088219484 0.0069081322         3974 
 4244000    0.5771742   -9.6533568    448.90516 0.0088145061 0.0069052356         3966 
 4245000   0.57418619   -9.6456596    449.81618 0.0088303137  0.006902341         3972 
 4246000   0.56733716   -9.6697368    449.48749 0.0088217831 0.0068994497         3970 
 4247000   0.58053837    -9.643669     449.1487 0.0088130583 0.0068965604         3961 
 4248000   0.56878573   -9.6576082    448.72715  0.008802714 0.0068936713         3967 
 4249000   0.56845264   -9.6672689    448.47939 0.0087957831 0.0068907824         3964 
 4250000   0.56288581   -9.6286668    449.17063 0.0088072672 0.0068878984         3962 
 4251000   0.56384587   -9.6644907    448.61339 0.0087942718 0.0068850143         3961 
 4252000   0.56164076    -9.657995    449.22776 0.0088042444 0.0068821314         3964 
 4253000   0.56812285   -9.6568495    448.87549 0.0087952718 0.0068792521         3974 
 4254000   0.56627026   -9.6540888    448.78542 0.0087914398  0.006876375         3967 
 4255000   0.57464309   -9.6480901    448.29637 0.0087797957 0.0068734998         3973 
 4256000   0.58110664   -9.6607486    448.64031 0.0087844672 0.0068706268         3961 
 4257000   0.57325216   -9.6534846    448.69957 0.0087835638 0.0068677553         3972 
 4258000   0.56898808   -9.6589524    448.41921  0.008776014  0.006864883         3978 
 4259000    0.5613767   -9.6652728    448.74485  0.008780325 0.0068620161         3973 
 4260000   0.58239756   -9.6575799    449.36184 0.0087903332 0.0068591499         3965 
 4261000   0.57480191   -9.6615035    448.32979 0.0087680863 0.0068562832         3971 
 4262000   0.56778735   -9.6633667    449.19652 0.0087829759 0.0068534197         3972 
 4263000    0.5695021   -9.6274758    449.29747  0.008782889 0.0068505564         3971 
 4264000   0.57786867   -9.6544949    449.15463 0.0087780376 0.0068476949         3966 
 4265000   0.56580359    -9.661827    448.86005 0.0087702237 0.0068448317         3966 
 4266000   0.56182915   -9.6533187    448.78101 0.0087666238 0.0068419731         3961 
 4267000   0.56717224   -9.6412903    449.55939  0.008779771 0.0068391153         3962 
 4268000    0.5655586   -9.6456024    449.38557   0.00877432 0.0068362597         3956 
 4269000   0.56544822   -9.6514447    449.40384 0.0087726212 0.0068334084         3956 
 4270000   0.57460342   -9.6839029    448.25767 0.0087481982 0.0068305564         3975 
 4271000   0.56377265   -9.6385106    449.33381 0.0087671468 0.0068277043         3970 
 4272000   0.58132982   -9.6601215    449.90249 0.0087761877 0.0068248552         3973 
 4273000   0.56918227   -9.6637151    448.93289 0.0087552244 0.0068220101         3969 
 4274000   0.56678879   -9.6545882     448.7364  0.008749345 0.0068191651         3973 
 4275000   0.56833035   -9.6661128    448.41246 0.0087409837 0.0068163208         3973 
 4276000   0.56650429   -9.6787193    449.11728 0.0087526754 0.0068134766         3966 
 4277000   0.57209247   -9.6705985    448.38292 0.0087363206 0.0068106352         3966 
 4278000   0.57557555    -9.656565    449.46475 0.0087553519 0.0068077959         3968 
 4279000   0.56661532   -9.6596703    448.98687 0.0087439991 0.0068049582         3971 
 4280000   0.56687027   -9.6595418    448.49598 0.0087323984 0.0068021226         3976 
 4281000    0.5698524   -9.6615434    448.83282 0.0087369155 0.0067992882         3964 
 4282000   0.56753519   -9.6474552    449.70814 0.0087519099 0.0067964569         3968 
 4283000    0.5671774   -9.6598239    449.20859 0.0087401469 0.0067936251         3971 
 4284000   0.56252574   -9.6665572    449.14618 0.0087368927 0.0067907943         3969 
 4285000   0.57481938   -9.6596441    448.89389 0.0087299473 0.0067879676         3970 
 4286000   0.56660983   -9.6634922    448.89087 0.0087278517 0.0067851409         3967 
 4287000   0.55715789   -9.6447522    449.45764  0.008736833  0.006782318         3961 
 4288000   0.56550487    -9.653385    448.95483 0.0087250239  0.006779496         3955 
 4289000   0.57831977   -9.6595642    448.43415  0.008712873 0.0067766735         3968 
 4290000   0.56134581   -9.6627224    448.80608 0.0087180668 0.0067738537         3975 
 4291000   0.57439728   -9.6752466    449.29908 0.0087256093 0.0067710351         3974 
 4292000   0.57575122   -9.6683763    449.36016 0.0087247624 0.0067682214         3953 
 4293000   0.57301512   -9.6617734    447.90088 0.0086944033  0.006765407         3963 
 4294000   0.55746978   -9.6596452    448.54986 0.0087049731 0.0067625939         3967 
 4295000   0.55856146   -9.6579903    448.59131 0.0087037507 0.0067597831         3973 
 4296000   0.55451944   -9.6644779    448.44234  0.008698835 0.0067569725         3960 
 4297000   0.55231844   -9.6452856    449.05721 0.0087087349 0.0067541643         3965 
 4298000   0.56604157   -9.6819784    449.27953 0.0087110192 0.0067513574         3973 
 4299000   0.55912498   -9.6630487    448.93695 0.0087023524 0.0067485513         3972 
 4300000   0.55784274   -9.6660921    448.81027 0.0086978734 0.0067457454         3966 
 4301000   0.56856894   -9.6731342    448.69637 0.0086936443 0.0067429429         3968 
 4302000   0.55106851   -9.6791268    448.72943 0.0086922638 0.0067401391         3964 
 4303000   0.57432693   -9.6688921    449.00521 0.0086955847 0.0067373396         3969 
 4304000   0.56617879   -9.6792842    448.98119 0.0086930992 0.0067345438         3967 
 4305000    0.5713452    -9.672767    448.09041 0.0086738369 0.0067317478         3967 
 4306000   0.55491548   -9.6745744    448.88017 0.0086871065 0.0067289513         3967 
 4307000   0.56491169   -9.6787072    449.06402 0.0086886468 0.0067261586         3973 
 4308000   0.56587761   -9.6665698     449.0979 0.0086872853 0.0067233689         3965 
 4309000   0.55101738   -9.6550663     448.7615 0.0086787634 0.0067205803         3953 
 4310000   0.56369548   -9.6674299    449.13063 0.0086838868 0.0067177914         3970 
 4311000   0.56480089   -9.6369574    449.28871 0.0086849283 0.0067150055         3961 
 4312000   0.56324852    -9.663294    448.94152 0.0086762044 0.0067122209         3964 
 4313000   0.57151877   -9.6619297     448.4727 0.0086651345  0.006709438         3964 
 4314000   0.56709274   -9.6568046    448.90828   0.00867154 0.0067066566         3965 
 4315000   0.55416421    -9.656329    448.57654 0.0086631236 0.0067038755         3965 
 4316000   0.55874428   -9.6682703    448.78815 0.0086652021 0.0067010962         3953 
 4317000   0.56205483   -9.6748087    448.38899 0.0086554897 0.0066983191         3967 
 4318000   0.55362595   -9.6740051    449.18746  0.008668895 0.0066955448         3966 
 4319000   0.56265264   -9.6681379    448.20501 0.0086479319 0.0066927695         3963 
 4320000   0.57882179   -9.6607465    449.10974 0.0086633823 0.0066899971         3977 
 4321000   0.55126832   -9.6533194    447.96564 0.0086393126  0.006687225         3964 
 4322000   0.56987096   -9.6741678    447.65206 0.0086312676 0.0066844558         3964 
 4323000    0.5612665   -9.6576281    448.13663 0.0086386118 0.0066816843         3968 
 4324000   0.56675191   -9.6718911    448.57059 0.0086449775 0.0066789167         3971 
 4325000   0.56303633   -9.6797947    448.72339 0.0086459227  0.006676154         3968 
 4326000   0.54727122   -9.6593648    448.37488 0.0086372107 0.0066733919         3958 
 4327000   0.56530064   -9.6551489    449.57427 0.0086583135 0.0066706306         3961 
 4328000   0.56228772   -9.6575699    448.71704 0.0086398074  0.006667872         3974 
 4329000   0.55177508    -9.669069     448.5366 0.0086343382 0.0066651137         3956 
 4330000   0.55158655   -9.6610982    448.13108 0.0086245396 0.0066623567         3961 
 4331000   0.55962684   -9.6669857    449.38466 0.0086466686 0.0066596041         3961 
 4332000   0.55844994   -9.6782915    448.47117    0.0086271 0.0066568498         3975 
 4333000   0.55360084   -9.6774112    448.72943 0.0086300759 0.0066540972         3962 
 4334000   0.55540684   -9.6794535    448.26976 0.0086192463  0.006651346         3960 
 4335000   0.55361232   -9.6673183    448.63311 0.0086242429 0.0066485946         3967 
 4336000   0.56653212   -9.6550904    449.15728 0.0086323278 0.0066458478         3967 
 4337000   0.55717259   -9.6643183    448.21862 0.0086123014 0.0066431008         3965 
 4338000   0.55978699   -9.6609168    449.13745 0.0086279671 0.0066403564         3961 
 4339000   0.56512554   -9.6782865    447.51986 0.0085949116 0.0066376146         3965 
 4340000   0.56170839   -9.6695323    448.67702 0.0086151502 0.0066348745         3971 
 4341000   0.55439184   -9.6779737    448.34556 0.0086068026 0.0066321343         3969 
 4342000   0.57113062   -9.6651806    448.87214 0.0086149267 0.0066293962         3971 
 4343000   0.55014661   -9.6598418    448.78259 0.0086112248 0.0066266591         3976 
 4344000    0.5484481   -9.6832058    448.08517 0.0085958634 0.0066239212         3963 
 4345000   0.55531674   -9.6861408    448.95649 0.0086105962 0.0066211869         3969 
 4346000   0.55620219   -9.6851318    448.19984 0.0085941064 0.0066184518         3978 
 4347000   0.56123481   -9.6842454    448.80551 0.0086037404 0.0066157223         3964 
 4348000   0.55323048   -9.6816445    448.11317 0.0085884921 0.0066129926         3963 
 4349000    0.5543786   -9.6822173    448.98178 0.0086031612 0.0066102667         3967 
 4350000   0.55809932   -9.6736813    448.22481 0.0085866822 0.0066075395         3963 
 4351000   0.56243369    -9.698295     448.8581 0.0085968379 0.0066048162         3971 
 4352000   0.55301186   -9.6747969    448.72667 0.0085923459 0.0066020923         3969 
 4353000   0.55314653   -9.6740242    448.69715 0.0085898068  0.006599372         3980 
 4354000   0.56283366   -9.6568719    448.11311 0.0085766559 0.0065966499         3965 
 4355000   0.55927538   -9.6734703    448.38878 0.0085799613 0.0065939327         3970 
 4356000   0.56418873    -9.669416     447.8153 0.0085670206 0.0065912165         3965 
 4357000   0.55645799    -9.677624    448.50824 0.0085783078  0.006588503         3972 
 4358000   0.53985495   -9.6781135    448.84264 0.0085827337 0.0065857895         3966 
 4359000    0.5553898   -9.6951153    448.04061  0.008565432 0.0065830763         3974 
 4360000   0.54511719   -9.6850311    449.32917 0.0085880958 0.0065803676         3962 
 4361000   0.54663216    -9.672621    448.43869 0.0085691105 0.0065776599         3969 
 4362000   0.56609131   -9.6531968     448.7582 0.0085732501 0.0065749525         3970 
 4363000    0.5487029    -9.672405    448.35273 0.0085635405 0.0065722478         3968 
 4364000   0.54683602   -9.6855324    448.14722  0.008557654 0.0065695423         3962 
 4365000   0.53968707   -9.6923459    448.61432 0.0085646109  0.006566838         3963 
 4366000   0.54695113   -9.6577124    447.56693 0.0085426578 0.0065641353         3966 
 4367000   0.55197756   -9.6653978    448.77664  0.008563786 0.0065614348         3975 
 4368000   0.54290349   -9.6874611    448.12261 0.0085493477 0.0065587359         3972 
 4369000   0.55313391   -9.6719215    448.64632 0.0085573799 0.0065560367         3960 
 4370000   0.55309781   -9.6891021    448.03432 0.0085437514 0.0065533389         3962 
 4371000   0.54975842   -9.6744934    449.04688 0.0085611012 0.0065506451         3964 
 4372000   0.55562192    -9.677998    449.16391 0.0085613738 0.0065479509         3964 
 4373000    0.5490264   -9.6806103    448.60174 0.0085487031 0.0065452583         3971 
 4374000   0.56034372   -9.6607997    448.52408 0.0085452689 0.0065425672         3974 
 4375000   0.53896396   -9.6734789    447.67928 0.0085272244  0.006539879         3970 
 4376000   0.54680538   -9.6838431    448.79151 0.0085464563 0.0065371907         3969 
 4377000   0.55312502   -9.6730388    448.79687 0.0085446056 0.0065345075         3969 
 4378000   0.55538441   -9.6779492    448.57949 0.0085385162 0.0065318227         3966 
 4379000    0.5416642    -9.673761    448.98958 0.0085443704 0.0065291402         3963 
 4380000   0.54798312     -9.69016      448.565 0.0085343418 0.0065264579         3974 
 4381000    0.5589243   -9.6911588    448.81885 0.0085372223 0.0065237788         3969 
 4382000   0.53963741   -9.6875099    447.68104  0.008513636 0.0065210997         3969 
 4383000   0.55139335   -9.6973996    448.28599 0.0085231956 0.0065184223         3961 
 4384000   0.55046984   -9.6819737    448.30897 0.0085216881 0.0065157461         3969 
 4385000   0.56013822   -9.6893644    448.23315 0.0085183038 0.0065130745         3966 
 4386000   0.54934167   -9.6865827    448.05195  0.008512919 0.0065104003         3957 
 4387000   0.54955136   -9.6668838    448.61932  0.008521756 0.0065077267         3964 
 4388000   0.54929108    -9.686147    448.45176 0.0085166317 0.0065050559         3965 
 4389000   0.54695161   -9.6860208     447.9279 0.0085047447 0.0065023882         3970 
 4390000   0.56094389   -9.6710749     448.0813 0.0085057194 0.0064997196         3966 
 4391000   0.53973005   -9.6896306     448.1179  0.008504477 0.0064970547         3969 
 4392000   0.54390298   -9.6826499     448.1784 0.0085036886 0.0064943901         3957 
 4393000   0.53954474   -9.6878668    449.45696 0.0085260066 0.0064917304         3969 
 4394000   0.55245791   -9.6792231      448.775 0.0085111325 0.0064890711         3959 
 4395000   0.55472688   -9.6859513    448.63983  0.008506633  0.006486412         3963 
 4396000   0.55387347   -9.6871442    448.50778 0.0085021949 0.0064837537         3964 
 4397000   0.54903787   -9.6955341    448.18443  0.008494133 0.0064810966         3954 
 4398000   0.54827132   -9.6824801     448.3257 0.0084948784 0.0064784432         3958 
 4399000   0.54585215   -9.6911719    448.11662 0.0084889866 0.0064757915         3950 
 4400000   0.55629776   -9.6988288    447.94679 0.0084838407 0.0064731409         3972 
 4401000    0.5447063   -9.6804029    449.11277  0.008503991 0.0064704903         3960 
 4402000   0.54876552   -9.6941908    448.99533 0.0084998359 0.0064678387         3962 
 4403000   0.54243081   -9.6967783    447.85546 0.0084763316 0.0064651909         3952 
 4404000   0.55511941   -9.6721318     448.3995 0.0084847014 0.0064625441         3963 
 4405000   0.54032089   -9.6770591    448.63438 0.0084872188 0.0064598994         3969 
 4406000   0.55187565   -9.6860568    448.22307 0.0084775131  0.006457257         3971 
 4407000   0.55903663   -9.6994515    448.50962 0.0084810079 0.0064546173         3963 
 4408000   0.54347055   -9.6852571    447.97219 0.0084689238 0.0064519788         3966 
 4409000   0.55552766   -9.6904657    448.04668 0.0084684109 0.0064493397         3964 
 4410000   0.54619821   -9.6890297    448.46468 0.0084743892 0.0064467013         3959 
 4411000   0.54552729   -9.6825115    448.64732 0.0084759185 0.0064440672         3969 
 4412000    0.5507113   -9.6956798     448.8803 0.0084783979 0.0064414309         3971 
 4413000   0.54336199   -9.6927684    447.78229 0.0084557424 0.0064387961         3976 
 4414000   0.54473977   -9.6826024    449.06554 0.0084780536 0.0064361648         3965 
 4415000   0.53899701   -9.6685944    447.80342 0.0084523107 0.0064335355         3968 
 4416000   0.53446505   -9.6902152    448.15693 0.0084570676  0.006430908         3961 
 4417000   0.54223213   -9.6787897    448.07846 0.0084536726 0.0064282811         3954 
 4418000   0.56037811   -9.6707842     448.6242  0.008462053 0.0064256578         3968 
 4419000   0.54459164   -9.6780731    448.73135 0.0084621587 0.0064230337         3967 
 4420000   0.53984286    -9.703934    447.55412  0.008438049 0.0064204092         3964 
 4421000    0.5359771   -9.6898026    447.65867 0.0084381111 0.0064177869         3955 
 4422000   0.53709036   -9.6923983    447.71589 0.0084372813 0.0064151688         3971 
 4423000   0.54902075   -9.6932631    447.71692  0.008435393 0.0064125517         3969 
 4424000   0.53598851   -9.7124739    447.54073 0.0084301675 0.0064099349         3967 
 4425000   0.54489044   -9.6815435    447.69109 0.0084310939 0.0064073183         3958 
 4426000   0.53795074   -9.6997767    448.76588 0.0084494254 0.0064047061         3965 
 4427000    0.5406672   -9.6735777    448.32214 0.0084391638 0.0064020933         3968 
 4428000   0.54583271   -9.6831652    448.30484 0.0084369324 0.0063994814         3962 
 4429000   0.53492336   -9.6839726    448.72926 0.0084430132 0.0063968736         3962 
 4430000   0.54022419   -9.6797185    448.22636  0.008431647 0.0063942627         3965 
 4431000   0.53897747   -9.6919739    447.82564 0.0084222079 0.0063916562         3974 
 4432000   0.54799264   -9.6893347    447.81997  0.008420201 0.0063890496         3962 
 4433000   0.53316677   -9.6674445    449.02195 0.0084408968  0.006386447         3961 
 4434000   0.54104197   -9.6962808    448.36965 0.0084267338 0.0063838461         3969 
 4435000   0.55326265   -9.6993238    448.07264  0.008419253 0.0063812451         3960 
 4436000   0.53457975   -9.6901969    447.84666 0.0084131099 0.0063786455         3962 
 4437000   0.54188696   -9.6974034     448.0149 0.0084143735  0.006376048         3965 
 4438000   0.53676479   -9.6939111    448.60204 0.0084235024 0.0063734496         3966 
 4439000   0.53667547   -9.6827221    448.15245 0.0084131645 0.0063708541         3959 
 4440000   0.54575706   -9.6763438    447.95082 0.0084074853 0.0063682584         3966 
 4441000   0.55249118   -9.6902045    448.03901  0.008407247  0.006365666         3968 
 4442000   0.56016566   -9.6898187    448.70752 0.0084178959 0.0063630753         3963 
 4443000   0.53356294   -9.6954636    447.99243 0.0084025889 0.0063604845         3967 
 4444000   0.54688559    -9.689244    447.89271 0.0083988282 0.0063578984         3975 
 4445000   0.53239599   -9.6955136    448.24694 0.0084035796 0.0063553111         3972 
 4446000   0.54670062   -9.7027393    448.33767 0.0084033902 0.0063527235         3958 
 4447000   0.53537844   -9.6715914    447.52962 0.0083863582 0.0063501398         3962 
 4448000   0.53448403   -9.6952352    448.43367 0.0084014101 0.0063475561         3969 
 4449000   0.54286476   -9.6982763    448.39983 0.0083988879 0.0063449733         3965 
 4450000   0.54387876   -9.6896573    447.59333 0.0083818976  0.006342392         3968 
 4451000   0.53130188   -9.7104502    447.75488 0.0083830389 0.0063398134         3967 
 4452000   0.54732109   -9.7122884    447.32872 0.0083731791  0.006337235         3966 
 4453000   0.52734859   -9.6820785    448.45785 0.0083924293 0.0063346593         3971 
 4454000   0.53803835   -9.7049357    448.34624 0.0083884568 0.0063320841         3957 
 4455000   0.53699832   -9.6754096     448.2334 0.0083844631  0.006329512         3967 
 4456000   0.54662446   -9.6951796    447.33132 0.0083657114 0.0063269416         3954 
 4457000   0.53485912   -9.6912433    448.23099 0.0083806557 0.0063243683         3959 
 4458000   0.54024605   -9.7138549    447.80146 0.0083707466 0.0063218001         3969 
 4459000   0.53509009   -9.7073874    447.90755 0.0083708519 0.0063192329         3964 
 4460000   0.52789557   -9.7139187    448.48195 0.0083797075 0.0063166659         3966 
 4461000   0.54056745   -9.7112891    447.88251 0.0083666315 0.0063141008         3974 
 4462000   0.53011393   -9.7081917    448.20807 0.0083708366 0.0063115364         3958 
 4463000   0.53212863   -9.6855879    448.03868  0.008365798 0.0063089754         3961 
 4464000   0.54525656   -9.6986945    448.24142 0.0083677087 0.0063064148         3964 
 4465000    0.5434227   -9.6922686    448.58271 0.0083722043 0.0063038567         3964 
 4466000   0.54461573    -9.697449    447.67532 0.0083533982 0.0063012999         3967 
 4467000   0.54804917   -9.7006842    447.89385 0.0083556049 0.0062987421         3961 
 4468000   0.54507823   -9.6982511    447.63716 0.0083489473 0.0062961889         3962 
 4469000   0.53015215   -9.6937685    447.82374 0.0083505584 0.0062936355         3967 
 4470000   0.54556673   -9.6957614    447.95589 0.0083511538 0.0062910838         3960 
 4471000   0.54616897   -9.7028045    447.79975 0.0083463758 0.0062885337         3969 
 4472000   0.53379363   -9.7218067    447.85366 0.0083455139 0.0062859838         3955 
 4473000     0.529263    -9.711375    447.57755 0.0083385042 0.0062834353         3959 
 4474000    0.5439632   -9.7180123    447.93245 0.0083432507 0.0062808885         3970 
 4475000   0.52955314   -9.6907771    447.81805  0.008339256 0.0062783451         3965 
 4476000   0.53370006   -9.7167002    447.58406 0.0083330366 0.0062758021         3959 
 4477000   0.53153893    -9.700731    446.77495 0.0083161147  0.006273259         3965 
 4478000   0.54600724   -9.7187093    448.30348 0.0083427029 0.0062707193         3969 
 4479000   0.54079716   -9.7090634    448.47095  0.008343956 0.0062681816         3966 
 4480000   0.53547506   -9.6971274    447.45917 0.0083232733 0.0062656423         3962 
 4481000   0.54219613   -9.7168861    447.71351 0.0083261457 0.0062631073         3955 
 4482000   0.52036732   -9.7233405     447.3469 0.0083174718 0.0062605708         3975 
 4483000   0.54107275   -9.7079912    447.41211 0.0083168286 0.0062580352         3964 
 4484000   0.53059648   -9.6980898    447.93769 0.0083247415  0.006255502         3971 
 4485000   0.53140628   -9.7020374    447.28588 0.0083107745 0.0062529693         3969 
 4486000   0.52467231   -9.7116592    447.44434 0.0083118654 0.0062504388         3964 
 4487000     0.531964   -9.7194199    447.56267 0.0083122107 0.0062479117         3970 
 4488000   0.53564188   -9.7000612    447.80188 0.0083148002 0.0062453841         3965 
 4489000   0.53673355   -9.7014433    448.48455  0.008325621 0.0062428602         3966 
 4490000   0.54159251    -9.697779    448.52608 0.0083245375 0.0062403366         3956 
 4491000   0.52606455   -9.7025998    447.96748 0.0083123187 0.0062378143         3957 
 4492000   0.53786413   -9.7052208    447.87592 0.0083087697 0.0062352922         3970 
 4493000   0.53429095   -9.6950983     448.4719 0.0083179743 0.0062327725         3961 
 4494000   0.52851234   -9.7107044    448.03575 0.0083080357 0.0062302551         3970 
 4495000   0.53129363   -9.7099063     447.7886 0.0083016056 0.0062277404         3971 
 4496000   0.53357792   -9.7168472    448.21792 0.0083077164 0.0062252234         3965 
 4497000   0.52459382   -9.7143485    448.13367 0.0083043078 0.0062227088         3968 
 4498000   0.53118709   -9.6896636     447.7871 0.0082960407  0.006220195         3970 
 4499000   0.53105434   -9.7210623    447.69754  0.008292538 0.0062176846         3967 
 4500000   0.53557035   -9.6852037    448.65196 0.0083083696 0.0062151737         3969 
 4501000    0.5367291   -9.6966392    447.64498   0.00828788 0.0062126662         3957 
 4502000   0.52032266   -9.7334609    447.70023 0.0082870619  0.006210158         3960 
 4503000   0.53431854   -9.7102697    447.56158 0.0082826556 0.0062076507         3971 
 4504000   0.53455204   -9.7037654     447.5309 0.0082802491 0.0062051468         3958 
 4505000   0.52766499    -9.709657    447.88529 0.0082849664 0.0062026436         3970 
 4506000   0.53527938   -9.7169743    447.79475 0.0082814535 0.0062001417         3961 
 4507000    0.5368958   -9.7121387    448.50954 0.0082928323 0.0061976404         3964 
 4508000   0.51569502   -9.7146583    447.00045 0.0082630962  0.006195142         3966 
 4509000   0.51326677   -9.7223169    447.49959 0.0082704885 0.0061926419         3958 
 4510000   0.53173057   -9.7286379    447.36725 0.0082662094 0.0061901449         3956 
 4511000   0.52512615    -9.724215    447.60391 0.0082687488 0.0061876493         3976 
 4512000   0.52654658   -9.7197503      448.059 0.0082753214 0.0061851557         3975 
 4513000   0.52915078   -9.7244411    447.84204 0.0082694815 0.0061826649         3970 
 4514000   0.53534343   -9.7243777    447.52319 0.0082617632  0.006180173         3966 
 4515000   0.52955342   -9.7178091    447.69793 0.0082631586 0.0061776853         3961 
 4516000   0.51805869     -9.69826    447.77475 0.0082627464 0.0061751991         3967 
 4517000   0.52763861    -9.700549    447.17292  0.008249814 0.0061727136         3976 
 4518000   0.53741711   -9.7261657    447.15206 0.0082476034 0.0061702292         3971 
 4519000   0.51653689   -9.7008718    447.85021 0.0082586526 0.0061677445         3964 
 4520000   0.52154698   -9.7134657    448.11489 0.0082617052 0.0061652615         3959 
 4521000   0.52281383   -9.7239564    447.44365 0.0082475052 0.0061627795         3969 
 4522000   0.52376116   -9.7045358    447.36682 0.0082442654    0.0061603         3962 
 4523000   0.52730351   -9.7337499    447.41049 0.0082432472 0.0061578222         3965 
 4524000   0.51832542   -9.7161334    447.32457 0.0082398425 0.0061553444         3961 
 4525000     0.518976   -9.7150917    447.48818 0.0082410346 0.0061528677         3963 
 4526000   0.52850309   -9.7175297    447.90104 0.0082468155 0.0061503924         3977 
 4527000   0.51285943   -9.7129631    447.93213  0.008245566 0.0061479199         3980 
 4528000    0.5314272   -9.7182956    447.83181 0.0082418988  0.006145448         3966 
 4529000   0.51817813   -9.7259027    447.53252 0.0082345721 0.0061429758         3965 
 4530000   0.52547397   -9.7122663    446.73508 0.0082180847 0.0061405069         3973 
 4531000   0.51905314   -9.7337795    448.11104 0.0082415772  0.006138038         3975 
 4532000   0.52573569   -9.7143569    447.47801 0.0082281188 0.0061355693         3972 
 4533000   0.54139629   -9.7157189    447.69417 0.0082302774 0.0061331054         3974 
 4534000   0.52608609   -9.7036657     447.7478  0.008229448 0.0061306427         3975 
 4535000   0.52855928   -9.7243919    447.45432 0.0082222404 0.0061281794         3972 
 4536000   0.54664223    -9.719256    447.77577 0.0082263333 0.0061257177         3970 
 4537000   0.52456955   -9.6894735    447.97638 0.0082282047 0.0061232578         3966 
 4538000   0.52141296   -9.7293109    447.77311 0.0082226589 0.0061207991         3971 
 4539000   0.53233666   -9.7332748    447.79978 0.0082213369 0.0061183421         3972 
 4540000    0.5171569   -9.7112153    447.18378 0.0082082191 0.0061158861         3960 
 4541000   0.53446598   -9.7370339    446.62754 0.0081962039 0.0061134302         3970 
 4542000   0.51610909   -9.7063062    447.07552 0.0082026184 0.0061109754         3979 
 4543000   0.52275518   -9.7250791    447.64312 0.0082112246  0.006108522         3972 
 4544000   0.53228886   -9.7278968    447.00518 0.0081977182 0.0061060721         3964 
 4545000   0.52400297   -9.7112588    448.05796 0.0082152175 0.0061036223         3973 
 4546000   0.53129371   -9.7267984     447.2364 0.0081983502  0.006101175         3981 
 4547000   0.52774034   -9.7203939    447.23609 0.0081965414 0.0060987292         3957 
 4548000   0.51948615    -9.733349    447.40367 0.0081978099 0.0060962838         3978 
 4549000   0.52019875   -9.7187253    447.07642 0.0081900128 0.0060938381         3971 
 4550000   0.53030953   -9.7392541    447.54445 0.0081967848 0.0060913952         3970 
 4551000   0.53233633   -9.7282712    447.00105 0.0081850334 0.0060889527         3976 
 4552000   0.53403728   -9.7221119    447.58633 0.0081939501 0.0060865132         3958 
 4553000   0.52329372   -9.7292161    447.39728 0.0081886902  0.006084076         3970 
 4554000   0.53282297   -9.7081178    447.79771 0.0081942195 0.0060816372         3968 
 4555000   0.52715429    -9.730432     447.8098 0.0081926418 0.0060792007         3962 
 4556000   0.52443192   -9.7086107    447.99185 0.0081941735 0.0060767675         3969 
 4557000   0.52793691   -9.7222402    447.26989 0.0081791729 0.0060743338         3968 
 4558000   0.52729086   -9.7346744    446.96428 0.0081717911 0.0060719027         3962 
 4559000   0.52442623   -9.7222293    447.80957 0.0081854494 0.0060694716         3978 
 4560000   0.52413507   -9.7049928    447.86264 0.0081846243 0.0060670423         3966 
 4561000   0.52482382   -9.7280987    447.27907 0.0081721675  0.006064614         3971 
 4562000    0.5293282   -9.7062185    448.04437 0.0081843557 0.0060621882         3966 
 4563000   0.51634492   -9.7293051    448.04096 0.0081824997 0.0060597636         3962 
 4564000   0.52967306   -9.7110625    447.69647 0.0081744169 0.0060573395         3970 
 4565000   0.52163518   -9.7313871    447.59554 0.0081707838 0.0060549161         3964 
 4566000   0.52946462   -9.7314025    447.24114 0.0081625262 0.0060524977         3972 
 4567000   0.52488171   -9.7273539    447.31675 0.0081621187 0.0060500766         3965 
 4568000   0.50621894   -9.7287347     446.9902 0.0081543747 0.0060476572         3967 
 4569000    0.5198783   -9.7269917    446.95684 0.0081519815 0.0060452404         3963 
 4570000   0.52740623   -9.7363417    447.67334 0.0081632629 0.0060428253         3965 
 4571000   0.52097447   -9.7166733    447.52434 0.0081587606 0.0060404133         3969 
 4572000   0.51316587   -9.7250321    447.71485 0.0081604486 0.0060380012         3965 
 4573000   0.50794104   -9.7127963    447.97146 0.0081633403 0.0060355879         3968 
 4574000   0.51463245   -9.7128927    447.44258   0.00815192 0.0060331776         3967 
 4575000   0.51612928   -9.7184644    447.48009 0.0081508214 0.0060307692         3951 
 4576000   0.52257486   -9.7104035     446.8887 0.0081382703 0.0060283604         3971 
 4577000   0.51649298   -9.7206557     447.8463 0.0081539272 0.0060259545         3960 
 4578000   0.52187762   -9.7384277    446.64552 0.0081302884 0.0060235481         3966 
 4579000   0.53410161   -9.7247203    447.01316 0.0081352034 0.0060211428         3969 
 4580000   0.52550675   -9.7403537     447.1907 0.0081366575 0.0060187392         3972 
 4581000   0.50622222   -9.7193656     447.6519 0.0081432712 0.0060163377         3968 
 4582000   0.52448866   -9.7286907    447.05464 0.0081306314 0.0060139396         3971 
 4583000   0.51925625   -9.7262739     447.6817 0.0081402594 0.0060115399         3970 
 4584000   0.51307489   -9.7314495    447.71173 0.0081390293  0.006009143         3964 
 4585000   0.52085145   -9.7397898    446.94979 0.0081234059 0.0060067477         3971 
 4586000   0.51740226   -9.7237719    446.95711 0.0081217676 0.0060043531         3965 
 4587000   0.50617794   -9.7289286    447.37725 0.0081276298 0.0060019613         3964 
 4588000   0.51246306    -9.738212    446.85054 0.0081162915 0.0059995697         3973 
 4589000   0.51557236   -9.7258663    447.36895 0.0081239368 0.0059971786         3970 
 4590000   0.50166041   -9.7388735    448.07746 0.0081350301 0.0059947885         3971 
 4591000   0.51398142   -9.7450015     447.5721 0.0081240851 0.0059924014         3970 
 4592000   0.51746198   -9.7359311    446.94186 0.0081108787 0.0059900144         3972 
 4593000   0.51998057   -9.7207988    447.59652 0.0081209906 0.0059876296         3963 
 4594000   0.51667071   -9.7176791    447.10372 0.0081102836 0.0059852459         3966 
 4595000   0.52744523   -9.7298174    447.32048 0.0081124497 0.0059828641         3970 
 4596000   0.51013353   -9.7314074    446.70404 0.0080995075 0.0059804827         3974 
 4597000   0.52270889   -9.7442088    447.38089 0.0081100154 0.0059781046         3967 
 4598000   0.51635893   -9.7378287    446.84481 0.0080985357 0.0059757244         3965 
 4599000   0.50897182   -9.7145182    447.44162 0.0081075889 0.0059733474         3959 
 4600000   0.51332031   -9.7253671    448.03001 0.0081164857 0.0059709712         3973 
 4601000   0.51161593    -9.739544    447.93398 0.0081129823 0.0059685962         3961 
 4602000   0.51277626    -9.721881    447.73758  0.008107663 0.0059662227         3968 
 4603000   0.52285747   -9.7282087    447.34547 0.0080988028 0.0059638499         3960 
 4604000   0.52763514   -9.7273394    446.92783 0.0080894844 0.0059614779         3968 
 4605000   0.51274217   -9.7353739    447.49688 0.0080980253 0.0059591079         3971 
 4606000   0.51101773    -9.735906    446.97929 0.0080869027 0.0059567386         3967 
 4607000    0.5167075   -9.7345839    447.73919 0.0080988927 0.0059543711         3971 
 4608000   0.50890844   -9.7413649    447.51728 0.0080931221 0.0059520063         3960 
 4609000   0.51166354   -9.7267376    447.73384 0.0080952817  0.005949642         3965 
 4610000   0.51378872   -9.7424073    446.58777 0.0080728086 0.0059472797         3969 
 4611000   0.50486426   -9.7477071    446.80976 0.0080750698 0.0059449159         3971 
 4612000   0.51445529   -9.7654367    447.76912 0.0080906534 0.0059425554         3967 
 4613000    0.5094279   -9.7353297    447.28447 0.0080801444 0.0059401967         3972 
 4614000   0.51614303   -9.7291851    447.03847 0.0080739501 0.0059378371         3978 
 4615000   0.50641686   -9.7467981    446.66658 0.0080654854 0.0059354783         3971 
 4616000   0.52263662   -9.7316666    447.15556 0.0080725658  0.005933124         3967 
 4617000   0.50297348   -9.7292613    447.34439 0.0080742255 0.0059307699         3969 
 4618000   0.50808362   -9.7443672    447.27785 0.0080712764  0.005928417         3971 
 4619000   0.50896389   -9.7512043    446.22081 0.0080504584 0.0059260643         3970 
 4620000   0.51312672   -9.7277549     447.5803 0.0080732376 0.0059237133         3965 
 4621000   0.51741423   -9.7515601    446.79187 0.0080572724 0.0059213639         3971 
 4622000   0.52377755   -9.7611757    447.10913 0.0080612493 0.0059190152         3967 
 4623000   0.51681255   -9.7418551    447.16904 0.0080605855 0.0059166675         3972 
 4624000   0.51638317   -9.7323549    446.71726 0.0080507004 0.0059143223         3960 
 4625000   0.51469038   -9.7378763     447.0506 0.0080549657 0.0059119784         3970 
 4626000   0.50336034   -9.7409507    447.35092 0.0080586346 0.0059096345         3970 
 4627000   0.51394155   -9.7360193    446.77002 0.0080464308 0.0059072928         3971 
 4628000   0.50849015    -9.744668    447.28204 0.0080539118 0.0059049523         3963 
 4629000   0.50899498   -9.7349589    447.68538 0.0080594329 0.0059026134         3966 
 4630000   0.52252211   -9.7373417    447.06993  0.008046615 0.0059002748         3966 
 4631000   0.51668471   -9.7361205    446.42311 0.0080332381 0.0058979386         3966 
 4632000   0.50397117   -9.7497538    446.87543 0.0080396415 0.0058956032         3980 
 4633000   0.50966501   -9.7338229    447.85174  0.008055467  0.005893269         3968 
 4634000   0.51499298   -9.7421697    446.75911 0.0080340797 0.0058909365         3966 
 4635000   0.51254463   -9.7453802    447.07018 0.0080379391 0.0058886041         3970 
 4636000   0.51191375   -9.7485448    446.89325 0.0080330251 0.0058862728         3962 
 4637000    0.4959681   -9.7425334     447.6468  0.008044835 0.0058839448         3965 
 4638000   0.50834226   -9.7571339    447.31549 0.0080371477  0.005881616         3961 
 4639000   0.49738945   -9.7429301     447.4929 0.0080386021 0.0058792907         3968 
 4640000   0.50894902   -9.7365091    447.10841 0.0080299642 0.0058769672         3973 
 4641000   0.50798379   -9.7546112    446.88057 0.0080241429 0.0058746433         3967 
 4642000   0.50406077   -9.7456299    447.86014 0.0080399997 0.0058723203         3968 
 4643000   0.51111077   -9.7510029    447.40776 0.0080301487 0.0058699986         3971 
 4644000   0.52527607   -9.7395443    446.85884 0.0080185696 0.0058676783         3965 
 4645000   0.50177777   -9.7577895     447.2883 0.0080245478 0.0058653587         3979 
 4646000   0.50409344   -9.7505229    447.26524 0.0080224071 0.0058630414         3971 
 4647000   0.51225537   -9.7411356    446.94758 0.0080149842 0.0058607247         3964 
 4648000   0.49666559   -9.7514787    447.22556 0.0080182436 0.0058584093         3964 
 4649000    0.5082543   -9.7349923    446.81642 0.0080091852 0.0058560966         3969 
 4650000   0.50383056   -9.7387772    448.01055  0.008028863 0.0058537855         3962 
 4651000   0.51284309   -9.7461976    447.16948  0.008012067 0.0058514748         3965 
 4652000   0.50946925   -9.7428689    447.22812 0.0080113951 0.0058491642         3971 
 4653000   0.51357684   -9.7389553    446.87059 0.0080032701 0.0058468544         3976 
 4654000   0.49925291   -9.7569405    447.00317 0.0080039244 0.0058445453         3973 
 4655000   0.51129085    -9.735268    446.84345 0.0079993457 0.0058422382         3971 
 4656000   0.50518267   -9.7391108     447.1602 0.0080032968 0.0058399331         3967 
 4657000   0.51254334   -9.7484088    447.00656  0.007998829 0.0058376285         3964 
 4658000   0.49923449   -9.7369545    446.59715 0.0079897873 0.0058353243         3972 
 4659000   0.51171361   -9.7414715    446.43595  0.007985189 0.0058330207         3967 
 4660000   0.49795436   -9.7562775    447.33929 0.0079996296 0.0058307188         3966 
 4661000   0.51048592   -9.7621795    446.63333 0.0079852916 0.0058284181         3971 
 4662000   0.49519984   -9.7566908    446.58421 0.0079827008 0.0058261192         3972 
 4663000   0.50332724   -9.7380483    447.65491 0.0080001235 0.0058238207         3965 
 4664000    0.5159845   -9.7402232    446.98818 0.0079864954 0.0058215258         3974 
 4665000   0.50328614   -9.7425443    447.36393 0.0079914957 0.0058192321         3972 
 4666000   0.50604986   -9.7585977    446.66126 0.0079772335 0.0058169368         3964 
 4667000   0.50889432   -9.7526501    446.96435 0.0079809362 0.0058146447         3968 
 4668000   0.50978274   -9.7545439    446.59772 0.0079726814 0.0058123543         3969 
 4669000   0.50514138   -9.7495966    447.37992 0.0079849347 0.0058100638         3963 
 4670000   0.49672305   -9.7402795    446.89352 0.0079745454 0.0058077732         3971 
 4671000   0.50227392   -9.7389002    446.25503  0.007961447 0.0058054859         3973 
 4672000   0.51105518   -9.7519267     446.2506  0.007959664 0.0058031992         3973 
 4673000   0.50671761   -9.7493374    446.61985 0.0079645455 0.0058009147         3971 
 4674000   0.50243463   -9.7444979    445.71129 0.0079466426 0.0057986306         3969 
 4675000   0.50301946   -9.7601478    446.47774  0.007958605 0.0057963485         3976 
 4676000   0.49576645   -9.7437946    446.77922 0.0079622759 0.0057940654         3972 
 4677000    0.5104741   -9.7404723    446.65453 0.0079583516 0.0057917838         3967 
 4678000   0.51670642   -9.7495218    447.11491 0.0079648516 0.0057895051         3958 
 4679000   0.50857714   -9.7310941    446.73027 0.0079562989  0.005787229         3967 
 4680000   0.49280839   -9.7398866    446.21918 0.0079454982 0.0057849531         3965 
 4681000    0.4952641   -9.7653052    446.94222 0.0079566728 0.0057826772         3971 
 4682000   0.50175804   -9.7418399    446.89826 0.0079541908 0.0057804042         3968 
 4683000   0.49606167   -9.7407147    446.69711 0.0079489128 0.0057781296         3966 
 4684000   0.50230383    -9.750694    446.73219   0.00794784  0.005775857         3975 
 4685000   0.51106945   -9.7519455    446.89683  0.007949072 0.0057735851         3960 
 4686000   0.50730026   -9.7535601    446.90846 0.0079475826 0.0057713157         3972 
 4687000    0.4851991   -9.7474288    447.40314  0.007954682 0.0057690477         3976 
 4688000   0.49837689   -9.7559191    446.87913 0.0079436706 0.0057667808         3974 
 4689000   0.50797464   -9.7423858    447.00949 0.0079442932 0.0057645153         3959 
 4690000   0.50533705   -9.7634272    446.87754 0.0079402548 0.0057622513         3967 
 4691000   0.49689484   -9.7435726    446.20835 0.0079266744 0.0057599886         3962 
 4692000   0.49878014   -9.7575665    447.25006 0.0079434864 0.0057577266         3977 
 4693000   0.49667429   -9.7579427     446.4432 0.0079274665 0.0057554662         3967 
 4694000   0.49602166   -9.7544361    446.14454 0.0079204755  0.005753208         3958 
 4695000   0.49028846   -9.7563255    446.50206 0.0079251343   0.00575095         3971 
 4696000    0.5023905   -9.7688347    446.93672 0.0079311598 0.0057486931         3969 
 4697000   0.50649162   -9.7454176    447.08094   0.00793203 0.0057464372         3978 
 4698000   0.50116293   -9.7460255    446.76555 0.0079247473 0.0057441817         3970 
 4699000   0.48928423   -9.7571384      446.234  0.007913634 0.0057419281         3962 
 4700000   0.49865616   -9.7527535    446.36147 0.0079142105  0.005739676         3970 
 4701000   0.49964043   -9.7595106    446.49575 0.0079149073 0.0057374251         3968 
 4702000   0.49211732    -9.746835     447.1794 0.0079253403 0.0057351747         3966 
 4703000   0.48447057   -9.7553991    446.28444 0.0079077972 0.0057329262         3967 
 4704000   0.51160358   -9.7584708    446.09626 0.0079027823 0.0057306785         3964 
 4705000   0.49620889   -9.7572344    446.76407 0.0079129307 0.0057284316         3963 
 4706000   0.51178273   -9.7534172    446.53622 0.0079072145 0.0057261869         3969 
 4707000    0.5024034   -9.7643824    447.48465 0.0079223257  0.005723944         3963 
 4708000   0.50857393    -9.764274    446.45711 0.0079024552 0.0057217007         3970 
 4709000    0.5000128   -9.7828805    446.18637 0.0078959859 0.0057194576         3969 
 4710000   0.49141486   -9.7661389    446.65328 0.0079025704  0.005717217         3965 
 4711000   0.50479135   -9.7597241    447.09996 0.0079087944 0.0057149783         3964 
 4712000   0.50308846    -9.770185    446.54338 0.0078972725 0.0057127392         3971 
 4713000   0.49776356   -9.7470739    447.08732 0.0079052146 0.0057105025         3969 
 4714000   0.49526272   -9.7488375    446.93417 0.0079008304 0.0057082679         3963 
 4715000   0.50499886   -9.7729653    446.65888 0.0078942891  0.005706034         3964 
 4716000   0.49926139    -9.784492    446.77127 0.0078946012  0.005703799         3972 
 4717000   0.50472366   -9.7647581    446.47577 0.0078877071 0.0057015657         3967 
 4718000   0.48819015   -9.7663767    446.83713 0.0078924178 0.0056993364         3966 
 4719000   0.50359267    -9.759302    446.89555  0.007891777 0.0056971056         3970 
 4720000   0.49277521   -9.7609215    446.44094 0.0078820787 0.0056948775         3977 
 4721000   0.49547739   -9.7569129    446.73648  0.007885626 0.0056926496         3966 
 4722000   0.48907661   -9.7610356     446.6187 0.0078818774 0.0056904244         3964 
 4723000    0.5002708   -9.7787691    446.56491 0.0078792594    0.0056882         3971 
 4724000   0.50107439   -9.7676358    447.69251 0.0078974829 0.0056859773         3983 
 4725000   0.50150667   -9.7566041    446.42887  0.007873525 0.0056837531         3972 
 4726000   0.49552429   -9.7456623     447.0842 0.0078834145 0.0056815327         3971 
 4727000   0.49030847   -9.7658112    446.84831 0.0078775881 0.0056793138         3964 
 4728000    0.4920606    -9.763593    447.02467 0.0078790305 0.0056770929         3968 
 4729000   0.48818521   -9.7783759    446.13053 0.0078616079 0.0056748732         3969 
 4730000   0.49274577   -9.7728504    446.73011 0.0078705093 0.0056726562         3969 
 4731000   0.49627124   -9.7643057    446.20704 0.0078596323 0.0056704401         3965 
 4732000   0.49195812   -9.7567022    447.30759 0.0078773527  0.005668227         3963 
 4733000   0.49879838   -9.7640872    446.23509 0.0078568049 0.0056660143         3965 
 4734000   0.50189636   -9.7571651    446.90501  0.007866938  0.005663802         3969 
 4735000   0.50115132   -9.7379931    446.35108 0.0078555276 0.0056615919         3971 
 4736000    0.4932805   -9.7446015    446.47456 0.0078560417 0.0056593837         3969 
 4737000   0.49933126   -9.7508436    446.43921 0.0078537614 0.0056571745         3970 
 4738000   0.48516404    -9.768877    446.13418 0.0078467388 0.0056549674         3968 
 4739000   0.49605513   -9.7652053     446.6697    0.0078545 0.0056527614         3961 
 4740000   0.49239545    -9.772959    446.31991 0.0078466932 0.0056505558         3957 
 4741000   0.49540076    -9.771455    446.82062 0.0078538391  0.005648353         3974 
 4742000     0.498181   -9.7452851    445.87282 0.0078355268 0.0056461517         3971 
 4743000   0.49350221   -9.7626592    446.97535  0.007853246 0.0056439521         3966 
 4744000   0.49241118   -9.7532503    446.32752 0.0078402108 0.0056417519         3973 
 4745000   0.48876417    -9.767134    446.65293 0.0078442734 0.0056395521         3963 
 4746000   0.49248307   -9.7582083    446.00647 0.0078312697 0.0056373521         3969 
 4747000   0.48851814   -9.7882433    446.65673 0.0078410353 0.0056351555         3961 
 4748000   0.49834095   -9.7814246    446.79998 0.0078418979 0.0056329593         3969 
 4749000   0.50102491   -9.7605047    447.14104 0.0078462315 0.0056307645         3970 
 4750000   0.49810916   -9.7586596    445.99876 0.0078245397 0.0056285706         3967 
 4751000   0.48134753   -9.7679866    446.85625 0.0078379333 0.0056263784         3973 
 4752000   0.48744801   -9.7818812    446.37072 0.0078277694 0.0056241879         3967 
 4753000   0.49153521    -9.759802    446.63641 0.0078307808 0.0056219984         3960 
 4754000   0.49553329    -9.764135    446.56404  0.007827865 0.0056198104         3968 
 4755000   0.49066909   -9.7784627    446.89359 0.0078319942 0.0056176232         3971 
 4756000   0.48420181   -9.7746745    446.66773   0.00782639 0.0056154366         3961 
 4757000   0.49552287   -9.7759728    446.30912 0.0078184626 0.0056132523         3969 
 4758000   0.49576989   -9.7516116    447.14549 0.0078314678 0.0056110664         3964 
 4759000   0.48486252   -9.7702263    446.49446 0.0078184222 0.0056088833         3968 
 4760000   0.48624778   -9.7719054    447.08308 0.0078270848 0.0056067013         3955 
 4761000    0.5073782   -9.7760316    446.11636 0.0078085199  0.005604522         3970 
 4762000   0.49333606   -9.7564125    446.77228 0.0078183586 0.0056023432         3969 
 4763000   0.48539054   -9.7453549     447.4488 0.0078285535 0.0056001661         3970 
 4764000   0.48450958   -9.7789102    446.55654 0.0078113025 0.0055979895         3968 
 4765000   0.49071737    -9.763277    446.41747  0.007807231 0.0055958122         3970 
 4766000   0.49009159   -9.7756267    446.72498 0.0078109698 0.0055936362         3967 
 4767000   0.48582243    -9.786964    446.61199 0.0078073559 0.0055914622         3972 
 4768000    0.4920518   -9.7720387     445.5581 0.0077872991 0.0055892885         3971 
 4769000   0.49021116   -9.7648534     445.9019 0.0077916737 0.0055871177         3964 
 4770000   0.49252183    -9.779597    446.19135 0.0077950969 0.0055849475         3960 
 4771000   0.48525621   -9.7633136    446.86045 0.0078051501  0.005582777         3960 
 4772000     0.491001   -9.7617185     446.6582 0.0077999825 0.0055806082         3964 
 4773000   0.48101714   -9.7697811    445.54725 0.0077789518 0.0055784409         3970 
 4774000   0.48720065   -9.7637259    446.34524 0.0077912519 0.0055762737         3970 
 4775000   0.47714434   -9.7716353    446.75706 0.0077968073 0.0055741092         3969 
 4776000   0.48200853   -9.7788119    446.38711 0.0077887198 0.0055719474         3966 
 4777000   0.48997496   -9.7934866    445.51766  0.007771922 0.0055697847         3969 
 4778000   0.49093098   -9.7860557    445.89574 0.0077768896 0.0055676232         3962 
 4779000    0.4839343   -9.7869149    446.36692 0.0077834784 0.0055654634         3973 
 4780000   0.49909388   -9.7654501    446.29458  0.007780589  0.005563305         3972 
 4781000   0.49890025   -9.7795371    447.01032  0.007791437 0.0055611485         3967 
 4782000   0.48742843   -9.7821161    446.38056 0.0077788331  0.005558991         3970 
 4783000   0.48198202   -9.7788162    446.28777 0.0077755902 0.0055568346         3966 
 4784000   0.47900451   -9.7853765    446.53381 0.0077782506   0.00555468         3976 
 4785000   0.49055668   -9.7870761    446.24516  0.007771598 0.0055525274         3963 
 4786000    0.4764484   -9.7916399    446.76926 0.0077790998 0.0055503741         3973 
 4787000   0.49402121   -9.7754785    446.47687 0.0077723848 0.0055482217         3968 
 4788000   0.49158602   -9.7663146    446.65044 0.0077737823 0.0055460708         3973 
 4789000    0.4793104   -9.7816259    446.39849  0.007767775  0.005543923         3968 
 4790000   0.48778412   -9.7758213    445.98711 0.0077589964 0.0055417738         3965 
 4791000   0.47881744   -9.7784339    445.98919 0.0077574131 0.0055396278         3966 
 4792000   0.48173191    -9.797292    446.13846   0.00775839 0.0055374818         3966 
 4793000   0.47598131   -9.7731244    446.50682 0.0077631758 0.0055353368         3964 
 4794000   0.48589042   -9.7663112    446.13688 0.0077551259 0.0055331942         3961 
 4795000   0.47776514   -9.7689283    446.76166 0.0077643667 0.0055310526         3968 
 4796000   0.48338276   -9.7617077    446.51312 0.0077584293 0.0055289138         3962 
 4797000   0.49419053   -9.7859646    446.99821 0.0077652389 0.0055267758         3972 
 4798000   0.49734518   -9.7755949    446.37137 0.0077527332 0.0055246379         3968 
 4799000   0.48065086    -9.787137    446.26936 0.0077493463  0.005522502         3966 
 4800000   0.49086712   -9.7752563    446.46554 0.0077511379 0.0055203665         3975 
 4801000   0.48289941   -9.7780391    445.98848 0.0077412427 0.0055182314         3963 
 4802000   0.48885074    -9.798437    446.68829 0.0077517752 0.0055160984         3962 
 4803000   0.48824026   -9.7756985    446.36901 0.0077446216 0.0055139675         3978 
 4804000   0.49095876   -9.7788296    445.81665 0.0077334278 0.0055118355         3971 
 4805000   0.49015473   -9.7825029    445.76581 0.0077309367 0.0055097053         3963 
 4806000   0.48607753   -9.7856174     446.7008 0.0077455403 0.0055075746         3966 
 4807000   0.47870574    -9.790018    446.03311 0.0077323541 0.0055054466         3972 
 4808000   0.48968747   -9.7927874    446.28624 0.0077351331 0.0055033203         3966 
 4809000   0.47131106   -9.7953987    446.00118 0.0077285849 0.0055011937         3974 
 4810000   0.49213145    -9.781852     445.5015 0.0077183212  0.005499069         3971 
 4811000   0.48531725   -9.7783391    446.29902 0.0077305311 0.0054969452         3974 
 4812000   0.47338009   -9.7751516    445.27718 0.0077112285 0.0054948197         3971 
 4813000    0.4922202   -9.7820199    446.74234 0.0077349944 0.0054926997         3966 
 4814000   0.47906481   -9.7756863    446.26568 0.0077251364  0.005490578         3968 
 4815000   0.48704446   -9.7817701     446.3307 0.0077246574   0.00548846         3976 
 4816000   0.47673065   -9.7966683    445.78505 0.0077136118 0.0054863408         3971 
 4817000   0.47242566   -9.8027206    445.77026 0.0077117546 0.0054842227         3973 
 4818000   0.47616663   -9.7907855    446.50009 0.0077227773 0.0054821062         3967 
 4819000   0.46953178   -9.7826319    445.89947 0.0077107884 0.0054799917         3968 
 4820000   0.47168766   -9.7852908    446.21846 0.0077147036 0.0054778794         3969 
 4821000   0.47546074   -9.7977364    446.09402 0.0077109525 0.0054757675         3963 
 4822000    0.4835271   -9.8007189    446.31137 0.0077131096 0.0054736567         3969 
 4823000   0.47900542   -9.7886106    446.22349 0.0077099918  0.005471547         3965 
 4824000   0.48298375   -9.7796223     445.9225 0.0077031941 0.0054694358         3973 
 4825000   0.48024492   -9.7772978    445.89248  0.007701079 0.0054673279         3964 
 4826000   0.48602958   -9.7742746    446.59312 0.0077115817 0.0054652206         3974 
 4827000   0.47758192   -9.7794203    446.31203 0.0077051314 0.0054631155         3970 
 4828000   0.48084438   -9.7937514    445.60251 0.0076912889 0.0054610102         3969 
 4829000   0.47834779   -9.7958942    446.30432 0.0077018071 0.0054589063         3969 
 4830000   0.47119532   -9.7886944    446.04496 0.0076957377 0.0054568044         3967 
 4831000   0.47707482   -9.7831168    446.11473 0.0076953483 0.0054547035         3970 
 4832000    0.4742521   -9.7907661    445.85448 0.0076892673 0.0054526044         3967 
 4833000   0.47474385   -9.7976439    445.85695 0.0076877189 0.0054505051         3967 
 4834000   0.48530811   -9.7913046     445.9441  0.007687631 0.0054484063         3965 
 4835000    0.4762594   -9.7874875    446.70189 0.0076991019 0.0054463087         3968 
 4836000   0.46955879   -9.8003571    446.18491 0.0076886013 0.0054442106         3972 
 4837000   0.47806175   -9.7859551    445.98269 0.0076835279  0.005442116         3948 
 4838000   0.47675238   -9.7813227    445.89328 0.0076803995 0.0054400219         3970 
 4839000   0.47668474    -9.790309    446.08113 0.0076820474 0.0054379292         3970 
 4840000   0.48529528   -9.8002584    446.42217 0.0076863321 0.0054358381         3969 
 4841000   0.47822646   -9.7967414    445.36543 0.0076665536 0.0054337477         3965 
 4842000   0.47108257   -9.7873485    446.40723 0.0076829001 0.0054316573         3963 
 4843000    0.4720381   -9.7917149    445.77791  0.007670485 0.0054295691         3966 
 4844000   0.46685708   -9.7864964    446.07488 0.0076740104 0.0054274824         3970 
 4845000   0.47969452    -9.800778    445.82442 0.0076681187 0.0054253957         3970 
 4846000   0.47468834   -9.7804038    446.15027 0.0076721397 0.0054233114         3966 
 4847000   0.47451263   -9.7749363    446.62046 0.0076786408 0.0054212285         3969 
 4848000   0.47838028   -9.8036164      446.288 0.0076713422 0.0054191468         3973 
 4849000   0.47225895   -9.8001937    445.71204 0.0076598618 0.0054170633         3966 
 4850000   0.47157319   -9.8017363    445.70699 0.0076581958 0.0054149817         3977 
 4851000   0.47500851   -9.7878057    446.45009 0.0076693824 0.0054129023         3970 
 4852000   0.47499253   -9.7915194    445.61801 0.0076535107 0.0054108227         3976 
 4853000    0.4735776   -9.8084654    446.26492  0.007663042 0.0054087457         3974 
 4854000   0.47452305   -9.7823768    446.34678 0.0076628688 0.0054066686         3967 
 4855000   0.47121214   -9.7956567    446.89803 0.0076707523 0.0054045925         3966 
 4856000   0.47796661   -9.7978657    445.54023 0.0076458715 0.0054025179         3976 
 4857000   0.47004831    -9.788739    446.03293 0.0076527508 0.0054004467         3970 
 4858000   0.48086882   -9.7955372    446.17045 0.0076535345  0.005398375         3965 
 4859000   0.47228516   -9.7822745    446.50014 0.0076576137  0.005396305         3969 
 4860000   0.48322535   -9.7859074    446.11809 0.0076494871 0.0053942361         3966 
 4861000   0.47347737   -9.7919231    446.54979 0.0076553143 0.0053921664         3967 
 4862000   0.47873907   -9.7851273    446.22115  0.007648107 0.0053900993         3973 
 4863000   0.46871324   -9.8060824     445.0502 0.0076264685 0.0053880333         3970 
 4864000    0.4752281    -9.815916    446.44588 0.0076488123 0.0053859669         3975 
 4865000   0.46622701   -9.7959409    445.72226 0.0076348452  0.005383901         3967 
 4866000   0.48712077   -9.7882938    446.15031 0.0076406067 0.0053818375         3967 
 4867000   0.47617955    -9.810359    445.93353 0.0076353252 0.0053797773         3969 
 4868000   0.47077653   -9.7846733    446.03044 0.0076354157 0.0053777153         3971 
 4869000   0.47659363   -9.7982793      446.027 0.0076337886  0.005375655         3968 
 4870000   0.46153927   -9.7981199    446.43625  0.007639224 0.0053735968         3974 
 4871000   0.46689354   -9.8070544    445.56166 0.0076226931 0.0053715386         3974 
 4872000   0.47676417   -9.8057053    445.84062 0.0076259001 0.0053694811         3970 
 4873000   0.47138767   -9.7925743    446.03163 0.0076276016 0.0053674249         3979 
 4874000   0.46724743   -9.7986902    446.48496 0.0076337874 0.0053653698         3974 
 4875000   0.47016485   -9.7866687    445.40239  0.007613716 0.0053633153         3972 
 4876000   0.46834918   -9.7893084     445.6102 0.0076157062 0.0053612643         3969 
 4877000   0.45838508   -9.7974898    446.23481 0.0076248174 0.0053592125         3960 
 4878000   0.47324317   -9.7903407    445.92693 0.0076179945 0.0053571618         3968 
 4879000   0.48436616   -9.8017926    445.41037 0.0076076104 0.0053551109         3973 
 4880000   0.46933277   -9.8093619    445.13788 0.0076013982 0.0053530616         3962 
 4881000   0.46033342   -9.7876448    445.88196 0.0076125445 0.0053510134         3970 
 4882000   0.47152447   -9.7949603    445.80723 0.0076097097 0.0053489672         3969 
 4883000   0.46557457   -9.7970651    445.82734 0.0076084944 0.0053469217         3975 
 4884000   0.47849622   -9.7971591    446.25823 0.0076142886 0.0053448776         3966 
 4885000   0.48289542   -9.7964292    445.94262 0.0076073459 0.0053428354         3963 
 4886000   0.46482253   -9.7994209     445.2938 0.0075947231 0.0053407941         3975 
 4887000   0.47297859   -9.7883615    445.80961 0.0076019646 0.0053387521         3971 
 4888000   0.46546943   -9.7968191    446.26885 0.0076082387 0.0053367123         3969 
 4889000   0.47020668   -9.8054142    445.74702 0.0075977879 0.0053346743         3967 
 4890000   0.46266226   -9.8055065    445.47051  0.007591522 0.0053326379         3969 
 4891000   0.46986287   -9.7961629    445.69569 0.0075938065 0.0053306011         3969 
 4892000    0.4579562   -9.7938605    445.48784 0.0075887136 0.0053285654         3972 
 4893000   0.46985776   -9.8072723    445.78165 0.0075921665 0.0053265308         3975 
 4894000   0.46534615   -9.8020765    446.13717 0.0075966689  0.005324497         3970 
 4895000   0.47338934   -9.8083338    445.19698  0.007579111  0.005322465         3973 
 4896000   0.46147069   -9.7880993    445.60356 0.0075844833 0.0053204337         3980 
 4897000   0.47558775   -9.8155665    446.10066 0.0075913937 0.0053184038         3973 
 4898000   0.47099043   -9.8019108    445.65917 0.0075823325 0.0053163756         3962 
 4899000   0.47310666   -9.8102878     445.5784 0.0075794108 0.0053143481         3969 
 4900000   0.45905918   -9.8148393    446.01776  0.007585336 0.0053123209         3972 
 4901000   0.46719674    -9.800641    446.05659 0.0075844486 0.0053102962         3976 
 4902000   0.46634514   -9.8027682    446.04556 0.0075827139 0.0053082696         3974 
 4903000   0.47338637   -9.8182024    446.18406 0.0075835212 0.0053062458         3968 
 4904000   0.46058808   -9.8068216     446.6715 0.0075902579 0.0053042242         3968 
 4905000   0.46395476   -9.7928664     445.2723 0.0075649389 0.0053022028         3967 
 4906000   0.47425316   -9.8002536    446.61906 0.0075862729 0.0053001823         3965 
 4907000   0.46708326   -9.8096662    445.35699 0.0075632937 0.0052981634         3960 
 4908000   0.46234827   -9.8028097    445.35152 0.0075616599  0.005296144         3968 
 4909000    0.4682644   -9.8048094    445.68879 0.0075658448  0.005294128         3963 
 4910000   0.45457051   -9.7998705    445.59776  0.007562759 0.0052921104         3975 
 4911000    0.4700221   -9.8066932     444.8833 0.0075490956 0.0052900938         3969 
 4912000   0.46790136    -9.821453    445.56164 0.0075590669 0.0052880792         3978 
 4913000   0.46614555   -9.8236268     445.8417 0.0075622787 0.0052860652         3968 
 4914000   0.47100846   -9.8244082    444.91899 0.0075450921 0.0052840519         3967 
 4915000   0.46600091   -9.8122152    445.26871 0.0075494864 0.0052820408         3967 
 4916000   0.46617599   -9.8154123    445.73552 0.0075558638 0.0052800317         3977 
 4917000   0.46805242   -9.8061304    445.45201 0.0075495222 0.0052780229         3971 
 4918000   0.47531932   -9.8069081    445.84967 0.0075547253  0.005276015         3977 
 4919000   0.46860141   -9.8137407    446.38501 0.0075622587 0.0052740091         3960 
 4920000   0.46423401   -9.8039232    445.91044 0.0075526836 0.0052720034         3963 
 4921000     0.465846   -9.8106427     446.0143 0.0075529075 0.0052699989         3978 
 4922000    0.4672957   -9.7945941    445.61301 0.0075445789 0.0052679954         3966 
 4923000   0.46383882   -9.8126499     445.7434 0.0075452535 0.0052659924         3958 
 4924000   0.46672142   -9.8001927    445.78244 0.0075443819 0.0052639902         3964 
 4925000   0.46896901   -9.8060815    445.95666  0.007545798 0.0052619895         3972 
 4926000   0.47267448    -9.812045    446.01225 0.0075452066 0.0052599886         3971 
 4927000   0.45868246    -9.802902    446.04885 0.0075442942 0.0052579895         3968 
 4928000   0.47179961   -9.8114691    445.47482 0.0075330563 0.0052559921         3974 
 4929000   0.46368739    -9.815077    445.78861 0.0075368331 0.0052539944         3978 
 4930000   0.46002393   -9.8180911    445.42405 0.0075291422 0.0052519991         3969 
 4931000   0.46253394   -9.8143835    445.88977 0.0075354858 0.0052500041         3972 
 4932000   0.47212623   -9.8139317    445.07381 0.0075201712 0.0052480098         3971 
 4933000   0.44875976   -9.8188036    445.82897 0.0075314036 0.0052460166         3967 
 4934000   0.45802648   -9.8119482    445.95456 0.0075319984 0.0052440232         3969 
 4935000   0.45700142   -9.8094177    445.45521 0.0075220401 0.0052420318         3967 
 4936000   0.45251415   -9.8149925     445.9212 0.0075283833  0.005240041         3968 
 4937000   0.46210233   -9.8279683    445.17398 0.0075142458 0.0052380513         3960 
 4938000   0.47221675   -9.8092154     445.5715 0.0075194326 0.0052360639         3960 
 4939000   0.45811852   -9.8199116    445.84873 0.0075225878 0.0052340772         3974 
 4940000   0.47302993   -9.8106514    445.80902  0.007520395 0.0052320898         3974 
 4941000   0.46512625   -9.8120274    445.38915 0.0075117916 0.0052301054         3966 
 4942000   0.46072036   -9.8199418    445.41823 0.0075107621 0.0052281211         3968 
 4943000   0.45678035   -9.8193265    445.22771 0.0075060305 0.0052261384         3979 
 4944000   0.44289226   -9.8238402    445.18913  0.007503862 0.0052241552         3969 
 4945000   0.46511118    -9.814339    445.41801 0.0075062018 0.0052221748         3964 
 4946000   0.46332136   -9.8158092    445.57678 0.0075073592 0.0052201958         3970 
 4947000   0.46059275   -9.8074379    445.83264 0.0075101515 0.0052182171         3967 
 4948000   0.46640429    -9.809101     445.5688 0.0075041903  0.005216239         3971 
 4949000   0.46038222   -9.8075147    445.70781 0.0075050147 0.0052142631         3965 
 4950000   0.45477806    -9.821364    445.53057 0.0075005147 0.0052122869         3972 
 4951000   0.44919574   -9.8080566    446.26338 0.0075113341 0.0052103121         3965 
 4952000   0.45833385   -9.8135474    445.60844 0.0074987957 0.0052083372         3969 
 4953000   0.44028064   -9.8121932    445.41806 0.0074940787 0.0052063653         3970 
 4954000   0.46788488    -9.809818    445.13556 0.0074878139 0.0052043922         3975 
 4955000   0.45196793   -9.8149941    445.80868 0.0074976234 0.0052024216         3977 
 4956000   0.46156153   -9.8072458    445.05143 0.0074833776  0.005200452         3966 
 4957000   0.46405517   -9.8204148    445.21135 0.0074845564 0.0051984846         3963 
 4958000    0.4599302   -9.8194006    444.70246 0.0074744933 0.0051965185         3973 
 4959000   0.46335997   -9.8334477    445.68264 0.0074894575 0.0051945531         3976 
 4960000     0.454805   -9.8272354    444.94299 0.0074755206 0.0051925884         3968 
 4961000   0.45500958   -9.8196609    445.69679 0.0074866758 0.0051906241         3968 
 4962000   0.44328174   -9.8117481    445.29239 0.0074783754 0.0051886613         3975 
 4963000   0.46191746   -9.8212254    445.32113 0.0074773513    0.0051867         3974 
 4964000   0.46396293   -9.8358601    445.10928 0.0074722885 0.0051847384         3979 
 4965000   0.44675898   -9.8189535    444.75582 0.0074648509 0.0051827773         3971 
 4966000   0.45847228    -9.830356    444.95411 0.0074666752 0.0051808173         3970 
 4967000   0.45479975   -9.8221024    445.51951 0.0074746579 0.0051788604         3963 
 4968000   0.45210732   -9.8137209    445.24339 0.0074685217 0.0051769045         3968 
 4969000   0.45674777   -9.7982988    445.28809 0.0074677683 0.0051749485         3976 
 4970000   0.45273916   -9.8180287    445.31584 0.0074667311 0.0051729942         3961 
 4971000   0.45380157   -9.8269056    445.51418 0.0074685539 0.0051710404         3975 
 4972000    0.4654222   -9.8272303    445.56298 0.0074678697  0.005169086         3971 
 4973000   0.45789482   -9.8267847    445.36303 0.0074630175  0.005167134         3971 
 4974000   0.46659718    -9.818163    445.62045 0.0074658298 0.0051651832         3973 
 4975000   0.45323999   -9.8348869    445.59004 0.0074638197 0.0051632346         3969 
 4976000   0.45812851   -9.8161422    445.49344  0.007460702 0.0051612859         3972 
 4977000   0.45667125   -9.8215127    444.63092 0.0074447613  0.005159338         3974 
 4978000   0.45328209   -9.8284885     445.6937  0.007461057 0.0051573914         3977 
 4979000   0.44956014   -9.8249895     445.9334 0.0074635703 0.0051554465         3972 
 4980000   0.44790459    -9.810377    444.85689 0.0074440577 0.0051535001         3971 
 4981000   0.46859015    -9.822958    445.59618 0.0074549317 0.0051515562         3973 
 4982000   0.45817956   -9.8206672    445.24656 0.0074475872  0.005149612         3971 
 4983000   0.45431604   -9.8267141    445.28456 0.0074467282  0.005147669         3968 
 4984000   0.45388095   -9.8110551    445.46129 0.0074481891 0.0051457285         3959 
 4985000   0.45494734   -9.8238595    445.68148 0.0074503757 0.0051437883         3967 
 4986000   0.45524188   -9.8292077    445.22365 0.0074412295 0.0051418493         3972 
 4987000   0.45116048    -9.809712    445.14362 0.0074384001 0.0051399108         3966 
 4988000    0.4493042   -9.8362864    445.10291 0.0074362287 0.0051379738         3973 
 4989000   0.46621409   -9.8268155    445.87117 0.0074475708 0.0051360378         3967 
 4990000     0.448433   -9.8233196    445.09255 0.0074330753 0.0051341035         3969 
 4991000    0.4590494   -9.8194063    444.70358 0.0074250915 0.0051321698         3964 
 4992000   0.44945464      -9.8191    445.73664 0.0074408494 0.0051302359         3957 
 4993000    0.4511041   -9.8250735    444.91794  0.007425695 0.0051283038         3966 
 4994000   0.45094148   -9.8203632    445.69443 0.0074371651 0.0051263728         3973 
 4995000   0.44998267   -9.8193363     445.4815 0.0074321238 0.0051244436         3965 
 4996000    0.4524599      -9.8058     445.3216 0.0074279691 0.0051225146         3961 
 4997000   0.46654085   -9.8293879    445.66262 0.0074321697 0.0051205871         3970 
 4998000   0.44766226   -9.8191408    445.13765 0.0074219295 0.0051186603         3959 
 4999000   0.46138985   -9.8250375    445.49592 0.0074264173  0.005116733         3961 
 5000000   0.44581154   -9.8384457    445.17109 0.0074195181 0.0051148083         3965 
 5001000   0.45063996    -9.833743    445.45811 0.0074228173 0.0051128835         3966 
 5002000   0.45590232   -9.8367199    445.54476 0.0074227768 0.0051109602         3968 
 5003000     0.459483   -9.8322612    445.11733 0.0074141736 0.0051090374         3970 
 5004000   0.45507009   -9.8329302    445.07901 0.0074120538 0.0051071159         3973 
 5005000   0.44538344   -9.8209753    445.31539 0.0074145086 0.0051051957         3962 
 5006000   0.45473385    -9.830476     445.3601 0.0074137719 0.0051032761         3968 
 5007000   0.44427764    -9.817485    445.55027 0.0074154563 0.0051013569         3974 
 5008000   0.44491038   -9.8193423    445.73731 0.0074170878 0.0050994389         3966 
 5009000    0.4524213    -9.837028    444.90874 0.0074018224 0.0050975219         3972 
 5010000   0.44768364   -9.8296637    445.18774 0.0074049856 0.0050956073         3971 
 5011000   0.44842204    -9.825038    445.30748 0.0074054992 0.0050936938         3960 
 5012000   0.45594809   -9.8293106    445.47469 0.0074068018 0.0050917815         3967 
Loop time of 13204.4 on 48 procs for 5000000 steps with 4000 atoms

Performance: 65432.870 tau/day, 378.662 timesteps/s
99.4% CPU use with 48 MPI tasks x no OpenMP threads

MPI task timing breakdown:
Section |  min time  |  avg time  |  max time  |%varavg| %total
---------------------------------------------------------------
Pair    | 991.99     | 1096.1     | 1216.3     | 181.1 |  8.30
Neigh   | 93.462     | 97.602     | 102.58     |  23.0 |  0.74
Comm    | 804.7      | 944.98     | 1051.1     | 200.5 |  7.16
Output  | 19.075     | 19.08      | 19.178     |   0.3 |  0.14
Modify  | 10886      | 10926      | 10970      |  17.2 | 82.74
Other   |            | 120.7      |            |       |  0.91

Nlocal:        83.3333 ave          91 max          77 min
Histogram: 3 1 4 7 9 18 3 2 0 1
Nghost:        2437.69 ave        2454 max        2424 min
Histogram: 3 3 5 5 9 9 10 2 1 1
Neighs:        16792.4 ave       19156 max       14625 min
Histogram: 4 5 5 7 5 6 3 4 5 4
FullNghs:      33582.3 ave       36963 max       30407 min
Histogram: 2 2 2 4 14 13 9 1 0 1

Total # of neighbors = 1611950
Ave neighs/atom = 402.98750
Neighbor list builds = 265903
Dangerous builds = 1

#clear
#
#next RN
#
#jump SELF
Total wall time: 3:40:07
