
units lj                  # Use reduced LJ style units
atom_style atomic         # Uncharged point particles
atom_modify map hash      # Needed for indexing of clusters etc
                          # Used to be able to find where atoms are in relation to each other.

lattice fcc 1.0 spacing 1 1 1
Lattice spacing in x,y,z = 1.5874011 1.5874011 1.5874011
region box block 0 10 0 10 0 10 units lattice
create_box 2 box
Created orthogonal box = (0.0000000 0.0000000 0.0000000) to (15.874011 15.874011 15.874011)
  3 by 4 by 4 MPI processor grid
create_atoms 1 box
Created 4000 atoms
  using lattice units in orthogonal box = (0.0000000 0.0000000 0.0000000) to (15.874011 15.874011 15.874011)
  create_atoms CPU = 0.004 seconds
set type 1 type/fraction 2 0.89 78393
Setting atom values ...
  3550 settings made for type/fraction
mass 1 1.0
mass 2 1.0
pair_style lj/cut  3.5
pair_modify tail  yes
pair_coeff 1  1  1.0  1.0   # Intearaction between 1 and 1 set with epsilon = 1 and sigma = 1
pair_coeff 1  2  1.5  0.8
pair_coeff 2  2  0.5  0.88

write_data data.0
System init for write_data ...
Neighbor list info ...
  update every 1 steps, delay 10 steps, check yes
  max neighbors/atom: 2000, page size: 100000
  master list distance cutoff = 3.8
  ghost atom cutoff = 3.8
  binsize = 1.9, bins = 9 9 9
  1 neighbor lists, perpetual/occasional/extra = 1 0 0
  (1) pair lj/cut, perpetual
      attributes: half, newton on
      pair build: half/bin/atomonly/newton
      stencil: half/bin/3d
      bin: standard
WARNING: Not all mixed pair coeffs generated from mixing. Use write_data with 'pair ij' option to store all pair coeffs. (../write_data.cpp:312)


#############################
#   M E L T   S Y S T E M   #
#############################

velocity all create 2.4 1741580 mom yes dist gaussian # Assign velocities
                                                    # Temperature 2.4, random number seed, zero linear momentum
                                                                                # Gaussian distribution

timestep 0.002   # simulation timestep
thermo 1000       # output thermodynamic data every 1000 steps bf 100

# Define a fix  in this case with index 1 applied to all
# particles in the simulation. This fix is for simulations
# in the anisotropic NPT ensemble. Note that we use the MTK
# correction.
fix 1 all npt temp 2.4 2.4 0.1 iso 5.68 5.68 0.5 mtk yes tchain 5 pchain 5 # Use NPT ensemble
                                                                         # Set temperature and pressure and damping
                                                                         # Numbers of thermostats in chain and in barostat
run 10000          # run for 10000 steps
Per MPI rank memory allocation (min/avg/max) = 3.642 | 3.644 | 3.648 Mbytes
Step Temp E_pair E_mol TotEng Press Volume 
       0          2.4   -3.2438273            0   0.35527274   -2.6679874         4000 
    1000    2.4019431   -2.3341346            0    1.2678793    5.5079048    3986.6788 
    2000    2.4125286   -2.3795245            0    1.2383638    5.5300117     3966.075 
    3000    2.3819255   -2.3144279            0    1.2575672    5.8684132    3952.1409 
    4000    2.3990491   -2.3380167            0    1.2596573    5.7143762    3956.9802 
    5000    2.3724485   -2.3072448            0    1.2505383    5.7049606    3977.1137 
    6000    2.4336852   -2.2835824            0    1.3660328    5.5926923    4030.2482 
    7000    2.4322501   -2.2980293            0    1.3494338    5.7972988    3974.1292 
    8000    2.3661527   -2.3079583            0    1.2403835    5.7646134    3973.5754 
    9000    2.3937666   -2.3243599            0    1.2653923    5.5922052    3991.1847 
   10000    2.3817682   -2.3478719            0    1.2238872    5.7172201    3949.4008 
Loop time of 2.45469 on 48 procs for 10000 steps with 4000 atoms

Performance: 703959.616 tau/day, 4073.840 timesteps/s
99.6% CPU use with 48 MPI tasks x no OpenMP threads

MPI task timing breakdown:
Section |  min time  |  avg time  |  max time  |%varavg| %total
---------------------------------------------------------------
Pair    | 1.1181     | 1.1606     | 1.2112     |   1.9 | 47.28
Neigh   | 0.20893    | 0.2158     | 0.22427    |   0.7 |  8.79
Comm    | 0.77512    | 0.82971    | 0.88363    |   2.9 | 33.80
Output  | 0.00025976 | 0.0002646  | 0.00032831 |   0.0 |  0.01
Modify  | 0.20891    | 0.23322    | 0.25926    |   2.8 |  9.50
Other   |            | 0.01509    |            |       |  0.61

Nlocal:        83.3333 ave          94 max          75 min
Histogram: 2 7 5 9 8 2 9 1 4 1
Nghost:        1655.08 ave        1679 max        1632 min
Histogram: 3 2 5 7 8 7 5 6 2 3
Neighs:        9652.81 ave       11227 max        8424 min
Histogram: 5 3 8 6 7 5 7 5 0 2

Total # of neighbors = 463335
Ave neighs/atom = 115.83375
Neighbor list builds = 909
Dangerous builds = 244

# Equilibrate just above the melting temperature to avoid step fn in T

fix 1 all npt temp 1.25 1.25 0.1 iso 5.68 5.68 0.5 mtk yes tchain 5 pchain 5
run 2000
Per MPI rank memory allocation (min/avg/max) = 3.643 | 3.645 | 3.649 Mbytes
Step Temp E_pair E_mol TotEng Press Volume 
   10000    2.3817682   -2.3478719            0    1.2238872    5.7172201    3949.4008 
   11000     1.244223   -3.4731295            0   -1.6072616    5.4323683    3084.0508 
   12000    1.2781676   -3.4631249            0   -1.5463528    5.6820419    3085.1537 
Loop time of 0.600727 on 48 procs for 2000 steps with 4000 atoms

Performance: 575302.808 tau/day, 3329.299 timesteps/s
99.6% CPU use with 48 MPI tasks x no OpenMP threads

MPI task timing breakdown:
Section |  min time  |  avg time  |  max time  |%varavg| %total
---------------------------------------------------------------
Pair    | 0.2698     | 0.295      | 0.31274    |   1.6 | 49.11
Neigh   | 0.039024   | 0.04146    | 0.043214   |   0.4 |  6.90
Comm    | 0.19396    | 0.21505    | 0.24434    |   2.1 | 35.80
Output  | 5.2265e-05 | 5.3674e-05 | 6.7424e-05 |   0.0 |  0.01
Modify  | 0.041206   | 0.044202   | 0.047509   |   0.9 |  7.36
Other   |            | 0.00496    |            |       |  0.83

Nlocal:        83.3333 ave          92 max          77 min
Histogram: 6 2 11 5 8 3 4 1 5 3
Nghost:        1951.21 ave        1979 max        1932 min
Histogram: 3 2 13 4 13 7 1 3 1 1
Neighs:        12377.1 ave       14285 max       11056 min
Histogram: 4 6 6 11 6 3 7 2 1 2

Total # of neighbors = 594100
Ave neighs/atom = 148.52500
Neighbor list builds = 142
Dangerous builds = 9

#############################
# L I N E A R  Q U E N C H  #
#############################

# Define solid atoms. This closely follows ten Wolde  Ruiz-Montero and Frenkel  Faraday Discuss  1996  104  93-110
# Compute components of the per-atom q6 vector
compute q6 all orientorder/atom degrees 1 6 components 6 nnn NULL cutoff 1.3 # compute the Q6 parameter.
                                                                             # Use all neighbours within 1.3 unit cell.

# get number of connections
compute coord_number all coord/atom orientorder q6 0.5

# An atom is solid if it has 8 or more connections (of a possible 14)
variable is_solid atom c_coord_number>=8
group solid dynamic all var is_solid    # Must be dynamic to update
dynamic group solid defined

# do clustering
compute cluster solid cluster/atom 1.3 # Create a cluster where all atoms within are solid and max 1.3 units from another member

# define chunks one chunk per cluster
compute clus_chunks solid chunk/atom c_cluster nchunk every compress yes  # Says which atoms are in which chunk

# count the size of each chunk
compute size_chunks solid property/chunk clus_chunks count


# Find the maximum entry in the vector of chunk sizes
variable max_n equal max(c_size_chunks)


# Thermo style which includes this variable
# thermo_style custom step temp pe vol v_max_n

thermo ${N}  # Print the thermo information every 100 steps
thermo 1000  

# Reset the npt fix at a lower temperature (below freezing)
fix 1  all npt temp  ${temp} ${temp}  0.1  iso  5.68  5.68  0.5  mtk yes tchain  5  pchain  5
fix 1  all npt temp  0.45 ${temp}  0.1  iso  5.68  5.68  0.5  mtk yes tchain  5  pchain  5
fix 1  all npt temp  0.45 0.45  0.1  iso  5.68  5.68  0.5  mtk yes tchain  5  pchain  5

dump dmp2 all dcd ${N} traj.dcd
dump dmp2 all dcd 1000 traj.dcd


compute msd all msd com yes
variable twopoint equal c_msd[4]/6/(step*dt+1.0e-6)
fix 9 all vector 10 c_msd[4]
variable fit equal slope(f_9)/6/(10*dt)
thermo_style custom step temp pe c_msd[4] v_twopoint v_fit v_max_n

fix 1 all npt temp 1.25 ${temp} 0.1 iso 5.68 5.68 0.5 mtk yes tchain 5 pchain 5
fix 1 all npt temp 1.25 0.45 0.1 iso 5.68 5.68 0.5 mtk yes tchain 5 pchain 5
run 5000000 # 5000000  # Run for this many steps
Neighbor list info ...
  update every 1 steps, delay 10 steps, check yes
  max neighbors/atom: 2000, page size: 100000
  master list distance cutoff = 3.8
  ghost atom cutoff = 3.8
  binsize = 1.9, bins = 8 8 8
  4 neighbor lists, perpetual/occasional/extra = 1 3 0
  (1) pair lj/cut, perpetual
      attributes: half, newton on
      pair build: half/bin/atomonly/newton
      stencil: half/bin/3d
      bin: standard
  (2) compute orientorder/atom, occasional
      attributes: full, newton on
      pair build: full/bin/atomonly
      stencil: full/bin/3d
      bin: standard
  (3) compute coord/atom, occasional
      attributes: full, newton on
      pair build: full/bin/atomonly
      stencil: full/bin/3d
      bin: standard
  (4) compute cluster/atom, occasional
      attributes: full, newton on
      pair build: full/bin/atomonly
      stencil: full/bin/3d
      bin: standard
Per MPI rank memory allocation (min/avg/max) = 9.823 | 9.830 | 9.836 Mbytes
Step Temp PotEng c_msd[4] v_twopoint v_fit v_max_n 
   12000    1.2781676   -3.4631249 5.0581761e-30 3.5126222e-32 8.3333333e+20            3 
   13000    1.2387052   -3.4510632    0.9990055 0.0064038812  0.083748794            3 
   14000    1.2471123    -3.468324    2.0784302  0.012371608  0.089114404            1 
   15000    1.2719245   -3.4533008    3.1558157  0.017532309  0.089665003            2 
   16000    1.2845339   -3.4468036    4.2383607  0.022074795  0.089262817            1 
   17000    1.2486646   -3.4536482    5.3601948  0.026275464  0.089904039            3 
   18000    1.2437544   -3.4648397    6.4532954  0.029876367  0.090309389            3 
   19000    1.2302336   -3.4410582     7.709995  0.033815767  0.091552263            1 
   20000    1.2643669   -3.4444283    8.8228222  0.036761758  0.092456504            2 
   21000    1.2601909   -3.5010788    9.8957017  0.039268656   0.09274939            2 
   22000    1.2613084   -3.4219365    11.047307  0.041845858   0.09306077            1 
   23000    1.2156658   -3.4404741    12.274834  0.044474035  0.093387502            2 
   24000    1.2361462   -3.4369939    13.331144  0.046288693  0.093527845            2 
   25000    1.2509936   -3.4731927    14.506742  0.048355807  0.093469505            2 
   26000    1.2490895   -3.4476712    15.653513  0.050171514  0.093750564            1 
   27000    1.2377782   -3.4644022    16.787791  0.051814169  0.093871533            3 
   28000    1.2083549   -3.4554533    17.736393  0.052786882  0.093778983            1 
   29000    1.2584708    -3.501077    18.849566  0.054165418  0.093658061            3 
   30000    1.2356408   -3.4426469    19.925974  0.055349926  0.093596282            3 
   31000    1.2325888   -3.4793838    20.865041  0.056088819  0.093412346            1 
   32000    1.2247504   -3.4671934    21.879262  0.056977245  0.093242956            3 
   33000    1.2505693   -3.4524814    23.089931  0.058307905  0.093035611            1 
   34000    1.2210453   -3.4660867    24.006283  0.058838929  0.092681938            1 
   35000    1.2326274   -3.4924251    25.299815  0.060237653  0.092439863            3 
   36000    1.2505274   -3.4850974    26.311621  0.060906528   0.09227156            2 
   37000    1.2082891   -3.4626416    27.549969  0.062049478  0.092129033            3 
   38000    1.2533919   -3.4870294    28.489772   0.06247757  0.092076958            1 
   39000      1.20624   -3.4183055    29.610164   0.06326958  0.092024419            1 
   40000    1.2316574   -3.4292426    31.226584  0.065055383   0.09201377            1 
   41000    1.2424452    -3.467647    32.291025  0.065632164  0.092150066            3 
   42000    1.2627233   -3.4586992    33.273094  0.066018042  0.092308355            2 
   43000    1.2520995    -3.450969    34.759189  0.067362768   0.09251804            1 
   44000    1.2595107   -3.4601006    35.968861  0.068122843   0.09273063            1 
   45000    1.2592466   -3.4752918    36.883595  0.068302954  0.092862193            3 
   46000    1.2265177   -3.4784727    37.978735  0.068802055  0.092963836            2 
   47000     1.232558    -3.433016    39.219475  0.069538076   0.09308177            2 
   48000    1.2451049    -3.499908    40.099552  0.069617277  0.093160777            2 
   49000    1.2474678   -3.4496393    41.338169  0.070303007  0.093202355            1 
   50000    1.2479823    -3.457757    42.192198  0.070320329  0.093219806            2 
   51000    1.2523577   -3.4841487    43.438292  0.070977601   0.09323135            1 
   52000    1.2138888   -3.4372309    44.694506   0.07162581  0.093255045            2 
   53000    1.2375201   -3.4857892    45.656881  0.071787548  0.093275629            2 
   54000    1.2512643   -3.4579043    46.749797  0.072144748  0.093271156            4 
   55000    1.2693512   -3.4703803    47.743428  0.072338526  0.093228545            1 
   56000    1.2390634   -3.4413292    48.920539  0.072798421   0.09315815            1 
   57000    1.2508734   -3.4636949    49.642749  0.072577118  0.093078429            4 
   58000    1.2435544   -3.4824152    50.421813  0.072445134  0.092949612            1 
   59000    1.2513923   -3.4746306     51.66019  0.072966369  0.092825428            1 
   60000    1.1992719   -3.4770226    52.691978  0.073183302  0.092671041            2 
   61000    1.2391087   -3.4527453    53.968758  0.073727811  0.092580903            2 
   62000    1.2410536   -3.5007205     54.94658  0.073852929   0.09250137            2 
   63000    1.2422893   -3.4810596    56.322368  0.074500486  0.092432913            2 
   64000    1.2189468   -3.5096907    57.624308  0.075031651  0.092393916            3 
   65000    1.2420579   -3.4581409    58.657166  0.075201494  0.092381392            1 
   66000    1.2293317   -3.4831092     59.77261  0.075470466  0.092372455            2 
   67000    1.2260667   -3.4491715    60.904704  0.075752119  0.092363158            1 
   68000    1.2441554   -3.4848067    61.590163   0.07547814  0.092358985            1 
   69000    1.2709706   -3.4703112    62.876137  0.075937362  0.092335894            4 
   70000     1.250748   -3.4808315    63.709911  0.075845132   0.09228909            1 
   71000    1.2100771   -3.4451071    65.287949  0.076629048  0.092237521            2 
   72000    1.2400336   -3.4842544    65.581801  0.075904862  0.092164697            2 
   73000    1.2290556   -3.4888129    66.724106   0.07616907  0.092087639            1 
   74000    1.1952992   -3.4538766    67.485718   0.07599743  0.091981438            2 
   75000    1.1990141   -3.4448656    68.941138  0.076601264  0.091871961            1 
   76000     1.248334   -3.4869904    69.663404   0.07638531  0.091753651            2 
   77000    1.2362782   -3.4591449    70.841316  0.076668091  0.091642839            1 
   78000    1.2607793   -3.4384712     71.78473  0.076693088  0.091542892            2 
   79000    1.2367754   -3.4560212    72.795593    0.0767886  0.091452569            3 
   80000    1.2031489   -3.4755633     74.14052  0.077229708  0.091363535            1 
   81000    1.2285718   -3.4792342     75.18581  0.077351656  0.091298076            1 
   82000    1.2747574   -3.4843078    76.110956  0.077348532  0.091247266            2 
   83000    1.2203449   -3.4678145    76.999251  0.077308484  0.091154827            2 
   84000    1.2570963    -3.490062    77.849114  0.077231264  0.091055302            5 
   85000    1.2212602    -3.446374    79.238861  0.077685158  0.090966542            1 
   86000     1.211717   -3.4823433    80.284695  0.077795246  0.090882209            2 
   87000    1.2357821   -3.4629809     81.47824   0.07804429  0.090805137            1 
   88000    1.2495205   -3.4877644    82.261147  0.077898813  0.090734643            1 
   89000    1.2485299   -3.4697242    83.001614  0.077716866  0.090648313            3 
   90000    1.2604529   -3.4907562    84.070513  0.077843067  0.090566376            1 
   91000    1.2207341   -3.4552014    85.252743  0.078070277  0.090467295            1 
   92000    1.2502207   -3.4753287    85.660567  0.077591093  0.090370828            2 
   93000    1.2164717   -3.4469982    87.119093  0.078063703  0.090247964            4 
   94000    1.2265197   -3.4781487    88.127023  0.078126793  0.090148108            1 
   95000    1.2029679   -3.4785417    88.921044  0.078000915   0.09004268            2 
   96000    1.2296336   -3.4632186    89.791518  0.077944025  0.089939425            2 
   97000    1.2333044   -3.5075618     91.21606  0.078364312  0.089834384            3 
   98000    1.2497964   -3.5053968    92.487878  0.078646154  0.089767308            1 
   99000    1.2278667   -3.4535266    93.569547  0.078762245  0.089712156            1 
  100000    1.2244363   -3.4748751    94.776157  0.078980131  0.089677028            1 
  101000     1.229749   -3.4972286    95.132987  0.078492563  0.089626491            2 
  102000    1.2529386    -3.442271    96.004026  0.078434662  0.089556151            2 
  103000    1.2362042   -3.5085466    97.082431  0.078545656  0.089482473            1 
  104000     1.237832   -3.4540702    98.685574  0.079074979  0.089410482            1 
  105000    1.2359068   -3.4953967    99.104637  0.078654473  0.089328967            3 
  106000    1.2360479   -3.4769028    100.31267  0.078862162  0.089245797            2 
  107000    1.2183015   -3.4917514    101.51844  0.079064208  0.089180659            2 
  108000    1.2363395   -3.4357216    102.74644   0.07927966  0.089117833            2 
  109000    1.2339065   -3.4988803    103.26768  0.078950823  0.089059546            2 
  110000    1.2729026    -3.468092    103.74071  0.078591443  0.088979741            1 
  111000    1.2445208   -3.5026803    104.76313  0.078650997  0.088896654            1 
  112000     1.218373   -3.4704813    105.99308  0.078863902  0.088811307            4 
  113000    1.2300913   -3.4662713    106.37458  0.078447329  0.088714223            1 
  114000    1.2401492   -3.4757486    107.29373  0.078431086  0.088603207            1 
  115000    1.2615083   -3.4835464    107.80851  0.078122105  0.088493366            1 
  116000    1.2000182   -3.5004484     109.2724  0.078500287  0.088373453            2 
  117000    1.2392235   -3.4467706    110.16471   0.07846489  0.088269273            1 
  118000    1.2543997   -3.4696167    111.34682  0.078634763  0.088155455            1 
  119000    1.2283952    -3.466562    111.91896  0.078374619  0.088056028            1 
  120000      1.24885   -3.4797842    113.27652  0.078664248  0.087954075            1 
  121000    1.2382697    -3.490885    114.31116  0.078726691  0.087877081            2 
  122000    1.2131101   -3.4957991    115.43253  0.078847355  0.087803645            1 
  123000    1.2128187   -3.5021031    116.50334  0.078931805  0.087734617           10 
  124000    1.2272737   -3.5076582    117.44221  0.078926215  0.087661977            2 
  125000    1.2312117   -3.5012001    117.93207   0.07862138  0.087590715            3 
  126000    1.2327907   -3.4931445    119.22418   0.07885197  0.087514121            1 
  127000    1.2143658   -3.4815722    121.22429  0.079543494  0.087450609            1 
  128000    1.2415428   -3.5364692    121.23636  0.078929924   0.08738128            1 
  129000    1.1972401   -3.4797195    122.40588  0.079073569  0.087318677            3 
  130000     1.238831   -3.4497639    124.26927  0.079659786  0.087263535            3 
  131000    1.2335998   -3.4937479    124.55065  0.079230694  0.087198205            1 
  132000    1.2298095   -3.4720621    125.54207  0.079256357  0.087141178            1 
  133000    1.2275579   -3.4864135    126.15192  0.079042558   0.08707117            1 
  134000    1.2184648   -3.4607722    127.38619  0.079220266  0.087014022            3 
  135000    1.2655642   -3.4813072    128.58883  0.079375822  0.086954814            1 
  136000    1.2334324   -3.4821426    129.51979  0.079362615   0.08689332            1 
  137000    1.2449968   -3.4736448    129.99111  0.079070017  0.086838444            1 
  138000    1.2485747   -3.4788812     130.9566  0.079080071  0.086778509            1 
  139000     1.222296   -3.4851591    131.87265  0.079060339  0.086704564            2 
  140000    1.2396991   -3.4884301    133.24719  0.079313801  0.086637139            2 
  141000    1.2302932   -3.5151361    133.77412   0.07906272  0.086572734            2 
  142000    1.2405177   -3.4593823    134.94965  0.079195801  0.086512173            1 
  143000    1.2039532   -3.4776717    135.16185  0.078765647  0.086441084            1 
  144000    1.2155385    -3.470491     136.4184  0.078945833  0.086368448            1 
  145000    1.2455428   -3.5027472    137.50591  0.079026384  0.086290165            1 
  146000    1.2268278    -3.468754     138.5146  0.079060847  0.086210474            3 
  147000    1.2289755   -3.4312466    139.64772  0.079165375   0.08613733       -1e+20 
  148000    1.2651001    -3.471466    140.22528  0.078955676  0.086065642            2 
  149000    1.2180093   -3.4551762    141.64151  0.079217845   0.08600398            1 
  150000     1.218221   -3.4672637    142.55284  0.079196023  0.085941422       -1e+20 
  151000    1.2377659   -3.4906335    143.83335   0.07937823  0.085882852            2 
  152000      1.19606   -3.4976143    144.06507  0.078983041  0.085821965            2 
  153000    1.2192638   -3.4885811    144.64527  0.078782827  0.085759265            1 
  154000    1.2375354   -3.4678603    146.62062  0.079340164  0.085695145            2 
  155000    1.2161373   -3.4645331    147.23696  0.079159655  0.085636431            1 
  156000    1.2423249   -3.5181801    148.48236  0.079317498  0.085581272            1 
  157000     1.240179   -3.4720188    148.99239   0.07908301  0.085525666            3 
  158000    1.2197134   -3.4999168    150.17313  0.079205239   0.08546703            3 
  159000    1.2620783    -3.544736    149.90015   0.07856402  0.085402175            1 
  160000    1.2302133   -3.4976475     151.7225  0.079022137   0.08533997            4 
  161000    1.2292584   -3.4952732    152.80293  0.079090541  0.085273704            1 
  162000    1.2465768   -3.4804887    154.10109  0.079270108  0.085210775            2 
  163000    1.2474244   -3.4828061    154.73118  0.079105918  0.085157978            2 
  164000    1.2128637   -3.4533071    155.98331  0.079259813  0.085111653            1 
  165000    1.2208941    -3.493052     156.6986  0.079140706  0.085062344            3 
  166000    1.2534433   -3.4510398     157.4347  0.079033486  0.085007108            1 
  167000    1.2131887   -3.5034437    158.82868  0.079255826  0.084962705            1 
  168000    1.2385143   -3.5224899    159.68247  0.079207573  0.084920505            3 
  169000     1.225651    -3.491988    161.43782  0.079604446  0.084880264            1 
  170000    1.2160899   -3.5043762    161.86475  0.079345464  0.084847189            2 
  171000    1.2121858    -3.516055    163.85694   0.07985231  0.084818669            3 
  172000    1.2397668   -3.4812119    165.12568   0.08000275  0.084795863            1 
  173000    1.2133514   -3.4929385    165.94485  0.079934898  0.084777536            1 
  174000    1.2376907   -3.5016572    167.78438  0.080356506  0.084769365            1 
  175000    1.2264821   -3.4967883    168.52268  0.080248894   0.08476215            1 
  176000    1.2122349   -3.4696644    169.30121  0.080161555  0.084746308            1 
  177000    1.2314395   -3.4990278     170.0141  0.080044301  0.084733096            1 
  178000    1.2244184   -3.4826157    171.55356  0.080315336  0.084721457            1 
  179000    1.2391889   -3.4937144    172.16496  0.080151284  0.084714785            4 
  180000    1.2310821   -3.4904539    173.94713  0.080531078   0.08471081            1 
  181000    1.2345305   -3.5268518    174.70146  0.080433454  0.084710074            2 
  182000    1.2096047   -3.4937841    176.06915  0.080617741  0.084711942            2 
  183000    1.2090133   -3.5050921    176.15228  0.080215063  0.084702935            1 
  184000    1.2316404   -3.4959754    176.58247  0.079973943  0.084692658            2 
  185000    1.2079659   -3.5229863    177.85104  0.080113082  0.084679477            4 
  186000    1.2247547   -3.4926978    179.47521  0.080410042  0.084664416            2 
  187000    1.2312913   -3.4996851    179.58935  0.080030905  0.084657612            2 
  188000    1.2229783   -3.5219707    180.41399  0.079970739   0.08463679            3 
  189000    1.2207754   -3.4866959    182.21415  0.080341338  0.084620308            2 
  190000    1.2286402   -3.4794019    182.06807  0.079854416  0.084602087            2 
  191000    1.2285732    -3.501065    183.03093  0.079856425  0.084571588            2 
  192000    1.2272973   -3.4904875     184.4406  0.080052344  0.084542796            1 
  193000    1.2386754   -3.5327416    184.86288  0.079819897  0.084517639            2 
  194000    1.2218118   -3.5161985    186.01385  0.079902855  0.084492476            1 
  195000    1.2237995   -3.5152083     187.3498  0.080064016  0.084464564            2 
  196000    1.2009935   -3.4968681    187.25254  0.079614176  0.084443235            3 
  197000    1.2136517   -3.5293565    188.83101  0.079877753  0.084410991            1 
  198000    1.2064043   -3.4881997    190.38533  0.080128505  0.084387659            1 
  199000    1.2104455   -3.5086172    191.86764  0.080346584  0.084362446            1 
  200000    1.2420677   -3.5032642    192.75677   0.08031532  0.084342488            1 
  201000    1.2363306    -3.503436    192.95395  0.079997492  0.084319552            2 
  202000    1.1889633   -3.4865265    193.92701  0.080002891  0.084289693            1 
  203000    1.2361065   -3.5118135    194.74475   0.07994448  0.084267101            2 
  204000    1.2300253   -3.5034189    196.31259   0.08019305   0.08424519            3 
  205000    1.2455688   -3.5368546    196.44355  0.079855102  0.084230164            3 
  206000    1.2058757   -3.4606896    199.17277  0.080571509  0.084213713            1 
  207000    1.2040581    -3.518244    199.18639  0.080187758    0.0842009            1 
  208000    1.2366788   -3.4743351    200.61623  0.080375091  0.084185875            2 
  209000    1.2027072   -3.4987516    201.33355  0.080276536  0.084159863            2 
  210000    1.2492158   -3.4939032    201.35807  0.079903995  0.084133693            3 
  211000    1.2146729   -3.5071149    202.95608   0.08015643  0.084109277            1 
  212000    1.2293736   -3.4998359    203.98953  0.080184565  0.084087417            2 
  213000    1.2182935   -3.4962787    203.88252  0.079766245  0.084059014            3 
  214000    1.2198669   -3.5256849     205.0818  0.079860513  0.084034369            4 
  215000    1.2042732   -3.5081503    206.12107  0.079891886  0.084007346            2 
  216000    1.1973904   -3.5124293     206.4311  0.079641626  0.083978317            3 
  217000    1.2273194   -3.5249756    207.44898  0.079665507  0.083955609            4 
  218000    1.2268878   -3.4802199    209.28365  0.080001395   0.08393088            1 
  219000    1.2087513   -3.5127026    210.67787  0.080166616  0.083914455            1 
  220000    1.2241521   -3.4874206    212.01724  0.080309559  0.083899071            3 
  221000    1.2225005   -3.5029032    213.47067  0.080494219  0.083880176            2 
  222000    1.2016531   -3.4926341    213.39967  0.080104981  0.083858782            2 
  223000    1.2265484   -3.4874804    213.93472  0.079945709  0.083835339            3 
  224000     1.235864   -3.5089879    214.57339   0.07982641  0.083815383            2 
  225000    1.1987396   -3.5157135    218.18132  0.080807898  0.083799081            2 
  226000    1.2435591   -3.5318105     217.6509  0.080254757  0.083787269            1 
  227000    1.1948378   -3.5075714    218.61696  0.080255858  0.083776911            2 
  228000    1.2175851   -3.4875476    220.52776  0.080602251  0.083768373            1 
  229000    1.2086117   -3.5069148    222.35173   0.08091402  0.083763265            1 
  230000    1.2108048   -3.5108773    222.19765  0.080506396  0.083760764            2 
  231000    1.2134346   -3.5092633    224.19221  0.080877419  0.083758431            2 
  232000    1.2076991    -3.504045    224.00158  0.080460339  0.083755243            2 
  233000    1.1799541    -3.490038    225.57063  0.080676191   0.08374911            1 
  234000    1.2496434   -3.4914147     226.3411  0.080605806  0.083743263            1 
  235000    1.2192296   -3.5271282    227.45345  0.080657252  0.083739297            1 
  236000    1.2325444   -3.5046642    227.82884  0.080448036  0.083729153            3 
  237000    1.2304405    -3.495899    229.38439  0.080655551  0.083721445            1 
  238000    1.2331657   -3.4895587    231.68462  0.081122065  0.083716262            3 
  239000    1.1796771   -3.4889219    231.21011  0.080617194  0.083714747            2 
  240000    1.2320493   -3.4709574    233.01201  0.080906947  0.083712866            3 
  241000    1.2244194   -3.4877793    234.64321  0.081135274  0.083709111            1 
  242000    1.1987227   -3.4785525    235.07169  0.080947553  0.083705573            2 
  243000    1.2066403   -3.5166625    236.17213  0.080991815  0.083704738            1 
  244000     1.215505   -3.4806588    236.67102  0.080830266  0.083704174            1 
  245000    1.2102132   -3.5020106    237.49149  0.080779419  0.083698842            3 
  246000    1.2378931   -3.5153614     239.7822  0.081227032  0.083697395            1 
  247000    1.2068329   -3.4856525    239.27635  0.080727513  0.083692657            5 
  248000    1.2059156   -3.5056048    241.52606   0.08115795  0.083693583            1 
  249000    1.1815518   -3.5093891    241.28278  0.080750594  0.083695957            1 
  250000       1.1951   -3.4978084    244.72565  0.081575216  0.083704988            1 
  251000    1.2161316   -3.5228769    244.83501  0.081286523  0.083716593            2 
  252000    1.2287649   -3.4887153    247.09826  0.081712386  0.083730543            1 
  253000    1.2028088   -3.4944722    248.36826  0.081807727  0.083743485            1 
  254000    1.2266548   -3.5190042    248.27038  0.081453536  0.083755494            2 
  255000    1.2225209   -3.5018864    250.05729  0.081718068  0.083766718            2 
  256000    1.2072722   -3.5137772    250.87635  0.081665479  0.083781514            2 
  257000    1.2197744   -3.4975752    251.65163  0.081599101  0.083794721            2 
  258000    1.1927183   -3.5121465    253.82412  0.081984536  0.083811355            1 
  259000    1.2004524   -3.5259945    253.52834  0.081572823  0.083826265            3 
  260000    1.2256413    -3.477454    256.69778   0.08227493  0.083839346            1 
  261000    1.2033541   -3.5205958    255.91166  0.081708703  0.083857125            1 
  262000    1.1952257   -3.5269148    256.91942  0.081717372  0.083869389            1 
  263000    1.2367413   -3.4912005    258.74992  0.081986668  0.083882774            1 
  264000    1.2058506   -3.5369515    258.25811  0.081520866  0.083891193            4 
  265000    1.1934551   -3.5261782    258.56511  0.081309783  0.083897755            2 
  266000    1.1957172   -3.5355246    259.44728  0.081280477  0.083903494            1 
  267000    1.2116984   -3.5344339    260.12226  0.081186723  0.083907707            3 
  268000    1.2238929   -3.4955051    260.61113  0.081035799   0.08390815            2 
  269000    1.2157983   -3.4773629    263.46649   0.08161911  0.083908889            2 
  270000    1.1892412   -3.5044102    262.73154  0.081089981  0.083906208            2 
  271000    1.2367988   -3.5294976    263.03641  0.080884504  0.083901032            4 
  272000    1.2254528   -3.5109957    265.98394  0.081490177  0.083894445            1 
  273000     1.188965   -3.5391864    265.03844  0.080903064  0.083888725            3 
  274000    1.2058674   -3.5197052    267.50103  0.081356762  0.083882908            1 
  275000    1.1916986   -3.5254992    267.15148  0.080954995  0.083878539            4 
  276000    1.1695294   -3.4992724    269.18192  0.081274735  0.083873716            1 
  277000    1.2020089   -3.4991391    270.23184  0.081297183  0.083871359            2 
  278000     1.192694   -3.5520983    271.35698  0.081342019  0.083869705            3 
  279000    1.1938259   -3.5235384    273.06147   0.08155958  0.083868009            2 
  280000    1.2169039   -3.5079863    273.85314  0.081503911   0.08386372            2 
  281000    1.2118687    -3.505256    274.13634  0.081297846  0.083860247            2 
  282000    1.2391947   -3.5146118    274.08408  0.080994113  0.083855927            2 
  283000    1.1986214   -3.5023496    275.98717  0.081268307  0.083857495            2 
  284000     1.182942   -3.5118468    276.42294  0.081110016  0.083855331            1 
  285000    1.2158787   -3.5445664    278.02124   0.08129276  0.083850681            2 
  286000    1.2315367   -3.5288609    279.08355  0.081318052    0.0838487            2 
  287000    1.1936086    -3.540685    279.93246  0.081281202  0.083846115            1 
  288000     1.219786   -3.5118945     281.6778  0.081503992   0.08384659            2 
  289000    1.2154945   -3.5052616    282.96633  0.081593521  0.083847437            5 
  290000    1.2373234   -3.5155988    282.57618  0.081200051  0.083849381            2 
  291000    1.1866725   -3.5471282    284.59316  0.081498613  0.083851892            2 
  292000    1.2006161   -3.5142234    286.17059  0.081669689  0.083856334            2 
  293000    1.2417255   -3.5496122    285.76783  0.081276402  0.083858294            2 
  294000     1.211593   -3.5011724    287.95601  0.081620183    0.0838614            2 
  295000     1.202915   -3.5367576    287.66626  0.081261656   0.08386529            2 
  296000    1.2304286   -3.5383016    289.36039  0.081464075  0.083868171            5 
  297000    1.1932951   -3.5158338    290.78884  0.081590583  0.083866511            2 
  298000    1.2054792   -3.5276481    290.65553   0.08127951  0.083864856            1 
  299000    1.2116241   -3.5309714      291.105  0.081132942  0.083863475            1 
  300000    1.2213492   -3.5304846    292.58264  0.081272955   0.08386455            7 
  301000     1.201889   -3.5316839    293.57857  0.081278675  0.083861989            1 
  302000    1.2170652   -3.5107172    295.14773  0.081442529  0.083858446            2 
  303000    1.2176005   -3.5204522    297.29823  0.081765189   0.08385826            3 
  304000     1.210719     -3.53918    297.36085   0.08151339   0.08385973            2 
  305000    1.2132739   -3.5374196    297.37863  0.081250991  0.083858313            3 
  306000    1.1693644    -3.519079    298.59228  0.081315979  0.083859271            1 
  307000    1.1945359   -3.5192587    301.04536  0.081716981  0.083862969            1 
  308000    1.1918847   -3.5359172    303.01792  0.081985367  0.083868664            2 
  309000     1.189286   -3.5044183    304.95626  0.082242789   0.08387481            2 
  310000     1.176796   -3.5233768    306.01837  0.082263003  0.083880332            1 
  311000    1.1822298   -3.4845585    305.77488  0.081933247  0.083886161            1 
  312000    1.2132254   -3.5488974    306.03031  0.081738865  0.083889992            3 
  313000    1.1937193   -3.5290728    306.78827  0.081679518  0.083893306            6 
  314000    1.1626113   -3.5045373    307.48729  0.081604907  0.083894985            2 
  315000    1.1859812   -3.4941005    308.89447  0.081718114  0.083895286            2 
  316000    1.2474948   -3.5168999    309.17738  0.081534119  0.083895865            2 
  317000    1.1979937   -3.4950618    310.48064  0.081619516  0.083894683            1 
  318000    1.2064652   -3.5320775    310.91998  0.081477981  0.083892725            1 
  319000    1.2323029    -3.512194    314.41673  0.082136033   0.08389176            1 
  320000    1.2052862   -3.5424694    314.47156  0.081893635  0.083890781            2 
  321000    1.2033894   -3.5474824    313.32001  0.081339566  0.083891241            2 
  322000    1.2223527   -3.5289702    315.58513  0.081673169  0.083891172            2 
  323000    1.1818861   -3.5491694    315.73169  0.081458125    0.0838896            1 
  324000    1.2119209   -3.5454815    318.09055  0.081813413  0.083886686            2 
  325000    1.2179758     -3.51239    318.52236  0.081672401  0.083885145            2 
  326000    1.2023726    -3.549014    319.28442  0.081616673  0.083883214            2 
  327000    1.2186714   -3.5100392    320.57411  0.081695746  0.083883889            2 
  328000    1.2092532   -3.5369293     321.8274  0.081765091  0.083880591            2 
  329000    1.2203182   -3.5382335    323.09282  0.081837087  0.083879616            3 
  330000    1.1937349   -3.5140614    325.05674  0.082085036  0.083880299            2 
  331000    1.1958857   -3.5044371    326.48487  0.082196595  0.083878748            1 
  332000    1.1922875   -3.5273287    327.10467  0.082104587  0.083880902            1 
  333000    1.2257839   -3.5207317    327.49214  0.081954989  0.083883326            3 
  334000    1.1801424   -3.5238015    328.77824    0.0820305  0.083884916            3 
  335000    1.1907087    -3.520259     328.4117  0.081694452  0.083884742            2 
  336000    1.1984598   -3.5535186    329.63619  0.081755007    0.0838831            1 
  337000    1.2109671   -3.4988601    330.07011   0.08161971  0.083882941            1 
  338000    1.1842345   -3.5222371    331.48116  0.081726125  0.083878302            2 
  339000    1.2247481   -3.5201677    331.77901  0.081558262  0.083874482            5 
  340000    1.2190165     -3.52884    333.23039  0.081674114  0.083868693            1 
  341000    1.2042016   -3.5441805    333.84466  0.081584717  0.083860796            2 
  342000    1.2131781   -3.5538615    334.77622  0.081573154  0.083851443            1 
  343000    1.2239431   -3.5417595    335.93294  0.081616361  0.083843635            2 
  344000    1.1902689   -3.5160203    336.20511  0.081445035  0.083836785            3 
  345000    1.2082208   -3.5378538      336.911   0.08137947  0.083830719            2 
  346000    1.1872637   -3.5384906    338.77003  0.081592011   0.08382351            1 
  347000    1.2219634   -3.5417379    337.96596  0.081163776  0.083815508            2 
  348000    1.1826921   -3.5321832    341.24122  0.081714852  0.083808372            3 
  349000    1.1960699   -3.5209339    342.19414  0.081708248  0.083800937            2 
  350000    1.2088877   -3.5268513    341.35932  0.081276029  0.083788967            1 
  351000    1.1730086   -3.5558472    341.42254  0.081059482  0.083778161            2 
  352000    1.2181936   -3.5065348    344.74323  0.081615347  0.083769619            4 
  353000    1.1581409   -3.5423683    342.52331  0.080860083  0.083758237            2 
  354000    1.1966996   -3.5180674    345.46568  0.081324311   0.08374677            7 
  355000     1.176737    -3.513192    345.56198  0.081117836   0.08373521            3 
  356000    1.2105249   -3.5400626     345.7516  0.080934364  0.083723889            4 
  357000    1.2088439   -3.5195649     347.2565  0.081058939  0.083713499            1 
  358000    1.1904962   -3.5410557      349.349  0.081319601  0.083701165            1 
  359000    1.2012064   -3.5483095    350.09087  0.081265291  0.083686267            1 
  360000    1.2006232   -3.5377017    349.75699  0.080962266   0.08367274            3 
  361000    1.2018886   -3.5511223    351.18051    0.0810666  0.083658062            2 
  362000    1.2300904   -3.5377119    350.80919  0.080757179  0.083642947            2 
  363000    1.1819675   -3.5218908    352.29125  0.080874942  0.083626975            2 
  364000    1.1883683   -3.5378787    353.68583   0.08097203  0.083612775            2 
  365000    1.2018454   -3.5408253    355.09716  0.081072411   0.08359791            1 
  366000    1.2143402   -3.5724376    355.33452  0.080904946  0.083582244            1 
  367000    1.2090658   -3.5505973    356.39835  0.080926055  0.083568973            1 
  368000    1.1875031   -3.5406747    357.57257   0.08097205  0.083556603            1 
  369000      1.20934   -3.5893995    356.15243  0.080431894  0.083542286            1 
  370000    1.1983091   -3.5287713    360.48754  0.081190887  0.083527958            1 
  371000    1.1939406   -3.4978319    360.26106  0.080921172  0.083513462            1 
  372000    1.1757998   -3.5704045    361.84268  0.081057948  0.083500235            1 
  373000    1.1739795   -3.5087422    362.08317  0.080894364  0.083484493            1 
  374000    1.2065164   -3.5790622    361.27678  0.080498391  0.083465898            3 
  375000    1.1927842   -3.5366881    365.02956  0.081117679  0.083450527            2 
  376000    1.1951488   -3.5408863    365.39814   0.08098363  0.083434413            3 
  377000    1.1860997   -3.5376083    366.36327  0.080982154  0.083419771            2 
  378000    1.1903092    -3.564901    365.66216   0.08061335  0.083402957            1 
  379000    1.1906713   -3.5454699    367.86331  0.080884632   0.08338463            2 
  380000    1.2008978   -3.5440745    368.43662  0.080797505  0.083367872            1 
  381000    1.1901557   -3.5509684    367.48409  0.080377097  0.083351537            2 
  382000    1.1741423   -3.5196975    371.81983  0.081112529  0.083335905            1 
  383000    1.1830789   -3.5450449    371.68528  0.080871471  0.083319236            1 
  384000    1.1944825   -3.5398338    371.46347  0.080612732  0.083302381            1 
  385000    1.1689113   -3.5598567    371.51689  0.080414911  0.083285605            4 
  386000     1.175566   -3.5976409    372.68858  0.080459538   0.08327048            2 
  387000    1.1799976   -3.5622857    374.84252  0.080715444  0.083255205            1 
  388000    1.1837554   -3.5211221    375.95329  0.080745982  0.083238588            2 
  389000    1.2076867   -3.5505242    376.91115  0.080743606  0.083221933            4 
  390000    1.2059625    -3.540072    377.41975  0.080645246  0.083206635            2 
  391000    1.1904679    -3.525723    377.93568  0.080548952  0.083187077            2 
  392000    1.1835419   -3.5152465    379.02752  0.080575577  0.083167329            3 
  393000    1.1963965   -3.5450635    379.01314  0.080367501  0.083147196            2 
  394000    1.1788619   -3.5410839    381.35432  0.080658697  0.083125385            2 
  395000    1.1997208    -3.548092    381.01436  0.080382776  0.083104122            1 
  396000    1.1979288    -3.554079    382.04297  0.080396248  0.083083699            4 
  397000    1.1691373   -3.5667683    381.64144  0.080109455  0.083062126            3 
  398000    1.2033373    -3.557377    385.13582  0.080639828   0.08304016            1 
  399000    1.1847801   -3.5224475     384.7374   0.08035451   0.08302134            1 
  400000    1.2058776   -3.5523241    385.35139   0.08028154  0.083000796            2 
  401000    1.1687008   -3.5735771    385.87166  0.080189455  0.082979811            1 
  402000    1.1914369   -3.5370905    387.55054  0.080338006  0.082957491            2 
  403000    1.1888891   -3.5516321    389.05604  0.080449967  0.082937915            2 
  404000    1.2065773   -3.5720744     387.5884  0.079948103  0.082916056            1 
  405000    1.1800387   -3.5450982    387.24995  0.079681059  0.082892906            1 
  406000    1.1906422   -3.5201899    389.97767  0.080044678  0.082866328            3 
  407000    1.1967494   -3.5198854    391.69828  0.080200303  0.082842265            1 
  408000    1.1843582   -3.5501428    390.99772  0.079860646  0.082818757            1 
  409000    1.1912675   -3.5737425    390.12952  0.079488493  0.082793173            8 
  410000    1.1846193   -3.5525318    391.37447  0.079547656  0.082765626            3 
  411000     1.207801   -3.5073865    394.96288  0.080081686  0.082739055            1 
  412000    1.1751975   -3.5656094    395.86213  0.080069201   0.08271537            9 
  413000    1.2129641   -3.5553859    394.95524  0.079692341  0.082693241            2 
  414000    1.1682159   -3.5465557    397.00374  0.079912186  0.082670639            4 
  415000    1.2016519   -3.5219142     398.1962  0.079959076  0.082650584            3 
  416000    1.1963874   -3.5385135    398.37181  0.079802045  0.082629729            1 
  417000     1.165769   -3.5483422    401.00639  0.080137167  0.082607683            3 
  418000    1.1752708   -3.5595906    399.82556   0.07971004  0.082582858            1 
  419000    1.1572705   -3.4982714    401.92565   0.07993748  0.082560373            5 
  420000    1.1988262    -3.552033    402.38175   0.07983765   0.08253902            2 
  421000    1.1697087   -3.5171871     403.3646  0.079842557  0.082515928            3 
  422000    1.1869335   -3.5606509    402.73415  0.079528861  0.082492941            2 
  423000    1.2155841   -3.5803241    404.56239  0.079701023  0.082469609            3 
  424000    1.2045625   -3.5521112    407.65358  0.080120594  0.082446533            3 
  425000    1.1910863   -3.5329438     408.1994  0.080039098  0.082425392            1 
  426000     1.201878   -3.5595699    409.61111  0.080127368  0.082403121            3 
  427000     1.186358   -3.5476716    410.16547  0.080047906  0.082381664            2 
  428000    1.1579679   -3.5366813    409.52545  0.079736264  0.082361253            3 
  429000    1.1882591   -3.5672758    410.47192  0.079734249  0.082340484            1 
  430000     1.193026   -3.5347846    412.13281  0.079870699  0.082320435            1 
  431000    1.1940066   -3.5556637    413.85818  0.080018983  0.082302767            2 
  432000    1.1758059   -3.5704378    413.20428  0.079707616  0.082284647            2 
  433000    1.1954604   -3.5730117    416.17014  0.080094331  0.082268518            1 
  434000    1.1626257   -3.5388642    417.10848  0.080089953  0.082254268            3 
  435000    1.1769974   -3.5522141    417.23653   0.07993037  0.082237813            2 
  436000    1.1821413   -3.5382021    421.16449    0.0804978  0.082222709            6 
  437000    1.1491402    -3.549375    419.73042  0.080040127  0.082208201            5 
  438000    1.2150246   -3.5476978    420.19864  0.079946469  0.082191122            3 
  439000    1.2056917   -3.5991277    420.68033  0.079855796  0.082176046            2 
  440000    1.1733002   -3.5399708    423.18611  0.080148885  0.082159877            3 
  441000    1.1602998   -3.5402328    423.42987  0.080013202  0.082146338            2 
  442000    1.2020763   -3.5460812    425.57738  0.080237062  0.082133045            1 
  443000    1.1525703   -3.5475571    425.06533  0.079959618  0.082118768            1 
  444000    1.1734835   -3.5213337    427.24912    0.0801894  0.082105847            3 
  445000    1.1697367   -3.5335655    429.94387  0.080513833  0.082093572            2 
  446000    1.1907021   -3.5237988     432.3413   0.08078126  0.082082293            2 
  447000       1.1699    -3.567113    427.79814  0.079753569  0.082070048            1 
  448000    1.1796347   -3.5713812    430.72791  0.080120519  0.082056687            2 
  449000    1.2045118   -3.5486221    431.72454   0.08012705  0.082041901            5 
  450000    1.1850313   -3.5552822    433.55751  0.080288429  0.082029633            1 
  451000    1.1644368   -3.5897571    433.30275  0.080063331  0.082018005            3 
  452000     1.169702    -3.572015     434.4217  0.080092497  0.082005046            1 
  453000    1.1914825   -3.5545565    437.29476  0.080444217  0.081991065            2 
  454000    1.1746553   -3.5430106      435.882   0.08000771  0.081977818            2 
  455000    1.1924135   -3.5477332    437.40798  0.080111351  0.081963927            1 
  456000    1.1818442   -3.5698133     438.5431  0.080143111  0.081950787            2 
  457000    1.1969827   -3.5474303    439.35268  0.080115369  0.081935666            1 
  458000    1.1496771   -3.5202773     439.1838  0.079909716  0.081920536            2 
  459000    1.1938533   -3.5355936    440.66775  0.080005039  0.081904398            2 
  460000    1.1867154    -3.541893    441.40735    0.0799651  0.081889795            3 
  461000    1.1938793   -3.5758669    443.27037  0.080128411  0.081876271            2 
  462000    1.1619285   -3.5422537    445.33368  0.080327143   0.08186612            2 
  463000    1.1699678   -3.5754738    443.80259  0.079878075  0.081854209            3 
  464000    1.1784288   -3.5562553    446.91098  0.080264185  0.081842524            1 
  465000    1.1667195   -3.5524821    446.54389  0.080025786  0.081830877            2 
  466000    1.1809373   -3.5544955    449.20136  0.080329285  0.081820794            3 
  467000    1.2042123   -3.5625844    447.31197  0.079820124  0.081810387            2 
  468000    1.1695469   -3.5645108    448.68963  0.079894877  0.081799383            2 
  469000    1.2052474   -3.5339113     450.5172  0.080049253  0.081788884            1 
  470000    1.1786464   -3.5587324    451.79262  0.080105074  0.081776991            2 
  471000    1.1860094   -3.5456474    451.94449  0.079961871  0.081765442            2 
  472000    1.1927255   -3.5939227    452.43724  0.079879456  0.081751565            4 
  473000    1.1751903   -3.5522814    453.34912  0.079871233  0.081738102            2 
  474000    1.1656214     -3.54091    458.33974  0.080580123  0.081725482            1 
  475000    1.1842427   -3.5765754    455.49354  0.079911147  0.081713296            3 
  476000    1.1686394   -3.5493113    457.56204  0.080105399  0.081700315            1 
  477000     1.190316    -3.546415    458.34378  0.080074036  0.081685747            2 
  478000     1.169071   -3.5556463    458.94023    0.0800105  0.081672765            3 
  479000    1.2187085   -3.5493829    458.92645  0.079841067  0.081656188            2 
  480000    1.1915245    -3.559746     459.6174  0.079794688  0.081643191            3 
  481000    1.1777068   -3.5516172    461.16162  0.079896331  0.081629132            1 
  482000    1.1769102   -3.5491205    461.60716    0.0798076  0.081617398            1 
  483000    1.1665143   -3.5611534    463.58482  0.079983578  0.081606811            4 
  484000    1.2042903   -3.5614262    463.72474  0.079842414  0.081596674            2 
  485000    1.1696222   -3.5558463    466.20993  0.080104799  0.081589199            3 
  486000    1.2018557   -3.5601008    470.02935  0.080594882  0.081579525            1 
  487000    1.1888843   -3.5562971    469.55499  0.080348219  0.081573984            2 
  488000    1.1746195   -3.5700616    469.29733  0.080139572  0.081567699            1 
  489000    1.2019211     -3.55222    470.16216  0.080123067  0.081562599            4 
  490000    1.1592057    -3.577122    472.03687   0.08027838  0.081557334            1 
  491000    1.1735296   -3.5415631    473.49288  0.080361996  0.081551325            2 
  492000      1.19485   -3.5700893    476.11748  0.080643205  0.081546545            4 
  493000    1.1665827   -3.5841261    474.36197  0.080182889  0.081541229            3 
  494000    1.1545133   -3.5866448    475.31834  0.080181906  0.081533908            3 
  495000    1.1852865   -3.5489045    476.46708  0.080213314  0.081526644            3 
  496000    1.1871722   -3.5841086    477.86311   0.08028614  0.081519634            1 
  497000    1.1667139   -3.5575519    477.99598  0.080146878  0.081510699            3 
  498000    1.1866074   -3.5668327     480.1123  0.080340076  0.081501737            2 
  499000    1.1659031     -3.54409    480.73681  0.080283368  0.081493644            2 
  500000    1.1423432   -3.5672282     479.8275  0.079971249  0.081484864            2 
  501000    1.1840536   -3.5861223    480.80063  0.079973492  0.081475374            1 
  502000    1.2122317   -3.5557263    483.37809  0.080242046  0.081467615            4 
  503000    1.1647504   -3.5401596    484.03387  0.080191165  0.081459983            3 
  504000     1.175457   -3.5689098    484.57434  0.080121418   0.08145227            1 
  505000    1.1895222   -3.5586024    485.25313  0.080074773  0.081445715            2 
  506000    1.1450156   -3.5828872    486.12372  0.080059901  0.081437693            3 
  507000     1.192235   -3.5653747    487.06746  0.080057111  0.081431464            2 
  508000    1.1822228   -3.5456751    488.88422  0.080197542   0.08142468            2 
  509000    1.1584888    -3.570108    490.04083  0.080229343  0.081416362            1 
  510000    1.1531087   -3.5624279    490.13941  0.080088139  0.081408049            3 
  511000    1.1426128   -3.5664272    492.35835  0.080293274  0.081399306            3 
  512000     1.156869   -3.5804065    492.95914  0.080234235  0.081393244            2 
  513000    1.1677925   -3.5556368     494.0111  0.080248717   0.08138805            1 
  514000    1.1809652   -3.5512849    494.87835  0.080233195  0.081381275            2 
  515000    1.1828918   -3.5838398    495.33749  0.080151697  0.081375784            2 
  516000    1.1746089    -3.588099    496.38362  0.080165313  0.081371334            1 
  517000    1.1745453   -3.5585786    498.72975  0.080388419  0.081366459            2 
  518000    1.1687264   -3.5509212    499.68065  0.080386205  0.081360277            2 
  519000    1.1826966   -3.5660848    499.40176  0.080186538  0.081353854            1 
  520000    1.1751508   -3.5997974    498.10795  0.079824991  0.081348589            1 
  521000    1.1887852   -3.5263091    502.76961  0.080417403  0.081341378            2 
  522000    1.1663101   -3.5824149     501.6389  0.080082839  0.081335444            2 
  523000    1.1827359   -3.5681228    505.33733  0.080519014  0.081330296            2 
  524000    1.1794561   -3.5640565    505.36073  0.080369072  0.081323866            4 
  525000    1.1735778    -3.558714     507.7931  0.080602079  0.081317217            2 
  526000    1.1675798   -3.5830725     505.5874  0.080099399  0.081311413            5 
  527000    1.1728235   -3.5982945    506.01134  0.080014443  0.081304425            3 
  528000    1.1860169   -3.5929171     505.2242  0.079738667  0.081296833            1 
  529000    1.1617159   -3.5792255    506.62921  0.079809264  0.081289612            1 
  530000    1.1782955   -3.5852451    509.29227  0.080077401  0.081283312            3 
  531000    1.1605616   -3.5980038    510.74401  0.080154426  0.081277812            3 
  532000    1.1814565   -3.5899746    511.38698  0.080104476  0.081272135            3 
  533000    1.1739716   -3.5570695    514.41739  0.080427985  0.081266765            2 
  534000    1.1575785   -3.5568853    515.31505  0.080417455  0.081261393            2 
  535000    1.1910793   -3.6111432    514.77655  0.080183264  0.081256855            2 
  536000    1.1674417    -3.561253    516.43853  0.080292061  0.081251942            2 
  537000    1.1779349    -3.566849    515.58358  0.080009867  0.081246018            1 
  538000    1.1566398   -3.5693785    518.24255  0.080273009  0.081240526            1 
  539000     1.181161   -3.5565883    518.54523  0.080170877  0.081234062            3 
  540000    1.1883738   -3.5862499    518.30749  0.079985724  0.081229354            2 
  541000    1.1590526    -3.556861    522.87709  0.080541757   0.08122499            2 
  542000    1.1624702    -3.583056    523.69536  0.080518966  0.081220825            1 
  543000    1.1869306   -3.5914964    520.73035  0.079915646  0.081214646            1 
  544000    1.1689904   -3.5583611    524.04941  0.080277177  0.081209171            3 
  545000    1.1517109   -3.5616168    524.64343  0.080220709  0.081202064            1 
  546000    1.1733334   -3.5821931    524.37776  0.080033235  0.081195221            1 
  547000    1.1784462    -3.529616    526.50434  0.080210898  0.081187624            2 
  548000    1.1505727   -3.5603542    523.90559  0.079669341  0.081180848            3 
  549000    1.1359526   -3.5885261    526.98172  0.079991154  0.081171944            2 
  550000    1.1790633   -3.5601998    529.95043   0.08029552  0.081161987            2 
  551000    1.1496803   -3.5639376    525.68381  0.079504508  0.081153007            3 
  552000    1.1564747   -3.5635603    528.80236  0.079831274  0.081144053            3 
  553000    1.1742709   -3.5899835    530.85661  0.079996476  0.081134948            1 
  554000    1.1700866   -3.5921242    528.33377  0.079472589  0.081125526            1 
  555000    1.1742526     -3.62865    532.66648  0.079979952  0.081116391            2 
  556000    1.1532514   -3.5732411     533.9613  0.080030171  0.081107485            1 
  557000    1.1698345   -3.5924732    533.14196  0.079763908  0.081099876            3 
  558000    1.1850816   -3.5530108    536.52556  0.080126279  0.081091102            3 
  559000    1.1695743   -3.5877163    535.33981  0.079806173  0.081082683            2 
  560000    1.1611359   -3.5720318    536.90482  0.079896551  0.081074867            2 
  561000    1.1625998   -3.5590554    537.99483  0.079916047  0.081066181            2 
  562000    1.1541753   -3.5640441    539.67754   0.08002336  0.081057213            1 
  563000    1.1498997   -3.5585914    540.72356  0.080036051  0.081048399            3 
  564000    1.1452057   -3.5646633    538.42816  0.079554989  0.081039367            2 
  565000    1.1554832   -3.5564958    543.10935  0.080104624  0.081030727            1 
  566000    1.1481189   -3.5737372    542.47411  0.079869568  0.081022573            2 
  567000    1.1668391   -3.5910259    541.88473  0.079642083  0.081014998            1 
  568000    1.1580362   -3.6008817    544.28991  0.079854741  0.081006721            1 
  569000    1.1631026   -3.5652588    543.77844  0.079639491  0.080997427            2 
  570000    1.1612955   -3.5863715    544.41852  0.079593351  0.080988247            2 
  571000    1.1423678   -3.6110031    544.64675  0.079487267  0.080978238            2 
  572000    1.1354405   -3.5852393    547.13291  0.079710506  0.080969507            2 
  573000    1.1563383   -3.5638664    547.80797  0.079669571  0.080961169            4 
  574000     1.142578   -3.5887611    548.94267  0.079695509  0.080950898            2 
  575000    1.1611958   -3.5856724    548.84932   0.07954338  0.080941432            2 
  576000    1.1622328   -3.5878978    549.59158  0.079512671  0.080931742            4 
  577000    1.1771682   -3.5705221    552.93962  0.079858408  0.080921569            2 
  578000     1.152702   -3.5575368    550.21416    0.0793273  0.080910897            4 
  579000     1.155088   -3.5801062    555.09483   0.07989275  0.080901015            2 
  580000    1.1316031   -3.5869079    554.14492  0.079618523  0.080889411            4 
  581000    1.1827593   -3.5445958     557.3686   0.07994386  0.080879255            2 
  582000    1.1722551   -3.5717969    557.25809  0.079790677  0.080869234            2 
  583000    1.1487974   -3.5924728    557.71925  0.079719732  0.080858727            2 
  584000    1.1537591   -3.6139357     557.9609  0.079617708  0.080848345            1 
  585000    1.1355176   -3.5985471    555.48872  0.079129447  0.080838084            1 
  586000    1.1760189   -3.5939645    558.31255  0.079395982  0.080827813            1 
  587000    1.1602092   -3.5972842    559.20497  0.079387417  0.080819062            3 
  588000    1.1688924   -3.5681849    560.34328  0.079413731  0.080810597            2 
  589000    1.1484695   -3.5774854    562.11423  0.079529461  0.080802617            1 
  590000     1.176597    -3.581079    562.57108  0.079459192  0.080793887            3 
  591000    1.1594659   -3.5756154    565.12082  0.079684267  0.080786077            2 
  592000     1.180496    -3.591396     567.7737  0.079923099  0.080780097            3 
  593000    1.1611242   -3.5953589    567.81636  0.079794318  0.080773408            1 
  594000    1.1573499   -3.5980903    568.14981  0.079706764  0.080765995            2 
  595000    1.1457296   -3.5728697    569.62674  0.079779656  0.080757284            1 
  596000    1.1551209   -3.5613284    568.30072  0.079460391  0.080749564            2 
  597000    1.1726716   -3.5893584    569.69847    0.0795224  0.080742344            2 
  598000    1.1489254   -3.5867599    569.82522  0.079407082  0.080733753            2 
  599000    1.1342716   -3.5893016    571.95689  0.079571076  0.080724538            3 
  600000    1.1482746   -3.5773006    569.80418   0.07913947  0.080714599            2 
  601000    1.1579584    -3.562797    571.46987  0.079238751  0.080704098            3 
  602000    1.1933951   -3.5799526    572.48552  0.079247718  0.080693196            1 
  603000    1.1354831   -3.5774438    575.01296  0.079465583  0.080681846            3 
  604000    1.1620055   -3.5655994    574.82955  0.079308713  0.080670059            2 
  605000    1.1965828   -3.6292788    574.06336  0.079072088  0.080658577            3 
  606000    1.1693141   -3.5203208    579.19029  0.079646629  0.080648439            1 
  607000    1.1465431   -3.6039315    577.50269  0.079283731  0.080638888            2 
  608000    1.1605524   -3.5779066    578.00209  0.079221778  0.080629102            3 
  609000    1.1842681   -3.6132355    577.32175  0.078998598  0.080617883            4 
  610000     1.155737   -3.5736201    582.55036  0.079583382  0.080606849            2 
  611000    1.1664541   -3.5681283    582.16473  0.079400535  0.080595552            2 
  612000    1.1399446   -3.5723363    584.06209  0.079529152  0.080584617            1 
  613000    1.1422978   -3.5652412    582.35572  0.079167445  0.080572797            2 
  614000    1.1516036   -3.5911744    580.44696  0.078779446  0.080561283            2 
  615000    1.1347331   -3.5580799    584.93499  0.079259484  0.080548432            1 
  616000    1.1544842   -3.6087489    585.91841  0.079263854  0.080536859            2 
  617000    1.1572136   -3.6001359    587.28577  0.079320066  0.080525277            2 
  618000    1.1623844   -3.5833559    586.52297  0.079088858  0.080513572            2 
  619000    1.1495936   -3.5916484    588.96191  0.079289433  0.080502238            3 
  620000    1.1602152   -3.5943816    588.32484   0.07907592  0.080490505            2 
  621000    1.1626132   -3.5886181    589.83309  0.079150978  0.080478415            2 
  622000    1.1389067   -3.5752847    587.94544  0.078770825  0.080465497            1 
  623000    1.1595858   -3.6316161     590.3744  0.078969288  0.080453713            2 
  624000    1.1605884   -3.5889113    592.52974  0.079130575  0.080440888            4 
  625000    1.1658081   -3.6043713    590.52039  0.078736052  0.080427573            2 
  626000    1.1387819   -3.5591753    591.39931  0.078727277  0.080413845            4 
  627000    1.1630653   -3.5997681    591.78112  0.078652462  0.080400146            2 
  628000    1.1493138   -3.6087471     592.6596   0.07864379   0.08038562            1 
  629000    1.1598477   -3.6133503    591.96589  0.078426854  0.080369567            2 
  630000    1.1445386    -3.607033    595.03891  0.078708851  0.080354455            4 
  631000    1.1737739   -3.6284373    593.76699  0.078416137  0.080338761            3 
  632000     1.180637   -3.5896039    596.99062  0.078717117   0.08032352            2 
  633000    1.1558681   -3.5832434     596.4961   0.07852766  0.080307692            2 
  634000     1.156089   -3.5929189    594.93228  0.078198249  0.080292378            1 
  635000    1.1408924   -3.6202561    598.96641  0.078604516  0.080276662            3 
  636000    1.1395649   -3.5951426    598.02935  0.078358143  0.080260597            4 
  637000    1.1268025   -3.5936457    596.92261  0.078090347   0.08024322            1 
  638000    1.1802089   -3.5566828     601.4688  0.078561755  0.080227265            2 
  639000    1.1359828   -3.6181085    602.86406  0.078620769  0.080212064            3 
  640000    1.1348025   -3.5726642    602.47744  0.078447583  0.080196906            1 
  641000    1.1348066   -3.5874925    605.16485  0.078674578  0.080181522            4 
  642000    1.1374881   -3.6374797    602.54643  0.078212153  0.080166458            3 
  643000    1.1424367   -3.6019489    603.16684  0.078170923  0.080150645            1 
  644000    1.1303657   -3.6188146    606.28677  0.078453258  0.080134621            2 
  645000    1.1583334   -3.5936399    606.41841  0.078348632  0.080118879            1 
  646000    1.1577734   -3.5898852    608.45902  0.078490586  0.080103126            2 
  647000    1.1314211   -3.5957765    610.10017  0.078580651  0.080087593            2 
  648000    1.1415894   -3.6120941    607.68952  0.078149373  0.080074822            1 
  649000    1.1434776   -3.5952162    610.92239  0.078444067  0.080060745            2 
  650000    1.1193425   -3.5541914     614.6086  0.078795974  0.080047332            1 
  651000    1.1441008   -3.6414262    611.18147  0.078236236  0.080033549            1 
  652000    1.1429687   -3.6225928    612.76622  0.078318791  0.080018038            3 
  653000    1.1298326     -3.63381     614.3134  0.078396299  0.080003412            1 
  654000    1.1570184   -3.6100164    618.13189  0.078762983  0.079989407            2 
  655000     1.143424     -3.60909    616.48087   0.07843268  0.079974699            2 
  656000    1.1594654   -3.6214557    617.68038  0.078465495  0.079961847            4 
  657000    1.1092111   -3.6018602    618.77415  0.078484799  0.079948438            1 
  658000     1.160526   -3.6306847    617.62593  0.078220103  0.079934941            1 
  659000     1.130728   -3.6259914    617.49615  0.078084996  0.079920801            3 
  660000    1.1252183   -3.6007968    623.51325   0.07872642  0.079905808            2 
  661000    1.1578271   -3.6069011    621.17274  0.078312247  0.079890798            3 
  662000    1.1361776    -3.609696    620.25518  0.078078447   0.07987558            1 
  663000     1.121023   -3.6033808    622.79379  0.078279763  0.079859922            2 
  664000    1.1401734   -3.5778799    622.31365  0.078101613  0.079846515            2 
  665000    1.1403443   -3.5788802    625.58272  0.078393825  0.079830923            1 
  666000    1.1431675   -3.6213784    625.32145  0.078243424  0.079815749            1 
  667000    1.1210629   -3.5932422    626.01353  0.078212585   0.07980112            2 
  668000    1.1433994   -3.6149042    626.94937  0.078212246  0.079786425            2 
  669000    1.1542784   -3.6197546    626.98309  0.078099537  0.079771916            5 
  670000    1.1592384   -3.6350544    627.79406  0.078083838  0.079756299            2 
  671000    1.1464477   -3.5890865    630.89122  0.078352114  0.079742464            3 
  672000    1.1405613   -3.6189773     631.0077  0.078249963  0.079727934            2 
  673000    1.1659108   -3.5890529    633.26873  0.078413662  0.079713749            2 
  674000    1.1557505   -3.6261163    630.83722  0.077996689  0.079699799            2 
  675000    1.1464501   -3.5960823    634.56295  0.078341105  0.079686532            2 
  676000    1.1474676   -3.6031896    637.30963  0.078563811  0.079673821            2 
  677000    1.1387925   -3.6193243     633.5106  0.077980132  0.079661376            3 
  678000    1.1332738   -3.6250457    636.40592  0.078220983   0.07964848            3 
  679000    1.1255415   -3.6086509    637.65227  0.078258747  0.079636238            2 
  680000     1.151016   -3.5966114    639.32287  0.078348391  0.079623697            2 
  681000    1.1501841   -3.6077355    639.78152  0.078289466  0.079610132            1 
  682000    1.1549989   -3.6063727    638.67752  0.078039776   0.07959778            2 
  683000    1.1731707   -3.6298408    638.85928  0.077947691  0.079582981            5 
  684000    1.1510621   -3.5874703    641.34248  0.078136267  0.079568752            2 
  685000    1.1561481   -3.6106779    641.33619  0.078021434  0.079554994            3 
  686000    1.1268986   -3.6167924    643.70616  0.078195598  0.079540943            1 
  687000    1.1449517   -3.6027809    645.04767  0.078244501  0.079526556            2 
  688000    1.1572503   -3.5751461    646.82118  0.078345588  0.079512876            4 
  689000    1.1341881   -3.5998063    646.10024  0.078144683  0.079500349            4 
  690000    1.1237008   -3.6247748    646.72998  0.078107485  0.079486639            3 
  691000    1.1481745    -3.603791    648.01335  0.078149222  0.079473311            3 
  692000    1.1565797   -3.5800786    649.07961  0.078164693  0.079460043            1 
  693000    1.1417446   -3.6035305    649.97047  0.078159027  0.079446969       -1e+20 
  694000    1.1861289    -3.643759    650.12077  0.078064454   0.07943417            1 
  695000    1.1364377   -3.6012216    652.04612  0.078182988  0.079421596            6 
  696000    1.1557576    -3.616419    652.02478  0.078068101   0.07940847            4 
  697000    1.1125554   -3.6057898    652.11569  0.077966964  0.079394462            2 
  698000    1.1269666   -3.6019801     655.4229  0.078250107  0.079381067            1 
  699000    1.1322474   -3.6101972    657.37351   0.07837071  0.079367597            2 
  700000       1.1504   -3.5854133    658.16604    0.0783531  0.079354799            2 
  701000    1.1200671   -3.6217873    655.45161  0.077918642  0.079343054            2 
  702000    1.1736469   -3.6181275    659.98177  0.078345414  0.079330914            2 
  703000    1.1319282   -3.6171739    658.46634  0.078054331  0.079319188            1 
  704000    1.1377305   -3.6334192    658.63324  0.077963215  0.079306623            2 
  705000    1.1140433   -3.6290288    657.60024  0.077730524  0.079293708            2 
  706000    1.1377782   -3.6027479    658.94886  0.077779611  0.079280974            3 
  707000    1.1415226   -3.6115381    662.28577  0.078062915   0.07926801            2 
  708000    1.1366954   -3.6030356      662.568  0.077985875  0.079254339            2 
  709000    1.1155454   -3.5893863     664.3773   0.07808854  0.079240974            1 
  710000    1.1427365   -3.5967618     663.1497  0.077834472  0.079227067            2 
  711000    1.1235604   -3.6117606    663.50136  0.077766216  0.079212905            2 
  712000    1.1405288   -3.5890979    667.08703  0.078076665  0.079198767            2 
  713000     1.142895   -3.6223853    663.76618   0.07757903  0.079185003            3 
  714000    1.1424584   -3.6080625    667.53171  0.077909863    0.0791712            4 
  715000    1.1343768   -3.5902916    668.94815  0.077965985  0.079157692            3 
  716000    1.1140071   -3.5986439    671.86812  0.078196942  0.079144513            4 
  717000    1.1372772   -3.6265998    670.28668  0.077904077   0.07913089            5 
  718000    1.1468645    -3.619913    670.56462  0.077827834  0.079118238            1 
  719000    1.1099983   -3.6341927    671.06224  0.077777265  0.079104452            5 
  720000    1.1114853     -3.60475    672.10814  0.077790294  0.079090994            2 
  721000    1.1319011   -3.6342535    672.71558   0.07775261   0.07907787            2 
  722000    1.1585051   -3.6249392    670.83322  0.077427656  0.079064516            2 
  723000    1.1349138    -3.643818    674.80217  0.077778028  0.079051628            3 
  724000    1.1233819   -3.5711584    676.52152  0.077868499  0.079037112            3 
  725000    1.1734714   -3.5907792    677.72075  0.077898937  0.079023392       -1e+20 
  726000    1.1401609   -3.6151301    675.05911  0.077486124  0.079008646            2 
  727000    1.1357994   -3.5861798    678.89385  0.077819103   0.07899451            1 
  728000    1.1531777   -3.5942451    677.52203  0.077555178  0.078980112            5 
  729000    1.1453571   -3.6288001      679.428  0.077666667  0.078965787            2 
  730000    1.1659508   -3.6515075    681.33119  0.077777533  0.078950405            2 
  731000    1.1383152   -3.6152445     679.5187  0.077464512  0.078936323            3 
  732000    1.1544518    -3.605698    681.55903  0.077590965  0.078922372            2 
  733000     1.151971   -3.6062146    684.88226  0.077862922  0.078908842            2 
  734000    1.1379264   -3.6358533    682.49153  0.077485414  0.078894963            1 
  735000     1.125528   -3.6140244     685.5713  0.077729172  0.078882438            2 
  736000    1.1193874   -3.6205116    686.05869  0.077678747  0.078868309            2 
  737000    1.1221224   -3.6162571    683.42003  0.077274992  0.078854496            1 
  738000    1.1492865   -3.6334783    682.63314  0.077081429  0.078840245            2 
  739000    1.1312887   -3.5918937    685.64477  0.077316731  0.078825614            1 
  740000    1.1425132   -3.6159918    685.71368  0.077220009  0.078810362            2 
  741000    1.1371925   -3.6178449    688.98602  0.077483808  0.078795735            1 
  742000     1.143401   -3.6482755    689.05406  0.077387024   0.07878139            2 
  743000    1.1153095   -3.6275084    688.07128  0.077172642  0.078766976            3 
  744000    1.1360491   -3.6402119    689.32105  0.077208899  0.078752186            1 
  745000    1.1645046   -3.6282649    694.47863  0.077682173  0.078737365            4 
  746000    1.1371219   -3.6079908    694.07989    0.0775335  0.078723087            2 
  747000    1.1262079   -3.6407225    693.74758  0.077392635  0.078709023            1 
  748000    1.1431581   -3.6357641    691.86459  0.077079388  0.078695775            2 
  749000    1.1406945   -3.6487986    696.08915    0.0774465  0.078681404            3 
  750000    1.1362106   -3.6274682    696.62276  0.077402529  0.078667265            4 
  751000    1.1079038   -3.6325908    696.01497   0.07723202  0.078653258            3 
  752000    1.1183543   -3.6232444    698.16232  0.077367279  0.078639376            2 
  753000    1.1338217   -3.6054145     699.9273   0.07745986  0.078624717            2 
  754000    1.1297114   -3.6185135    697.95507  0.077139154  0.078610168            5 
  755000    1.1138747    -3.600576    700.07517  0.077270991  0.078596102            1 
  756000    1.1312984    -3.649195    699.63136  0.077119858   0.07858256            2 
  757000    1.1351452   -3.6243108    701.23127  0.077194107  0.078567637            2 
  758000    1.1095112   -3.6281045    700.28643  0.076988394  0.078552857            1 
  759000    1.1215009   -3.6654199    702.47646  0.077127411  0.078537777            2 
  760000    1.1339318   -3.6565488    699.56307  0.076706477  0.078522341            1 
  761000    1.1006224   -3.6309226    704.68127  0.077166148   0.07850676            1 
  762000    1.1378494   -3.6444744     708.9547  0.077532229  0.078491044            2 
  763000     1.110345   -3.5986741    709.23786   0.07746154  0.078477205            1 
  764000    1.1318483   -3.6035976    709.38467  0.077376164  0.078463735       -1e+20 
  765000    1.1096131   -3.6069851    709.35382  0.077271658  0.078449674            3 
  766000    1.1311955   -3.6465315    706.24495  0.076832566   0.07843594            1 
  767000    1.1090105   -3.6179422    708.77276  0.077007036  0.078420774            2 
  768000    1.1060963   -3.6431494     709.5221  0.076988075  0.078406516            6 
  769000    1.1301303   -3.6462581    709.50717  0.076886343   0.07839133            1 
  770000     1.128404   -3.6051396    713.03535  0.077168328  0.078376612            2 
  771000    1.1183273   -3.6649366    709.38168  0.076673334  0.078362982            3 
  772000      1.13989   -3.6305005    713.64885  0.077034634  0.078349079            7 
  773000    1.1467523   -3.6257659    715.61493   0.07714693  0.078335333            2 
  774000    1.1131692   -3.5938844    717.99464  0.077303472  0.078321616            2 
  775000    1.1070764   -3.6358877    715.77417  0.076964964  0.078308518            3 
  776000    1.1379864   -3.6456761    716.88132  0.076984678  0.078295541            5 
  777000    1.1359107   -3.6421741    720.35043   0.07725766  0.078281954            2 
  778000    1.1279588   -3.6010757    718.77265  0.076989359  0.078268249            3 
  779000    1.1206938   -3.6149181    719.73179  0.076993132  0.078255547            2 
  780000    1.1449945   -3.6432377    721.78411  0.077113687  0.078242408            2 
  781000    1.1185627   -3.6059767    722.63655  0.077105905  0.078230196            4 
  782000    1.1384971   -3.6564021    721.97764  0.076937089  0.078217501            2 
  783000    1.1316287   -3.6204074    723.15406  0.076964034  0.078204772            2 
  784000    1.1221532   -3.6294484     723.8605  0.076940955  0.078190905            1 
  785000    1.1061491   -3.6145413    721.74722  0.076618601     0.078177            3 
  786000    1.1267482   -3.6335389    725.60984  0.076930644  0.078162681            2 
  787000    1.1162201   -3.6358795    727.82339   0.07706728  0.078148696            3 
  788000    1.1213914   -3.6776328    727.12196    0.0768953  0.078135222            3 
  789000    1.1635676   -3.6329645    724.86796  0.076559776  0.078121557            2 
  790000    1.1392041   -3.6606526    727.14905  0.076703486  0.078108058            2 
  791000    1.1250593   -3.6583962    727.93814  0.076689648  0.078093733            2 
  792000    1.1226031    -3.621312    730.66891  0.076880146  0.078079968            3 
  793000    1.1377998    -3.636193    729.87939   0.07670023  0.078067131            3 
  794000    1.1296619   -3.6535474    732.62548  0.076891843  0.078053207            2 
  795000    1.1529208   -3.6214131    734.81706  0.077024849  0.078040096            2 
  796000     1.132858   -3.6345201    734.84261  0.076930759  0.078027155            1 
  797000    1.1406247   -3.6529073    733.76933  0.076722013  0.078013902            2 
  798000     1.117945   -3.6143896     737.1836  0.076982414  0.078001603            6 
  799000    1.1227115   -3.6706724    737.72138  0.076942155  0.077988405            2 
  800000    1.1408968   -3.5953782    740.18715  0.077102828   0.07797597            2 
  801000    1.1377776   -3.6278464    739.72641  0.076958637  0.077963374            2 
  802000    1.1100791   -3.6572125    739.98261  0.076889299  0.077950393            2 
  803000    1.1187973   -3.6320994    736.84627  0.076468064  0.077937256            4 
  804000    1.1470095   -3.6298514        739.5   0.07664801  0.077923932            3 
  805000    1.1228718   -3.6056274    742.24767  0.076837233  0.077911354            2 
  806000    1.1526423   -3.6663901    742.27494   0.07674472  0.077898042            4 
  807000    1.1175988    -3.655368    743.10409  0.076735242  0.077883883            1 
  808000    1.1216147   -3.6187437    744.14027   0.07674714  0.077869255            2 
  809000    1.1451199    -3.644457    744.01185  0.076639046  0.077855083            2 
  810000    1.1154979   -3.6331033    746.30501  0.076780351  0.077841225            2 
  811000    1.1202433   -3.6088906    747.30498  0.076788428  0.077827123            1 
  812000    1.1265509   -3.6420388    743.57614   0.07631118  0.077813124            2 
  813000    1.1028038   -3.6628557       746.95  0.076563141  0.077799256            3 
  814000    1.1218776   -3.6571345    746.40345  0.076413129  0.077785015            1 
  815000    1.1217386   -3.6208201    746.21737  0.076300344  0.077771459            4 
  816000    1.1050744   -3.6357072    745.78012  0.076162185  0.077756802            4 
  817000    1.1229602    -3.639544    748.52186  0.076348619  0.077742267            3 
  818000    1.1549756   -3.6223935    751.12001  0.076519969  0.077727332            2 
  819000    1.1135185   -3.6566411    747.96231  0.076105241  0.077711484            2 
  820000     1.125803   -3.6127816    749.49574  0.076168266  0.077695727            6 
  821000    1.0968695   -3.6245999    751.97266  0.076326905  0.077680014            1 
  822000    1.1083209   -3.6190491    753.24438  0.076362974  0.077664034            3 
  823000    1.1155282   -3.6325114    756.76798  0.076626972  0.077648862           10 
  824000    1.1159782   -3.6352283    753.91262  0.076245208  0.077635021            2 
  825000    1.1075663   -3.6488741      754.565  0.076218686   0.07761996            2 
  826000    1.1248675   -3.6064621    757.83707  0.076456524  0.077605099            4 
  827000    1.1101688   -3.6383371    756.64764   0.07624422  0.077590289            2 
  828000    1.1377082   -3.6329857    755.36549  0.076023097  0.077574593            2 
  829000    1.1302248   -3.6187472    759.36162  0.076333094   0.07755879            1 
  830000    1.1215577   -3.6234555     762.0209  0.076508123    0.0775426            2 
  831000    1.1396638   -3.6232369    756.12539  0.075824849   0.07752673            4 
  832000    1.1319304   -3.6434515    761.88476  0.076310573  0.077511629            3 
  833000    1.1127976   -3.6692808     761.0459  0.076135044  0.077496563            3 
  834000    1.1081338   -3.6623037     762.2477  0.076163839  0.077482146            4 
  835000    1.1246263   -3.6700377    762.12557  0.076060436  0.077467131            2 
  836000     1.128064   -3.6325089    763.32739  0.076089254   0.07745326            2 
  837000    1.1096945   -3.6523175    764.01031   0.07606634  0.077439738            1 
  838000     1.110615   -3.6446853    767.66654  0.076339154   0.07742575            6 
  839000    1.1101518    -3.634257    768.46584  0.076327556  0.077412105            1 
  840000     1.119699   -3.6430179    767.35915    0.0761269  0.077398337            1 
  841000    1.1058406   -3.6490647    767.23035  0.076023618  0.077384193            4 
  842000    1.1216231   -3.6571002    768.29738  0.076038933  0.077369749            1 
  843000    1.0948907   -3.6546802    768.72124  0.075990633  0.077354747            3 
  844000    1.1157437   -3.6302219    772.60694  0.076284255  0.077339654            2 
  845000    1.1236765   -3.6343623     770.9911  0.076034625   0.07732533            2 
  846000    1.1197936   -3.6321605    773.68897  0.076210498  0.077310232            1 
  847000    1.0938618   -3.6279234     772.4081    0.0759945  0.077296072            2 
  848000    1.1162201   -3.6384801    778.11016  0.076465227  0.077282322            2 
  849000    1.0922167   -3.6472407    774.00215  0.075971942   0.07726903            2 
  850000    1.1084441   -3.6167937    775.95696  0.076074211  0.077256087            2 
  851000    1.0978317   -3.6244425    774.46164   0.07583839  0.077242904            2 
  852000    1.1146147   -3.6557001    776.98698  0.075996379  0.077229156            2 
  853000    1.1134254   -3.6479797    780.02898  0.076204472  0.077215269            5 
  854000    1.1147182    -3.622438    782.51231  0.076357564  0.077201567            3 
  855000     1.116713   -3.6511259     779.5287  0.075977456   0.07718749            3 
  856000    1.1011886   -3.6768035    776.51434  0.075595244  0.077171973            3 
  857000     1.132199   -3.6549744    783.01154  0.076138812  0.077157543            2 
  858000    1.1378474   -3.6234044     780.4384  0.075800156  0.077141976            1 
  859000     1.107375   -3.6564172    781.42806  0.075807922   0.07712662            2 
  860000    1.1252619   -3.6745468    778.42864  0.075429131  0.077111594            5 
  861000    1.1455559   -3.6703581    781.87107  0.075674707  0.077096165            1 
  862000    1.1235554   -3.6400797     785.4091  0.075928954  0.077081182            3 
  863000    1.1182821   -3.6192194    787.40772  0.076033963   0.07706596            2 
  864000    1.1241683   -3.6622548    784.32305  0.075648442  0.077051374            5 
  865000     1.104826   -3.6286049     787.2601   0.07584394  0.077036645            3 
  866000     1.136281   -3.6764295     788.5553  0.075880995  0.077022034            2 
  867000    1.1023297   -3.6531578    785.57357  0.075506879  0.077007939            1 
  868000    1.1171455   -3.6442501    787.66664  0.075620838  0.076993089            2 
  869000    1.1082045   -3.6250967    791.87052  0.075936951   0.07697866            3 
  870000    1.0904162   -3.6281851    792.98574  0.075956488  0.076963812            2 
  871000    1.1307763   -3.6014536     792.5457  0.075827182  0.076949436            4 
  872000    1.1039588   -3.6646241    793.42875  0.075824613  0.076934585            2 
  873000    1.1263577    -3.690232    789.79801  0.075391181  0.076919241            2 
  874000    1.0739113   -3.6567448    795.33501  0.075832858  0.076904214            2 
  875000    1.1109307   -3.6552455    795.51818  0.075763637  0.076889606            1 
  876000    1.0901455   -3.6689266    797.20522  0.075837635  0.076874788            2 
  877000    1.1306759   -3.6632029     796.2069    0.0756563  0.076861076            3 
  878000    1.1165847   -3.6301352    799.72565  0.075904105  0.076846775            1 
  879000    1.1128363   -3.6450704    799.29152  0.075776595  0.076832714            1 
  880000    1.1074664   -3.6476651     799.1096  0.075673258   0.07681907            2 
  881000    1.0970803   -3.6639353    802.94369  0.075950028  0.076805435            3 
  882000     1.096332   -3.6620878    805.94178  0.076147182  0.076792178            3 
  883000    1.1294471   -3.6469877    800.92329  0.075587325  0.076778703            2 
  884000    1.1072925   -3.6621828    802.44086  0.075644878  0.076764275            4 
  885000    1.1202785   -3.6543238    804.91216  0.075792105  0.076750479            2 
  886000    1.1227281   -3.6556728    801.70235   0.07540466  0.076736788            2 
  887000    1.1133888   -3.6833636    803.64333  0.075502004  0.076722298            6 
  888000    1.1177271   -3.6656898    806.90619  0.075723178  0.076707796            4 
  889000    1.0945054   -3.6568923    808.34956  0.075773299  0.076693936            3 
  890000    1.1255005   -3.6841937    807.90168  0.075646224  0.076680714            4 
  891000    1.1146112   -3.6547514    807.27329  0.075502553  0.076666511            3 
  892000    1.0923513   -3.6512906    810.73229  0.075741058  0.076653084            2 
  893000     1.115117   -3.6614382    809.94107  0.075582407  0.076639952            1 
  894000    1.1133251   -3.6464551    812.65191  0.075750551  0.076626965            3 
  895000    1.1036555   -3.6579762    811.28585   0.07553872  0.076614066            3 
  896000    1.1286434   -3.6404047    813.70379  0.075679296  0.076600836            2 
  897000    1.1040794   -3.6335798    816.70453  0.075873702  0.076587376            2 
  898000    1.0990731   -3.6298997    816.16635  0.075739268  0.076574517            1 
  899000    1.0934883   -3.6326337    816.99593  0.075731918  0.076560742            4 
  900000    1.1020516   -3.6327604    817.57699  0.075701573  0.076547323            3 
  901000    1.1150146   -3.6629279    816.51694   0.07551951  0.076533691            2 
  902000    1.1113297   -3.6613286    818.67745  0.075635389   0.07651948            2 
  903000     1.111646   -3.6422341    818.79645  0.075562611  0.076505367            2 
  904000    1.0931875   -3.6848206    817.42653  0.075352741  0.076491233            4 
  905000    1.1009571   -3.6807346    817.04646  0.075234481  0.076476732            2 
  906000    1.1063595   -3.6564481    818.36113  0.075272363  0.076462424            2 
  907000    1.1094295   -3.6441572    820.87153  0.075420023  0.076448758            2 
  908000    1.1129263   -3.6494447    820.32643  0.075286934  0.076434347            2 
  909000      1.09609   -3.6490564    822.44519  0.075398349  0.076419742            3 
  910000    1.0762775   -3.6415152    823.36211  0.075399461  0.076405117            3 
  911000    1.1023412   -3.6637208    826.30059  0.075585492  0.076390796            2 
  912000    1.1246216   -3.6406688    827.15158  0.075580371  0.076376828            2 
  913000     1.090203   -3.6328222     826.8627  0.075471221  0.076363171            1 
  914000    1.1070871   -3.6393217    824.18969  0.075144939  0.076349519            2 
  915000     1.091737     -3.64612    826.22977  0.075248612  0.076335191            1 
  916000    1.1094138   -3.6642163    825.43294  0.075093972  0.076320536            2 
  917000    1.0975365   -3.6186585    828.73844  0.075312472  0.076305745            5 
  918000    1.0832246   -3.6315095    830.07548  0.075351805  0.076291362            2 
  919000      1.10802   -3.6763544    826.97483  0.074988649  0.076276876            1 
  920000    1.0690329   -3.6430811    830.89288  0.075262036  0.076262304            1 
  921000    1.0862241   -3.6918573    827.48981  0.074872404  0.076247498            1 
  922000    1.1002221   -3.6389858    831.40562  0.075145121  0.076233426            1 
  923000    1.0937337   -3.6449334    833.22691  0.075228143  0.076219068            3 
  924000    1.1103135   -3.6494748    827.78147  0.074655616  0.076203581            2 
  925000    1.1114443   -3.6448241    832.36349  0.074987702  0.076188232            4 
  926000    1.1289652   -3.6654623    833.72311  0.075029077  0.076172503            2 
  927000    1.1142448   -3.6568647    832.96757   0.07488022  0.076157164            2 
  928000    1.1066306   -3.6664431    834.75849  0.074960353  0.076141634            2 
  929000    1.1044007   -3.6775993    832.62378  0.074688175  0.076126943            3 
  930000    1.1193176   -3.6590687    836.54917  0.074959603  0.076112197            1 
  931000    1.0680407   -3.6979656    834.72799  0.074716075  0.076097542            1 
  932000    1.0986282   -3.6297735    842.74151  0.075352424  0.076082813            1 
  933000    1.1031808   -3.6539044    838.98615   0.07493624  0.076067842            1 
  934000    1.0894928   -3.6507687    837.91294  0.074760255  0.076053206            2 
  935000    1.1349375   -3.6591228     842.4029  0.075080473  0.076038096            2 
  936000    1.1071035   -3.6536567     843.8964  0.075133227  0.076023539            1 
  937000    1.0945306   -3.6748312    844.37982  0.075096035   0.07600894            2 
  938000    1.1159844   -3.6670125    844.83774  0.075056657  0.075994622            8 
  939000    1.0878204   -3.6677284    840.03242  0.074550268  0.075980235            2 
  940000    1.0680678   -3.6702848    843.88989  0.074812934  0.075965944            1 
  941000    1.1146234   -3.6562744     847.0755  0.075015542  0.075951888            2 
  942000    1.1135413   -3.6535791    847.03782  0.074932575  0.075937506            3 
  943000    1.0912596   -3.6534228    846.42953  0.074799357  0.075923765            3 
  944000    1.1095839   -3.6776496    849.98623  0.075034095  0.075909676            2 
  945000    1.1073623   -3.6641436    853.65082   0.07527785  0.075896381            3 
  946000    1.1151485   -3.6417585    854.01404  0.075230271  0.075882788            1 
  947000    1.0959532   -3.6411886    854.27483  0.075173779   0.07586901            2 
  948000    1.1087617   -3.6640806    850.92415  0.074799943  0.075854576            3 
  949000    1.1039309   -3.6885494     849.0084  0.074552898  0.075839259            2 
  950000    1.1076432   -3.6659576    851.77312   0.07471694  0.075824354            2 
  951000    1.0891605   -3.6651647    850.35609  0.074514203  0.075809645            1 
  952000     1.112158   -3.6524173    853.94546  0.074750128   0.07579549            3 
  953000    1.1067012   -3.7045451    851.50763  0.074458519  0.075780707            4 
  954000    1.0838689    -3.675652    855.96139  0.074769513  0.075765724            3 
  955000    1.1014108   -3.6746998    853.34527  0.074462938  0.075750613            3 
  956000     1.108049   -3.6496412     856.8005  0.074686236  0.075736027            2 
  957000    1.1144631   -3.6456017    858.25453  0.074734807  0.075721291            2 
  958000    1.1111524    -3.680319    856.00854  0.074461425  0.075706575            2 
  959000    1.0843376   -3.6758418    858.12374  0.074567583   0.07569192            2 
  960000    1.1103225   -3.6727293    859.55059  0.074613767  0.075677485            1 
  961000    1.0841964   -3.6962143    860.29932  0.074601051  0.075663315            2 
  962000    1.0960393   -3.6333197    863.92749  0.074837794   0.07564897            2 
  963000    1.0756087   -3.6490062    867.82887  0.075097687    0.0756356            1 
  964000    1.0878393   -3.6664478    865.46841  0.074815734  0.075622162            2 
  965000    1.0913686    -3.686169    864.34824  0.074641471  0.075608055            2 
  966000    1.0855788   -3.6812879    866.51686  0.074751282  0.075594551            5 
  967000     1.114826   -3.6387596    865.90113  0.074620918  0.075580961            1 
  968000    1.1180447   -3.6482904    866.78724  0.074620114  0.075566629            2 
  969000    1.0958607   -3.6858972    865.58847  0.074440013  0.075552229            3 
  970000    1.0961038    -3.684333    862.33831  0.074084047  0.075537249            1 
  971000    1.1019371   -3.6677059      869.124  0.074590113  0.075522894            2 
  972000     1.124485   -3.6780055    868.87675  0.074492176  0.075509041            1 
  973000    1.1032178   -3.6643457     870.7082  0.074572473  0.075494817            2 
  974000    1.1160105    -3.679602    869.66743  0.074406864  0.075480837            2 
  975000    1.1049973   -3.6608715    873.15355  0.074628509  0.075466858            4 
  976000     1.092788   -3.6744725    873.05376  0.074543524  0.075452896            1 
  977000    1.0950803   -3.6725326    870.84129  0.074278513  0.075438438            3 
  978000    1.0618641   -3.6773044    876.69769  0.074701575  0.075424479            2 
  979000    1.1207714   -3.7059873    875.94886  0.074561531  0.075410576            1 
  980000    1.0773841   -3.6150884    875.68199  0.074462754  0.075396395            3 
  981000    1.0946881   -3.6801228    876.51948  0.074457992  0.075382948            3 
  982000    1.0668287   -3.6683744    878.10117  0.074516392  0.075368348            2 
  983000    1.0897996   -3.6534611    874.78871  0.074159776  0.075353441            2 
  984000    1.1029887    -3.647132    879.77726  0.074506882  0.075338374            2 
  985000    1.0999882   -3.6940151    874.05782  0.073947362  0.075323175            2 
  986000    1.1039717   -3.6824786    878.48103  0.074246199  0.075308122            1 
  987000     1.096446   -3.6913826    879.56151  0.074262201   0.07529337            3 
  988000    1.1086639    -3.681906    880.40133  0.074257872  0.075277681            3 
  989000    1.0693598   -3.6570265    879.25821  0.074086469   0.07526214            3 
  990000    1.1040083    -3.695437    879.13314  0.074001106  0.075246432            1 
  991000    1.0755284   -3.6669867    882.66751  0.074223639  0.075230533            4 
  992000    1.1182725   -3.6727698    878.69109  0.073814776   0.07521457            2 
  993000    1.0937447   -3.7075485    879.43935  0.073803235  0.075198669            3 
  994000     1.087838   -3.6799653    880.20625   0.07379328  0.075181858            5 
  995000    1.0985413   -3.6680922     879.6828  0.073675276  0.075165559            2 
  996000    1.0947652    -3.680888    879.81102  0.073612033  0.075149554            2 
  997000    1.1004469   -3.6751585    883.48649   0.07384541  0.075132623            3 
  998000    1.0964555   -3.6495445    884.93189  0.073892108  0.075116376            3 
  999000    1.1155883   -3.6654051    886.02132  0.073909019  0.075099577            4 
 1000000    1.0882281   -3.6763883    886.59923  0.073883269  0.075083388            2 
 1001000    1.0845388   -3.6590599     890.0835  0.074099525  0.075066979            2 
 1002000    1.0957317   -3.6583263      888.332  0.073879906  0.075051127            1 
 1003000    1.0905752   -3.6756028    890.11491  0.073954379  0.075034957            3 
 1004000    1.0812984   -3.6905374    892.50114   0.07407878  0.075018346            2 
 1005000    1.0787866   -3.6688659     888.9558  0.073711095  0.075002626            1 
 1006000    1.0966141   -3.6696194    888.73279   0.07361935  0.074986685            2 
 1007000    1.0609609   -3.6894708    885.64761  0.073290931  0.074969871            3 
 1008000     1.065664   -3.6873568    890.68281  0.073634491  0.074954118            2 
 1009000    1.0894784   -3.6745982    893.06665  0.073758395  0.074938119            2 
 1010000    1.0977321   -3.6859284    895.63774  0.073897503  0.074921857            2 
 1011000    1.0837284    -3.703108    894.16245  0.073702806  0.074905892            2 
 1012000    1.0861396   -3.6782662    893.51667  0.073576801  0.074889627            1 
 1013000    1.1047947   -3.6656917    894.39267  0.073576231  0.074873361            4 
 1014000    1.0984921   -3.6887172    893.33144  0.073416456  0.074857306            2 
 1015000    1.0684537   -3.6703352    894.67195  0.073454183  0.074840325            2 
 1016000    1.0851936    -3.687112     892.2259  0.073181258  0.074823194            3 
 1017000    1.0959395    -3.680667    895.86943  0.073407853  0.074805946            2 
 1018000    1.0867099    -3.687567    892.03715  0.073022032  0.074788742            2 
 1019000    1.1051841   -3.6880939    898.59348  0.073486545  0.074771598            1 
 1020000    1.1035893   -3.6990012    895.79685  0.073186017  0.074754777            3 
 1021000      1.11199   -3.6621295    896.70137  0.073188162  0.074737006            2 
 1022000    1.0951464   -3.6822381    900.77149  0.073448425  0.074719599            3 
 1023000    1.1059301   -3.6927033    899.35392  0.073261153  0.074703049            1 
 1024000    1.1031981   -3.6452406    903.42671  0.073521054  0.074686221            2 
 1025000       1.1066    -3.671474    909.35786  0.073931533  0.074669758            2 
 1026000    1.0722203   -3.6775824    902.49951   0.07330243  0.074653342            3 
 1027000    1.0736871   -3.7057154    904.91706   0.07342722  0.074636047            2 
 1028000    1.0728921   -3.6932059    901.66477  0.073092151  0.074619049            3 
 1029000    1.0995129   -3.6811898    903.75696  0.073190554  0.074601711            2 
 1030000    1.0872933   -3.6722604    906.28539  0.073324061  0.074585091            3 
 1031000    1.0777587   -3.6590471    908.60134  0.073440134  0.074567706            1 
 1032000    1.0688849   -3.6488279    907.45511  0.073276414  0.074550494            3 
 1033000    1.1043005   -3.6841925    906.10586  0.073096633  0.074534241            5 
 1034000    1.0743334   -3.6792866    906.33737  0.073044598  0.074517508            5 
 1035000    1.0723753   -3.6752277    910.97466  0.073347396  0.074500696            2 
 1036000    1.0894707     -3.72029    908.06338  0.073042421  0.074484354            2 
 1037000    1.0985319   -3.6853338    910.20119  0.073143779  0.074467361            2 
 1038000    1.0937541   -3.6685274    915.48928  0.073497855  0.074451076            2 
 1039000    1.0973074   -3.6768341    912.00033  0.073147283  0.074434917            6 
 1040000    1.0895627    -3.682765    912.50189  0.073117139  0.074417611            2 
 1041000    1.1014603   -3.7089474    911.24916  0.072946618  0.074400622            2 
 1042000    1.1006605   -3.6972761    915.17048  0.073190217  0.074384988            2 
 1043000    1.0662471   -3.7041496    913.26841  0.072968074  0.074368687            3 
 1044000    1.0909499   -3.6745922    916.23715  0.073135149  0.074352574            3 
 1045000    1.0830331   -3.6873917    913.78454  0.072869581  0.074336953            2 
 1046000    1.0969687   -3.6818586    917.61412  0.073105013  0.074320821            1 
 1047000    1.0982269   -3.6871972     920.9227  0.073298528  0.074304448            3 
 1048000    1.0836734   -3.7382373    916.41886  0.072870456  0.074287864            4 
 1049000    1.0953694   -3.6680894    925.14005  0.073493808  0.074272161            2 
 1050000    1.1026392   -3.7042419    919.59447  0.072983688  0.074255974            4 
 1051000     1.099286   -3.7188365    922.48679  0.073143576  0.074239433            2 
 1052000    1.0670143   -3.7260724    918.94993  0.072793879   0.07422288            1 
 1053000    1.0819767   -3.6846769     917.2739   0.07259211  0.074206741            2 
 1054000    1.0720419   -3.6901722    924.82421  0.073120194  0.074190687            4 
 1055000    1.0964492   -3.6907659    920.84515  0.072736584  0.074174873            3 
 1056000    1.0782969   -3.7289915     922.4045  0.072790759  0.074158365           14 
 1057000    1.0805431    -3.663823    929.62017  0.073290773  0.074142754            2 
 1058000    1.0964695    -3.674285    927.19147  0.073030204  0.074126742            3 
 1059000    1.0709916    -3.701405    927.62465   0.07299533  0.074110999            2 
 1060000    1.0765905   -3.6902402    925.50625  0.072759925  0.074094987            2 
 1061000    1.0849891   -3.7009128    931.02706  0.073124965  0.074078735            3 
 1062000    1.0674492   -3.6604664    929.39577  0.072928105  0.074062613            3 
 1063000    1.0673258   -3.6607641    933.34782  0.073169318  0.074047164            1 
 1064000    1.0785874   -3.7032992    931.20735  0.072932906  0.074031557            2 
 1065000    1.0727499   -3.6599135    932.96329  0.073001822  0.074016293            2 
 1066000    1.0946967   -3.7062063    931.84864  0.072846204  0.074001085            3 
 1067000    1.0722821   -3.6998919    935.15696  0.073036314  0.073985323            2 
 1068000    1.0745567   -3.6913066    935.09584  0.072963158   0.07397021            4 
 1069000    1.0908974   -3.6958888    937.55049  0.073086256  0.073954501            1 
 1070000    1.0710196   -3.6671164    932.29926  0.072608977  0.073939839            2 
 1071000    1.0623936   -3.6581263    936.52765  0.072870187  0.073924672            1 
 1072000     1.099721   -3.7035788    937.93625  0.072911711  0.073909042            3 
 1073000    1.0607583    -3.707002    939.80132  0.072988609  0.073893821            3 
 1074000    1.0695805   -3.6910806    937.47848  0.072740416  0.073878195            1 
 1075000    1.0704219   -3.6853156    941.60449  0.072992596  0.073863575            3 
 1076000     1.087886   -3.7378787    939.49114  0.072761086  0.073848149            3 
 1077000    1.0534451   -3.6991931    942.47582  0.072924467  0.073833077            2 
 1078000    1.0946888   -3.7021794      941.138  0.072753401  0.073817611            2 
 1079000    1.0702262   -3.7092394    940.27143  0.072619047  0.073801599            2 
 1080000    1.0633468   -3.6895965    939.99203  0.072530249  0.073786093            1 
 1081000    1.0732573   -3.7080598     943.6648  0.072746285  0.073770832            5 
 1082000    1.0810462   -3.6722841    949.33437  0.073115709  0.073756336            5 
 1083000    1.0816553   -3.6664969    948.20769  0.072961502  0.073742332            1 
 1084000    1.0601663   -3.7123796    945.33113  0.072673057  0.073727456            1 
 1085000    1.0446875   -3.7195937    951.22232   0.07305855  0.073712456            3 
 1086000    1.0538488   -3.6918926    948.93556  0.072815804  0.073697577            2 
 1087000      1.08467   -3.7100015    947.26366  0.072620642  0.073682479            3 
 1088000    1.0735845   -3.6875441    949.06001  0.072691484  0.073667576            1 
 1089000    1.0631407   -3.6747914    952.68218  0.072901911  0.073653052            1 
 1090000    1.0633459   -3.7271962    949.20237  0.072568989  0.073637733            4 
 1091000    1.0709625    -3.672863    955.32709  0.072970294  0.073622616            5 
 1092000    1.0660057   -3.6982752    953.24082  0.072744263  0.073608096            3 
 1093000    1.0788631   -3.6795311    954.22394  0.072752664  0.073593061            2 
 1094000    1.0812726   -3.7342563    950.70893  0.072418413  0.073577392            4 
 1095000    1.0839812   -3.6847404    954.81845  0.072665027  0.073561742            2 
 1096000    1.0899038   -3.6911623    955.93401  0.072683547  0.073546969            1 
 1097000    1.0807611   -3.6994163    956.82488  0.072684965  0.073532233            2 
 1098000    1.0767259   -3.7112066    958.66181  0.072758182  0.073517995            1 
 1099000    1.0714774   -3.7110526     959.5497  0.072759304  0.073503448            3 
 1100000    1.0930876   -3.7240177    958.36082  0.072603092  0.073488905            3 
 1101000    1.1064983    -3.734539    958.54532  0.072551114  0.073474043            2 
 1102000    1.0963477   -3.6754893    956.35204  0.072319422  0.073458757            6 
 1103000    1.0634752   -3.7228897     958.0173  0.072379669  0.073443114            2 
 1104000    1.0549446    -3.676918     960.6825  0.072515285  0.073428465            2 
 1105000    1.0682601   -3.7209546     956.9015  0.072164518  0.073413367            3 
 1106000    1.0713935   -3.6775189    964.13066  0.072643962  0.073399187            2 
 1107000    1.0846304   -3.7155272    966.21017  0.072734882  0.073385062            4 
 1108000    1.0643172   -3.7096611    964.56288  0.072545343  0.073371726            3 
 1109000    1.0598085   -3.7021015    966.87975  0.072654024  0.073358109            2 
 1110000     1.078481   -3.6890178    967.42059  0.072629174  0.073344504            1 
 1111000    1.0729375     -3.70378    968.93976   0.07267775  0.073331082            1 
 1112000    1.0773067   -3.7373698    967.50779   0.07250508   0.07331685            1 
 1113000     1.070191   -3.7099529    968.25305  0.072495736  0.073302946            2 
 1114000    1.0834076   -3.6910982    970.80693  0.072621703  0.073288834            5 
 1115000    1.0708429   -3.7057055    973.76163  0.072777401  0.073275288            3 
 1116000    1.0929602   -3.7228861    971.65465  0.072554857  0.073261459            4 
 1117000     1.075079   -3.7056442     971.2699  0.072461198  0.073247495            3 
 1118000    1.0794483    -3.708028    973.42044  0.072556681   0.07323347            3 
 1119000     1.064821   -3.7229617    975.66565  0.072659044  0.073219342            2 
 1120000    1.0747084   -3.7282702    973.14944  0.072406952   0.07320495            4 
 1121000    1.0602028   -3.7413176    971.10553   0.07219042  0.073191034            2 
 1122000    1.0675366   -3.7160721    977.83751  0.072626078  0.073176316            1 
 1123000    1.0437216   -3.6956483    972.03402  0.072130752  0.073161661            4 
 1124000    1.0806759   -3.7134128    973.24333  0.072156238  0.073146303            2 
 1125000    1.0698626   -3.6891576    974.72714   0.07220201  0.073130707            2 
 1126000    1.0584493   -3.7221437    975.56107  0.072199605  0.073115012            2 
 1127000    1.0587292   -3.7227198    975.76613  0.072150705  0.073099473            2 
 1128000    1.0690993   -3.7212816    972.77597  0.071865837  0.073084248            2 
 1129000     1.081525   -3.6722046    978.03287  0.072190203  0.073068918            5 
 1130000    1.0813972   -3.7456307     976.9112  0.072043599  0.073053371            1 
 1131000    1.0696246    -3.714497    976.77543  0.071969896  0.073037489            3 
 1132000    1.0488883   -3.7147309    975.89129  0.071841231  0.073021832            2 
 1133000     1.077231   -3.6915998    981.48537  0.072189274  0.073005841            6 
 1134000    1.0603035   -3.7335334      977.776  0.071853028  0.072990442            3 
 1135000    1.0662982   -3.7005557    977.84954   0.07179512  0.072974715            3 
 1136000    1.0799855   -3.7051207    981.79627   0.07202144  0.072959105            3 
 1137000    1.0831487   -3.7116169    982.14378  0.071983566  0.072943538            3 
 1138000    1.0719826   -3.7136109    980.66352  0.071811915  0.072927885            2 
 1139000    1.0432901   -3.7351594    981.51015   0.07181081  0.072911949            4 
 1140000    1.0775415   -3.7097171    980.05904  0.071641743  0.072896273            4 
 1141000    1.0661688   -3.6934307     984.4357  0.071898605   0.07288129            2 
 1142000    1.0729625   -3.7418843    981.78704   0.07164237  0.072865268            2 
 1143000    1.0596444   -3.6826596     985.5355  0.071852982  0.072849905            2 
 1144000    1.0435009    -3.716494     984.5577  0.071718946  0.072834592            2 
 1145000    1.0789868   -3.6876902     991.6171  0.072170095  0.072819089            2 
 1146000    1.0793834   -3.7018777    985.47236  0.071660294  0.072803941            4 
 1147000    1.0581202    -3.726033    987.77963  0.071765449  0.072788557            3 
 1148000      1.05109   -3.7169641    986.70531   0.07162495  0.072773149            3 
 1149000    1.0509232   -3.7038127    988.76009   0.07171164  0.072757791            2 
 1150000    1.0504705   -3.7122007    991.45771  0.071844762  0.072742389            2 
 1151000     1.075298   -3.7554672    992.14522  0.071832119    0.0727268            2 
 1152000     1.055012   -3.7278526     993.2497   0.07184966   0.07271156            3 
 1153000    1.0506999   -3.7220303    988.42149  0.071438385  0.072695654            1 
 1154000    1.0581729   -3.7226278    987.60389  0.071317439  0.072679936            3 
 1155000    1.0407767   -3.7319631    994.21814  0.071732911  0.072664009            6 
 1156000    1.0570248   -3.7217179     989.3865  0.071322556  0.072647798            3 
 1157000    1.0415092   -3.7053376    994.09285  0.071599888  0.072631435            5 
 1158000    1.0755269   -3.7086385    993.28258  0.071479748  0.072615077            4 
 1159000    1.0609101   -3.6969857    993.14482  0.071408169  0.072598782            9 
 1160000    1.0702952   -3.7014441    994.51502  0.071445044  0.072582961            1 
 1161000    1.0880137    -3.725672     995.9921  0.071489528  0.072566906            1 
 1162000    1.0672942   -3.7092152    997.74305  0.071553575  0.072550847            3 
 1163000    1.0778651    -3.704443    1002.3015  0.071818677  0.072535072            2 
 1164000    1.0640969    -3.714063    994.22017   0.07117842  0.072519182            2 
 1165000    1.0380708   -3.7026329    998.78332  0.071443728   0.07250328            4 
 1166000    1.0871449   -3.7248053      996.997  0.071254789  0.072487745            1 
 1167000    1.0759594   -3.7106539    1001.4749  0.071513488  0.072471552            2 
 1168000    1.0390996   -3.6879653    1000.9402   0.07141411   0.07245531            1 
 1169000    1.0732107   -3.7138078    1001.6175  0.071401307  0.072439209            4 
 1170000    1.0427749   -3.7389068    1003.7626  0.071493063  0.072423624            2 
 1171000    1.0676149   -3.7466554    1005.2073  0.071534822  0.072407644            4 
 1172000    1.0953981   -3.7317409    1002.6073  0.071288915   0.07239162            1 
 1173000    1.0820744   -3.7328492    1002.9295  0.071251031  0.072376015            5 
 1174000    1.0478831   -3.7733474    1003.0367  0.071197949  0.072359987            2 
 1175000    1.0644957   -3.7291037    1002.9516  0.071131316  0.072343906            2 
 1176000    1.0714007   -3.7254958    1004.2157   0.07116041  0.072327975            3 
 1177000    1.0604001   -3.7006124    1002.8552  0.071003624  0.072311991            1 
 1178000    1.0559928   -3.7249661    1011.1903  0.071532987  0.072295825            2 
 1179000    1.0695444   -3.7388144    1007.5457  0.071214709  0.072279774            1 
 1180000    1.0837077   -3.7136824    1011.7858  0.071453798  0.072263532            1 
 1181000    1.0831402   -3.7226102    1009.5694  0.071236904  0.072247253            2 
 1182000    1.0574967   -3.7360203    1006.3334  0.070948489  0.072230438            3 
 1183000    1.0589299   -3.7162483    1006.2772  0.070884562  0.072213947            2 
 1184000     1.048732   -3.6931073     1012.794  0.071283363  0.072197789            2 
 1185000    1.0672792   -3.7407479    1011.6233  0.071140878   0.07218137            3 
 1186000     1.063274   -3.7349722    1013.1138  0.071185622  0.072165363            2 
 1187000    1.0406314   -3.7289616     1012.365  0.071073083  0.072148956            3 
 1188000    1.0381051   -3.7288103    1015.5558  0.071237076   0.07213293            3 
 1189000    1.0486134   -3.7225885    1016.1714  0.071220312  0.072117109            2 
 1190000    1.0809436   -3.7326552     1015.734  0.071129831  0.072101456            2 
 1191000    1.0730121   -3.7176909     1016.509  0.071124333  0.072085564            2 
 1192000    1.0578523   -3.6873083    1018.6773  0.071216252   0.07207035            2 
 1193000    1.0270011    -3.725121    1014.9018  0.070892833   0.07205446            2 
 1194000    1.0624374   -3.7265009    1017.2999   0.07100083  0.072038245            4 
 1195000    1.0607525   -3.7257545    1017.0235  0.070922144  0.072022545            3 
 1196000    1.0520033   -3.7227671    1022.0364  0.071212124  0.072006824            2 
 1197000    1.0589201   -3.7227637    1023.1292  0.071228713  0.071991162            1 
 1198000    1.0525877   -3.7355811    1016.0613  0.070677606  0.071974993            1 
 1199000    1.0815571   -3.7245705    1021.9404  0.071027274  0.071958865            2 
 1200000    1.0557187   -3.7282882    1021.0169  0.070903949  0.071942528            1 
 1201000    1.0621034   -3.7473635    1022.9853  0.070981496  0.071926725            3 
 1202000    1.0502763   -3.7064351    1027.1477  0.071211019  0.071911421            6 
 1203000    1.0660532   -3.7148605    1023.3616  0.070889555   0.07189577            2 
 1204000    1.0710921   -3.7402118    1021.1613  0.070678382  0.071879366            1 
 1205000    1.0559503   -3.7630146    1022.6994  0.070726097  0.071863485            7 
 1206000    1.1020641   -3.7502123    1025.3886  0.070853276  0.071846988            3 
 1207000    1.0459872     -3.74341    1029.5944  0.071084948   0.07183138            2 
 1208000    1.0658322   -3.6988648    1028.1575  0.070926981  0.071815812            5 
 1209000    1.0504158   -3.7496142    1028.5071   0.07089241  0.071800629            3 
 1210000    1.0609842   -3.7152759    1033.7852  0.071197326  0.071785572            4 
 1211000    1.0445539   -3.7313089    1030.1767  0.070890223  0.071770923            3 
 1212000    1.0651121   -3.6804737    1035.2115  0.071177908  0.071756057            2 
 1213000    1.0471006   -3.7261412    1034.0982  0.071042743  0.071741658            1 
 1214000    1.0573316   -3.7257497    1034.1792  0.070989787  0.071727274            1 
 1215000     1.049959   -3.7265107    1034.1469   0.07092914  0.071712671            3 
 1216000    1.0656386   -3.7351273    1036.0709  0.071002669  0.071698198            3 
 1217000    1.0541472   -3.7405682    1037.5436  0.071045165  0.071683785            3 
 1218000    1.0641217   -3.7416433    1034.7091  0.070792906  0.071669513            2 
 1219000     1.079577   -3.7246985    1038.2161  0.070974579   0.07165475            1 
 1220000    1.0591899   -3.7128745    1038.7197  0.070950796  0.071640334            2 
 1221000    1.0307738   -3.7157625    1045.0509  0.071324795  0.071626538            5 
 1222000    1.0673982   -3.7359808    1040.7141  0.070970683  0.071612663            4 
 1223000     1.074151   -3.7039942    1044.7493  0.071187609  0.071598696            5 
 1224000     1.046124   -3.7343225     1042.564  0.070980664  0.071585197            8 
 1225000    1.0583226   -3.7171831    1043.7078  0.071000533  0.071571288            3 
 1226000    1.0738514   -3.7303573     1045.543   0.07106736  0.071557691            2 
 1227000    1.0626815   -3.6919907    1044.2072  0.070918721  0.071543769            2 
 1228000    1.0325837   -3.7375656     1046.157  0.070993281  0.071530057            3 
 1229000      1.07249   -3.7232935    1048.6582  0.071105112  0.071516485            3 
 1230000    1.0522999   -3.7235172    1047.6025   0.07097578  0.071503519            3 
 1231000    1.0421144   -3.7500037    1047.8542   0.07093516  0.071490462            6 
 1232000    1.0655755   -3.7582541    1045.8742  0.070743658  0.071477544            2 
 1233000    1.0303137   -3.7410943    1054.3331   0.07125798  0.071464664            3 
 1234000    1.0656821    -3.715292    1051.4953    0.0710086  0.071451707            4 
 1235000     1.053292   -3.6856133    1052.6889  0.071031639  0.071438822            3 
 1236000    1.0586646   -3.7119317    1057.8801  0.071324171  0.071425729            1 
 1237000    1.0230399   -3.7200258    1054.9286  0.071067675  0.071412589            2 
 1238000    1.0590067   -3.7294787    1052.7049  0.070860587  0.071399106            5 
 1239000    1.0351618   -3.7385659    1055.8829  0.071017144  0.071385555            1 
 1240000    1.0674052   -3.7297821    1059.2291  0.071184752  0.071372234            5 
 1241000    1.0513818   -3.7475387    1052.4769   0.07067398  0.071359213            4 
 1242000    1.0663546   -3.7381318    1052.7663  0.070636496  0.071345792            2 
 1243000    1.0366375   -3.7333715    1056.2934  0.070816129  0.071332496            3 
 1244000    1.0704904   -3.7279145    1056.3284  0.070761549  0.071319083            3 
 1245000    1.0274295   -3.7310134    1058.2742  0.070834954  0.071305506            3 
 1246000    1.0626864   -3.7458731    1055.6321  0.070601395   0.07129219            2 
 1247000    1.0629407   -3.7753228    1054.7276  0.070484339  0.071278754            2 
 1248000    1.0430805   -3.7149312    1060.5426  0.070816147  0.071265289            2 
 1249000    1.0538526   -3.7543223    1058.6569  0.070633633   0.07125212            2 
 1250000    1.0498598   -3.7347082    1063.6356  0.070909041  0.071239406            2 
 1251000    1.0418105   -3.7279976     1063.343  0.070832868  0.071226787            2 
 1252000    1.0664783   -3.7427534     1067.717  0.071067423  0.071213544            2 
 1253000     1.067747   -3.7294328    1070.0249  0.071164197  0.071199808            2 
 1254000    1.0553984   -3.7005145    1068.4296  0.071001436   0.07118713            2 
 1255000    1.0438634   -3.7564348    1062.5191  0.070552397  0.071173741            2 
 1256000    1.0495531   -3.7195174    1065.8064   0.07071433  0.071160568            2 
 1257000    1.0516192   -3.7133972    1065.4085  0.070631694  0.071147807            3 
 1258000    1.0782703   -3.7364445    1067.9329  0.070742775  0.071134694            2 
 1259000    1.0550763    -3.716526    1066.8791  0.070616835  0.071121655            4 
 1260000    1.0600193   -3.7607339    1068.9605  0.070698448  0.071107985            2 
 1261000    1.0743759   -3.7467461    1072.0361   0.07084563   0.07109506            2 
 1262000    1.0457161   -3.7509885    1071.1945  0.070733924  0.071081911            6 
 1263000    1.0207288   -3.7124397    1078.2263   0.07114188  0.071068513            2 
 1264000      1.04814   -3.7197994    1072.2702  0.070692917  0.071055361            4 
 1265000    1.0496095   -3.7195806     1072.209  0.070633005  0.071041974            2 
 1266000    1.0602727   -3.7298461    1078.5333  0.070993501  0.071029889            2 
 1267000     1.031195   -3.7421964    1077.3568  0.070860092  0.071017116            4 
 1268000    1.0406889   -3.7538601    1077.0116  0.070781522   0.07100419            3 
 1269000     1.030022   -3.7674856     1072.712  0.070443393  0.070990924            3 
 1270000    1.0490864    -3.748617    1074.9477  0.070534626  0.070977898            3 
 1271000    1.0677152   -3.7002798    1081.5136  0.070909622  0.070965136            1 
 1272000    1.0394558   -3.7513008    1082.6808  0.070930343  0.070952855            2 
 1273000    1.0455633   -3.7469189     1081.221  0.070779066  0.070940288            1 
 1274000    1.0371031   -3.7561054    1081.8903  0.070767287  0.070927741            3 
 1275000    1.0603595   -3.7684581    1080.6689  0.070631957  0.070915833            5 
 1276000    1.0769608   -3.7236115    1089.8688  0.071177428   0.07090367            4 
 1277000     1.047629   -3.7388411    1083.5699  0.070710644  0.070891949            4 
 1278000    1.0455609   -3.7432371    1085.9533  0.070810728  0.070879686            4 
 1279000    1.0629641   -3.7202538    1084.1763  0.070639579  0.070867372            2 
 1280000    1.0504464   -3.7366087    1088.5922  0.070871887  0.070854788            2 
 1281000    1.0775002   -3.7327597    1084.1019  0.070524455  0.070842644            3 
 1282000    1.0575374   -3.7427311    1084.1979  0.070475685  0.070830011            3 
 1283000    1.0382186    -3.741544    1082.1364  0.070286851  0.070817103            2 
 1284000    1.0365257   -3.7653398    1085.8988  0.070476296  0.070804301            3 
 1285000    1.0377476   -3.7590737    1087.3586   0.07051612  0.070791952            1 
 1286000    1.0481733   -3.7466795    1089.0377  0.070570093  0.070779332            4 
 1287000    1.0547063   -3.7828818    1087.9095  0.070442212  0.070766484            2 
 1288000    1.0697766   -3.7209346    1090.9226  0.070582465  0.070753557            2 
 1289000    1.0557752   -3.7490909    1087.8471   0.07032888  0.070741121            3 
 1290000    1.0380107   -3.7407144    1086.4305  0.070182852  0.070727957            1 
 1291000    1.0322557   -3.7512192    1089.9728  0.070357137  0.070715124            2 
 1292000     1.050295   -3.7549335    1090.9227  0.070363952   0.07070238            4 
 1293000    1.0458133   -3.7501041    1087.2357  0.070071908   0.07068946            5 
 1294000    1.0398504   -3.7148174     1096.312  0.070602269  0.070676458            5 
 1295000    1.0613158   -3.7295909    1089.9367  0.070137497   0.07066379            4 
 1296000    1.0494294   -3.7487263    1091.7349  0.070199003  0.070651004            4 
 1297000    1.0538826   -3.7494498    1092.6673  0.070204789  0.070638649            6 
 1298000    1.0435241   -3.7522652    1095.0997  0.070306863  0.070626332            5 
 1299000    1.0363726   -3.7552584    1099.0534   0.07050638  0.070614143            3 
 1300000    1.0323534   -3.7532692    1098.5646  0.070420807   0.07060193            1 
 1301000    1.0488136   -3.7438758    1101.8325  0.070575998  0.070590126            3 
 1302000    1.0566075   -3.7306769    1102.0839  0.070537885  0.070578204            3 
 1303000    1.0585406    -3.747723    1100.8816  0.070406854  0.070565991            3 
 1304000    1.0351062   -3.7522025    1105.3542  0.070638692  0.070554014            2 
 1305000    1.0329082   -3.7593428    1101.4759  0.070336904  0.070542215            2 
 1306000    1.0553559   -3.7265468    1103.5128  0.070413014  0.070530001            2 
 1307000    1.0415696   -3.7489017    1101.1811  0.070210477  0.070518061            1 
 1308000    1.0379117   -3.7255431    1105.5012  0.070432033  0.070505864            2 
 1309000    1.0180014   -3.7242791    1103.2835  0.070237045  0.070493951            2 
 1310000    1.0353354   -3.7461762    1101.3398  0.070059784  0.070482404            2 
 1311000    1.0467641   -3.7449107    1106.9089  0.070360341  0.070470858            4 
 1312000    1.0204989   -3.7370796     1107.441  0.070340509  0.070459099            1 
 1313000    1.0499607   -3.7550843    1112.2145  0.070589904   0.07044741            4 
 1314000    1.0189469   -3.7447824    1107.4026  0.070231012  0.070435661            2 
 1315000    1.0413103   -3.7494129    1109.2164  0.070292547  0.070423322            1 
 1316000    1.0431699   -3.7369922    1114.6177   0.07058116  0.070411361            3 
 1317000    1.0434239   -3.7429985    1113.3398  0.070446709   0.07039942            1 
 1318000    1.0477265   -3.7356265    1114.3669  0.070458198   0.07038782            5 
 1319000    1.0264239   -3.7697443    1112.1777  0.070266468  0.070376281            2 
 1320000     1.044636   -3.7478311    1116.6917  0.070498216  0.070364451            2 
 1321000    1.0386026   -3.7341923     1118.053  0.070530722  0.070352931            2 
 1322000    1.0323853   -3.7793324    1116.0017  0.070348066  0.070342281            5 
 1323000    1.0383425    -3.750047    1115.8037  0.070282417  0.070331175            2 
 1324000    1.0340459   -3.7583814    1120.4447  0.070521446  0.070320021            3 
 1325000    1.0475051   -3.7502604     1117.223  0.070265596   0.07030875            3 
 1326000    1.0366286   -3.7543405    1117.6226  0.070237722  0.070297097            2 
 1327000    1.0411144   -3.7396326     1115.922  0.070077993  0.070285814            4 
 1328000    1.0262929   -3.7543092    1119.6722  0.070260558  0.070274125            1 
 1329000    1.0627333   -3.7536034    1115.9499  0.069974288  0.070262549            2 
 1330000    1.0281296   -3.7457641    1125.7272  0.070534288  0.070251173            4 
 1331000    1.0376074    -3.750755    1117.5743   0.06997084  0.070239631            1 
 1332000    1.0624852   -3.7295806    1125.9607  0.070442987   0.07022799            3 
 1333000     1.031781   -3.7534943    1123.1513  0.070214512  0.070216988            2 
 1334000    1.0336518   -3.7847525     1121.483   0.07005766  0.070205566            3 
 1335000    1.0243042   -3.7175875    1126.7772  0.070335654  0.070194874            4 
 1336000    1.0562172   -3.7349208    1124.8061  0.070160062  0.070183496            4 
 1337000    1.0387543   -3.7143405    1126.1659  0.070192342  0.070172418            2 
 1338000    1.0261319   -3.7704053    1127.6723  0.070233699  0.070160851            3 
 1339000    1.0374291   -3.7446253    1129.8376   0.07031601  0.070149387            1 
 1340000    1.0501953   -3.7549562      1126.71   0.07006903  0.070137951            3 
 1341000    1.0336109   -3.7634809    1125.7744  0.069958639  0.070126476            3 
 1342000    1.0394401   -3.7495759    1131.2302  0.070245292  0.070114883            5 
 1343000    1.0375009   -3.7549478    1130.0685  0.070120903  0.070103913            2 
 1344000    1.0456587   -3.7663414    1131.5512  0.070160665  0.070092917            4 
 1345000    1.0352372   -3.7786963    1128.8911  0.069943684  0.070081362            2 
 1346000    1.0306253   -3.7770726    1128.1512  0.069845914  0.070070164            2 
 1347000    1.0113737   -3.7441315    1133.4611  0.070122562  0.070058712            5 
 1348000    1.0592799   -3.7847669    1132.5251  0.070012679   0.07004696            2 
 1349000    1.0220039   -3.7340114    1133.7605  0.070037096  0.070035536            3 
 1350000    1.0391865   -3.7373621     1133.035  0.069940435  0.070024103            2 
 1351000    1.0180073   -3.7323169    1138.3154  0.070214372  0.070012642            4 
 1352000    1.0340234   -3.7561827    1135.9121  0.070014304  0.070001604            2 
 1353000    1.0282845   -3.7491025    1134.9094  0.069900804  0.069990173            2 
 1354000    1.0339392   -3.7601042    1139.2296  0.070115067  0.069978881            3 
 1355000    1.0673639   -3.7838565    1136.9853  0.069925294   0.06996736            3 
 1356000     1.035789   -3.7911858    1137.5004  0.069905383  0.069956115            2 
 1357000    1.0217943   -3.7787124    1137.7902  0.069871663  0.069945206            2 
 1358000    1.0438664   -3.7669142    1137.2921  0.069789651  0.069934169            2 
 1359000    1.0545873   -3.7645165     1137.059  0.069724001  0.069923051            3 
 1360000    1.0546151   -3.7668708    1144.7263  0.070142541  0.069911933            3 
 1361000    1.0476513   -3.7662568    1141.9006  0.069917988   0.06990095            2 
 1362000    1.0460017   -3.8040909    1144.5763  0.070030364  0.069889708            2 
 1363000    1.0435579   -3.7359425    1147.6325  0.070165842  0.069878736            1 
 1364000    1.0259317   -3.7896296    1141.0703  0.069713484  0.069867486            3 
 1365000    1.0252227   -3.7426258    1146.2135  0.069976403  0.069856511            2 
 1366000    1.0306601   -3.7675774    1143.9075  0.069784501  0.069845215            5 
 1367000    1.0388852   -3.7499127    1148.3046  0.070001502  0.069833813            3 
 1368000    1.0248367   -3.7726694    1141.2427  0.069520145  0.069822794            5 
 1369000    1.0110256   -3.7653386    1145.0069  0.069698497  0.069810961            1 
 1370000    1.0133744     -3.78477    1145.7515  0.069692916  0.069799225            4 
 1371000    1.0433165   -3.7322163    1148.1829  0.069789866  0.069787606            3 
 1372000    1.0235443   -3.7772922    1150.5255  0.069881287  0.069775827            2 
 1373000     1.020919   -3.7553034    1146.7645  0.069602119  0.069764001            2 
 1374000     1.036755   -3.7775852    1146.4064  0.069529742  0.069752609            3 
 1375000    1.0324698   -3.7535223    1152.1953  0.069830018  0.069740833            2 
 1376000    1.0070251   -3.7882147    1151.0204  0.069708114   0.06972946            2 
 1377000    1.0119013   -3.7622763    1150.8111  0.069644825  0.069718039            3 
 1378000    1.0498052   -3.7749435    1153.3453  0.069747536   0.06970654            2 
 1379000    1.0401375   -3.7802136    1148.7958  0.069422033   0.06969524            8 
 1380000    1.0290202   -3.7963633    1146.7305  0.069247008  0.069683592            2 
 1381000    1.0241944   -3.7726452    1152.6624  0.069554817  0.069671777            4 
 1382000     1.035944   -3.7838555    1153.7874  0.069572326  0.069659998            2 
 1383000    1.0258031   -3.7606897    1152.5461  0.069447221  0.069648604            2 
 1384000    1.0182136   -3.7742373    1159.3732  0.069808114  0.069636889            3 
 1385000     1.035659   -3.7412626    1161.0623  0.069859341  0.069625862            3 
 1386000    1.0366124   -3.8155991    1153.7084  0.069366787  0.069614446            2 
 1387000    1.0129501   -3.8061572    1155.7157  0.069437374  0.069602854            3 
 1388000    1.0245114   -3.7741187     1159.956  0.069641932  0.069591207            1 
 1389000    1.0440675   -3.7792057    1164.1841  0.069845456  0.069579717            3 
 1390000    1.0388814   -3.7945401    1159.2541  0.069499646  0.069568425            3 
 1391000    1.0509259   -3.7690254    1157.5225  0.069345945  0.069557171            2 
 1392000    1.0401554   -3.7688479    1163.2646  0.069639884   0.06954594            3 
 1393000    1.0407512   -3.7511422    1164.8207  0.069682978  0.069534675            4 
 1394000    1.0313137   -3.7745804    1159.6627   0.06932465  0.069523087            2 
 1395000    1.0212105   -3.7637713    1163.7721  0.069520435  0.069511615            6 
 1396000    1.0401593   -3.7634545    1167.5346  0.069695235  0.069500149            2 
 1397000    1.0149645   -3.7658617     1161.677  0.069295933  0.069488641            2 
 1398000    1.0290167   -3.7617764    1165.0015  0.069444536   0.06947673            3 
 1399000    1.0067969   -3.7752351    1166.0655  0.069458275  0.069465221            3 
 1400000    1.0577893    -3.783631     1161.195  0.069118748  0.069453905            3 
 1401000     1.023279   -3.7578261    1170.5692  0.069627007  0.069442735            2 
 1402000    1.0111685   -3.7578967    1171.7729  0.069648889  0.069431843            3 
 1403000    1.0302834   -3.7594796    1170.4431  0.069520261  0.069420894            3 
 1404000    1.0454446   -3.7644807    1170.4371  0.069470389  0.069409615            3 
 1405000     1.041374   -3.7976274    1173.5393   0.06960494  0.069398288            1 
 1406000    1.0240906   -3.7505713    1171.5977  0.069440358  0.069387474            5 
 1407000    1.0536908    -3.769463    1170.9287  0.069351382  0.069377051            2 
 1408000    1.0488201   -3.7759245    1176.4054  0.069626266   0.06936625            2 
 1409000    1.0261819   -3.7760221    1170.6015  0.069233586  0.069355545            1 
 1410000     1.036717   -3.7591386    1176.4876  0.069532366  0.069344936            4 
 1411000    1.0419993   -3.8044939    1172.5534  0.069250732  0.069334118            3 
 1412000    1.0390593   -3.7757291     1175.033  0.069348027  0.069323027            5 
 1413000    1.0067463   -3.7577107    1178.9354  0.069529099   0.06931238            4 
 1414000    1.0240085   -3.7613298    1179.1701  0.069493758  0.069301745            2 
 1415000     1.028764   -3.7727093    1181.1451  0.069560961   0.06929119            1 
 1416000     1.030203    -3.805944    1173.9572  0.069088819   0.06928013            1 
 1417000    1.0187592    -3.787753    1177.7111  0.069260828  0.069269086            3 
 1418000     1.036785   -3.7653098    1181.3545  0.069426098  0.069257763            2 
 1419000    1.0168701   -3.7751111    1178.8566   0.06923048  0.069246582            4 
 1420000    1.0207885   -3.7675368    1181.5042  0.069337102  0.069235813            3 
 1421000    1.0153451   -3.7757068    1180.1928  0.069211403  0.069224988            2 
 1422000    1.0409304   -3.7792895     1181.727  0.069252637  0.069214118            1 
 1423000    1.0336387   -3.7658251    1185.1675  0.069405455  0.069203108            5 
 1424000     1.039369   -3.7940655    1178.7344  0.068980241  0.069192168            2 
 1425000    1.0437145    -3.795584    1183.4238  0.069206069  0.069180792            2 
 1426000    1.0245998   -3.7640327    1183.9774  0.069189888  0.069169595            6 
 1427000    1.0080975   -3.8062508    1180.3876  0.068931769  0.069158407            4 
 1428000    1.0297227   -3.7904411    1185.2177  0.069165365  0.069147112            1 
 1429000    1.0294935   -3.7763997    1186.4557  0.069189161  0.069136258            5 
 1430000    1.0203014   -3.7885616    1187.2225  0.069185462  0.069125476            2 
 1431000    1.0208915   -3.7727206    1188.1667  0.069192096  0.069114674            4 
 1432000    1.0182701   -3.7807357    1191.1769  0.069318954  0.069103569            2 
 1433000    1.0486607   -3.7646909    1191.8427  0.069309297   0.06909303            2 
 1434000    1.0375246   -3.7989086    1190.1909  0.069164976  0.069082288            1 
 1435000    1.0173297   -3.7786303    1193.2469  0.069294247  0.069071255            3 
 1436000    1.0256777   -3.7906623    1191.6136  0.069151209  0.069060077            1 
 1437000    1.0107579   -3.8008361    1192.4021   0.06914881  0.069049258            2 
 1438000    1.0311089   -3.7634987    1194.6562  0.069231354  0.069038731            4 
 1439000   0.99017043   -3.7678022     1195.712  0.069244381  0.069028243            2 
 1440000    1.0400425    -3.776842    1193.5053  0.069068595   0.06901735            7 
 1441000    1.0267556    -3.756686    1195.1284  0.069114525  0.069006795            3 
 1442000    1.0273951    -3.806356     1193.749  0.068986882  0.068996104            1 
 1443000    1.0212052    -3.785457    1193.3923  0.068918476  0.068985321            1 
 1444000    1.0280713   -3.7741644    1195.6234  0.068999501  0.068974665            3 
 1445000    1.0209929   -3.7572292     1199.574  0.069179585  0.068963781            3 
 1446000    1.0243889   -3.7919447    1198.1726  0.069050978  0.068952522            1 
 1447000    1.0488938   -3.7754926    1199.6136  0.069086247  0.068941368            7 
 1448000    1.0108002   -3.7980443    1200.3854  0.069082954  0.068930153            2 
 1449000     1.001914   -3.7939128    1201.0849  0.069075507  0.068919097            2 
 1450000    1.0277697   -3.8052711    1200.3602  0.068986221  0.068907688            3 
 1451000    1.0228298   -3.8173217    1198.3477  0.068823092  0.068896588            3 
 1452000    1.0022016    -3.800918    1195.5353  0.068614284  0.068885233            2 
 1453000    1.0282901     -3.77153    1199.0043  0.068766016  0.068873885            3 
 1454000    1.0354221   -3.7698694    1203.2093  0.068959728  0.068862656            3 
 1455000    1.0111332   -3.7359318    1207.4494  0.069155177  0.068851723            2 
 1456000    1.0312848   -3.7865257    1206.1314  0.069032249  0.068840956            3 
 1457000     1.011997   -3.7755806    1207.8511  0.069083226  0.068829719            2 
 1458000    1.0207106    -3.796531    1204.5089  0.068844816  0.068818468            2 
 1459000    1.0210907   -3.8009704    1203.7163  0.068752361  0.068807192            2 
 1460000    1.0208822   -3.8235233    1204.6991  0.068761365  0.068796003           12 
 1461000    1.0094966   -3.7738052    1203.0214  0.068618604  0.068785049            4 
 1462000   0.99835552   -3.7853193    1211.3634  0.069047159  0.068774442            4 
 1463000    1.0229798   -3.7981499    1204.4341   0.06860527  0.068763167            2 
 1464000    1.0182587   -3.8096234    1208.3666   0.06878225  0.068751641            2 
 1465000    1.0273654   -3.7754657    1209.5819  0.068804433  0.068740095            3 
 1466000   0.99955493   -3.8070634    1209.7322  0.068766041  0.068728684            8 
 1467000    1.0411928   -3.7865738    1210.1284  0.068741675  0.068717097            7 
 1468000    1.0247915   -3.7965872    1204.7328  0.068388558  0.068705482            2 
 1469000    1.0300003   -3.7627847    1212.3272  0.068772816  0.068694107            2 
 1470000    1.0288434    -3.797013    1209.0177  0.068538419  0.068682696            1 
 1471000    1.0055539   -3.8081911    1209.2909  0.068507301  0.068670739            3 
 1472000    1.0281712   -3.8156077    1209.3343   0.06846322  0.068659075            4 
 1473000    1.0377742   -3.7653035    1212.7501  0.068609983  0.068647545            3 
 1474000    1.0045749   -3.7972807    1213.0719  0.068581631   0.06863628            2 
 1475000    1.0111704    -3.794813    1214.9514  0.068641321  0.068624804            2 
 1476000   0.99033254   -3.7886448    1209.1861  0.068269312  0.068613399            2 
 1477000    1.0344478   -3.7943506    1211.1872  0.068335998  0.068601669            4 
 1478000    1.0355122   -3.8072376    1214.6018  0.068482284  0.068589887            2 
 1479000    1.0166716    -3.800412    1214.3031  0.068419149  0.068578583            7 
 1480000    1.0238384   -3.7979329     1218.175  0.068590935  0.068567368            2 
 1481000    1.0146631   -3.8039084    1215.3564  0.068386024  0.068556188            1 
 1482000    1.0374404   -3.8074477    1217.9768  0.068487226  0.068545093            5 
 1483000    1.0055122   -3.7801243    1219.9877  0.068554041  0.068533894            2 
 1484000   0.98078211   -3.7814484    1223.3498   0.06869664  0.068522234            4 
 1485000    1.0118733   -3.8056893    1221.5431  0.068548996  0.068510424            2 
 1486000   0.99544307   -3.8108143    1218.1214  0.068310982  0.068498915            2 
 1487000    1.0041324   -3.8530736    1216.2784  0.068161757  0.068487294            3 
 1488000    1.0201592   -3.7731314    1218.8759  0.068261419  0.068475274            4 
 1489000    1.0121571   -3.8065721    1221.4947  0.068362138  0.068463365            7 
 1490000    1.0180157   -3.7919765    1222.5116  0.068373134  0.068451451            4 
 1491000     1.019647      -3.8022    1221.1599   0.06825173  0.068439847            4 
 1492000    1.0145349    -3.800806    1225.4319  0.068444589  0.068427901            2 
 1493000    1.0152844   -3.7936071    1224.3291   0.06833719  0.068415569            1 
 1494000    1.0219307   -3.8262188    1224.7527  0.068315075  0.068403733            5 
 1495000    1.0237816   -3.8041372    1222.3908  0.068137725  0.068391721            3 
 1496000    1.0052715   -3.8034981    1219.5226  0.067932411  0.068379227            5 
 1497000    1.0094352   -3.8031481    1223.1005  0.068086199  0.068367199            4 
 1498000   0.99742697   -3.7764093    1223.3672  0.068055583  0.068355309            2 
 1499000    1.0171802   -3.8067798    1226.6194  0.068190983  0.068343453            2 
 1500000    1.0013325   -3.8079848    1225.4112  0.068078402  0.068331613            2 
 1501000    1.0108723   -3.7666533    1231.0425  0.068345685  0.068319847            1 
 1502000    1.0097711     -3.82002    1227.7154  0.068115588   0.06830821            4 
 1503000    1.0150851   -3.8221813    1228.3758  0.068106889  0.068295992            2 
 1504000   0.99125137   -3.7926868    1229.1526  0.068104642  0.068284275            3 
 1505000    1.0183961   -3.8149977    1228.4687  0.068021521  0.068272123            2 
 1506000     1.013757   -3.7597686    1231.5397  0.068146286  0.068260681            2 
 1507000    1.0162342   -3.7799386    1236.4849  0.068374526  0.068249197            1 
 1508000    1.0035747   -3.7980891    1232.9232  0.068132362  0.068237353            5 
 1509000   0.99360007   -3.8189658     1233.051  0.068094267   0.06822505            1 
 1510000   0.99884451   -3.8059107    1232.4743  0.068017347  0.068212881            5 
 1511000    0.9978511   -3.7968898    1229.7166  0.067820241  0.068200104            3 
 1512000    1.0066192   -3.8192972    1227.2956  0.067641956  0.068187552            5 
 1513000   0.99883516   -3.8006483    1235.7135  0.068060888  0.068174887            4 
 1514000     1.016181   -3.8218548     1232.578  0.067843348  0.068162492            3 
 1515000    1.0217333   -3.8113933    1236.4192  0.068009856  0.068150072            3 
 1516000    1.0213669   -3.8086553    1233.4311  0.067800741  0.068137514            1 
 1517000     1.023811   -3.8134903    1239.0496  0.068064689  0.068125343            1 
 1518000    1.0011391   -3.8145496    1238.5681   0.06799342  0.068113164            2 
 1519000    1.0036588   -3.7746123     1234.253  0.067711928  0.068100784            2 
 1520000    1.0300102   -3.7704483    1238.6802  0.067910101  0.068088303            4 
 1521000    1.0241154   -3.8099241    1236.7211  0.067758114  0.068076089            4 
 1522000   0.99389459   -3.8142399    1237.1908  0.067739313  0.068063872            1 
 1523000    1.0171964    -3.829309    1238.3371  0.067757558  0.068051308            2 
 1524000   0.99678603   -3.8018456    1241.0038  0.067858914  0.068039068            3 
 1525000    1.0067456   -3.8005231    1243.4945  0.067950521  0.068027047            3 
 1526000    1.0153044   -3.7979296    1243.4276  0.067902335  0.068015171            3 
 1527000    1.0120176    -3.799992    1244.7423  0.067929615  0.068002735            2 
 1528000    1.0028242   -3.8147897     1242.967  0.067788338  0.067991241            3 
 1529000    1.0018331   -3.8055715    1244.3184  0.067817659  0.067979203            1 
 1530000    1.0090499   -3.8114036    1247.2516  0.067933095  0.067966988            3 
 1531000   0.98523772   -3.7842905    1246.0485  0.067823239  0.067954819            3 
 1532000    1.0303464    -3.780836    1248.4457  0.067909364  0.067943021            2 
 1533000    1.0033454   -3.7954576    1247.2526  0.067800207  0.067930944            3 
 1534000    1.0017244   -3.7809154    1246.6428   0.06772288  0.067919144            3 
 1535000   0.99815626   -3.8270218    1248.4425  0.067776463   0.06790713            3 
 1536000   0.99116547   -3.8124436    1249.3762  0.067782997  0.067895326            3 
 1537000    1.0238355   -3.8353799    1247.9598  0.067662102  0.067883792            2 
 1538000    1.0007385   -3.7973273    1253.8371  0.067936556  0.067872358            4 
 1539000      1.00156   -3.8064641    1255.7217  0.067994463  0.067860809            1 
 1540000    1.0116704   -3.7950383    1253.3293  0.067820849  0.067849096            4 
 1541000    1.0203955    -3.814239    1249.5355   0.06757168  0.067837228            3 
 1542000   0.99317929   -3.7975567     1252.755  0.067701849   0.06782518            1 
 1543000   0.96668939   -3.7999719    1254.2754  0.067740085  0.067813162            3 
 1544000    1.0330672   -3.8301272    1252.3119  0.067590234   0.06780076           11 
 1545000    1.0036712   -3.8017748    1253.4563  0.067608217  0.067788825            2 
 1546000    1.0257258   -3.7773092    1256.9284   0.06775164  0.067776802            5 
 1547000    1.0026187   -3.8065542    1255.2878  0.067619466  0.067764905            3 
 1548000    1.0031277   -3.8118594    1253.2419  0.067465651  0.067752551            2 
 1549000   0.99341774   -3.8147995    1256.8868  0.067618185  0.067740372            2 
 1550000    1.0003602   -3.8183121    1260.0201  0.067743015  0.067728425            2 
 1551000    1.0019942   -3.8291112    1254.8645  0.067422337   0.06771611            2 
 1552000   0.99668679   -3.7789403    1256.4578  0.067464446  0.067703628            2 
 1553000    1.0001969   -3.8111753    1257.1412  0.067457672  0.067691145            2 
 1554000    1.0198446   -3.8200442    1256.3489  0.067371778  0.067678354            3 
 1555000    1.0111776   -3.8247921     1258.299   0.06743296  0.067665855            2 
 1556000    1.0055464   -3.8450688    1256.4344  0.067289762  0.067653133            3 
 1557000   0.98034309   -3.8169489    1256.2948  0.067239071  0.067640884            3 
 1558000    1.0035595   -3.7905018    1261.1777  0.067457086  0.067628223            2 
 1559000    1.0130419   -3.8123591    1256.0286  0.067138581  0.067615758            3 
 1560000    1.0132417   -3.8257836    1261.2465  0.067374277  0.067603426            1 
 1561000   0.99027795   -3.8261449    1261.9861  0.067370601  0.067590932            3 
 1562000    1.0138575   -3.8285881    1258.7609  0.067155406  0.067578144            2 
 1563000    0.9887912   -3.8103034    1262.5243   0.06731309  0.067565394            3 
 1564000    1.0088874   -3.8010935    1260.3051  0.067151805  0.067553087            2 
 1565000   0.99355216    -3.817505    1263.8158  0.067295833  0.067540507            4 
 1566000   0.98594263   -3.8175895    1263.9476  0.067259878  0.067528522            1 
 1567000    1.0087067   -3.8123682     1265.041  0.067275101  0.067516166            2 
 1568000    1.0148371   -3.8024265     1270.206  0.067506696  0.067504512            2 
 1569000   0.99077516   -3.8183674    1267.3751  0.067313316  0.067492533            2 
 1570000    0.9867457   -3.7872935    1266.2704  0.067211805  0.067480685            2 
 1571000    1.0010833   -3.8246803    1265.0017  0.067101726  0.067468655            2 
 1572000    1.0198751   -3.7789903    1272.0621   0.06743332  0.067457005            5 
 1573000    1.0058131   -3.8028255    1270.2296  0.067293367  0.067445105            5 
 1574000    1.0353989    -3.818341    1272.5497  0.067373451   0.06743333            2 
 1575000    1.0157269   -3.8271556    1270.9593  0.067246523  0.067421058            4 
 1576000     1.013588    -3.802192    1274.9898  0.067416972  0.067409251            3 
 1577000   0.98652372   -3.7896821     1277.009  0.067480923  0.067397637            6 
 1578000   0.99966439   -3.8531581    1274.0143  0.067280011  0.067386192            2 
 1579000   0.97930265   -3.8130772    1276.7196   0.06738018  0.067374429            3 
 1580000    1.0033547   -3.8325173    1276.1628  0.067308162  0.067362812            2 
 1581000   0.98045848   -3.8089264    1280.3804  0.067487899  0.067351247            2 
 1582000   0.99608081   -3.7999367    1276.0141  0.067215238  0.067339554            2 
 1583000   0.98631428   -3.8044026    1279.2507  0.067343164  0.067328165            1 
 1584000     1.008623   -3.8049708    1283.1222  0.067504325  0.067316946            1 
 1585000    1.0027551   -3.8204716    1279.7439  0.067284116  0.067305496            2 
 1586000   0.96374436   -3.8166642    1281.3625  0.067326741  0.067294014            4 
 1587000   0.98383741   -3.8098305     1282.497  0.067343888  0.067282704            4 
 1588000    0.9943007   -3.8107203    1282.4058  0.067296695  0.067271095            2 
 1589000   0.99087919   -3.8122365    1282.3348   0.06725062  0.067259649            4 
 1590000    1.0020591   -3.8329544     1286.004  0.067400631  0.067248178            3 
 1591000     1.005565   -3.8176775    1280.9042  0.067091148  0.067236659            3 
 1592000    1.0012162   -3.8431916    1283.3473  0.067176891  0.067225192            6 
 1593000    1.0039818   -3.8072915    1288.6035  0.067409683  0.067213721            3 
 1594000   0.97186097   -3.8279777    1285.4713  0.067203643  0.067202346            4 
 1595000    1.0025814   -3.8304326    1284.2343  0.067096881  0.067190977            3 
 1596000    1.0121038   -3.7965339    1285.6952  0.067131122  0.067179487            1 
 1597000   0.99807858   -3.8422477    1282.0993  0.066901443  0.067168105           15 
 1598000    1.0256367   -3.8018579     1290.655  0.067305749  0.067156671            2 
 1599000   0.98320222   -3.8079059    1290.3307  0.067246752   0.06714529            2 
 1600000    1.0018388   -3.8412617    1284.3786  0.066894717  0.067133985            3 
 1601000    1.0027757   -3.8012838    1291.4623  0.067221649   0.06712265            1 
 1602000   0.98885916   -3.8376294    1292.4148  0.067229234  0.067110987            2 
 1603000    1.0067339   -3.8606835    1285.1791  0.066811141  0.067099082            3 
 1604000   0.99980354   -3.8368928    1290.1686   0.06702871  0.067087159            2 
 1605000   0.99906883    -3.837887     1288.033  0.066876065  0.067075562            2 
 1606000   0.97653791   -3.8109587    1294.2008  0.067154462  0.067063626            6 
 1607000    1.0059915   -3.8038597    1291.1871  0.066956396  0.067052021            3 
 1608000    1.0000853   -3.8291034    1286.0646  0.066649284  0.067040131            6 
 1609000   0.98873707   -3.7851252     1288.728  0.066745804  0.067027883            5 
 1610000    1.0019769   -3.8391621    1291.0907  0.066826641  0.067015606            4 
 1611000   0.99031004   -3.8105903    1285.6718  0.066504854  0.067003311            1 
 1612000   0.97006891   -3.8399471    1288.0687  0.066587508  0.066991237            4 
 1613000   0.99496937   -3.8118746    1294.6447  0.066885961   0.06697901            4 
 1614000   0.98551161   -3.8115628    1296.6107  0.066946027  0.066967096            2 
 1615000   0.99494373   -3.8343585    1291.6053  0.066646301  0.066955071            2 
 1616000   0.97122733   -3.8171739    1295.9746  0.066830375  0.066943034            3 
 1617000   0.99508075   -3.8130609    1301.7442  0.067086385  0.066931352            2 
 1618000    0.9901839   -3.8437793    1300.2011  0.066965445  0.066919382            7 
 1619000    1.0020372   -3.8214351    1300.1579  0.066921858  0.066907409            2 
 1620000   0.97557548   -3.8029901    1302.7104  0.067011853   0.06689568            4 
 1621000   0.97882842   -3.8308669    1297.2287  0.066688704  0.066883688            3 
 1622000    1.0110654   -3.8034238    1306.5822  0.067128142  0.066872202            1 
 1623000    0.9925519   -3.8228413    1298.9848  0.066696694  0.066860527            3 
 1624000    1.0051842   -3.8233268    1300.8254  0.066750073   0.06684862            4 
 1625000    1.0020405   -3.8301369    1304.4551  0.066895134   0.06683675            8 
 1626000   0.99525418   -3.8177041    1304.9324  0.066878455  0.066824783            4 
 1627000   0.97669234   -3.8112925    1301.0406  0.066638017  0.066813194            4 
 1628000    1.0097626   -3.8227643    1301.6864  0.066630141  0.066801401            5 
 1629000   0.97404201   -3.8445291    1304.9868  0.066758074   0.06678941            8 
 1630000    1.0137223   -3.8482105    1307.3147  0.066836128  0.066778075            6 
 1631000   0.99985429   -3.8363368    1306.3674   0.06674675  0.066766311            1 
 1632000   0.98320991   -3.7912388    1313.9918  0.067095169  0.066754955            3 
 1633000    1.0073125    -3.826173    1303.8345  0.066535747  0.066743205            2 
 1634000   0.98912569   -3.8240327    1306.7459  0.066643509  0.066731357            5 
 1635000    1.0025438   -3.8221856    1304.6704  0.066496964  0.066719544            3 
 1636000   0.99579946   -3.8448692    1306.1994  0.066534201  0.066707599            1 
 1637000   0.98508945   -3.7996653    1308.8281  0.066627373   0.06669594            6 
 1638000   0.97713346   -3.8261929    1311.5031  0.066722788  0.066684454            2 
 1639000   0.98357781   -3.8382132    1312.2529  0.066720201  0.066672963            3 
 1640000    1.0152865   -3.8186073     1312.491  0.066691618  0.066661568            4 
 1641000   0.99178383   -3.8460438    1313.4537  0.066699861  0.066650214            5 
 1642000   0.99469183   -3.8211543    1312.7328  0.066622657  0.066638703            2 
 1643000   0.98122233    -3.831723    1315.7247  0.066733857  0.066627256            5 
 1644000   0.99277724   -3.8164508    1314.3715  0.066624671  0.066615879            6 
 1645000   0.98070034   -3.8266533    1315.8694  0.066660053  0.066604151            3 
 1646000   0.99294755   -3.8182767    1319.2645  0.066791438  0.066592688            3 
 1647000    1.0122838   -3.8361709    1314.6111  0.066515436  0.066581274            4 
 1648000   0.96808372   -3.8297471    1318.9515  0.066694552  0.066569691            3 
 1649000   0.98912211   -3.8593969    1313.7066  0.066389055   0.06655822            2 
 1650000   0.96231133    -3.849913    1314.1587   0.06637165  0.066546277            5 
 1651000   0.97475968   -3.8632102     1317.789  0.066514688  0.066534436            2 
 1652000   0.98016837   -3.8570913    1318.4459   0.06650756  0.066522492            3 
 1653000   0.99799081   -3.8340818    1316.8739  0.066388075   0.06651084            7 
 1654000   0.97941716   -3.8154832    1316.8388  0.066346172  0.066498963            3 
 1655000   0.97544668   -3.8495754    1319.8909  0.066459764  0.066487242            1 
 1656000   0.97300437   -3.8379903    1315.8922  0.066218408   0.06647539            2 
 1657000   0.96679635   -3.8493696    1318.4378  0.066306468  0.066463396            2 
 1658000   0.99132974    -3.833106    1322.0305  0.066447047  0.066451643            2 
 1659000   0.98523584   -3.8218092    1323.0032  0.066455857  0.066439971            4 
 1660000    0.9948219    -3.822676    1321.6694  0.066348864  0.066428091            3 
 1661000   0.99147429   -3.8272785    1321.9427  0.066322631   0.06641617            5 
 1662000     1.017371   -3.8354589    1321.6236  0.066266726  0.066404204            6 
 1663000   0.97796531   -3.8334437    1324.7079  0.066381433  0.066392279            3 
 1664000   0.98963659   -3.8766674    1320.0056  0.066106048  0.066380577            4 
 1665000    1.0030736   -3.8424059    1324.6523  0.066298916  0.066368653            3 
 1666000   0.99210364   -3.8558998    1322.3844  0.066145679   0.06635666            5 
 1667000   0.97919571   -3.8314128    1323.9256  0.066183042  0.066344816            3 
 1668000   0.99169511   -3.8437001    1324.8994  0.066192016   0.06633299            1 
 1669000    1.0158592   -3.8185323    1326.7251  0.066243514  0.066321512            2 
 1670000   0.99387562   -3.8409222    1327.4148  0.066238262  0.066309781            3 
 1671000   0.97612718   -3.8343056    1328.8999  0.066272685  0.066298166            6 
 1672000   0.98299111   -3.8168143    1330.5205  0.066313822  0.066286417            3 
 1673000   0.97606629   -3.8551319    1332.2268  0.066359178  0.066274848            4 
 1674000   0.98540061   -3.8228857    1332.0027  0.066308377  0.066263234            8 
 1675000   0.99225712   -3.8362902    1332.9935  0.066318085  0.066251904            3 
 1676000    0.9672151   -3.8485756    1335.5641   0.06640633  0.066240264            4 
 1677000   0.97434428    -3.876409    1328.6487   0.06602309  0.066228648            4 
 1678000   0.99584572   -3.8248319     1333.722  0.066235696  0.066216977            1 
 1679000   0.98348269   -3.8465757    1335.4577  0.066282394  0.066205369           12 
 1680000   0.99642432   -3.8695366    1330.9988  0.066021765   0.06619349            5 
 1681000   0.98181024   -3.8449924    1336.5533  0.066257849  0.066181776            4 
 1682000   0.96762036   -3.8747168     1333.107  0.066047712  0.066169895            2 
 1683000   0.96882734   -3.8481866    1337.1823  0.066210257  0.066157838            2 
 1684000   0.98068661   -3.8466192       1337.4  0.066181708  0.066146084            2 
 1685000   0.98876615   -3.8840885    1333.6517  0.065957056  0.066134302            3 
 1686000   0.99286304   -3.8289425    1335.9009  0.066029109  0.066122829            3 
 1687000    0.9872292   -3.8514871     1339.817  0.066183413  0.066110957            4 
 1688000   0.98158366   -3.8556277    1336.1203  0.065961703  0.066099113            6 
 1689000   0.96946238   -3.8573712    1340.7668  0.066151906  0.066087493            2 
 1690000   0.99944108    -3.836794    1345.3426  0.066338393  0.066075731            2 
 1691000   0.99565488   -3.8349754    1342.1516   0.06614191  0.066064357            4 
 1692000   0.96897745   -3.8190652    1346.6278  0.066323275  0.066052742            5 
 1693000   0.99219743   -3.8443956    1342.3454  0.066073313  0.066041288            2 
 1694000   0.98561098   -3.8463642    1342.6531  0.066049446  0.066030009            2 
 1695000   0.97271866   -3.8415385    1339.2279   0.06584208   0.06601837            5 
 1696000   0.98543702   -3.8439243    1344.6269   0.06606854  0.066006858            1 
 1697000   0.96817887   -3.8352673    1340.2208  0.065813238  0.065995267            3 
 1698000   0.98452837   -3.8399651    1352.9284  0.066398137  0.065983805            3 
 1699000    0.9824279   -3.8708059    1349.9728  0.066214086  0.065972305            2 
 1700000    0.9822318   -3.8543022    1350.4841  0.066200199  0.065960719            4 
 1701000   0.98103155   -3.8601031    1343.3367  0.065811124  0.065948915            3 
 1702000     0.978038   -3.8457686    1345.8451  0.065895277  0.065937279            3 
 1703000   0.97219278   -3.8712011    1346.6021  0.065893622  0.065925988            3 
 1704000   0.96713352   -3.8588206    1350.3602  0.066038743  0.065914611            1 
 1705000   0.94290765   -3.8678142    1348.9043  0.065928852  0.065903066            3 
 1706000   0.99177274   -3.8408277    1354.0579  0.066141944  0.065891484            2 
 1707000   0.98078501   -3.8257263    1351.0006  0.065953943  0.065879981            5 
 1708000   0.96806786   -3.8394386     1349.416  0.065838015  0.065868741            2 
 1709000   0.97322275   -3.8251453     1349.657  0.065811243   0.06585707            4 
 1710000   0.95774967   -3.8494446    1349.0321  0.065742306  0.065845598            3 
 1711000   0.98254939   -3.8457177     1351.304  0.065814533  0.065833983            2 
 1712000    1.0002466   -3.8293306    1351.0371  0.065763097  0.065822361            2 
 1713000   0.98931548    -3.847784    1352.0655  0.065774736  0.065811058            3 
 1714000   0.97691265   -3.8559985    1351.2197   0.06569524  0.065799489            6 
 1715000   0.99122619   -3.8533283    1352.5063  0.065719453  0.065787991            3 
 1716000   0.97631564   -3.8242549     1357.628  0.065929875  0.065776643            4 
 1717000   0.99035772   -3.8576399    1356.2643  0.065825291  0.065765097            5 
 1718000   0.97228513    -3.856924    1350.4357  0.065504254  0.065753364            2 
 1719000   0.97882489   -3.8487827    1362.1049  0.066031844  0.065741824            4 
 1720000   0.99013667   -3.8786358    1354.5225  0.065626092  0.065730145            3 
 1721000   0.96774401   -3.8517059    1358.4353  0.065777421  0.065718414            4 
 1722000   0.97127605   -3.8675498    1354.7305  0.065559934   0.06570683            4 
 1723000    0.9719567   -3.8398014    1359.1428  0.065735286  0.065695401            3 
 1724000   0.97861598   -3.8469284    1360.1363  0.065745183  0.065684148            5 
 1725000     0.963992   -3.8674236    1360.0828  0.065704483  0.065673035            2 
 1726000   0.96447116   -3.8796063    1361.2038  0.065720538  0.065661732            2 
 1727000   0.99180452   -3.8624623    1358.0008  0.065527928  0.065650133            2 
 1728000   0.95989833   -3.8652934    1362.8399  0.065723377  0.065638277            4 
 1729000   0.97768818    -3.862462    1361.9527  0.065642603  0.065626488            3 
 1730000    0.9593428   -3.8695128    1360.5655  0.065537836  0.065614553            4 
 1731000   0.96788254   -3.8778694    1368.9151  0.065901938  0.065602948            2 
 1732000   0.96784627    -3.841982    1366.9675  0.065770185  0.065591393            3 
 1733000   0.96764168   -3.8636688    1363.5449  0.065567654  0.065579976            3 
 1734000   0.98049248   -3.9005533    1362.9128   0.06549946  0.065568327            2 
 1735000   0.98905355    -3.856771    1362.4054  0.065437339  0.065556743            2 
 1736000   0.97019923   -3.8305362    1368.0581  0.065670993  0.065545101            4 
 1737000   0.96658029   -3.8801933     1361.024  0.065295719  0.065533523            4 
 1738000   0.96646979   -3.8645881    1367.7867   0.06558241  0.065521833            4 
 1739000   0.97117646   -3.8282182    1372.9821  0.065793659  0.065510342            2 
 1740000    0.9445785   -3.8289584    1366.0247  0.065422637  0.065498758            3 
 1741000    0.9780373   -3.8621392    1366.9135  0.065427604  0.065487264            4 
 1742000   0.96354365   -3.8419196    1371.0866  0.065589679  0.065475815            3 
 1743000   0.95472958   -3.8389958    1365.9064  0.065304378  0.065464203            3 
 1744000   0.99795576   -3.8412734    1371.6281  0.065540332  0.065452542            5 
 1745000   0.96877225   -3.8702925    1368.6844  0.065362198  0.065441037            4 
 1746000   0.95795761   -3.8372074    1373.8763  0.065572561  0.065429674            7 
 1747000   0.99742753   -3.8507204    1370.3793  0.065368219  0.065418043            4 
 1748000   0.97020292   -3.8373989    1372.0825  0.065412021   0.06540643            3 
 1749000   0.97102831   -3.8445709    1368.7728  0.065216925  0.065394791            2 
 1750000   0.97634658   -3.8468222     1369.772  0.065227237  0.065383077            2 
 1751000   0.98441267   -3.8775665    1375.8307  0.065478329  0.065371381            2 
 1752000   0.96432779   -3.8453825    1376.5183  0.065473664  0.065359406            2 
 1753000   0.98488963   -3.8886512    1372.7659  0.065257934  0.065347634            3 
 1754000   0.97833319   -3.8465838    1372.8731  0.065225824  0.065335946            2 
 1755000    0.9560383   -3.8509458    1374.6281  0.065271991  0.065324037            2 
 1756000   0.96969748   -3.8553857    1380.4879  0.065512903   0.06531237            4 
 1757000   0.97295864   -3.8311174    1377.5838  0.065337876  0.065300778            4 
 1758000   0.96928012   -3.8600522    1380.0298  0.065416656  0.065289138            2 
 1759000   0.97335173   -3.8930151    1377.9297  0.065279973  0.065277485            2 
 1760000   0.96457995   -3.8632434    1377.7446  0.065234117  0.065265918            3 
 1761000   0.98296703   -3.8642177    1375.6843  0.065099577  0.065253946            5 
 1762000   0.96151392   -3.8780596    1376.8917  0.065119738  0.065242448            3 
 1763000   0.96433041   -3.8424232    1375.6591  0.065024535  0.065230656            2 
 1764000   0.95979943    -3.840165    1379.5824  0.065173017  0.065218886            8 
 1765000   0.96424734   -3.8822848    1377.8193  0.065052849  0.065207192            2 
 1766000   0.98384201   -3.8034138     1381.085  0.065170109  0.065195266            3 
 1767000    0.9855029   -3.8797631    1382.0564  0.065179043  0.065183626            2 
 1768000   0.94889026   -3.8413435    1382.2756  0.065152508  0.065171743            3 
 1769000   0.98336807    -3.843726     1382.385  0.065120829  0.065159869            4 
 1770000    0.9832197   -3.8699897    1381.6793  0.065050815  0.065148178            5 
 1771000   0.97201509   -3.8564807    1383.6974  0.065109043  0.065136444            3 
 1772000   0.96441638   -3.8472369    1382.2955   0.06500637  0.065124909            3 
 1773000   0.99387188   -3.8289296      1384.18   0.06505828  0.065113524            5 
 1774000   0.94756125   -3.8964561    1388.7817  0.065237775   0.06510203            4 
 1775000   0.95501535   -3.8462984    1385.3693  0.065040812  0.065090556            6 
 1776000   0.98615256   -3.8803187    1385.2621  0.064999159  0.065079019            4 
 1777000    0.9806788   -3.8415098    1390.1961  0.065193965  0.065067529            2 
 1778000   0.97017577   -3.9098138    1383.4547  0.064841334  0.065055932            2 
 1779000   0.94942423   -3.8881866    1387.5749  0.064997889  0.065044358            3 
 1780000   0.98125803   -3.8580854    1387.9329  0.064978134  0.065032723            3 
 1781000   0.97470793   -3.8596295    1384.1612  0.064765171  0.065021023            4 
 1782000    0.9700544   -3.8426311    1390.3434  0.065017927  0.065009081            2 
 1783000   0.96839233   -3.8315116     1390.909    0.0650079  0.064997293            1 
 1784000   0.96906822   -3.8874756    1387.3497  0.064805198  0.064985313            4 
 1785000    0.9559163   -3.8677102    1389.9336  0.064889526   0.06497327            4 
 1786000   0.93709552   -3.8686895    1391.1638  0.064910592  0.064961139            4 
 1787000   0.96919951   -3.9013965    1392.7292   0.06494727  0.064949181            2 
 1788000    0.9612113   -3.8700957    1391.0943  0.064834743  0.064937033            3 
 1789000   0.97839369   -3.8664109    1391.5809  0.064821173   0.06492508            2 
 1790000   0.96940093   -3.8889676    1382.9076  0.064381173  0.064913024            1 
 1791000   0.94389397   -3.8794015    1390.5701  0.064701752  0.064900881            2 
 1792000   0.96971056    -3.843726    1396.5515  0.064943802  0.064889076            4 
 1793000   0.95620091   -3.8548407    1389.5797  0.064583554  0.064877161            2 
 1794000    0.9343564   -3.8534027    1393.5268  0.064730899  0.064865439            2 
 1795000   0.96922559   -3.8759077    1396.9307  0.064852866  0.064853673            2 
 1796000   0.95076604    -3.859286    1394.6536    0.0647111   0.06484183            3 
 1797000   0.93265665   -3.8595307    1394.8375  0.064683616  0.064829645            5 
 1798000   0.97495295   -3.8635529    1393.5352  0.064587281  0.064817635            4 
 1799000   0.96570136    -3.863181    1397.6789  0.064743325  0.064805537            3 
 1800000   0.96569419   -3.8731662    1399.8012  0.064805609  0.064793464            3 
 1801000   0.95868729     -3.87134    1395.7842   0.06458376  0.064781566            3 
 1802000   0.95444983    -3.882944    1398.3773  0.064667835  0.064769569            4 
 1803000   0.98964874   -3.8456867    1405.1183  0.064943535  0.064758142            4 
 1804000   0.96293085   -3.8723459    1402.8145  0.064801114  0.064746354            9 
 1805000   0.95446447   -3.8781472    1398.6943  0.064574991  0.064735004            4 
 1806000   0.95550019   -3.8633398    1403.4434  0.064758371  0.064723416            3 
 1807000   0.96980393   -3.8729262    1401.6891  0.064641629   0.06471175            3 
 1808000   0.95219658   -3.8881312    1402.9015  0.064661758  0.064699791            2 
 1809000   0.96404988   -3.8653163    1406.5444  0.064793827  0.064687962            3 
 1810000    0.9615565   -3.8640099    1404.5974  0.064668388  0.064676352            5 
 1811000   0.95862695   -3.8938142    1401.7397  0.064501181  0.064664813            4 
 1812000   0.95221455   -3.8746432    1409.0515  0.064801852  0.064652983            3 
 1813000   0.95912678   -3.8744439    1407.5532  0.064697244  0.064640946            2 
 1814000   0.97225885   -3.8607663    1407.5776  0.064662696  0.064629202            3 
 1815000   0.98718269   -3.8650592    1402.3507  0.064387085  0.064617359            3 
 1816000   0.95652644   -3.8770531    1409.1596   0.06466408  0.064605718            2 
 1817000   0.97676609   -3.8780979    1413.2522  0.064816188  0.064594131            5 
 1818000   0.95040945   -3.8712682     1409.019  0.064586497   0.06458245            3 
 1819000   0.97421186   -3.8979614     1409.866  0.064589795  0.064570632            3 
 1820000   0.97142299   -3.8732939    1409.0011  0.064514704  0.064558838            3 
 1821000   0.96022431   -3.8678034    1405.7959  0.064332598  0.064546974            3 
 1822000   0.97195454   -3.8857068    1412.7351  0.064614669   0.06453533            1 
 1823000   0.95779628   -3.8601283    1415.1745  0.064690734   0.06452368            6 
 1824000   0.97066158   -3.8851952    1412.5912  0.064537244  0.064511805            2 
 1825000   0.96628257   -3.8723759    1415.6568  0.064641861   0.06450034            5 
 1826000   0.96395181   -3.8739396    1414.1157   0.06453613   0.06448907            3 
 1827000   0.94813855    -3.863838    1417.8606  0.064671618  0.064477518            3 
 1828000   0.95496507   -3.8635467    1411.9271  0.064365748  0.064466135            5 
 1829000   0.96012686   -3.8586025     1415.569  0.064496494  0.064454801            2 
 1830000   0.93591541   -3.8760646    1412.2566  0.064310411  0.064443278            5 
 1831000   0.96268486   -3.8955685    1415.5852   0.06442678  0.064431311            1 
 1832000   0.95884547   -3.8606399    1417.9845  0.064500752  0.064419663            4 
 1833000   0.98774062    -3.875256    1415.8939  0.064370518  0.064408163            3 
 1834000   0.94807715    -3.880212    1412.2987  0.064172059  0.064396789            4 
 1835000   0.93072739   -3.8886705    1408.6958  0.063973471  0.064385191            2 
 1836000   0.93792911   -3.8840837    1418.1116  0.064365996  0.064373328            2 
 1837000   0.94655211   -3.8818075    1414.6453  0.064173714  0.064361748            2 
 1838000   0.97186108   -3.8805063    1415.9088  0.064196083  0.064349786            5 
 1839000   0.94507396   -3.8591276     1422.892  0.064477613  0.064337986            3 
 1840000   0.95828345      -3.8983    1420.1219  0.064317116  0.064326381            3 
 1841000   0.94685091    -3.872447    1419.8061  0.064267883  0.064314627            4 
 1842000   0.97656195   -3.8893303    1425.2339  0.064478554  0.064303156            4 
 1843000   0.94938561   -3.8848427    1421.5752  0.064278132  0.064291929            4 
 1844000   0.94646617    -3.882965    1423.6705  0.064337965  0.064280407            2 
 1845000   0.95743922   -3.8809198    1423.7762  0.064307869   0.06426895            4 
 1846000   0.93390543    -3.881109    1425.5672  0.064353882  0.064257733            2 
 1847000   0.95180021   -3.8860382    1428.9887  0.064473411  0.064246347            5 
 1848000   0.93903313   -3.9059097    1425.6344  0.064287267  0.064234889            5 
 1849000   0.95854974   -3.8578528    1426.6883  0.064299994  0.064223651            2 
 1850000   0.95630411   -3.8967348    1428.2911  0.064337436  0.064212525            3 
 1851000    0.9625423   -3.8782956    1429.2211  0.064344549  0.064201216            3 
 1852000   0.94380793   -3.8749441    1423.5545  0.064054826  0.064189963            3 
 1853000   0.96612857   -3.8622316    1428.8953  0.064260445  0.064178542            1 
 1854000   0.93363104   -3.8707184    1431.5825  0.064346568  0.064167204            3 
 1855000   0.93516838   -3.8771889    1432.2693  0.064342735  0.064155851            3 
 1856000   0.94968286   -3.8856119    1424.7841  0.063971988  0.064144692            1 
 1857000    0.9654258   -3.8924249    1433.7596  0.064340316  0.064133312            3 
 1858000   0.94612804   -3.9075547    1430.7644  0.064171349  0.064121867            2 
 1859000   0.94932577   -3.8715676    1433.1016  0.064241601  0.064110479            3 
 1860000   0.93138728   -3.8704027    1433.2813  0.064215111   0.06409893            5 
 1861000   0.97029161   -3.9119668    1433.7399   0.06420114  0.064087709            2 
 1862000   0.94343483   -3.9233167    1435.6035  0.064250068   0.06407633           11 
 1863000    0.9573303   -3.8938795    1431.3036  0.064023243  0.064064593            3 
 1864000   0.96745828   -3.8945397    1434.0742   0.06411276   0.06405305            5 
 1865000   0.94152124   -3.8730823    1434.1976  0.064083896  0.064041553            2 
 1866000   0.94833975   -3.8637427      1438.59  0.064245713  0.064030095            1 
 1867000   0.93295285   -3.8879426     1433.946  0.064004019  0.064018657            8 
 1868000   0.94103753   -3.8647585    1433.5438   0.06395181  0.064007133            3 
 1869000   0.95635497    -3.899287    1438.4075   0.06413445  0.063995788            2 
 1870000   0.96198458   -3.8627736     1434.264  0.063915506  0.063984541            4 
 1871000   0.92931387   -3.8827339    1437.7657  0.064037311  0.063973398            2 
 1872000   0.94566516   -3.8913539    1435.6194  0.063907559  0.063962166            4 
 1873000   0.96044382   -3.8709547    1435.3935  0.063863389  0.063950827            3 
 1874000   0.97412739   -3.8976169    1435.8601   0.06385006   0.06393931            3 
 1875000   0.94434579   -3.8873922    1432.4478  0.063664349  0.063927739            2 
 1876000   0.94636355   -3.8995312    1437.6392  0.063861015  0.063916087            3 
 1877000   0.93465703   -3.9242554    1437.3423   0.06381381   0.06390427            3 
 1878000   0.97371313   -3.8768047    1448.5317  0.064276345  0.063892817            3 
 1879000   0.98899428   -3.9035414    1440.1734  0.063871449  0.063881535            3 
 1880000   0.95712811   -3.8926369    1438.6903  0.063771731  0.063870191            4 
 1881000   0.95391396   -3.8902984    1445.0588   0.06401997  0.063858958            4 
 1882000     0.975764   -3.9122711    1445.2144  0.063992844  0.063847493            2 
 1883000   0.95020274   -3.8923966    1446.9115  0.064033966  0.063836287            5 
 1884000   0.94489888    -3.882492    1441.7297  0.063770774  0.063824835           12 
 1885000   0.97192917   -3.8847282    1444.5997  0.063863824  0.063813591            2 
 1886000   0.95472631   -3.8581225    1446.9411  0.063933419  0.063802387            4 
 1887000    0.9477898   -3.8887174    1445.9213  0.063854502  0.063791198            3 
 1888000   0.97819721   -3.8893103    1448.1935  0.063920972  0.063779637            4 
 1889000   0.91881647   -3.9132371    1447.1886  0.063842799  0.063768525            3 
 1890000   0.96131293   -3.9183373     1448.654  0.063873633  0.063757558            5 
 1891000   0.94777305   -3.9036049    1448.6701  0.063840564  0.063746318            3 
 1892000   0.93383958   -3.9152495    1449.1451  0.063827743  0.063735032            2 
 1893000    0.9578774   -3.8880301    1452.5148  0.063942367  0.063723626            3 
 1894000   0.94810853   -3.8936936    1458.9582  0.064192105  0.063712766            2 
 1895000   0.94576295   -3.9245471    1452.1237  0.063857682  0.063701563            3 
 1896000   0.95081649   -3.8803628    1459.9031  0.064165924  0.063690759            2 
 1897000   0.93642008   -3.9282622    1455.2815  0.063929078  0.063679791            4 
 1898000   0.94014709   -3.9072284    1452.6306  0.063779002  0.063668666            5 
 1899000   0.93409775   -3.9265127    1450.6775  0.063659712  0.063657907            3 
 1900000   0.96408307   -3.8888846    1457.5987  0.063929769  0.063646794            4 
 1901000   0.94443358   -3.8713708    1453.9144  0.063734632  0.063635983            6 
 1902000   0.96441158   -3.8712507    1458.6768   0.06390978  0.063625107            7 
 1903000   0.92509246   -3.8713779    1459.3311  0.063904849  0.063614147            3 
 1904000   0.96348607   -3.9051661    1458.6407  0.063841067  0.063603169            3 
 1905000   0.95107327   -3.8820192    1458.7988  0.063814472  0.063592447            2 
 1906000   0.95798723   -3.9014877    1460.9476  0.063874939   0.06358161            4 
 1907000   0.93892111   -3.8893746    1462.7923  0.063922056  0.063570657           10 
 1908000   0.93388201   -3.8961093    1460.0958  0.063770783  0.063559262            3 
 1909000   0.90764403   -3.8945324    1457.5547  0.063626447  0.063547811            3 
 1910000   0.94863363   -3.9251902    1456.9429  0.063566445  0.063536586            2 
 1911000   0.93805225   -3.9157565    1454.8448  0.063441688  0.063525275            3 
 1912000    0.9557098   -3.8939433    1462.6533  0.063748838  0.063514084            6 
 1913000   0.95390653    -3.919809    1454.2703  0.063350334  0.063503101            9 
 1914000   0.94619965   -3.8848416    1465.1827  0.063792349  0.063491919            5 
 1915000   0.96019939   -3.8941928    1463.4093  0.063681865  0.063480838            2 
 1916000   0.94375621   -3.8848306    1460.7758  0.063534089  0.063469842            7 
 1917000   0.94038406   -3.8914951    1465.5681  0.063709273  0.063458781            3 
 1918000   0.95125085   -3.8993979    1470.0955  0.063872762  0.063447595            5 
 1919000   0.94432168   -3.9425589     1462.837  0.063524274  0.063436413            7 
 1920000   0.92525097   -3.9241433    1462.0066  0.063455146  0.063425135            3 
 1921000   0.95708847   -3.8980821    1470.2013  0.063777604  0.063413799            2 
 1922000   0.93528749   -3.9153009    1463.8963  0.063471048  0.063402478            3 
 1923000   0.95783143   -3.9074023    1457.6237   0.06316622  0.063390916            4 
 1924000   0.94421365   -3.8659825    1465.4527  0.063472482   0.06337951            3 
 1925000   0.92527123   -3.9227925    1463.8772  0.063371308  0.063368108            4 
 1926000   0.94096633   -3.8994421    1464.1555  0.063350446  0.063356673            2 
 1927000   0.94892775   -3.9233319    1467.4989  0.063462158  0.063345445            2 
 1928000    0.9578226   -3.8851595     1470.515  0.063559604  0.063333978            2 
 1929000   0.94298005   -3.9119611    1468.2967  0.063430821  0.063322586            3 
 1930000   0.93996718   -3.8783638    1465.0467   0.06325763  0.063310986            3 
 1931000   0.96674899    -3.903602    1467.0677  0.063312088  0.063299577            3 
 1932000     0.942171   -3.9059811    1461.8826   0.06305567  0.063287754            2 
 1933000   0.94622155   -3.8975678    1472.7359  0.063490942  0.063276288            5 
 1934000    0.9550338   -3.8987637    1467.3934  0.063227913  0.063264842            4 
 1935000   0.94128725   -3.8922196    1468.9661  0.063262968  0.063253362            7 
 1936000   0.95430429   -3.8993929    1472.0364  0.063362449  0.063241895            4 
 1937000   0.94748777   -3.9264346     1471.823  0.063320557  0.063230017            3 
 1938000   0.92159466   -3.9031271    1471.1561  0.063259206   0.06321855            4 
 1939000   0.92978378   -3.8999042    1472.6419  0.063290436  0.063207204            3 
 1940000   0.96436825   -3.9195518    1468.3823  0.063074842  0.063196007            2 
 1941000   0.94959084   -3.9230285    1469.5773   0.06309365  0.063184759            5 
 1942000   0.93379025   -3.9113518    1467.7533  0.062982893  0.063173135            2 
 1943000   0.95089858   -3.9050491     1470.402  0.063064074  0.063161678            3 
 1944000   0.95814091   -3.9216305    1472.3893  0.063116823  0.063150207            7 
 1945000   0.93249896   -3.9245489    1471.3444  0.063039608  0.063138543            3 
 1946000   0.92419505    -3.928372    1471.4576  0.063012059  0.063126793            1 
 1947000   0.94798042   -3.9103847    1474.4512  0.063107826  0.063114795            5 
 1948000   0.92011584   -3.8873142    1472.5997  0.062996221  0.063102739            5 
 1949000   0.93803795   -3.8671256    1479.1964  0.063245954  0.063090986            6 
 1950000   0.94570123   -3.8991251     1471.706   0.06289342  0.063079313            3 
 1951000   0.94223713   -3.9185993    1472.6389  0.062901029  0.063067526            3 
 1952000   0.94317434   -3.8974691    1473.3661  0.062899852  0.063055638            2 
 1953000   0.93394784   -3.9085475    1475.3824  0.062953678  0.063044064            3 
 1954000   0.95712629   -3.9331666    1472.8383  0.062812962  0.063032475            2 
 1955000   0.93136245   -3.9277359    1479.8778  0.063080896  0.063020622            3 
 1956000   0.94784339   -3.9132195    1481.8701  0.063133526  0.063009119            2 
 1957000   0.93427563   -3.9034927    1479.5381  0.063001965  0.062997532            2 
 1958000   0.94453248   -3.8818116    1482.6202  0.063100962  0.062986015            4 
 1959000   0.96223728   -3.9225985    1475.6188  0.062770921  0.062974564            3 
 1960000     0.943334   -3.9140242     1483.063  0.063055401    0.0629631            3 
 1961000   0.93266299   -3.9223843    1479.7254  0.062881414  0.062951608            2 
 1962000   0.94407556   -3.9107932    1479.5023  0.062839888  0.062939984            8 
 1963000   0.95893326   -3.9239392    1485.9334   0.06308089  0.062928378            3 
 1964000   0.93261661   -3.9111191    1484.4706  0.062986703  0.062916688            1 
 1965000    0.9457173   -3.9330594    1480.1858  0.062772937  0.062905226            7 
 1966000   0.92542799   -3.9166218    1487.3775  0.063045843  0.062893449            3 
 1967000   0.93701545   -3.9042801    1488.9201  0.063079142  0.062882153            4 
 1968000    0.9328787   -3.8956219    1487.7579  0.062997879   0.06287071            4 
 1969000   0.93034343    -3.915987    1483.1981  0.062772899  0.062859517            1 
 1970000   0.93904559   -3.9000455    1491.0867  0.063074736   0.06284811            5 
 1971000   0.95455233   -3.9203403    1485.6243  0.062811784  0.062836579            6 
 1972000   0.95793728   -3.9315255    1485.8022   0.06278745  0.062825296            2 
 1973000   0.91797582   -3.9132429    1491.7692  0.063007652  0.062814073            4 
 1974000   0.94972623   -3.9271956    1491.6829  0.062972091  0.062802806            3 
 1975000   0.93701504   -3.9091342    1492.2801  0.062965406  0.062791457            8 
 1976000   0.92805205   -3.9320065    1492.8508  0.062957607  0.062780283            5 
 1977000   0.95342598   -3.9089491    1493.4364  0.062950449  0.062769126            4 
 1978000   0.94563762    -3.891938    1493.4661  0.062919874  0.062757841            2 
 1979000   0.92325065   -3.9235429    1488.9761  0.062699009  0.062746601            4 
 1980000   0.93045692   -3.9272246    1494.6432  0.062905858  0.062735327            2 
 1981000   0.94168619   -3.8950177     1491.299  0.062733424  0.062723892            2 
 1982000   0.94536658   -3.8976299    1497.4268  0.062959417  0.062712555            4 
 1983000    0.9290884   -3.9216625    1495.3719  0.062841316  0.062701351            4 
 1984000   0.93354841   -3.9377985    1490.6608  0.062611763  0.062690248            6 
 1985000   0.95043322   -3.9151248    1499.5614   0.06295388  0.062679066            3 
 1986000   0.94208792   -3.9542776    1485.4109  0.062328421  0.062667893            4 
 1987000   0.91770809   -3.9521115    1494.4245  0.062675074  0.062656566            4 
 1988000   0.94202765   -3.9053834    1494.7112  0.062655568  0.062645391            4 
 1989000   0.96276114   -3.9283072    1500.7816  0.062878397  0.062634231            2 
 1990000   0.95158734   -3.9238323    1494.4388  0.062581191  0.062623159            3 
 1991000   0.94932531   -3.9192241    1504.7889  0.062982961   0.06261206            3 
 1992000   0.94876671   -3.9321486    1496.6536  0.062611009  0.062601143            3 
 1993000   0.95222119   -3.9235798    1493.3851  0.062442927  0.062589829            3 
 1994000   0.92828273   -3.9431319    1489.8821  0.062265215  0.062578589            5 
 1995000   0.91578168   -3.9449261    1500.5256  0.062678596  0.062567379            5 
 1996000   0.93626044   -3.9342994    1500.1322   0.06263077  0.062556293            5 
 1997000   0.92370286   -3.9290301    1496.5936  0.062451744  0.062545055            4 
 1998000   0.92004732   -3.9024193    1509.1654  0.062944836  0.062534072            5 
 1999000   0.94443422    -3.917668    1504.7595  0.062729677   0.06252308            2 
 2000000   0.91840665   -3.9227144    1508.0348  0.062834783  0.062512164            3 
 2001000   0.93615842   -3.9213917     1502.651   0.06257917  0.062501035            3 
 2002000   0.93503827    -3.939951    1508.7506  0.062801805  0.062490209            4 
 2003000   0.93649557    -3.908304    1503.5787  0.062555278  0.062479296            3 
 2004000   0.94248274   -3.9045372    1506.9161  0.062662844  0.062468403            5 
 2005000   0.96519376   -3.9135201     1508.172  0.062683791  0.062457434            6 
 2006000   0.91331486   -3.9341967    1506.3213   0.06257566  0.062446407            3 
 2007000   0.94495512   -3.9287824    1503.9819  0.062447347  0.062435419            4 
 2008000   0.92585638   -3.9405485    1512.1741  0.062756227  0.062424692            6 
 2009000   0.93954671   -3.9169616    1511.6293  0.062702393  0.062413891            3 
 2010000    0.9504046   -3.9350684    1506.8691  0.062473841  0.062403079            4 
 2011000   0.93871879   -3.9208795    1508.8107  0.062523233  0.062392377            2 
 2012000   0.94683268   -3.8995081    1513.9212  0.062703826  0.062381682            3 
 2013000   0.93966993   -3.9356769    1508.9705  0.062467731  0.062371005            4 
 2014000   0.93605267   -3.9496245    1514.7438  0.062675594  0.062360412            2 
 2015000   0.90973153   -3.9379529    1521.2613  0.062914031  0.062349694            4 
 2016000   0.91356446   -3.9343212    1513.2676  0.062552396  0.062338855            3 
 2017000   0.93166183   -3.9257979    1520.9063  0.062836981  0.062328113            2 
 2018000   0.94715229   -3.9151112    1518.2383  0.062695667  0.062317327            2 
 2019000   0.91941063   -3.8968559    1516.5933   0.06259672  0.062306803            4 
 2020000    0.9330112   -3.9172587    1521.5308  0.062769422  0.062296207            3 
 2021000   0.94333985   -3.9144413     1522.491  0.062777957  0.062285901            3 
 2022000   0.93530478   -3.9591122    1517.1535  0.062526932   0.06227551            4 
 2023000   0.93244349   -3.9165413    1522.4424   0.06271389  0.062264793            3 
 2024000   0.93760874    -3.909961    1528.1403  0.062917502  0.062254289            4 
 2025000   0.91116051   -3.9670869    1520.7929  0.062584072  0.062244201            3 
 2026000   0.89753021   -3.9374965    1522.7917  0.062635395   0.06223359            2 
 2027000   0.92110967   -3.8952918    1527.2914  0.062789485  0.062223266            5 
 2028000   0.92645151   -3.9341191    1524.2346  0.062632914  0.062212726            6 
 2029000   0.92252303   -3.9494679    1523.1892  0.062559108  0.062202179            3 
 2030000    0.9221381   -3.8940672    1533.3702  0.062946231  0.062191808            4 
 2031000   0.91981393    -3.970433     1516.118   0.06220737  0.062181055            3 
 2032000   0.92841707   -3.9339728    1525.9716  0.062580858  0.062170343            2 
 2033000   0.91158616   -3.9351638    1523.4499  0.062446707  0.062159444            2 
 2034000   0.92236601   -3.9297753    1527.4897  0.062581518  0.062148715            5 
 2035000   0.93667595   -3.9391088    1525.4618  0.062467722  0.062138091            3 
 2036000   0.92717451   -3.9203428    1527.5335  0.062521837  0.062127105            3 
 2037000   0.93645718   -3.9329714    1524.8559  0.062381603  0.062116286            3 
 2038000   0.90869392   -3.9128419    1524.9028  0.062352913  0.062105116            2 
 2039000   0.90989286   -3.9163545    1524.7277  0.062315175  0.062094507            3 
 2040000   0.92613256   -3.9254766    1525.4285  0.062313255  0.062083925            8 
 2041000   0.89521203   -3.9398862    1531.0257  0.062511257  0.062073107            2 
 2042000   0.92445718   -3.9564439    1525.2539    0.0622451  0.062062144           12 
 2043000   0.91730438    -3.943852    1522.2853  0.062093543  0.062051146            3 
 2044000   0.91314629   -3.9452124    1527.1746  0.062262499  0.062040205            3 
 2045000   0.92706147   -3.9157624    1528.4091  0.062282358  0.062029358            4 
 2046000   0.91377292   -3.9178643    1528.3903  0.062251151  0.062018387            3 
 2047000   0.94492639   -3.9386055    1527.7359  0.062194103  0.062007592            4 
 2048000   0.92474626   -3.9385909    1529.5562  0.062237801  0.061996649            3 
 2049000    0.9328814   -3.9210508    1537.2511  0.062520381   0.06198595            2 
 2050000   0.93352093   -3.9426755    1526.3943   0.06204855  0.061975215            4 
 2051000    0.9176567    -3.941519    1527.0498  0.062044928  0.061964175            2 
 2052000   0.93225741    -3.941606    1535.0402   0.06233919  0.061953494            3 
 2053000   0.91497375   -3.9364836    1526.1881   0.06194951  0.061942643            2 
 2054000   0.92519632   -3.9486255    1531.5626    0.0621374  0.061931648            5 
 2055000   0.93992911   -3.9230347    1530.8108  0.062076673  0.061920735            2 
 2056000   0.90917476    -3.932405    1536.0361  0.062258273  0.061910027            3 
 2057000   0.92689688   -3.9436101    1539.1006  0.062352153  0.061899234            3 
 2058000    0.9165244   -3.9366734    1534.4802  0.062134765  0.061888462            6 
 2059000   0.93464182   -3.9271455    1535.6858  0.062153383  0.061877849            5 
 2060000   0.94997152   -3.9439314    1537.9334  0.062214135  0.061866969            8 
 2061000   0.90386271   -3.9106494    1540.3257  0.062280676  0.061856019            3 
 2062000   0.90773641   -3.9496013    1542.3181  0.062330993  0.061845586            2 
 2063000   0.93285538   -3.9482479    1537.6463  0.062112065  0.061834875            4 
 2064000   0.91982292   -3.9575431     1537.615  0.062080709  0.061824031            2 
 2065000    0.9121871   -3.9433972    1539.1213  0.062111434  0.061812957            4 
 2066000   0.92677732   -3.9637611    1536.6007  0.061979698  0.061801883            6 
 2067000   0.91040172   -3.9516909    1538.9533  0.062044563  0.061790934            4 
 2068000   0.92613263   -3.9123978    1542.2737  0.062148359  0.061780092            4 
 2069000   0.92344865   -3.9441039    1543.0941  0.062151366  0.061769369            2 
 2070000   0.91967909   -3.9915525    1539.4623  0.061975132  0.061758565            2 
 2071000   0.92846299   -3.9243789     1542.274  0.062058346   0.06174781            2 
 2072000   0.93431486   -3.9422082    1537.2703  0.061827153  0.061737173            3 
 2073000   0.91754435    -3.937404    1545.1001  0.062112079  0.061726332            3 
 2074000   0.90038961   -3.9522998    1542.6569  0.061983964  0.061715832            3 
 2075000   0.92094589    -3.948283     1543.745  0.061997792  0.061705166            3 
 2076000   0.91107643   -3.9421766    1545.0202  0.062019114  0.061694361            2 
 2077000   0.90069941   -3.9791634    1544.3879  0.061963886  0.061683743            4 
 2078000   0.93117498   -3.9743447    1546.1658  0.062005364  0.061673008            3 
 2079000   0.91695747   -3.9343079    1543.6529  0.061874817  0.061662209            2 
 2080000   0.91523295    -3.924806    1552.8826  0.062214846  0.061651502            5 
 2081000    0.9162725   -3.9610638    1548.6324  0.062014753  0.061640892            4 
 2082000   0.92247665   -3.9367061    1554.2202  0.062208622  0.061630199            3 
 2083000   0.94386885   -3.9538873    1542.1133  0.061694403  0.061619477            3 
 2084000   0.91993043   -3.9314011    1545.8438   0.06181397  0.061608709            3 
 2085000   0.91884436   -3.9225597    1545.2609  0.061761027  0.061597668            5 
 2086000   0.91841464   -3.9446727    1549.3603  0.061895185  0.061586926            5 
 2087000   0.94209039    -3.966533    1548.1066  0.061815469  0.061576181            6 
 2088000   0.90202341   -3.9245751    1551.3402   0.06191492  0.061565513            5 
 2089000   0.90378549   -3.9278888    1548.9187  0.061788683  0.061554883            2 
 2090000     0.940033    -3.921929    1550.4583  0.061820508  0.061544243            3 
 2091000   0.92211643   -3.9383902    1546.9369  0.061650604  0.061533445            2 
 2092000   0.90997126   -3.9505985    1550.7026  0.061771134  0.061522624            2 
 2093000   0.90493889   -3.9463981    1554.0134  0.061873444  0.061511846            3 
 2094000   0.91808262   -3.9617286    1549.2283  0.061653467  0.061501052            4 
 2095000   0.92492227   -3.9132884    1552.6691  0.061760905  0.061490244            5 
 2096000   0.89866522   -3.9577306    1547.6932  0.061533602  0.061479375            4 
 2097000   0.91789795   -3.9465833    1555.2389  0.061804121  0.061468372            6 
 2098000   0.91524261   -3.9824036    1553.1301  0.061690901  0.061457531            3 
 2099000   0.90331953   -3.9465704    1555.2139  0.061744238  0.061446738            7 
 2100000   0.90613095   -3.9377593    1557.3602  0.061800009   0.06143587            4 
 2101000    0.9098593   -3.9387917    1559.0615  0.061838071  0.061425129            2 
 2102000   0.90512538   -3.9392933    1557.8528  0.061760737  0.061414516            3 
 2103000   0.93858278   -3.9539782     1552.528  0.061520369  0.061403712            5 
 2104000   0.91836329   -3.9635905    1551.0092  0.061430974  0.061392664            3 
 2105000   0.92898351   -3.9312677    1560.7855  0.061788817  0.061381845            2 
 2106000   0.90551342   -3.9717502    1558.8161   0.06168155  0.061371188            3 
 2107000   0.91681636   -3.9498836    1555.4184  0.061517893  0.061360333            2 
 2108000   0.90975565   -3.9455758     1558.348  0.061604521  0.061349449            2 
 2109000   0.89687602   -3.9483512    1559.8835  0.061635985  0.061338813            7 
 2110000   0.92891481   -3.9191446    1557.2892  0.061504312  0.061328088            5 
 2111000   0.91893439    -3.957782    1559.0787   0.06154582  0.061317375            4 
 2112000   0.90082631   -3.9762797    1561.4786  0.061611371  0.061306521            4 
 2113000   0.92887581   -3.9695453    1565.1358  0.061726449  0.061295871            3 
 2114000   0.94103106    -3.967459    1557.7259  0.061405153  0.061285309            4 
 2115000   0.90512398   -3.9400801    1565.4933  0.061682163  0.061274865            4 
 2116000   0.90650307   -3.9788558    1562.2427  0.061524997  0.061264477            2 
 2117000   0.94631042   -3.9605793    1564.8555  0.061598783  0.061254081            4 
 2118000   0.90940948   -3.9739576    1564.5499  0.061557678  0.061243628            2 
 2119000   0.90237283   -3.9640043    1565.9968  0.061585527  0.061233329            7 
 2120000   0.92954162   -3.9389359    1570.7941   0.06174505  0.061222915            2 
 2121000   0.91647195   -3.9638986    1565.4705  0.061506778  0.061212182            5 
 2122000   0.90488755   -3.9780656    1561.7953  0.061333463  0.061201722            3 
 2123000   0.91073692   -3.9623612     1567.242  0.061518369  0.061191075            7 
 2124000   0.90421873   -3.9750194    1564.5057  0.061382051  0.061180508            6 
 2125000   0.92067858   -3.9527885    1567.7787  0.061481518  0.061169878            4 
 2126000   0.90443827   -3.9852138    1567.3378  0.061435315  0.061159291            5 
 2127000   0.89895674   -3.9385847    1565.4642  0.061333026    0.0611487            2 
 2128000   0.91402707   -3.9422104    1568.9863  0.061442133   0.06113803            2 
 2129000   0.90709135   -3.9770438    1568.9372  0.061411352   0.06112761            8 
 2130000   0.93681677   -3.9391274    1577.9939  0.061736851  0.061117121            7 
 2131000   0.89853913   -3.9725472    1569.5739  0.061378614  0.061106605            3 
 2132000   0.91459741   -3.9270309    1569.9337  0.061363886  0.061096236            5 
 2133000   0.90892487   -3.9501009    1566.4398  0.061198617  0.061085659            5 
 2134000   0.90399719   -3.9410134    1573.4566  0.061443945  0.061075073            4 
 2135000   0.90885106   -3.9866356    1572.9566  0.061395653  0.061064484            5 
 2136000   0.92046372   -3.9435073    1578.5125  0.061583665  0.061053869            3 
 2137000   0.90478063   -3.9585483    1572.0146  0.061301458  0.061043404            3 
 2138000   0.91898195   -3.9596753    1572.6691  0.061298295   0.06103272            3 
 2139000   0.90706724    -3.986038    1569.6852  0.061153389    0.0610221            4 
 2140000   0.91353752   -3.9825054    1572.8954   0.06124982  0.061011547            4 
 2141000   0.91860326   -3.9664705      1574.08  0.061267321  0.061001159            2 
 2142000    0.9137401   -3.9677939    1574.7671   0.06126545  0.060990712            3 
 2143000   0.90572005    -3.957726    1576.9409   0.06132139  0.060980389            2 
 2144000   0.90692223   -3.9549753    1580.6826  0.061438223  0.060970099            7 
 2145000   0.91667668   -3.9371059    1581.0143  0.061422467  0.060959641            2 
 2146000   0.90024361   -3.9683619       1583.1  0.061474839  0.060949318            7 
 2147000   0.90668077   -3.9760439    1586.8911  0.061593352  0.060939136            2 
 2148000   0.91188069   -3.9492069    1581.4313   0.06135286  0.060929126           13 
 2149000   0.91600201   -3.9778615    1583.7603  0.061414623  0.060918825            6 
 2150000   0.90190082   -3.9899984    1577.5781  0.061146438  0.060908389            4 
 2151000   0.91495533   -3.9685608    1584.1059  0.061370909   0.06089808            4 
 2152000   0.89663856   -3.9705818    1583.5082  0.061319245  0.060887774            4 
 2153000   0.90529429   -3.9677023    1583.6055  0.061294533  0.060877573           11 
 2154000   0.89871263   -3.9707209    1587.4902  0.061416363  0.060867161            5 
 2155000   0.88832649   -3.9500191    1583.4919  0.061233253  0.060856942            4 
 2156000   0.90272942     -3.94896     1590.523  0.061476617  0.060846731            2 
 2157000   0.91210727   -3.9811667    1581.7567  0.061109438  0.060836251            4 
 2158000   0.90947901   -3.9665498    1583.2862  0.061140182   0.06082589            3 
 2159000   0.91884329   -3.9455286    1585.0137  0.061178542  0.060815454            3 
 2160000   0.95175815   -3.9637576    1594.4273    0.0615134  0.060805126            3 
 2161000   0.91880679   -3.9976174     1585.603  0.061144646  0.060794812            4 
 2162000   0.88531051   -3.9902625    1588.4198  0.061224938  0.060784589            3 
 2163000   0.89720128   -3.9852579     1592.244  0.061343968  0.060774269            4 
 2164000   0.90438898   -3.9916112    1587.8846  0.061147743  0.060763802            1 
 2165000   0.90526376   -3.9518724    1594.2222  0.061363443  0.060753648            4 
 2166000   0.89829205   -3.9382585    1588.0471  0.061097532  0.060743441            5 
 2167000   0.92063213   -3.9615154    1586.3587   0.06100441  0.060733323            1 
 2168000   0.89960575     -3.96417    1590.3948   0.06113141   0.06072325            3 
 2169000   0.87961605   -3.9676809    1597.1611   0.06136319  0.060713209            2 
 2170000    0.9210559   -3.9636899     1592.073  0.061139517  0.060703212            3 
 2171000   0.88617167   -3.9549075    1594.2403  0.061194547  0.060692845            3 
 2172000   0.89873943   -3.9493834     1591.795  0.061072551  0.060682574            4 
 2173000   0.91461752   -3.9569312    1590.0261  0.060976609  0.060672086            3 
 2174000   0.90507852   -3.9664226    1589.0287   0.06091033  0.060661977            3 
 2175000    0.8962495   -3.9341675    1594.6005  0.061095805  0.060651648            3 
 2176000   0.90695701   -3.9729455    1594.3677  0.061058812  0.060641151            2 
 2177000   0.91677602   -3.9640942     1591.459  0.060919421   0.06063058            7 
 2178000   0.89358163   -3.9647314    1596.5135  0.061084846  0.060620063            3 
 2179000   0.88713411   -3.9589988    1596.4797  0.061055519  0.060609499            5 
 2180000   0.90510991   -3.9552499    1587.9971  0.060703253  0.060598962            2 
 2181000   0.89632403   -3.9899412    1591.1592  0.060796242  0.060588142            3 
 2182000   0.89501336   -3.9687646      1596.05  0.060955162  0.060577591            5 
 2183000   0.89966713   -3.9839053    1595.9436   0.06092318   0.06056726            2 
 2184000   0.92093706   -3.9633996    1594.5178  0.060840881  0.060556773            3 
 2185000   0.89228331   -3.9653743    1593.7156   0.06078244   0.06054605            5 
 2186000   0.91771744   -3.9880585    1599.0443  0.060957773  0.060535459            9 
 2187000   0.90288707   -3.9900399    1591.5993  0.060646215  0.060524621            2 
 2188000   0.89543592   -3.9621648    1593.7567  0.060700668  0.060513833            5 
 2189000     0.901106   -3.9391236    1594.6338  0.060706327  0.060503037            3 
 2190000    0.8956715   -3.9892522    1595.4467   0.06070954  0.060492198            3 
 2191000   0.91271077   -3.9722299    1596.8777   0.06073626  0.060481337            3 
 2192000   0.90588027   -3.9601536    1596.6989  0.060701754  0.060470581            2 
 2193000   0.89469087   -3.9701867    1597.7926  0.060715634  0.060459787            7 
 2194000   0.90248687   -3.9801467     1596.251  0.060629405   0.06044912            4 
 2195000   0.89630656   -3.9757062    1593.0242  0.060479278  0.060438291            5 
 2196000   0.90098838   -3.9668626    1599.9926  0.060716174  0.060427292            5 
 2197000   0.90702777    -3.964244    1601.9565  0.060763031  0.060416532            4 
 2198000   0.89435758   -4.0011649    1596.1245  0.060514275  0.060405587            6 
 2199000   0.90568817   -3.9593156     1597.647   0.06054445  0.060394611            3 
 2200000   0.90223409   -3.9794487    1596.4633  0.060472096  0.060383467            3 
 2201000   0.90191707   -3.9716752    1599.1833  0.060547603  0.060372467            6 
 2202000   0.91549331   -3.9720407    1593.6353  0.060310147  0.060361511            7 
 2203000   0.90776797    -4.002186     1597.352  0.060423361  0.060350558            9 
 2204000   0.89466361   -3.9795211    1598.4863  0.060438834  0.060339553            4 
 2205000   0.89473402   -4.0049941    1593.0754  0.060206931  0.060328405            4 
 2206000   0.89860166   -3.9810778    1602.2593  0.060526566  0.060317272            1 
 2207000   0.89849619   -3.9686941    1595.9877  0.060262336  0.060306283            2 
 2208000   0.89437137   -3.9757627    1603.6774  0.060525265  0.060295079            5 
 2209000    0.8913706   -3.9669501    1604.6545  0.060534724  0.060283966            4 
 2210000   0.90172528   -3.9482872    1602.7079  0.060433932  0.060272973            3 
 2211000   0.90145691   -3.9704018    1602.2317  0.060388652  0.060262008            2 
 2212000   0.91513684   -3.9923086    1601.8066  0.060345334  0.060250982            2 
 2213000   0.89779032   -3.9906488    1598.4771   0.06019269  0.060239893            2 
 2214000   0.91026268    -4.000865    1596.7142  0.060099148  0.060228497            4 
 2215000   0.90257646    -3.978863    1603.6253  0.060332026  0.060217136            7 
 2216000   0.89522535   -3.9740456     1602.317  0.060255603  0.060205808            6 
 2217000   0.88514279   -3.9747752    1605.3309  0.060341713  0.060194723            3 
 2218000   0.89272193   -3.9924506    1607.1411  0.060382516  0.060183494            5 
 2219000   0.89277547    -3.968346    1602.7509  0.060190434  0.060172484            3 
 2220000   0.88409927   -4.0002709    1601.5243  0.060117277  0.060161302            2 
 2221000   0.87623987   -4.0038984    1605.1793  0.060227351  0.060150167            4 
 2222000   0.87466728   -3.9988819    1608.0971  0.060309671  0.060139002            5 
 2223000   0.89820635   -3.9659467    1612.2821  0.060439426  0.060127832            6 
 2224000   0.90375408   -3.9705806    1608.8195  0.060282506  0.060116532            3 
 2225000   0.89544413   -3.9998983    1608.8948  0.060258232  0.060105407            3 
 2226000   0.89596971   -3.9737909    1604.3373  0.060060546  0.060094295            5 
 2227000   0.88777647   -4.0005045    1610.8042  0.060275567  0.060083156            4 
 2228000   0.88651323   -3.9831477    1613.1478  0.060336168  0.060071922           10 
 2229000   0.89164438   -3.9832979    1606.1904  0.060048991  0.060060749            3 
 2230000   0.87453828   -3.9911957    1605.5654  0.059998708  0.060049359            3 
 2231000   0.90121624   -3.9945349    1605.6759  0.059975942   0.06003805            7 
 2232000   0.90250087   -3.9782498     1609.873  0.060105773  0.060026836            2 
 2233000    0.8930053   -3.9702897    1611.3143  0.060132644  0.060015729            6 
 2234000   0.87728459   -3.9673657    1614.3287  0.060218171  0.060004487            3 
 2235000   0.88924069   -3.9860613     1614.478  0.060196794  0.059993406            4 
 2236000   0.88094187    -3.982377    1609.9391  0.060000713  0.059982174            2 
 2237000   0.90161004    -3.983273    1611.9566  0.060049047  0.059970849            3 
 2238000   0.89237729   -3.9801488    1609.8261  0.059942882  0.059959635            2 
 2239000   0.88233871   -4.0178845    1612.2851  0.060007632  0.059948328            4 
 2240000   0.89902054   -3.9919388    1617.0906  0.060159621  0.059937049            2 
 2241000   0.88487732   -3.9774186    1614.9603  0.060053558  0.059925849            4 
 2242000   0.92292748   -3.9746909    1612.2962  0.059927751  0.059914527            2 
 2243000   0.89657748    -3.985786    1612.6306  0.059913455  0.059902998            3 
 2244000   0.89553517   -3.9591439    1615.8615  0.060006739   0.05989173            3 
 2245000   0.89535871   -3.9675711    1611.1127  0.059803738  0.059880485            4 
 2246000    0.8960531    -4.007876    1614.6557  0.059908568   0.05986918            3 
 2247000   0.89784069   -4.0021294    1615.5324  0.059914418  0.059857745            2 
 2248000   0.89865943   -4.0134656    1610.2108  0.059690494  0.059846522            4 
 2249000   0.89197147   -3.9969603    1615.1261  0.059846084  0.059835151            2 
 2250000   0.87699346   -3.9633859    1617.0708  0.059891511  0.059824041            6 
 2251000   0.89058131    -3.994213    1623.5136  0.060103421  0.059812791            3 
 2252000   0.88465233   -3.9619043    1622.9821  0.060057064  0.059801855            3 
 2253000   0.89530439   -3.9994865    1613.2379   0.05966999  0.059790815            3 
 2254000     0.891349   -3.9912473    1621.5747  0.059951741  0.059779732            3 
 2255000   0.88499018   -4.0088565     1619.463  0.059847117   0.05976849            6 
 2256000   0.90350265   -4.0201169    1615.5247  0.059675113  0.059757073            2 
 2257000   0.87882709   -4.0018888    1614.7308  0.059619363  0.059745699            2 
 2258000   0.87183972   -4.0113353    1625.3811  0.059986016  0.059734461            3 
 2259000   0.86492556   -3.9731647    1625.0788   0.05994831  0.059723123            3 
 2260000   0.89502716   -3.9773474    1622.3692  0.059821874  0.059711839            3 
 2261000   0.86520718   -4.0101781    1621.5438  0.059764993  0.059700511            3 
 2262000   0.89662894    -3.988391    1627.4976  0.059957914  0.059689164            3 
 2263000   0.89522483   -4.0156453    1617.8068  0.059574563  0.059677945            4 
 2264000   0.86186986   -3.9949195    1620.7294  0.059655824  0.059666511            4 
 2265000   0.90544746   -4.0096028    1615.3999  0.059433404  0.059655114            2 
 2266000   0.88997035   -3.9802989     1621.845  0.059644197  0.059643576            2 
 2267000   0.89075755   -3.9834872    1622.0687  0.059626111   0.05963217            6 
 2268000   0.87046518   -3.9964798    1625.6446  0.059731211  0.059620687            3 
 2269000   0.88901343   -3.9825168    1624.0739  0.059647198  0.059609292            3 
 2270000   0.87524599   -4.0046946    1622.0222  0.059545601  0.059597917            6 
 2271000   0.89131251    -3.984985    1623.2242  0.059563491  0.059586382            4 
 2272000   0.89821157   -3.9747446    1628.3404  0.059724928  0.059574865            4 
 2273000   0.87751665   -4.0053333    1631.6701  0.059820726  0.059563591            4 
 2274000   0.89029969   -3.9852732    1627.7397  0.059650385  0.059552278            5 
 2275000   0.88062245   -3.9938735    1624.5859   0.05950864  0.059540929            2 
 2276000   0.89352697   -3.9802707    1626.5002  0.059552585  0.059529541            4 
 2277000   0.90001508   -3.9950842    1625.0905  0.059474838  0.059518241            5 
 2278000    0.8956616   -3.9698003    1627.0114  0.059518999  0.059506953            4 
 2279000   0.88474802   -4.0050544    1629.1596  0.059571436  0.059495548            4 
 2280000   0.87889346   -3.9948372    1624.0284  0.059357764  0.059484021            3 
 2281000   0.87834683    -3.995222    1628.2484  0.059485914  0.059472422            3 
 2282000   0.89306454   -3.9796949    1629.7725    0.0595155  0.059461093            5 
 2283000   0.87825024   -3.9923606    1629.8853   0.05949355  0.059449576            3 
 2284000    0.8870953   -3.9996229    1631.6675  0.059532528  0.059437944            3 
 2285000   0.88005244   -3.9950226    1626.2164  0.059307672   0.05942651            6 
 2286000   0.88325897   -4.0096965    1624.0795  0.059203831  0.059414831            4 
 2287000   0.87791719   -3.9778515    1631.2889  0.059440638  0.059403314           12 
 2288000   0.90559494   -4.0210534    1623.6426  0.059136167  0.059391728            5 
 2289000   0.91510128   -4.0012148    1631.8497   0.05940912  0.059380139            4 
 2290000   0.88039581   -3.9881882    1634.1152  0.059465617  0.059368592            1 
 2291000   0.88032821   -4.0127822    1631.6059  0.059348388  0.059357048            4 
 2292000   0.86847792   -3.9982921    1633.4144  0.059388249  0.059345412            3 
 2293000   0.88689974   -4.0018826    1630.7436  0.059265286  0.059333825            3 
 2294000   0.89883019   -3.9816281    1632.5826  0.059306255  0.059322356            5 
 2295000   0.88018272   -3.9917931    1637.6414  0.059464102  0.059310888            7 
 2296000   0.88250792   -4.0003149    1635.9149   0.05937554  0.059299329            3 
 2297000     0.875904   -4.0284729    1628.3244  0.059074314  0.059287643            6 
 2298000   0.91226684   -4.0151678    1629.9851  0.059108828  0.059275962            3 
 2299000    0.8947248    -4.020329    1631.6995  0.059145262  0.059264383            4 
 2300000   0.87142811   -3.9989237    1640.5435   0.05943998   0.05925275            2 
 2301000   0.87012548   -4.0492854    1629.3276  0.059007955  0.059240971            6 
 2302000   0.90034233    -4.018546    1633.1677  0.059121332  0.059229123            7 
 2303000   0.87881702   -4.0365672    1632.2897   0.05906389  0.059217428            7 
 2304000   0.88451891   -4.0053971    1632.6702  0.059052017  0.059205473            5 
 2305000   0.86672442   -4.0053693    1631.9363  0.058999866  0.059193653            3 
 2306000   0.90947713   -3.9774971    1634.4359   0.05906461  0.059181917            3 
 2307000   0.89314578   -4.0232234    1635.7595  0.059086819  0.059170388            5 
 2308000   0.89214938   -4.0047377    1637.6941  0.059131069  0.059158768            3 
 2309000   0.88978237   -3.9738265     1633.897  0.058968421  0.059147184            3 
 2310000    0.8680151    -3.989584    1637.7629  0.059082356  0.059135375            7 
 2311000   0.88781843   -4.0128652    1637.4242  0.059044578  0.059123832            3 
 2312000    0.8832823    -4.034256     1636.494  0.058985509  0.059112305            4 
 2313000   0.88129975   -4.0187277    1635.2292  0.058914441  0.059100488            5 
 2314000   0.90032179   -4.0040968    1633.9315  0.058842247  0.059088859            3 
 2315000   0.86929409   -4.0089299    1639.4597  0.059015827  0.059077113            7 
 2316000   0.88811284   -4.0189947    1639.4884  0.058991379  0.059065727            2 
 2317000   0.88279554   -4.0119234    1636.6122  0.058862475  0.059054165            3 
 2318000   0.87285799   -4.0105616    1642.3678  0.059043995  0.059042898            6 
 2319000   0.88724758   -4.0077217    1639.7964  0.058926132  0.059031421            2 
 2320000   0.86626565    -4.002989     1641.969  0.058978772  0.059019877            5 
 2321000   0.87580907   -4.0042865    1642.9236  0.058987635  0.059008239            3 
 2322000   0.87405546   -3.9980805    1640.3748  0.058870758  0.058996846            5 
 2323000   0.86598576   -3.9706659    1646.9924   0.05908281  0.058985529            8 
 2324000   0.87665219   -4.0344814    1644.9711  0.058984906   0.05897417            2 
 2325000   0.87068405    -4.003266    1640.9804  0.058816504  0.058962591            4 
 2326000   0.87524235   -3.9980942    1645.2655  0.058944735  0.058951252            7 
 2327000   0.87897268   -4.0084181    1644.6518  0.058897427   0.05893974            2 
 2328000   0.86153431   -4.0286021    1647.7075  0.058981512  0.058928071            4 
 2329000   0.86929662   -4.0039295     1638.016  0.058609418  0.058916356            8 
 2330000    0.8973141   -4.0079931    1646.3843   0.05888356  0.058904825            1 
 2331000   0.88015014   -4.0218887     1649.539  0.058971077  0.058893549            7 
 2332000   0.87917643   -4.0417845    1637.9227  0.058530684  0.058881809            4 
 2333000   0.86412353   -4.0332619    1644.3378  0.058734741   0.05887016            7 
 2334000   0.90032955   -4.0357936     1639.643  0.058541951  0.058858364            4 
 2335000   0.87567835   -4.0263994    1641.6139  0.058587218  0.058846638            7 
 2336000   0.87655343   -3.9959223    1652.2037  0.058939915  0.058835064            5 
 2337000   0.87920524   -4.0245227    1648.0498  0.058766574  0.058823627            1 
 2338000   0.90387032   -4.0118223    1648.0462  0.058741311  0.058812149            5 
 2339000   0.85894084   -4.0035573    1653.7862    0.0589207  0.058800827            3 
 2340000   0.87285611   -4.0087918    1648.3904   0.05870336  0.058789358            4 
 2341000   0.88518074   -4.0099851    1649.5714  0.058720327    0.0587777            7 
 2342000    0.9001178   -4.0329919    1647.4644  0.058620283  0.058766175            7 
 2343000   0.86698262   -4.0242718    1649.9136  0.058682372  0.058754487            3 
 2344000    0.8481806   -4.0229273    1646.5851  0.058539003  0.058742979            6 
 2345000   0.87351872   -3.9802277    1657.2315  0.058892376  0.058731497            5 
 2346000   0.87933023   -4.0218809    1651.0193  0.058646607  0.058720151            4 
 2347000   0.89235238   -3.9948656    1655.9522  0.058796769  0.058708668            3 
 2348000   0.89528606     -4.03029    1645.8397  0.058412825  0.058697193            4 
 2349000   0.86866667   -4.0276154    1651.7807  0.058598718  0.058685653            6 
 2350000   0.85021797   -3.9964563    1660.1936  0.058872114  0.058674084            3 
 2351000   0.88025243   -4.0099809    1658.0861   0.05877237  0.058662629            4 
 2352000   0.87042942   -3.9962517    1653.8414  0.058596989  0.058651061            4 
 2353000   0.86402172   -3.9949545     1661.565  0.058845624  0.058639591            2 
 2354000    0.8756068   -4.0186704     1657.307   0.05866989  0.058628007            9 
 2355000   0.87737586   -4.0118438    1659.6678  0.058728514  0.058616289            3 
 2356000    0.8798445   -3.9826667    1659.3577  0.058692619  0.058604661            6 
 2357000   0.86333716   -3.9964742    1660.5125  0.058708547  0.058593212            3 
 2358000   0.87093873   -4.0184996    1653.7917  0.058446132  0.058581662            4 
 2359000   0.88843086   -4.0063684    1660.6173  0.058662473  0.058570194            6 
 2360000   0.86904326   -4.0486277    1654.7072  0.058428925  0.058558704            2 
 2361000   0.86486772   -4.0344886    1655.1955  0.058421414  0.058546835            5 
 2362000    0.8738752   -4.0279903    1661.1246  0.058605864  0.058535134            5 
 2363000   0.86185177   -4.0325425    1656.5561   0.05841995  0.058523282            5 
 2364000   0.87643947   -4.0116324    1661.6063  0.058573261  0.058511786            4 
 2365000   0.89500047   -4.0146384    1659.9774  0.058491101   0.05850032            2 
 2366000   0.87866419   -4.0022794     1661.634  0.058524726  0.058488801            4 
 2367000    0.8752468   -4.0373557    1656.1675  0.058307543  0.058477263            5 
 2368000   0.88845064   -4.0275464    1657.9273   0.05834485  0.058465696            4 
 2369000   0.84817813   -4.0367089    1658.8069  0.058351164  0.058454076            5 
 2370000    0.8653354   -4.0059371    1662.0717   0.05844134  0.058442373            3 
 2371000   0.86811996   -4.0234663    1658.1051  0.058277278  0.058430797            8 
 2372000   0.86652633   -4.0336266    1661.1138  0.058358409   0.05841926            5 
 2373000   0.89632536   -4.0286644    1664.2013  0.058442242  0.058407788            2 
 2374000   0.87081172     -4.00853    1660.1507  0.058275437  0.058396436            3 
 2375000   0.86923753   -4.0150745    1663.9639  0.058384697   0.05838514            2 
 2376000   0.84907614   -3.9995835    1663.8313  0.058355475  0.058373818            3 
 2377000   0.89146726   -4.0202817    1660.6469  0.058219286  0.058362317            3 
 2378000   0.88312125   -4.0545042    1658.7104  0.058126941  0.058350687            6 
 2379000    0.8828178   -4.0012075    1665.6287  0.058344847  0.058339266            1 
 2380000   0.84927348   -3.9916791    1667.0581  0.058370382  0.058327836            2 
 2381000    0.8833934   -4.0284598    1671.0538  0.058485713  0.058316635            3 
 2382000   0.88248382   -4.0337119    1663.8341  0.058208583  0.058305349            2 
 2383000    0.8575286   -4.0584711    1662.7842  0.058147441  0.058294054            5 
 2384000    0.8859509   -4.0252194    1666.4981  0.058252869  0.058282633            3 
 2385000   0.87087873    -4.015292    1670.2185  0.058358437  0.058271368            5 
 2386000   0.86366149   -4.0003955    1674.6235  0.058487828    0.0582602            7 
 2387000    0.8823484   -4.0420796    1663.3296   0.05806904   0.05824875            4 
 2388000   0.88091883   -4.0318087    1674.3777  0.058430265   0.05823736            3 
 2389000   0.86963495   -4.0322953     1668.461   0.05819942  0.058225922            3 
 2390000   0.87494774   -4.0689542    1661.6702  0.057938292  0.058214403            4 
 2391000   0.86377695   -4.0229814    1669.7015  0.058193974  0.058202823            4 
 2392000   0.87045307   -4.0114748    1673.5994  0.058305442  0.058191386            6 
 2393000   0.88556564    -4.017785    1672.2611  0.058234471  0.058180016            3 
 2394000   0.87556725   -4.0466761    1669.3398   0.05810846  0.058168652            3 
 2395000   0.85367137   -4.0483106    1669.0914  0.058075552  0.058157225            4 
 2396000   0.86568163    -4.010004    1670.0504   0.05808467  0.058145987            6 
 2397000   0.87522995   -4.0358278    1673.7355  0.058188551  0.058134821            3 
 2398000   0.87390304   -4.0375976      1678.82  0.058340978  0.058123645            2 
 2399000   0.86797829    -4.034145    1675.0507  0.058185727  0.058112448            4 
 2400000   0.88314428    -4.044162    1673.0319  0.058091387  0.058101225            3 
 2401000   0.87863074   -4.0435415    1673.2258  0.058073921  0.058089744            4 
 2402000   0.87824956    -4.035925    1675.4223  0.058125946  0.058078314            2 
 2403000   0.88170493    -4.044628    1681.5502  0.058314265  0.058067052            7 
 2404000   0.86633194   -4.0175303    1676.5006  0.058114969  0.058055956            3 
 2405000   0.85626874   -4.0216385    1681.1371   0.05825146  0.058044807            3 
 2406000    0.8762733   -4.0189555    1683.3818  0.058304996  0.058033858            3 
 2407000   0.86023502   -4.0230943    1681.8286  0.058226998  0.058022527            3 
 2408000   0.85193157   -4.0408314    1679.5681  0.058124587  0.058011249            4 
 2409000   0.85761942   -4.0669484    1678.0151  0.058046737  0.058000002            3 
 2410000   0.85443243   -4.0408889    1679.5879  0.058077038  0.057988831            6 
 2411000    0.8797037    -4.032823    1678.7092  0.058022577  0.057977492            3 
 2412000   0.86539476   -4.0643583    1676.2342  0.057913012  0.057966188            5 
 2413000   0.87171244    -4.040728    1680.3879  0.058032459   0.05795492            5 
 2414000    0.8875176   -4.0577208    1682.4527  0.058079699  0.057943697            8 
 2415000   0.85069857   -4.0433217    1684.5843  0.058129203  0.057932431            3 
 2416000   0.86643391   -4.0511256    1684.0044  0.058085139  0.057921229            4 
 2417000   0.87561593   -4.0193485     1687.546  0.058183216  0.057909918            4 
 2418000   0.85226827   -4.0301701    1684.5812  0.058056977  0.057898644            3 
 2419000   0.85625761     -4.04075    1682.7971  0.057971515  0.057887453            5 
 2420000   0.87011958   -4.0423369    1678.4708  0.057798582  0.057876215            3 
 2421000   0.87939744   -4.0350065    1685.2367  0.058007598   0.05786503            5 
 2422000   0.86872655   -4.0230774     1690.437  0.058162573  0.057853816            6 
 2423000   0.86291717   -4.0291666    1688.4762   0.05807113  0.057842722            4 
 2424000    0.8676855   -4.0142572    1682.9813  0.057858267  0.057831463            4 
 2425000   0.85254432    -4.011516    1686.2747  0.057947584   0.05782047            3 
 2426000   0.86734332   -4.0538881    1688.1452  0.057987949  0.057809419            5 
 2427000   0.85105192   -4.0399295    1687.3112  0.057935421  0.057798445            9 
 2428000    0.8824993   -4.0540311     1688.643   0.05795727  0.057787327            3 
 2429000   0.86554528   -4.0212228    1688.0325  0.057912465  0.057776351            2 
 2430000   0.87172903    -4.023284    1689.8378  0.057950543    0.0577654            6 
 2431000    0.8754923   -4.0359992    1686.8893  0.057825632  0.057754367            4 
 2432000   0.85423249   -4.0202538    1694.4821  0.058062025  0.057743503            3 
 2433000   0.86846394   -4.0438232    1683.8594  0.057674318  0.057732587           10 
 2434000   0.85384067   -4.0307785    1691.1113  0.057898907  0.057721565            3 
 2435000   0.86706705   -4.0514071    1691.3933  0.057884782  0.057710357            4 
 2436000   0.84181351   -4.0503402    1687.1503  0.057715871  0.057699371            6 
 2437000    0.8566129   -4.0455403     1694.434  0.057941253  0.057688204            2 
 2438000    0.8641133   -4.0455881    1690.4885  0.057782627    0.0576771            9 
 2439000    0.8417806   -4.0311698    1693.2828  0.057854409   0.05766602            5 
 2440000   0.86288617    -4.019207    1692.8067  0.057814437  0.057654983            6 
 2441000   0.86235514   -4.0227777     1691.221  0.057736619  0.057643898            5 
 2442000   0.85867312   -4.0366917    1692.5661  0.057758877  0.057632744            4 
 2443000   0.85577239   -4.0452254    1690.4805   0.05766409  0.057621572            5 
 2444000   0.85298027   -4.0630774    1693.3558  0.057738535   0.05761029            3 
 2445000   0.87139816   -4.0506897    1689.5475  0.057585123  0.057599151            3 
 2446000   0.84055891   -4.0469865    1695.1649   0.05775296  0.057587913            5 
 2447000   0.87054236   -4.0542379    1691.8076  0.057615024  0.057576639            5 
 2448000   0.86238649   -4.0669214    1689.4381  0.057510828  0.057565301            2 
 2449000   0.85124668   -4.0107236    1699.4706  0.057828726  0.057554195            5 
 2450000   0.85211207   -4.0413796    1699.2585  0.057797907  0.057543147            6 
 2451000   0.86399063   -4.0286785    1695.9789  0.057662823  0.057532024            4 
 2452000    0.8433504   -4.0628277    1691.7479   0.05749551  0.057520694            3 
 2453000   0.84888051   -4.0449541    1691.4131  0.057460696  0.057509352            4 
 2454000   0.85966027   -4.0126232    1693.3316   0.05750243  0.057497931            5 
 2455000   0.84889768   -4.0424023    1691.1605  0.057405312  0.057486685            2 
 2456000   0.85921839   -4.0157783    1695.2853  0.057521894  0.057475326            6 
 2457000   0.84423485   -4.0226072    1692.2392  0.057395171  0.057464018            3 
 2458000   0.86333471   -4.0446079    1700.2683  0.057644031  0.057452695            3 
 2459000   0.85172684   -4.0387347    1691.2922  0.057316396   0.05744127            5 
 2460000   0.86620746   -4.0382567    1695.2231  0.057426256  0.057429879            4 
 2461000   0.85737646   -4.0469245    1690.6293  0.057247368  0.057418513           10 
 2462000   0.86322707   -4.0745898    1697.2434  0.057447991  0.057407119            3 
 2463000   0.84587842   -4.0723071    1693.9904  0.057314604  0.057395678            4 
 2464000    0.8499592   -4.0469671    1693.0747  0.057260374  0.057384371            3 
 2465000   0.85936894    -4.062188    1693.9542  0.057266877  0.057373037            5 
 2466000   0.86255373   -4.0460466    1698.9553  0.057412656   0.05736174            2 
 2467000    0.8660719   -4.0543533    1699.1345  0.057395436  0.057350561            3 
 2468000   0.86304083   -4.0247402    1701.3695  0.057447646  0.057339225            4 
 2469000   0.86395751   -4.0545403    1700.6565  0.057400314  0.057327917            5 
 2470000   0.84866679   -4.0655223    1704.5666  0.057508994  0.057316583            5 
 2471000   0.83438207    -4.024876    1702.9581  0.057431476  0.057305462            4 
 2472000   0.84792722   -4.0588099    1703.1378  0.057414299  0.057294152            4 
 2473000      0.84798   -4.0400428    1701.1955  0.057325635  0.057282838            6 
 2474000   0.84607861   -4.0281941    1703.2163  0.057370529  0.057271371            6 
 2475000   0.86891125   -4.0430654    1705.4522  0.057422634  0.057260035            5 
 2476000   0.86263596   -4.0465997    1705.5564  0.057402948  0.057248842            3 
 2477000   0.88084944    -4.044715     1700.057  0.057194759  0.057237651            4 
 2478000   0.85822445   -4.0517352    1699.8282  0.057163982  0.057226401            2 
 2479000   0.85155794   -4.0262462    1707.5213  0.057399533  0.057215287            3 
 2480000   0.85896025   -4.0382614    1706.0888  0.057328254  0.057204074            2 
 2481000   0.87449037   -4.0329371    1697.6613  0.057022076  0.057192924            3 
 2482000   0.84980302   -4.0817379    1704.1469  0.057216857  0.057181708            5 
 2483000   0.86749573   -4.0600944    1703.5035  0.057172222  0.057170461           15 
 2484000   0.85174227   -4.0554048    1707.4299  0.057280929  0.057159462            5 
 2485000   0.85909821   -4.0623544    1701.0753   0.05704478  0.057148448            2 
 2486000   0.85166841   -4.0695163    1706.8697  0.057216066    0.0571374            6 
 2487000   0.86054383   -4.0254593    1712.4906  0.057381404  0.057126247            6 
 2488000   0.85043026    -4.042453    1706.7134  0.057164837  0.057115298            4 
 2489000   0.85897535   -4.0653399     1702.578  0.057003414  0.057104082            5 
 2490000   0.86013193   -4.0560027    1705.7181  0.057085613  0.057092801            2 
 2491000   0.85871005   -4.0438575    1708.1188  0.057143009  0.057081676            6 
 2492000   0.84542178   -4.0567404    1704.0938  0.056985482  0.057070324            1 
 2493000   0.86653385   -4.0640274    1709.1021  0.057130033  0.057058969            3 
 2494000   0.84837895   -4.0607365    1707.9864  0.057069849  0.057047772            2 
 2495000   0.85876026   -4.0431827    1709.6931  0.057103977  0.057036698            4 
 2496000   0.84993805   -4.0434491    1718.7742  0.057384287  0.057025578            9 
 2497000   0.83842741   -4.0440178    1715.9603  0.057267397  0.057014624            4 
 2498000   0.87068959   -4.0485719    1712.4911  0.057128739  0.057003611            2 
 2499000   0.85937508   -4.0648767    1711.9501  0.057087838  0.056992576            6 
 2500000   0.84015065   -4.0571989    1711.1605  0.057038685  0.056981424            3 
 2501000   0.84354268   -4.0749524    1709.9042  0.056974018  0.056970218            4 
 2502000   0.84589558   -4.0447705     1722.244  0.057362244  0.056959174            3 
 2503000   0.84134253   -4.0573611    1717.7467  0.057189597  0.056948072            9 
 2504000   0.87108905    -4.062852    1711.7021  0.056965593   0.05693692            4 
 2505000    0.8538212    -4.080675    1709.3544  0.056864751  0.056925777            6 
 2506000   0.83137638   -4.0652529    1718.1609  0.057134905  0.056914699            3 
 2507000   0.87205494   -4.0444571    1719.2827  0.057149407  0.056903507            2 
 2508000   0.85699089   -4.0634955     1716.961  0.057049474  0.056892206            4 
 2509000   0.84269037   -4.0477354    1719.0557   0.05709631  0.056881051            8 
 2510000    0.8487245    -4.074578    1715.1905  0.056945234      0.05687            7 
 2511000   0.83412413   -4.0700031    1718.5299  0.057033382  0.056858953            6 
 2512000    0.8600798   -4.0444941    1713.0022  0.056827302  0.056847892            3 
 2513000   0.85157702   -4.0327441     1715.214  0.056878033  0.056836694            4 
 2514000   0.86511085   -4.0947281    1713.1434  0.056786775  0.056825522            4 
 2515000   0.84647734   -4.0608224    1716.3709  0.056871138  0.056814435            4 
 2516000   0.85395707   -4.0660058    1721.3875  0.057014691  0.056803437            6 
 2517000    0.8539681   -4.0761223    1718.4824  0.056895855  0.056792124            3 
 2518000   0.84712983   -4.0326838    1721.7072  0.056979984  0.056781062            5 
 2519000   0.84420456    -4.048942     1718.378  0.056847226  0.056769976            3 
 2520000   0.85219545   -4.0568429    1722.9958  0.056977375  0.056758912            3 
 2521000   0.84471155   -4.0529935    1719.8624  0.056851196   0.05674793            6 
 2522000   0.84615724   -4.0739097    1719.6237  0.056820766   0.05673678           10 
 2523000   0.84987446   -4.0642769    1723.9004  0.056939502  0.056725582            4 
 2524000     0.850027   -4.0796607    1727.7943  0.057045507  0.056714434            2 
 2525000   0.84328679    -4.079724    1726.1616  0.056969028  0.056703313            5 
 2526000   0.84861281   -4.0633568    1725.6462  0.056929472  0.056692411            3 
 2527000   0.84828708   -4.0429593    1723.8028  0.056846155  0.056681338            4 
 2528000   0.84209948     -4.06698     1725.215  0.056870219  0.056670217            6 
 2529000   0.84458133   -4.0371308    1732.5196  0.057088429  0.056659283            3 
 2530000   0.84498825   -4.0818764    1728.2003  0.056923594  0.056648307            4 
 2531000   0.84308639     -4.05912    1733.4869  0.057075166  0.056637238            2 
 2532000   0.83584353   -4.0652175    1726.7217  0.056829967  0.056626344            3 
 2533000   0.85197402   -4.0714062    1723.2758  0.056694163  0.056615402            3 
 2534000   0.85763364   -4.0812972    1726.4528  0.056776268   0.05660426            3 
 2535000     0.847374   -4.0859644    1727.6552    0.0567934  0.056593285            3 
 2536000   0.85028839   -4.0793297     1724.901    0.0566805  0.056582188            4 
 2537000    0.8322031   -4.0715261    1726.8316  0.056721576  0.056571183            3 
 2538000   0.85913662   -4.0858417    1726.4273  0.056685951  0.056560204            5 
 2539000   0.84439384   -4.0621351    1725.4799  0.056632531  0.056548937            5 
 2540000    0.8473288   -4.0764477    1719.2583  0.056406114  0.056537693            9 
 2541000   0.82948599   -4.0579848    1732.1376  0.056806298   0.05652662           12 
 2542000    0.8448035    -4.057937    1734.9294  0.056875473  0.056515643            5 
 2543000   0.86208997   -4.0737847    1727.1922   0.05659956  0.056504683            3 
 2544000   0.85299135    -4.078794    1730.8676  0.056697708  0.056493553            2 
 2545000   0.85143272   -4.0762258    1729.0745  0.056616717  0.056482543            4 
 2546000   0.85984055   -4.0769374    1726.5684  0.056512452  0.056471403            3 
 2547000   0.83854804   -4.0434291    1728.7529  0.056561736  0.056460255            2 
 2548000   0.84411993   -4.0787397    1730.3618  0.056592158  0.056449138            4 
 2549000   0.84757634   -4.0544217    1729.0582  0.056527338  0.056438125            3 
 2550000   0.84657533   -4.0780766    1736.7068  0.056755123  0.056427027            7 
 2551000    0.8543509   -4.0505781     1728.823  0.056475335  0.056415873            2 
 2552000   0.85282838   -4.0498765    1730.0237  0.056492414   0.05640472            4 
 2553000   0.85416925   -4.0764396    1725.5676  0.056324832  0.056393434            3 
 2554000   0.83374716   -4.0761072    1726.9093  0.056346559  0.056382116            5 
 2555000   0.85459282   -4.0605956     1727.243  0.056335388  0.056370924            2 
 2556000   0.84176135   -4.0834883    1728.3721  0.056350159  0.056359617            4 
 2557000   0.83286014   -4.0902081    1729.8198  0.056375303  0.056348301            3 
 2558000    0.8304323   -4.0653529     1733.721  0.056480355  0.056337098            6 
 2559000   0.83929548   -4.0592032    1735.1426  0.056504579  0.056325828            5 
 2560000   0.83588662   -4.0480222    1732.0524  0.056381915  0.056314637            6 
 2561000   0.84757955   -4.0463478    1731.6266  0.056346044  0.056303308            5 
 2562000   0.85014985   -4.0700501     1730.453  0.056285878  0.056291895            5 
 2563000   0.85738615   -4.0737742    1728.2805  0.056193279  0.056280584            4 
 2564000   0.85080538   -4.0639184    1734.2319   0.05636479  0.056269287            3 
 2565000   0.84491064   -4.0762287    1726.6733  0.056097247  0.056257803            6 
 2566000   0.83889162   -4.0750516    1729.4505  0.056165579  0.056246536            1 
 2567000   0.85100533    -4.080745    1728.6992   0.05611931  0.056235118           10 
 2568000   0.84009703   -4.0647944    1737.5135  0.056383487  0.056223754            3 
 2569000   0.83856172   -4.0924186    1732.4044  0.056195808  0.056212461            4 
 2570000   0.84925123    -4.072171    1727.1099  0.056002266  0.056201025            4 
 2571000   0.82582866   -4.0741999    1732.1508  0.056143873  0.056189474            2 
 2572000   0.84639902   -4.0728859    1733.4975   0.05616568  0.056178151            2 
 2573000    0.8256689   -4.0707991    1731.9947  0.056095177  0.056166835            7 
 2574000   0.85141317   -4.0420113    1741.5613  0.056383105  0.056155573            3 
 2575000   0.83147918   -4.0562067    1739.3854   0.05629079  0.056144408            4 
 2576000   0.84661894    -4.062212    1738.8501   0.05625162  0.056133196            6 
 2577000   0.84636713    -4.071965     1734.737  0.056096786   0.05612216            5 
 2578000   0.85233624   -4.0714455    1738.0609   0.05618247  0.056111055            8 
 2579000   0.83400798    -4.075457    1736.6754  0.056115918  0.056099999            3 
 2580000   0.83267384   -4.0489907    1745.3289  0.056373673  0.056088915            3 
 2581000   0.84523623   -4.0964377    1734.7004  0.056008664  0.056077814            2 
 2582000   0.83631507   -4.1032206    1741.1569  0.056195354  0.056066662            3 
 2583000   0.83689602   -4.0574101    1742.9356  0.056230985   0.05605568            2 
 2584000   0.85354638   -4.0650259    1743.9379  0.056241546  0.056044644            5 
 2585000   0.84839246   -4.0739743    1739.9332   0.05609069    0.0560337            6 
 2586000   0.85042232   -4.0748558    1746.3555  0.056275959  0.056022593            5 
 2587000   0.82927196   -4.1008358    1745.7723  0.056235419  0.056011422            3 
 2588000   0.84899199   -4.0891411    1740.8631  0.056055613  0.056000227            2 
 2589000   0.83025921   -4.1088237    1739.0011  0.055974027  0.055989143            9 
 2590000   0.83860163   -4.0894583     1742.072  0.056051221  0.055977938            8 
 2591000   0.85104603   -4.0748344    1745.0618  0.056125748  0.055966738            5 
 2592000   0.83971837   -4.0909849    1740.0502  0.055942973  0.055955553            4 
 2593000   0.83201312   -4.0736372    1742.7728  0.056008895  0.055944438            4 
 2594000   0.82722838   -4.0792417    1741.3594  0.055941897  0.055933453            3 
 2595000   0.83030512   -4.0980003    1745.3403   0.05604818  0.055922441            3 
 2596000   0.83704803   -4.0710732    1747.0131  0.056080289   0.05591137            3 
 2597000   0.84741471   -4.1057937    1748.0907   0.05609327  0.055900352            5 
 2598000   0.83781307   -4.0849296    1751.1494  0.056169789  0.055889473            3 
 2599000   0.82710833   -4.0756279    1748.0131  0.056047618  0.055878564            3 
 2600000   0.84221791   -4.0680196    1756.7908  0.056307396  0.055867706            7 
 2601000   0.82886515   -4.0953141    1750.5592  0.056086094  0.055856897            3 
 2602000   0.82842562   -4.0238762    1759.7764  0.056359735  0.055845973            4 
 2603000   0.82632483   -4.0892266    1753.8506  0.056148373  0.055835094            3 
 2604000   0.82761372   -4.0404334    1749.5628  0.055989593  0.055824179           11 
 2605000   0.82766296   -4.0709851    1754.8617  0.056137609  0.055813218            4 
 2606000   0.83307227   -4.0600609    1752.8956  0.056053199  0.055802349            3 
 2607000    0.8278598   -4.0884426    1753.7298  0.056058364  0.055791337            4 
 2608000   0.84805569    -4.098644    1753.8171  0.056039656  0.055780394            4 
 2609000    0.8355913   -4.0925672    1756.6336  0.056108138  0.055769435            1 
 2610000    0.8439056   -4.0754519    1754.4533  0.056017027  0.055758591           11 
 2611000   0.85084774    -4.090046    1754.3547  0.055992427  0.055747725            2 
 2612000   0.85001561   -4.0830427    1753.6111  0.055947266  0.055736835            6 
 2613000   0.82093339    -4.118439    1747.2096    0.0557217  0.055725857            3 
 2614000   0.84239763   -4.0749123    1755.4477   0.05596301  0.055714919            5 
 2615000   0.83365102   -4.0581344    1757.3988  0.056003786  0.055703977            2 
 2616000   0.84119716   -4.0950865    1754.7399  0.055897678   0.05569305            5 
 2617000   0.81794047   -4.0683096    1763.6897  0.056161306  0.055682283            2 
 2618000   0.83950661    -4.104138    1753.2375  0.055807154  0.055671634            4 
 2619000   0.81113865   -4.0911373    1762.7951  0.056089956  0.055660822            3 
 2620000   0.85196963   -4.0833626     1760.167  0.055984954  0.055649986            3 
 2621000   0.82394013   -4.0847898    1754.6974  0.055789693  0.055639127            4 
 2622000   0.83057306   -4.0944878    1764.1202  0.056067892  0.055628434            7 
 2623000   0.84829169   -4.0740433    1757.1505   0.05582509  0.055617831            3 
 2624000    0.8194605   -4.0883262    1759.8822  0.055890566  0.055607313            2 
 2625000   0.84395417   -4.0888124    1762.3746  0.055948401  0.055596793            4 
 2626000   0.81100872   -4.0781542    1764.9851  0.056009936  0.055586271            5 
 2627000   0.82209066   -4.1217206    1757.8038  0.055760809  0.055575508            2 
 2628000   0.83859638   -4.0908292    1762.0806   0.05587521  0.055564697            3 
 2629000   0.82744397   -4.0949678    1765.8444  0.055973259  0.055553965            3 
 2630000   0.84173894   -4.1155214    1757.7325  0.055694946  0.055543261            5 
 2631000   0.85456241   -4.1221048    1762.9726   0.05583975   0.05553265            5 
 2632000   0.82764679   -4.1034434    1766.1465  0.055919024  0.055522078            3 
 2633000    0.8289436   -4.1363917    1764.3746  0.055841706  0.055511477            5 
 2634000   0.82578836   -4.0996784    1762.5743  0.055763549  0.055500877            4 
 2635000    0.8198813   -4.0875532    1768.9737  0.055944771  0.055490347            3 
 2636000   0.82928618   -4.0992886    1766.5331  0.055846393  0.055479908            3 
 2637000   0.82985579    -4.114598    1766.0987  0.055811487  0.055469355            4 
 2638000   0.83866193   -4.1054362     1768.477  0.055865461  0.055458802            5 
 2639000   0.81661793   -4.0642304    1765.6907  0.055756305  0.055448251            3 
 2640000   0.84364221   -4.0906033    1773.7712  0.055990252  0.055437878            5 
 2641000   0.80791091   -4.0887128    1767.7673  0.055779608  0.055427429            3 
 2642000   0.81914313   -4.1015091    1771.4711  0.055875317  0.055416965            5 
 2643000   0.81807921   -4.0853523     1770.537  0.055824724  0.055406489            4 
 2644000   0.83276502   -4.1159355    1770.1512  0.055791453  0.055395968            4 
 2645000   0.83290315   -4.0888891    1778.8703  0.056045064  0.055385436            9 
 2646000    0.8338448   -4.0989603     1774.212  0.055877172  0.055375026            5 
 2647000   0.83769694   -4.0986245    1772.1146  0.055790032  0.055364557            7 
 2648000   0.81854217   -4.0902164    1774.2326  0.055835618  0.055354109            3 
 2649000   0.80946137   -4.1046693    1771.7729  0.055737163  0.055343647            5 
 2650000   0.83513391   -4.1210892    1769.1078  0.055632321  0.055333179            5 
 2651000   0.83751743   -4.0802383    1772.2803  0.055711061   0.05532277            4 
 2652000   0.82291777   -4.1000834     1776.614  0.055826231  0.055312324            5 
 2653000   0.82031239   -4.1095316    1769.4833  0.055581206  0.055301886            3 
 2654000   0.80936642   -4.1025664    1774.9514  0.055731957  0.055291301            4 
 2655000   0.83120285   -4.1053153    1774.7791  0.055705559  0.055280797            4 
 2656000   0.84576292   -4.0842054    1777.8079  0.055779614  0.055270343            4 
 2657000   0.82590016   -4.0920024    1774.1185  0.055642909   0.05525994            4 
 2658000    0.8407258   -4.1333781    1777.4182  0.055725426  0.055249448            4 
 2659000   0.81962211   -4.0954833    1784.2982  0.055920091  0.055239238            5 
 2660000   0.83691498   -4.1071109    1774.6282  0.055596121  0.055228799            8 
 2661000   0.82716459   -4.1011342    1775.7674  0.055610906  0.055218348            3 
 2662000   0.82958648   -4.0956702    1776.8325  0.055623358  0.055207777            4 
 2663000   0.84496012   -4.1086078     1780.327  0.055711822  0.055197351            8 
 2664000   0.83219921   -4.1352208     1780.733  0.055703609  0.055186997            8 
 2665000   0.82829719   -4.0854911    1773.8271  0.055466765  0.055176547            4 
 2666000   0.83334346   -4.0900832    1779.5028  0.055623369  0.055166254           11 
 2667000   0.83177569   -4.1185168    1774.0525  0.055432211  0.055155825            3 
 2668000   0.81428917   -4.1101731    1784.2224  0.055729084  0.055145488            3 
 2669000   0.80352607   -4.0982934    1779.4145   0.05555809  0.055135032            5 
 2670000   0.82222131   -4.1145764    1783.8524  0.055675794  0.055124653            8 
 2671000   0.83499016   -4.1072656    1786.0386  0.055723155  0.055114396            1 
 2672000   0.81407184   -4.1044541    1782.8758  0.055603663  0.055104094            8 
 2673000   0.80659496   -4.1183897    1779.6498  0.055482286  0.055093631            6 
 2674000   0.82635012    -4.090981    1778.0062  0.055410315  0.055083077            4 
 2675000   0.83175898   -4.1104386    1786.0291  0.055639535  0.055072648            5 
 2676000   0.82187671    -4.106044     1782.349  0.055504143   0.05506215            7 
 2677000   0.83072036   -4.0900918    1786.3264  0.055607223  0.055051596            4 
 2678000   0.82430086   -4.1352774    1783.0415  0.055484238  0.055041194            3 
 2679000   0.82769669   -4.1060597    1782.3592  0.055442306  0.055030749            4 
 2680000   0.81256836   -4.1122451    1786.4177  0.055547815  0.055020446            6 
 2681000    0.8242795   -4.1306755    1783.7062  0.055442815  0.055010177            5 
 2682000   0.80803115   -4.0851328    1788.1088  0.055558936  0.054999833            3 
 2683000   0.82686585   -4.1101346    1784.3118  0.055420294  0.054989593            5 
 2684000   0.80523353   -4.1213325    1784.7116  0.055412059  0.054979181           10 
 2685000   0.82474018   -4.1055407     1781.912  0.055304531  0.054968811            6 
 2686000   0.82647445   -4.1220774    1787.2594  0.055449844  0.054958518            6 
 2687000   0.82202856    -4.098304    1787.9361  0.055450197   0.05494811            5 
 2688000   0.82659847   -4.1048751    1795.1351   0.05565275  0.054937831            4 
 2689000   0.81838347   -4.1013031    1789.6905  0.055463323  0.054927569            3 
 2690000   0.83265923   -4.1134046    1790.9105  0.055480498  0.054917343            4 
 2691000   0.82116632   -4.1040364    1791.7904   0.05548713  0.054907234            3 
 2692000   0.80739387   -4.0896512    1795.7809  0.055590046  0.054897014            6 
 2693000   0.82804755   -4.1126624    1789.0897   0.05536235  0.054886703            4 
 2694000   0.82421253   -4.0855747    1791.6696  0.055421604  0.054876373            3 
 2695000   0.82955102   -4.1096453    1791.8683  0.055407183  0.054866107            4 
 2696000   0.82257309   -4.0975572    1794.9703  0.055482513  0.054855885            3 
 2697000   0.81744733   -4.1056867    1788.4684  0.055261044  0.054845599            8 
 2698000   0.80555051   -4.1114437    1794.6595  0.055431787  0.054835152            4 
 2699000    0.8107577   -4.1245291    1789.6652  0.055257045  0.054824996            3 
 2700000   0.81027663   -4.1329519    1788.1884     0.055191  0.054814594            6 
 2701000   0.80946736   -4.1115896    1795.0683  0.055382829  0.054804353            3 
 2702000   0.81570325   -4.1059753     1794.433   0.05534274   0.05479408           12 
 2703000   0.79723895   -4.1159554     1793.026  0.055278889   0.05478381            4 
 2704000   0.81391073   -4.1162018    1799.4561  0.055456611  0.054773695            5 
 2705000   0.82182099   -4.1355122    1794.9871  0.055298433  0.054763547            6 
 2706000   0.81440554   -4.0998942    1800.6461   0.05545227   0.05475348            3 
 2707000   0.81454374   -4.1127413    1800.0181  0.055412451  0.054743387            4 
 2708000   0.81522269   -4.1127003    1801.7323   0.05544474  0.054733413            3 
 2709000   0.81592872   -4.1129677    1800.3886  0.055382939  0.054723413            2 
 2710000   0.81716145   -4.1278177    1795.2334   0.05520398   0.05471341            6 
 2711000   0.83771273   -4.1025403    1795.9213  0.055204762  0.054703366            7 
 2712000    0.8382398   -4.1349856     1796.739  0.055209531  0.054693295            9 
 2713000   0.81248484   -4.0900946    1807.3763   0.05551592  0.054683332            4 
 2714000   0.81451146    -4.120115    1804.2124  0.055398317  0.054673361            9 
 2715000   0.79422986   -4.1063408     1799.592  0.055236095  0.054663393            4 
 2716000   0.82109209   -4.1388575    1797.5706  0.055153736  0.054653304            7 
 2717000   0.83658068   -4.1007371    1801.2637  0.055246709  0.054643207            6 
 2718000   0.82979821   -4.1189549    1800.6503  0.055207576  0.054633095            4 
 2719000   0.83912092   -4.1186558     1801.037  0.055199124  0.054623007            6 
 2720000   0.80990738   -4.1147134    1807.4114  0.055374123  0.054613042            4 
 2721000   0.82404917   -4.1070752    1803.4957  0.055233851  0.054603055            3 
 2722000   0.83557011   -4.1259628    1797.0938  0.055017566  0.054593159            8 
 2723000    0.8224509   -4.0991572    1800.8014  0.055110827  0.054583148            7 
 2724000   0.81786999   -4.1417817    1803.9016  0.055185437  0.054573188            3 
 2725000   0.83555597    -4.100765    1807.3954  0.055272029  0.054563186            3 
 2726000   0.79017187   -4.1234516    1806.6344   0.05522849  0.054553193            3 
 2727000   0.79605134   -4.1245673    1803.7568  0.055120303  0.054543246            9 
 2728000   0.80371349   -4.1153381    1807.2324  0.055206269  0.054533414            4 
 2729000   0.80359331   -4.1227216    1801.5739  0.055013249   0.05452342            4 
 2730000   0.82863717   -4.1268965    1803.6398   0.05505616  0.054513525            2 
 2731000    0.8329113   -4.1073429    1804.7318  0.055069322  0.054503463            5 
 2732000   0.80646515   -4.0952916    1806.7319  0.055110174  0.054493576            7 
 2733000   0.82376176   -4.1225268    1808.1039  0.055131844  0.054483513            6 
 2734000    0.8239788   -4.1346514    1813.8026  0.055285374   0.05447359            5 
 2735000   0.80284942   -4.1106133    1808.7102      0.05511  0.054463574            7 
 2736000   0.82614939   -4.1205252    1807.4673  0.055052002  0.054453721            3 
 2737000   0.81128336    -4.138955    1808.8381  0.055073624  0.054443803            3 
 2738000   0.80417163   -4.1389127    1804.2514   0.05491391  0.054433779           11 
 2739000   0.82160746   -4.1301943    1808.5739  0.055025372  0.054423861           12 
 2740000   0.81972067   -4.1372216    1813.3563   0.05515074  0.054414043            4 
 2741000   0.79090526   -4.1158679    1803.5482  0.054832427  0.054404064            4 
 2742000   0.82454472   -4.1342122    1810.3585  0.055019405  0.054394082            4 
 2743000   0.79999307   -4.1408415    1811.9385  0.055047347  0.054384189            3 
 2744000   0.78203711   -4.1225938    1812.8968  0.055056391  0.054374374            7 
 2745000   0.82688167   -4.1304297    1808.0186  0.054888239  0.054364611            5 
 2746000   0.80457136   -4.1282639    1810.9302   0.05495661  0.054354839            9 
 2747000   0.80822479   -4.1548101     1807.435  0.054830572  0.054345025            4 
 2748000   0.82270116   -4.1151491    1816.8192  0.055095196  0.054335084            5 
 2749000   0.80730617   -4.1351654     1815.392  0.055031891   0.05432537            4 
 2750000    0.8054167   -4.1223792    1818.4561  0.055104731  0.054315528            2 
 2751000   0.81273679   -4.1255598    1815.9811  0.055009726  0.054305683            7 
 2752000    0.8033516   -4.1203236    1813.7684  0.054922734  0.054295809            7 
 2753000   0.81086448   -4.1149018    1818.0174  0.055031402  0.054285845           11 
 2754000   0.81569942   -4.1554957    1813.8614  0.054885663   0.05427607            3 
 2755000   0.81115893   -4.1228383    1818.0415  0.054992181  0.054266311            6 
 2756000   0.81843729   -4.1169296    1812.7826  0.054813214   0.05425657            3 
 2757000   0.82354065   -4.1094093    1815.3855  0.054872009  0.054246736            6 
 2758000   0.81060487    -4.126063    1811.0982  0.054722571  0.054236911            3 
 2759000   0.79119928   -4.1300509    1815.7367  0.054842838  0.054227028            5 
 2760000   0.79875576   -4.1384351    1812.0214  0.054710791  0.054216962            7 
 2761000   0.82504709   -4.1130771    1817.1686   0.05484633  0.054207018            6 
 2762000   0.80700837   -4.1396676    1818.9371  0.054879832  0.054197054            4 
 2763000   0.81269161   -4.1191516    1824.8919  0.055039568  0.054187079            5 
 2764000   0.80837283    -4.126782     1816.942  0.054779969  0.054177139            4 
 2765000   0.82510486   -4.1342216    1821.3591  0.054893282  0.054167199            2 
 2766000   0.79353092    -4.139079    1821.8136  0.054887129  0.054157212            4 
 2767000   0.80370918    -4.135623    1819.3585  0.054793352  0.054147283            7 
 2768000   0.81010364   -4.1165653    1819.4735  0.054777019   0.05413734            2 
 2769000    0.8055723    -4.121771    1816.8094  0.054677061  0.054127342            4 
 2770000   0.81838424   -4.1274786    1823.5294  0.054859489  0.054117403            5 
 2771000   0.80469542   -4.1195768    1823.9961  0.054853726  0.054107653            3 
 2772000   0.80663247   -4.1222986    1821.2144  0.054750311  0.054097853            6 
 2773000   0.81119588   -4.1111259    1822.2966  0.054763089  0.054087964           14 
 2774000   0.80462108     -4.14319    1825.9602  0.054853405   0.05407823            2 
 2775000   0.83991944   -4.1241149    1824.1882  0.054780425  0.054068445            3 
 2776000    0.8154685   -4.0937668    1825.1491  0.054789537  0.054058595            4 
 2777000   0.78909985    -4.155246      1818.96  0.054584084  0.054048683            6 
 2778000   0.79165143    -4.141286     1825.565  0.054762568  0.054038657            4 
 2779000   0.80221027   -4.1515453    1822.7999  0.054659946  0.054028758            7 
 2780000   0.79651505   -4.1224782    1828.5446  0.054812488  0.054018899            4 
 2781000   0.79967893   -4.1346635     1825.873  0.054712723  0.054009007            4 
 2782000   0.80248386   -4.1366953    1824.7087   0.05465818   0.05399914            6 
 2783000   0.81002711   -4.1322259    1824.8971  0.054644181  0.053989227            6 
 2784000   0.80106837   -4.1304604    1827.4233  0.054700171  0.053979482            3 
 2785000   0.79953359   -4.1342224    1825.9338  0.054635962  0.053969724           16 
 2786000   0.80536563   -4.1205195    1824.3871  0.054570085  0.053960069            7 
 2787000   0.80708559   -4.1242809    1837.7136  0.054948976  0.053950418            7 
 2788000   0.82753149    -4.126007     1825.564  0.054566116   0.05394069            5 
 2789000   0.80923944   -4.1444196    1830.3538  0.054689667   0.05393094            4 
 2790000   0.79847438   -4.1409585    1829.7597  0.054652321   0.05392139            2 
 2791000   0.79865776   -4.1534475    1835.4093  0.054801423  0.053911757            7 
 2792000   0.82023598   -4.1322835    1834.3564  0.054750371  0.053902178            5 
 2793000   0.79833426   -4.1520321    1832.3368  0.054670509  0.053892576            6 
 2794000   0.80392532   -4.1264032    1834.0037  0.054700659  0.053883077            6 
 2795000   0.79824083   -4.1379332    1836.5826  0.054757977  0.053873644            3 
 2796000   0.80318545   -4.1455987    1839.1871  0.054816021  0.053864081            5 
 2797000   0.81869879   -4.1198384    1833.8584  0.054637659  0.053854549            2 
 2798000   0.81208216   -4.1697184     1833.298  0.054601442  0.053844976            4 
 2799000   0.79672016    -4.139523    1835.5625  0.054649354  0.053835442            5 
 2800000   0.80141092   -4.1379477    1836.6566  0.054662398  0.053826044            5 
 2801000   0.79760547   -4.1442531    1837.8914  0.054679621  0.053816553            4 
 2802000    0.8074092    -4.136826     1843.258  0.054819711  0.053807046            3 
 2803000   0.80933545   -4.1302354    1834.4004  0.054536817  0.053797533            6 
 2804000   0.80447676   -4.1365633    1834.8858  0.054531794  0.053788103            4 
 2805000    0.8032775   -4.1547417    1839.9585  0.054663058  0.053778748            7 
 2806000   0.81036271   -4.1221221    1838.8727  0.054611329  0.053769269            7 
 2807000    0.8093778   -4.1537902    1840.5957  0.054643027  0.053759778            3 
 2808000   0.81140558   -4.1467762    1841.1846  0.054641042   0.05375036            5 
 2809000   0.80506423   -4.1458367    1833.6907  0.054399272  0.053740776            9 
 2810000    0.8135547   -4.1454755    1842.7663  0.054649061  0.053731302            2 
 2811000   0.82266012   -4.1594383    1841.1635  0.054582104  0.053721832            5 
 2812000    0.8082682   -4.1665879    1836.9855  0.054438878  0.053712422            3 
 2813000   0.78236257   -4.1478642      1841.03   0.05453934  0.053702803           10 
 2814000   0.80363538   -4.1212295    1840.1445  0.054493737  0.053693161            3 
 2815000   0.81774153   -4.1329478    1838.6268  0.054429449   0.05368359            3 
 2816000   0.79667925   -4.1470779    1839.9102  0.054448101  0.053674094            5 
 2817000   0.81103894   -4.1292316    1843.4432  0.054533287  0.053664444            4 
 2818000   0.80590757   -4.1471527    1842.6169  0.054489499  0.053654774            7 
 2819000   0.80803476   -4.1690521    1841.0944  0.054425162  0.053645146            3 
 2820000   0.79491864    -4.138266    1841.4954  0.054417712  0.053635542            7 
 2821000   0.80335905   -4.1698131    1838.9457  0.054323102  0.053625835            3 
 2822000    0.8051909   -4.1101865    1847.2238  0.054548305  0.053616308            2 
 2823000   0.81346553   -4.1473212    1843.3434  0.054414434  0.053606803            5 
 2824000    0.7831796   -4.1476192    1837.8196  0.054232165  0.053597159           12 
 2825000   0.79616021   -4.1520731    1842.5048  0.054351175  0.053587484            4 
 2826000    0.7833447   -4.1767447    1842.2006   0.05432297  0.053577781            4 
 2827000   0.80892122   -4.1748208    1843.0075  0.054327542   0.05356814            5 
 2828000   0.80367622    -4.148871    1840.9907  0.054248901  0.053558377            5 
 2829000   0.78038438   -4.1325695    1840.5272  0.054216072   0.05354871            3 
 2830000   0.80576582   -4.1526692    1846.7684  0.054380695  0.053538941            3 
 2831000   0.79377737    -4.152869    1846.2696  0.054346804   0.05352907            5 
 2832000   0.80277633   -4.1656402    1839.0531  0.054115264  0.053519245            6 
 2833000   0.79656946   -4.1640856    1838.0538  0.054066767   0.05350935            6 
 2834000   0.80629207   -4.1406944    1848.0462  0.054341514   0.05349951           10 
 2835000   0.80021528   -4.1511243    1846.0844  0.054264679  0.053489699            6 
 2836000   0.78701462   -4.1624648    1840.9866  0.054095751  0.053479857            4 
 2837000   0.80757631    -4.140514    1849.4404  0.054325002  0.053470123            5 
 2838000   0.79256894   -4.1353043    1845.3559  0.054185925  0.053460378            4 
 2839000   0.80623865   -4.1894956    1841.9004  0.054065411  0.053450576            5 
 2840000   0.80233154   -4.1756449    1839.5594  0.053977681   0.05344079            6 
 2841000    0.7956748   -4.1514345    1849.2129  0.054241844  0.053430961            5 
 2842000   0.80366352   -4.1421213     1850.945  0.054273546  0.053421151            4 
 2843000   0.79725232   -4.1328316    1846.5228  0.054124834   0.05341142            6 
 2844000    0.7971425   -4.1569023       1845.6  0.054078763  0.053401645            3 
 2845000   0.78911389   -4.1656753    1842.6366  0.053972952  0.053391839            7 
 2846000   0.79372152   -4.1605726    1846.2402  0.054059504  0.053382118            8 
 2847000   0.80851477   -4.1357509    1844.8935  0.054001098  0.053372333           12 
 2848000   0.80669357    -4.134275    1847.5074  0.054058619  0.053362594           14 
 2849000   0.80361136   -4.1514224    1850.3594  0.054123066  0.053352788            3 
 2850000   0.78223456   -4.1728353    1847.8114  0.054029573  0.053342965            4 
 2851000   0.80299988   -4.1391801    1852.0801  0.054135395  0.053333266            4 
 2852000   0.79463036   -4.1740544     1842.475  0.053835757  0.053323438            8 
 2853000   0.80923764   -4.1451956    1845.8905  0.053916651   0.05331357           14 
 2854000   0.78917657   -4.1711396    1846.1717  0.053905971  0.053303715            8 
 2855000   0.78924545   -4.1675938    1845.9179  0.053879681   0.05329377            5 
 2856000   0.78941769   -4.1655909    1850.9549  0.054007788  0.053283758            9 
 2857000   0.78014691   -4.1532605    1842.1422  0.053731833  0.053273635            3 
 2858000   0.79730448   -4.1611525    1850.6786  0.053961938  0.053263691            5 
 2859000   0.79749603   -4.1395621    1848.9975  0.053894062  0.053253708            6 
 2860000   0.78773427   -4.1494718    1851.2521  0.053940912  0.053243812            5 
 2861000   0.79119481   -4.1724876    1852.3732  0.053954713  0.053233982            5 
 2862000   0.77273418   -4.1747359    1855.9309  0.054039452  0.053224118            3 
 2863000   0.77881043   -4.1442899    1852.7552   0.05392814  0.053214312            6 
 2864000   0.79229853     -4.17808    1846.9616  0.053740735  0.053204338            4 
 2865000   0.77597361   -4.1696307    1846.6931  0.053714168  0.053194414            3 
 2866000   0.78490772   -4.1628636    1846.2528  0.053682625  0.053184511            6 
 2867000   0.80940526    -4.155927    1853.0026  0.053860091  0.053174669            6 
 2868000   0.79987726   -4.1688014    1852.3844   0.05382335  0.053164703            6 
 2869000   0.80519462   -4.1745667    1852.1421  0.053797551  0.053154824            4 
 2870000   0.82740125   -4.1505555    1847.3978  0.053641052  0.053144895            6 
 2871000   0.80338759   -4.1883913    1847.5211  0.053625946  0.053134959            5 
 2872000   0.78208683   -4.1615585    1850.0915  0.053681856   0.05312505            5 
 2873000   0.78373932   -4.1553401     1856.602  0.053852013   0.05311522            4 
 2874000   0.80284029   -4.1683497    1848.0525  0.053585379   0.05310541            5 
 2875000    0.7978182   -4.1444655    1855.9924  0.053796882  0.053095519            3 
 2876000    0.7852288   -4.1787325    1850.9122  0.053630976  0.053085719            4 
 2877000   0.78211275    -4.177832    1852.7121  0.053664469  0.053075773            4 
 2878000    0.7890699   -4.1490896    1860.4074  0.053868642  0.053065917            5 
 2879000   0.79538126   -4.1536815    1855.1566  0.053697944  0.053056168            5 
 2880000   0.78870646   -4.1763389    1854.3068  0.053654711  0.053046359            5 
 2881000   0.80768439   -4.2062497    1852.2766  0.053577362  0.053036483            3 
 2882000   0.79039254   -4.1343785      1864.38  0.053908743  0.053026616            5 
 2883000   0.79410619   -4.1612003    1859.1712  0.053739484    0.0530169            5 
 2884000   0.80068382    -4.172045    1853.0516  0.053544024  0.053007085           16 
 2885000   0.78955448   -4.1510791    1858.8061  0.053691684  0.052997343            7 
 2886000   0.80023953   -4.1932998    1855.9715  0.053591232  0.052987476            6 
 2887000    0.7822622   -4.1439127    1863.1543  0.053779999  0.052977615            5 
 2888000   0.78142096   -4.1788271    1857.0888  0.053586358  0.052967865            7 
 2889000   0.78719365   -4.1718809    1856.0317  0.053537317  0.052958018            7 
 2890000   0.78480582    -4.162198    1864.6783  0.053768116  0.052948091            4 
 2891000   0.79997818   -4.1633393    1855.5783  0.053487209  0.052938129            5 
 2892000   0.78691061   -4.1781701    1859.9846  0.053595683  0.052928222            3 
 2893000   0.79535795   -4.1678061    1857.0699    0.0534932  0.052918213            5 
 2894000   0.79809253   -4.1746625      1860.27  0.053566863  0.052908262            3 
 2895000   0.77685812   -4.1597582    1853.2593  0.053346553  0.052898303            4 
 2896000   0.78432781    -4.165526    1855.8815  0.053403587  0.052888305            4 
 2897000   0.78090217   -4.1881541     1852.404  0.053285122  0.052878401            6 
 2898000   0.79592859   -4.1714602    1857.8856  0.053424362  0.052868289            2 
 2899000   0.78562198   -4.1644816    1858.6244  0.053427171  0.052858237            7 
 2900000   0.79711939   -4.1934256    1853.4957  0.053261371  0.052848214            9 
 2901000   0.77373446   -4.1875676     1861.989  0.053486986  0.052838191            4 
 2902000   0.78260116   -4.1875962    1860.3021  0.053420116  0.052828169            6 
 2903000   0.77327637   -4.1658586    1862.7093  0.053470814  0.052818146            7 
 2904000    0.7811502   -4.1842673    1852.3508  0.053155154  0.052808084            7 
 2905000   0.78882087   -4.1513027    1862.0334  0.053414614  0.052798058            5 
 2906000   0.79926612   -4.1450426    1867.4257  0.053550862  0.052788185            4 
 2907000   0.79705088   -4.1849931    1862.7943  0.053399677  0.052778319            8 
 2908000   0.80573863   -4.1711902    1863.8566  0.053411755  0.052768438            5 
 2909000   0.78579735   -4.1770802    1861.6732  0.053330846  0.052758367            4 
 2910000   0.77617269   -4.1850106    1862.0994  0.053324725  0.052748384            6 
 2911000   0.78397145   -4.1606028     1864.282  0.053368889  0.052738386           10 
 2912000   0.78186345   -4.1894124    1861.5802  0.053273244  0.052728384            4 
 2913000   0.79402612   -4.1421791    1866.7182  0.053401941  0.052718386            4 
 2914000     0.790102   -4.1655626    1864.5898  0.053322745  0.052708409            6 
 2915000   0.79082497   -4.1926272    1859.1997  0.053150362  0.052698486            7 
 2916000   0.77234799   -4.1851027    1867.6339  0.053373168   0.05268849            4 
 2917000   0.78279431   -4.1565629    1868.9313  0.053391936  0.052678363            9 
 2918000   0.78732607   -4.1614245    1867.0224  0.053319124   0.05266835            5 
 2919000   0.77823183   -4.1948148    1861.1296  0.053132625  0.052658298            3 
 2920000    0.7924521   -4.1830429    1862.2451  0.053146265  0.052648055            3 
 2921000   0.77426818    -4.154144    1867.9581  0.053291057  0.052638072            5 
 2922000    0.7875801   -4.1411307    1863.5781  0.053147904  0.052628106            3 
 2923000   0.80710107   -4.1728372    1866.6847   0.05321829  0.052618096            5 
 2924000   0.78602698   -4.1553177    1868.5207  0.053252413  0.052608091            4 
 2925000   0.79749189   -4.1779868    1871.0972  0.053307611   0.05259817            3 
 2926000    0.7947783   -4.1981128    1863.7138  0.053079112  0.052588261            6 
 2927000   0.78807048   -4.1766427    1862.9448  0.053039086  0.052578319            5 
 2928000   0.79704942    -4.178533     1861.525  0.052980562  0.052568189            5 
 2929000   0.78822972   -4.1757541    1864.0025  0.053032961  0.052558107            5 
 2930000   0.76695689   -4.1622618    1873.1655  0.053275469  0.052548216            4 
 2931000   0.78131067    -4.164051    1870.7031  0.053187282  0.052538337            4 
 2932000   0.78868611   -4.1822314    1869.0531  0.053122247  0.052528432            3 
 2933000   0.78948691   -4.2234535    1862.9043  0.052929434  0.052518406            3 
 2934000   0.80044589   -4.1672518    1872.3517  0.053179723  0.052508511           12 
 2935000   0.79541914   -4.1994285    1867.7832  0.053031892  0.052498507            6 
 2936000   0.78895933   -4.1753846    1863.2429  0.052884958  0.052488448            5 
 2937000   0.77875316   -4.1738994    1863.1383  0.052863987  0.052478411            4 
 2938000   0.77082366   -4.1528422    1872.5548  0.053113083  0.052468338            4 
 2939000   0.77999012   -4.1954887    1868.5403  0.052981181  0.052458223            7 
 2940000   0.78724007   -4.1647044    1863.4601  0.052819165  0.052448199            6 
 2941000    0.7788292   -4.1806411     1868.809  0.052952765  0.052438257           10 
 2942000   0.77336293   -4.1720478    1872.7784  0.053047203  0.052428178            7 
 2943000   0.78690167   -4.1915366    1871.5343  0.052993948  0.052418118            5 
 2944000   0.75892414   -4.1765231    1871.6256  0.052978533  0.052408014            4 
 2945000   0.77088121   -4.1899369    1871.5936  0.052959639  0.052398004            6 
 2946000   0.79540421   -4.1951625    1876.9084     0.053092  0.052387946            6 
 2947000   0.77989147    -4.176961    1870.3834  0.052889475  0.052378063            6 
 2948000   0.77592792   -4.1527854    1872.1677  0.052921972   0.05236803            9 
 2949000   0.76900703   -4.1802876    1872.2068  0.052905133   0.05235792            5 
 2950000   0.79664347   -4.1725784    1868.0663  0.052770234  0.052348002            3 
 2951000   0.77278215   -4.2005841    1869.8774  0.052803497   0.05233783            5 
 2952000   0.76984987   -4.1853876    1864.0699  0.052621665  0.052327602            4 
 2953000   0.79303516   -4.1803374    1876.1012  0.052943369  0.052317519            4 
 2954000   0.78611728    -4.187026    1871.5741  0.052797736  0.052307205            3 
 2955000   0.78932825   -4.1725953    1874.0541  0.052849806  0.052297005            7 
 2956000   0.75785478   -4.1838855    1872.5243  0.052788799  0.052286845            3 
 2957000   0.78005071   -4.1918702    1872.4484   0.05276881   0.05227675           10 
 2958000   0.77537026   -4.1783194    1871.2351  0.052716787  0.052266567            4 
 2959000   0.77246618   -4.1698262    1875.5243  0.052819768  0.052256457            3 
 2960000   0.79511412    -4.166581    1875.3631  0.052797385  0.052246313            5 
 2961000   0.78695717    -4.186309     1876.934  0.052823765  0.052236163            6 
 2962000   0.78128196   -4.1836306    1872.1338  0.052670881   0.05222595            6 
 2963000   0.76716539   -4.1607229    1875.1531  0.052738022  0.052215899            7 
 2964000   0.78772485   -4.1990519    1874.6678  0.052706586   0.05220581            3 
 2965000   0.75969244   -4.1890104    1875.5561  0.052713775  0.052195675            5 
 2966000   0.78245278   -4.1940972    1877.7265  0.052756983  0.052185624            8 
 2967000   0.77302891   -4.1943396    1880.1391  0.052806963  0.052175661            5 
 2968000   0.77079613   -4.1887512     1881.493  0.052827185  0.052165638            6 
 2969000   0.76809363    -4.201536    1876.4465  0.052667748  0.052155637            7 
 2970000   0.75893426   -4.1886067    1882.7202  0.052826044  0.052145581            3 
 2971000   0.76615479    -4.192042    1880.1223  0.052735394  0.052135567            2 
 2972000    0.7799875   -4.1919838    1880.1535  0.052718524  0.052125581            5 
 2973000    0.7868192   -4.1989672    1883.3465  0.052790293  0.052115769            6 
 2974000   0.77304057   -4.1888036    1878.2631  0.052630103  0.052105845            7 
 2975000   0.77622499   -4.1922188    1880.7603  0.052682362  0.052095933            3 
 2976000    0.7666604   -4.1698738    1883.1633  0.052731948  0.052086054            8 
 2977000   0.79518527   -4.1677952    1883.3743  0.052720141  0.052076199            4 
 2978000   0.78818693   -4.1712225    1877.5496  0.052539446  0.052066299            9 
 2979000   0.75874029   -4.1786241    1879.8197  0.052585311   0.05205631            5 
 2980000   0.78608249   -4.1817092     1879.147  0.052548852  0.052046324            3 
 2981000   0.77397295   -4.1877578    1884.1676  0.052671576  0.052036441            5 
 2982000   0.78925459   -4.1855572    1880.9623  0.052564338   0.05202656            5 
 2983000   0.77308602   -4.2033219     1883.545  0.052618868  0.052016642            4 
 2984000   0.77722121   -4.1844923    1879.6762  0.052493192  0.052006681            3 
 2985000   0.76615112   -4.1955115    1886.5096  0.052666376  0.051996784            3 
 2986000   0.77733383   -4.2072316     1881.587  0.052511359  0.051986804            3 
 2987000   0.78563842   -4.1834591    1887.7461  0.052665611  0.051976724            4 
 2988000   0.77923223   -4.1608116    1878.7227  0.052396327  0.051966794            3 
 2989000   0.77696592   -4.2035633    1882.5883   0.05248657  0.051956774            3 
 2990000   0.76500241   -4.1817374    1886.1864  0.052569298  0.051946725            2 
 2991000   0.77614309   -4.2119168    1884.8033  0.052513188  0.051936615            3 
 2992000    0.7920645   -4.1969633    1880.5906  0.052378304  0.051926435            5 
 2993000   0.77398088   -4.1785152    1883.4008  0.052439046   0.05191638            4 
 2994000   0.78832158   -4.1887193    1885.4907  0.052479702  0.051906315            7 
 2995000   0.77504223    -4.183986    1883.5285  0.052407581   0.05189625            5 
 2996000   0.78776772   -4.1965476    1887.0229  0.052487286  0.051886131            2 
 2997000   0.78660354   -4.2058042    1888.1285  0.052500515  0.051875958            3 
 2998000   0.78271039    -4.181888    1884.4813  0.052381624  0.051865796            6 
 2999000   0.77618384   -4.2139851    1882.4717  0.052308316  0.051855595            5 
 3000000   0.75630849   -4.1892846    1888.8122  0.052467005  0.051845365            5 
 3001000   0.78093737   -4.2023884    1880.4858  0.052218311  0.051835147            5 
 3002000   0.78095385   -4.2178276    1884.1701   0.05230319  0.051824958            7 
 3003000   0.77003808   -4.2036823     1884.342  0.052290542  0.051814762            5 
 3004000   0.76779949   -4.2164534    1879.4737  0.052138085   0.05180457            7 
 3005000   0.77013164   -4.1752165    1890.4669  0.052425593  0.051794389            4 
 3006000   0.76727016   -4.2158243     1880.479  0.052131265  0.051784314            6 
 3007000   0.76330973   -4.2113371     1882.663  0.052174455  0.051774008            6 
 3008000   0.75941214   -4.2079141     1888.803   0.05232721  0.051763743            7 
 3009000   0.75966632   -4.2109561    1879.7133  0.052058084  0.051753613            7 
 3010000   0.77167355   -4.1818136    1891.1186  0.052356551  0.051743401            5 
 3011000   0.77637038   -4.2036388    1885.5626  0.052185394  0.051733191            8 
 3012000   0.78373669   -4.2055934    1880.8747  0.052038367  0.051722984            8 
 3013000   0.76154977    -4.219516    1884.0238  0.052108191  0.051712686            7 
 3014000   0.77539684   -4.2129172     1885.414  0.052129342  0.051702457            5 
 3015000   0.76734941   -4.2079167    1878.1561  0.051911446  0.051692175            7 
 3016000   0.75366584   -4.2007379    1884.2904  0.052063726  0.051681867            7 
 3017000   0.77129044   -4.2210418    1880.6459  0.051945805  0.051671593            5 
 3018000   0.75867193   -4.2191041    1885.5652  0.052064425  0.051661255            5 
 3019000   0.77334685   -4.2128064    1890.1179  0.052172847  0.051650986            4 
 3020000   0.76937173   -4.2006697    1888.2124  0.052102991  0.051640809            4 
 3021000   0.75851941   -4.2179389    1890.2497  0.052141941  0.051630687           10 
 3022000   0.76548808    -4.210565    1888.5463  0.052077717  0.051620556            6 
 3023000   0.77186017   -4.1978493     1892.352  0.052165398  0.051610334            4 
 3024000   0.77203378   -4.2066188    1889.8552  0.052079342  0.051600119            8 
 3025000   0.78601258   -4.1709791     1892.504  0.052135096  0.051589937            5 
 3026000   0.76331656   -4.2061538    1887.7427  0.051986745   0.05157976            3 
 3027000   0.74794206   -4.1967969     1891.327  0.052068247  0.051569624            4 
 3028000   0.77190948    -4.202737    1888.3032  0.051967834  0.051559413            9 
 3029000   0.78646691   -4.2240002    1892.8949  0.052077004  0.051549235            4 
 3030000   0.76065381   -4.2131525    1890.7937  0.052002027  0.051538942            3 
 3031000   0.77417113   -4.1778184    1887.6282   0.05189784  0.051528635            3 
 3032000   0.76912533   -4.2160011    1884.6335  0.051798415  0.051518313            8 
 3033000   0.76492375   -4.1997642    1884.8895  0.051788368  0.051508078            6 
 3034000   0.75274413   -4.2212639    1888.6557  0.051874744  0.051497723            6 
 3035000   0.78154318   -4.1927268    1881.3851  0.051658022  0.051487466           10 
 3036000   0.77121907    -4.193203    1892.5273  0.051946841   0.05147724            5 
 3037000   0.77099836   -4.1954995    1894.3628  0.051980101   0.05146698            6 
 3038000   0.77422359   -4.2217816    1888.6458  0.051806172  0.051456641           12 
 3039000    0.7655611   -4.2194612    1890.6389  0.051843779  0.051446339            6 
 3040000   0.77069578   -4.1965423    1891.8334  0.051859468  0.051435946            3 
 3041000   0.78023693   -4.2091212    1891.4121  0.051830869  0.051425625            6 
 3042000   0.77123344   -4.2136167    1888.0278  0.051721121  0.051415287            7 
 3043000   0.76199074   -4.2062114    1894.3717  0.051877853  0.051405054            6 
 3044000   0.78260175   -4.2076093    1890.7304  0.051761127  0.051394734            4 
 3045000   0.77824071   -4.2126224    1884.9344  0.051585506  0.051384345            6 
 3046000   0.77051204   -4.2048126     1891.686  0.051753283  0.051373938            8 
 3047000   0.76926386   -4.1979922    1894.8207  0.051822029  0.051363688            2 
 3048000    0.7573821   -4.2097589    1892.8481  0.051751095  0.051353394            5 
 3049000   0.76733318   -4.2074489    1901.3932  0.051967673  0.051343147            3 
 3050000    0.7626301   -4.2123898    1891.4326  0.051678487   0.05133286            3 
 3051000   0.76597547   -4.2248737    1891.1267  0.051653192  0.051322573            6 
 3052000   0.76331627   -4.2205504    1897.2542  0.051803576   0.05131233            4 
 3053000   0.76300038   -4.2206356    1896.6123  0.051769088  0.051301975            6 
 3054000   0.78026783   -4.2174851    1903.2173  0.051932364  0.051291834            6 
 3055000   0.77189526   -4.2135843    1893.2896  0.051644562  0.051281532            3 
 3056000   0.76275245    -4.230703    1891.2351  0.051571637  0.051271208           11 
 3057000   0.79318462   -4.2245004    1895.8683  0.051681068  0.051260856           10 
 3058000   0.76859311   -4.2181921    1891.9255  0.051556724  0.051250533            5 
 3059000   0.77694131   -4.2148097    1897.2186  0.051684062  0.051240207            4 
 3060000   0.77467686   -4.2042847    1894.6163  0.051596305  0.051229915            4 
 3061000   0.74880164   -4.2117943    1896.3496  0.051626635  0.051219613            6 
 3062000   0.76826253    -4.200794    1895.9963  0.051600161  0.051209271            3 
 3063000   0.75344419   -4.2106272     1893.565  0.051517166  0.051198882            2 
 3064000   0.75315815   -4.2101084    1892.7617  0.051478505  0.051188516            5 
 3065000    0.7654044   -4.2366534    1894.6793  0.051513847  0.051178113            9 
 3066000   0.77147254   -4.2311956     1898.744  0.051607524  0.051167623            3 
 3067000   0.76476928   -4.2154243    1895.9987  0.051516103  0.051157288            4 
 3068000   0.76347323   -4.2172714     1896.132  0.051502934  0.051146844            5 
 3069000   0.75427173   -4.2197203    1892.9375  0.051399411  0.051136596            6 
 3070000   0.74917187   -4.2148458    1897.4117  0.051504117  0.051126308            4 
 3071000   0.76036568   -4.2110029    1905.4957  0.051706711  0.051115962            6 
 3072000   0.76393194   -4.2050029    1898.3274  0.051495425  0.051105625            7 
 3073000   0.76315206   -4.2124745    1903.2471  0.051612082  0.051095332            4 
 3074000   0.75611348   -4.2097065    1904.3989  0.051626514  0.051085064            4 
 3075000   0.74279009   -4.2278003    1902.8292  0.051567186  0.051074739            6 
 3076000   0.74409595   -4.2404217    1897.7425  0.051412617  0.051064339            6 
 3077000    0.7530934   -4.2188025    1903.8291  0.051560748  0.051053787            3 
 3078000   0.77646479   -4.2382173    1900.8594  0.051463597  0.051043279            3 
 3079000    0.7604048   -4.2313802    1901.0831  0.051452937  0.051032988            5 
 3080000   0.75506459   -4.2231448    1893.5483  0.051232368  0.051022669            6 
 3081000   0.74629212   -4.2243334    1897.2297  0.051315311  0.051012294           18 
 3082000   0.77921975   -4.2399645      1896.08  0.051267576  0.051001925            4 
 3083000   0.75128897   -4.1976679    1900.4264   0.05136843  0.050991508            7 
 3084000   0.76784236   -4.2369494    1899.9688  0.051339407  0.050981081            3 
 3085000   0.74563032   -4.2251831    1903.1475   0.05140863  0.050970604            6 
 3086000   0.72516314   -4.2528996    1897.3839  0.051236332  0.050960133            6 
 3087000   0.74673129   -4.1997333     1899.468  0.051275996  0.050949636            3 
 3088000   0.76457487   -4.2441273    1899.9146  0.051271443  0.050939196            4 
 3089000   0.76909241     -4.21439    1896.4171  0.051160491  0.050928742            5 
 3090000   0.75491865   -4.2317866    1899.3358  0.051222648  0.050918305            7 
 3091000   0.76225317   -4.2250025    1900.1591  0.051228274  0.050907871            6 
 3092000   0.77893581   -4.1859718    1901.8319  0.051256788  0.050897459            4 
 3093000   0.76058907   -4.2377087     1900.951  0.051216484  0.050887122           12 
 3094000    0.7443164    -4.224231    1902.7271  0.051247768  0.050876706            7 
 3095000   0.76434993   -4.2252622     1907.712  0.051365429  0.050866333            5 
 3096000   0.74303743   -4.2399413    1905.2126  0.051281561  0.050855968            4 
 3097000   0.75507034   -4.2281901    1905.5639  0.051274457  0.050845532            4 
 3098000   0.74750446   -4.2634193     1894.212  0.050952549  0.050835098           14 
 3099000   0.73992773   -4.2286906     1907.539  0.051294477   0.05082462            4 
 3100000   0.74236212   -4.2445442    1902.6438  0.051146339  0.050814153            5 
 3101000   0.75138318   -4.2067553    1904.3733  0.051176322  0.050803702            4 
 3102000   0.76311182   -4.2338789    1903.1369   0.05112661  0.050793333            6 
 3103000   0.74674767   -4.2200526    1901.3723  0.051062744  0.050782885            4 
 3104000   0.77051337   -4.2174879    1909.8164  0.051272992  0.050772533            4 
 3105000   0.75702726   -4.2058504    1907.1751  0.051185591  0.050762187            3 
 3106000    0.7526979   -4.2160326    1913.0969  0.051327991  0.050751814            6 
 3107000   0.75947987   -4.2170553    1904.4935  0.051080719  0.050741464            6 
 3108000   0.76673869   -4.2329946    1909.1179  0.051188276  0.050731157            9 
 3109000   0.77095382   -4.2291174    1906.4926  0.051101442  0.050720867            4 
 3110000   0.76215448    -4.220088    1900.3389  0.050920121   0.05071058            8 
 3111000   0.76001597   -4.2410564    1907.8224   0.05110421  0.050700216            5 
 3112000   0.73885992   -4.2276581    1906.7025  0.051057801  0.050689874            8 
 3113000   0.74928238   -4.2206542    1906.8581  0.051045564   0.05067943            5 
 3114000   0.75447677   -4.2247407    1909.9266  0.051111287  0.050669078            3 
 3115000    0.7475194   -4.2008416    1911.1283  0.051127027   0.05065878            7 
 3116000   0.76770842   -4.2299771    1913.6455   0.05117794  0.050648499            6 
 3117000   0.75664977   -4.2456589    1903.3184  0.050885424  0.050638111            2 
 3118000   0.74832637   -4.2205322    1914.7826  0.051175502  0.050627832            3 
 3119000   0.74008046     -4.21943    1904.9768  0.050897104  0.050617584            3 
 3120000   0.75831345   -4.2303937    1910.4085  0.051025867  0.050607408            7 
 3121000   0.75976784   -4.2319123    1911.6313  0.051042168  0.050597111            8 
 3122000   0.74665157   -4.2119407    1912.4793  0.051048455  0.050586816           11 
 3123000   0.75090599   -4.2272441    1913.8655  0.051069097  0.050576639            9 
 3124000   0.73992394   -4.2331125     1909.062  0.050924616    0.0505664            3 
 3125000   0.76309748   -4.2216434    1909.0689  0.050908503  0.050556152            3 
 3126000    0.7416699   -4.2323832    1907.3211  0.050845626  0.050545803            9 
 3127000   0.75578831   -4.2241818    1911.2542   0.05093418  0.050535555           11 
 3128000   0.73933515   -4.2345391    1913.5421   0.05097885   0.05052545            2 
 3129000      0.74019   -4.2266448     1913.027  0.050948839  0.050515219           10 
 3130000   0.76467723   -4.2430198    1909.1972  0.050830595   0.05050497            6 
 3131000   0.76903442   -4.2316526    1904.7481  0.050695947  0.050494639            6 
 3132000    0.7620909   -4.2235008    1916.4799  0.050991908   0.05048436            5 
 3133000   0.73603469    -4.242516    1911.6915  0.050848268  0.050474067            6 
 3134000   0.76190396   -4.2480498    1914.8974  0.050917289  0.050463727            7 
 3135000   0.76177444   -4.2696499    1909.4128  0.050755257  0.050453406            6 
 3136000   0.75002031   -4.2626721    1912.4068  0.050818633  0.050443075            4 
 3137000   0.75900234   -4.2230996    1919.4174  0.050988668   0.05043276            3 
 3138000   0.76444025   -4.2571751    1913.9184  0.050826387  0.050422531            5 
 3139000    0.7403938   -4.2470559    1912.3378  0.050768234  0.050412319            4 
 3140000   0.76090068   -4.2239384    1918.7879  0.050923247  0.050402048            3 
 3141000   0.77152148   -4.2394174     1907.911  0.050618459  0.050391653            6 
 3142000   0.76412472   -4.2402367    1915.3517  0.050799695  0.050381357            6 
 3143000   0.73661496   -4.2361736    1909.6265  0.050631734  0.050370985            8 
 3144000     0.772887   -4.2382894    1911.6641  0.050669638  0.050360613            4 
 3145000    0.7329403   -4.2578046    1912.6151  0.050678724  0.050350286           10 
 3146000   0.75635336   -4.2222418    1914.8232  0.050721105  0.050339906            2 
 3147000   0.75751982   -4.2410255    1912.5164  0.050643903   0.05032951            9 
 3148000   0.74104853   -4.2217088    1916.8351  0.050742141  0.050319165            3 
 3149000   0.74633444    -4.210806    1914.5912  0.050666646  0.050308763            8 
 3150000    0.7561116   -4.2382543    1913.3467  0.050617638  0.050298486            5 
 3151000   0.74331992   -4.2354572    1914.8634  0.050641686  0.050288043            6 
 3152000   0.73404673   -4.2555374    1907.3297   0.05042644  0.050277803            8 
 3153000   0.73878945   -4.2499905    1912.1278  0.050537261  0.050267341            8 
 3154000   0.74084473   -4.2417819    1916.7891  0.050644396  0.050256837            6 
 3155000   0.77115658   -4.2629696    1907.0609  0.050371391  0.050246263            6 
 3156000   0.73764756   -4.2608953    1906.7643  0.050347601  0.050235776            7 
 3157000   0.76194569    -4.259748    1908.0005  0.050364284  0.050225233           11 
 3158000   0.72961316    -4.273623     1906.469  0.050307921  0.050214771            5 
 3159000   0.75265123   -4.2226081     1910.618  0.050401445  0.050204193            5 
 3160000   0.74326032   -4.2199083    1917.2937  0.050561544  0.050193656            6 
 3161000   0.74738224   -4.2498638    1909.9931  0.050353081  0.050183094            3 
 3162000   0.75457932     -4.23974      1916.31  0.050503636  0.050172506            6 
 3163000   0.75282991   -4.2659968    1912.0258  0.050374798  0.050161969            6 
 3164000   0.74691533   -4.2178146    1915.0827  0.050439389  0.050151395            6 
 3165000   0.74522199     -4.26796    1916.6925  0.050465837  0.050140775            6 
 3166000   0.75605712   -4.2341972    1921.4599  0.050575382   0.05013018            5 
 3167000   0.74120263   -4.2605649    1907.0035   0.05017902  0.050119646            6 
 3168000   0.74278742   -4.2364905    1918.5198  0.050466115  0.050109004            4 
 3169000   0.75245166   -4.2549746    1917.2813  0.050417621  0.050098483            5 
 3170000   0.74686504     -4.26123    1912.8012  0.050283944  0.050087932            5 
 3171000   0.73802566   -4.2373458    1918.8941  0.050428206   0.05007735            8 
 3172000   0.75041395   -4.2340233    1914.3257  0.050292289   0.05006677           14 
 3173000   0.75127967   -4.2212194    1923.7914   0.05052504  0.050056242            4 
 3174000    0.7489302   -4.2517081    1915.8285  0.050300056  0.050045638            5 
 3175000   0.73289372    -4.236112    1916.0081  0.050288927  0.050035031            8 
 3176000   0.74773535   -4.2673225    1911.5748   0.05015677  0.050024384            7 
 3177000   0.71114045   -4.2479859    1911.5725  0.050140922  0.050013711            6 
 3178000   0.73013853   -4.2550446    1919.9964  0.050346035  0.050003132            7 
 3179000   0.74182256   -4.2552838    1917.9336  0.050276124  0.049992532            4 
 3180000   0.74514693   -4.2497724    1917.8257  0.050257487  0.049982037            8 
 3181000   0.74067053    -4.257333    1913.3203   0.05012366  0.049971486           17 
 3182000   0.73271059   -4.2518397    1919.8999   0.05028022  0.049960905           10 
 3183000   0.74426913    -4.243714    1915.8098  0.050157341  0.049950316            5 
 3184000   0.74575629   -4.2769756    1919.8903  0.050248384  0.049939768            6 
 3185000   0.74648908   -4.2304948    1922.7543  0.050307542  0.049929151            8 
 3186000   0.73430423   -4.2509243    1920.0965  0.050222235  0.049918517           11 
 3187000   0.74014349   -4.2867464    1917.6541  0.050142613     0.049908            9 
 3188000   0.73941451   -4.2489215    1917.7951   0.05013057  0.049897512            4 
 3189000   0.73321067   -4.2646787    1922.3365  0.050233524  0.049887057            8 
 3190000   0.73722498   -4.2724201    1913.9253  0.049998048  0.049876369            3 
 3191000   0.72951059   -4.2665343    1917.7977  0.050083508  0.049865802            5 
 3192000   0.73423578    -4.245614    1917.7171  0.050065713  0.049855123            5 
 3193000   0.73793827   -4.2361497    1919.4113  0.050094249  0.049844623            4 
 3194000   0.72683132   -4.2402122    1921.8098  0.050141144  0.049834029            4 
 3195000    0.7480428   -4.2550905    1915.3662  0.049957387  0.049823383            5 
 3196000   0.73484782   -4.2615215    1915.5626  0.049946876  0.049812694            7 
 3197000   0.73252554   -4.2792993     1922.517  0.050112526  0.049802122           11 
 3198000    0.7312099   -4.2455396    1924.0454  0.050136685   0.04979146            5 
 3199000   0.73391915   -4.2455754    1917.4978  0.049950449  0.049780846            4 
 3200000   0.73189981   -4.2437245    1919.1227  0.049977152  0.049770192            5 
 3201000   0.74971019   -4.2410685    1919.0255  0.049959011  0.049759543            4 
 3202000   0.73703866   -4.2557005     1915.723  0.049857459  0.049748889            3 
 3203000   0.73729789   -4.2644125    1920.6296  0.049969549    0.0497383            5 
 3204000   0.73740352   -4.2617958    1918.8331  0.049907229   0.04972759            4 
 3205000   0.75734777    -4.249474    1919.4324   0.04990724  0.049716899            5 
 3206000   0.73675059   -4.2596052    1925.1549  0.050040416  0.049706149            9 
 3207000   0.74375476   -4.2440622    1923.9601  0.049993765  0.049695505            3 
 3208000   0.73398932    -4.249565     1921.018  0.049901756  0.049684924            8 
 3209000   0.72297862   -4.2422605    1924.1465  0.049967449  0.049674275            2 
 3210000   0.74469036   -4.2589728    1924.1755  0.049952634  0.049663679            7 
 3211000    0.7358639    -4.250563    1927.0077   0.05001058  0.049652905            5 
 3212000   0.73433624   -4.2772143     1921.939  0.049863507  0.049642276            5 
 3213000   0.72485258   -4.2700345    1919.6972  0.049789845  0.049631681            7 
 3214000   0.75587317    -4.255314    1925.5585  0.049926324  0.049621054            5 
 3215000   0.74415986   -4.2835465    1920.1989  0.049771875  0.049610468            4 
 3216000   0.73722082   -4.2501379    1918.4232  0.049710384  0.049599778            5 
 3217000   0.74331705   -4.2431739    1930.9746  0.050020064  0.049589257            3 
 3218000   0.75588993   -4.2711067    1921.2163  0.049751821  0.049578663            7 
 3219000   0.74724704   -4.2706483    1923.0334  0.049783406  0.049568138            6 
 3220000   0.72288183   -4.2506956    1931.6782  0.049991671  0.049557562            9 
 3221000   0.75138884   -4.2520745    1930.6465  0.049949459  0.049547022            3 
 3222000   0.74042746   -4.2816471    1924.1669   0.04976637  0.049536542            9 
 3223000   0.75144707   -4.2569132    1926.7678  0.049818177  0.049526028            8 
 3224000   0.73609363   -4.2856425     1923.261  0.049712082  0.049515513            5 
 3225000   0.72264564     -4.24773    1921.8725  0.049660788  0.049504961            3 
 3226000   0.73965417   -4.2475072     1926.869  0.049774463  0.049494336            6 
 3227000   0.73399683   -4.2444225    1928.3372  0.049796952  0.049483813            5 
 3228000   0.75126523   -4.2702276    1926.0506  0.049722496  0.049473317            9 
 3229000   0.72791774   -4.2543775    1925.2229  0.049685736  0.049462762            3 
 3230000   0.73357962    -4.271194    1928.3848  0.049751931  0.049452242            5 
 3231000    0.7415135    -4.263274    1925.5882  0.049664403  0.049441699            5 
 3232000   0.74527245   -4.2587824      1926.93  0.049683634  0.049431188            7 
 3233000   0.74571737   -4.2445216    1931.8362  0.049794727  0.049420756            4 
 3234000    0.7411625   -4.2570083    1936.3791  0.049896389  0.049410401            6 
 3235000   0.71500661   -4.2785143     1933.888  0.049816795  0.049399974            8 
 3236000    0.7212122   -4.2466229    1932.9856  0.049778162  0.049389618            5 
 3237000   0.70729065   -4.2609471    1928.4424  0.049645824  0.049379195            7 
 3238000    0.7410818    -4.266648    1928.5323  0.049632807  0.049368803            5 
 3239000   0.72710799   -4.2469622    1929.9875  0.049654923   0.04935849            7 
 3240000   0.74032176   -4.2582334    1931.1418  0.049669284    0.0493481            5 
 3241000   0.72934659   -4.2587481    1934.1442  0.049731157  0.049337749            5 
 3242000   0.73821103   -4.2659971    1937.1919  0.049794158  0.049327376           12 
 3243000   0.72399885   -4.2635323    1930.0899  0.049596308  0.049316967            9 
 3244000   0.72362361   -4.2730871    1934.5156  0.049694708  0.049306554            6 
 3245000   0.72855081   -4.2665849    1935.7987  0.049712344  0.049296211            3 
 3246000   0.74080736   -4.2703911    1927.2172  0.049476721  0.049285866            5 
 3247000   0.73747108   -4.2509024    1934.2641  0.049642338  0.049275401            5 
 3248000   0.72562898   -4.2560225    1931.5889  0.049558417   0.04926503            6 
 3249000   0.73550454   -4.2721315    1938.7471  0.049726765  0.049254674            7 
 3250000   0.72513349    -4.274368    1935.5159  0.049628612  0.049244333            8 
 3251000   0.73886964   -4.2647012    1939.7992  0.049723141  0.049234066            3 
 3252000   0.73859366   -4.2572293    1934.9607  0.049583865  0.049223759            7 
 3253000   0.73765025   -4.2792428    1934.0163  0.049544428  0.049213452            4 
 3254000      0.74332   -4.2838116    1934.2315  0.049534714  0.049203158            5 
 3255000    0.7401582   -4.2609025    1933.8988  0.049510977  0.049192804           11 
 3256000    0.7211563   -4.2684348    1934.1624  0.049502517  0.049182423           20 
 3257000   0.74850819   -4.2470932    1941.4721  0.049674345  0.049172065            8 
 3258000   0.74292881   -4.2292481    1943.5263   0.04971164  0.049161836            5 
 3259000   0.72862081   -4.2654592    1938.6124  0.049570737  0.049151594           21 
 3260000   0.71803823   -4.2789604     1936.972  0.049513599  0.049141259            7 
 3261000   0.72585553   -4.2710422    1937.2592  0.049505755  0.049130992            6 
 3262000   0.72317926   -4.2701887    1941.5305  0.049599696  0.049120746            7 
 3263000    0.7319743     -4.28034    1937.2571  0.049475358  0.049110469            6 
 3264000   0.72118715   -4.2391468    1939.2733  0.049511676  0.049100187            6 
 3265000   0.73203242   -4.2731635     1944.549  0.049631165  0.049089863            6 
 3266000   0.73481361   -4.2636492    1941.6562  0.049542156   0.04907954            8 
 3267000   0.73439618   -4.2568709    1938.5732  0.049448353  0.049069315           10 
 3268000   0.74011725    -4.258382    1940.6057  0.049485049  0.049059032            7 
 3269000   0.73620575   -4.2822976    1937.6739  0.049395174  0.049048755           10 
 3270000   0.72394516   -4.2743001     1943.526  0.049529205   0.04903841            8 
 3271000   0.72159104   -4.2774571    1940.4615   0.04943599  0.049028054           10 
 3272000   0.72303641   -4.2705321    1941.5201  0.049447842  0.049017754            5 
 3273000   0.73263091   -4.2970048    1933.7844  0.049235777  0.049007411            6 
 3274000   0.73046241   -4.2694578    1937.9558  0.049326914  0.048997114            4 
 3275000   0.72481441   -4.2371558    1941.9269  0.049412899  0.048986881            7 
 3276000   0.72399172   -4.2983376    1942.0034  0.049399761  0.048976555            4 
 3277000   0.72854769   -4.2853745    1939.7768  0.049328063  0.048966311            6 
 3278000    0.7529049   -4.2603336    1945.6889  0.049463313  0.048956049            8 
 3279000   0.72289358   -4.2775086    1943.6537  0.049396505  0.048945733            5 
 3280000   0.72751047   -4.2736942    1943.1321  0.049368195  0.048935326           14 
 3281000   0.71497729   -4.2657455    1946.1311  0.049429318  0.048924972            4 
 3282000   0.72715354   -4.2929503    1943.1625  0.049338881  0.048914635            5 
 3283000   0.73323035   -4.2834481    1935.5767    0.0491313  0.048904219            8 
 3284000   0.73257427    -4.280808    1942.7888   0.04929935  0.048893789            6 
 3285000      0.72566   -4.3043086    1939.5353   0.04920181  0.048883338            7 
 3286000   0.73806792   -4.2774249    1938.9622  0.049172301  0.048872879            5 
 3287000   0.71627659   -4.2961914    1941.6661  0.049225893  0.048862491            4 
 3288000    0.7208401   -4.2889933    1943.9341  0.049268403  0.048852123            5 
 3289000   0.72361845   -4.3106137    1937.1028  0.049080338  0.048841698            5 
 3290000   0.71221782    -4.276906    1940.2267  0.049144546  0.048831164            4 
 3291000   0.73360376   -4.2988269    1942.2614  0.049181135  0.048820779            4 
 3292000   0.71463625   -4.2665509    1939.4477  0.049094971  0.048810336            6 
 3293000   0.71470824   -4.2690982    1940.4768  0.049106105  0.048799973            5 
 3294000   0.72576803    -4.291643    1948.3316   0.04928991  0.048789581           25 
 3295000   0.71052764   -4.2638626    1942.7497  0.049133781  0.048779218            5 
 3296000   0.73358285   -4.3149726    1941.1082   0.04907737  0.048768786            5 
 3297000   0.72852753   -4.3050662    1939.9013  0.049031982  0.048758279            6 
 3298000   0.71885913   -4.2810845    1939.7767  0.049013966  0.048747836            7 
 3299000   0.73762048   -4.2656214    1940.1155  0.049007665  0.048737491            8 
 3300000   0.73066021   -4.2946235    1942.2371  0.049046392  0.048727032            4 
 3301000   0.71038336   -4.2820357    1942.0768  0.049027486  0.048716607            6 
 3302000   0.71487527   -4.2855163    1948.8765  0.049184245  0.048706177            4 
 3303000   0.73078643   -4.2776968    1946.5718  0.049111207  0.048695907            4 
 3304000   0.74636089    -4.264351    1952.2157  0.049238693  0.048685491            5 
 3305000   0.71986742   -4.3137553    1941.0463  0.048942165  0.048675114            6 
 3306000    0.7210739    -4.284641    1942.5135  0.048964346  0.048664635            8 
 3307000   0.71229674   -4.2738171    1947.1284  0.049065829  0.048654145            6 
 3308000    0.7001924   -4.2973974    1941.5117  0.048909505  0.048643677            6 
 3309000   0.71970539   -4.3066217    1943.9954  0.048957273  0.048633233            6 
 3310000   0.72122904   -4.2919328    1944.0044   0.04894271  0.048622663            7 
 3311000   0.72238072   -4.2964798    1944.5758  0.048942309  0.048612253            7 
 3312000    0.7275411   -4.2868566     1942.096  0.048865138  0.048601821            7 
 3313000   0.72762485   -4.2968919    1945.3317  0.048931776  0.048591394           16 
 3314000   0.71957876   -4.2565344    1946.9971   0.04895889   0.04858094            4 
 3315000   0.73092858   -4.2793395    1948.7777  0.048988882  0.048570577            7 
 3316000   0.71835157   -4.2699585    1946.6996  0.048921883  0.048560199            3 
 3317000   0.71959524   -4.2867682    1942.4596  0.048800613  0.048549821            6 
 3318000   0.71920987     -4.30514     1944.669  0.048841395  0.048539366            4 
 3319000   0.69885037    -4.295127    1944.2284  0.048815618  0.048528949            5 
 3320000   0.73209299   -4.2973589    1941.8209  0.048740485  0.048518436            6 
 3321000   0.72700039   -4.2909281    1944.9535  0.048804414  0.048508021            6 
 3322000   0.71112947   -4.3059506    1947.0598  0.048842559  0.048497546            8 
 3323000   0.70664911   -4.2894367    1943.3529    0.0487349  0.048487048            5 
 3324000   0.72161592   -4.2896736    1944.8669  0.048758196  0.048476646            3 
 3325000   0.72924262    -4.266089    1948.7166  0.048840016  0.048466292            6 
 3326000   0.72594878   -4.3016535    1943.4671  0.048693804  0.048455917            6 
 3327000   0.71422296   -4.2707058     1950.829  0.048863566  0.048445528            6 
 3328000   0.72140157    -4.300027    1947.8776   0.04877498  0.048435195            6 
 3329000   0.72090432   -4.2992071    1947.7731  0.048757713  0.048424732            6 
 3330000   0.71933971   -4.2896197    1946.6938  0.048716062  0.048414272            7 
 3331000   0.71972222   -4.3084198    1948.5601  0.048748127  0.048403808            6 
 3332000   0.72014735   -4.3117126    1939.6489  0.048510626  0.048393315            5 
 3333000   0.71226133   -4.3101501    1942.8667  0.048576526  0.048382867            6 
 3334000   0.70826339   -4.2711597    1946.7403  0.048658776  0.048372327            4 
 3335000   0.71243625   -4.2721634    1950.4238  0.048736227  0.048361851            6 
 3336000   0.71719214   -4.2737835    1948.1781   0.04866552  0.048351386            9 
 3337000   0.72899905   -4.3001909    1946.9593    0.0486205  0.048340969            6 
 3338000   0.72174412   -4.2972797    1945.5905  0.048571761   0.04833056            7 
 3339000   0.72076611   -4.3065382    1950.8858  0.048689373  0.048320153            8 
 3340000   0.71824465   -4.2964235    1949.0567  0.048629159  0.048309808            4 
 3341000   0.73683651   -4.3019425    1953.1379  0.048716399  0.048299418            9 
 3342000   0.71589556   -4.3083294    1945.0273  0.048499583   0.04828904            8 
 3343000    0.7195455   -4.2836394    1949.5819  0.048598612  0.048278691            3 
 3344000   0.71150416   -4.3019719    1953.5053   0.04868185  0.048268423            5 
 3345000   0.71344592   -4.2991992    1957.8438   0.04877538  0.048258165            4 
 3346000   0.72025154   -4.3064807    1950.5967  0.048580313  0.048247898            7 
 3347000   0.72593863   -4.3166414    1946.6219  0.048466834  0.048237554            4 
 3348000   0.71391089   -4.2897661    1950.9357   0.04855973  0.048227131           12 
 3349000   0.71101558   -4.2771671    1950.9241  0.048544941  0.048216841            4 
 3350000   0.70647163   -4.2878857    1955.1385  0.048635285  0.048206549            5 
 3351000   0.71330823   -4.3085558    1952.5361  0.048556056   0.04819623            8 
 3352000   0.70995255   -4.3078302     1948.169     0.048433  0.048185849           11 
 3353000   0.72740743   -4.2754802     1956.662  0.048629634  0.048175491           18 
 3354000    0.7127428    -4.299899    1947.0565  0.048376478  0.048165144            5 
 3355000   0.71397623   -4.3170808    1951.4847   0.04847205  0.048154842            5 
 3356000   0.69887529    -4.313064    1956.3957  0.048579552  0.048144508            3 
 3357000   0.71658532   -4.3107984     1951.519  0.048444022  0.048134155            5 
 3358000   0.72678679   -4.2943476    1954.6027  0.048506122   0.04812379            2 
 3359000   0.71603578   -4.2844475    1947.7294  0.048321162   0.04811344            5 
 3360000   0.71724947   -4.2882142    1955.8565  0.048508347  0.048103125            8 
 3361000   0.72155516   -4.2944109    1952.2374   0.04840418  0.048092754            5 
 3362000   0.70145316   -4.3267103    1957.2875   0.04851496  0.048082445            4 
 3363000   0.70666137   -4.3226131    1953.1479  0.048397955  0.048072106           12 
 3364000   0.71635824   -4.3169536     1949.535  0.048294071  0.048061863            8 
 3365000    0.7089164   -4.3037477    1953.3056  0.048373097  0.048051524           20 
 3366000   0.71202328   -4.2972294    1958.1923  0.048479706  0.048041201            8 
 3367000   0.72744296   -4.3232816    1959.7475  0.048503799  0.048031029            8 
 3368000   0.70525028   -4.2979251    1960.7579  0.048514397  0.048020704            5 
 3369000   0.72989192   -4.3307005    1952.2179  0.048288758  0.048010419            8 
 3370000    0.7005735   -4.3296022    1954.7972  0.048338209  0.048000083           10 
 3371000   0.70898721    -4.310796    1956.5381  0.048366906  0.047989803            6 
 3372000   0.71222907   -4.3101078    1961.1289  0.048466017  0.047979538            4 
 3373000   0.72491704   -4.3291353    1960.0534  0.048425077   0.04796929            5 
 3374000   0.71925048   -4.3079287    1958.6499   0.04837606  0.047959161            3 
 3375000   0.71280824   -4.3134206     1955.802  0.048291407  0.047948948            5 
 3376000   0.70707052   -4.3069071    1953.2581  0.048214309  0.047938706            8 
 3377000   0.71296876   -4.2962685    1964.7692  0.048484088  0.047928524            5 
 3378000   0.70709948   -4.3203269      1965.58  0.048489738   0.04791839            8 
 3379000   0.71002678    -4.310647    1961.8972  0.048384562  0.047908162            6 
 3380000   0.70285188   -4.3156291    1962.7406   0.04839104  0.047897879            7 
 3381000   0.71230375   -4.3135333    1960.3395  0.048317546  0.047887761           11 
 3382000   0.71131124   -4.3035128    1960.5829  0.048309258  0.047877677           16 
 3383000   0.69444152    -4.319903    1958.2443  0.048237371  0.047867503            7 
 3384000   0.70597111   -4.2921916    1962.9576  0.048339184  0.047857362           13 
 3385000   0.72439213   -4.3025959     1968.897  0.048471122  0.047847277            6 
 3386000   0.69176175   -4.3226001    1963.5511  0.048325238   0.04783724            7 
 3387000   0.72119209   -4.3351376    1958.5867  0.048188828  0.047827249            4 
 3388000   0.70184092   -4.3232752    1966.2396  0.048362841  0.047817201            5 
 3389000   0.69915171   -4.3393884    1963.0875  0.048271061  0.047807142            8 
 3390000   0.71252351    -4.311029    1965.7001  0.048321044  0.047797002            6 
 3391000   0.70930281   -4.3105142    1966.6126  0.048329221   0.04778698           14 
 3392000   0.70622905   -4.3109792    1969.1731  0.048377878   0.04777693            6 
 3393000   0.68601478   -4.3138703    1967.3417  0.048318639  0.047766878            5 
 3394000   0.71094233   -4.3154392    1964.8461  0.048243127  0.047756839           13 
 3395000   0.71157784   -4.3116727    1971.4699  0.048391505  0.047746813            8 
 3396000   0.70392687   -4.3368111    1966.2971  0.048250321  0.047736847           10 
 3397000   0.72643252   -4.3024819    1970.0029  0.048327025  0.047726813            3 
 3398000   0.70297959   -4.3074742    1967.7846  0.048258401  0.047716796           12 
 3399000   0.72092991   -4.3048579    1972.8666    0.0483688  0.047706861            7 
 3400000    0.7053066   -4.3136306    1971.9873  0.048333023  0.047696888           11 
 3401000   0.70333963   -4.3244071    1968.7318  0.048239042  0.047686835            6 
 3402000   0.69062636   -4.3162028    1964.9364  0.048131893  0.047676786            4 
 3403000   0.70872995    -4.336852    1965.2782  0.048126118  0.047666702           14 
 3404000    0.7215261   -4.3290658     1963.637  0.048071802  0.047656634            6 
 3405000   0.70623649   -4.3253131    1970.4806  0.048225174  0.047646633            7 
 3406000   0.69955875   -4.3096318    1969.1827   0.04817926  0.047636618            7 
 3407000   0.70083274    -4.344962    1972.9462   0.04825717  0.047626622           10 
 3408000   0.70516349    -4.328605    1965.3898   0.04805824  0.047616516            4 
 3409000   0.70638898   -4.3365941    1962.4927  0.047973323  0.047606462            4 
 3410000   0.71343952   -4.3304349    1967.8036  0.048089043  0.047596384            6 
 3411000   0.71189962   -4.3298888    1974.9343  0.048249153  0.047586419            6 
 3412000   0.70528555   -4.3259709    1967.3027  0.048048621  0.047576359            5 
 3413000    0.7054665   -4.2999428     1973.192  0.048178338  0.047566396           11 
 3414000   0.70418648   -4.3179591    1973.1614  0.048163479  0.047556394           10 
 3415000   0.72734981   -4.3201974    1972.2995  0.048128344  0.047546441            7 
 3416000   0.70927714   -4.3373428    1967.4931  0.047997003  0.047536471            6 
 3417000   0.70811877   -4.3047562    1974.2133  0.048146846  0.047526435            4 
 3418000   0.71455449   -4.3501548    1967.1591  0.047960774  0.047516436           14 
 3419000   0.70227364   -4.3329102    1970.2429  0.048021908  0.047506356           15 
 3420000   0.70816116   -4.3331959    1974.5693  0.048113286  0.047496362            7 
 3421000   0.69908161    -4.353442    1966.3353  0.047898647  0.047486334           10 
 3422000   0.69283472   -4.3232342    1969.7115  0.047966869  0.047476247            7 
 3423000      0.68416    -4.315615    1976.9455  0.048128968  0.047466174            5 
 3424000   0.72018699   -4.3561059     1960.657  0.047718481  0.047456023            6 
 3425000   0.70836814   -4.2987302    1977.2497  0.048108265  0.047446029            6 
 3426000   0.69696305   -4.3347687    1968.6978  0.047886207  0.047436042            6 
 3427000   0.69748945   -4.3312004    1974.4467  0.048012031   0.04742598            6 
 3428000   0.69361264   -4.3058433    1970.2484  0.047895965  0.047415842            9 
 3429000   0.70600052   -4.3410449    1970.6568  0.047891922  0.047405818            6 
 3430000   0.69066245   -4.3191237    1977.7296  0.048049797  0.047395856            5 
 3431000    0.6988649   -4.3269491    1979.1829   0.04807109  0.047385883            4 
 3432000   0.69967259   -4.3099343    1969.4922   0.04782178   0.04737596            5 
 3433000   0.69798454    -4.310747    1973.9532  0.047916138  0.047366025            4 
 3434000    0.7000099   -4.3438478    1975.7445  0.047945653  0.047356021            5 
 3435000   0.68417485   -4.3352423    1975.0156  0.047914013  0.047345867            4 
 3436000   0.68266407   -4.3333854    1971.4046  0.047812491  0.047335732            5 
 3437000    0.6966043   -4.3448853    1969.2135  0.047745454  0.047325559            5 
 3438000   0.69659608   -4.3417121    1977.9395  0.047943074  0.047315493            8 
 3439000   0.70630671   -4.3170722      1972.46  0.047796355  0.047305437            5 
 3440000   0.70347458   -4.3190559    1971.3753  0.047756185   0.04729543           11 
 3441000    0.6973581    -4.319032    1976.0907  0.047856502  0.047285412            9 
 3442000   0.70525413   -4.3222552     1977.888  0.047886112  0.047275436            4 
 3443000   0.71072111   -4.3213248    1978.8348  0.047895121   0.04726546           12 
 3444000   0.70214309   -4.3239683    1978.1152  0.047863803  0.047255478            6 
 3445000   0.70641474   -4.3103282    1978.6602  0.047863092  0.047245518            6 
 3446000   0.69362643   -4.3122894    1981.4416  0.047916463  0.047235653           10 
 3447000   0.71131696   -4.3341175    1970.8785  0.047647193  0.047225733            3 
 3448000   0.69182412   -4.3434557    1976.7985  0.047776451  0.047215647            5 
 3449000   0.69520673    -4.334133    1980.1857  0.047844441  0.047205643           11 
 3450000   0.69756491   -4.3342842       1972.9   0.04765459  0.047195577           11 
 3451000   0.70292389   -4.3315316    1981.1693  0.047840463  0.047185555           11 
 3452000   0.69521796   -4.3332112    1971.9719  0.047604576  0.047175512            5 
 3453000   0.69873785   -4.3175857    1980.5741  0.047798391  0.047165449            5 
 3454000   0.68416838   -4.3365379    1976.1272  0.047677262  0.047155477            5 
 3455000   0.70344438   -4.3531536    1981.7851   0.04779993  0.047145467           10 
 3456000   0.71787334   -4.3504892    1976.7515  0.047664725  0.047135428            5 
 3457000   0.69431403   -4.3389054     1978.479   0.04769258  0.047125298           13 
 3458000   0.69644094   -4.3449269    1974.6505  0.047586526  0.047115253           16 
 3459000   0.69964313   -4.3444453    1978.9071  0.047675319   0.04710518            3 
 3460000   0.70071782   -4.3525802    1979.8529  0.047684319   0.04709508            8 
 3461000   0.70379374   -4.3389273    1980.3803   0.04768324  0.047085025            5 
 3462000   0.71131822   -4.3122557     1982.079  0.047710355   0.04707503            4 
 3463000   0.69774136   -4.3269214    1977.3571  0.047582952  0.047065015            4 
 3464000   0.69642827   -4.3202935    1978.9651  0.047607899  0.047055026            6 
 3465000   0.69201423    -4.335886    1981.1769  0.047647353  0.047045072            4 
 3466000   0.68277936   -4.3480392    1982.2854  0.047660258  0.047035037           10 
 3467000   0.69926211   -4.3330014    1972.6555  0.047415044  0.047024923            6 
 3468000   0.69911847   -4.3627279    1970.6792  0.047353882  0.047014801            9 
 3469000   0.68185087   -4.3502844    1976.0156  0.047468426  0.047004594           17 
 3470000   0.69035562   -4.3551254      1971.72  0.047351585  0.046994412            7 
 3471000   0.72772071   -4.3451385    1981.7071  0.047577718  0.046984317           10 
 3472000   0.70795292   -4.3360992    1974.8067  0.047398395  0.046974311            7 
 3473000   0.68916798   -4.3341915    1976.9094  0.047435201   0.04696428            5 
 3474000   0.70020051   -4.3288312    1979.2179   0.04747692   0.04695424            5 
 3475000   0.69432771    -4.329607    1978.5811  0.047447989  0.046944222            4 
 3476000   0.69037177   -4.3430994    1980.4788  0.047479834  0.046934139            7 
 3477000   0.70073702    -4.337312    1972.9627   0.04728604   0.04692414            5 
 3478000   0.69174116   -4.3242099    1978.4017  0.047402763  0.046914091            4 
 3479000   0.70874244   -4.3549164    1976.3771  0.047340642  0.046904038            6 
 3480000    0.6850146   -4.3516823     1984.327  0.047517408  0.046894032            6 
 3481000   0.68776651   -4.3613575    1978.3707  0.047361167  0.046883906            5 
 3482000   0.69711494   -4.3590255    1976.2276  0.047296276   0.04687382           13 
 3483000   0.68141585    -4.328307    1977.5921  0.047315344  0.046863732            6 
 3484000   0.70062824   -4.3378576    1979.7485  0.047353343  0.046853707            7 
 3485000   0.68831549   -4.3556937    1978.8344  0.047317896  0.046843627           15 
 3486000   0.69232381   -4.3475712    1975.7936   0.04723163  0.046833528            7 
 3487000   0.68395427   -4.3522385    1974.6997  0.047191945  0.046823447            5 
 3488000   0.69667472   -4.3248165    1977.4325  0.047243705  0.046813298            6 
 3489000   0.69819534   -4.3532181    1981.9154  0.047337237  0.046803194            5 
 3490000   0.68459401   -4.3470192    1980.6581  0.047293652  0.046793104            6 
 3491000   0.68487863   -4.3577678    1984.2071  0.047364822  0.046783072            8 
 3492000   0.69185981   -4.3256642    1987.5682  0.047431466  0.046773119            5 
 3493000   0.69920642   -4.3394442    1983.3371  0.047316947  0.046763091            3 
 3494000   0.69452323   -4.3654082     1981.472   0.04725892  0.046752998            7 
 3495000   0.68708119   -4.3555983    1981.9857  0.047257647  0.046742881            4 
 3496000    0.7086572   -4.3648992    1977.1156  0.047128041  0.046732772            6 
 3497000   0.69206827   -4.3358264    1972.6753  0.047008752  0.046722594           14 
 3498000   0.69188047   -4.3520046     1982.494  0.047229226  0.046712498            4 
 3499000   0.69792618   -4.3375993    1983.8371  0.047247716   0.04670245           11 
 3500000   0.69086084   -4.3423362    1988.3043  0.047340577  0.046692392            8 
 3501000   0.69577051   -4.3505871    1983.4065  0.047210475  0.046682327            7 
 3502000   0.69021553   -4.3413302    1982.6481  0.047178948  0.046672271            6 
 3503000   0.70057072   -4.3569392    1983.1581  0.047177611  0.046662249            9 
 3504000   0.70798905    -4.360168    1982.1577  0.047140356  0.046652244           12 
 3505000   0.68284807   -4.3525751    1984.5929  0.047184805  0.046642224            7 
 3506000   0.69562969   -4.3513161    1979.1548   0.04704209  0.046632191            4 
 3507000   0.70297282   -4.3765021    1977.3839  0.046986596  0.046622185           10 
 3508000    0.6878622    -4.344726    1983.4959  0.047118394  0.046612158            8 
 3509000   0.69090965   -4.3518958    1987.2048  0.047193047  0.046602137            8 
 3510000   0.69679075   -4.3137858    1991.8491  0.047289866  0.046592104           18 
 3511000   0.69004174   -4.3385217    1984.4734  0.047101335  0.046582071            6 
 3512000   0.68229372    -4.345408     1979.403  0.046967611  0.046571999            6 
 3513000   0.71297328   -4.3496603    1987.1356   0.04713767  0.046561979           10 
 3514000   0.70059376   -4.3349197    1979.8194  0.046950754  0.046551962            9 
 3515000   0.68457301   -4.3610353    1978.0639  0.046895778   0.04654187            6 
 3516000   0.71189276   -4.3645934    1985.8672  0.047067388  0.046531837           12 
 3517000   0.69999175   -4.3464246    1983.8129  0.047005329  0.046521724            7 
 3518000   0.67226149   -4.3435393    1984.5977  0.047010558  0.046511648            5 
 3519000   0.68760936   -4.3786011    1982.2325  0.046941187  0.046501549           10 
 3520000   0.68026202   -4.3444634    1983.2935  0.046952971  0.046491495            4 
 3521000   0.68175288   -4.3361882    1988.0529  0.047052279  0.046481459            8 
 3522000   0.68220158    -4.348371    1984.5718  0.046956554  0.046471347            5 
 3523000   0.68960568   -4.3465139    1982.6563  0.046897916  0.046461265            5 
 3524000   0.68779749   -4.3515082    1984.3146  0.046923821  0.046451184            5 
 3525000   0.69604162   -4.3466889     1987.664  0.046989692  0.046441194           18 
 3526000   0.69018145   -4.3445982    1990.5886  0.047045485  0.046431155            5 
 3527000   0.68375605   -4.3529397     1988.364  0.046979587  0.046421187            5 
 3528000   0.70556511   -4.3642624    1979.2027  0.046749876  0.046411121            8 
 3529000   0.68301438   -4.3414858    1987.8388  0.046940559   0.04640104           15 
 3530000   0.69038387   -4.3351759    1991.2365  0.047007472  0.046391041            6 
 3531000   0.69324627   -4.3505762    1988.4016  0.046927253  0.046381003            4 
 3532000   0.67671951   -4.3585962    1982.8018  0.046781846  0.046370966            9 
 3533000   0.70049557    -4.378358    1983.2701   0.04677965   0.04636089            6 
 3534000   0.68241518   -4.3489701    1986.6435  0.046845961  0.046350802           11 
 3535000   0.68857319   -4.3481911    1989.2502  0.046894159  0.046340711           11 
 3536000   0.68684046   -4.3558148    1984.1066  0.046759676  0.046330591            6 
 3537000   0.68979653   -4.3606766    1984.9267  0.046765779  0.046320388            8 
 3538000   0.67914638   -4.3689329    1981.9284  0.046681939  0.046310243            9 
 3539000   0.68521382   -4.3533507    1988.6238  0.046826407  0.046300092            7 
 3540000   0.67792266   -4.3656842    1989.7527  0.046839754  0.046290058            9 
 3541000   0.69648367   -4.3485807    1981.3718  0.046629291  0.046279918            8 
 3542000   0.68649477   -4.3680117     1984.906  0.046699276  0.046269777            7 
 3543000   0.67183039   -4.3663218    1987.6602  0.046750874   0.04625966            7 
 3544000   0.69099096   -4.3582547    1987.1886  0.046726595  0.046249612            6 
 3545000   0.69429599   -4.3364989    1992.4348  0.046836737  0.046239503            5 
 3546000   0.69212651   -4.3641916    1986.6337  0.046687199  0.046229445            7 
 3547000   0.69567378   -4.3603671    1989.8641  0.046749931  0.046219372            7 
 3548000   0.68226994   -4.3575499    1988.9069  0.046714273  0.046209273            5 
 3549000   0.69649321   -4.3723577    1987.6601  0.046671836  0.046199223            5 
 3550000   0.69718813   -4.3370547    1990.4189  0.046723449  0.046189232            7 
 3551000   0.67069035   -4.3650963    1992.7377  0.046764708  0.046179195            4 
 3552000   0.67415796   -4.3666549    1991.5514  0.046723709  0.046169118            7 
 3553000   0.67329702   -4.3448166    1983.6466  0.046525156  0.046159103           10 
 3554000   0.68907687   -4.3623405    1989.3381  0.046645519   0.04614905           26 
 3555000   0.68040985   -4.3917825    1984.6434   0.04652235  0.046138974           12 
 3556000   0.68963467   -4.3542253       1992.8  0.046700413  0.046128889           10 
 3557000   0.68079159   -4.3699802    1990.4766  0.046632851  0.046118829            4 
 3558000   0.67206978   -4.3782292    1986.6112   0.04652921  0.046108727            5 
 3559000   0.68917942   -4.3668262     1990.484  0.046606817  0.046098664            8 
 3560000   0.69539886   -4.3494839    1989.1546  0.046562607  0.046088632            7 
 3561000   0.68401559   -4.3549236    1994.3518  0.046671154   0.04607858            6 
 3562000   0.69789609   -4.3610229    1989.0714  0.046534516  0.046068525            4 
 3563000   0.67078877   -4.3832902    1992.9747  0.046612748  0.046058457           11 
 3564000     0.684024   -4.3398941    1991.8941  0.046574405  0.046048429           10 
 3565000   0.68058342   -4.3630222     1994.847  0.046630365  0.046038333            7 
 3566000   0.67447988   -4.3906779    1994.7014  0.046613887  0.046028276           11 
 3567000   0.67377206   -4.3555952    1994.1904   0.04658888  0.046018293            8 
 3568000   0.68249091   -4.3756993    1989.6705  0.046470255  0.046008243           15 
 3569000   0.70365274    -4.366299    1990.5704  0.046478247  0.045998071           14 
 3570000   0.67749955     -4.36667    1989.7333  0.046445689  0.045987979           17 
 3571000   0.67388576   -4.3619671    1990.3971  0.046448173  0.045977818            5 
 3572000   0.67330398   -4.3568054    1989.9629  0.046425039  0.045967682            7 
 3573000   0.67241465   -4.3728201    1991.3908   0.04644535  0.045957586            6 
 3574000   0.66261121   -4.3431818    1986.4836  0.046317934  0.045947477           19 
 3575000    0.6610241   -4.3676408    1992.9185  0.046454976  0.045937374            9 
 3576000   0.67728646   -4.3815381    1992.8093  0.046439441  0.045927282            5 
 3577000   0.68057082   -4.3659585    1992.3362  0.046415435   0.04591718            7 
 3578000   0.68589407   -4.3566171    1992.1981  0.046399248  0.045907013            4 
 3579000    0.6791362   -4.3552187    1992.8784  0.046402125  0.045896953            8 
 3580000   0.68156313   -4.3633074    1990.9278  0.046343756   0.04588683            5 
 3581000   0.68553894   -4.3690743    1990.9084  0.046330364  0.045876679            9 
 3582000    0.6714964   -4.3777006    1991.1963  0.046324128  0.045866601            5 
 3583000   0.67384826   -4.3756807    1993.7036  0.046369513  0.045856545           10 
 3584000   0.67703849   -4.3804671    1994.3426  0.046371433  0.045846467            5 
 3585000   0.69118099   -4.3645236    1996.8026  0.046415682  0.045836425            4 
 3586000   0.67842867   -4.3626432     1993.015   0.04631472  0.045826405            7 
 3587000    0.6902854   -4.3606144    1994.1088  0.046327219  0.045816334           14 
 3588000   0.67162951   -4.3429779    1997.6461  0.046396463  0.045806293            8 
 3589000   0.66858938   -4.3806045    1990.2643  0.046212136  0.045796267           11 
 3590000   0.68468287   -4.3396698    1994.3238  0.046293497  0.045786172           11 
 3591000   0.68007131   -4.3539513    1999.6329  0.046403809  0.045776119            9 
 3592000   0.66540643    -4.383333    1998.2892  0.046359715  0.045766116            4 
 3593000   0.66610726   -4.3877136    1995.4311  0.046280524  0.045756113            5 
 3594000   0.64799587   -4.3812177    1994.4312  0.046244464  0.045745979            5 
 3595000   0.68436205   -4.3635178    1993.5318  0.046210752  0.045735909           11 
 3596000   0.66254139   -4.3894422    1991.1836  0.046143484  0.045725915            5 
 3597000   0.68164757   -4.3649704    1997.5702  0.046278617  0.045715904            9 
 3598000   0.67938029    -4.376475    1995.2762  0.046212622  0.045705875            6 
 3599000   0.67226645   -4.3663726    1995.3861  0.046202327  0.045695693            8 
 3600000   0.68095626     -4.34781    1990.4755  0.046075821  0.045685628            4 
 3601000   0.67805431   -4.3510398     2001.867  0.046326645  0.045675606            5 
 3602000   0.67810497   -4.3686746    1995.5659  0.046168007  0.045665571            5 
 3603000   0.66790451   -4.3709096    1996.3965  0.046174402  0.045655572            9 
 3604000    0.6719393   -4.4032257    1998.8173  0.046217566  0.045645531            9 
 3605000   0.68092951   -4.3846648    1996.2402  0.046145173  0.045635526            7 
 3606000   0.67384146   -4.3723448    2000.6151  0.046233479  0.045625538            5 
 3607000   0.67887616   -4.3646559    1998.9342  0.046181827  0.045615613            4 
 3608000   0.68973586   -4.3842037     1998.193  0.046151907  0.045605612            7 
 3609000   0.65623304   -4.3949967    2001.2351  0.046209362  0.045595616           10 
 3610000   0.65976929   -4.4073067    1993.0121  0.046006744   0.04558558            7 
 3611000   0.68165789   -4.3856128    1993.0128  0.045994019  0.045575555            5 
 3612000   0.68431168   -4.3687637    1998.2503   0.04610212  0.045565502            7 
 3613000    0.6726756    -4.382172    2002.7657  0.046193507  0.045555481            7 
 3614000   0.67405876    -4.367932    2003.0992  0.046188415    0.0455455            5 
 3615000   0.68344699   -4.3786188    2002.7565  0.046167738  0.045535463            9 
 3616000     0.689546   -4.3491431    1995.7358  0.045993175  0.045525439            9 
 3617000   0.67944887   -4.3814075    1995.2913  0.045970217   0.04551543           12 
 3618000   0.67298091   -4.3678588     2001.204  0.046093697  0.045505484            5 
 3619000   0.67230646   -4.3781987    1999.7916  0.046048439  0.045495507            4 
 3620000   0.65801261   -4.4059984    1994.2852  0.045908959  0.045485507            9 
 3621000   0.66643951   -4.3814908     1994.142  0.045892985  0.045475449            9 
 3622000   0.67953877   -4.3935443    2004.6562  0.046122221  0.045465436            4 
 3623000    0.6645006   -4.3581566    2004.9915  0.046117203  0.045455472           13 
 3624000   0.68173565   -4.3763477    1998.3201  0.045951069  0.045445471           10 
 3625000   0.67030588   -4.3955045    1995.7962  0.045880373  0.045435457           13 
 3626000   0.67444878   -4.3950455    1999.0824  0.045943243  0.045425459            6 
 3627000   0.65800316   -4.3918855     1999.262  0.045934702  0.045415437            8 
 3628000   0.67386762   -4.3858428    1998.4487  0.045903361  0.045405445            5 
 3629000   0.67021823   -4.3866275    2001.5262  0.045961381  0.045395487            8 
 3630000   0.66605699   -4.3877199    1999.2269  0.045895934  0.045385519           28 
 3631000   0.67496346   -4.3835647    2003.1528  0.045973397  0.045375545           16 
 3632000   0.66835721   -4.3869484    2002.6581  0.045949387  0.045365555            8 
 3633000   0.67702585   -4.3649986    2006.1778  0.046017474  0.045355612           28 
 3634000   0.66961902   -4.3713505    2006.5221  0.046012707  0.045345656            8 
 3635000   0.67342977   -4.3895749    2000.4724  0.045861358  0.045335711            8 
 3636000   0.66883591   -4.3779704    2003.8482  0.045926113  0.045325766            6 
 3637000   0.67427702   -4.3990978    1996.6767  0.045749168  0.045315719            6 
 3638000   0.67928082   -4.3829083    1997.7798   0.04576186  0.045305702            5 
 3639000   0.67326378   -4.3964008    2000.2605  0.045806094  0.045295605            6 
 3640000   0.66949985   -4.3778755    2001.2788  0.045816821  0.045285651           11 
 3641000   0.66536661   -4.3887952    2002.2886  0.045827352  0.045275595            8 
 3642000   0.65961228   -4.3902048    1999.2989   0.04574636   0.04526564            9 
 3643000   0.69089235    -4.392217    1998.9419  0.045725635  0.045255612            8 
 3644000   0.66155406     -4.38618    2003.7421  0.045822863  0.045245553           10 
 3645000   0.65478198    -4.396053    1999.2356  0.045707262  0.045235499            5 
 3646000   0.67618147   -4.4125737    1995.1739  0.045601889  0.045225426           12 
 3647000   0.67982039   -4.4022334    1997.4175  0.045640652  0.045215337            8 
 3648000   0.66890499   -4.4092643    1999.6223  0.045678506  0.045205362           12 
 3649000   0.67229842   -4.3819485    2001.7738  0.045715122  0.045195377            7 
 3650000   0.67002702   -4.4009263    1996.8417  0.045589993  0.045185378           14 
 3651000   0.66600858   -4.3991393    2002.4383  0.045705247  0.045175383            7 
 3652000   0.67928482   -4.4166796    2002.9394  0.045704168  0.045165455           14 
 3653000   0.66548282   -4.3823815    2005.6122  0.045752627   0.04515553            5 
 3654000     0.658561    -4.391657    1998.4151  0.045575968  0.045145591           10 
 3655000   0.67265994    -4.400171     2004.691  0.045706588  0.045135557            6 
 3656000   0.67583114   -4.3936363    1996.9348  0.045517296  0.045125516           16 
 3657000   0.67684179   -4.3793148    2006.3292  0.045718923  0.045115468            5 
 3658000   0.65863644   -4.3760372    2006.9662  0.045720937  0.045105582            4 
 3659000   0.66472023   -4.3803802    2003.3141  0.045625264   0.04509561            4 
 3660000   0.67419959   -4.4199374    2000.7154  0.045553629  0.045085582            4 
 3661000   0.67404331   -4.3949928    2006.3167  0.045668685  0.045075531            6 
 3662000   0.67413654   -4.3953314      1999.53  0.045501774  0.045065495            7 
 3663000   0.66916738   -4.4139905     2003.582  0.045581537  0.045055439            7 
 3664000    0.6701597   -4.4076272    2004.7498  0.045595657  0.045045405           10 
 3665000   0.66619025   -4.3889536    2005.6762  0.045604279  0.045035458            6 
 3666000   0.66267543   -4.4038897    2002.7851   0.04552612   0.04502543           11 
 3667000   0.66143795   -4.3890742    2007.8996  0.045629934  0.045015476            9 
 3668000   0.66911243    -4.390772    2003.4774  0.045517026  0.045005508            4 
 3669000   0.67409235   -4.4088754    2001.7061  0.045464389  0.044995537            4 
 3670000    0.6744785   -4.3693627    2012.7327  0.045702378  0.044985574            4 
 3671000   0.67948836   -4.4053574    2007.0843  0.045561706  0.044975685            5 
 3672000   0.66371832   -4.3986403    2007.0287  0.045548037  0.044965757           13 
 3673000   0.65003339   -4.3956724    2008.0385  0.045558548  0.044955912            4 
 3674000   0.65945624   -4.3767994    2009.1205  0.045570689  0.044946013           10 
 3675000   0.65136961   -4.3753792    2009.7883  0.045573432  0.044936166            5 
 3676000   0.67294753   -4.4018045    2003.4128  0.045416504  0.044926258           10 
 3677000   0.66077945   -4.3970594    2005.4539   0.04545041  0.044916307           10 
 3678000   0.65415938   -4.4101382    2007.7001  0.045488946  0.044906411           13 
 3679000   0.65472228   -4.4261953    2004.3813  0.045401407  0.044896469            6 
 3680000   0.68145927   -4.4124219    2001.3803  0.045321111  0.044886498           14 
 3681000   0.65406699   -4.4034967    2008.1955  0.045463087  0.044876513           14 
 3682000   0.67643571   -4.4026212    2007.3753  0.045432178  0.044866457           11 
 3683000   0.66257556   -4.4088175    2007.9186  0.045432134  0.044856497            8 
 3684000   0.66007054   -4.4073735    2004.2699  0.045337266  0.044846527            6 
 3685000   0.67931385   -4.4074944    2006.4953   0.04537529  0.044836555            3 
 3686000   0.65808144   -4.4104049    2000.6624  0.045231109  0.044826605            8 
 3687000   0.66419197   -4.3993126    2009.8456    0.0454264  0.044816725            8 
 3688000   0.65579266   -4.3976469    2008.8839  0.045392351   0.04480687            9 
 3689000   0.67007258   -4.4023749    2006.7961  0.045332884  0.044796962            5 
 3690000   0.67021801   -4.4156006    2009.2252  0.045375455  0.044787092            7 
 3691000   0.66595172   -4.4012274    2011.8837  0.045423185   0.04477714            5 
 3692000   0.66253212   -4.4177384    2007.5592  0.045313272  0.044767193           12 
 3693000   0.65843744   -4.3958554    2006.4062  0.045274983   0.04475724            4 
 3694000   0.66808699   -4.4016706    2009.1368  0.045324328  0.044747324            5 
 3695000   0.65579309   -4.4131403    2007.0189  0.045264296  0.044737414            6 
 3696000   0.67568759   -4.3894227     2000.651  0.045108473  0.044727482            4 
 3697000   0.66984966   -4.4093497    2005.8131   0.04521263  0.044717571            5 
 3698000   0.63378615   -4.3863669    2014.8382  0.045403781  0.044707658            8 
 3699000   0.65614116   -4.4299581    2001.7242  0.045096066  0.044697673           13 
 3700000   0.64542924   -4.4361546    1999.7607  0.045039656  0.044687638            7 
 3701000   0.64585271   -4.4251669    2008.7579  0.045230071  0.044677643           16 
 3702000   0.66032601   -4.4140988    2003.4187  0.045097666  0.044667685            4 
 3703000    0.6586166   -4.3877236    2011.5503  0.045268482  0.044657725            9 
 3704000   0.65105636   -4.4038381    2013.4271  0.045298485  0.044647832            4 
 3705000    0.6573171   -4.4157722    2009.3132  0.045193728  0.044637862            6 
 3706000   0.65855995   -4.4105067    2009.7131  0.045190527  0.044627944            5 
 3707000   0.66732501    -4.412983    2008.9428  0.045161021   0.04461805           28 
 3708000   0.66028517   -4.3996542    2003.2653  0.045021245  0.044608111            7 
 3709000   0.64603112    -4.407394    2008.1767  0.045119455  0.044598239           16 
 3710000   0.66118865   -4.4296645    2002.8776  0.044988265  0.044588251            8 
 3711000   0.65830531    -4.419456    2009.7546   0.04513057  0.044578342           14 
 3712000   0.65163046   -4.4007472    2008.5687  0.045091791   0.04456843            8 
 3713000   0.65918442    -4.439327    2009.3797  0.045097848  0.044558489            5 
 3714000   0.65601783   -4.4036282    2010.3538   0.04510756  0.044548487            7 
 3715000   0.66232108   -4.4100045    2011.1255   0.04511273  0.044538623            8 
 3716000   0.65746672   -4.3828341    2019.1846  0.045281319  0.044528741            4 
 3717000   0.64823672   -4.4282405     2011.705  0.045101447  0.044518881           12 
 3718000   0.66201026   -4.4301389    2012.4823  0.045106739  0.044508918           13 
 3719000   0.65709167   -4.4170014    2013.0967  0.045108378  0.044499033            7 
 3720000   0.66763361   -4.4137667    2013.9464  0.045115287  0.044489147            6 
 3721000   0.64880109   -4.3990383    2012.3219   0.04506678    0.0444793            9 
 3722000   0.66613966   -4.4035599    2017.1032  0.045161722  0.044469453            7 
 3723000   0.65756332   -4.4075318    2011.9283  0.045033762   0.04445956           17 
 3724000   0.64374097   -4.4193045    2008.9228  0.044954413  0.044449672            9 
 3725000   0.64611172   -4.4197121    2010.5165  0.044977998  0.044439795            7 
 3726000   0.64693188   -4.4359673    2016.8806  0.045108262  0.044429899            5 
 3727000   0.66662119   -4.4091152    2013.9385  0.045030376   0.04442001            7 
 3728000   0.67285349   -4.4222934    2011.0424  0.044953559  0.044410086            5 
 3729000   0.66042972   -4.4047796    2010.4251  0.044927708  0.044400164           12 
 3730000   0.65413716   -4.4334923    2011.5526  0.044940854  0.044390196            9 
 3731000   0.65557895   -4.4243514    2011.3082  0.044923348  0.044380167            6 
 3732000   0.66112829   -4.4154169    2010.6603  0.044896844   0.04437016            5 
 3733000   0.64113488   -4.4079646    2016.2247  0.045009035  0.044360187            8 
 3734000   0.64879624   -4.4129134    2012.1342   0.04490569  0.044350202           13 
 3735000    0.6517841   -4.4195611    2014.5303  0.044947128  0.044340247            4 
 3736000   0.64986512   -4.4200273    2010.6687  0.044848962  0.044330334           16 
 3737000   0.65369824   -4.4159388    2008.0236  0.044777978  0.044320344            6 
 3738000   0.63192908   -4.4162406    2014.3241  0.044906457  0.044310417            6 
 3739000   0.66448306   -4.4178149    2010.1432  0.044801266  0.044300535            8 
 3740000   0.65808806    -4.423178    2011.5537  0.044820716   0.04429057            7 
 3741000   0.66281412   -4.4207184    2010.4185  0.044783446   0.04428062            4 
 3742000   0.65363815   -4.4195999    2018.1712   0.04494413  0.044270727            7 
 3743000   0.63798521   -4.4096158     2010.682  0.044765385  0.044260833            6 
 3744000   0.66424777   -4.4498015    2011.3783  0.044768926  0.044250882            6 
 3745000   0.64798026   -4.4240579    2009.5083  0.044715361  0.044240905            3 
 3746000   0.66424548   -4.4345586    2012.6501  0.044773316   0.04423094           11 
 3747000   0.65392279   -4.4165289    2016.7723  0.044853044   0.04422102            9 
 3748000   0.64915767   -4.4192832    2013.3068  0.044764025  0.044211122           13 
 3749000   0.65710166   -4.4257305    2017.3662  0.044842317  0.044201165            7 
 3750000   0.64852097   -4.4259774    2016.4416  0.044809812  0.044191291            6 
 3751000   0.64741758   -4.4417117    2017.6376  0.044824437   0.04418139            7 
 3752000   0.64240476   -4.4169223    2018.6051  0.044833979  0.044171556            8 
 3753000   0.65152144   -4.4204345    2013.2322   0.04470273  0.044161661            8 
 3754000   0.65344951   -4.4106604    2018.4013  0.044805569  0.044151802            7 
 3755000   0.65540458   -4.4508238    2014.1794  0.044699942  0.044141957           10 
 3756000   0.65360959    -4.413768    2018.5434  0.044784865  0.044132089            6 
 3757000   0.65017223   -4.4169019    2014.2611  0.044677959  0.044122254            9 
 3758000   0.64709084   -4.4237872    2016.8879   0.04472432  0.044112445            5 
 3759000   0.64526584   -4.4294555    2014.6796  0.044663465  0.044102575           16 
 3760000   0.66513684   -4.4233591    2013.5686  0.044626964  0.044092744            8 
 3761000   0.64684491   -4.4251314     2016.282   0.04467522  0.044082937           11 
 3762000   0.64194503   -4.4155493     2016.826  0.044675394  0.044073054           28 
 3763000   0.63039741    -4.438412    2013.1047  0.044581112  0.044063151            9 
 3764000   0.64393956   -4.4136619    2019.1647  0.044703435  0.044053311            5 
 3765000   0.66140784    -4.442992    2019.2156  0.044692686  0.044043444            6 
 3766000   0.65298059    -4.413094    2016.8366  0.044628177  0.044033583            5 
 3767000   0.65502497   -4.4523103    2011.2607   0.04449298  0.044023702            8 
 3768000   0.63915413   -4.4239713    2020.8472  0.044693189  0.044013776            9 
 3769000   0.63847899   -4.4257551    2015.6664  0.044566781  0.044003919            8 
 3770000   0.65497574   -4.4331574    2018.9269   0.04462703  0.043994001            7 
 3771000    0.6506162   -4.4213071    2013.6572  0.044498744  0.043984107            7 
 3772000   0.64027648   -4.4495131    2010.1552  0.044409579  0.043974167            7 
 3773000   0.65113228   -4.4240498    2022.2949  0.044665935  0.043964207            7 
 3774000    0.6422064   -4.4414418    2013.1503  0.044452179  0.043954221           21 
 3775000   0.64973841   -4.4225481    2017.4673  0.044535703  0.043944307            7 
 3776000   0.63997539   -4.4310986    2019.2113  0.044562397  0.043934433            9 
 3777000   0.63425858   -4.4451327    2018.7382   0.04454016  0.043924559           10 
 3778000   0.65560558   -4.4490001    2021.2611  0.044584019  0.043914705            7 
 3779000   0.64269655   -4.4347117    2020.9173   0.04456464  0.043904901            4 
 3780000   0.64604431   -4.4360226    2021.0491  0.044555756  0.043895135            9 
 3781000   0.65309687   -4.4144614    2023.7448  0.044603385  0.043885417           13 
 3782000   0.64732718   -4.4228188    2018.4609  0.044475165  0.043875583            7 
 3783000   0.64905314   -4.4160294     2019.739  0.044491563  0.043865853            8 
 3784000   0.64893084   -4.4233916    2018.4919   0.04445234  0.043856026            7 
 3785000   0.63583337   -4.4105553    2026.2569  0.044611556  0.043846207           13 
 3786000    0.6610176   -4.4347352    2021.8986  0.044503842  0.043836417           10 
 3787000   0.63717333   -4.4264754    2022.7662  0.044511183  0.043826598            8 
 3788000   0.63445609   -4.4355544    2018.2172  0.044399358   0.04381679            6 
 3789000   0.64661293   -4.4216164    2026.2605  0.044564541  0.043807024           15 
 3790000   0.66089535    -4.436254    2019.9575  0.044414194  0.043797167            6 
 3791000   0.64657107   -4.4436119    2017.9112  0.044357496  0.043787329           17 
 3792000    0.6379306   -4.4079023    2019.3545  0.044377516  0.043777485            9 
 3793000   0.66137734   -4.4223456    2020.8507  0.044398687  0.043767656           14 
 3794000   0.65308577   -4.4826204    2012.9873  0.044214271  0.043757775           14 
 3795000   0.63804705   -4.4376117    2017.0465  0.044291755  0.043747854            5 
 3796000   0.63163335   -4.4429407     2016.283  0.044263325  0.043737919           12 
 3797000   0.65302197   -4.4570556    2017.4838  0.044278022  0.043728104           21 
 3798000   0.64220431   -4.4504151     2014.745  0.044206271  0.043718208           20 
 3799000   0.64174823   -4.4473208     2023.306  0.044382425  0.043708332           15 
 3800000    0.6487037   -4.4334627     2018.354  0.044262148  0.043698497           11 
 3801000    0.6367122   -4.4160129    2025.6168  0.044409734  0.043688661           13 
 3802000   0.63496431   -4.4682594    2020.5116  0.044286157  0.043678832           10 
 3803000   0.62800388   -4.4409141    2022.7456  0.044323463  0.043668934            6 
 3804000   0.64601256   -4.4203037    2025.2425  0.044366511  0.043659054           11 
 3805000   0.63205605   -4.4396601    2022.7653  0.044300598  0.043649163            7 
 3806000   0.64503715   -4.4386949    2025.6813  0.044352806  0.043639288            8 
 3807000   0.64856695   -4.4362427     2023.549   0.04429448  0.043629434            5 
 3808000    0.6489505   -4.4275335    2020.6079  0.044218485  0.043619671            6 
 3809000    0.6398525   -4.4492738    2019.1561  0.044175113   0.04360985           10 
 3810000   0.64575436   -4.4473653    2023.5063  0.044258668  0.043600012            9 
 3811000    0.6317456   -4.4542074    2021.0287  0.044192877  0.043590221           11 
 3812000   0.64863484    -4.447311    2018.7212  0.044130841  0.043580442            4 
 3813000   0.65909055   -4.4396774    2022.0772  0.044192612  0.043570718            6 
 3814000    0.6430903   -4.4310617    2034.7465  0.044457841  0.043560999           11 
 3815000   0.63209483   -4.4275545     2015.131  0.044017714   0.04355126           10 
 3816000   0.63218344   -4.4517571    2022.3676  0.044164213  0.043541415           10 
 3817000   0.63700298   -4.4387833    2022.8939  0.044164132  0.043531649            8 
 3818000   0.64539152   -4.4489106    2019.7396  0.044083717   0.04352187           24 
 3819000   0.64968433   -4.4582915    2021.3072   0.04410638  0.043512052            6 
 3820000   0.65292928   -4.4547784    2022.4589  0.044119958  0.043502228            4 
 3821000   0.64609854    -4.435874    2023.0219   0.04412069  0.043492419           13 
 3822000    0.6332925   -4.4624965    2022.4115  0.044095838  0.043482615           14 
 3823000   0.64041726   -4.4375586    2022.5757  0.044087882  0.043472823           16 
 3824000   0.65106965   -4.4673786    2022.5802  0.044076451  0.043462966            9 
 3825000   0.63867407   -4.4585821    2026.1595  0.044142908  0.043453149            8 
 3826000   0.64894549   -4.4220789     2027.342  0.044157128  0.043443427           11 
 3827000   0.64438452   -4.4347763    2021.7695  0.044024247  0.043433709           15 
 3828000   0.64025899   -4.4474485    2023.8827   0.04405875  0.043423981           10 
 3829000   0.65246017   -4.4529778     2028.566  0.044149168  0.043414261            8 
 3830000   0.63247204   -4.4386832     2019.978  0.043950783   0.04340449            9 
 3831000   0.64805752   -4.4562421    2022.4074  0.043992155  0.043394729           14 
 3832000   0.64375976    -4.456326    2021.0093  0.043950272  0.043384977            9 
 3833000   0.64424303   -4.4441291    2020.8876  0.043936159  0.043375231            4 
 3834000   0.64607183   -4.4309687    2024.0007  0.043992364  0.043365441            8 
 3835000   0.64748948   -4.4562067    2026.2085  0.044028868  0.043355686           21 
 3836000   0.64639542   -4.4722425    2027.7358  0.044050569  0.043345924            6 
 3837000   0.63690778   -4.4618331    2028.5703  0.044057213  0.043336179            9 
 3838000   0.62743162   -4.4568999    2028.9787  0.044054602  0.043326486            8 
 3839000   0.64595454    -4.458604    2025.9278  0.043976899  0.043316731            4 
 3840000   0.64113653   -4.4491509    2024.5199  0.043934894  0.043306956           19 
 3841000   0.64194695   -4.4595027    2023.7313  0.043906347  0.043297074           15 
 3842000   0.64846724   -4.4466835    2025.7719  0.043939178  0.043287328            8 
 3843000   0.63022423   -4.4710996    2022.1858  0.043849983    0.0432775            9 
 3844000    0.6278405    -4.453333    2025.5463  0.043911428  0.043267801           14 
 3845000   0.64976179   -4.4193045    2032.2301  0.044044866   0.04325813            6 
 3846000   0.62193041   -4.4496102    2029.1887  0.043967513  0.043248435            7 
 3847000   0.63143999   -4.4232319    2027.5223  0.043919988  0.043238676            7 
 3848000   0.63813679   -4.4580283    2025.0159  0.043854294  0.043228971           13 
 3849000   0.64082255   -4.4702939    2026.2181   0.04386893  0.043219183           11 
 3850000   0.62374815   -4.4580489    2024.5063  0.043820482  0.043209417           25 
 3851000   0.63625825   -4.4756325    2026.2984  0.043847883  0.043199644            9 
 3852000   0.62105286   -4.4531814    2028.8212  0.043891078  0.043189964            6 
 3853000   0.63166691   -4.4431609    2026.3313  0.043825836   0.04318029           10 
 3854000   0.62908131    -4.430672    2029.7345  0.043888048  0.043170632           24 
 3855000   0.63619491   -4.4666572    2029.3028  0.043867333  0.043160984           16 
 3856000    0.6294269    -4.464752    2027.0421    0.0438071  0.043151247            4 
 3857000   0.64344677   -4.4458172    2028.8988  0.043835856  0.043141589            6 
 3858000   0.64177479   -4.4332509    2031.8903  0.043889112  0.043131937            5 
 3859000   0.63711187   -4.4494544    2031.2436  0.043863774  0.043122227           13 
 3860000   0.62852547   -4.4842643    2023.8513  0.043692817  0.043112454            9 
 3861000   0.63604514   -4.4839827    2030.2987  0.043820657  0.043102665            7 
 3862000   0.62482965    -4.459355    2021.6952  0.043623668  0.043092908           11 
 3863000   0.64376642   -4.4440647     2030.925   0.04381148  0.043083121            7 
 3864000   0.63547394   -4.4478152    2030.7642  0.043796674  0.043073464            7 
 3865000     0.642126   -4.4513352    2031.3734  0.043798479  0.043063834            4 
 3866000   0.62945461   -4.4483437    2024.8804  0.043647189  0.043054194            7 
 3867000   0.65230894   -4.4483539    2032.0225  0.043789814  0.043044516           10 
 3868000   0.63448796   -4.4591985    2030.7756  0.043751629  0.043034844            8 
 3869000   0.63595239   -4.4453926    2030.9064  0.043743139  0.043025146            7 
 3870000   0.63337817   -4.4764394    2026.0082   0.04362636   0.04301545           12 
 3871000    0.6265274   -4.4697024    2033.5322  0.043777064   0.04300572           14 
 3872000   0.64038101   -4.4740931    2024.5632  0.043572728  0.042996029           11 
 3873000   0.62941004   -4.4609141    2030.1191   0.04368102  0.042986263            5 
 3874000   0.63159206   -4.4734792    2028.7059  0.043639346  0.042976514            7 
 3875000   0.62403065   -4.4854298    2026.8775  0.043588764  0.042966727            4 
 3876000   0.63579386    -4.458317    2024.2196  0.043520373  0.042956885           16 
 3877000   0.63600578   -4.4645278    2027.6446  0.043582767  0.042947028            9 
 3878000   0.63460351   -4.4758531    2026.2816  0.043542239  0.042937288           23 
 3879000   0.64122418   -4.4576169    2027.1793  0.043550299  0.042927489           17 
 3880000   0.62788077   -4.4643895     2029.656  0.043592269  0.042917703            5 
 3881000   0.62449327   -4.4635433    2028.6084  0.043558542  0.042907947            7 
 3882000   0.62635668   -4.4706656    2022.9918  0.043426751  0.042898166            7 
 3883000   0.63669107   -4.4800612    2028.0369  0.043523842  0.042888433            8 
 3884000   0.62832265   -4.4658755     2032.262  0.043603287  0.042878731            8 
 3885000   0.63835414   -4.4508937    2030.1485  0.043546728  0.042869006            5 
 3886000   0.62382271   -4.4717496    2027.9846  0.043489119  0.042859303           11 
 3887000   0.63867587   -4.4519557    2024.4736  0.043402659  0.042849571            7 
 3888000   0.63532785   -4.4713894    2031.6791  0.043545934  0.042839876            7 
 3889000   0.63557308   -4.4815129    2027.2218  0.043439225  0.042830155            8 
 3890000   0.62435177   -4.4563505    2035.2995  0.043601102  0.042820416           11 
 3891000   0.62996273   -4.4538058    2033.0938  0.043542658  0.042810745           12 
 3892000   0.62480179   -4.4589314    2028.2922  0.043428661  0.042801045            9 
 3893000   0.61719218   -4.4499563    2031.8993  0.043494719  0.042791295           20 
 3894000   0.62901945   -4.4594614    2031.2153  0.043468912  0.042781551           12 
 3895000   0.62395146   -4.4685026    2027.6371  0.043381196  0.042771816            6 
 3896000   0.64134704   -4.4520022    2030.6799  0.043435146  0.042762109           23 
 3897000   0.63005173   -4.4877397    2025.1491  0.043305729  0.042752362           10 
 3898000   0.63269324   -4.4763424    2028.3929  0.043363967  0.042742584            9 
 3899000   0.62425301   -4.4563819    2031.4822  0.043418873  0.042732822            8 
 3900000   0.62757078   -4.4780072    2029.2463  0.043359963  0.042723115            6 
 3901000   0.62108871   -4.4482466    2032.0268  0.043408245  0.042713364            9 
 3902000   0.61961479   -4.4793015    2024.2124  0.043230233  0.042703635           14 
 3903000   0.62519605   -4.4795069    2027.0768  0.043280314  0.042693876           10 
 3904000   0.62453416   -4.4652659    2033.2432  0.043400854  0.042684173            5 
 3905000   0.62332084   -4.4656413    2028.0256  0.043278394   0.04267441           12 
 3906000   0.62283864   -4.4822189    2033.2124  0.043377975  0.042664646           20 
 3907000   0.62130346   -4.4517314    2029.7078  0.043292121  0.042654897            8 
 3908000   0.63493311   -4.5011653     2023.971  0.043158713  0.042645197           13 
 3909000   0.63854355   -4.4630735    2028.3754  0.043241567   0.04263545           12 
 3910000   0.62257579   -4.5061032    2032.9482  0.043327966  0.042625798           13 
 3911000   0.61767452   -4.4530221    2037.1657  0.043406753  0.042616093            7 
 3912000   0.62218178   -4.4736496    2031.5014  0.043274997  0.042606388            9 
 3913000   0.62720566   -4.4564362    2033.4177  0.043304748  0.042596694           11 
 3914000   0.63531722   -4.4664896    2031.2712  0.043247982  0.042586959           10 
 3915000   0.63223751   -4.4739671    2035.8507  0.043334413  0.042577196            8 
 3916000   0.62115218   -4.4798652    2029.1475    0.0431807   0.04256746            7 
 3917000    0.6149341   -4.4974373    2031.3471  0.043216472   0.04255777            6 
 3918000   0.62955725   -4.4843394    2034.6796  0.043276323  0.042548059            9 
 3919000   0.62804422   -4.4603152    2035.8828  0.043290865  0.042538445           13 
 3920000   0.61570025   -4.4681084     2031.138  0.043178954  0.042528782            4 
 3921000   0.63003281   -4.4950848    2037.8266  0.043310095  0.042519116            5 
 3922000   0.61777075   -4.4832728    2029.9479  0.043131648  0.042509444            8 
 3923000   0.62254483   -4.4762342    2034.9497  0.043226903   0.04249981           16 
 3924000   0.62335113   -4.4794039     2030.792   0.04312759  0.042490191           18 
 3925000   0.62256649   -4.5030882    2027.6341  0.043049556  0.042480524           10 
 3926000   0.62841152   -4.4763078    2037.0934  0.043239375  0.042470892            7 
 3927000   0.63108627   -4.4855747    2034.2183  0.043167352  0.042461234            9 
 3928000   0.62633374   -4.4758914    2034.5337  0.043163053  0.042451546            7 
 3929000   0.63589605   -4.4632507    2030.9347  0.043075733  0.042441885            9 
 3930000   0.62509664   -4.4811994    2037.1496  0.043196557  0.042432249           18 
 3931000    0.6286611   -4.4657897     2035.811  0.043157191  0.042422649           13 
 3932000   0.61559763   -4.4644797    2042.7595  0.043293479  0.042413022            9 
 3933000   0.61961147    -4.479844    2039.7744  0.043219222  0.042403394           16 
 3934000   0.63810225   -4.4968424    2036.4008  0.043136772  0.042393707           11 
 3935000   0.62879473   -4.4986474    2036.4433  0.043126712  0.042384114           12 
 3936000   0.62660581   -4.4844665    2037.2651  0.043133153  0.042374526            8 
 3937000   0.62451026   -4.4923395    2037.1632   0.04312004  0.042364946           18 
 3938000   0.61889642   -4.4884579    2035.1756   0.04306703  0.042355356           11 
 3939000   0.61813523   -4.4841766    2030.9441  0.042966575   0.04234572           11 
 3940000   0.62672033   -4.5046299    2033.1796  0.043002952  0.042336044           10 
 3941000   0.62346323   -4.4922478    2030.9549  0.042944999  0.042326343            6 
 3942000   0.62209217   -4.4805224    2033.5508  0.042988981  0.042316704            9 
 3943000   0.61443749   -4.5026368    2030.3366  0.042910148  0.042307015            7 
 3944000   0.61175442   -4.4815582    2035.0642  0.042999159  0.042297382            5 
 3945000   0.61684948    -4.487292     2037.049  0.043030185  0.042287756            6 
 3946000   0.62756568   -4.4739871    2034.7672  0.042971093  0.042278107            7 
 3947000   0.60511968   -4.4817159    2029.4809  0.042848596  0.042268428            5 
 3948000   0.61249604   -4.4852406    2036.8199  0.042992651  0.042258753           11 
 3949000   0.62914605   -4.4899812    2034.9742  0.042942818  0.042249087           11 
 3950000   0.61998381   -4.4841333     2031.273  0.042853861  0.042239469           17 
 3951000   0.61380797   -4.4959302    2040.6051  0.043039844  0.042229827            4 
 3952000   0.61179753   -4.4936772    2030.3864  0.042813478  0.042220171            7 
 3953000   0.62712821   -4.5000765     2029.962    0.0427937  0.042210483           12 
 3954000   0.61142605   -4.5007481    2030.2456  0.042788855  0.042200745           23 
 3955000   0.62012629   -4.5234338    2031.9774  0.042814527  0.042190996           17 
 3956000   0.62226196   -4.5042434     2036.333  0.042895455  0.042181317            8 
 3957000   0.62407047   -4.4839146    2036.2371  0.042882594  0.042171679            3 
 3958000   0.62948925   -4.4897253    2035.1934  0.042849784  0.042162022           11 
 3959000   0.62386795   -4.4883183    2035.1016   0.04283703  0.042152362           15 
 3960000   0.62387201   -4.4898366    2034.1448  0.042806077  0.042142743            9 
 3961000    0.6069139   -4.4903444    2043.7694  0.042997758  0.042133095            7 
 3962000   0.62246463   -4.5003059    2041.7367  0.042944151  0.042123491           17 
 3963000     0.620228   -4.5015742    2036.0268  0.042813247  0.042113852            9 
 3964000   0.62597535   -4.4689687    2034.8045  0.042776752  0.042104236            6 
 3965000   0.60766731   -4.4909655    2037.0422  0.042812993  0.042094638           12 
 3966000   0.60740713   -4.4709022    2038.9671  0.042842645  0.042085019            8 
 3967000   0.60622083   -4.4817521     2038.753  0.042827346  0.042075442           14 
 3968000   0.62523062    -4.498894    2035.0781  0.042739375  0.042065813            7 
 3969000   0.61436754   -4.4832885     2034.433  0.042715063  0.042056214            5 
 3970000    0.6301733   -4.4951311     2039.753  0.042815973  0.042046632            7 
 3971000   0.62516099   -4.4973161    2036.3055  0.042732845  0.042037086            7 
 3972000   0.61920145   -4.4736209    2040.6672  0.042813595  0.042027609           11 
 3973000   0.63149639   -4.4775316    2043.6928   0.04286628  0.042018054            8 
 3974000   0.62176341   -4.4944178     2046.395  0.042912159  0.042008519            8 
 3975000   0.61790483   -4.5044456    2041.5767   0.04280035  0.041999003            7 
 3976000   0.61844747   -4.4728337    2038.6987  0.042729265  0.041989453           13 
 3977000   0.61985581   -4.4695898     2044.486  0.042839787  0.041979872            9 
 3978000   0.63364754   -4.5034291    2042.3736  0.042784767  0.041970317           15 
 3979000   0.61181693   -4.4641974    2040.7209  0.042739401  0.041960797            9 
 3980000   0.61603974   -4.4710213    2041.9126  0.042753613  0.041951281           13 
 3981000    0.6267739   -4.4649649     2036.199  0.042623272  0.041941713            7 
 3982000   0.60764229   -4.4708943    2034.8158  0.042583623  0.041932179           20 
 3983000   0.61580362   -4.4877889    2041.0491  0.042703346  0.041922604            7 
 3984000   0.60001754   -4.4848261    2040.0429   0.04267158  0.041913063            9 
 3985000   0.61798518   -4.4914552    2042.4395  0.042710989  0.041903502           16 
 3986000   0.62974619      -4.5024    2042.8522  0.042708903  0.041893954           13 
 3987000   0.61442817   -4.5009563    2037.2593  0.042581291  0.041884424           12 
 3988000   0.61370541   -4.4978203    2036.7612  0.042560206  0.041874832           14 
 3989000   0.60788077   -4.5100138    2032.9391  0.042469689   0.04186521           11 
 3990000   0.61187363   -4.5089628     2039.846  0.042603299  0.041855597           10 
 3991000   0.60572271   -4.5154925    2038.0231  0.042554563  0.041846042           11 
 3992000   0.61429704   -4.5016911    2042.1169  0.042629361  0.041836516            6 
 3993000   0.61482153   -4.5010082    2042.9762  0.042636619  0.041826957            5 
 3994000   0.60682885   -4.5047151    2044.2735  0.042653012  0.041817414            6 
 3995000   0.62649423   -4.4791275    2042.7519  0.042610594  0.041807908            9 
 3996000   0.60013613    -4.505734    2038.1652   0.04250428  0.041798355           10 
 3997000   0.61701263   -4.4894198    2035.1844  0.042431498  0.041788757           19 
 3998000   0.61818759   -4.5025522    2042.2091  0.042567306  0.041779218            7 
 3999000   0.61127455   -4.5153545    2039.8117  0.042506703   0.04176958            8 
 4000000   0.61537663   -4.5092727    2038.0966  0.042460345  0.041759972           27 
 4001000   0.60213011   -4.5112761    2039.7134  0.042483409  0.041750436            6 
 4002000   0.62164088   -4.5006185    2044.0439  0.042562966  0.041740887            4 
 4003000   0.61836922   -4.4848983    2041.2218  0.042493583  0.041731371            8 
 4004000   0.61986088   -4.5194564    2033.4757  0.042321756  0.041721779           11 
 4005000   0.61714172   -4.4869657    2045.0032  0.042551044   0.04171221            9 
 4006000    0.6196265    -4.493012    2045.1388  0.042543244  0.041702721            6 
 4007000   0.60458847   -4.4855033    2043.6735  0.042502152  0.041693204            9 
 4008000   0.61532829   -4.4937281    2042.9264  0.042476015  0.041683653            7 
 4009000   0.60325558   -4.4928043    2037.4193  0.042350946  0.041674055            6 
 4010000   0.60195929   -4.5193561    2044.7368  0.042492453  0.041664458            3 
 4011000   0.62039061   -4.4994481    2042.9273  0.042444264  0.041654823            6 
 4012000   0.60158442   -4.4919283    2039.3915  0.042360243  0.041645212            6 
 4013000   0.60845962   -4.5140547    2041.0564  0.042384259  0.041635619            7 
 4014000   0.60432338   -4.5008539    2035.1456  0.042250989  0.041625992           18 
 4015000   0.60962648   -4.4873806    2042.9529  0.042402509  0.041616359           13 
 4016000   0.61168943   -4.5151683    2036.8055   0.04226439  0.041606772            8 
 4017000   0.60769581   -4.5213978    2036.0638  0.042238481  0.041597084           15 
 4018000   0.60668711   -4.5109739    2040.2364   0.04231451  0.041587456            9 
 4019000   0.61845688   -4.4963545    2043.8946  0.042379834  0.041577833            7 
 4020000   0.61280714   -4.5115511    2044.9434  0.042391033    0.0415682            6 
 4021000   0.60485635   -4.4981957    2039.6523  0.042270835  0.041558573           16 
 4022000   0.61422103   -4.5135951    2043.6113  0.042342352  0.041548959            5 
 4023000   0.61052186   -4.5230531    2041.0623  0.042279026  0.041539328            8 
 4024000   0.61397108    -4.481052    2039.9311  0.042245094  0.041529688            7 
 4025000   0.59894067   -4.5051038    2044.0536   0.04231995  0.041520111           14 
 4026000   0.60978069   -4.5443105    2043.0268  0.042288185  0.041510489           15 
 4027000   0.61192393   -4.5175629    2039.4173  0.042202991  0.041500889            9 
 4028000   0.61108984   -4.5083546    2039.9067  0.042202638  0.041491353            6 
 4029000    0.6060817   -4.4953063    2037.8689  0.042150014  0.041481829            9 
 4030000   0.59936838   -4.4840426    2046.4869  0.042317761  0.041472326            9 
 4031000    0.6072318   -4.4939932    2046.3003  0.042303405  0.041462848           11 
 4032000   0.60546826   -4.5253934    2043.4951  0.042234935  0.041453321           13 
 4033000   0.61734258   -4.5101966    2044.4416   0.04224402  0.041443762            9 
 4034000   0.59688473   -4.5128166    2040.2912   0.04214781  0.041434148           15 
 4035000   0.60489827   -4.5070815    2041.1787  0.042155693  0.041424497            9 
 4036000   0.60544463     -4.49776    2047.1877   0.04226932  0.041414909            7 
 4037000   0.60041492   -4.5206132    2040.3264  0.042117215  0.041405295            7 
 4038000   0.60856153   -4.5050508    2042.0252  0.042141844  0.041395691           13 
 4039000    0.5973383   -4.5030531    2039.1894  0.042072902  0.041386079           10 
 4040000   0.59646086    -4.502846    2039.5758  0.042070458  0.041376405            4 
 4041000   0.61378143   -4.5071376    2044.7147  0.042166021  0.041366772           13 
 4042000     0.604521   -4.5037837    2039.2927  0.042043804  0.041357092           12 
 4043000   0.61469965   -4.4854108    2037.0262  0.041986689  0.041347487            8 
 4044000   0.61537932   -4.5059326     2040.367  0.042045149  0.041337908            8 
 4045000   0.58495801   -4.5173425    2037.0484  0.041966387  0.041328294           17 
 4046000   0.61225127   -4.5044513    2041.1044  0.042039553  0.041318663            9 
 4047000   0.60480288   -4.5334913    2036.1418  0.041926979  0.041309025           23 
 4048000    0.6103672   -4.5267986    2038.9975  0.041975409  0.041299372            9 
 4049000   0.60094574   -4.5220185     2037.805  0.041940499  0.041289778            6 
 4050000   0.61084937    -4.532293    2040.2299  0.041980039  0.041280074           12 
 4051000   0.62161312   -4.5313245    2045.9241  0.042086812  0.041270456           14 
 4052000    0.6005453   -4.5289606    2039.7648  0.041949753  0.041260811            5 
 4053000   0.58294148   -4.5432015    2041.3582  0.041972166  0.041251192           12 
 4054000   0.60904676   -4.5403992    2035.4412  0.041840183  0.041241535            9 
 4055000   0.61641479   -4.5268584    2046.0885  0.042048675  0.041231895            8 
 4056000   0.59721179   -4.5281494    2037.6581  0.041865098  0.041222209            6 
 4057000   0.61223601   -4.4986279    2044.0124    0.0419853  0.041212574            7 
 4058000   0.61687132   -4.5125366    2036.8935  0.041828764  0.041202986            7 
 4059000    0.6071674   -4.5481481    2036.4574  0.041809505  0.041193341           17 
 4060000   0.59170833   -4.5452896    2037.5793  0.041822235  0.041183668           15 
 4061000   0.59428374   -4.5422998    2035.3268  0.041765715  0.041173964            7 
 4062000   0.61064343   -4.5371618    2042.9106  0.041911016  0.041164247           10 
 4063000   0.60000749   -4.5265604    2042.1421   0.04188494   0.04115459            9 
 4064000   0.59854126   -4.5456039    2043.9523  0.041911752  0.041144952            5 
 4065000   0.59527732   -4.5103414    2040.1494  0.041823481  0.041135295            8 
 4066000   0.60884703   -4.5434021    2041.7389  0.041845771   0.04112562           12 
 4067000   0.59567133   -4.5013601    2038.3619  0.041766288  0.041115992           13 
 4068000   0.60755108   -4.5210289     2039.854  0.041786586  0.041106383           33 
 4069000   0.60370496   -4.5305997    2042.9314  0.041839341  0.041096775           12 
 4070000   0.60059578   -4.5214068    2035.7832  0.041682702  0.041087135           21 
 4071000   0.59748069   -4.5242052    2034.7172  0.041650642  0.041077462            8 
 4072000   0.59827391   -4.5042552    2049.8157  0.041949405  0.041067814            7 
 4073000   0.60846529   -4.4984408    2041.3086  0.041765051  0.041058183            7 
 4074000    0.6010149   -4.5170735    2042.1809  0.041772641  0.041048543           12 
 4075000   0.59308314   -4.5248794    2038.0332  0.041677571  0.041038865           13 
 4076000   0.59443813   -4.5258681    2038.7156  0.041681296  0.041029187            9 
 4077000    0.6037165   -4.5607292     2039.591  0.041688967    0.0410195           18 
 4078000   0.59631319   -4.5285132    2036.7289  0.041620258  0.041009782           12 
 4079000   0.60720632   -4.4962025    2043.1931  0.041742117  0.041000148            9 
 4080000   0.59488135   -4.4967017    2041.0624  0.041688366  0.040990491           10 
 4081000   0.59662631   -4.5488682    2039.9373  0.041655177  0.040980819            6 
 4082000   0.61125688   -4.5339813     2038.588  0.041617427  0.040971109           11 
 4083000   0.59361692   -4.5263055    2040.4143  0.041644508  0.040961403            7 
 4084000   0.60550182   -4.5176215    2039.2936  0.041611444  0.040951747            5 
 4085000   0.59773074   -4.5329749    2041.6054  0.041648417  0.040942078           12 
 4086000   0.60226991   -4.5289565    2041.6593  0.041639323  0.040932414            8 
 4087000   0.60252488   -4.5148128    2040.2335  0.041600064  0.040922745            6 
 4088000   0.59238384   -4.5415419     2039.661  0.041578217  0.040913085           21 
 4089000   0.59030125   -4.5216296      2039.27   0.04156008  0.040903437           13 
 4090000   0.59427703   -4.5287723    2040.1138  0.041567111  0.040893813            8 
 4091000   0.59572074    -4.535573      2037.23  0.041498208  0.040884143            9 
 4092000   0.58616882   -4.5357022     2043.473  0.041615204  0.040874525            6 
 4093000   0.59410526   -4.5051671    2042.2943  0.041581039  0.040864969            5 
 4094000   0.60018196   -4.5140497    2042.9035  0.041583283  0.040855363            5 
 4095000   0.59363418    -4.546716    2045.0509  0.041616827  0.040845735            7 
 4096000    0.6143087   -4.5396979    2042.1109  0.041546854  0.040836155            7 
 4097000   0.58775591   -4.5165247    2041.8726  0.041531864   0.04082655            7 
 4098000    0.5983817   -4.5253258    2042.2691  0.041529793  0.040816923            8 
 4099000   0.58970668   -4.5372039    2042.3691  0.041521695  0.040807305            5 
 4100000   0.59008376   -4.5233156    2041.2606  0.041489036  0.040797669            9 
 4101000   0.59791248   -4.5438795    2039.5932  0.041445038  0.040787968            6 
 4102000   0.59833501   -4.5362473    2040.1168   0.04144557  0.040778333           12 
 4103000    0.5974886   -4.5310058    2043.9419  0.041513158  0.040768737           15 
 4104000   0.58914479   -4.5360612    2039.3634  0.041410075  0.040759041           12 
 4105000   0.58120027   -4.5424798    2042.2847  0.041459291  0.040749383           11 
 4106000   0.59270289   -4.5202559    2039.2031  0.041386651  0.040739762            9 
 4107000   0.59091916   -4.5514713    2040.8611  0.041410217  0.040730098           16 
 4108000   0.59265084   -4.5380929    2041.6208  0.041415547  0.040720441            7 
 4109000   0.58215793   -4.5425405    2039.6079  0.041364645  0.040710801           15 
 4110000   0.58972756   -4.5402122    2036.8915  0.041299503  0.040701107            6 
 4111000   0.60574181   -4.5532487    2038.3199  0.041318412  0.040691466            9 
 4112000   0.59761144   -4.5362011    2045.3582     0.041451    0.0406818           10 
 4113000   0.60082903    -4.559051    2039.2878   0.04131793  0.040672159            9 
 4114000   0.61868923   -4.5593915     2042.353  0.041369976  0.040662487           15 
 4115000    0.5888594    -4.543728    2041.4553  0.041341744  0.040652856            8 
 4116000   0.59645194   -4.5209335    2048.5182  0.041474696  0.040643247           11 
 4117000   0.58100978   -4.5189262    2046.5148   0.04142407  0.040633627           25 
 4118000   0.59486068   -4.5321178    2043.7594  0.041358253  0.040623993           10 
 4119000   0.58247206   -4.5541339    2045.9614  0.041392761  0.040614387           19 
 4120000   0.58660444   -4.5354184    2041.5022  0.041292521  0.040604771           14 
 4121000   0.58214043   -4.5183478     2046.653  0.041386658  0.040595169           12 
 4122000   0.58942121   -4.5438287    2039.9666   0.04124144  0.040585555            3 
 4123000   0.58593333   -4.5353308    2037.0506  0.041172499  0.040575875            8 
 4124000    0.5906766   -4.5425516    2041.4546  0.041251508  0.040566231           14 
 4125000   0.60414833    -4.532377    2041.6736  0.041245931  0.040556644            9 
 4126000   0.58362353   -4.5271006    2046.5497  0.041334418  0.040547044            8 
 4127000   0.60213179   -4.5291295     2050.691  0.041408025  0.040537491            8 
 4128000   0.58758703   -4.5465923    2041.8146  0.041218803  0.040527869           10 
 4129000    0.5999048   -4.5170696    2042.6202  0.041225078  0.040518258            7 
 4130000   0.59399181    -4.550403    2046.6824  0.041297062  0.040508674           10 
 4131000   0.59642161   -4.5480773    2043.6165  0.041225217  0.040499073            7 
 4132000    0.5933605   -4.5289442    2042.2516  0.041187714  0.040489534            5 
 4133000   0.58661743   -4.5383499    2044.5237   0.04122356  0.040479983            6 
 4134000   0.59251156   -4.5604396     2046.553  0.041254495   0.04047043           14 
 4135000    0.5986237   -4.5450472    2045.3927  0.041221135  0.040460826           30 
 4136000   0.58410341   -4.5598987    2044.3664   0.04119049  0.040451279           13 
 4137000   0.59067135   -4.5405525    2046.9615  0.041232807  0.040441716            5 
 4138000   0.59428109    -4.543313     2046.477  0.041213087  0.040432128           16 
 4139000   0.59885628   -4.5606775     2044.159  0.041156458  0.040422585            9 
 4140000   0.58754094   -4.5334339    2046.8963  0.041201615  0.040412992           13 
 4141000   0.59076378   -4.5515651     2044.078  0.041134952  0.040403417           10 
 4142000   0.58440913   -4.5459168    2047.1944   0.04118772   0.04039388           13 
 4143000   0.58636302   -4.5481337    2044.7433  0.041128476   0.04038429            6 
 4144000   0.59109095   -4.5418593     2045.702   0.04113783  0.040374735            9 
 4145000   0.60121337   -4.5786077    2040.8916  0.041031193  0.040365132           10 
 4146000   0.60329639   -4.5351468    2047.0639  0.041145359  0.040355575           11 
 4147000    0.6031297   -4.5348437    2042.9566  0.041052902  0.040345984            9 
 4148000   0.58897554   -4.5424576    2041.9946  0.041023679  0.040336402            9 
 4149000   0.59523715   -4.5518248    2044.1061    0.0410562  0.040326845           11 
 4150000   0.58535974   -4.5408061    2043.9808   0.04104379  0.040317243           11 
 4151000   0.58801081   -4.5442878    2043.0761  0.041015741  0.040307667            8 
 4152000   0.58663527   -4.5579069    2044.8631  0.041041728  0.040298104           11 
 4153000   0.59519393   -4.5665779    2040.5333  0.040944965  0.040288515           16 
 4154000   0.58108452   -4.5412983    2044.1056  0.041006773  0.040278954           10 
 4155000    0.5921071   -4.5455168    2043.3209  0.040981165  0.040269409            5 
 4156000   0.58381356   -4.5615868    2042.6388  0.040957627  0.040259922            8 
 4157000   0.58159959   -4.5503165    2042.8327  0.040951662  0.040250369           20 
 4158000   0.58448062   -4.5426671    2045.4481   0.04099423  0.040240809           47 
 4159000   0.60881869   -4.5439246    2043.3434  0.040942202  0.040231251            9 
 4160000   0.58477527   -4.5854157    2041.9951  0.040905351   0.04022171           12 
 4161000   0.57321702   -4.5583842    2044.5038  0.040945762  0.040212111           13 
 4162000   0.58950789   -4.5531077    2045.1262  0.040948386  0.040202537            8 
 4163000   0.57833508    -4.548417    2044.9573  0.040935169  0.040192989           20 
 4164000   0.57915604    -4.548925    2046.9871   0.04096596   0.04018343           22 
 4165000   0.57611885    -4.540573     2047.653  0.040969448  0.040173945           10 
 4166000   0.58689745   -4.5302631    2045.2413  0.040911372  0.040164424            6 
 4167000   0.59575363   -4.5443005    2047.2998   0.04094272  0.040154938           10 
 4168000   0.58653493   -4.5442058    2048.8981  0.040964852  0.040145421           25 
 4169000   0.58526367   -4.5424443    2049.0262  0.040957587  0.040135918           10 
 4170000   0.56722835   -4.5469936    2049.4074  0.040955383  0.040126428           14 
 4171000   0.59637224   -4.5469271    2043.5857  0.040829252  0.040116929           25 
 4172000   0.58408927   -4.5608831    2045.1807  0.040851324  0.040107394            6 
 4173000   0.59490939   -4.5615521    2041.4367  0.040766769  0.040097817            6 
 4174000   0.58889703   -4.5567438     2045.435  0.040836828  0.040088279            7 
 4175000   0.57828182    -4.564088    2043.2735  0.040783902  0.040078748            9 
 4176000   0.60725852   -4.5670939    2047.4998  0.040858474  0.040069227            8 
 4177000   0.57490876   -4.5432837    2049.8545  0.040895668  0.040059705           11 
 4178000   0.56950245   -4.5548805    2045.3449  0.040795933    0.0400502            9 
 4179000    0.5867214   -4.5650971     2045.343  0.040786132  0.040040653            8 
 4180000   0.59280476   -4.5460595    2048.4596  0.040838509  0.040031107            4 
 4181000   0.58307068   -4.5560777    2040.3549  0.040667203  0.040021549            9 
 4182000    0.5822797   -4.5517721    2045.5346  0.040760694  0.040012049           26 
 4183000   0.59033888   -4.5663099    2042.1659  0.040683838  0.040002453           21 
 4184000   0.59120118    -4.550513    2044.6525   0.04072364  0.039992889            8 
 4185000   0.58772719   -4.5504361    2045.4656  0.040730099  0.039983366            6 
 4186000   0.57703478   -4.5701698    2047.7252  0.040765354  0.039973832           12 
 4187000   0.57051441    -4.550729    2049.3048  0.040787055   0.03996429           18 
 4188000     0.573353   -4.5817373    2039.5018  0.040582255  0.039954755           20 
 4189000   0.58597417   -4.5485043    2042.7891  0.040637962  0.039945165           12 
 4190000    0.5783052   -4.5611373    2047.4262   0.04072049  0.039935643           11 
 4191000   0.58948636   -4.5489787    2049.8216  0.040758403  0.039926152           16 
 4192000   0.57146901    -4.563925    2049.0212  0.040732768  0.039916691           13 
 4193000   0.59279825   -4.5618523    2045.7998  0.040659031  0.039907146           10 
 4194000    0.5929208   -4.5531184    2047.9648  0.040692355   0.03989765           13 
 4195000   0.58500628   -4.5689635    2050.3959  0.040730948  0.039888121           22 
 4196000   0.58944366   -4.5762604    2041.6237  0.040547024  0.039878605           11 
 4197000   0.58496578   -4.5559144    2043.8759   0.04058208  0.039869036            9 
 4198000   0.58361441   -4.5664332    2047.2237   0.04063887  0.039859453           13 
 4199000   0.59417042   -4.5551741    2048.3246  0.040651039  0.039849912           11 
 4200000   0.57945982    -4.561974    2048.8938  0.040652656  0.039840394            5 
 4201000   0.57226115   -4.5689687    2047.9201  0.040623662  0.039830912            7 
 4202000   0.58755965   -4.5768764    2049.5978  0.040647267  0.039821406           14 
 4203000   0.58319619   -4.5541674    2048.2577  0.040611027   0.03981189            6 
 4204000   0.57581798   -4.5738419    2047.2838  0.040582062  0.039802375            7 
 4205000    0.5781767   -4.5671633    2047.8628  0.040583884  0.039792856           11 
 4206000   0.57997986   -4.5365043    2047.8606  0.040574192  0.039783344           16 
 4207000   0.58245502   -4.5623556    2047.2789  0.040553024  0.039773839           14 
 4208000     0.570124    -4.567452    2042.4337  0.040447435  0.039764323           13 
 4209000   0.57051732   -4.5630195    2044.7133  0.040482959  0.039754825           17 
 4210000     0.601186   -4.5680796    2050.4005  0.040585916  0.039745287           24 
 4211000   0.58139442   -4.5643157    2045.9599  0.040488402  0.039735712           12 
 4212000   0.57891919   -4.5753359    2043.8795  0.040437629  0.039726174            9 
 4213000   0.57258461   -4.5799176    2047.7604  0.040504795  0.039716636            8 
 4214000   0.59275705   -4.5665614     2044.003   0.04042088  0.039707086           20 
 4215000   0.57763473   -4.5766988    2040.1285  0.040334687  0.039697554            7 
 4216000   0.58179769   -4.5740811     2043.933   0.04040032  0.039688029           19 
 4217000    0.5708116   -4.5858526    2040.9776  0.040332338  0.039678432           15 
 4218000   0.57642863   -4.5888431    2042.4277  0.040351424  0.039668856           16 
 4219000   0.58308114   -4.5672213    2046.4305  0.040420923  0.039659311           20 
 4220000   0.58313849   -4.5539788     2046.118  0.040405174  0.039649746           18 
 4221000   0.56684236   -4.5390898     2048.957   0.04045165  0.039640239            6 
 4222000   0.57118509   -4.5688725    2044.2416  0.040348998  0.039630703           12 
 4223000   0.57014989   -4.5801906    2039.5745  0.040247347  0.039621058            6 
 4224000   0.57130531   -4.5883128    2041.1084  0.040268079  0.039611452           23 
 4225000   0.56892779   -4.5686236    2047.4805  0.040384232  0.039601884           10 
 4226000   0.57145876   -4.5614778    2047.3253  0.040371614  0.039592325           17 
 4227000   0.57391125   -4.5843375    2046.4666  0.040345134  0.039582789           12 
 4228000   0.56282214   -4.5694798    2048.6043  0.040377726  0.039573253            8 
 4229000   0.57477281   -4.5642908    2047.3575  0.040343609  0.039563727           11 
 4230000   0.57193148   -4.5752128      2042.94  0.040247045  0.039554221           19 
 4231000   0.57851346   -4.5736283      2043.33  0.040245213  0.039544717            8 
 4232000   0.59081295   -4.5641683    2047.0638  0.040309227  0.039535179           24 
 4233000   0.57951613   -4.5720777    2046.6934  0.040292413  0.039525624            7 
 4234000   0.57668816   -4.5422732    2047.6601  0.040301924  0.039516095            9 
 4235000   0.56585274   -4.5951557    2043.6041  0.040212595  0.039506573           11 
 4236000   0.58217009   -4.5917798    2039.5862  0.040124059  0.039497014            6 
 4237000   0.56640405   -4.5674457    2049.5786  0.040311121  0.039487467            8 
 4238000   0.58691502   -4.5666182    2050.1975  0.040313779  0.039477942           16 
 4239000   0.57473992   -4.6064312    2042.4044  0.040151065  0.039468374           15 
 4240000   0.56563995    -4.575136    2043.0505  0.040154294  0.039458791           18 
 4241000   0.57134116   -4.5666109    2043.6327  0.040156265  0.039449217            9 
 4242000   0.56680612   -4.5709614    2044.5704  0.040165221  0.039439629           11 
 4243000   0.56703513    -4.584742    2036.3916  0.039995122  0.039430015           12 
 4244000   0.57879561   -4.5903661    2039.5781  0.040048266  0.039420437           12 
 4245000   0.57061983    -4.583772    2050.3561  0.040250413  0.039410852           10 
 4246000   0.58599137   -4.5765602    2046.2635  0.040160612  0.039401302           16 
 4247000   0.58216608   -4.5817022    2046.7813  0.040161316   0.03939175           37 
 4248000   0.56552093   -4.5654695    2049.8228  0.040211527  0.039382219           12 
 4249000   0.57938572   -4.5672192    2047.3845  0.040154242  0.039372734           14 
 4250000   0.56044176   -4.5761779    2043.5266  0.040069149  0.039363186            9 
 4251000    0.5843529   -4.5818242    2042.8789  0.040047027  0.039353598            9 
 4252000   0.56768912   -4.5623892    2043.1275  0.040042481  0.039344055            8 
 4253000   0.57722377   -4.5828056    2044.9536  0.040068846  0.039334516            7 
 4254000   0.55471762    -4.586982    2042.0385  0.040002321  0.039324962            6 
 4255000   0.56984634   -4.5621007    2048.8587  0.040126493    0.0393154            9 
 4256000   0.56793717   -4.5712338    2047.0366  0.040081387  0.039305849           18 
 4257000   0.56399739   -4.5732788    2042.3624  0.039980471  0.039296298           20 
 4258000   0.58401533   -4.5562338    2051.9012  0.040157765  0.039286744           12 
 4259000   0.58188716   -4.5839112    2043.6159  0.039986222  0.039277243            8 
 4260000   0.56443468   -4.5658634     2043.967  0.039983706  0.039267706           11 
 4261000   0.56805121    -4.600387    2044.5938  0.039986579  0.039258183            8 
 4262000   0.57680222   -4.5777414    2047.1217  0.040026626  0.039248669            8 
 4263000   0.56658219   -4.5960741    2044.1606  0.039959352  0.039239119           19 
 4264000    0.5865933   -4.5919149    2042.1941  0.039911549  0.039229562            9 
 4265000   0.57512239   -4.6035452    2045.5987  0.039968713  0.039219984           10 
 4266000   0.55994221    -4.587392    2047.6438  0.039999294  0.039210442           16 
 4267000   0.56748745   -4.5773756    2045.3313  0.039944756  0.039200884           22 
 4268000   0.56756673   -4.5795228    2041.6844  0.039864192  0.039191369           12 
 4269000   0.57674463   -4.5963379    2045.5194  0.039929714  0.039181836           32 
 4270000   0.56790878   -4.5736008    2045.0824  0.039911834  0.039172323           14 
 4271000   0.56418257   -4.6033124    2041.7276  0.039837032  0.039162782            8 
 4272000   0.55521301   -4.5853808    2045.3482  0.039898335  0.039153215           19 
 4273000   0.56156137   -4.5913921    2045.9547  0.039900826  0.039143644           17 
 4274000   0.57126875   -4.5757098    2044.2656  0.039858556  0.039134121           10 
 4275000   0.56463427   -4.5852545     2048.634  0.039934386    0.0391246           13 
 4276000   0.54867618   -4.5736305    2044.2857  0.039840305  0.039115073           15 
 4277000   0.55146243   -4.5631683    2046.4062  0.039872305  0.039105575            8 
 4278000   0.56627055   -4.5876584    2043.6471  0.039809239  0.039096081           11 
 4279000   0.55948902   -4.6029564     2043.334  0.039793838  0.039086514           21 
 4280000   0.56262391   -4.5931787    2043.0626  0.039779257  0.039076921            7 
 4281000   0.56410747   -4.6040623    2038.1438  0.039674215  0.039067362           15 
 4282000   0.55775911   -4.5796448    2045.0162  0.039798696  0.039057806           12 
 4283000   0.57075203   -4.5968345    2040.7664  0.039706717  0.039048248           11 
 4284000   0.56611612   -4.6063435    2047.0559  0.039819793  0.039038671           13 
 4285000   0.57354319   -4.5778787     2043.912  0.039749358  0.039029166           14 
 4286000   0.57882555   -4.6004637    2040.2423  0.039668734  0.039019641           12 
 4287000   0.56588126    -4.591914    2045.7012  0.039765594  0.039010099           35 
 4288000   0.56287939   -4.5739369    2045.0875  0.039744393  0.039000569           12 
 4289000   0.55721217   -4.6065411    2042.9621   0.03969383  0.038991043            8 
 4290000   0.56206303   -4.6015805    2039.7424  0.039622036  0.038981541           17 
 4291000   0.56088397    -4.607076    2042.3161  0.039662784  0.038972002           18 
 4292000   0.56363736    -4.616136    2045.6674  0.039718613  0.038962479           20 
 4293000   0.56766146    -4.600954    2042.9419  0.039656455  0.038952897           16 
 4294000   0.55669971   -4.6059891    2043.1205  0.039650685  0.038943365            6 
 4295000    0.5656319   -4.6007332    2047.0027  0.039716778  0.038933867           12 
 4296000   0.57046908   -4.5849798    2049.0048  0.039746369  0.038924415            8 
 4297000   0.55759536    -4.589825    2042.9096  0.039618912  0.038914903           13 
 4298000   0.57217323   -4.6000714    2045.6238  0.039662319  0.038905375            9 
 4299000   0.57391527   -4.5867132    2045.3029  0.039646872  0.038895904           11 
 4300000   0.56559869   -4.6044021    2045.4395    0.0396403  0.038886394           12 
 4301000   0.56936967   -4.5847796    2049.5028  0.039709811  0.038876908            6 
 4302000   0.57344338   -4.5948515    2047.8702  0.039668956  0.038867407            6 
 4303000   0.56216015   -4.6081439    2044.1068  0.039586853   0.03885792           10 
 4304000   0.57420157   -4.5923658    2045.4983  0.039604598  0.038848435            7 
 4305000   0.55454756   -4.5908961    2047.5711  0.039635523  0.038838937           13 
 4306000   0.56915618   -4.6024514    2039.4876   0.03946988  0.038829433           17 
 4307000   0.55829927   -4.6169425    2044.0776  0.039549523  0.038819908           16 
 4308000   0.57476505   -4.5948088     2043.183  0.039523038  0.038810423           15 
 4309000   0.57759193   -4.5946251    2044.1338  0.039532254  0.038800981           17 
 4310000   0.56223908   -4.5833389    2049.3179  0.039623315  0.038791507           10 
 4311000   0.56305026   -4.6146194    2044.6649   0.03952418  0.038782025            7 
 4312000   0.56276426   -4.5992646     2050.922  0.039635939  0.038772544           14 
 4313000   0.55631937    -4.586105    2049.2755  0.039594937  0.038763142           10 
 4314000   0.56381345   -4.5824007    2045.5839  0.039514447  0.038753716            8 
 4315000   0.56262505   -4.5964958    2045.4893  0.039503462  0.038744241           12 
 4316000   0.57834381   -4.5966669    2045.0677   0.03948617   0.03873476            8 
 4317000   0.55122376   -4.6081709    2041.4359  0.039406917  0.038725266           18 
 4318000   0.56153825   -4.6008784    2046.2646  0.039490979   0.03871579           13 
 4319000   0.56696927   -4.6051151    2043.6893  0.039432148  0.038706313           10 
 4320000   0.57114227   -4.6078097    2048.7122  0.039519911  0.038696823           13 
 4321000    0.5573177   -4.6144066    2048.4088  0.039504914  0.038687324            8 
 4322000    0.5462163   -4.6025769    2048.5248  0.039498009  0.038677879           24 
 4323000   0.55931702   -4.6076051    2041.6781  0.039356892  0.038668393           12 
 4324000   0.56055209     -4.60762    2049.3577  0.039495793   0.03865893           14 
 4325000   0.55397287   -4.6058303    2048.3323  0.039466904  0.038649446           34 
 4326000    0.5469186   -4.6203212    2038.2857  0.039264249   0.03863996           13 
 4327000   0.55254328   -4.6173408    2045.9505  0.039402791  0.038630457            7 
 4328000    0.5573353   -4.6138715    2047.5682  0.039424834  0.038620993           11 
 4329000   0.55736676     -4.61213    2046.1728  0.039388865   0.03861145            7 
 4330000   0.56434373   -4.5972151    2045.8668  0.039373879  0.038601974            9 
 4331000   0.55718186   -4.6141472    2044.5175  0.039338826  0.038592507           37 
 4332000   0.56484233   -4.6140664    2046.6788  0.039371322  0.038583083           25 
 4333000   0.55884653    -4.594362    2048.5362  0.039397958  0.038573598           24 
 4334000   0.56638335   -4.6078752    2046.8951  0.039357313  0.038564193           16 
 4335000   0.55918266   -4.6253047    2045.4686  0.039320812  0.038554772            8 
 4336000   0.56703092   -4.5948086    2045.1616  0.039305843  0.038545339           27 
 4337000   0.56190815   -4.6186051    2044.8289  0.039290387  0.038535891           14 
 4338000   0.55602674   -4.6038915    2044.1599  0.039268478  0.038526473           32 
 4339000   0.55634974   -4.6402975    2042.6593  0.039230608  0.038516997           65 
 4340000   0.56066057   -4.6172177    2044.4439  0.039255836  0.038507507           13 
 4341000   0.54092104    -4.637244    2043.5011  0.039228694  0.038498023           14 
 4342000   0.56253589   -4.6045919    2050.6813  0.039357464  0.038488545           11 
 4343000   0.55383937   -4.6268227    2044.6306    0.0392323  0.038479111           21 
 4344000    0.5702667   -4.6292542    2047.7325  0.039282776  0.038469677           11 
 4345000    0.5628242   -4.6013441    2049.2872  0.039303551  0.038460261           16 
 4346000   0.56510911   -4.6159437    2048.0945  0.039271638   0.03845088           16 
 4347000   0.56959605   -4.6035741    2051.0108  0.039318511  0.038441477            6 
 4348000   0.56528985   -4.6090611    2042.8935  0.039153893  0.038432062           12 
 4349000   0.54430238   -4.6121688    2048.5948  0.039254135  0.038422659           14 
 4350000   0.56545593   -4.5977071    2055.1557    0.0393708  0.038413287           20 
 4351000   0.54368046   -4.5944063    2044.9859  0.039166971  0.038403933           11 
 4352000   0.55074268   -4.6303686    2052.8187  0.039307956  0.038394503           13 
 4353000   0.55429604   -4.6171984    2043.4913  0.039120363  0.038385088           24 
 4354000   0.55400068   -4.6443367    2045.2342  0.039144736  0.038375637           25 
 4355000   0.55595306   -4.6140497    2049.4451  0.039216323  0.038366191            5 
 4356000   0.55475645   -4.6241727    2047.5587  0.039171234  0.038356754            4 
 4357000   0.55339488   -4.6175422    2044.5763    0.0391052  0.038347311           15 
 4358000   0.55176422   -4.6319231     2049.129  0.039183283  0.038337946           13 
 4359000   0.54693794   -4.6188951    2046.4733  0.039123524  0.038328558           12 
 4360000   0.55161673   -4.6382029    2045.1878  0.039089981  0.038319133           14 
 4361000   0.55173428   -4.6345637    2044.9633  0.039076728  0.038309692            7 
 4362000   0.55656541   -4.6332105    2045.9066   0.03908579  0.038300272           28 
 4363000   0.55319586   -4.6256849    2046.1077  0.039080673  0.038290829           11 
 4364000    0.5591225   -4.6224391    2046.5953  0.039081028  0.038281436            9 
 4365000   0.55472118   -4.6081163    2049.9509  0.039136138  0.038272037            7 
 4366000   0.54474792   -4.6164793    2047.5813  0.039081946  0.038262705            9 
 4367000   0.54286248   -4.6174934    2046.9458   0.03906087   0.03825334           15 
 4368000   0.54952345   -4.6330458    2047.5471  0.039063399  0.038243955            8 
 4369000   0.55493035   -4.6065741    2050.5684  0.039112085  0.038234586            9 
 4370000   0.54753166    -4.611151    2053.4786   0.03915863  0.038225248           30 
 4371000   0.54588442    -4.626899    2048.7148   0.03905885  0.038215907           10 
 4372000   0.53993869   -4.6288091    2048.1198  0.039038576  0.038206532           10 
 4373000   0.55584863   -4.6109846    2051.1389   0.03908718  0.038197188            9 
 4374000   0.54820432   -4.6118873    2048.3046  0.039024246  0.038187837           14 
 4375000   0.54326593   -4.6194524    2051.5938  0.039077978  0.038178476           13 
 4376000   0.56275166   -4.6340698    2050.1418  0.039041397  0.038169144           16 
 4377000   0.55314355   -4.6456279    2051.6189  0.039060598  0.038159809           15 
 4378000   0.55070205   -4.6241314    2052.5791  0.039069955  0.038150439            9 
 4379000   0.56350426   -4.6293339    2051.8302   0.03904678  0.038141071           10 
 4380000   0.56328507    -4.625572    2047.7851  0.038960903  0.038131689           14 
 4381000   0.54723568   -4.5979977    2041.6107  0.038834564  0.038122323           24 
 4382000   0.54762456   -4.6226389     2048.902  0.038964363  0.038112972           10 
 4383000    0.5593374   -4.6355727    2048.1379  0.038940943  0.038103657           15 
 4384000   0.55521717   -4.6155152    2054.2178  0.039047632  0.038094352           12 
 4385000   0.54692738   -4.6521576    2046.7601     0.038897  0.038084984           16 
 4386000   0.54692768   -4.6408917     2046.223  0.038877926  0.038075607           12 
 4387000   0.55133426   -4.6251475    2054.9026  0.039033938   0.03806628            8 
 4388000   0.55357836   -4.6285418    2055.9096  0.039044167  0.038057003           12 
 4389000   0.55783927   -4.6337877    2049.8588  0.038920384  0.038047699           10 
 4390000   0.55009135    -4.628589    2052.8114  0.038967566  0.038038376           20 
 4391000    0.5519659   -4.6417559    2045.6327  0.038822453  0.038029041           12 
 4392000   0.55211451   -4.6137527    2047.4017  0.038847178  0.038019717           16 
 4393000   0.54770333   -4.6380999    2049.0255  0.038869139  0.038010409           14 
 4394000    0.5402273   -4.6345481    2050.8546  0.038894982  0.038001079           17 
 4395000   0.54451093   -4.6144667    2058.0636  0.039022822  0.037991757           21 
 4396000    0.5460663   -4.6191968    2051.9785  0.038898591  0.037982452           13 
 4397000   0.53966054   -4.6213766    2046.9769  0.038794952  0.037973171            8 
 4398000   0.54466666   -4.6080902    2051.7387  0.038876358   0.03796388           29 
 4399000   0.55633765   -4.6277982    2053.1364  0.038893998  0.037954621           21 
 4400000   0.53432811   -4.6232163    2048.0445  0.038788722   0.03794533           20 
 4401000   0.55212732   -4.6426376    2051.1758    0.0388392  0.037936003           17 
 4402000   0.54612971     -4.62068    2051.1221  0.038829359  0.037926724           10 
 4403000   0.54725296   -4.6295724     2054.088  0.038876675   0.03791743           24 
 4404000   0.54353922   -4.6431584     2045.364  0.038702771  0.037908113           13 
 4405000   0.53634972   -4.6293673    2051.9654  0.038818869  0.037898808           11 
 4406000   0.54567064   -4.6517362    2047.9885  0.038734842  0.037889472            9 
 4407000   0.56018288   -4.6424922    2046.7366  0.038702378   0.03788014            8 
 4408000   0.54203643   -4.6292931     2048.782  0.038732268  0.037870824           10 
 4409000    0.5470638   -4.6263223    2048.2945  0.038714268  0.037861505            7 
 4410000   0.55484087   -4.6380714     2049.622  0.038730575  0.037852207            7 
 4411000   0.53006895   -4.6422526    2049.7663   0.03872452  0.037842856            8 
 4412000   0.54559785   -4.6577414    2047.7383  0.038677438  0.037833466            9 
 4413000   0.54624125   -4.6378926    2043.2932  0.038584734  0.037824091           15 
 4414000   0.54750463   -4.6308211     2050.736  0.038716508  0.037814782            9 
 4415000   0.54519578   -4.6368868    2049.8721  0.038691433  0.037805475           15 
 4416000    0.5683984    -4.649151    2045.6153  0.038602342  0.037796129            6 
 4417000   0.54710604   -4.6386548    2045.9811  0.038600503  0.037786777           12 
 4418000   0.53807918    -4.632063     2050.327  0.038673739  0.037777439           16 
 4419000   0.55510345   -4.6579015    2045.7884  0.038579399  0.037768135            7 
 4420000   0.54791133    -4.652193    2052.2899  0.038693249  0.037758805           13 
 4421000   0.54916185   -4.6250099    2051.5224   0.03867003  0.037749514           24 
 4422000   0.53249251   -4.6328396    2045.7976    0.0385534  0.037740211           18 
 4423000   0.53916029    -4.653264    2050.1732  0.038627124  0.037730925           13 
 4424000   0.54083212   -4.6219845    2056.7526  0.038742326  0.037721625           12 
 4425000   0.53526114   -4.6263349    2049.3308  0.038593801  0.037712337            8 
 4426000   0.54571598   -4.6622305    2045.1916  0.038507147  0.037703018           13 
 4427000   0.54692998    -4.649875     2045.935  0.038512442  0.037693701            8 
 4428000   0.52982492   -4.6380857     2048.801  0.038557682  0.037684369           12 
 4429000   0.54495622   -4.6351297    2049.3339  0.038559003  0.037675073           24 
 4430000   0.54373539   -4.6348797    2049.1425  0.038546699  0.037665773           36 
 4431000   0.54492991   -4.6466968    2047.0101  0.038497895  0.037656485           26 
 4432000   0.53777934   -4.6532646    2050.7479  0.038559489  0.037647218           10 
 4433000   0.54033849    -4.651284    2050.3781   0.03854384   0.03763789           20 
 4434000   0.54618897    -4.644421    2044.2118  0.038419257  0.037628609           10 
 4435000   0.54177744   -4.6621359    2048.7746  0.038496328  0.037619274           27 
 4436000   0.54390849   -4.6214526    2050.6125  0.038522177  0.037610009           14 
 4437000   0.52883592   -4.6546367    2046.9412  0.038444543  0.037600738           12 
 4438000   0.54185343   -4.6395222    2052.1689   0.03853404  0.037591474           37 
 4439000   0.53501488   -4.6531932    2054.1787  0.038563091  0.037582203           30 
 4440000    0.5422792   -4.6615293    2049.3432  0.038463649  0.037572949           10 
 4441000   0.54616645   -4.6551347    2045.0903  0.038375184  0.037563684           24 
 4442000   0.54575485   -4.6442346    2050.0522  0.038459632  0.037554447           15 
 4443000   0.53944071   -4.6604034    2052.7244  0.038501096  0.037545198           21 
 4444000   0.54488335   -4.6448213    2048.9485  0.038421627  0.037535895           10 
 4445000   0.53496463   -4.6485335    2053.2707  0.038494014  0.037526639            6 
 4446000    0.5399127   -4.6488473    2053.5757  0.038491073  0.037517457           12 
 4447000   0.55655798   -4.6342995     2050.047  0.038416291  0.037508257            9 
 4448000   0.53844162   -4.6449196    2055.1257  0.038502805  0.037499074           25 
 4449000   0.55285326   -4.6382311    2055.0145  0.038492067  0.037489864           12 
 4450000   0.54098391   -4.6495475     2048.989   0.03837058  0.037480648           26 
 4451000   0.55052581   -4.6459904    2047.2833  0.038330024  0.037471393           12 
 4452000   0.54594792   -4.6568958    2051.1823  0.038394397  0.037462106           14 
 4453000   0.52449265   -4.6422987    2048.9872  0.038344697  0.037452824           14 
 4454000   0.55453712   -4.6374185    2050.0422  0.038355826  0.037443571           21 
 4455000    0.5383364    -4.666153    2051.0589  0.038366234   0.03743433           17 
 4456000    0.5460635   -4.6488915    2048.1218  0.038302697  0.037425092            9 
 4457000   0.53572227   -4.6771752    2045.2914  0.038241183  0.037415829           21 
 4458000   0.54106199   -4.6479612    2049.7464  0.038315881  0.037406575           20 
 4459000   0.52688101   -4.6424779    2052.3175  0.038355339  0.037397389           25 
 4460000   0.54262978   -4.6654951    2051.1942   0.03832575  0.037388166           28 
 4461000   0.53910375   -4.6584414    2047.3411  0.038245183  0.037378957           13 
 4462000   0.53843315   -4.6657501    2047.7961  0.038245109  0.037369715           12 
 4463000   0.53485849   -4.6547342    2055.2608   0.03837592  0.037360517           13 
 4464000   0.52186799   -4.6435444     2047.399  0.038220562  0.037351298           15 
 4465000   0.52968453   -4.6426587    2054.8752  0.038351533  0.037342081           22 
 4466000   0.53994249   -4.6532775    2050.8413  0.038267677  0.037332871           14 
 4467000   0.52934811    -4.661768    2048.1992  0.038209821  0.037323662            7 
 4468000   0.53818179   -4.6559828    2052.0392  0.038272888  0.037314439           19 
 4469000    0.5433204   -4.6371122    2054.7059   0.03831405  0.037305217            9 
 4470000   0.53604099   -4.6439111    2053.9767  0.038291885  0.037296044           16 
 4471000   0.54090252    -4.640056    2052.2838  0.038251767  0.037286912           18 
 4472000   0.53575344   -4.6630182    2052.9801  0.038256189  0.037277781            9 
 4473000   0.54310109   -4.6344852    2058.7974  0.038356013  0.037268614           11 
 4474000   0.54110819   -4.6407814    2050.6296  0.038195305  0.037259483           11 
 4475000   0.53035583   -4.6521653    2048.8565  0.038153752  0.037250298           12 
 4476000   0.54352874   -4.6440141    2050.5574  0.038176896  0.037241105           12 
 4477000   0.53372705   -4.6548633    2053.4196  0.038221645  0.037231926           27 
 4478000   0.53065269   -4.6336455    2052.3469  0.038193145  0.037222787           11 
 4479000   0.54744277   -4.6512522    2057.2362  0.038275586  0.037213663            9 
 4480000    0.5341845   -4.6654846    2052.2921  0.038175075  0.037204513           17 
 4481000   0.52627776   -4.6421052    2053.6964  0.038192673  0.037195359           16 
 4482000   0.52998746   -4.6613785    2055.9737  0.038226493  0.037186236           18 
 4483000   0.53141883   -4.6322898    2048.5438  0.038079854   0.03717708           16 
 4484000   0.53508826   -4.6519276    2052.0098  0.038135775  0.037167899           15 
 4485000   0.54107423   -4.6640265    2054.0561  0.038165293  0.037158724           16 
 4486000   0.54001534   -4.6517612    2044.7065  0.037983105  0.037149577           41 
 4487000   0.53739176   -4.6726935    2052.8081  0.038125104  0.037140448           19 
 4488000   0.54133848   -4.6464728    2048.3198  0.038033271  0.037131312           50 
 4489000   0.53781103    -4.661541    2050.9595  0.038073801  0.037122171           26 
 4490000   0.53810802   -4.6572306    2053.6219  0.038114735  0.037113034           19 
 4491000   0.53528453   -4.6771776    2050.3179  0.038044939    0.0371039           34 
 4492000    0.5304264   -4.6659936    2054.4535  0.038113192  0.037094733           24 
 4493000   0.52742982   -4.6661304     2048.999  0.038003542  0.037085557           23 
 4494000   0.53195741   -4.6923791     2049.764  0.038009272  0.037076354           20 
 4495000   0.53166065   -4.6570523    2054.7745  0.038093706  0.037067182           17 
 4496000   0.53348906   -4.6836534    2051.0414   0.03801604  0.037057985           29 
 4497000   0.51627904    -4.675471    2049.6113  0.037981086  0.037048788           31 
 4498000   0.53100968    -4.665847    2053.4341  0.038043465  0.037039642           21 
 4499000   0.54001243   -4.6670206    2052.6199  0.038019929  0.037030522           22 
 4500000   0.53646089   -4.6374943    2054.6684  0.038049416  0.037021404           27 
 4501000   0.53923225   -4.6702973    2053.7317  0.038023619  0.037012288           45 
 4502000   0.53676317   -4.6586355    2049.5271  0.037937344   0.03700314           29 
 4503000   0.52845916   -4.6798565    2048.5676  0.037911162  0.036993963           33 
 4504000   0.53327265   -4.6646395    2053.5667  0.037995239  0.036984787           11 
 4505000   0.52265803   -4.6783735    2048.9457  0.037901327  0.036975617           13 
 4506000   0.52943998    -4.682649    2050.7817  0.037926869  0.036966442           26 
 4507000   0.53825208   -4.6918994     2052.563   0.03795139  0.036957297           30 
 4508000   0.53199196   -4.6495928    2053.1754  0.037954292  0.036948147           38 
 4509000   0.53172684   -4.6631675    2053.6347  0.037954364  0.036939025           26 
 4510000   0.53380428   -4.6696502    2051.8833  0.037913586  0.036929887           24 
 4511000   0.52827651   -4.6756165    2053.1236  0.037928095  0.036920741           10 
 4512000   0.50585558   -4.6746585    2050.2021   0.03786573  0.036911596            9 
 4513000   0.52093797     -4.67235    2050.7734  0.037867888  0.036902431           17 
 4514000   0.53656489   -4.6594635    2049.5263  0.037836477  0.036893264           39 
 4515000   0.54180475   -4.6663138    2052.1794  0.037877065  0.036884137           27 
 4516000   0.52836781    -4.669561    2053.1367  0.037886342  0.036875005           25 
 4517000   0.53143605   -4.6659644    2050.3294  0.037826165  0.036865863           15 
 4518000   0.52221576   -4.6718757    2049.0762  0.037794677  0.036856692           18 
 4519000   0.53113366   -4.6731715    2048.6614  0.037778664  0.036847522           11 
 4520000   0.53574578   -4.6773031    2049.9131  0.037793383  0.036838365           27 
 4521000   0.52779068   -4.6852851    2049.6437  0.037780059  0.036829225           20 
 4522000   0.54757237   -4.6677042    2050.5287  0.037788012  0.036820091           15 
 4523000   0.51697257   -4.6730097    2051.6899  0.037801051  0.036810964           17 
 4524000   0.51855382   -4.6707827    2049.3446  0.037749494  0.036801828           23 
 4525000   0.52576314    -4.691424    2048.9541  0.037733962  0.036792694           15 
 4526000   0.52021776   -4.6790746    2053.9646  0.037817879  0.036783549           11 
 4527000   0.52454458   -4.6678901    2051.9775  0.037772945  0.036774455           18 
 4528000   0.52752156   -4.6862272    2051.8115  0.037761549  0.036765338           17 
 4529000   0.52548323   -4.6782314    2050.8292  0.037735137  0.036756167           14 
 4530000   0.53489801   -4.6786424    2048.1347  0.037677239  0.036747011           25 
 4531000   0.52820491   -4.6729224    2047.6129  0.037659326  0.036737884           36 
 4532000   0.51644003    -4.680052    2047.1338  0.037642207  0.036728751           19 
 4533000   0.52679107   -4.6697564    2052.6288  0.037734922  0.036719639           28 
 4534000   0.51124304    -4.686289    2049.8737  0.037675962   0.03671049           50 
 4535000   0.51902535   -4.6705217    2049.3289  0.037657642  0.036701342           32 
 4536000    0.5253031   -4.6837431    2056.6705  0.037784217  0.036692204            8 
 4537000   0.51824713   -4.6687915    2051.6248  0.037683211  0.036683066           13 
 4538000   0.52845101    -4.666729    2051.5932  0.037674328    0.0366739           16 
 4539000   0.51874385   -4.6963353    2048.1464  0.037602746  0.036664717           58 
 4540000   0.51068908   -4.6831587    2051.3883   0.03765397  0.036655556           63 
 4541000   0.52586809   -4.7031781     2054.276  0.037698672  0.036646398           43 
 4542000   0.52147836    -4.688553    2053.8751  0.037683016  0.036637256           23 
 4543000   0.53300999   -4.6715612    2052.6079  0.037651477  0.036628135           25 
 4544000   0.52367288     -4.67938    2057.0741  0.037725098  0.036619006           21 
 4545000   0.52330354   -4.6828732    2048.6382  0.037562124  0.036609872           20 
 4546000   0.52015155   -4.6920375    2050.7813  0.037593146  0.036600724           12 
 4547000   0.51882957   -4.6795966    2054.0236    0.0376443  0.036591571           13 
 4548000   0.52589971   -4.6633367    2050.1109  0.037564331  0.036582467           10 
 4549000   0.52278079   -4.6841152    2048.2529  0.037522036  0.036573358           19 
 4550000   0.52409616   -4.7000341    2045.7112  0.037467239  0.036564219           25 
 4551000   0.53217935   -4.6807199    2050.7542  0.037551348  0.036555074            9 
 4552000   0.51773956   -4.6861506    2052.7954  0.037580466  0.036545959            7 
 4553000   0.52107206   -4.6794186     2048.076  0.037485833  0.036536816           22 
 4554000   0.52327464   -4.6669383     2051.366  0.037537806    0.0365277           20 
 4555000   0.51597854   -4.6672247    2048.2427  0.037472425  0.036518585           29 
 4556000   0.52359147   -4.6788571    2051.6971  0.037527384  0.036509499           36 
 4557000   0.52185153   -4.6793705    2049.2796   0.03747494  0.036500374           27 
 4558000   0.51776381   -4.6880057    2051.9874  0.037516223   0.03649125           52 
 4559000   0.52369742   -4.7017387    2049.4744  0.037462061  0.036482111           41 
 4560000   0.51873964   -4.6705755    2048.2268  0.037431046  0.036472969           25 
 4561000   0.51812576   -4.6916977    2052.7545  0.037505563  0.036463843           10 
 4562000   0.52887952   -4.6741709    2051.4635   0.03747376  0.036454719           15 
 4563000   0.51786569   -4.7228349    2048.0539  0.037403279  0.036445575           12 
 4564000   0.51979029   -4.6933061    2049.3398  0.037418561  0.036436445           21 
 4565000   0.51203549   -4.6720056    2050.1773  0.037425653  0.036427318           13 
 4566000   0.51766801   -4.6929892    2052.6392  0.037462388  0.036418213            9 
 4567000   0.52541301   -4.6712054    2053.1283  0.037463111  0.036409129           11 
 4568000   0.52950072   -4.6810317    2047.1016  0.037344965  0.036400052           18 
 4569000   0.52656526   -4.6922115    2047.6137  0.037346131  0.036390916           11 
 4570000    0.5255278   -4.6844489    2052.1102  0.037419952  0.036381825            8 
 4571000   0.53263622   -4.7192856    2046.6037  0.037311378  0.036372713           12 
 4572000   0.51808695   -4.6884431     2048.132  0.037331073  0.036363624            8 
 4573000   0.51865092   -4.6718133    2048.7036  0.037333326  0.036354516           21 
 4574000    0.5154394   -4.6848269    2045.8751  0.037273632  0.036345399           33 
 4575000   0.51629784   -4.6944648    2049.7615  0.037336276  0.036336263           20 
 4576000    0.5231622   -4.6890895     2049.923  0.037331058  0.036327146           16 
 4577000   0.50799448   -4.6889728    2048.8283   0.03730297  0.036318033           21 
 4578000   0.51763275   -4.6803378    2050.4031  0.037323488  0.036308893           16 
 4579000   0.51714936   -4.6808649    2046.8021  0.037249802  0.036299779            9 
 4580000   0.51888225   -4.6838148    2052.9686  0.037353869  0.036290685            7 
 4581000   0.52313096   -4.7034504    2047.4997  0.037246228  0.036281567           12 
 4582000   0.51406653   -4.6810008    2046.7966  0.037225312  0.036272449           17 
 4583000   0.51585616    -4.698149    2050.1109  0.037277454  0.036263357           17 
 4584000   0.51884985   -4.6751834    2044.8183  0.037173108  0.036254245           13 
 4585000   0.52703946   -4.6787614     2047.944  0.037221809  0.036245173           14 
 4586000   0.51784365   -4.7007651    2048.3804  0.037221624  0.036236047            9 
 4587000   0.51284198   -4.6701111    2050.2631  0.037247712  0.036226931           12 
 4588000   0.52182245   -4.6934204    2053.8138  0.037304087  0.036217868           12 
 4589000     0.526947   -4.6837741    2047.6292  0.037183649  0.036208771           26 
 4590000   0.52121713   -4.6995378    2048.4447  0.037190355  0.036199638           60 
 4591000    0.4980678   -4.7089994    2044.2067  0.037105327  0.036190498           74 
 4592000   0.52110894   -4.6970629    2044.9874  0.037111415  0.036181335           78 
 4593000   0.52536803   -4.7038552     2043.873  0.037083116  0.036172215           26 
 4594000   0.51091075   -4.7082518    2050.0027  0.037186233  0.036163081           19 
 4595000   0.52179304   -4.7097799     2047.686  0.037136126   0.03615397           31 
 4596000   0.51818463   -4.7130805    2047.7643  0.037129465  0.036144853           20 
 4597000   0.52500782   -4.7308046    2044.0464  0.037053992  0.036135707           13 
 4598000   0.50269696   -4.6909341    2044.7109  0.037057975  0.036126523           23 
 4599000   0.50906587   -4.7114974    2045.7838   0.03706936  0.036117363           17 
 4600000   0.50434036   -4.7107167    2044.7412  0.037042413  0.036108227           17 
 4601000   0.50451984   -4.7018943    2048.6056  0.037104355  0.036099124           11 
 4602000   0.52136647   -4.7076101    2049.3705  0.037110143  0.036090017            9 
 4603000    0.5048343   -4.7037679    2046.8959   0.03705728  0.036080944           13 
 4604000   0.51930209   -4.6954705     2047.403  0.037058409  0.036071862           28 
 4605000   0.51656545   -4.7023623    2042.6766  0.036964831  0.036062812           25 
 4606000   0.52946079   -4.7163173    2047.6955   0.03704761  0.036053688           22 
 4607000   0.51876591   -4.6993322    2043.0047  0.036954719  0.036044575           18 
 4608000   0.51376397   -4.6902785     2047.526  0.037028466   0.03603545           31 
 4609000   0.50877057   -4.7009027     2044.654  0.036968503  0.036026361           16 
 4610000    0.5091721   -4.7070974     2046.519  0.036994198  0.036017237           31 
 4611000   0.51317986   -4.6968175    2047.2395  0.036999196   0.03600813           14 
 4612000   0.51634677   -4.7154482    2045.4047  0.036958021  0.035998986            9 
 4613000   0.50570165   -4.7103437    2045.7292  0.036955871  0.035989859            9 
 4614000   0.52524764   -4.7032252    2052.1301  0.037063468  0.035980748           25 
 4615000   0.52251988   -4.7152537    2048.3813  0.036987745  0.035971643           20 
 4616000   0.50140782   -4.6909454    2049.9566   0.03700817  0.035962551            7 
 4617000   0.50935507   -4.7142345    2048.1523  0.036967589  0.035953452           14 
 4618000   0.51934904   -4.7129166    2049.2688  0.036979731  0.035944394           16 
 4619000   0.51475251   -4.7070796    2047.7634  0.036944566  0.035935286           17 
 4620000   0.51982531   -4.6933339    2051.8009  0.037009396  0.035926219           13 
 4621000   0.50260288    -4.706104    2044.7289  0.036873853  0.035917131           14 
 4622000    0.5061473   -4.7089925    2047.4156  0.036914315  0.035908061           29 
 4623000   0.49807059   -4.7200947    2047.9891  0.036916668  0.035898964           57 
 4624000   0.52171486   -4.7097998    2048.6744  0.036921035  0.035889855           30 
 4625000   0.51193537   -4.7053108    2047.8318   0.03689787  0.035880756           48 
 4626000   0.52370033   -4.7083184    2044.7113  0.036833682  0.035871648           31 
 4627000   0.50515326   -4.7317687    2047.2875  0.036872119  0.035862559           45 
 4628000   0.51409018   -4.7038331    2048.9409  0.036893923  0.035853496           48 
 4629000   0.51229132   -4.6930829     2046.678  0.036845215  0.035844449           57 
 4630000   0.51011218   -4.7017596    2047.7951  0.036857364  0.035835401           40 
 4631000   0.50926372   -4.6996848    2053.9335  0.036959862  0.035826382           36 
 4632000   0.52117256   -4.7092751    2051.8695  0.036914751  0.035817363           28 
 4633000   0.51520994   -4.7200706    2044.5528  0.036775178  0.035808321           46 
 4634000   0.51469285   -4.7041666     2049.679  0.036859427  0.035799255           48 
 4635000   0.50032486   -4.7032296    2047.8079  0.036817834  0.035790226           26 
 4636000   0.50646778   -4.7059325    2050.6567    0.0368611  0.035781199           31 
 4637000   0.50957502   -4.7139543    2046.2429  0.036773828  0.035772185           14 
 4638000   0.51610934   -4.7103933    2050.8959  0.036849502  0.035763168           19 
 4639000   0.50732354   -4.7004907    2047.8586  0.036786998  0.035754141           21 
 4640000   0.51250672    -4.697322    2054.4618  0.036897662  0.035745116           14 
 4641000   0.51446422   -4.7067503    2049.8263  0.036806477  0.035736113           13 
 4642000   0.50404739   -4.7141754    2051.2732  0.036824522  0.035727106           35 
 4643000   0.50920911   -4.7140117    2051.8619  0.036827158  0.035718109           20 
 4644000   0.50690257   -4.7199025    2049.0557  0.036768873  0.035709102           24 
 4645000   0.51415187   -4.7023514    2052.4854  0.036822487  0.035700101            7 
 4646000   0.51080058   -4.7113626    2056.2117  0.036881398  0.035691123            7 
 4647000   0.51120396   -4.7159571    2047.8653  0.036723788  0.035682102           21 
 4648000   0.51561911     -4.71565    2048.9101  0.036734618  0.035673058           18 
 4649000    0.5118717   -4.7206479    2046.3029  0.036679983  0.035664045           15 
 4650000   0.52012828   -4.7179598     2048.666  0.036714444  0.035655013           21 
 4651000   0.50847702     -4.70666    2050.6616  0.036742307  0.035646033           26 
 4652000   0.50131897   -4.7225981    2049.3489  0.036710893  0.035637043           26 
 4653000   0.49687599   -4.7249866    2046.6865  0.036655321  0.035628043           37 
 4654000   0.50914819   -4.7149214    2049.5748  0.036699162  0.035619046           29 
 4655000   0.49905318   -4.7186593    2051.1252  0.036719033  0.035610065           51 
 4656000   0.50301641   -4.7168516     2050.224  0.036695018   0.03560107           39 
 4657000   0.50805078   -4.7193754    2052.7609  0.036732534    0.0355921           17 
 4658000   0.51868099   -4.7018616    2050.4661  0.036683592  0.035583157           24 
 4659000     0.497545   -4.7244697    2050.9444  0.036684273  0.035574216           12 
 4660000   0.51684123   -4.7317617    2050.0862  0.036661055  0.035565271           19 
 4661000   0.51123608   -4.7123686    2048.6859  0.036628154  0.035556315           12 
 4662000    0.5214996   -4.7275087    2046.1993  0.036575849  0.035547331           19 
 4663000   0.49413266   -4.7167443    2049.2846  0.036623144  0.035538341           16 
 4664000   0.50049465   -4.7147783    2048.2418  0.036596659  0.035529377           14 
 4665000   0.51008529   -4.6943013    2050.5448  0.036629954   0.03552043            9 
 4666000   0.50918804   -4.7254473    2052.9188  0.036664502    0.0355115           20 
 4667000   0.50386406   -4.6951038     2054.665  0.036687825  0.035502579           12 
 4668000    0.4962258    -4.733074    2054.1317  0.036670446  0.035493653           16 
 4669000   0.49923352   -4.7036741    2049.6408  0.036582437  0.035484734            9 
 4670000   0.49813333   -4.7217123    2053.2252  0.036638564  0.035475791           15 
 4671000   0.50876557   -4.7149465    2051.5202  0.036600304  0.035466841           14 
 4672000   0.50116713   -4.7107377    2053.7399  0.036632062  0.035457915           29 
 4673000   0.48436704   -4.7305803    2042.6531  0.036426512  0.035448981           16 
 4674000   0.49775011   -4.7280986    2050.1025  0.036551535  0.035440039           11 
 4675000    0.5024573   -4.7159596    2048.2712  0.036511073  0.035431069           58 
 4676000   0.49770751   -4.7151151    2048.4206  0.036505928  0.035422116           41 
 4677000   0.50046676   -4.7116226    2044.6177  0.036430363  0.035413162           48 
 4678000   0.51283213   -4.7328881    2049.8923  0.036516537  0.035404213           52 
 4679000   0.50265963    -4.716225    2047.3481  0.036463419  0.035395263           40 
 4680000   0.50338734   -4.7041248    2053.2587  0.036560874  0.035386343           20 
 4681000   0.50194296   -4.7158974    2050.5256  0.036504408  0.035377452           13 
 4682000   0.50945503    -4.733604    2047.4795  0.036442394  0.035368525           18 
 4683000   0.50286018   -4.7331907    2049.6003  0.036472352  0.035359565           19 
 4684000   0.51336736   -4.7419676    2048.4433  0.036443981  0.035350623            7 
 4685000   0.50136856   -4.7337585    2044.8426  0.036372156  0.035341698           14 
 4686000   0.49894248   -4.7400703    2052.6096  0.036502517  0.035332788           19 
 4687000   0.50043903   -4.7206161    2047.2053  0.036398644  0.035323864           11 
 4688000   0.51003593   -4.7327334    2051.2912   0.03646351  0.035314944           12 
 4689000   0.50724639    -4.729217     2046.941  0.036378421  0.035306015           12 
 4690000   0.51344292   -4.7276301    2053.9231  0.036494724  0.035297115           21 
 4691000   0.49637576   -4.7263166    2049.4473  0.036407434  0.035288205           12 
 4692000   0.48760317    -4.734028    2048.8664  0.036389358  0.035279309            6 
 4693000   0.50462885   -4.7275395    2049.1341  0.036386357  0.035270415           20 
 4694000   0.49793754   -4.7453125    2049.9727  0.036393493  0.035261499           12 
 4695000   0.51058077   -4.7362335    2046.0654   0.03631639  0.035252584           12 
 4696000   0.50056214    -4.731402    2050.9782  0.036395837  0.035243686           14 
 4697000   0.50042623   -4.7229215    2051.1081  0.036390393  0.035234802           16 
 4698000   0.49669948   -4.7219845    2054.2879  0.036439051  0.035225907           18 
 4699000   0.49528735   -4.7287569    2052.1649  0.036393646  0.035217011           27 
 4700000   0.50211899   -4.7175249    2053.2473  0.036405093  0.035208104           51 
 4701000   0.50269904   -4.7269909    2042.7744    0.0362117  0.035199184           27 
 4702000   0.50116484   -4.7413279    2054.6145   0.03641384  0.035190273           27 
 4703000   0.50113233   -4.7207913    2051.0395  0.036342752  0.035181378           38 
 4704000   0.49896124   -4.7474047    2053.2354  0.036373926  0.035172492           16 
 4705000   0.49520096   -4.7346678    2049.0894  0.036292764  0.035163574           40 
 4706000   0.50598159   -4.7418861    2046.8285  0.036245015  0.035154664           23 
 4707000   0.48965404   -4.7519786    2046.1597  0.036225475  0.035145728           19 
 4708000   0.50060848   -4.7392824    2050.1133  0.036287761  0.035136803           13 
 4709000   0.50312759    -4.735067    2049.0817  0.036261798  0.035127951           11 
 4710000   0.48987604   -4.7407932     2051.966  0.036305131  0.035119078           13 
 4711000   0.51045088   -4.7442589    2052.3404  0.036304047  0.035110212           15 
 4712000   0.50128267   -4.7420795    2046.1262  0.036186442  0.035101345           18 
 4713000   0.49398077   -4.7356598    2046.3657     0.036183  0.035092477           25 
 4714000   0.49391161   -4.7456845    2051.2572  0.036261794  0.035083597           21 
 4715000   0.49674725   -4.7363771    2049.4691  0.036222501  0.035074718           32 
 4716000   0.50074947   -4.7410215    2050.1684  0.036227177  0.035065893           27 
 4717000   0.50814556   -4.7253538      2055.58  0.036315102  0.035057089           10 
 4718000   0.49655095     -4.71661    2051.2438  0.036230815  0.035048306           11 
 4719000   0.47905108   -4.7347329    2049.4671  0.036191763  0.035039457            8 
 4720000   0.49726401   -4.7347604    2052.9814  0.036246141  0.035030632           29 
 4721000   0.49920727   -4.7352876    2049.4459  0.036176055  0.035021798           25 
 4722000   0.48796681    -4.745851     2050.695  0.036190438  0.035012949           42 
 4723000   0.50125647    -4.751928    2050.9651  0.036187542  0.035004074           52 
 4724000    0.5009924   -4.7548946    2044.3983   0.03606404  0.034995214           20 
 4725000   0.50825424     -4.72829    2051.1252  0.036175047   0.03498635           15 
 4726000   0.48743173   -4.7513993    2054.0007  0.036218098  0.034977507           50 
 4727000    0.4887824   -4.7400409    2050.0998  0.036141665  0.034968671           66 
 4728000   0.49873834   -4.7458156    2050.5869  0.036142606  0.034959868           67 
 4729000   0.49784042   -4.7533143    2049.0408  0.036107718  0.034951045           42 
 4730000   0.50495607   -4.7192549    2050.3663  0.036123438  0.034942222           61 
 4731000   0.49653826   -4.7423654    2053.0954  0.036163873  0.034933396           38 
 4732000   0.50617449   -4.7438185    2054.6661  0.036183892  0.034924572           55 
 4733000   0.49978324   -4.7435903    2048.6776  0.036070808  0.034915768           16 
 4734000   0.49002217   -4.7458435    2049.8581  0.036083969  0.034906949           18 
 4735000   0.48560816   -4.7374143    2051.9912  0.036113889  0.034898154           19 
 4736000   0.50003364   -4.7231466    2051.2769  0.036093695  0.034889367           48 
 4737000   0.49277824   -4.7320154    2049.7696  0.036059559  0.034880569           24 
 4738000   0.50401027   -4.7578374    2052.6782  0.036103107  0.034871745           31 
 4739000    0.4966309   -4.7278635    2050.5817  0.036058622  0.034862907           27 
 4740000   0.48975847   -4.7522195    2046.0259  0.035970919  0.034854072           19 
 4741000    0.4923396   -4.7563399    2047.9324  0.035996843  0.034845253           12 
 4742000   0.50345598   -4.7611636    2052.1165  0.036062781   0.03483641            9 
 4743000   0.49325251   -4.7419496    2051.0998  0.036037315  0.034827585           15 
 4744000   0.50140244    -4.740289     2048.622  0.035986193  0.034818775           78 
 4745000   0.50117393   -4.7537139    2052.2274  0.036041928  0.034809945           17 
 4746000   0.50358703   -4.7551679    2049.9148  0.035993728  0.034801099           32 
 4747000   0.48795341   -4.7381072    2045.0403  0.035900574  0.034792249           41 
 4748000   0.48027907   -4.7445682    2044.6358  0.035885913  0.034783391           47 
 4749000   0.50189893   -4.7607924    2047.2422  0.035924092  0.034774529           43 
 4750000   0.48906287   -4.7652128    2045.4563  0.035885197  0.034765656           24 
 4751000   0.49339172   -4.7571767    2048.0747  0.035923573  0.034756818           20 
 4752000   0.49262004   -4.7521277    2047.3269  0.035902898     0.034748           11 
 4753000   0.49261747   -4.7562389    2051.1339  0.035962093  0.034739179           11 
 4754000   0.49383008   -4.7544614    2048.5868   0.03590988  0.034730356           13 
 4755000   0.49129051   -4.7476382    2050.6193  0.035937948  0.034721564           18 
 4756000   0.49702381   -4.7426778    2047.8353  0.035881611  0.034712747           18 
 4757000   0.49745861   -4.7699206    2047.6141  0.035870194  0.034703916           20 
 4758000   0.49671958   -4.7440433    2052.6894  0.035951546  0.034695126           10 
 4759000    0.4852395   -4.7526239    2052.0137  0.035932158  0.034686358           35 
 4760000   0.48732059   -4.7394997    2045.2281  0.035805813  0.034677561           22 
 4761000   0.48508242    -4.733134    2051.0185  0.035899645  0.034668776           45 
 4762000   0.48215398   -4.7355172    2048.6531  0.035850712  0.034659991           19 
 4763000   0.48741534   -4.7498309    2051.5494  0.035893858  0.034651194           21 
 4764000   0.47046207   -4.7537721    2051.3999   0.03588371   0.03464242           92 
 4765000   0.48998013   -4.7611249    2050.7636   0.03586505  0.034633645           18 
 4766000   0.48427374   -4.7565623    2049.8786  0.035842052  0.034624864           22 
 4767000   0.49570118    -4.746042    2048.9844  0.035818901  0.034616078           29 
 4768000    0.4799966   -4.7714337    2049.2653  0.035816298  0.034607275           39 
 4769000   0.48248681   -4.7374462    2049.9493   0.03582074  0.034598485           40 
 4770000   0.48540871   -4.7493607     2045.936  0.035743116  0.034589693           38 
 4771000   0.48383503   -4.7566694    2048.3732  0.035778195  0.034580902           20 
 4772000   0.49088751   -4.7547661    2047.3586  0.035752979  0.034572115           46 
 4773000   0.47912391   -4.7623481    2049.5089  0.035783031  0.034563325           20 
 4774000   0.48230968   -4.7556198    2047.4966   0.03574041   0.03455455           14 
 4775000   0.49302688   -4.7670682    2052.3763  0.035818086  0.034545811           21 
 4776000   0.48585985   -4.7410809    2049.6667  0.035763308  0.034537062           20 
 4777000   0.49042035   -4.7430746    2048.9521  0.035743355  0.034528295           15 
 4778000   0.48665569   -4.7535587    2047.1677  0.035704753  0.034519511           16 
 4779000   0.49132486   -4.7404457    2049.5786  0.035739321  0.034510741           22 
 4780000   0.49148263   -4.7492386     2049.985   0.03573893  0.034501996           27 
 4781000   0.48904487     -4.75857    2049.7192  0.035726821   0.03449323           14 
 4782000   0.50406801   -4.7597521    2051.2428  0.035745901  0.034484494           22 
 4783000   0.49527668   -4.7407203    2048.8267  0.035696332  0.034475758           14 
 4784000   0.50115306   -4.7594563    2052.9587  0.035760848  0.034467012           14 
 4785000   0.49073115   -4.7572038    2052.4562  0.035744622  0.034458275           22 
 4786000   0.48436745   -4.7608593    2047.1716  0.035645139   0.03444952           16 
 4787000   0.48418041   -4.7427853    2053.7797  0.035752729   0.03444077           28 
 4788000   0.48699465   -4.7397192    2054.0524  0.035750007  0.034432066           15 
 4789000   0.48952783   -4.7592594    2049.6347   0.03566567  0.034423347           11 
 4790000   0.47966034   -4.7501166    2054.6714  0.035745849   0.03441465           24 
 4791000   0.49012493   -4.7508794    2052.1556  0.035694628  0.034405957           24 
 4792000   0.48320668   -4.7452963    2046.2713  0.035584852  0.034397248           50 
 4793000   0.48193523   -4.7721713    2052.5712  0.035686961  0.034388525           31 
 4794000   0.47960569   -4.7560359    2052.8198  0.035683838  0.034379811           57 
 4795000    0.4869103   -4.7546053    2049.8846  0.035625384  0.034371101           48 
 4796000   0.49248133   -4.7569592     2049.287  0.035607572  0.034362381           60 
 4797000   0.49113543   -4.7670852    2046.4399  0.035550689  0.034353655           98 
 4798000   0.47883438   -4.7793191     2047.283  0.035557924  0.034344908           69 
 4799000   0.47670258   -4.7611866     2051.264  0.035619642  0.034336141           31 
 4800000   0.48264423   -4.7667826    2045.5339  0.035512741  0.034327401           19 
 4801000   0.47491542   -4.7642579    2052.1225  0.035619706  0.034318664           32 
 4802000   0.49205335   -4.7592258      2047.49  0.035531897   0.03430992           28 
 4803000   0.47846053   -4.7697475    2047.4681  0.035524118  0.034301189           23 
 4804000   0.47692835   -4.7615709    2048.1967  0.035529363  0.034292476           42 
 4805000   0.48157963   -4.7608196    2051.6024  0.035581034   0.03428377           34 
 4806000   0.48386692   -4.7719306    2046.1027  0.035478268  0.034275044           34 
 4807000   0.48612714   -4.7655325     2046.523  0.035478175  0.034266335           38 
 4808000     0.478287   -4.7559331    2048.3269  0.035502061   0.03425764           20 
 4809000   0.47987311   -4.7366496    2047.8654  0.035486682  0.034248935           19 
 4810000   0.48708214   -4.7703286    2052.9653  0.035567659   0.03424027           36 
 4811000    0.4732473   -4.7608854    2048.3026  0.035479502  0.034231597           39 
 4812000   0.47441507   -4.7447711     2048.698  0.035478976  0.034222929           27 
 4813000   0.47569579   -4.7776391    2046.0306   0.03542542  0.034214254           33 
 4814000   0.48572949   -4.7647822    2047.8374  0.035449339  0.034205544           27 
 4815000   0.48723593   -4.7534001    2046.4772  0.035418435  0.034196847           21 
 4816000   0.48549838   -4.7658335     2047.754  0.035433175   0.03418815           23 
 4817000   0.47302877     -4.76897    2052.0732  0.035500541  0.034179419           15 
 4818000   0.47897824   -4.7855319    2046.4935  0.035396664  0.034170692           16 
 4819000   0.48604671   -4.7875282    2044.8848    0.0353615  0.034161975           22 
 4820000   0.48527453     -4.77275    2049.9211  0.035441236  0.034153252           57 
 4821000     0.493268    -4.769024    2045.7304  0.035361447  0.034144534           21 
 4822000     0.473434   -4.7793422    2043.1742  0.035309937  0.034135792           28 
 4823000   0.46644457   -4.7830201    2043.3706  0.035306009  0.034127054           27 
 4824000   0.48070326   -4.7936138    2045.5828  0.035336906  0.034118291           49 
 4825000   0.47458563   -4.7735641    2044.4901  0.035310709  0.034109536           18 
 4826000   0.48197867   -4.7873403    2048.7135  0.035376321  0.034100817           26 
 4827000   0.47663246   -4.7622236    2046.0719  0.035323387  0.034092088           34 
 4828000   0.47803545   -4.7693328    2046.3109  0.035320196  0.034083393           56 
 4829000   0.48283643   -4.7655752    2046.3343  0.035313286  0.034074689           21 
 4830000   0.47169669   -4.7647065    2051.5735  0.035396369  0.034065997           11 
 4831000   0.47834903   -4.7625767     2042.683  0.035235683  0.034057308           17 
 4832000   0.48274092   -4.7721318    2050.5554  0.035364159  0.034048615           10 
 4833000    0.4747796   -4.7785453    2043.4479  0.035234291   0.03403992            7 
 4834000   0.48439154   -4.7862255    2048.4471  0.035313183   0.03403121           23 
 4835000   0.48310166   -4.7890776    2045.6947  0.035258441  0.034022499           13 
 4836000    0.4695517   -4.7865618     2046.946  0.035272711  0.034013776           18 
 4837000   0.48412384   -4.7987477    2044.7952  0.035228364  0.034005071           22 
 4838000   0.48724399   -4.7857386     2050.859  0.035325531  0.033996349           12 
 4839000   0.47915577   -4.7805779    2045.3285  0.035222988  0.033987646           18 
 4840000   0.47541601   -4.7891864    2045.8949  0.035225463  0.033978935           31 
 4841000   0.47502006   -4.7945038    2052.5725  0.035333135  0.033970216           26 
 4842000   0.47756201   -4.7809724     2042.095  0.035145514  0.033961495           24 
 4843000   0.47102269   -4.7825323    2047.5267   0.03523172  0.033952761           13 
 4844000   0.47585518    -4.768009    2042.2002  0.035132815  0.033944065           24 
 4845000   0.47483819   -4.7913702    2047.5839  0.035218162   0.03393536           13 
 4846000   0.47511901   -4.7792149    2044.3657  0.035155552  0.033926657           15 
 4847000   0.47376211   -4.7855593    2050.3466  0.035251127  0.033917959           13 
 4848000   0.47862872   -4.7810908    2048.1557  0.035206196  0.033909287           27 
 4849000   0.47849099   -4.7621284    2047.2576  0.035183502  0.033900638           40 
 4850000   0.48183012   -4.7824062    2048.8392  0.035203423  0.033891999           13 
 4851000   0.48256215   -4.7679709    2050.2802   0.03522092  0.033883362           28 
 4852000   0.47600175   -4.7790131    2048.0618   0.03517556  0.033874713           10 
 4853000   0.45928003   -4.7498314    2049.0751  0.035185711  0.033866075           26 
 4854000   0.48501831   -4.7578422    2047.1403  0.035145247  0.033857456           26 
 4855000   0.47495717   -4.7705038    2049.5233   0.03517891  0.033848809           28 
 4856000   0.46736942   -4.7696201     2042.524  0.035051551  0.033840145           15 
 4857000   0.47442905   -4.7780573    2047.2863  0.035126044  0.033831453           16 
 4858000   0.47299693   -4.8068074    2047.4652  0.035121881  0.033822791           12 
 4859000   0.46826329   -4.7819448    2044.4863  0.035063564  0.033814124           17 
 4860000   0.46897125   -4.8026518    2047.1646  0.035102274  0.033805464           15 
 4861000   0.48118103    -4.785475    2049.8736  0.035141494  0.033796819           14 
 4862000   0.46902719   -4.7850853    2048.7499  0.035115005  0.033788175            7 
 4863000   0.46679571   -4.7931018    2046.9271   0.03507655  0.033779529           17 
 4864000   0.46910273    -4.790062    2043.2987  0.035007173  0.033770888           14 
 4865000   0.48135214   -4.7569737    2045.9136  0.035044769  0.033762257           16 
 4866000    0.4665642   -4.7710849    2049.5789  0.035100337   0.03375363           24 
 4867000   0.47198156   -4.7850463    2043.8867  0.034995663  0.033744998           28 
 4868000   0.47703148   -4.7989054    2045.4531  0.035015289  0.033736349           73 
 4869000   0.46170318   -4.7834455    2046.5792  0.035027371  0.033727703           27 
 4870000   0.48043036   -4.7870681    2047.5603  0.035036967  0.033719043           38 
 4871000   0.46647597   -4.7836504    2044.0235  0.034969265  0.033710412           37 
 4872000   0.47308167   -4.7980826     2045.393  0.034985513  0.033701764           83 
 4873000   0.47440081   -4.7717594    2050.3306  0.035062772   0.03369314          103 
 4874000   0.46667528   -4.7861595     2046.843  0.034995948   0.03368454           76 
 4875000   0.46972333   -4.7998093    2046.1461  0.034976857  0.033675918          123 
 4876000   0.47310004   -4.7985395     2048.417  0.035008493  0.033667286          147 
 4877000   0.48003902   -4.7974848    2045.0143  0.034943173  0.033658643          111 
 4878000   0.47408481   -4.8013383    2047.2381  0.034974001  0.033649997           75 
 4879000    0.4711951   -4.7972784    2048.4253   0.03498711   0.03364134           52 
 4880000   0.47677956   -4.8016225    2044.6765  0.034915924  0.033632684           50 
 4881000   0.47547908   -4.7927091    2048.7234  0.034977864  0.033624064           80 
 4882000   0.46775725   -4.7973642    2043.8885  0.034888169  0.033615453           56 
 4883000   0.46941385   -4.8033948    2048.0442  0.034951946  0.033606834           92 
 4884000    0.4647267   -4.8167308    2042.0021  0.034841695  0.033598213           75 
 4885000   0.47807525   -4.7807558    2048.5917  0.034946975   0.03358959           56 
 4886000   0.47143308   -4.8026105    2043.9163  0.034860081  0.033580975           41 
 4887000   0.47701693   -4.7821606    2053.7851  0.035021231  0.033572364           35 
 4888000   0.46172035   -4.7861159    2051.6586  0.034977813  0.033563764           63 
 4889000   0.47137652   -4.7952231    2046.0905  0.034875751  0.033555181          144 
 4890000   0.48222296   -4.7822518    2043.3139  0.034821301  0.033546602           67 
 4891000   0.46830462   -4.7820821    2046.5804  0.034869836  0.033538031           71 
 4892000   0.46610183   -4.7860169    2046.0271  0.034853282   0.03352946           66 
 4893000   0.46815927   -4.8018036     2043.971  0.034811142  0.033520867           75 
 4894000   0.45620023   -4.7806024    2049.5829  0.034899587  0.033512276           89 
 4895000   0.46059015   -4.7833652    2047.0041  0.034848555  0.033503705          101 
 4896000   0.46283297   -4.7840656         2047  0.034841367   0.03349512           65 
 4897000   0.46950489   -4.7860544     2044.534  0.034792288  0.033486534           92 
 4898000   0.47861584   -4.7839165    2050.1133  0.034880109  0.033477977           71 
 4899000   0.46399738   -4.7799105    2046.2297  0.034806928  0.033469421           31 
 4900000   0.46103246   -4.7751718    2046.2166  0.034799602  0.033460849           19 
 4901000   0.46871361   -4.7899757    2051.7967  0.034887382  0.033452289           28 
 4902000   0.47321756   -4.7925692    2048.2115  0.034819317   0.03344372           26 
 4903000   0.46082373   -4.7993365    2047.1159  0.034793593  0.033435156           56 
 4904000   0.46214721   -4.8010218    2043.8998  0.034731849  0.033426562           40 
 4905000   0.46991438   -4.8011125    2043.1161  0.034711452  0.033417971           29 
 4906000   0.46808804   -4.8021029    2049.5986  0.034814489  0.033409366           47 
 4907000   0.47490349   -4.7994068    2039.3878  0.034633989  0.033400756           50 
 4908000   0.46743647    -4.794033    2041.9153  0.034669846   0.03339217           38 
 4909000   0.46477748   -4.8092034    2046.3876  0.034738704  0.033383575           55 
 4910000   0.46039991   -4.8019251    2046.6366  0.034735856  0.033374994           38 
 4911000   0.46882462    -4.802252    2049.8728  0.034783697  0.033366426           81 
 4912000   0.47300988   -4.7884398    2043.2264  0.034663857  0.033357834           57 
 4913000   0.46500383   -4.8044647    2045.1807   0.03468995  0.033349262           37 
 4914000   0.45771855   -4.8075608    2044.6372  0.034673673  0.033340678           34 
 4915000   0.45880179   -4.8002336    2042.4121  0.034628893   0.03333208           31 
 4916000   0.46528874   -4.8125853    2043.1179  0.034633813  0.033323489           56 
 4917000   0.47019396   -4.8241392    2039.4788  0.034565095  0.033314896           40 
 4918000   0.45540127   -4.7931313    2045.4908  0.034659937  0.033306298           55 
 4919000   0.46948835    -4.795688    2043.3805  0.034617139  0.033297708           40 
 4920000   0.46128092   -4.8151974    2041.8714  0.034584543  0.033289116           21 
 4921000   0.47176109   -4.8211754    2041.5288  0.034571712  0.033280529           71 
 4922000   0.45616592   -4.8113597    2041.1353  0.034558027  0.033271909          107 
 4923000   0.47478743   -4.8140696    2042.9402  0.034581559   0.03326331           54 
 4924000   0.45798143   -4.7863754    2045.2435  0.034613518  0.033254704           79 
 4925000   0.47221978   -4.8086219    2047.7664  0.034649177   0.03324614           73 
 4926000   0.46067101   -4.7982331    2048.2242  0.034649888  0.033237575           81 
 4927000   0.47372747   -4.8064572    2043.6921  0.034566201  0.033229007           61 
 4928000    0.4532267   -4.8079813    2042.9448   0.03454655  0.033220437           76 
 4929000    0.4666225   -4.8050518     2039.571  0.034482502  0.033211855           37 
 4930000   0.45284037   -4.8033311    2042.5385  0.034525667  0.033203281           63 
 4931000   0.47015501   -4.8115732    2044.7865  0.034556658  0.033194703           47 
 4932000   0.46870781   -4.7890068    2041.0922   0.03448723  0.033186166           42 
 4933000    0.4599729   -4.7878898    2044.1618  0.034532094  0.033177625           61 
 4934000   0.46289188   -4.8054675    2044.5924  0.034532367  0.033169065           65 
 4935000   0.45902421   -4.8051212    2041.4915  0.034473008  0.033160517           63 
 4936000    0.4605433   -4.8116346    2044.1936  0.034511643  0.033151952           35 
 4937000   0.45001836   -4.8153059    2043.2785  0.034489205  0.033143388           46 
 4938000   0.46799629   -4.8111839    2043.1588    0.0344802  0.033134831           36 
 4939000   0.45975621   -4.8225916    2042.7813   0.03446685  0.033126287           32 
 4940000   0.46297766     -4.81463    2042.3452  0.034452516  0.033117733           29 
 4941000   0.46254422   -4.7964927    2046.0218  0.034507552  0.033109182           14 
 4942000   0.46470104   -4.7907278     2044.424  0.034473628  0.033100667           24 
 4943000   0.46252642   -4.8128049    2043.9347  0.034458404  0.033092141           21 
 4944000   0.46235201   -4.8164403    2042.8746  0.034433566  0.033083591           29 
 4945000     0.469909   -4.7984358    2046.2107  0.034482822  0.033075071           35 
 4946000   0.46688121    -4.797348    2041.8479  0.034402344  0.033066542           51 
 4947000    0.4636337   -4.8194753    2041.2355  0.034385073  0.033058012           16 
 4948000   0.46210269   -4.8119551    2040.8498  0.034371628  0.033049482           48 
 4949000   0.47231622   -4.8165546    2047.7138  0.034480262  0.033040942           28 
 4950000   0.45700918   -4.8150837    2039.4999  0.034335015  0.033032391           29 
 4951000   0.45147901   -4.8043652    2046.1936  0.034440747  0.033023848           23 
 4952000   0.45875155   -4.8019177    2039.0701  0.034313916  0.033015299           40 
 4953000    0.4679834   -4.8312025    2045.2975  0.034411763  0.033006767           20 
 4954000   0.45616926   -4.8334672    2041.2515  0.034336756  0.032998229           22 
 4955000    0.4549558   -4.8036866    2040.8907  0.034323759  0.032989704           16 
 4956000   0.45370811   -4.8163114    2043.6887  0.034363881  0.032981202           16 
 4957000   0.46292177   -4.8186483    2043.5655  0.034354876  0.032972663           20 
 4958000   0.46165884   -4.8119364    2044.0005   0.03435526  0.032964128           38 
 4959000   0.45824307   -4.8236148     2042.884   0.03432957   0.03295561           18 
 4960000   0.45423736   -4.8150782    2043.0819  0.034325973  0.032947094           46 
 4961000   0.45570435     -4.81829    2041.8138  0.034297752  0.032938573           28 
 4962000   0.45472091   -4.8262985    2046.6321  0.034371761  0.032930062           23 
 4963000   0.46162257    -4.813628    2042.4867   0.03429523  0.032921555           22 
 4964000   0.45392362   -4.8202409     2046.821  0.034361083  0.032913075           30 
 4965000   0.46290963   -4.8176729    2042.8411  0.034287363  0.032904562           37 
 4966000   0.46393515    -4.808654     2044.397  0.034306569  0.032896059           50 
 4967000   0.44857117   -4.8258923    2043.6563  0.034287235  0.032887548           62 
 4968000   0.45149066   -4.8030373    2041.5405  0.034244842  0.032879041           11 
 4969000    0.4572167   -4.8251842    2048.3043  0.034351384  0.032870569           32 
 4970000   0.46539625   -4.8172007    2044.8435  0.034286444  0.032862094           23 
 4971000   0.46274603   -4.8168293    2045.2143  0.034285762  0.032853617           22 
 4972000   0.46026035   -4.8270142    2046.7617  0.034304803  0.032845144           12 
 4973000   0.45477191   -4.8215699    2042.6823  0.034229545  0.032836681           27 
 4974000    0.4557025   -4.8269026    2043.2925  0.034232886  0.032828217            8 
 4975000   0.45737117   -4.8250974    2051.4644  0.034362888  0.032819763            8 
 4976000   0.45942071   -4.8197975    2045.1722  0.034250606  0.032811309           17 
 4977000   0.44913864   -4.8086409    2041.0063  0.034173972  0.032802845           21 
 4978000    0.4545612   -4.8245488    2046.9585  0.034266749  0.032794378           33 
 4979000   0.46182869   -4.8145395    2049.3117  0.034299252  0.032785921           13 
 4980000   0.46067294   -4.8252796    2047.5695  0.034263212  0.032777487           35 
 4981000    0.4563589   -4.8258035    2043.4863  0.034188019  0.032769073           23 
 4982000   0.44484921   -4.8197837    2047.8678  0.034254446  0.032760661           21 
 4983000   0.45538837   -4.8071809    2046.1609  0.034219027  0.032752243           12 
 4984000   0.45479232   -4.8153719    2045.9901  0.034209305  0.032743814           40 
 4985000   0.46013233   -4.8056645    2041.2461  0.034123138  0.032735406           27 
 4986000   0.46304143   -4.8101478      2045.07  0.034180205  0.032727007           61 
 4987000   0.45101458   -4.8161653    2046.4876  0.034197039  0.032718605           24 
 4988000   0.45349147   -4.8214968    2043.5825  0.034141648  0.032710183           23 
 4989000   0.46589211   -4.8177369    2046.9674  0.034191344  0.032701779           15 
 4990000   0.44763955   -4.7996348     2040.619  0.034078474  0.032693383           11 
 4991000   0.45871706   -4.8187061    2043.5535  0.034120643  0.032684997           22 
 4992000   0.44285551   -4.8149012    2046.4872   0.03416278  0.032676598           17 
 4993000   0.45150286   -4.8129211    2043.7626  0.034110464  0.032668179           26 
 4994000   0.44918166   -4.8237518    2047.5336   0.03416656  0.032659766           19 
 4995000   0.45531485    -4.823939    2042.1396   0.03406973  0.032651353           44 
 4996000    0.4530265   -4.8218381    2047.4566  0.034151598  0.032642923           41 
 4997000   0.45456127   -4.8084335    2045.3148  0.034109045  0.032634484           85 
 4998000   0.46310057   -4.8270533    2041.1462  0.034032716  0.032626049           34 
 4999000   0.46112898   -4.8492174    2040.3689  0.034012952  0.032617599           56 
 5000000   0.45157321   -4.8215288     2041.113   0.03401855  0.032609152           27 
 5001000   0.44178952   -4.8467004     2039.553  0.033985752  0.032600715           68 
 5002000   0.44986638   -4.8235089      2041.44  0.034010397  0.032592255           55 
 5003000   0.45063314   -4.8311531    2043.2392  0.034033566  0.032583816           34 
 5004000   0.44622663   -4.8317519     2041.169  0.033992289  0.032575383           61 
 5005000    0.4518185   -4.8367308    2048.9047  0.034114297  0.032566955           14 
 5006000   0.44922668   -4.8209374    2042.4865  0.034000642  0.032558544           38 
 5007000   0.45468542   -4.8219562    2043.5637  0.034011779  0.032550118           77 
 5008000   0.44285329   -4.8491274    2041.3017  0.033967348  0.032541697           45 
 5009000   0.45888057   -4.8418256    2041.6311  0.033966047  0.032533275           26 
 5010000   0.44030532    -4.845341    2041.5354  0.033957675  0.032524862           14 
 5011000   0.44042783   -4.8278179    2042.9075  0.033973715  0.032516455           19 
 5012000   0.45560188   -4.8395737    2044.9353  0.034000654  0.032508069           35 
Loop time of 12379.3 on 48 procs for 5000000 steps with 4000 atoms

Performance: 69793.980 tau/day, 403.900 timesteps/s
99.4% CPU use with 48 MPI tasks x no OpenMP threads

MPI task timing breakdown:
Section |  min time  |  avg time  |  max time  |%varavg| %total
---------------------------------------------------------------
Pair    | 858.27     | 916.5      | 969.93     |  90.9 |  7.40
Neigh   | 83.679     | 86.941     | 90.03      |  17.3 |  0.70
Comm    | 802.26     | 855.26     | 925.1      | 106.7 |  6.91
Output  | 13.879     | 13.883     | 13.976     |   0.4 |  0.11
Modify  | 10376      | 10395      | 10428      |  14.2 | 83.97
Other   |            | 111.4      |            |       |  0.90

Nlocal:        83.3333 ave          91 max          76 min
Histogram: 1 0 8 4 12 9 7 4 2 1
Nghost:        2268.96 ave        2292 max        2243 min
Histogram: 2 2 1 11 5 11 5 4 4 3
Neighs:        15269.7 ave       16830 max       13683 min
Histogram: 2 6 2 4 5 15 4 6 1 3
FullNghs:      30538.7 ave       33420 max       27747 min
Histogram: 1 3 6 6 12 6 4 7 1 2

Total # of neighbors = 1465857
Ave neighs/atom = 366.46425
Neighbor list builds = 270207
Dangerous builds = 0

#clear
#
#next RN
#
#jump SELF
Total wall time: 3:26:22
