
units lj                  # Use reduced LJ style units
atom_style atomic         # Uncharged point particles
atom_modify map hash      # Needed for indexing of clusters etc
                          # Used to be able to find where atoms are in relation to each other.

lattice fcc 1.0 spacing 1 1 1
Lattice spacing in x,y,z = 1.5874011 1.5874011 1.5874011
region box block 0 10 0 10 0 10 units lattice
create_box 2 box
Created orthogonal box = (0.0000000 0.0000000 0.0000000) to (15.874011 15.874011 15.874011)
  3 by 4 by 4 MPI processor grid
create_atoms 1 box
Created 4000 atoms
  using lattice units in orthogonal box = (0.0000000 0.0000000 0.0000000) to (15.874011 15.874011 15.874011)
  create_atoms CPU = 0.002 seconds
set type 1 type/fraction 2 0.4 78393
Setting atom values ...
  1612 settings made for type/fraction
mass 1 1.0
mass 2 1.0
pair_style lj/cut  3.5
pair_modify tail  yes
pair_coeff 1  1  1.0  1.0   # Intearaction between 1 and 1 set with epsilon = 1 and sigma = 1
pair_coeff 1  2  1.5  0.8
pair_coeff 2  2  0.5  0.88

write_data data.0
System init for write_data ...
Neighbor list info ...
  update every 1 steps, delay 10 steps, check yes
  max neighbors/atom: 2000, page size: 100000
  master list distance cutoff = 3.8
  ghost atom cutoff = 3.8
  binsize = 1.9, bins = 9 9 9
  1 neighbor lists, perpetual/occasional/extra = 1 0 0
  (1) pair lj/cut, perpetual
      attributes: half, newton on
      pair build: half/bin/atomonly/newton
      stencil: half/bin/3d
      bin: standard
WARNING: Not all mixed pair coeffs generated from mixing. Use write_data with 'pair ij' option to store all pair coeffs. (../write_data.cpp:312)


#############################
#   M E L T   S Y S T E M   #
#############################

velocity all create 2.4 5833274 mom yes dist gaussian # Assign velocities
                                                    # Temperature 2.4, random number seed, zero linear momentum
                                                                                # Gaussian distribution

timestep 0.002   # simulation timestep
thermo 1000       # output thermodynamic data every 1000 steps bf 100

# Define a fix  in this case with index 1 applied to all
# particles in the simulation. This fix is for simulations
# in the anisotropic NPT ensemble. Note that we use the MTK
# correction.
fix 1 all npt temp 2.4 2.4 0.1 iso 5.68 5.68 0.5 mtk yes tchain 5 pchain 5 # Use NPT ensemble
                                                                         # Set temperature and pressure and damping
                                                                         # Numbers of thermostats in chain and in barostat
run 10000          # run for 10000 steps
Per MPI rank memory allocation (min/avg/max) = 3.642 | 3.644 | 3.648 Mbytes
Step Temp E_pair E_mol TotEng Press Volume 
       0          2.4    -5.861415            0    -2.262315   -4.1716513         4000 
    1000    2.3982321   -5.0197057            0    -1.423257    5.7723764    3888.6962 
    2000     2.370778   -5.0801134            0   -1.5248354    5.7370238    3855.4786 
    3000    2.3708065   -5.0367583            0   -1.4814377    5.7526304    3880.1505 
    4000    2.3724554   -5.0752841            0   -1.5174907    5.3934017    3893.1281 
    5000    2.4557256   -5.0125397            0   -1.3298721     5.816657    3888.9697 
    6000    2.3728145   -4.9675407            0   -1.4092087    5.6248503     3909.673 
    7000    2.3700789   -5.0397568            0   -1.4855273    5.6874955    3886.7712 
    8000    2.3889041   -5.0100653            0   -1.4276049    5.8063639    3891.1054 
    9000     2.426483    -5.005122            0   -1.3663074    5.7408922    3896.2063 
   10000    2.4319564   -5.0136415            0   -1.3666189    6.1177245    3858.8101 
Loop time of 2.64487 on 48 procs for 10000 steps with 4000 atoms

Performance: 653340.496 tau/day, 3780.906 timesteps/s
99.5% CPU use with 48 MPI tasks x no OpenMP threads

MPI task timing breakdown:
Section |  min time  |  avg time  |  max time  |%varavg| %total
---------------------------------------------------------------
Pair    | 1.0977     | 1.1848     | 1.3067     |   3.6 | 44.80
Neigh   | 0.20986    | 0.21776    | 0.24179    |   1.2 |  8.23
Comm    | 0.78739    | 0.87913    | 0.98791    |   5.2 | 33.24
Output  | 0.00024631 | 0.00025147 | 0.0003215  |   0.0 |  0.01
Modify  | 0.29978    | 0.34766    | 0.38766    |   4.4 | 13.14
Other   |            | 0.01528    |            |       |  0.58

Nlocal:        83.3333 ave          94 max          70 min
Histogram: 1 0 3 5 4 20 5 6 2 2
Nghost:        1689.92 ave        1722 max        1660 min
Histogram: 3 4 8 3 7 8 4 2 6 3
Neighs:        9878.92 ave       11465 max        8277 min
Histogram: 1 1 4 7 11 13 4 4 1 2

Total # of neighbors = 474188
Ave neighs/atom = 118.54700
Neighbor list builds = 906
Dangerous builds = 215

# Equilibrate just above the melting temperature to avoid step fn in T

fix 1 all npt temp 1.25 1.25 0.1 iso 5.68 5.68 0.5 mtk yes tchain 5 pchain 5
run 2000
Per MPI rank memory allocation (min/avg/max) = 3.643 | 3.645 | 3.649 Mbytes
Step Temp E_pair E_mol TotEng Press Volume 
   10000    2.4319564   -5.0136415            0   -1.3666189    6.1177245    3858.8101 
   11000    1.2422865   -7.0400108            0   -5.1770468    5.8117504    3077.7674 
   12000    1.2498124   -7.1067015            0   -5.2324515    5.4597456    3073.0599 
Loop time of 0.680732 on 48 procs for 2000 steps with 4000 atoms

Performance: 507688.684 tau/day, 2938.013 timesteps/s
99.4% CPU use with 48 MPI tasks x no OpenMP threads

MPI task timing breakdown:
Section |  min time  |  avg time  |  max time  |%varavg| %total
---------------------------------------------------------------
Pair    | 0.26837    | 0.29414    | 0.32751    |   2.4 | 43.21
Neigh   | 0.039079   | 0.041738   | 0.044753   |   0.6 |  6.13
Comm    | 0.18682    | 0.23632    | 0.32363    |   6.8 | 34.72
Output  | 5.3733e-05 | 5.5239e-05 | 7.3868e-05 |   0.0 |  0.01
Modify  | 0.04315    | 0.10368    | 0.1216     |   8.0 | 15.23
Other   |            | 0.004797   |            |       |  0.70

Nlocal:        83.3333 ave          91 max          77 min
Histogram: 5 1 5 9 8 9 4 3 1 3
Nghost:        1954.23 ave        1971 max        1923 min
Histogram: 1 1 2 2 2 9 10 9 6 6
Neighs:        12437.4 ave       13983 max       11208 min
Histogram: 5 4 5 6 10 7 3 4 0 4

Total # of neighbors = 596997
Ave neighs/atom = 149.24925
Neighbor list builds = 143
Dangerous builds = 11

#############################
# L I N E A R  Q U E N C H  #
#############################

# Define solid atoms. This closely follows ten Wolde  Ruiz-Montero and Frenkel  Faraday Discuss  1996  104  93-110
# Compute components of the per-atom q6 vector
compute q6 all orientorder/atom degrees 1 6 components 6 nnn NULL cutoff 1.3 # compute the Q6 parameter.
                                                                             # Use all neighbours within 1.3 unit cell.

# get number of connections
compute coord_number all coord/atom orientorder q6 0.5

# An atom is solid if it has 8 or more connections (of a possible 14)
variable is_solid atom c_coord_number>=8
group solid dynamic all var is_solid    # Must be dynamic to update
dynamic group solid defined

# do clustering
compute cluster solid cluster/atom 1.3 # Create a cluster where all atoms within are solid and max 1.3 units from another member

# define chunks one chunk per cluster
compute clus_chunks solid chunk/atom c_cluster nchunk every compress yes  # Says which atoms are in which chunk

# count the size of each chunk
compute size_chunks solid property/chunk clus_chunks count


# Find the maximum entry in the vector of chunk sizes
variable max_n equal max(c_size_chunks)


# Thermo style which includes this variable
# thermo_style custom step temp pe vol v_max_n

thermo ${N}  # Print the thermo information every 100 steps
thermo 1000  

# Reset the npt fix at a lower temperature (below freezing)
fix 1  all npt temp  ${temp} ${temp}  0.1  iso  5.68  5.68  0.5  mtk yes tchain  5  pchain  5
fix 1  all npt temp  0.45 ${temp}  0.1  iso  5.68  5.68  0.5  mtk yes tchain  5  pchain  5
fix 1  all npt temp  0.45 0.45  0.1  iso  5.68  5.68  0.5  mtk yes tchain  5  pchain  5

dump dmp2 all dcd ${N} traj.dcd
dump dmp2 all dcd 1000 traj.dcd


compute msd all msd com yes
variable twopoint equal c_msd[4]/6/(step*dt+1.0e-6)
fix 9 all vector 10 c_msd[4]
variable fit equal slope(f_9)/6/(10*dt)
thermo_style custom step temp pe c_msd[4] v_twopoint v_fit v_max_n

fix 1 all npt temp 1.25 ${temp} 0.1 iso 5.68 5.68 0.5 mtk yes tchain 5 pchain 5
fix 1 all npt temp 1.25 0.45 0.1 iso 5.68 5.68 0.5 mtk yes tchain 5 pchain 5
run 500000 # 5000000  # Run for this many steps
Neighbor list info ...
  update every 1 steps, delay 10 steps, check yes
  max neighbors/atom: 2000, page size: 100000
  master list distance cutoff = 3.8
  ghost atom cutoff = 3.8
  binsize = 1.9, bins = 8 8 8
  4 neighbor lists, perpetual/occasional/extra = 1 3 0
  (1) pair lj/cut, perpetual
      attributes: half, newton on
      pair build: half/bin/atomonly/newton
      stencil: half/bin/3d
      bin: standard
  (2) compute orientorder/atom, occasional
      attributes: full, newton on
      pair build: full/bin/atomonly
      stencil: full/bin/3d
      bin: standard
  (3) compute coord/atom, occasional
      attributes: full, newton on
      pair build: full/bin/atomonly
      stencil: full/bin/3d
      bin: standard
  (4) compute cluster/atom, occasional
      attributes: full, newton on
      pair build: full/bin/atomonly
      stencil: full/bin/3d
      bin: standard
Per MPI rank memory allocation (min/avg/max) = 9.823 | 9.829 | 9.837 Mbytes
Step Temp PotEng c_msd[4] v_twopoint v_fit v_max_n 
   12000    1.2498124   -7.1067015 2.1086252e-30 1.464323e-32 8.3333333e+20            1 
   13000    1.2763954   -7.1686678   0.44402022 0.0028462833  0.036198634            1 
   14000    1.2035165   -7.1540822     0.842408 0.0050143331  0.034157324            1 
   15000    1.2809937    -7.107073    1.2634066 0.0070189255  0.033739522            1 
   16000    1.2623716   -7.1174685    1.6952257 0.0088293003  0.034183722            1 
   17000    1.2483783   -7.1491353     2.130248  0.010442392  0.034934347            2 
   18000    1.2522065   -7.1562148    2.5116819  0.011628157  0.034890058            1 
   19000     1.224061    -7.134375    2.9502265   0.01293959  0.034711388            1 
   20000    1.2065156   -7.1063958    3.3897619  0.014124007  0.034889136            6 
   21000    1.2607195   -7.1050324    3.7633615  0.014933974  0.034823986            1 
   22000    1.2358524   -7.1304563    4.1634881  0.015770788  0.034683042            1 
   23000    1.2449261   -7.1446249    4.5826139  0.016603673  0.034611647            1 
   24000    1.2527864    -7.183798    4.9937445   0.01733939  0.034560405            4 
   25000    1.2518186   -7.1619052     5.416465  0.018054883  0.034523533            1 
   26000    1.2406376   -7.1547021    5.8580159  0.018775692  0.034553538            2 
   27000    1.2231268   -7.1470058    6.2646383  0.019335303  0.034574252            4 
   28000     1.208719   -7.1368388    6.6465885  0.019781513  0.034512691            2 
   29000    1.2274916   -7.1685644     6.981359  0.020061376  0.034441407            2 
   30000    1.2035843   -7.1580975    7.4365384  0.020657051  0.034343951            2 
   31000    1.2136348   -7.1661049     7.854538  0.021114349   0.03430644            2 
   32000    1.2195941   -7.1734485    8.1681568  0.021271241  0.034212347            2 
   33000    1.2147397   -7.2109492    8.5420081  0.021570727  0.034060699            1 
   34000    1.2232006   -7.1542777    8.9029531  0.021820963  0.033909135            1 
   35000    1.2093051   -7.1997648    9.3107395  0.022168427  0.033787246            1 
   36000    1.2183626   -7.1701095    9.6956824  0.022443709  0.033667722            2 
   37000    1.2217358   -7.1952347    10.124389  0.022802677   0.03358853            2 
   38000    1.2214819   -7.2134341    10.463105  0.022945406  0.033526621            2 
   39000    1.2031209   -7.2279861    10.863382  0.023212354  0.033466611            1 
   40000    1.2173724   -7.2104162    11.368569  0.023684518  0.033422867            1 
   41000    1.1877037   -7.2130173    11.817486   0.02401928  0.033430096            1 
   42000    1.2172941   -7.2191915     12.34107  0.024486251  0.033496635            1 
   43000    1.1862413   -7.1754697    12.570318  0.024361082  0.033530506            2 
   44000    1.1812004      -7.2047    12.923595  0.024476506   0.03352067            2 
   45000    1.1884798   -7.2217404    13.280779  0.024594035  0.033473354            2 
   46000    1.1822152   -7.2357148    13.642147  0.024714034  0.033419994            1 
   47000    1.2135478   -7.2038575    14.037276  0.024888786   0.03334538            1 
   48000    1.1812883   -7.2113755    14.400374  0.025000649  0.033299252            3 
   49000    1.1793099   -7.2357846    14.698889   0.02499811  0.033252754            2 
   50000    1.2144913   -7.2596652    15.134529  0.025224215  0.033189597            1 
   51000      1.19384   -7.2817919    15.409992  0.025179725  0.033115861            4 
   52000     1.205197   -7.2346508    15.631542  0.025050548  0.033000158            1 
   53000     1.190255   -7.2312728     15.99621  0.025151274  0.032880236            2 
   54000    1.1702022   -7.1887424    16.345802  0.025225003  0.032763398            3 
   55000     1.173738    -7.237273    16.610032  0.025166715  0.032643162            3 
   56000     1.191772   -7.2089662     16.97791  0.025264747  0.032506523            2 
   57000    1.1836867    -7.275157    17.236887  0.025200127  0.032376842            2 
   58000    1.1920919   -7.1939004    17.637522  0.025341267  0.032251414            5 
   59000    1.1491472   -7.3055076    17.981002  0.025396895  0.032136341            1 
   60000    1.1551597   -7.2782554    18.302997  0.025420829  0.032033124            1 
   61000    1.1748305   -7.2913318     18.60075   0.02541086  0.031924366            1 
   62000    1.1593526   -7.3139968    18.837732  0.025319532  0.031801582            2 
   63000    1.1591518   -7.3071808    19.225975  0.025431183  0.031676441            1 
   64000    1.1620254   -7.3044549    19.612014  0.025536476  0.031569246            1 
   65000    1.1733563   -7.3076755    19.921686  0.025540623  0.031464093            2 
   66000    1.1677385   -7.2848891    20.210285  0.025518037  0.031356978            3 
   67000    1.1448292   -7.3214904    20.414892  0.025391656  0.031245484            2 
   68000    1.1640175   -7.2870832    20.800277  0.025490536  0.031139741            3 
   69000    1.1605981   -7.2603479    21.208354  0.025613953  0.031048367            1 
   70000    1.1681365   -7.3186809    21.464366  0.025552817  0.030957719            2 
   71000    1.1468411   -7.2952515    21.789695  0.025574759  0.030854279            1 
   72000    1.1340984   -7.3494969    22.071041  0.025545186  0.030754976            2 
   73000    1.1637276   -7.3012586     22.38409  0.025552614  0.030657138            1 
   74000    1.1299462   -7.3651373     22.66253  0.025520867    0.0305611            2 
   75000    1.1589109   -7.3048086    22.922627  0.025469585  0.030466919            2 
   76000    1.1573813   -7.3136623    23.055768  0.025280447  0.030354371       -1e+20 
   77000    1.1561517   -7.3444505    23.379359  0.025302336  0.030238823            1 
   78000    1.1243105   -7.3539979    23.707221  0.025328227  0.030128623            1 
   79000    1.1326899   -7.3653042    24.052833  0.025372186  0.030018924            1 
   80000    1.1330636   -7.3989575    24.160741  0.025167438  0.029906549            2 
   81000    1.1224455   -7.3991844    24.184179  0.024880842  0.029779318            3 
   82000    1.1302942    -7.366528    24.480726  0.024878786  0.029648342            2 
   83000    1.1315324   -7.3717158    24.679011  0.024778124  0.029510398            1 
   84000    1.1437002   -7.3434223     25.04286  0.024844107  0.029375393            3 
   85000    1.1213266    -7.372613    25.306367  0.024810163  0.029242371            1 
   86000    1.1310919   -7.3917463    25.585193  0.024791854  0.029114205            2 
   87000    1.1447446    -7.316997       25.999  0.024903256  0.028991913            1 
   88000    1.1493122   -7.3761722    26.120267  0.024735101  0.028879066            3 
   89000    1.1398251   -7.3669963    26.441081  0.024757566  0.028766639            3 
   90000    1.1030694    -7.435436    26.796828  0.024811878  0.028662034            1 
   91000    1.1307445   -7.4000835    27.084873  0.024802997  0.028560371            1 
   92000    1.1199678   -7.3901256     27.33187  0.024757128  0.028464442            1 
   93000    1.1246569   -7.3488021    27.676899  0.024800089  0.028366585            3 
   94000    1.1124491   -7.4000544    27.828915  0.024671024  0.028269149            1 
   95000    1.0961313   -7.4366624    28.146964  0.024690319  0.028171144            1 
   96000    1.1368231   -7.4575989    28.357283  0.024615697  0.028073472            1 
   97000    1.1081524   -7.4118953    28.558572  0.024534856  0.027982392            2 
   98000    1.1108091   -7.3706743    28.924855  0.024595965  0.027891931            1 
   99000     1.112563   -7.4415181    29.136372  0.024525565  0.027798555            3 
  100000    1.0951732   -7.4532733    29.352636   0.02446053  0.027709372            3 
  101000    1.0977231   -7.4255477    29.820212  0.024604135  0.027624608            2 
  102000      1.09383   -7.4756403    30.190337  0.024665308  0.027549808            3 
  103000    1.1100453   -7.4566509    30.523134  0.024695092  0.027480644            1 
  104000    1.0820746   -7.4582988     30.75835  0.024646114  0.027412681            1 
  105000    1.1067006   -7.4751541    30.939449  0.024555118  0.027343459            1 
  106000    1.0915213   -7.4498461    31.298546  0.024605775  0.027276603            2 
  107000     1.085738   -7.4518029    31.494154  0.024528157  0.027212136            2 
  108000    1.0976616   -7.4782609    31.709832  0.024467463  0.027143287            2 
  109000    1.0782935   -7.5074674    32.010331   0.02447273  0.027077063            1 
  110000    1.0969693   -7.5022441    32.305765  0.024474064  0.027011485            2 
  111000    1.0973911   -7.5107764    32.607524  0.024480123  0.026948332            3 
  112000    1.1036058   -7.4441613      33.1535  0.024667783  0.026892017            2 
  113000    1.0840061     -7.43758    33.286246  0.024547379  0.026840149            4 
  114000    1.0901781    -7.486721    33.606895  0.024566444  0.026787799            2 
  115000    1.0814001   -7.4904403    33.862529  0.024538065  0.026737228            2 
  116000    1.0915763   -7.5249108    34.164589  0.024543526  0.026687767            2 
  117000    1.0800049   -7.5113411    34.169132  0.024336988  0.026634213            5 
  118000      1.10138   -7.5203007    34.453103  0.024331287  0.026576558            2 
  119000    1.0774481   -7.5296629     34.63294  0.024252759   0.02651584            2 
  120000    1.0847935   -7.5113232    34.798748  0.024165797  0.026453134            1 
  121000    1.0709293   -7.4998268    35.030911  0.024125972  0.026387342            2 
  122000     1.103018   -7.4462019    35.216251  0.024054816  0.026319806            3 
  123000     1.073234   -7.4984042    35.289616  0.023908954  0.026252681            2 
  124000     1.074291   -7.5249849    35.740451   0.02401912  0.026188186            3 
  125000    1.0737252   -7.4983304    35.865023  0.023910015  0.026121531            1 
  126000    1.0680694   -7.5269269    36.048575   0.02384165  0.026053509            1 
  127000    1.0553472   -7.5714266    36.333707  0.023841015  0.025986702            1 
  128000    1.0587464   -7.4779972    36.603404  0.023830341  0.025921055            1 
  129000    1.0776389    -7.499535    36.832328  0.023793494  0.025857583            3 
  130000    1.0595724   -7.5704203    37.005481  0.023721462  0.025790623            3 
  131000    1.0706653    -7.528382    37.223676  0.023679183  0.025721706            2 
  132000    1.0685207   -7.5581862    37.426357   0.02362775  0.025657102            2 
  133000    1.0453846   -7.5898327    37.412747   0.02344157  0.025589845            2 
  134000    1.0498095   -7.5537156    37.908647  0.023575029  0.025521274            7 
  135000     1.053443   -7.5707201     37.89603  0.023392611  0.025452497            2 
  136000    1.0632662   -7.5474427    38.290329  0.023462212  0.025385815            3 
  137000    1.0530872   -7.5878721    38.366712  0.023337416   0.02531836            1 
  138000    1.0471256   -7.6054824    38.465307  0.023227842  0.025250743            3 
  139000    1.0370485   -7.5623205    38.838702  0.023284594  0.025182164            3 
  140000    1.0323613   -7.5689866     38.96432  0.023193047  0.025113408            2 
  141000    1.0271442   -7.5898529    39.272946  0.023210961  0.025046076            3 
  142000    1.0428592   -7.5783352    39.656216  0.023272427  0.024983108            2 
  143000    1.0425464    -7.583911    39.883711  0.023242256   0.02492444            4 
  144000    1.0370689    -7.566956    40.008971  0.023153339  0.024863673            2 
  145000    1.0332164   -7.5892946    40.246715  0.023130296  0.024802492            2 
  146000    1.0435206   -7.6265508    40.300869  0.023002779  0.024739568            2 
  147000    1.0447228   -7.6113885    40.543447  0.022983813  0.024676843            1 
  148000    1.0384403   -7.6392772    40.779621  0.022961498  0.024612435            1 
  149000   0.99962453   -7.5884005    41.074915  0.022972548  0.024551713            3 
  150000    1.0477563   -7.6683294    41.210956  0.022894975  0.024490566            3 
  151000    1.0463328   -7.6441497    41.418841   0.02285808  0.024430183            6 
  152000     1.023752   -7.6302444    41.564109   0.02278734  0.024369207            1 
  153000    1.0198365   -7.6373675    41.707857  0.022716697  0.024308126            4 
  154000    1.0100773   -7.6169074    42.075437  0.022768094   0.02424793            2 
  155000    1.0270257   -7.6197987    42.160352  0.022666856  0.024187566            2 
  156000    1.0177946   -7.6718327    42.464446  0.022683999  0.024128111            3 
  157000     1.033052   -7.6399328    42.583841  0.022602888  0.024070093            2 
  158000    1.0004078   -7.6548122     42.79716  0.022572342  0.024013129            1 
  159000     1.004421   -7.6662351    43.191313  0.022636956  0.023954611            4 
  160000    1.0142936   -7.6597228    43.421457  0.022615342  0.023900782            2 
  161000    1.0234027   -7.6662814    43.626513  0.022581011  0.023848557            3 
  162000    1.0226084   -7.6651938    43.639109  0.022448101  0.023792435            1 
  163000    1.0023377    -7.692161    43.894658  0.022441031  0.023736205            2 
  164000    1.0106354   -7.7039946     44.19389  0.022456245  0.023680971            4 
  165000    1.0038985   -7.6940007    44.424012   0.02243637  0.023626478            2 
  166000   0.99873726   -7.6862693    44.377215  0.022277718  0.023573503            1 
  167000    1.0151622    -7.689482    44.754244  0.022332457   0.02351869            1 
  168000    1.0109602   -7.6854022     44.80897  0.022226672  0.023463668            5 
  169000   0.99963282    -7.744708    44.626349  0.022005103  0.023405112            6 
  170000   0.98855568   -7.6888127    45.125741  0.022120461  0.023347372            3 
  171000   0.99375858   -7.6809948    45.411686  0.022130451  0.023291771            1 
  172000   0.99589918   -7.7081463    45.528818  0.022058536  0.023237336            2 
  173000    0.9799714   -7.7018678    45.696266  0.022011689  0.023181997            3 
  174000   0.98960354   -7.6961663    45.947267  0.022005396   0.02312739            1 
  175000   0.97842887   -7.7336673    45.991662  0.021900791  0.023071452            2 
  176000   0.97029219   -7.7173194    46.233167  0.021890704  0.023015491            2 
  177000   0.97630505   -7.7413657    46.283093  0.021790533  0.022960579            2 
  178000   0.95964646   -7.7240924    46.315662  0.021683362  0.022903889            1 
  179000   0.96933238   -7.7052229    46.666145  0.021725394  0.022847834            2 
  180000   0.96798976    -7.741696    46.704864  0.021622622  0.022790364            2 
  181000   0.96925561   -7.7648452    46.610393  0.021459665  0.022730967            1 
  182000   0.98239283   -7.7403199    46.835713  0.021444923  0.022670842            2 
  183000   0.98799501   -7.7554979    47.033044  0.021417597  0.022610791            1 
  184000   0.97470175   -7.7730665    47.156889  0.021357287  0.022550693            2 
  185000    0.9546182   -7.7483792    47.362726  0.021334561   0.02249019            1 
  186000   0.97596596   -7.7482511    47.561394  0.021308868  0.022430569            2 
  187000    0.9653282   -7.7667877    47.670897  0.021243715  0.022371932            1 
  188000    0.9659792     -7.76491    47.808439  0.021191684  0.022312741            3 
  189000   0.96849304   -7.7313632    48.247893  0.021273321  0.022255056            2 
  190000    0.9703619   -7.7863337     48.27599   0.02117368  0.022198207            1 
  191000   0.96716271   -7.8492951    48.070871  0.020973329  0.022139584            6 
  192000   0.95366774   -7.7760722    48.590787  0.021089751  0.022079918            3 
  193000   0.97538469   -7.7919694    48.604087   0.02098622  0.022022196            3 
  194000   0.96886777   -7.7971507    48.690985  0.020915372  0.021963361            1 
  195000    0.9445764   -7.8095805     48.84863  0.020875483  0.021903573            3 
  196000   0.96426557   -7.8270472    48.772792  0.020736731  0.021843016            1 
  197000   0.96381174   -7.8270357    48.809951  0.020647187   0.02178132            1 
  198000   0.95318008   -7.8110833    49.146088   0.02068438  0.021719821            2 
  199000   0.94968968   -7.8430748    49.245638  0.020622127  0.021659251            2 
  200000   0.95698064   -7.8342326    49.476767   0.02061532  0.021599707            3 
  201000   0.96873435   -7.8405739    49.387059  0.020475563  0.021539668            2 
  202000   0.94491463   -7.8974549    49.432929  0.020393123  0.021478855            3 
  203000   0.92519468   -7.8664476    49.686256  0.020396657   0.02141734            2 
  204000   0.94707285   -7.8602868    49.553286  0.020242355  0.021354621            3 
  205000   0.92771201   -7.8394911    49.771429  0.020232288  0.021292323            3 
  206000   0.93626191   -7.8597443    49.864065  0.020171547  0.021229856            1 
  207000   0.93541553   -7.8535901    50.085581  0.020163277  0.021168119            4 
  208000   0.93788119   -7.8293469    50.223279  0.020121506  0.021106544            4 
  209000   0.94263589    -7.847554     50.23182  0.020028636  0.021044123            2 
  210000   0.93301221    -7.875006    50.123438  0.019890253  0.020980316            2 
  211000   0.92825352   -7.8530376    50.234994  0.019840045   0.02091655            2 
  212000   0.94357477   -7.8353813    50.439958  0.019827028  0.020852947            2 
  213000    0.9373269   -7.8664413    50.481006  0.019750002  0.020788831            2 
  214000   0.92346633    -7.859789    50.633745   0.01971719  0.020724686            3 
  215000   0.92254386    -7.892164    50.628196  0.019623332  0.020661174            4 
  216000    0.9311042   -7.8963962    50.885933  0.019631919  0.020597303            1 
  217000   0.89887105   -7.8863815    51.066399  0.019610752  0.020534138            1 
  218000   0.92354789   -7.8783336    51.094429   0.01953151  0.020471414            2 
  219000   0.92859535   -7.8944637    51.236279  0.019496301  0.020409051            4 
  220000   0.91630163   -7.9050119    51.342709  0.019447996  0.020347331            2 
  221000   0.91956285   -7.9650436    51.396626  0.019380327  0.020285718            2 
  222000   0.88987002   -7.9322482    51.540096  0.019346883   0.02022427            1 
  223000   0.91720636   -7.9464936    51.610309  0.019286363   0.02016281            2 
  224000    0.8765257   -7.9473008    51.757574   0.01925505  0.020101522            2 
  225000   0.91549928    -7.947214    51.918058   0.01922891  0.020040957            1 
  226000   0.90851592   -7.9237863    51.949503  0.019155421  0.019979861            2 
  227000   0.88585349   -7.9305719    52.060235  0.019111687  0.019918793            2 
  228000   0.91803153   -7.9484693    52.181659  0.019072244  0.019858551            5 
  229000   0.94099655   -7.9614503    52.247176    0.0190128  0.019799303            3 
  230000   0.91714353   -7.9725438    52.338619  0.018963268  0.019739844            1 
  231000    0.9081355   -7.9279706    52.448731  0.018920899  0.019679958            3 
  232000    0.8951674   -7.9576982    52.485119  0.018852413  0.019619863            2 
  233000   0.89091312    -7.998783    52.415564  0.018746625  0.019560219            2 
  234000   0.89986633   -7.9853366    52.645539  0.018748411   0.01949992            5 
  235000   0.90656431   -7.9700773    52.680404  0.018680994  0.019439172            2 
  236000    0.8979296   -7.9556452    52.777125   0.01863599  0.019379454            3 
  237000    0.8953724   -7.9725865    52.846897  0.018581891  0.019319782            2 
  238000   0.90685342   -8.0099471    52.857848   0.01850765  0.019259995            2 
  239000   0.88508376   -7.9924668    53.068358  0.018503612   0.01920055            3 
  240000   0.89241181   -8.0001563    53.241285  0.018486557  0.019141295            4 
  241000   0.86713977   -8.0365606    53.369418  0.018454156  0.019083874            3 
  242000   0.88499975   -8.0096735    53.353019  0.018372252  0.019026712            3 
  243000   0.86036133   -7.9988793    53.492554  0.018344497  0.018968556            1 
  244000   0.88900389   -8.0145814    53.598438  0.018305478  0.018911541            4 
  245000   0.88136313   -8.0059374    53.869998  0.018323129  0.018854743            3 
  246000   0.86146495   -8.0288008    53.824229   0.01823314  0.018798057            1 
  247000   0.88543639   -8.0323483    53.908325  0.018187694  0.018741725            4 
  248000   0.85901542   -8.0392342    53.977222  0.018137507    0.0186858            3 
  249000   0.85250208   -8.0490704    54.132758  0.018116719  0.018629885            2 
  250000   0.86583678    -8.004758     54.10013  0.018033377  0.018574631            2 
  251000   0.86722297   -8.0465055    54.196142  0.017993407  0.018518327            3 
  252000   0.84922071   -8.0756109    54.117354   0.01789595  0.018462151            2 
  253000    0.8678924   -8.1039007    54.324149   0.01789333  0.018405694            2 
  254000   0.86639945   -8.0620032     54.35471   0.01783291  0.018350022            4 
  255000   0.87414696   -8.0712069    54.564854  0.017831652  0.018294421            2 
  256000   0.85326087   -8.0331417    54.636552  0.017785336  0.018239783            1 
  257000   0.85341959   -8.0514788    54.829193  0.017778597  0.018185229            2 
  258000   0.86236352   -8.0761906    54.795038  0.017698656  0.018130484            2 
  259000   0.84839126   -8.1196401    54.714428  0.017604385  0.018074975            2 
  260000   0.84912848   -8.1185998     54.74623  0.017546869  0.018019113            2 
  261000   0.83703476   -8.1115094    54.942176  0.017542202  0.017963688            2 
  262000   0.85705503   -8.0767742    54.882298  0.017456202  0.017908455            2 
  263000   0.86769623    -8.119899    55.258367  0.017508988  0.017853597            1 
  264000    0.8475775   -8.0896608    55.099923  0.017392652  0.017799168            5 
  265000   0.82268632   -8.0954473    55.183982  0.017353453  0.017744502            2 
  266000   0.84548107   -8.1324611    55.161264  0.017281098    0.0176903            2 
  267000   0.84561205   -8.1286424    55.380072  0.017284667  0.017636183            2 
  268000   0.82430192    -8.106399    55.452606  0.017242726   0.01758235            2 
  269000   0.85533949   -8.0917458    55.591702  0.017221717  0.017529021            2 
  270000   0.83929567    -8.116667     55.69943  0.017191182  0.017476039            3 
  271000   0.83282181   -8.1117931    55.700722  0.017128143  0.017424129            2 
  272000   0.84089346   -8.1354103    55.914613  0.017130703   0.01737206            2 
  273000   0.84788047   -8.1246315    55.769111  0.017023538  0.017320105            6 
  274000   0.84434515   -8.1556531    55.861741  0.016989581  0.017267556            3 
  275000   0.82812266   -8.1587933    55.876009  0.016932124  0.017215428            2 
  276000   0.84137858    -8.161898    55.918357  0.016883562  0.017163371            6 
  277000   0.84305187    -8.128993    56.174389  0.016899636  0.017111192            3 
  278000   0.82145158   -8.1629968    56.108883  0.016819209  0.017059562            1 
  279000   0.81555216   -8.1059279    56.190292  0.016783241  0.017008373            3 
  280000   0.82348885   -8.1893453    56.181673  0.016720736  0.016957332            3 
  281000   0.82840523    -8.180016    56.210163  0.016669681  0.016905914            2 
  282000   0.81957806   -8.1602192    56.272814  0.016629082  0.016854686            3 
  283000   0.81769865   -8.1747648    56.409482  0.016610566  0.016803104            4 
  284000   0.82238182   -8.2014554    56.299051  0.016519675  0.016751376            2 
  285000   0.81864634   -8.1775316    56.345448  0.016475277  0.016699217            2 
  286000   0.81547066   -8.1925756    56.292611  0.016402276  0.016647252            3 
  287000   0.81781715   -8.1961499    56.346555  0.016360788  0.016595142            3 
  288000   0.80716023   -8.2126908     56.42394  0.016326372  0.016542874            1 
  289000   0.79655608   -8.1991441    56.346892  0.016247662    0.0164909            3 
  290000   0.81427515   -8.2133668    56.480802  0.016230115  0.016438979            4 
  291000   0.80184242   -8.2212578    56.565139  0.016198494   0.01638708            2 
  292000   0.80682916   -8.2109116    56.432362  0.016105126   0.01633524            3 
  293000   0.81223323   -8.2456694    56.390567  0.016038273   0.01628336            2 
  294000   0.80588066   -8.2514054    56.576742  0.016036491  0.016231499            1 
  295000   0.79305489   -8.2454818    56.695507   0.01601568  0.016179908            8 
  296000    0.7879266   -8.2354738    56.694064  0.015961167  0.016128621            9 
  297000   0.78523845   -8.2128418    56.895661   0.01596399  0.016077522            2 
  298000     0.775567   -8.2486995    56.915719  0.015916029  0.016027012            2 
  299000   0.80253716   -8.2288914    56.941801  0.015870067  0.015976201            6 
  300000     0.787954   -8.2517277    56.863085  0.015795301  0.015925722            5 
  301000    0.8030373   -8.2483402    57.002903  0.015781534  0.015875354            4 
  302000   0.76623199   -8.2710504    56.957163  0.015716656  0.015824871            7 
  303000   0.78339445    -8.239896    57.002207  0.015677175   0.01577459            2 
  304000   0.80208121   -8.2617208    56.973082  0.015617621  0.015724864            4 
  305000   0.76404853   -8.2979657    56.986136  0.015569983     0.015675            2 
  306000   0.79682759   -8.2867476    57.126861  0.015557424  0.015625199            6 
  307000   0.77161016   -8.3024051    57.134211  0.015508744  0.015575552            2 
  308000   0.78494857   -8.3204658    57.091636  0.015446871  0.015525594            3 
  309000   0.77810408   -8.2913756    57.130079  0.015407249  0.015475828            6 
  310000   0.78271004   -8.3234708    57.086488   0.01534583  0.015426018            1 
  311000   0.76646311   -8.3099295    57.107405  0.015302091  0.015375983            1 
  312000   0.75134925   -8.2974232    57.222737  0.015283851  0.015326038            3 
  313000   0.75872919   -8.3534121    57.156418  0.015217364  0.015276333            8 
  314000    0.7601296   -8.3187581     57.19644  0.015179522  0.015226672            3 
  315000   0.75035024    -8.322182    57.219125  0.015137335  0.015177243            2 
  316000   0.73716401   -8.3064203    57.283085  0.015106299  0.015128077            3 
  317000   0.77380861   -8.3377566     57.26591   0.01505413  0.015078849            3 
  318000   0.76017939   -8.3332233    57.365385  0.015032858  0.015030202            2 
  319000   0.73162003   -8.3272606    57.423716  0.015000971  0.014981253            2 
  320000   0.76576664   -8.3588715    57.425363  0.014954522   0.01493238            4 
  321000   0.74692152   -8.3478893    57.393912   0.01489977  0.014883761            3 
  322000   0.75448593   -8.3466133    57.355467  0.014843547  0.014835106            4 
  323000   0.75297972   -8.3596063     57.44379  0.014820379  0.014786904            3 
  324000   0.73943568   -8.3419869    57.621543  0.014820356  0.014738991            3 
  325000   0.72631084   -8.3836636    57.425079  0.014724379  0.014690831            7 
  326000   0.75543914   -8.3877779    57.459031  0.014687891  0.014642577            5 
  327000   0.75745932   -8.4051053    57.476123   0.01464733   0.01459448            4 
  328000   0.75476455   -8.3941953    57.534599   0.01461753  0.014546527            5 
  329000   0.74997652   -8.3858471    57.479092  0.014559041  0.014498971            2 
  330000   0.74684922   -8.3857217    57.594246  0.014544002  0.014451389            2 
  331000   0.74563576   -8.4153554    57.478708  0.014470974  0.014403628            3 
  332000    0.7298375   -8.4132168    57.560377  0.014447886  0.014356123            7 
  333000   0.73997276   -8.4134208    57.561509  0.014404782  0.014308935            2 
  334000   0.71965588   -8.4197931    57.609223  0.014373559  0.014261547            3 
  335000   0.72325707   -8.4179555    57.558339  0.014317995  0.014214081            2 
  336000   0.72933834   -8.4063429      57.7257   0.01431689  0.014166678            2 
  337000    0.7221479   -8.4118739     57.51545  0.014222416  0.014119443            2 
  338000   0.74350084   -8.4387502    57.491113  0.014174338  0.014072038            2 
  339000   0.71569232   -8.4205006    57.490254  0.014132314  0.014024756            2 
  340000   0.72719188   -8.4574089    57.553876  0.014106342  0.013977519            2 
  341000   0.73605963   -8.4469598     57.44377  0.014038067  0.013930289            2 
  342000   0.71522772   -8.4134654    57.452568  0.013999164  0.013883107            1 
  343000   0.74465049   -8.4289947    57.510829  0.013972504  0.013836146            2 
  344000   0.71757417   -8.4321916    57.555829  0.013942788  0.013789182            3 
  345000   0.72088403   -8.4761539    57.489991  0.013886471  0.013742417            3 
  346000   0.71730928   -8.4602565    57.523382  0.013854379   0.01369572            3 
  347000   0.72188898    -8.464165    57.487754  0.013805897  0.013649233            4 
  348000   0.70476256   -8.4938476    57.568257  0.013785502  0.013602956            3 
  349000   0.71868713   -8.4769294    57.358704  0.013695966  0.013556527            2 
  350000   0.71239092    -8.480624    57.330229  0.013650054  0.013510062            2 
  351000   0.70904277   -8.4580081    57.353315  0.013616646  0.013463689            2 
  352000   0.70949771   -8.4688524    57.466071  0.013604657  0.013417533            2 
  353000   0.70408631   -8.4606232    57.631368  0.013605139  0.013371488            5 
  354000   0.70822522   -8.5018543    57.479342  0.013530919  0.013325627            2 
  355000   0.69324234   -8.5054578    57.496201  0.013496761  0.013279938            2 
  356000   0.69679451   -8.4840234     57.54556  0.013470403  0.013234489            2 
  357000   0.69086737   -8.5029325    57.660932  0.013459601  0.013189289            2 
  358000   0.67313887   -8.4975186    57.664491  0.013422833  0.013144382            2 
  359000   0.70664035   -8.4924681    57.624839  0.013376239   0.01309961            1 
  360000   0.69100788   -8.5034211    57.680317  0.013351925  0.013055084            2 
  361000   0.70096998   -8.5027169    57.721122  0.013324359  0.013010712            4 
  362000   0.68969836   -8.4927042    57.738928   0.01329165  0.012966573            2 
  363000    0.6818033   -8.5017463    57.713574  0.013249214  0.012922867            2 
  364000   0.68364279   -8.5284763    57.706081  0.013211099  0.012879225            1 
  365000   0.69618238    -8.526456    57.628731  0.013157244  0.012835703            4 
  366000   0.66628582    -8.533253    57.792934  0.013158683  0.012792386            5 
  367000   0.68954858   -8.5587047    57.653741  0.013091222  0.012749144            3 
  368000   0.69593677   -8.5383162    57.654809   0.01305589  0.012705987            1 
  369000   0.68961766   -8.5469705    57.737626  0.013039211  0.012662956            2 
  370000   0.67403863   -8.5571427    57.754082  0.013007676  0.012620048            2 
  371000   0.67776112   -8.5654285    57.713558  0.012963513  0.012577184            2 
  372000   0.66572126   -8.5880454    57.686667   0.01292264  0.012534361            8 
  373000   0.67047496   -8.5821747    57.494374  0.012845034   0.01249157            7 
  374000    0.6774289   -8.5470436     57.58575   0.01283105  0.012448852            1 
  375000   0.66470665   -8.5709267    57.698536  0.012821897  0.012406087            3 
  376000   0.66267815   -8.5895508    57.615115  0.012769307  0.012363687            2 
  377000   0.67298118   -8.5729674    57.648156   0.01274274    0.0123215            3 
  378000   0.66294558   -8.6012595    57.655494  0.012710647  0.012279424            4 
  379000   0.64381742   -8.6055711    57.651857   0.01267631  0.012237454            3 
  380000   0.64876722   -8.5908292    57.627812  0.012637678  0.012195656            6 
  381000   0.67244719   -8.5859798    57.775555  0.012636823   0.01215421            2 
  382000   0.65935564   -8.5975929    57.565738  0.012557971  0.012112608            5 
  383000   0.65576969   -8.6377221    57.536612  0.012518845  0.012071066            1 
  384000   0.64637805   -8.6463516    57.688466  0.012519198  0.012029831            4 
  385000   0.66597967   -8.6347996    57.630585  0.012474153  0.011988723            3 
  386000   0.64810313   -8.6308211    57.701054   0.01245705  0.011947697            2 
  387000   0.64975907   -8.6361853    57.535722   0.01238926  0.011906781            2 
  388000   0.65835625    -8.613967    57.631768  0.012377957  0.011865996            3 
  389000   0.63449865   -8.6392077    57.506702  0.012319345  0.011825264            2 
  390000   0.62819482   -8.6233194    57.651409  0.012318677   0.01178477            4 
  391000   0.65364654    -8.643404    57.639332  0.012284598  0.011744318            2 
  392000   0.65569693   -8.6385094    57.757793  0.012278442  0.011703987            2 
  393000   0.63338878   -8.6448351    57.573292  0.012208077   0.01166384            3 
  394000    0.6547612   -8.6433603    57.607295  0.012184284   0.01162372            3 
  395000   0.63013153   -8.6366385    57.557486   0.01214293  0.011583743            3 
  396000   0.62054806   -8.6450107    57.494251  0.012098958   0.01154402            3 
  397000   0.62181522    -8.664791    57.468028  0.012062978  0.011504372            2 
  398000   0.61562054   -8.6529459    57.524521  0.012044498  0.011464827            3 
  399000   0.63555187   -8.6642252     57.66988   0.01204467  0.011425434            2 
  400000   0.62071337   -8.6377551    57.519663  0.011983263  0.011386248            7 
  401000   0.62850429   -8.6689135    57.553912  0.011960497  0.011347009            2 
  402000   0.61505122   -8.6719843    57.525167  0.011924786  0.011308063            6 
  403000   0.60905903   -8.6660562    57.538963  0.011898049  0.011269239            2 
  404000   0.62548768    -8.685533    57.514942  0.011863643  0.011230497            3 
  405000    0.6244183   -8.6825909    57.478095  0.011826769  0.011191832            3 
  406000   0.62659689   -8.6938902    57.566064  0.011815695  0.011153388            2 
  407000   0.61585932   -8.6951506    57.436085   0.01176005  0.011115006            3 
  408000   0.61009148   -8.6879796     57.50351  0.011744998  0.011076797            5 
  409000   0.60364357   -8.6867095    57.528618  0.011721397  0.011038758            3 
  410000   0.60436226   -8.6636061    57.527023  0.011692484   0.01100076            2 
  411000   0.60540417   -8.6811029    57.436781  0.011645738  0.010962965            3 
  412000   0.61495481   -8.7010771    57.462436  0.011622661  0.010925317            3 
  413000   0.60868746   -8.6978304    57.409248  0.011583787  0.010887655            3 
  414000   0.60155011   -8.7287301    57.525371  0.011579181  0.010850194            2 
  415000   0.60517383   -8.6873262    57.431088  0.011532347  0.010812824            4 
  416000   0.60232093   -8.7022497    57.440367  0.011506484   0.01077565            2 
  417000   0.61562646   -8.7059521    57.465008  0.011483815  0.010738685            2 
  418000   0.59600304   -8.7077274    57.434411  0.011450241  0.010701882            2 
  419000   0.59607802   -8.7137767    57.321401  0.011400438  0.010665043            1 
  420000   0.61207888   -8.7274625    57.365889  0.011382121  0.010628427            2 
  421000   0.58993487   -8.7417739    57.363467  0.011354606  0.010591909            1 
  422000   0.59701411   -8.7303818    57.458386  0.011346443  0.010555576            2 
  423000   0.58744408   -8.7285331    57.292526  0.011286944  0.010519396            2 
  424000   0.60075746    -8.751907    57.453164  0.011291896  0.010483327            1 
  425000   0.58253355   -8.7496395    57.435641   0.01126189  0.010447446            1 
  426000   0.58250297   -8.7668021    57.490055  0.011246098  0.010411826            3 
  427000   0.57949573    -8.756589    57.419145  0.011205922  0.010376338            5 
  428000   0.58172543    -8.764545    57.381735  0.011172456   0.01034095            3 
  429000    0.5762433   -8.7479363    57.418862  0.011153625  0.010305764            3 
  430000   0.59075642   -8.7530669    57.393891  0.011122847  0.010270651            1 
  431000   0.58580586   -8.7765738    57.388962  0.011096087  0.010235588            2 
  432000   0.57984349   -8.7556049    57.351223  0.011063122  0.010200783            3 
  433000   0.57342004   -8.7794606    57.427617  0.011052274  0.010166134            2 
  434000   0.57867046   -8.7785285    57.375688  0.011016837  0.010131611            2 
  435000   0.57292372   -8.7609516    57.353017  0.010987168  0.010097272            3 
  436000   0.57935723   -8.7859205    57.450821  0.010980662  0.010063047            2 
  437000   0.57039469   -8.7919847    57.426784   0.01095095  0.010028955            2 
  438000   0.55993359     -8.77848    57.376873  0.010916452 0.0099950482            7 
  439000   0.56256802   -8.7888619    57.400457  0.010896062 0.0099612386            3 
  440000    0.5685725   -8.7842569    57.363875   0.01086437 0.0099275432            2 
  441000   0.57156718   -8.7936343    57.400089  0.010846578 0.0098939984            2 
  442000   0.56668487   -8.7963879     57.38304  0.010818823 0.0098605911            3 
  443000   0.56297348   -8.8195017    57.361447   0.01079034 0.0098272304            1 
  444000   0.57778652    -8.804676    57.320075  0.010758272 0.0097940085            2 
  445000   0.54842352   -8.8025989    57.399315  0.010748935 0.0097610185            3 
  446000   0.54230619    -8.804239     57.31599  0.010709266 0.0097280674            2 
  447000   0.56189673   -8.8282925    57.440832  0.010708582 0.0096953239            2 
  448000    0.5612525   -8.8167636    57.386167   0.01067451 0.0096627118            5 
  449000   0.56148017   -8.8344623    57.317212  0.010637938 0.0096302824            3 
  450000     0.535411   -8.8140076    57.411194  0.010631703 0.0095979191            7 
  451000   0.54655879   -8.8416946      57.3514  0.010597081 0.0095656558            4 
  452000   0.54243338   -8.8281543    57.298014  0.010563793 0.0095335098            2 
  453000   0.53660041   -8.8355511    57.272007  0.010535689 0.0095014534            4 
  454000   0.54675191   -8.8529843    57.334356  0.010523927 0.0094695245            2 
  455000   0.54065163   -8.8320242    57.221064  0.010480048   0.00943773            4 
  456000   0.53791382   -8.8276439    57.254283  0.010463137 0.0094061246            3 
  457000   0.53498879   -8.8397882    57.248118  0.010439117 0.0093746397            2 
  458000   0.54511811   -8.8561487    57.221058  0.010411401 0.0093432525            4 
  459000   0.53345912   -8.8601142    57.324107  0.010407427 0.0093119572            6 
  460000   0.53163891   -8.8583937    57.218253  0.010365626 0.0092808597            4 
  461000   0.53647921   -8.8730078    57.233255  0.010345852 0.0092498058            2 
  462000   0.52874706   -8.8721501    57.311339  0.010337543 0.0092189377            2 
  463000   0.52384549   -8.8757026    57.292856  0.010311889 0.0091881273            3 
  464000   0.52158006   -8.8610381    57.212308  0.010275199 0.0091574699            2 
  465000   0.52357911   -8.8758171    57.184566   0.01024813 0.0091269746            5 
  466000   0.52887365   -8.8710498    57.197127  0.010228385 0.0090966163            4 
  467000   0.52903884   -8.8673451    57.227475  0.010211898 0.0090663346            5 
  468000    0.5221502   -8.8693583    57.181093  0.010181819 0.0090361421            3 
  469000   0.51830155   -8.8741172    57.243152  0.010171136 0.0090060577            3 
  470000   0.50677386    -8.892638    57.232229  0.010147558 0.0089761063            3 
  471000    0.5203247   -8.8904996    57.092963  0.010101374 0.0089462932            3 
  472000   0.51970776   -8.8869484     57.10937  0.010082869 0.0089165207            4 
  473000   0.51885797   -8.9147951    57.197966  0.010077161 0.0088869281            3 
  474000   0.50639427   -8.8843445    57.102334  0.010039088  0.008857389            2 
  475000   0.51127751   -8.8922342    57.120888  0.010021208  0.008828003            2 
  476000   0.50199689    -8.901677    57.038307 0.0099856981  0.008798739            5 
  477000   0.51437821   -8.9070605    57.057161 0.0099680575 0.0087696193            2 
  478000   0.50924267   -8.8984963    57.127748 0.0099595098 0.0087405675            4 
  479000   0.51213346   -8.9051727    57.113017 0.0099361546 0.0087116704            2 
  480000   0.50157629   -8.9217666    57.031693 0.0099013355 0.0086829069            5 
  481000   0.49837015   -8.9331854    57.023941 0.0098794077 0.0086542156            3 
  482000   0.49212789   -8.9155375    57.178285 0.0098855957 0.0086256521            3 
  483000    0.5001716   -8.9272956    57.085834 0.0098491777 0.0085971858            3 
  484000   0.49358126   -8.9177107    57.063661 0.0098250105  0.008568872            1 
  485000   0.48941487   -8.9189117    57.054477 0.0098031747 0.0085406603            3 
  486000   0.49094749   -8.9181675    57.128216 0.0097956474 0.0085125254            4 
  487000   0.48367048   -8.9259372    57.069363 0.0097654625 0.0084846069            9 
  488000   0.48934174   -8.9336378    56.997618 0.0097331998 0.0084567708            3 
  489000   0.49262561   -8.9441197    57.070871  0.009725779 0.0084290061            2 
  490000    0.4821199   -8.9261948    57.058604 0.0097038442 0.0084013846            3 
  491000   0.47652799   -8.9193217    57.161928 0.0097016171 0.0083738502            3 
  492000   0.47611803   -8.9333724    56.987388 0.0096523354 0.0083464101            4 
  493000   0.48070317   -8.9382938    57.119286 0.0096550517 0.0083190823            3 
  494000   0.47399082   -8.9613953    57.004734 0.0096161831 0.0082918734            2 
  495000    0.4798589   -8.9315865    57.016256 0.0095986963 0.0082647889            8 
  496000   0.47868982   -8.9333494     57.05452 0.0095857729 0.0082377955            3 
  497000   0.46689014   -8.9578979    56.986727 0.0095551185 0.0082109006            4 
  498000    0.4708103   -8.9635699    56.979802 0.0095347728 0.0081842032            8 
  499000   0.46925188   -8.9598527    56.989792 0.0095173333 0.0081575385            8 
  500000   0.47068734   -8.9753808    56.909483 0.0094849138 0.0081310091            3 
  501000   0.47025001   -8.9587863    56.976595 0.0094771449 0.0081045855            4 
  502000   0.45643893   -8.9671895     57.05389 0.0094710973 0.0080782734            2 
  503000   0.46461103   -8.9582347     56.94177 0.0094336929  0.008052045            7 
  504000   0.46093586   -8.9748821    56.972292 0.0094200219  0.008025913            4 
  505000   0.46376478   -8.9728098    56.878473 0.0093858866 0.0079998844            4 
  506000   0.46358466   -8.9726606     56.90144 0.0093711199 0.0079739711            3 
  507000   0.45390219   -8.9794662    56.899966 0.0093523941 0.0079481356            5 
  508000   0.44732674   -8.9648029    56.960798 0.0093439629 0.0079224571            2 
  509000   0.44648589   -8.9787726     56.85001 0.0093074672 0.0078968637            2 
  510000   0.45237143   -8.9975426    56.916613 0.0093001002 0.0078714009            6 
  511000   0.45833246   -8.9962638    57.009931 0.0092971185 0.0078460124            3 
  512000   0.44936501   -8.9921095    56.915277 0.0092635542 0.0078207343            3 
Loop time of 1241.45 on 48 procs for 500000 steps with 4000 atoms

Performance: 69595.919 tau/day, 402.754 timesteps/s
99.4% CPU use with 48 MPI tasks x no OpenMP threads

MPI task timing breakdown:
Section |  min time  |  avg time  |  max time  |%varavg| %total
---------------------------------------------------------------
Pair    | 81.527     | 86.649     | 92.27      |  31.3 |  6.98
Neigh   | 8.2114     | 8.559      | 8.9491     |   6.0 |  0.69
Comm    | 76.669     | 82.753     | 88.458     |  34.7 |  6.67
Output  | 0.86332    | 0.86426    | 0.89388    |   0.5 |  0.07
Modify  | 1048.7     | 1051.9     | 1055.4     |   3.7 | 84.73
Other   |            | 10.76      |            |       |  0.87

Nlocal:        83.3333 ave          91 max          77 min
Histogram: 3 4 6 3 7 11 11 2 0 1
Nghost:        2190.54 ave        2213 max        2161 min
Histogram: 2 1 4 5 5 9 7 6 4 5
Neighs:        14563.7 ave       16023 max       13060 min
Histogram: 2 3 6 4 7 9 6 5 2 4
FullNghs:      29128.2 ave       31970 max       26765 min
Histogram: 3 6 2 6 10 8 10 1 1 1

Total # of neighbors = 1398155
Ave neighs/atom = 349.53875
Neighbor list builds = 26707
Dangerous builds = 0

#clear
#
#next RN
#
#jump SELF
Total wall time: 0:20:45
