
units lj                  # Use reduced LJ style units
atom_style atomic         # Uncharged point particles
atom_modify map hash      # Needed for indexing of clusters etc
                          # Used to be able to find where atoms are in relation to each other.

lattice fcc 1.0 spacing 1 1 1
Lattice spacing in x,y,z = 1.5874011 1.5874011 1.5874011
region box block 0 10 0 10 0 10 units lattice
create_box 2 box
Created orthogonal box = (0.0000000 0.0000000 0.0000000) to (15.874011 15.874011 15.874011)
  3 by 4 by 4 MPI processor grid
create_atoms 1 box
Created 4000 atoms
  using lattice units in orthogonal box = (0.0000000 0.0000000 0.0000000) to (15.874011 15.874011 15.874011)
  create_atoms CPU = 0.002 seconds
set type 1 type/fraction 2 1.0 78393
Setting atom values ...
  4000 settings made for type/fraction
mass 1 1.0
mass 2 1.0
pair_style lj/cut  3.5
pair_modify tail  yes
pair_coeff 1  1  1.0  1.0   # Intearaction between 1 and 1 set with epsilon = 1 and sigma = 1
pair_coeff 1  2  1.5  0.8
pair_coeff 2  2  0.5  0.88

write_data data.0
System init for write_data ...
Neighbor list info ...
  update every 1 steps, delay 10 steps, check yes
  max neighbors/atom: 2000, page size: 100000
  master list distance cutoff = 3.8
  ghost atom cutoff = 3.8
  binsize = 1.9, bins = 9 9 9
  1 neighbor lists, perpetual/occasional/extra = 1 0 0
  (1) pair lj/cut, perpetual
      attributes: half, newton on
      pair build: half/bin/atomonly/newton
      stencil: half/bin/3d
      bin: standard
WARNING: Not all mixed pair coeffs generated from mixing. Use write_data with 'pair ij' option to store all pair coeffs. (../write_data.cpp:312)


#############################
#   M E L T   S Y S T E M   #
#############################

velocity all create 2.4 1741580 mom yes dist gaussian # Assign velocities
                                                    # Temperature 2.4, random number seed, zero linear momentum
                                                                                # Gaussian distribution

timestep 0.002   # simulation timestep
thermo 1000       # output thermodynamic data every 1000 steps bf 100

# Define a fix  in this case with index 1 applied to all
# particles in the simulation. This fix is for simulations
# in the anisotropic NPT ensemble. Note that we use the MTK
# correction.
fix 1 all npt temp 2.4 2.4 0.1 iso 5.68 5.68 0.5 mtk yes tchain 5 pchain 5 # Use NPT ensemble
                                                                         # Set temperature and pressure and damping
                                                                         # Numbers of thermostats in chain and in barostat
run 10000          # run for 10000 steps
Per MPI rank memory allocation (min/avg/max) = 3.642 | 3.644 | 3.648 Mbytes
Step Temp E_pair E_mol TotEng Press Volume 
       0          2.4   -2.7016284            0   0.89747158   -1.6956087         4000 
    1000    2.4532441   -1.4849159            0    2.1940303    5.6899994    4214.6151 
    2000    2.3970146   -1.4611139            0    2.1335091    5.5474944    4258.8833 
    3000     2.381218   -1.4438931            0     2.127041    5.7114905    4242.4929 
    4000    2.4046466   -1.4210213            0    2.1850468    5.8854252    4235.2515 
    5000     2.429456   -1.4823838            0    2.1608891    5.7403901    4207.8993 
    6000    2.4002817   -1.4021166            0    2.1974058    5.7182942    4284.3316 
    7000    2.4338225   -1.4385357            0    2.2112854    5.6543669    4276.3744 
    8000    2.3485564   -1.4399375            0    2.0820164    5.4434916    4297.8547 
    9000     2.374149   -1.4300123            0    2.1303209    5.5321435    4292.4554 
   10000    2.4029842   -1.4334831            0    2.1700921    5.7771075    4241.8194 
Loop time of 2.39796 on 48 procs for 10000 steps with 4000 atoms

Performance: 720613.946 tau/day, 4170.220 timesteps/s
99.6% CPU use with 48 MPI tasks x no OpenMP threads

MPI task timing breakdown:
Section |  min time  |  avg time  |  max time  |%varavg| %total
---------------------------------------------------------------
Pair    | 1.0273     | 1.088      | 1.1872     |   3.0 | 45.37
Neigh   | 0.20165    | 0.21055    | 0.2244     |   1.0 |  8.78
Comm    | 0.75466    | 0.83744    | 0.91603    |   3.9 | 34.92
Output  | 0.00024215 | 0.00024944 | 0.00031686 |   0.0 |  0.01
Modify  | 0.21211    | 0.24702    | 0.27544    |   3.7 | 10.30
Other   |            | 0.01468    |            |       |  0.61

Nlocal:        83.3333 ave          91 max          71 min
Histogram: 1 0 1 3 6 9 11 4 8 5
Nghost:        1581.67 ave        1622 max        1548 min
Histogram: 2 2 5 10 7 10 7 2 2 1
Neighs:        8990.85 ave       10044 max        7533 min
Histogram: 2 0 2 7 4 13 4 7 6 3

Total # of neighbors = 431561
Ave neighs/atom = 107.89025
Neighbor list builds = 910
Dangerous builds = 218

# Equilibrate just above the melting temperature to avoid step fn in T

fix 1 all npt temp 1.25 1.25 0.1 iso 5.68 5.68 0.5 mtk yes tchain 5 pchain 5
run 2000
Per MPI rank memory allocation (min/avg/max) = 3.643 | 3.645 | 3.649 Mbytes
Step Temp E_pair E_mol TotEng Press Volume 
   10000    2.4029842   -1.4334831            0    2.1700921    5.7771075    4241.8194 
   11000    1.2472081   -2.2297772            0  -0.35943275    5.7828589    3323.4054 
   12000    1.2379137   -2.2425423            0  -0.38613594    5.4649842    3349.4973 
Loop time of 0.562114 on 48 procs for 2000 steps with 4000 atoms

Performance: 614822.363 tau/day, 3558.000 timesteps/s
99.6% CPU use with 48 MPI tasks x no OpenMP threads

MPI task timing breakdown:
Section |  min time  |  avg time  |  max time  |%varavg| %total
---------------------------------------------------------------
Pair    | 0.25345    | 0.27194    | 0.28983    |   1.4 | 48.38
Neigh   | 0.037734   | 0.039469   | 0.040764   |   0.3 |  7.02
Comm    | 0.18186    | 0.20185    | 0.22316    |   1.9 | 35.91
Output  | 5.1855e-05 | 5.3501e-05 | 6.9275e-05 |   0.0 |  0.01
Modify  | 0.040791   | 0.044077   | 0.047095   |   0.9 |  7.84
Other   |            | 0.004727   |            |       |  0.84

Nlocal:        83.3333 ave          91 max          75 min
Histogram: 2 3 0 7 4 15 8 4 4 1
Nghost:        1857.08 ave        1884 max        1837 min
Histogram: 2 4 9 10 5 8 5 1 3 1
Neighs:        11455.5 ave       12828 max        9998 min
Histogram: 2 0 6 7 6 9 10 3 4 1

Total # of neighbors = 549865
Ave neighs/atom = 137.46625
Neighbor list builds = 142
Dangerous builds = 12

#############################
# L I N E A R  Q U E N C H  #
#############################

# Define solid atoms. This closely follows ten Wolde  Ruiz-Montero and Frenkel  Faraday Discuss  1996  104  93-110
# Compute components of the per-atom q6 vector
compute q6 all orientorder/atom degrees 1 6 components 6 nnn NULL cutoff 1.3 # compute the Q6 parameter.
                                                                             # Use all neighbours within 1.3 unit cell.

# get number of connections
compute coord_number all coord/atom orientorder q6 0.5

# An atom is solid if it has 8 or more connections (of a possible 14)
variable is_solid atom c_coord_number>=8
group solid dynamic all var is_solid    # Must be dynamic to update
dynamic group solid defined

# do clustering
compute cluster solid cluster/atom 1.3 # Create a cluster where all atoms within are solid and max 1.3 units from another member

# define chunks one chunk per cluster
compute clus_chunks solid chunk/atom c_cluster nchunk every compress yes  # Says which atoms are in which chunk

# count the size of each chunk
compute size_chunks solid property/chunk clus_chunks count


# Find the maximum entry in the vector of chunk sizes
variable max_n equal max(c_size_chunks)


# Thermo style which includes this variable
# thermo_style custom step temp pe vol v_max_n

thermo ${N}  # Print the thermo information every 100 steps
thermo 1000  

# Reset the npt fix at a lower temperature (below freezing)
fix 1  all npt temp  ${temp} ${temp}  0.1  iso  5.68  5.68  0.5  mtk yes tchain  5  pchain  5
fix 1  all npt temp  0.45 ${temp}  0.1  iso  5.68  5.68  0.5  mtk yes tchain  5  pchain  5
fix 1  all npt temp  0.45 0.45  0.1  iso  5.68  5.68  0.5  mtk yes tchain  5  pchain  5

dump dmp2 all dcd ${N} traj.dcd
dump dmp2 all dcd 1000 traj.dcd


compute msd all msd com yes
variable twopoint equal c_msd[4]/6/(step*dt+1.0e-6)
fix 9 all vector 10 c_msd[4]
variable fit equal slope(f_9)/6/(10*dt)
thermo_style custom step temp pe c_msd[4] v_twopoint v_fit v_max_n

fix 1 all npt temp 1.25 ${temp} 0.1 iso 5.68 5.68 0.5 mtk yes tchain 5 pchain 5
fix 1 all npt temp 1.25 0.45 0.1 iso 5.68 5.68 0.5 mtk yes tchain 5 pchain 5
run 5000000 # 5000000  # Run for this many steps
Neighbor list info ...
  update every 1 steps, delay 10 steps, check yes
  max neighbors/atom: 2000, page size: 100000
  master list distance cutoff = 3.8
  ghost atom cutoff = 3.8
  binsize = 1.9, bins = 8 8 8
  4 neighbor lists, perpetual/occasional/extra = 1 3 0
  (1) pair lj/cut, perpetual
      attributes: half, newton on
      pair build: half/bin/atomonly/newton
      stencil: half/bin/3d
      bin: standard
  (2) compute orientorder/atom, occasional
      attributes: full, newton on
      pair build: full/bin/atomonly
      stencil: full/bin/3d
      bin: standard
  (3) compute coord/atom, occasional
      attributes: full, newton on
      pair build: full/bin/atomonly
      stencil: full/bin/3d
      bin: standard
  (4) compute cluster/atom, occasional
      attributes: full, newton on
      pair build: full/bin/atomonly
      stencil: full/bin/3d
      bin: standard
Per MPI rank memory allocation (min/avg/max) = 9.809 | 9.815 | 9.820 Mbytes
Step Temp PotEng c_msd[4] v_twopoint v_fit v_max_n 
   12000    1.2379137   -2.2425423 1.1002637e-30 7.6407202e-33 8.3333333e+20            3 
   13000    1.2525095   -2.2194191    1.2312723 0.0078927708   0.10542235            1 
   14000    1.2721941   -2.2339399     2.623082  0.015613583     0.111718            3 
   15000    1.2325353   -2.2377104    4.1165262  0.022869589   0.11648245            2 
   16000    1.2559276   -2.2302023    5.4873253  0.028579818   0.11763094            1 
   17000    1.2413156    -2.221707    6.6908387  0.032798228   0.11567658            1 
   18000    1.2430695   -2.2195849    7.9479299  0.036795971   0.11342573            1 
   19000    1.2374231   -2.2170311    9.3694275  0.041093979   0.11193408            1 
   20000    1.2562512   -2.2048461    10.736427  0.044735113   0.11188048            1 
   21000    1.2552878   -2.1996689    11.970034  0.047500136   0.11179659            1 
   22000    1.2378381   -2.2476986    13.324951  0.050473299   0.11153494            1 
   23000    1.2162576   -2.2336317     14.61531  0.052954022   0.11131653            1 
   24000    1.2573944   -2.2358645    16.044018  0.055708395   0.11131958            2 
   25000    1.2759712    -2.235459    17.379249   0.05793083    0.1115859            1 
   26000    1.2454489   -2.1780593    18.910861  0.060611733     0.111856            1 
   27000    1.2885756   -2.2277165    20.402591  0.062970959   0.11235259            2 
   28000    1.2458503   -2.2141069    21.731703  0.064677685   0.11282313            3 
   29000    1.2617123    -2.246583    23.120653  0.066438656   0.11304527            3 
   30000    1.2320196   -2.2286013    24.364252  0.067678476   0.11317863            1 
   31000    1.2462955   -2.2171319    25.819288  0.069406688   0.11330656            2 
   32000    1.2448059   -2.2282579    27.124389  0.070636429   0.11345268            2 
   33000    1.2902528   -2.2308288    28.331887  0.071545168   0.11338773            2 
   34000    1.2281714   -2.2501771    30.000656  0.073531018   0.11336719            2 
   35000    1.2524313   -2.2619049    31.243238   0.07438866   0.11345884            2 
   36000    1.2179422   -2.2262962     32.65767  0.075596456   0.11360231            2 
   37000    1.2628165   -2.2183763    34.034906  0.076655193   0.11370231            3 
   38000    1.2526747   -2.2063857    35.238579  0.077277584   0.11379625            2 
   39000    1.2534792   -2.2249326     36.64785  0.078307372   0.11381002            2 
   40000    1.2249278    -2.215549    38.106507  0.079388554   0.11378988            2 
   41000      1.23259   -2.2345861     39.59776  0.080483251   0.11380579            4 
   42000     1.258519   -2.2403655    40.468157  0.080293962   0.11383827            1 
   43000    1.2298466   -2.2039144     42.07901  0.081548468   0.11376988            1 
   44000    1.2559388   -2.2225469    43.628768  0.082630241    0.1137252            1 
   45000    1.2417111   -2.2073491    45.203627  0.083710419   0.11378895            2 
   46000    1.2407038   -2.2450957    46.691081  0.084585291   0.11394261            3 
   47000    1.2617537   -2.2448426     48.12621  0.085330159   0.11412422            1 
   48000    1.2245591   -2.2498897    49.434068  0.085823035   0.11428145            1 
   49000    1.2718112   -2.2437983    51.206462  0.087085819   0.11441434            2 
   50000    1.2624321   -2.2244768    52.351809  0.087253015   0.11460515            2 
   51000    1.2440549   -2.2116991    53.774738  0.087867218   0.11476243            2 
   52000    1.2462784   -2.2246472    55.285788  0.088599018   0.11494329            1 
   53000    1.2298537   -2.2446474    56.343524  0.088590446   0.11504883            1 
   54000    1.2380322    -2.204349    57.400605  0.088581179   0.11503025            1 
   55000    1.2556592   -2.2308649    59.292516  0.089837145   0.11506025            2 
   56000    1.2499644   -2.2349508    60.392655  0.089870021   0.11507111            1 
   57000    1.2070017   -2.2139152    61.998119  0.090640525   0.11507428            2 
   58000    1.2598122   -2.2316619     63.21913  0.090832083   0.11505168            1 
   59000    1.2311625   -2.2291945    64.241506   0.09073659   0.11503983            2 
   60000    1.2479518   -2.2357851    66.077414  0.091774186   0.11503962            1 
   61000     1.210943   -2.2490745    67.429905  0.092117356   0.11500388            2 
   62000    1.2453548   -2.2443118    68.034986  0.091444873   0.11494053            1 
   63000    1.2326005   -2.2409604    69.470128  0.091891702   0.11483664            4 
   64000    1.2302695    -2.248126    70.886269  0.092299829   0.11470876            2 
   65000     1.249633   -2.2697498    71.520618    0.0916931   0.11456077            2 
   66000    1.2527468   -2.2424448    72.683215  0.091771736   0.11437519            1 
   67000     1.222878   -2.2493448    74.285427  0.092394808   0.11420483            2 
   68000    1.2223979   -2.2596719    75.334375  0.092321538   0.11400275            2 
   69000    1.2306647   -2.2652619    75.847581  0.091603358   0.11376205            3 
   70000    1.2488481   -2.2205719    77.414455  0.092160064   0.11352381            1 
   71000    1.2298928   -2.2254218    78.989087  0.092710195   0.11333239            2 
   72000    1.2398035   -2.2113913     80.59081  0.093276399    0.1131723            1 
   73000      1.24584   -2.2348929    81.738544  0.093308839   0.11303221            1 
   74000    1.2230001   -2.2452832    83.094752  0.093575171   0.11288249            3 
   75000    1.2391901   -2.2217889    84.630471  0.094033856   0.11275731            1 
   76000    1.2389435   -2.2374424    85.658866  0.093924194   0.11265822            2 
   77000     1.236854   -2.2562367    87.085931  0.094248843   0.11256615            1 
   78000    1.2579215   -2.2268433    88.784633  0.094855376   0.11245866            2 
   79000    1.2638587   -2.2388737    89.860326  0.094789373   0.11238124            1 
   80000    1.2384402   -2.2374444    91.279773  0.095083097   0.11232349       -1e+20 
   81000    1.2521047   -2.2513987    92.261836  0.094919584   0.11223675            1 
   82000    1.2320637   -2.2463914    93.801994  0.095327229   0.11215716            1 
   83000    1.2179518   -2.2461332    95.475564     0.095859   0.11209442            2 
   84000    1.2438933   -2.2248475    95.926132  0.095164813   0.11201249            1 
   85000    1.2542367   -2.2378075     97.52313  0.095610911   0.11192564            2 
   86000    1.2368378   -2.2762604    98.622745  0.095564674   0.11182474            2 
   87000    1.2417966   -2.2183679    100.64081  0.096399238   0.11174509            1 
   88000     1.243726   -2.2298057    100.71191  0.095371122   0.11165662            1 
   89000    1.2505092   -2.2470099    102.22028  0.095711868   0.11154636            1 
   90000    1.2598485   -2.2150087    104.07252  0.096363445   0.11144842            1 
   91000    1.2301249   -2.2504903    105.94883  0.097022735   0.11138735            1 
   92000    1.2448512   -2.2688405     106.7721  0.096713854   0.11134431            1 
   93000    1.2125059   -2.2313548    108.26295  0.097009813   0.11131197            1 
   94000    1.2470438   -2.2419612    109.75527   0.09730077   0.11128626            1 
   95000    1.2316879   -2.2394297    110.92275  0.097300658   0.11125937            2 
   96000    1.2210429   -2.2119952    112.07921  0.097290982   0.11120762            1 
   97000    1.2216859   -2.2485599     113.1811  0.097234624   0.11114681            1 
   98000    1.2470271   -2.2265618    113.79127  0.096761286   0.11107999            2 
   99000     1.245248   -2.2358678    115.79804    0.0974731   0.11102376            2 
  100000    1.2456297   -2.2523617    117.18569  0.097654744   0.11095908            1 
  101000    1.2212989   -2.2400185    117.76904  0.097169175   0.11089118            1 
  102000    1.2710567   -2.2496433    118.98656  0.097211241   0.11082068            1 
  103000    1.2276707   -2.2191303    120.84119  0.097767949   0.11074996            1 
  104000    1.2424901   -2.2411986    122.35072  0.098037439   0.11070021            1 
  105000    1.2157031   -2.2175479    122.97914   0.09760249   0.11063862            2 
  106000    1.2537734   -2.2338693     124.2393  0.097672402    0.1105629            1 
  107000    1.2277543   -2.2553594    124.73944  0.097149099   0.11046902            1 
  108000    1.2307652   -2.2236571    126.52263  0.097625485   0.11037045            1 
  109000    1.2328906    -2.244092    127.58415    0.0975414   0.11026124            1 
  110000    1.2284346   -2.2129939    129.48356  0.098093603   0.11015999            2 
  111000    1.2417439   -2.2274168    130.22572  0.097767054   0.11007047            2 
  112000    1.2592985   -2.2635303    130.37691  0.097006631   0.10998135            2 
  113000      1.24994   -2.2679823      132.468  0.097690268   0.10989364            1 
  114000    1.2397754   -2.2676992    133.74564  0.097767283   0.10979834            2 
  115000    1.2290455   -2.2573676    135.28472  0.098032405   0.10972387            2 
  116000    1.2354636   -2.2544338    136.63117  0.098154578   0.10965037            1 
  117000    1.2575642   -2.2034581    138.75576  0.098828891   0.10959111            2 
  118000    1.2320574   -2.2101219    139.51159  0.098525131   0.10954522            2 
  119000    1.2103829   -2.2439352    140.99306  0.098734637   0.10948469            1 
  120000    1.2526018   -2.2657143    141.85163  0.098508075   0.10943723            1 
  121000     1.234464   -2.2279398    143.58151  0.098885337   0.10939981            1 
  122000    1.2448179   -2.2292625    145.20831  0.099186004   0.10936544            1 
  123000    1.2393349   -2.2398966    146.02319  0.098931703   0.10932473            1 
  124000    1.2420952   -2.2571834    146.25295  0.098288276   0.10928697            2 
  125000    1.2316436   -2.2260333    147.86175    0.0985745   0.10923514            1 
  126000    1.1979689   -2.2462615     149.1111  0.098618451   0.10917016            1 
  127000    1.2286719   -2.2515614    150.13218  0.098511928   0.10909643            1 
  128000    1.2510534   -2.2678981    151.69848  0.098762029   0.10903487            1 
  129000    1.2237623   -2.2355569    152.86952  0.098752916    0.1089865            1 
  130000    1.2153957   -2.2674143    154.39042  0.098968216   0.10892943            1 
  131000    1.2223972   -2.2402724    156.28985  0.099421025   0.10888086            2 
  132000    1.2536591   -2.2566693    157.07493  0.099163468   0.10883767            1 
  133000    1.2283514   -2.2561306    157.54033  0.098709481   0.10879713            1 
  134000    1.2290115   -2.2394329    160.16266  0.099603646   0.10875856            1 
  135000    1.2323976   -2.2379008     160.8601  0.099296355   0.10871968            3 
  136000    1.2237986   -2.2311414    162.30075  0.099448987   0.10868205            1 
  137000    1.2574722   -2.2668948    162.85022  0.099057308   0.10864302            2 
  138000    1.1964036   -2.2164984    164.21637  0.099164475   0.10858306            1 
  139000    1.2237087   -2.2498422    166.18304  0.099630121   0.10851837            2 
  140000     1.236529    -2.226935    166.65955   0.09920211    0.1084741            1 
  141000     1.212818   -2.2515337    168.18108  0.099397801   0.10842961            4 
  142000    1.2350326   -2.2337965    169.57504  0.099515865   0.10840128            6 
  143000    1.2029238   -2.2642929     171.7973   0.10011498   0.10838146            1 
  144000    1.2229241     -2.22668    172.83694   0.10002137   0.10836541            1 
  145000    1.2234271   -2.2381684    173.05494  0.099456862   0.10834148            1 
  146000    1.2295981   -2.2701491    175.33558   0.10007739   0.10832095            2 
  147000    1.1953771   -2.2442658    175.61142  0.099552959   0.10829812            1 
  148000    1.2390663   -2.2500935    176.92333  0.099618993   0.10827118            1 
  149000    1.2286495   -2.2546453    179.26153   0.10025813   0.10825807            2 
  150000    1.2150676   -2.2420117     181.1864   0.10065911   0.10823811            3 
  151000    1.2117434   -2.2738434    183.13599   0.10106842   0.10823722            1 
  152000    1.2386997   -2.2489311    182.19246  0.099886216   0.10823353            1 
  153000    1.2384496   -2.2350411    185.52768   0.10104993   0.10823267            1 
  154000    1.2320152   -2.2782684    186.19618   0.10075551   0.10822876            2 
  155000    1.2211043   -2.2317204    188.63177   0.10141493     0.108232            2 
  156000    1.2239206   -2.2426553    189.42996   0.10119122    0.1082456            1 
  157000    1.2161215   -2.2391978    191.42141   0.10160372   0.10826854            1 
  158000    1.2282299    -2.239106    192.39079   0.10147194   0.10829145            2 
  159000     1.231853   -2.2577453    193.45093   0.10138937   0.10831292            2 
  160000    1.2235954   -2.2592316    195.82833   0.10199392   0.10832249            1 
  161000    1.2291063   -2.2575219    194.49183   0.10066865   0.10831777            2 
  162000    1.2559268   -2.2712758     196.3456   0.10100082   0.10831994            1 
  163000    1.2072269   -2.2359491    198.43039   0.10144703   0.10831964            2 
  164000    1.2340532   -2.2698684    198.74914   0.10099041   0.10832828            2 
  165000     1.227802   -2.2423946    201.30576   0.10166957    0.1083336            2 
  166000    1.1919985   -2.2498317    203.23845   0.10202733   0.10834238            2 
  167000    1.2285731   -2.2820761    203.91517   0.10175408   0.10835395            1 
  168000    1.1998359    -2.253334     205.7371   0.10205213    0.1083675            2 
  169000    1.2199699   -2.2450475    206.43971   0.10179473   0.10838783            1 
  170000    1.2295135   -2.2430048    208.54323   0.10222708   0.10841005            3 
  171000    1.2422656   -2.2551195    210.46482    0.1025657   0.10843892            1 
  172000    1.2136328   -2.2487779    212.18704    0.1028038   0.10847499            1 
  173000    1.2430655   -2.2652093     211.8999   0.10207124   0.10850796            2 
  174000    1.1956394   -2.2531879    214.15307   0.10256373   0.10852908            1 
  175000    1.2191456   -2.2456692    215.83928   0.10278061   0.10855008            1 
  176000    1.2141788   -2.2382874    215.76803   0.10216289   0.10857165            3 
  177000    1.2240409   -2.2385301     217.3402   0.10232589   0.10858124            1 
  178000    1.2598873   -2.2665644    217.41585   0.10178645   0.10858332            2 
  179000    1.2197353   -2.2570748      219.905   0.10237663    0.1085931            1 
  180000    1.2145665   -2.2727767    220.79591   0.10222033   0.10860352            1 
  181000    1.2131274   -2.2621855    223.73812   0.10301018   0.10861629            1 
  182000    1.2467824   -2.2770146    224.07717   0.10259944   0.10862318            1 
  183000    1.1902741    -2.240875    226.37344   0.10308444   0.10863486            1 
  184000    1.2082941   -2.2592127    226.72427   0.10268309    0.1086537            2 
  185000    1.2321023   -2.2620332     226.8209   0.10217158   0.10866204            1 
  186000    1.2197824   -2.2443394     229.0472   0.10261971   0.10867279            2 
  187000    1.1921955   -2.2307684    230.83813   0.10286904   0.10868453            1 
  188000    1.2241362   -2.2964311    231.08555   0.10243154   0.10869599            1 
  189000    1.2304028   -2.2427651     233.3216   0.10287548   0.10870657            1 
  190000    1.2324643   -2.2666203    234.76645   0.10296774   0.10872838            4 
  191000    1.2359363   -2.2383746    236.65996   0.10325478   0.10875365            2 
  192000    1.2273392   -2.2427598    238.69371    0.1035997   0.10877342            2 
  193000    1.2141253   -2.2638588    238.60301   0.10302375   0.10879468            1 
  194000    1.2369558   -2.2383435    239.50864   0.10288172   0.10881172            2 
  195000    1.2128688   -2.2456591    242.28917   0.10354238   0.10882154            1 
  196000    1.2142974   -2.2642944    241.48241   0.10267109   0.10883119            2 
  197000    1.2122721   -2.2578721    243.19678   0.10287512   0.10882853            2 
  198000    1.2182963   -2.2590857    243.71302   0.10257282   0.10882702            1 
  199000    1.2312817   -2.2382248    246.59903   0.10326592   0.10882686            1 
  200000    1.2332763   -2.2513293    245.74945    0.1023956   0.10881959       -1e+20 
  201000    1.2247517   -2.2682131    247.79695   0.10273505   0.10880601            2 
  202000    1.1944578   -2.2722548    248.06927   0.10233881   0.10878944            2 
  203000    1.2239087   -2.2645624    249.39099   0.10237725   0.10877381            1 
  204000    1.2185076   -2.2620794    250.92417    0.1025017   0.10876253            2 
  205000    1.2044197   -2.2771319    252.63042   0.10269529   0.10875506            2 
  206000    1.2471983    -2.236492    254.02761   0.10276198   0.10874805            2 
  207000    1.2423141   -2.2268609    256.16378   0.10312551   0.10873904            1 
  208000     1.213895   -2.2412887    257.96494   0.10335134   0.10873444            1 
  209000    1.2303761   -2.2270973    258.78617   0.10318428   0.10873022            1 
  210000    1.2041239   -2.2756029     260.3796   0.10332524   0.10872957            2 
  211000    1.2187693   -2.2795331     260.2858    0.1027985   0.10872998            1 
  212000    1.2186049   -2.2670811    262.24753   0.10308472   0.10873297            1 
  213000    1.2275128   -2.2831714    263.21448   0.10297906   0.10873664            1 
  214000    1.2090347    -2.286343    264.67409   0.10306623   0.10873848            3 
  215000    1.2297793   -2.2480432    267.15812   0.10354966   0.10874729            2 
  216000    1.2045766   -2.2078826    269.26506   0.10388312   0.10876222            1 
  217000    1.2234625   -2.2519377     270.4728    0.1038682   0.10877199            2 
  218000    1.2149817   -2.2565355    271.16313   0.10365563   0.10878434            2 
  219000    1.2417577   -2.2256167    272.93422   0.10385625   0.10880293            1 
  220000    1.1964072   -2.2470836    275.17888   0.10423442   0.10882072            1 
  221000       1.2396   -2.2567678    274.88705   0.10365273   0.10883136            1 
  222000    1.2206626   -2.2545315    277.53674   0.10418046   0.10884816            1 
  223000    1.2263721   -2.2696603    279.70201   0.10452243   0.10886904            2 
  224000    1.2052161   -2.2517522    278.93854   0.10377178   0.10888616            1 
  225000    1.2105054   -2.2665961    282.22879   0.10452918   0.10890656            1 
  226000     1.217818   -2.2592023     284.1343   0.10476929   0.10893142            1 
  227000     1.225719   -2.2640577    285.14475   0.10467869   0.10895219            1 
  228000     1.184619   -2.2411675     285.8937   0.10449331   0.10897352            1 
  229000    1.2229062   -2.2137825    287.05138   0.10445829   0.10899462            1 
  230000    1.2082662   -2.2568681    288.55319   0.10454826   0.10902078            1 
  231000    1.2157957    -2.257573    288.93613   0.10423381   0.10903861            2 
  232000    1.2076972   -2.2677002    291.06761   0.10455015   0.10905594            1 
  233000    1.2323971   -2.2516792    292.55578   0.10463369   0.10907298            1 
  234000     1.217177   -2.2723999    293.34474    0.1044675   0.10908746            1 
  235000    1.2154538   -2.2471509    294.67441   0.10449447   0.10909934            1 
  236000    1.2128062   -2.2705202    296.19518   0.10458869   0.10911362            5 
  237000    1.1842621    -2.266407    296.43297     0.104231   0.10912358            2 
  238000    1.2170716   -2.2499286    298.62233   0.10455964   0.10913368            2 
  239000     1.220513   -2.2741683    301.05259   0.10496952    0.1091497            1 
  240000     1.233131   -2.2576368    302.13979   0.10490965    0.1091665            1 
  241000    1.2111435   -2.2762066    303.12579   0.10481528   0.10918295            1 
  242000    1.2260585   -2.2582377    303.59609   0.10454411   0.10919459            3 
  243000    1.1989569   -2.2745656    306.12355   0.10498064   0.10921087            2 
  244000    1.2013991   -2.2724663    306.83805   0.10479442   0.10922905            1 
  245000    1.2086846   -2.2322759    308.61355    0.1049706   0.10924463            1 
  246000    1.2435976   -2.2582879    308.31509   0.10444278   0.10925844            2 
  247000    1.2181427   -2.2779291    310.38842   0.10471944   0.10927035            1 
  248000     1.196597    -2.253795    311.46769   0.10465984   0.10928547            2 
  249000    1.2288014   -2.2671458    315.59457   0.10562067   0.10929953            1 
  250000    1.1905603   -2.2590976    314.91178   0.10497059   0.10932211            3 
  251000    1.2344525   -2.2651723     316.5544   0.10509774   0.10934337            1 
  252000    1.2500194   -2.2947189    316.79612   0.10476062   0.10936567            1 
  253000    1.2135217   -2.2727894    320.34005   0.10551385   0.10938208            1 
  254000    1.2073077   -2.2282965    320.99954   0.10531481   0.10940167            2 
  255000    1.2197864   -2.2557923    321.61399   0.10510261   0.10941521            2 
  256000    1.2174565   -2.2555325    321.90507   0.10478681   0.10942796            2 
  257000    1.2104733   -2.2500506    323.63768   0.10494088   0.10942873            3 
  258000    1.2051399   -2.2823404     325.4975   0.10513485   0.10943147            3 
  259000    1.1992469   -2.2433447    325.73176    0.1048043   0.10943205            3 
  260000    1.2136503   -2.2620992    326.50777   0.10464992   0.10943703            2 
  261000    1.1987524   -2.2564904    326.91281   0.10437829   0.10943927            2 
  262000    1.2529381   -2.2469705    330.57357   0.10514427   0.10944395            2 
  263000     1.217664   -2.2772111    331.67011   0.10509192   0.10945453            2 
  264000    1.1885475   -2.2689992    333.87212   0.10538893   0.10946068            1 
  265000    1.2019928     -2.24785    335.27631    0.1054328    0.1094669            1 
  266000    1.1897992   -2.2582182    334.22279   0.10470639   0.10947145            1 
  267000    1.2172691   -2.2475091    336.31244   0.10496643    0.1094736            1 
  268000    1.2040513   -2.2591114    336.85297   0.10474284   0.10947172            1 
  269000    1.1884324   -2.2574928    336.35584   0.10419945   0.10946669            2 
  270000    1.2100703    -2.257574    340.18305   0.10499477   0.10946383       -1e+20 
  271000    1.2062468   -2.2601116    340.55229   0.10472088   0.10946035            3 
  272000    1.2072818   -2.2622831    342.40529   0.10490358    0.1094569            1 
  273000    1.2214354   -2.2832133    344.46785   0.10514892   0.10945058            1 
  274000    1.2175376   -2.2766364    344.07308    0.1046451   0.10944996            3 
  275000    1.2205366   -2.2590093    346.22804   0.10491759   0.10944848            2 
  276000    1.1972691   -2.2762225    347.75615   0.10499884   0.10944469            1 
  277000    1.1997294   -2.2656562    347.95506   0.10467962   0.10944015            2 
  278000    1.2148398   -2.2438432    349.08259   0.10464106   0.10943674            3 
  279000    1.1782016   -2.2774418    349.50318   0.10439163   0.10942868            1 
  280000    1.2185879   -2.2570048    350.52543   0.10432305   0.10941478            2 
  281000    1.2265075   -2.2860243    352.43998   0.10451957   0.10940097            2 
  282000    1.1843083   -2.2773466    354.59745   0.10478648    0.1093898            1 
  283000    1.1664147   -2.2643226    354.53057   0.10439652   0.10937658            2 
  284000    1.2294045   -2.2522757    357.69778   0.10495827   0.10936329            5 
  285000    1.2206905   -2.2831608     356.6555   0.10428523   0.10934895            3 
  286000    1.2173609   -2.2470314    357.91842   0.10428858   0.10933563            2 
  287000    1.2196189   -2.2650678    359.96211   0.10451861   0.10932487            2 
  288000    1.1757247   -2.2798934    360.58258   0.10433524     0.109312            1 
  289000    1.2069189   -2.2581427    361.83144   0.10433433    0.1092997       -1e+20 
  290000    1.2077389   -2.2673703    364.72854   0.10480705   0.10928439            2 
  291000    1.1993836    -2.269563    365.27895   0.10460451   0.10927237            2 
  292000    1.2112788   -2.2681338    365.05143   0.10418134   0.10925831            3 
  293000    1.2219728   -2.2642665    366.23918   0.10416359   0.10924339            1 
  294000    1.2186664   -2.2877815    368.59811   0.10447792   0.10923166            2 
  295000    1.2144319   -2.2580795    369.87708   0.10448505   0.10922059            1 
  296000    1.1908834   -2.2672697    370.91568   0.10442446   0.10920457            2 
  297000    1.2097844   -2.2900337      372.002   0.10437766   0.10918771            1 
  298000    1.2200349   -2.2692123    371.83047   0.10397944   0.10916788            1 
  299000    1.1968346   -2.2898429    373.60113   0.10412518   0.10914419            3 
  300000    1.2001473    -2.274057    373.88148   0.10385597   0.10911987            6 
  301000    1.2093089   -2.2864864    375.42876    0.1039393   0.10909165            2 
  302000    1.2258552   -2.2686638    376.06396   0.10377041    0.1090632            2 
  303000    1.2164216   -2.2697284    377.02973   0.10369354   0.10903715            2 
  304000    1.2042858   -2.3009554    378.45912   0.10374428   0.10901185            1 
  305000     1.180078   -2.2873478    380.80265   0.10404444   0.10898799            2 
  306000    1.2036039   -2.3078558    380.31596   0.10357188   0.10895956            1 
  307000    1.2419734    -2.266655    382.01063   0.10369452   0.10893017            1 
  308000    1.2082857   -2.2918717    385.57111   0.10432119   0.10890326            3 
  309000    1.2207559   -2.3068147    386.48117   0.10422901   0.10888381            1 
  310000    1.2001322   -2.2682012    386.45037   0.10388451   0.10886346            2 
  311000    1.1957419   -2.2733727    389.21981   0.10429255   0.10884245            1 
  312000    1.1762164   -2.2608579    389.21257   0.10395635   0.10881944            2 
  313000    1.1886683   -2.2733505     392.5068   0.10450128   0.10879719            1 
  314000    1.2209068    -2.263179    392.27402   0.10410669      0.10878            1 
  315000    1.1953449   -2.2688666     395.6968   0.10468169   0.10876476            3 
  316000     1.213069   -2.2647314    395.00095   0.10416692   0.10874978            1 
  317000    1.1981605   -2.2678975    396.70128    0.1042853    0.1087362            1 
  318000    1.2037361   -2.2719773    395.78752    0.1037179   0.10871786            3 
  319000    1.2266792   -2.2785147    397.46724   0.10383157   0.10869447            1 
  320000    1.1938063   -2.2700115    400.34273   0.10425592   0.10867081            1 
  321000    1.2268745   -2.2661482    399.86926   0.10380822   0.10865029            2 
  322000    1.1958878     -2.29496    400.93097    0.1037606   0.10862941            3 
  323000    1.2220893   -2.2449597    404.64817   0.10439839   0.10860888            1 
  324000    1.1839785   -2.2547477    403.13443   0.10368684     0.108587            2 
  325000    1.1976017   -2.2581744    405.12926    0.1038793   0.10856494            1 
  326000    1.2009435   -2.2463649    407.84538   0.10425495   0.10854542            1 
  327000    1.2150809   -2.2652703    407.70717   0.10390091   0.10852698            2 
  328000     1.185101   -2.3159934    408.36668    0.1037517   0.10850852            1 
  329000    1.2113642   -2.3117697    409.67547   0.10376785   0.10848549            1 
  330000    1.2030628   -2.2690969    411.42629   0.10389553   0.10846402            1 
  331000    1.2030493   -2.2753485    413.95062   0.10421717    0.1084436            1 
  332000    1.1958719   -2.2693322    416.59459   0.10456692    0.1084234            1 
  333000    1.1890169   -2.2786694    415.77045   0.10404666   0.10840382            3 
  334000    1.1948302   -2.2882532    416.62727   0.10394892   0.10838511            1 
  335000    1.2192301   -2.2865558    418.99642   0.10422796   0.10836906            2 
  336000    1.2144502   -2.2635193    418.12216   0.10370093   0.10835072            3 
  337000    1.1731843   -2.2531628    421.44379   0.10421459   0.10833318            3 
  338000     1.200357   -2.2676776    421.95046   0.10403118    0.1083142            2 
  339000    1.2121579   -2.3047354    422.20463   0.10378678    0.1082928            1 
  340000    1.1972117   -2.2988108    424.86885   0.10413452   0.10827412            2 
  341000    1.2119823   -2.2753789     427.4314   0.10445538   0.10825516            1 
  342000    1.2160247   -2.2576093    429.10993   0.10455895   0.10824367            1 
  343000    1.1740729   -2.2813992    428.80744   0.10418062   0.10823071            1 
  344000    1.1809987   -2.2645159    430.98033   0.10440415   0.10822071            1 
  345000    1.2064745   -2.2972287    433.88055   0.10480206   0.10821349            1 
  346000    1.1795813    -2.294724    433.61331   0.10443481   0.10820417            2 
  347000    1.1849732   -2.2814617      434.894    0.1044414   0.10819339            2 
  348000    1.2187511   -2.2583179     436.8524   0.10461025   0.10818017            1 
  349000    1.2078992   -2.2845914    436.44627   0.10421353   0.10816709            2 
  350000    1.1979197   -2.2834521    438.83048   0.10448345   0.10815514            2 
  351000     1.196611   -2.2818769    440.33471    0.1045429   0.10814411            1 
  352000     1.207417   -2.3040413    440.61299   0.10431179   0.10813282            1 
  353000    1.2160634   -2.2869885    440.93009   0.10409114   0.10812169            1 
  354000    1.1905713   -2.2974316    443.94426   0.10450665   0.10811053            1 
  355000    1.1991497   -2.2982198    445.13649   0.10449213   0.10809464            1 
  356000    1.1981934   -2.2852152    446.47924   0.10451293    0.1080799            2 
  357000    1.1842878   -2.2917773    445.19814   0.10392113   0.10806467            1 
  358000    1.1948584   -2.2842484    448.97183   0.10450927   0.10804935            3 
  359000    1.1804371   -2.2919934    447.83785   0.10395493    0.1080347            3 
  360000    1.1874638   -2.2508286    449.11249   0.10396122   0.10801885            2 
  361000    1.1971851   -2.2937455    451.84667    0.1043044   0.10800504            2 
  362000    1.2155696   -2.2817288    453.74334   0.10445289   0.10799458            1 
  363000    1.1905844   -2.2800634    455.88932   0.10465779   0.10798367            1 
  364000    1.1850671   -2.2679949    455.26916   0.10422829   0.10797172            1 
  365000    1.2088503   -2.2781046    456.20557   0.10415652   0.10795933            1 
  366000    1.1777224   -2.2984721    458.13878   0.10431211   0.10794807            1 
  367000    1.2175038   -2.2917703     460.0733   0.10446714   0.10793779            2 
  368000      1.20844     -2.28562     459.5967   0.10407534   0.10792983            2 
  369000    1.2047531   -2.2978537     461.1019   0.10413322   0.10791947            2 
  370000    1.1967653   -2.2823656    464.23701   0.10455789   0.10790801       -1e+20 
  371000    1.1811347   -2.2904605    463.49126   0.10410855   0.10789495            2 
  372000    1.1642664   -2.2908404    464.11962   0.10396945   0.10788158            2 
  373000      1.19717   -2.2862243    466.13761   0.10414156   0.10786624            1 
  374000    1.1753774   -2.3275589    468.57865   0.10440701   0.10785068            2 
  375000    1.1998924   -2.2661132    469.52338   0.10433853   0.10783542            1 
  376000    1.2264221   -2.2728474    469.87687   0.10413938   0.10782168            3 
  377000    1.2144607   -2.2744059     471.3762   0.10419456   0.10780876            1 
  378000    1.2269821   -2.2867286    470.78632   0.10378887   0.10779064            3 
  379000    1.1799499   -2.3101741    476.18926     0.104703   0.10777563            1 
  380000    1.2142611   -2.2924191     476.1104   0.10441017   0.10776256            1 
  381000    1.1789471   -2.2806265    476.37155   0.10419325   0.10774896            1 
  382000    1.1820997   -2.2720982    477.92372    0.1042591   0.10773319       -1e+20 
  383000    1.2102533   -2.2605765    476.74527   0.10373048   0.10771395            2 
  384000    1.1754188   -2.2836519    476.61282    0.1034316   0.10769137            1 
  385000    1.2042528   -2.2668922    480.61044   0.10402823   0.10767074            2 
  386000    1.1650394   -2.2812864    478.52339   0.10330816   0.10764953            1 
  387000    1.1806696   -2.2719707     482.2853   0.10385127   0.10762462            2 
  388000    1.2277473    -2.280549     481.7086   0.10345975   0.10759909            2 
  389000    1.1969304   -2.3018114    482.64261   0.10339388   0.10757951            2 
  390000     1.175085   -2.2885043    487.53261   0.10417363    0.1075618            3 
  391000    1.1871655   -2.2986707    489.28771   0.10428127    0.1075431            1 
  392000    1.1822705   -2.2954702    485.88425   0.10329172    0.1075216            2 
  393000     1.217776   -2.2468471    490.49811   0.10400723   0.10750134            2 
  394000    1.1840727   -2.2890032    492.14758   0.10409213   0.10748458            1 
  395000    1.2069861    -2.282232     492.3863   0.10387897   0.10746799            4 
  396000    1.2041783   -2.2772476    493.59945   0.10387194    0.1074509            1 
  397000     1.161146   -2.2868961    494.22209   0.10374099    0.1074336            1 
  398000    1.1888127   -2.2839113    495.68635   0.10378692    0.1074182            1 
  399000    1.1800394   -2.2749311    496.47531   0.10369159   0.10740328            2 
  400000    1.1711576   -2.2948648    495.83924   0.10329984   0.10738777            4 
  401000    1.1748832   -2.2682183    498.95969   0.10369071   0.10737113            2 
  402000    1.1892595   -2.2747882    502.17986    0.1041003   0.10735578            1 
  403000    1.1934448   -2.2819632    503.13458   0.10403941   0.10733854            2 
  404000    1.1891155   -2.2680666    504.61732   0.10408773   0.10732193            1 
  405000    1.2141545    -2.290877    505.20494   0.10395163    0.1073017            1 
  406000     1.209855   -2.2740863    504.59484   0.10357037   0.10728291            1 
  407000    1.1863485   -2.2758392    506.84608   0.10377684   0.10726175            2 
  408000    1.1902363   -2.2910652    505.90239   0.10332974   0.10724005            4 
  409000    1.2058456   -2.2792441    508.65019   0.10363696   0.10721971            1 
  410000    1.1521152   -2.2967823    509.55072   0.10356722   0.10720061            3 
  411000    1.1827308   -2.2545897    513.24062   0.10406339   0.10718092            1 
  412000    1.1341343   -2.3118479      510.171   0.10318993   0.10716157            2 
  413000    1.1671366   -2.2693618    515.89709   0.10409546   0.10714009            2 
  414000    1.1810656   -2.2776553     513.6716   0.10339606   0.10712318            2 
  415000    1.1868452   -2.2888802    514.81818   0.10337715   0.10710496            1 
  416000    1.1788579   -2.2899937    516.00077   0.10336554   0.10708691            2 
  417000    1.2073534   -2.2908103    518.64981   0.10364704   0.10706753            1 
  418000    1.1668903   -2.3017338    518.41923   0.10335312   0.10704825            1 
  419000    1.1784554   -2.3247799    519.36644   0.10329484   0.10702997            1 
  420000    1.1927403   -2.2960107    521.44436   0.10346118   0.10701162            1 
  421000    1.1630858   -2.3078254    522.93833   0.10351115   0.10699319            2 
  422000    1.1856569   -2.2740343    523.66627   0.10340961   0.10697531            3 
  423000    1.1823151   -2.2749083     525.1764   0.10346265   0.10695452            1 
  424000    1.2130882   -2.3124432    525.86003   0.10335299   0.10693497            2 
  425000    1.1613607   -2.3189635    529.65045   0.10385303   0.10692015            1 
  426000     1.175703   -2.2841377    528.72148   0.10342752   0.10690266            3 
  427000     1.167799   -2.2784136    531.58858   0.10374484   0.10688616            1 
  428000    1.1846197   -2.2888606    531.12794   0.10341276   0.10686876            2 
  429000    1.1521466    -2.303755    531.00974   0.10314875   0.10684866            4 
  430000    1.1739296   -2.2924468    534.33103   0.10355253   0.10682877            1 
  431000    1.1848981   -2.3101554    536.68188    0.1037668   0.10680686            1 
  432000    1.1893362   -2.2857899    537.44916   0.10367461    0.1067872            1 
  433000    1.1757871   -2.3062321    535.21165   0.10300455   0.10676786            2 
  434000    1.1555212   -2.2777429    538.42914   0.10338501   0.10674499            2 
  435000    1.1655126   -2.3036256     538.3232   0.10312705   0.10672543            2 
  436000    1.1819656   -2.2918675    538.94283   0.10300895   0.10670587            2 
  437000    1.1961817   -2.2958439    541.88366   0.10333403   0.10668635            2 
  438000    1.1624793   -2.2706758    543.53504    0.1034123   0.10666701            1 
  439000    1.1904395   -2.2883613    543.80734   0.10322842   0.10664979            2 
  440000    1.2025117   -2.2881901    547.46095   0.10368579   0.10662893            2 
  441000    1.1722609   -2.2911701    547.20563   0.10340242   0.10661013            3 
  442000    1.1725419   -2.3232909    547.21655   0.10317054    0.1065885            3 
  443000    1.1625681   -2.2962178     550.0519   0.10347101   0.10656838            1 
  444000    1.1456422   -2.2990857    551.93892   0.10359214   0.10654843            1 
  445000    1.1676502   -2.2874657    551.01825   0.10318694   0.10652807            2 
  446000    1.1777446   -2.2847565    553.05285   0.10333573   0.10650579            1 
  447000     1.196481   -2.2857065    553.65492    0.1032168    0.1064867            1 
  448000    1.1829221   -2.3024275    554.75397   0.10319084   0.10646847            2 
  449000    1.1983992   -2.3079987    559.06606   0.10376133   0.10645185            2 
  450000    1.1797758   -2.3119835    558.24605    0.1033789   0.10643644            1 
  451000    1.1737097   -2.2801488    559.15687   0.10331797   0.10642071            1 
  452000    1.1635082   -2.2928938    560.44774   0.10332739   0.10640545            4 
  453000    1.1717524   -2.3056291    561.35784   0.10326671   0.10638914            1 
  454000    1.1586264   -2.2814664    564.95061   0.10369872   0.10637161            2 
  455000    1.1859596   -2.2693692    563.10714   0.10313317   0.10635404            1 
  456000    1.1727781   -2.2955272    562.99545   0.10288659   0.10633238            2 
  457000    1.1498718    -2.320155     567.3145   0.10344903   0.10631193            2 
  458000    1.1824058    -2.271825    566.21529   0.10302316   0.10628998            1 
  459000    1.1956798   -2.2827758    566.35803   0.10282462    0.1062722            1 
  460000    1.1705931   -2.2888702    570.50065   0.10335157   0.10625268            1 
  461000     1.180657   -2.2770302     568.5238   0.10277003   0.10623347            2 
  462000    1.2033732   -2.2677127    572.18953   0.10320879   0.10621567            2 
  463000    1.1842772   -2.2915913    571.88184    0.1029305   0.10619734            1 
  464000    1.1686731     -2.29563    575.07242   0.10328168   0.10617748            1 
  465000    1.1729079   -2.2904025    573.03124   0.10269377    0.1061574            2 
  466000    1.1664032   -2.3158165     577.8175   0.10332931   0.10613628            1 
  467000    1.1699333    -2.311742    579.06925   0.10333141   0.10611766            6 
  468000     1.186988   -2.3217297    579.06063   0.10310909   0.10609815            1 
  469000     1.176476   -2.3137392    575.99274   0.10234413   0.10607864            1 
  470000    1.2002739   -2.3052961    579.55839   0.10275858      0.10606            2 
  471000    1.1928202   -2.3049533    583.04273   0.10315689   0.10604076            1 
  472000    1.1668898   -2.3115595    580.33516    0.1024603   0.10602144            2 
  473000    1.1561863   -2.3074158    585.57925   0.10316759   0.10600268            1 
  474000    1.1975241   -2.3000819    587.95204   0.10336709   0.10598632            2 
  475000    1.1578672   -2.2822117    589.00001   0.10333334   0.10596965            1 
  476000    1.1597129   -2.3418926    586.82488   0.10273545   0.10595169            3 
  477000    1.1910747   -2.3498546    590.79772   0.10321414   0.10593466            2 
  478000    1.1667181   -2.3099613    591.82509   0.10317732   0.10591971            2 
  479000    1.1765677   -2.2999554    592.08575   0.10300726   0.10590389            1 
  480000    1.1715262   -2.2864074    593.95421   0.10311705   0.10588842            3 
  481000    1.1606053   -2.3159443    593.99582   0.10290988   0.10586762            1 
  482000    1.1796064   -2.2895069    596.64397   0.10315421   0.10585104            2 
  483000    1.1803681   -2.3014985    594.92781   0.10264455   0.10583416            1 
  484000    1.1691224    -2.304261    593.86186   0.10224894   0.10581412            1 
  485000    1.1674055    -2.301003    598.51241   0.10283718   0.10579639            1 
  486000    1.1633356   -2.3316103      601.844   0.10319684   0.10577896            2 
  487000    1.1508749    -2.296307    604.19398   0.10338706   0.10576067            1 
  488000    1.1461288     -2.30957    603.26549   0.10301665   0.10574432            2 
  489000    1.1891656   -2.2974789    605.79529    0.1032371   0.10572864            2 
  490000     1.164998   -2.3008796    607.05382   0.10324044     0.105714            1 
  491000    1.1748492   -2.3019553    605.24692   0.10272351   0.10569862            2 
  492000    1.1709742   -2.3039583    608.90392   0.10313413   0.10568278            3 
  493000    1.1761916   -2.2836525    608.85475   0.10291662   0.10566737            2 
  494000    1.1682437   -2.3038683     610.6608   0.10301296   0.10565305            2 
  495000    1.1731017   -2.3195546    611.35813   0.10292224    0.1056394            1 
  496000    1.2016612   -2.3127902    609.90671   0.10247088   0.10562605            1 
  497000    1.1653163   -2.2877279    615.81996    0.1032562   0.10561221            2 
  498000    1.1403968   -2.2873303    616.94758   0.10323755   0.10559903            1 
  499000    1.1749467   -2.3072404    618.08838   0.10322117   0.10558542            1 
  500000    1.1771827   -2.2933903    622.58382   0.10376397   0.10557218            3 
  501000    1.1726685   -2.3240479    620.60631   0.10322793   0.10555862            1 
  502000     1.154803   -2.3044205    620.22897   0.10295966   0.10554676            1 
  503000    1.1697257   -2.2604111    626.78634   0.10384134   0.10553276            1 
  504000    1.1664667   -2.2960144    625.56658   0.10343363   0.10552179            3 
  505000    1.1799613   -2.3315707    623.26602   0.10284918   0.10551116            3 
  506000    1.1796257   -2.2945739    630.37488   0.10381668   0.10550081            1 
  507000    1.1980378   -2.2926034     626.0754   0.10290523   0.10549161            1 
  508000    1.1639824   -2.3075823    630.79446   0.10347678   0.10548125            2 
  509000     1.180129   -2.2925407     631.5226    0.1033927   0.10547389            1 
  510000     1.162716   -2.3150613    632.29391     0.103316   0.10546299            1 
  511000    1.1737964   -2.3002382    632.72155   0.10318355   0.10545305            1 
  512000    1.1828852   -2.3446013    633.18423   0.10305733   0.10544098            1 
  513000    1.1746055   -2.3035477    631.42082   0.10256998   0.10543057            2 
  514000    1.1584691   -2.2998931    639.13164   0.10362056   0.10542134            3 
  515000    1.1664916   -2.3036451     637.7483   0.10319552   0.10541106            1 
  516000    1.1661326   -2.2905589    640.53183   0.10344506    0.1054008            1 
  517000    1.1723561   -2.3215822    643.73708   0.10376162   0.10539161            1 
  518000    1.1679429     -2.29054    640.29554   0.10300765    0.1053842            1 
  519000    1.1593068   -2.3050313    642.25153   0.10312324   0.10537275            2 
  520000    1.1833806    -2.336008    643.26043   0.10308661   0.10536131            2 
  521000    1.1565057   -2.3162769    644.89973   0.10315095    0.1053508            1 
  522000    1.1932035   -2.3110477    648.19732   0.10347978   0.10534296            1 
  523000    1.1732629   -2.2990229    648.44757   0.10332179   0.10533392            1 
  524000    1.1767537   -2.3162509    650.48676   0.10344891   0.10532655            2 
  525000    1.1606214   -2.3067564    651.76119   0.10345416   0.10531717            1 
  526000    1.1719635   -2.3105861    652.16832   0.10332198   0.10530652            1 
  527000    1.1452278   -2.3120204     648.8574   0.10260237   0.10529702            1 
  528000    1.1571842   -2.2968224    654.71922   0.10333321   0.10528715            1 
  529000    1.1732016   -2.3084448    656.22715   0.10337542   0.10527777            2 
  530000    1.1787293   -2.3099064    653.57345   0.10276312   0.10526634            1 
  531000    1.1518935   -2.3174241    654.55787   0.10272408   0.10525297            3 
  532000    1.1896803   -2.3151057    655.35446   0.10265577   0.10523843            1 
  533000    1.1495851   -2.2966867     657.3775   0.10277947   0.10522291            3 
  534000    1.1522506   -2.3329527    659.59249   0.10293266   0.10521011            1 
  535000    1.1685434   -2.3071781    658.26678   0.10253377   0.10519869            1 
  536000    1.1689724   -2.3030975    665.41202   0.10345336   0.10518744       -1e+20 
  537000    1.1677389   -2.3033213    663.94967   0.10303378   0.10517938            1 
  538000    1.1454224   -2.3491652    666.50093   0.10323744   0.10516872            1 
  539000    1.1727099   -2.3058485    666.57303   0.10305705   0.10515796            2 
  540000    1.1676197    -2.323264    670.04427   0.10340189   0.10514829            2 
  541000    1.1399924   -2.2964849    668.97255   0.10304568   0.10513636            3 
  542000    1.1438449   -2.3067664    668.00507   0.10270681   0.10512614            4 
  543000    1.1870547   -2.3114326    669.44695   0.10273894   0.10511455            2 
  544000    1.1673304   -2.3189165    671.57515    0.1028761   0.10510363            2 
  545000    1.1592135   -2.2999513     673.0114   0.10290694   0.10509349            2 
  546000    1.1639113   -2.3171043    674.39658   0.10292988   0.10508365            3 
  547000    1.1600965   -2.3213207    677.08315     0.103151     0.105075            3 
  548000    1.1522165   -2.3048039    676.66612   0.10289935   0.10506687            1 
  549000    1.1732009   -2.3002741    679.25265   0.10310453   0.10505933            2 
  550000    1.2083331   -2.2747205    681.90764   0.10331934   0.10505249            2 
  551000    1.1710992   -2.3499199    680.24934   0.10288103   0.10504328            2 
  552000     1.194515     -2.30728    682.39827   0.10301906   0.10503492            2 
  553000     1.135057   -2.2728528    686.06392   0.10338516   0.10502777            2 
  554000    1.1712559   -2.3399646    684.17672   0.10291467   0.10502026            3 
  555000    1.1796133   -2.3210615    686.30621   0.10304898   0.10500978            1 
  556000    1.1601571   -2.3251819    685.64004    0.1027638   0.10499854            2 
  557000    1.1693123   -2.3302284    689.68237   0.10318408   0.10499058       -1e+20 
  558000     1.151295   -2.3083984    687.95692   0.10274148   0.10498137            3 
  559000    1.1801249   -2.3010368    695.10933   0.10362393   0.10497301            1 
  560000    1.1608273   -2.3107742    693.12035   0.10314291   0.10496556            1 
  561000    1.1859476   -2.3017375    693.50166    0.1030157   0.10495979            1 
  562000     1.160982   -2.3149897     695.6486   0.10315074   0.10495214            2 
  563000    1.1554767   -2.3199895    698.56386   0.10339903   0.10494466            2 
  564000    1.1645857   -2.3464754    694.20053     0.102571   0.10493612            2 
  565000    1.1690727   -2.2980074    701.61195   0.10348259   0.10492901            3 
  566000    1.1819258    -2.302906    700.11527    0.1030794   0.10492374            1 
  567000    1.1664871    -2.319461    704.29332   0.10351166   0.10491851            1 
  568000      1.14972   -2.3263346    705.36962   0.10348733   0.10491268            2 
  569000    1.1513636   -2.3208944    706.79476   0.10351417    0.1049054            2 
  570000     1.159466   -2.2862443    708.09913   0.10352327    0.1049004            1 
  571000     1.170829   -2.3123994    708.62477   0.10341868    0.1048973            1 
  572000    1.1609051   -2.3288408    708.94788   0.10328495   0.10489506            3 
  573000    1.1601266   -2.3073118    715.32568   0.10403224   0.10489274            1 
  574000    1.1418705   -2.3229467    714.24169   0.10369363    0.1048915            2 
  575000    1.1628605   -2.3265696    715.64069   0.10371604   0.10489216            2 
  576000    1.1439729   -2.3183916    715.72455   0.10354811   0.10488848            1 
  577000    1.1498262    -2.297607    715.04371   0.10327032   0.10488608            2 
  578000    1.1528477     -2.31456    717.52561   0.10344948   0.10488333            2 
  579000    1.1657662   -2.3052723    721.08931   0.10378372    0.1048826            1 
  580000    1.1785879   -2.2840615    724.56979   0.10410485   0.10488185            1 
  581000    1.1781054   -2.3232071    722.27136   0.10359601   0.10488041            3 
  582000    1.1504849   -2.3172083    725.63059     0.103899   0.10487938            1 
  583000    1.1514015   -2.3190899    725.89968   0.10375925    0.1048784            4 
  584000    1.1628213   -2.2950394    728.69391    0.1039803    0.1048776            3 
  585000    1.1757479   -2.3401741     723.7279   0.10309514   0.10487562            1 
  586000     1.156846   -2.3493707    727.21463   0.10341505   0.10487264            2 
  587000    1.1603457   -2.3128092    727.47255   0.10327549   0.10486996            2 
  588000    1.1565321   -2.3398397    729.17248   0.10334077   0.10486683            2 
  589000      1.15939   -2.3469107    732.52019   0.10363896   0.10486353            1 
  590000    1.1366275   -2.3335458     732.0466   0.10339641   0.10485975            2 
  591000    1.1682649   -2.3069072    737.08102   0.10393133   0.10485719            2 
  592000    1.1377992   -2.2973452    736.85111   0.10372341   0.10485724            1 
  593000    1.1611772   -2.3266471    735.95938   0.10342318   0.10485627            2 
  594000    1.1435098   -2.3267887    741.81542   0.10407063   0.10485563            3 
  595000    1.1514814   -2.3368049    745.60303   0.10442619   0.10485682            1 
  596000    1.1833112   -2.3154183     746.1256   0.10432405    0.1048574            1 
  597000    1.1812142   -2.2873444    742.19104   0.10360009   0.10485733            1 
  598000    1.1275436   -2.3205337     747.1338   0.10411564   0.10485841            1 
  599000    1.1432163   -2.3215725    750.38311   0.10439387   0.10485956            1 
  600000    1.1751614   -2.2946244    752.82261    0.1045587   0.10486147            1 
  601000    1.1696385    -2.322478      752.221    0.1043013   0.10486351            2 
  602000    1.1795054   -2.3130937    754.31168   0.10441745   0.10486509            1 
  603000    1.1335393   -2.3234294    746.57212    0.1031747   0.10486592            1 
  604000    1.1564831   -2.3327771    754.36185   0.10407862   0.10486482            1 
  605000    1.1533748   -2.3267992    758.11946   0.10442417   0.10486757            1 
  606000    1.1674392   -2.3087601    754.99469   0.10382215   0.10486925            1 
  607000    1.1585177   -2.3237797    756.35983   0.10383853    0.1048718            2 
  608000    1.1376642   -2.3361475    758.80342   0.10400266   0.10487298            1 
  609000     1.132752   -2.3285839    758.89446   0.10384434   0.10487324            3 
  610000    1.1461915   -2.3088826    761.62322   0.10404689    0.1048742            3 
  611000    1.1741187    -2.325197    763.98765   0.10419908   0.10487521            4 
  612000    1.1510332   -2.3115411    760.05772    0.1034937   0.10487461            4 
  613000      1.15591   -2.3520963    764.24224   0.10389372   0.10487451            1 
  614000    1.1733342   -2.3066318    761.96903   0.10341599    0.1048749            1 
  615000    1.1469273   -2.2979568    765.55243   0.10373339   0.10487464            2 
  616000    1.1590112   -2.3268172    767.39072   0.10381368   0.10487413            4 
  617000    1.1317244   -2.3128989    770.40582   0.10405265   0.10487327            1 
  618000    1.1698071   -2.3265205    768.46414   0.10362246   0.10487376            2 
  619000      1.13928   -2.3282594    771.48588   0.10386186   0.10487271            3 
  620000    1.1477889   -2.3156536     772.1791   0.10378751   0.10487204            1 
  621000    1.1512403   -2.3565476    769.62565   0.10327773   0.10487024            1 
  622000     1.145944   -2.3078645    775.28514   0.10386993   0.10487023            2 
  623000    1.1503451   -2.3091937    777.58451   0.10401077   0.10486986            1 
  624000    1.1491353   -2.3005581    779.10875   0.10404764   0.10486963            2 
  625000    1.1147366   -2.3455724    778.69454   0.10382594   0.10486621            2 
  626000    1.1499684   -2.3197812    782.84248   0.10421226   0.10486383            2 
  627000     1.167716   -2.3062459    781.89986   0.10392077   0.10486315            1 
  628000    1.1472995   -2.3506811     781.0033   0.10363632   0.10486281            2 
  629000    1.1485292    -2.327253    785.28351   0.10403862   0.10486059            3 
  630000    1.1228601    -2.287359    788.45967   0.10429361   0.10486106            2 
  631000    1.1512609   -2.3290288    789.35721   0.10424686    0.1048626            2 
  632000    1.1424017   -2.3263587     787.8525    0.1038835   0.10486269            1 
  633000    1.1342156   -2.3203254    786.63319   0.10355887   0.10486161            2 
  634000    1.1349655   -2.3271446    791.20597   0.10399658   0.10485873            1 
  635000    1.1407962   -2.3671013    786.35659    0.1031964   0.10485724            1 
  636000    1.1827165   -2.3077731    792.69493   0.10386464    0.1048552            1 
  637000    1.1458167    -2.331842    792.00093    0.1036108   0.10485209            2 
  638000    1.1681515   -2.3337285    792.74458   0.10354553    0.1048494            2 
  639000    1.1371307   -2.3263575    795.36317   0.10372498   0.10484666            1 
  640000    1.1626942   -2.3272862    795.95475   0.10363994    0.1048416            2 
  641000    1.1530474   -2.3375021    794.36104   0.10327107   0.10483741            2 
  642000    1.1557548   -2.3670183    797.69597   0.10354309   0.10483179            1 
  643000    1.1359103    -2.347367    799.03567   0.10355569   0.10482638            2 
  644000    1.1290213   -2.3199222    800.42442   0.10357459     0.104821            2 
  645000    1.1474107   -2.3460176    796.98219   0.10296928   0.10481697            2 
  646000    1.1408279   -2.3279367    801.43365   0.10338411    0.1048125            2 
  647000    1.1408577   -2.3512066     802.9741   0.10342273   0.10480658            1 
  648000    1.1604152   -2.3212775    808.05563   0.10391662   0.10480096            2 
  649000    1.1468622   -2.3235888    806.87642   0.10360509   0.10479687            2 
  650000    1.1433949   -2.3412131    806.00403   0.10333385   0.10479214            1 
  651000    1.1839879   -2.3286806    810.90577   0.10380258   0.10478968            1 
  652000    1.1672516   -2.3144768    812.56538   0.10385549    0.1047877            3 
  653000    1.1208115   -2.3249361    810.43024   0.10342397   0.10478396            1 
  654000    1.1529849   -2.3127313    814.89173   0.10383432   0.10478091            2 
  655000    1.1325528   -2.2989549    815.47024   0.10374939    0.1047786            1 
  656000    1.1467429   -2.3420453    816.08158    0.1036689   0.10477734            2 
  657000     1.150062   -2.3406004    817.45508   0.10368532   0.10477379            1 
  658000    1.1575796   -2.3343698    819.41668   0.10377618   0.10477249            4 
  659000    1.1546761   -2.3301986     819.8423   0.10367252    0.1047706            1 
  660000    1.1387128   -2.3269524    821.67561   0.10374692   0.10476861            4 
  661000     1.157572   -2.3012649    819.65456   0.10333517   0.10476515            1 
  662000    1.1429129   -2.3471525    820.15258   0.10324176   0.10476086            1 
  663000    1.1280131   -2.3497963    821.13912   0.10321004   0.10475597            4 
  664000    1.1048394   -2.3393262    825.14429   0.10355727   0.10475128            1 
  665000    1.1598191   -2.3301923    828.03598   0.10376391   0.10474828            2 
  666000     1.156755   -2.3364444    834.10339   0.10436729   0.10474616            3 
  667000    1.1441873   -2.3532911    828.81265   0.10354981   0.10474408            1 
  668000    1.1576804   -2.3278076    830.24189   0.10357309   0.10474038            1 
  669000    1.1394436   -2.3124664    831.17739    0.1035348   0.10473827            1 
  670000    1.1356082   -2.3380308    835.60084   0.10393045   0.10473655            2 
  671000    1.1560055   -2.3242432    833.47423   0.10351145   0.10473281            1 
  672000    1.1747215   -2.3237276    834.76533   0.10351753   0.10472918            1 
  673000    1.1447806   -2.3540969    835.00669    0.1033936   0.10472416            3 
  674000    1.1385184   -2.3624767    834.75963   0.10320965   0.10471973            3 
  675000    1.1302572   -2.3179158    837.31741   0.10337252   0.10471683            2 
  676000    1.1074553   -2.3228101    838.68547   0.10338825   0.10471348            2 
  677000    1.1386204   -2.3218555    837.56312   0.10309738   0.10470856            2 
  678000    1.1454064   -2.3425289    840.70763   0.10333181   0.10470403            1 
  679000      1.15526   -2.3343268    843.10827   0.10347426   0.10469914            2 
  680000    1.1545234   -2.3269033    846.19172   0.10369997    0.1046957            1 
  681000    1.1608299   -2.3323226    847.08679   0.10365722   0.10469248            1 
  682000     1.151392   -2.3018516    849.06373   0.10374679    0.1046879            3 
  683000    1.1504491   -2.3288329    846.95472   0.10333757   0.10468416            2 
  684000    1.1572718   -2.3257231    846.69624     0.103155   0.10467792            1 
  685000    1.1635358   -2.3121177    850.68972   0.10349023    0.1046732            1 
  686000     1.116766   -2.3310613    852.04121   0.10350355   0.10466975            1 
  687000    1.1445442   -2.3214286    854.80736   0.10368842   0.10466608            4 
  688000    1.1532339   -2.3187237    855.19265   0.10358438   0.10466306            2 
  689000     1.149249   -2.3004405    855.77303   0.10350424    0.1046594            3 
  690000    1.1454716   -2.3750056    853.97042   0.10313652   0.10465496            2 
  691000    1.1347108   -2.3334025    854.87902   0.10309684   0.10464909            1 
  692000    1.1507466   -2.3526552    858.75011   0.10341403   0.10464354            3 
  693000     1.121855   -2.3221207    860.28103    0.1034489   0.10463885            2 
  694000    1.1527968   -2.3337232    861.64562   0.10346369    0.1046347            2 
  695000    1.1436193   -2.3631079     861.6854   0.10331959   0.10463098            1 
  696000    1.1595177   -2.3337576    864.15885    0.1034673   0.10462616            1 
  697000    1.1627207   -2.3294607    866.69048   0.10362153   0.10462171            1 
  698000    1.1556325   -2.3302952     864.0454   0.10315728   0.10461854            2 
  699000    1.1436502   -2.3288004    864.59374   0.10307508   0.10461486            1 
  700000    1.1285356   -2.3323125    872.31815    0.1038474   0.10460992            3 
  701000    1.1281302   -2.3555689    870.42655   0.10347439   0.10460609            1 
  702000    1.1317101   -2.3517417    869.52876   0.10322041   0.10460106            1 
  703000    1.1208051   -2.3388299    871.77609   0.10333998   0.10459636            3 
  704000    1.1424339    -2.319445     875.2251   0.10360146   0.10459278            2 
  705000    1.1163437   -2.3394138    873.45814   0.10324564   0.10458951            2 
  706000    1.1505317   -2.3352105    879.14907   0.10377114   0.10458526            1 
  707000    1.1444691   -2.3502026    878.86279   0.10359062   0.10457948            2 
  708000    1.1609147   -2.3277653    880.11966   0.10359224   0.10457395            1 
  709000    1.1241351   -2.3243248    877.39826   0.10312626   0.10456734            2 
  710000    1.1074074   -2.3367218    879.24701   0.10319801    0.1045622            1 
  711000    1.1386878   -2.3383196    880.39738   0.10318769   0.10455703            2 
  712000    1.1384477    -2.338636     883.8934   0.10345194   0.10455223            2 
  713000    1.1214825   -2.3285384    885.27091   0.10346785   0.10454727            3 
  714000    1.1154672   -2.3234968    882.67788   0.10302029   0.10454249            1 
  715000    1.1163293   -2.3607025    884.68774   0.10311046    0.1045376            1 
  716000    1.1456458   -2.3301103    887.97612   0.10334918   0.10452999            2 
  717000    1.1229262   -2.3018989    885.28221   0.10289193   0.10452422            2 
  718000     1.158032   -2.3487475    888.45265    0.1031166   0.10451755            2 
  719000    1.1216878   -2.3229666    889.08393   0.10304635   0.10451131            2 
  720000    1.1077056   -2.3471337    886.71367    0.1026289   0.10450608            1 
  721000    1.1329205   -2.3241957    892.28907   0.10313096   0.10450205            1 
  722000    1.1446406   -2.3302652    894.82684   0.10328103   0.10449614            2 
  723000     1.121829   -2.3224616     894.4614   0.10309606   0.10449042            2 
  724000    1.1262775   -2.3589444    897.77146   0.10333465   0.10448322            1 
  725000     1.151461   -2.3767673    898.10745   0.10323074   0.10447553            1 
  726000    1.1480439   -2.3695844    896.80443   0.10293898   0.10446803            2 
  727000    1.1587108    -2.338428    896.28308   0.10273763   0.10445997            5 
  728000    1.1309706   -2.3251182    901.27631   0.10316808   0.10445198            3 
  729000    1.1308353    -2.351007    900.40903   0.10292742   0.10444438            1 
  730000    1.1124205     -2.33619    902.37634     0.103011   0.10443693            1 
  731000    1.1128438   -2.3477281    902.21347   0.10285151   0.10442834            1 
  732000    1.1240764   -2.3392253    905.38803   0.10307241   0.10442058            2 
  733000    1.1267092   -2.3182246    904.03891   0.10277841   0.10441231            2 
  734000    1.1446937   -2.3466589    905.90283      0.10285   0.10440489            1 
  735000    1.1266643   -2.3430662    906.35645    0.1027615   0.10439644            2 
  736000    1.1256962    -2.338265    909.78167    0.1030097   0.10438816            1 
  737000    1.1248497   -2.3667221    906.65518   0.10251642   0.10438125            2 
  738000    1.1421781   -2.3144994    911.58539   0.10293421   0.10437372            1 
  739000    1.1262373    -2.332521    915.09678   0.10319089   0.10436564            2 
  740000    1.1194469   -2.3236103     914.0533   0.10293393   0.10435804            1 
  741000    1.1311477   -2.3573592    912.60023    0.1026316   0.10435004            2 
  742000    1.1537004   -2.3319417    917.44505    0.1030374   0.10434143            1 
  743000     1.109103   -2.3319435    913.99392   0.10251166   0.10433366            1 
  744000    1.1171441   -2.3216903     918.6635    0.1028969   0.10432536            1 
  745000    1.1249224   -2.3389812    920.34696   0.10294709   0.10431696            2 
  746000    1.1045795   -2.3225923    920.71706   0.10285043   0.10430916            4 
  747000    1.1270033   -2.3502352     921.3353   0.10278172   0.10430059            1 
  748000    1.1455096   -2.3450317    922.34138   0.10275639   0.10429232            1 
  749000     1.150147   -2.3464752      925.178    0.1029348    0.1042841            2 
  750000    1.1120364   -2.3563894    926.10061   0.10290007   0.10427647            1 
  751000    1.1223906   -2.3719446    925.91258   0.10274219   0.10426895            5 
  752000    1.1337864   -2.3350683    928.04398   0.10284175   0.10426231            2 
  753000    1.1206147   -2.3393203    932.13438   0.10315786   0.10425577            2 
  754000    1.1339896   -2.3423749    931.88052   0.10299298   0.10424887            2 
  755000    1.1362324   -2.3370011    931.69957    0.1028366    0.1042432            3 
  756000     1.150538   -2.3758818    934.03281   0.10295776   0.10423884            2 
  757000    1.1137097   -2.3246002    936.75356   0.10312126   0.10423224            1 
  758000    1.1036985   -2.3545475    934.02914    0.1026857   0.10422636            1 
  759000    1.1256173   -2.3298918    934.66673   0.10262041   0.10421884            2 
  760000     1.134425   -2.3464277    935.00522    0.1025225   0.10421199            2 
  761000    1.1143983    -2.357053    939.39385   0.10286836   0.10420438            2 
  762000    1.1452694   -2.3520687    944.13771   0.10325216   0.10419645            1 
  763000     1.123701   -2.3745718    935.34651   0.10215667   0.10418905            1 
  764000    1.1194583   -2.3291786    943.54189   0.10291687   0.10418069            1 
  765000    1.1431996   -2.3733921    942.05543   0.10262042   0.10417256            1 
  766000    1.1259698   -2.3350621    944.43957   0.10274582   0.10416459            1 
  767000    1.1274096   -2.3560421    941.84514   0.10232998   0.10415621       -1e+20 
  768000    1.1284139   -2.3425533    948.11105   0.10287663   0.10414631            1 
  769000    1.1442283    -2.351726    948.57706   0.10279335   0.10413839            2 
  770000    1.1379894   -2.3568855    950.16161   0.10283134   0.10413194            2 
  771000     1.153392   -2.3319693    950.60599     0.102746   0.10412546            2 
  772000      1.12553   -2.3720866    950.37375   0.10258784   0.10411805            4 
  773000    1.1324532   -2.3600512    951.76637   0.10260526   0.10411126            2 
  774000    1.1440078   -2.3341185    952.92266   0.10259719   0.10410361            3 
  775000    1.1336425    -2.375913    953.83457   0.10256286   0.10409528            1 
  776000    1.1481045   -2.3732383    956.64626   0.10273263    0.1040876            2 
  777000    1.1266724   -2.3684943    956.54218   0.10258925   0.10407999            4 
  778000    1.1297454    -2.353343    959.34572   0.10275768   0.10407299            3 
  779000     1.155433   -2.3364686    958.46465   0.10253152   0.10406625            1 
  780000    1.1394387   -2.3390607    964.12093   0.10300437   0.10405915            1 
  781000    1.1128296    -2.337356    963.33897   0.10278905   0.10405199            4 
  782000    1.1335719   -2.3310994    964.52743   0.10278425   0.10404537            2 
  783000    1.1282152   -2.3401944    965.22193    0.1027269   0.10403792            1 
  784000    1.1313588   -2.3285685    969.28047   0.10302726   0.10403161            2 
  785000    1.1431665    -2.332003    966.78032   0.10263061   0.10402413            2 
  786000    1.1297728   -2.3501325    965.90699   0.10240744   0.10401809            1 
  787000    1.1070211   -2.3765628    968.40811   0.10254215    0.1040103            3 
  788000    1.1323251   -2.3368707    969.43087   0.10252018   0.10400313            1 
  789000    1.1415262   -2.3200845    976.11845   0.10309658    0.1039961            2 
  790000    1.1213381   -2.3431313    974.83589   0.10283079   0.10398866            1 
  791000    1.1217666   -2.3467313    972.09898   0.10241245   0.10398111            2 
  792000    1.1391847   -2.3555275    978.73532   0.10298141   0.10397448            2 
  793000    1.1158924   -2.3759979    970.68833   0.10200592   0.10396717            1 
  794000    1.1242091    -2.369046    973.20764   0.10214186   0.10395884            2 
  795000    1.1236115   -2.3523667    976.48644   0.10235707   0.10395093            1 
  796000    1.1292799   -2.3462073    979.23515   0.10251624   0.10394246            1 
  797000    1.1396635    -2.328529    983.77522   0.10286232   0.10393539            1 
  798000    1.1417925    -2.345813    982.52487   0.10260285   0.10392835            3 
  799000    1.1285531   -2.3646548    981.63713   0.10238184   0.10392041            3 
  800000    1.1447811   -2.3414562    985.17554   0.10262245    0.1039125            3 
  801000    1.1384405   -2.3423717    985.57774   0.10253618   0.10390505            3 
  802000    1.1317719   -2.3531931    990.88279   0.10295956   0.10389687            1 
  803000    1.1287234   -2.3523473    985.82008   0.10230594   0.10388795            2 
  804000    1.1308559    -2.354933    987.61851    0.1023651   0.10387979            2 
  805000    1.1368826   -2.3503597    986.42511    0.1021144   0.10387135            2 
  806000    1.1179823   -2.3545327    987.10025   0.10205751   0.10386132            3 
  807000    1.1239948   -2.3726083    988.20254   0.10204487   0.10385215            2 
  808000    1.1178907   -2.3291971    989.57176   0.10205979   0.10384267            3 
  809000    1.1584425   -2.3562585    995.51706   0.10254605   0.10383401            4 
  810000    1.1169358   -2.3548054    992.78238    0.1021381   0.10382484            3 
  811000    1.1102572    -2.351596    995.53253   0.10229475   0.10381556            2 
  812000    1.1406757   -2.3681628    996.16468   0.10223365   0.10380688            2 
  813000    1.1279735   -2.3541306    997.13297   0.10220715   0.10379743            1 
  814000    1.1267234   -2.3351177    993.98493   0.10175931   0.10378779            2 
  815000    1.1165343   -2.3319785    995.49516   0.10178887   0.10377841            2 
  816000    1.1163997   -2.3490575    1001.0706   0.10223352   0.10376807            4 
  817000    1.1077099   -2.3660794    996.59043   0.10165141   0.10375762            1 
  818000    1.1130935   -2.3631325    997.30284   0.10159972   0.10374626            3 
  819000    1.1332705   -2.3460543    1010.2082   0.10278879   0.10373556            1 
  820000    1.1107334   -2.3588658    1001.9276   0.10182191    0.1037247            1 
  821000    1.0993148   -2.3601058    1007.4907   0.10226255   0.10371272            3 
  822000    1.1011845   -2.3558497    1002.9455   0.10167736   0.10370101            1 
  823000    1.1157359   -2.3625206    1009.3678   0.10220411   0.10368952            1 
  824000    1.1162309    -2.367402    1012.0679   0.10235315   0.10367836            1 
  825000    1.1323812   -2.3405946    1008.8675   0.10190581    0.1036684            1 
  826000    1.1487122   -2.3720749    1007.3704   0.10163139   0.10365726            3 
  827000    1.1278881   -2.3565698    1007.9624   0.10156816   0.10364663            3 
  828000     1.135651   -2.3547258    1012.3241   0.10188448    0.1036367            1 
  829000    1.0999593    -2.370725    1010.9541   0.10162385   0.10362624            1 
  830000    1.1195794   -2.3667347    1017.6168   0.10217036   0.10361449            2 
  831000    1.1391965   -2.3497329     1018.322   0.10211813   0.10360398            1 
  832000    1.1028346   -2.3548678    1019.2236    0.1020857   0.10359287            1 
  833000    1.1274438    -2.359791    1014.6742   0.10150802     0.103582            1 
  834000    1.1117459   -2.3378775    1019.4828   0.10186679   0.10357182            1 
  835000    1.1381106   -2.3585686    1021.9162   0.10198765    0.1035606            1 
  836000    1.1193546   -2.3575648    1024.1631   0.10208962    0.1035509            2 
  837000    1.1164286   -2.3556652    1024.3608   0.10198733   0.10354192            2 
  838000     1.111777   -2.3736182    1022.3563    0.1016663   0.10353277            2 
  839000    1.1099082   -2.3570122    1027.8371    0.1020895   0.10352211            1 
  840000    1.1182484   -2.3337633    1024.6001   0.10164683   0.10351196            1 
  841000    1.1056517   -2.3950828    1031.2942   0.10218928   0.10350133            1 
  842000     1.094479   -2.3957032    1026.4395   0.10158744   0.10349062            2 
  843000    1.1108563   -2.3658995    1032.9312   0.10210866   0.10348076            1 
  844000    1.1036789     -2.37866    1027.0776   0.10140971   0.10347036            1 
  845000    1.1179956   -2.3522686    1029.8386   0.10156199   0.10345941            2 
  846000    1.1048621   -2.3707678    1035.6328   0.10201269    0.1034482            1 
  847000    1.1221035   -2.3617915    1037.0099   0.10202774    0.1034389            2 
  848000    1.0836474   -2.3399201    1030.4923   0.10126693   0.10342819            3 
  849000    1.1130998   -2.3491149    1034.2178   0.10151333   0.10341577            1 
  850000    1.1071155   -2.3815792    1037.9619   0.10176097   0.10340452            1 
  851000    1.1025865   -2.3327293    1036.3142   0.10148004   0.10339402            2 
  852000    1.1138986   -2.3592673    1038.0204   0.10152781   0.10338211            1 
  853000    1.1018475   -2.3602067    1040.9446   0.10169447    0.1033707            2 
  854000    1.1207969   -2.3446668    1042.8529   0.10176161   0.10335977            1 
  855000    1.1027268   -2.4041523    1038.9176   0.10125902   0.10334846            4 
  856000    1.1208854   -2.3632452    1039.5525   0.10120254   0.10333737            4 
  857000    1.1224407   -2.3625844    1049.4193   0.10204389   0.10332713            4 
  858000    1.1290835   -2.3418152    1049.5889   0.10194143   0.10331789            2 
  859000    1.1343636   -2.3636699    1047.0608    0.1015775   0.10330883            1 
  860000    1.1083314   -2.3812175     1049.658   0.10171105   0.10329822            1 
  861000    1.1173592   -2.3642929     1054.852   0.10209563   0.10328734            3 
  862000    1.1374379   -2.3199158    1058.7244   0.10235155   0.10327778            1 
  863000    1.1137755   -2.3958171    1052.5239   0.10163421   0.10326798            1 
  864000    1.1172926   -2.3789201    1055.8372   0.10183615   0.10325721            2 
  865000    1.1130805   -2.3430108    1057.9977   0.10192656   0.10324684            1 
  866000    1.1231506   -2.3603782    1054.3937   0.10146206   0.10323717            2 
  867000    1.1146748   -2.3627323    1057.9595   0.10168776   0.10322679            1 
  868000    1.1255297   -2.4100581    1055.3249   0.10131767   0.10321752            4 
  869000    1.0920733   -2.3494942     1059.928    0.1016425   0.10320704            2 
  870000    1.1265148   -2.3515771    1062.2433   0.10174744   0.10319688            4 
  871000    1.0888742    -2.388967    1061.7238   0.10158093   0.10318686            1 
  872000    1.1096042   -2.3299081    1062.2941   0.10151893   0.10317668            1 
  873000    1.0951353   -2.3595082    1065.1925   0.10167931   0.10316709            1 
  874000    1.1211543   -2.3460704    1066.3352   0.10167193   0.10315716            1 
  875000    1.0929941   -2.3703753    1067.2834   0.10164604   0.10314633            2 
  876000    1.0882415   -2.3927984    1064.3068   0.10124684   0.10313631            8 
  877000    1.0777471    -2.354566    1069.9347   0.10166616   0.10312555            3 
  878000    1.1031355   -2.3507826    1067.1634   0.10128733   0.10311488            2 
  879000    1.1059129   -2.3718927    1072.7824   0.10170482    0.1031049            2 
  880000     1.104271   -2.3634221     1071.018   0.10142216   0.10309563            3 
  881000    1.1188404   -2.3627854    1067.9159   0.10101361   0.10308482            2 
  882000    1.1256159   -2.3842492    1076.3907    0.1016998   0.10307464            1 
  883000    1.1498701     -2.36958    1080.1459   0.10193903    0.1030647            1 
  884000    1.0958901   -2.3570417    1071.8436   0.10104106   0.10305374            1 
  885000    1.0756476   -2.3476159    1077.7898    0.1014868   0.10304254            2 
  886000    1.1063626   -2.3816949    1082.4212   0.10180787   0.10303265            1 
  887000    1.1049715   -2.3341363    1084.8167   0.10191814   0.10302237            1 
  888000    1.1172396   -2.3479103    1080.6277   0.10141025    0.1030112            1 
  889000     1.110714   -2.3947197    1082.6301   0.10148389   0.10300018            1 
  890000     1.108205   -2.3505514    1085.0809   0.10159933   0.10298978            1 
  891000    1.1076534   -2.3490099    1087.0038   0.10166515   0.10298157            1 
  892000    1.1237467   -2.3495964    1080.0046   0.10089729    0.1029723            2 
  893000    1.0938406   -2.3768838    1088.4659    0.1015739    0.1029627            2 
  894000    1.1213113   -2.3500611    1088.4193   0.10145593   0.10295428            5 
  895000     1.102657   -2.3724022    1086.6237   0.10117539   0.10294523            2 
  896000    1.0942355   -2.3632155    1092.1375   0.10157529   0.10293489            5 
  897000    1.0912449   -2.3696379    1091.0368   0.10135979   0.10292437            2 
  898000    1.1128303   -2.3248026     1088.376        0.101   0.10291319            2 
  899000    1.1213413    -2.376175    1093.0378   0.10131978   0.10290239            1 
  900000     1.099946   -2.3696183    1088.2645   0.10076523    0.1028917            1 
  901000    1.1342466   -2.3916565     1095.362   0.10130984   0.10288014            2 
  902000    1.0926789   -2.3639617    1098.1923   0.10145901   0.10286883            3 
  903000     1.097642   -2.3673052    1092.4137   0.10081337   0.10285664            2 
  904000    1.0918144   -2.3841237    1093.9017   0.10083902    0.1028447            1 
  905000    1.1184343   -2.3923644    1098.4496   0.10114637   0.10283183            2 
  906000    1.1012053   -2.3531383    1096.4031   0.10084649   0.10281835            1 
  907000    1.1070637   -2.3708602    1099.8368   0.10105079    0.1028053            1 
  908000    1.1092712   -2.3686103    1095.3268   0.10052559    0.1027922            2 
  909000    1.0950192   -2.3771237    1098.6985    0.1007241   0.10277899            2 
  910000     1.088127   -2.4037841    1100.0027   0.10073285   0.10276594            2 
  911000    1.1285464   -2.3779809    1102.5825   0.10085826   0.10275284            1 
  912000    1.0914717   -2.4161273    1103.3917   0.10082161   0.10273872            2 
  913000    1.1261386   -2.3618976    1103.1916   0.10069292   0.10272558            3 
  914000    1.0978595   -2.3705933    1105.2757   0.10077277    0.1027136            2 
  915000     1.128548   -2.3317017    1108.3997   0.10094714   0.10270124            1 
  916000    1.1026793   -2.3841435    1111.1224   0.10108464    0.1026891            2 
  917000    1.0683466   -2.3786949    1102.5794   0.10019806   0.10267637            3 
  918000    1.1060241   -2.3705323    1110.9996   0.10085327   0.10266267            2 
  919000    1.0976658   -2.3742033    1109.6275   0.10061911   0.10264981            2 
  920000    1.0798819   -2.3651993    1114.5329   0.10095407   0.10263551            1 
  921000    1.1066833    -2.391106    1109.5089   0.10038988   0.10262212            1 
  922000    1.0925449    -2.377858    1111.6657   0.10047593   0.10260802            2 
  923000    1.1201041   -2.3703598    1116.3036    0.1007858   0.10259516            2 
  924000    1.1077491   -2.3876008    1117.5445   0.10078865   0.10258264            2 
  925000    1.0979259   -2.3882983    1120.4292   0.10093956   0.10256997            2 
  926000     1.093245   -2.3686527    1119.8177   0.10077553   0.10255722            3 
  927000    1.0807816   -2.3748178    1114.6092    0.1001986   0.10254437            3 
  928000    1.1036247   -2.3825265    1124.4268   0.10097223   0.10253159            1 
  929000    1.1132375   -2.3921951    1123.8805   0.10081454    0.1025194            4 
  930000    1.1156332    -2.372192    1123.0869   0.10063502   0.10250573            1 
  931000    1.1193398   -2.3659939    1124.7911   0.10067947   0.10249252            1 
  932000    1.0876534   -2.3616423    1122.8686   0.10039955   0.10247869            2 
  933000    1.1039031    -2.372283    1126.0285   0.10057418   0.10246502            2 
  934000    1.0941173   -2.3449225    1125.3171   0.10040303   0.10245191            2 
  935000    1.1146725   -2.3876736    1125.8387   0.10034213   0.10243851            2 
  936000    1.1035851   -2.4081408    1128.8963   0.10050715   0.10242597            2 
  937000    1.0760457   -2.3698041    1129.3405   0.10043939   0.10241266            3 
  938000    1.1095149   -2.3664651    1133.7836   0.10072705   0.10239992            2 
  939000    1.0943838   -2.3403865    1132.5173   0.10050739   0.10238678            3 
  940000    1.0982701   -2.3703757    1131.4389   0.10030487   0.10237375            3 
  941000    1.1059325   -2.3781983    1132.0924   0.10025614   0.10236049            2 
  942000    1.1267411   -2.3967004     1131.459   0.10009368   0.10234656            3 
  943000    1.1142347   -2.3858768    1134.9763   0.10029837    0.1023314            1 
  944000    1.1008172   -2.3628766    1132.8739   0.10000652   0.10231689            2 
  945000    1.1012772   -2.3789544    1137.1099   0.10027424   0.10230228            2 
  946000    1.0921535   -2.3844639     1134.203  0.099912178   0.10228763            3 
  947000    1.0809584   -2.3564953     1139.233    0.1002493   0.10227308            2 
  948000    1.1102145   -2.3796139    1141.4255   0.10033628   0.10225922            2 
  949000    1.0973629   -2.3528331    1143.3989   0.10040384   0.10224538            2 
  950000    1.0849583   -2.3677382    1141.0676   0.10009365   0.10223173            1 
  951000    1.1107817   -2.3832517    1141.8046   0.10005298   0.10221719            1 
  952000    1.0992039   -2.3463716    1148.6262   0.10054501   0.10220403            1 
  953000    1.1044482   -2.3649415    1151.8755   0.10072364   0.10219071            1 
  954000    1.0715975    -2.374261    1151.3971   0.10057627   0.10217671            2 
  955000    1.0822488   -2.3618686    1152.8954   0.10060169   0.10216306            2 
  956000    1.0883119   -2.3996006    1148.1829   0.10008568   0.10214962            3 
  957000    1.1069148      -2.3869    1147.3993  0.099912865   0.10213569            1 
  958000    1.0943572   -2.3668886    1151.1987   0.10013907   0.10212251            3 
  959000    1.1120497    -2.380333     1152.631   0.10015911    0.1021093            1 
  960000    1.0885938   -2.3887514    1151.2296  0.099933121   0.10209533            3 
  961000    1.0835855   -2.3567404    1156.3986   0.10027737   0.10208086            1 
  962000    1.0982996   -2.3813574    1151.2106  0.099723714   0.10206556            2 
  963000    1.0773832   -2.3879617    1152.9942  0.099774505   0.10205024            3 
  964000    1.1082194   -2.3668675    1142.9533  0.098803018   0.10203412            1 
  965000    1.0968768   -2.3899708    1155.2316  0.099760937     0.102018            1 
  966000    1.1226475   -2.4055689    1154.0637  0.099556907   0.10200171            3 
  967000    1.0992888   -2.3769667    1157.1232  0.099717616   0.10198636            1 
  968000    1.1013834   -2.3739219    1163.0814   0.10012753   0.10197082            5 
  969000    1.0861344   -2.3975157    1158.7395  0.099650804   0.10195518            2 
  970000    1.1163377   -2.3744459    1161.0889   0.09974991   0.10193904            1 
  971000    1.0908418   -2.4170231    1160.2571  0.099575788   0.10192304            3 
  972000    1.0927915   -2.3928288    1165.3828  0.099912791   0.10190737            1 
  973000    1.1102278   -2.3640084    1165.8969  0.099854134    0.1018917            1 
  974000    1.1121793   -2.3624502    1170.3612   0.10013357   0.10187689            2 
  975000    1.0803584   -2.3717066    1166.6896  0.099717056   0.10186184            1 
  976000    1.1023547    -2.375801    1169.5179  0.099856379   0.10184604            4 
  977000     1.128094   -2.3877639    1170.6774  0.099853074   0.10182977            1 
  978000     1.083076   -2.3675744     1168.258  0.099544822   0.10181413            2 
  979000    1.0937287   -2.3592528    1170.3371  0.099620113   0.10179867            2 
  980000    1.0892684   -2.3812387    1170.3687  0.099521149   0.10178265            2 
  981000    1.0937344   -2.3944061    1169.9273  0.099382207    0.1017673            1 
  982000    1.1185834   -2.3784899    1177.9633  0.099962945   0.10175135            3 
  983000    1.1043292   -2.3983654     1171.763  0.099335618   0.10173597            3 
  984000    1.1174781   -2.3764923    1177.5695  0.099726418    0.1017204            1 
  985000    1.0872471   -2.3637965     1177.862  0.099649911    0.1017058            3 
  986000    1.0799031   -2.3516535    1182.3777  0.099930504   0.10169023            1 
  987000    1.0653422   -2.3832782    1177.7569  0.099439114   0.10167518            1 
  988000    1.0868849   -2.3624465    1182.2469  0.099717185   0.10166135            3 
  989000    1.0845981   -2.3732368    1180.6639  0.099482968    0.1016466            1 
  990000    1.0795848   -2.3931312    1185.1276  0.099758213   0.10163253            2 
  991000    1.0788019   -2.3797924    1187.8696  0.099888127   0.10161818            1 
  992000     1.096724   -2.3919031    1184.7132  0.099522278   0.10160254            1 
  993000    1.0967297   -2.4027549    1182.2975  0.099219323   0.10158777            2 
  994000    1.1036847   -2.3751484    1189.7036  0.099740413    0.1015729            2 
  995000    1.0743606   -2.3922855    1186.0721  0.099336022   0.10155676            2 
  996000    1.1064471   -2.3705748    1187.6432  0.099367737   0.10154103            1 
  997000    1.0929484   -2.3906499    1190.2719  0.099487789   0.10152557            2 
  998000     1.080132   -2.4029522    1191.4009  0.099482376   0.10151044            3 
  999000    1.0876537    -2.403755    1183.6937  0.098739878   0.10149512            2 
 1000000    1.1023589   -2.3841953    1193.8447   0.09948706   0.10147934            3 
 1001000    1.0898018   -2.3812405    1194.4307  0.099436451   0.10146466            2 
 1002000    1.0725202   -2.4112098    1191.5852  0.099100562    0.1014485            2 
 1003000    1.1069893   -2.3667259    1190.8795  0.098943131   0.10143254            2 
 1004000    1.0974027   -2.3971355    1197.6521  0.099406714   0.10141637            1 
 1005000    1.0913663   -2.4073548    1194.7537  0.099067473   0.10140006            3 
 1006000    1.0814795   -2.3808264    1200.1181  0.099413366   0.10138383            2 
 1007000    1.0949867   -2.3900382    1199.5831  0.099270368   0.10136757            1 
 1008000    1.1193375   -2.3719068    1201.2085  0.099306255   0.10135227            2 
 1009000    1.0965213   -2.3868031    1197.3664  0.098890515   0.10133568            1 
 1010000    1.1106101   -2.3716755    1199.4063  0.098960918   0.10131852            3 
 1011000    1.0950695   -2.3765851    1200.7057   0.09897014   0.10130169            2 
 1012000    1.0750233   -2.3690604    1203.3036  0.099086268   0.10128431            4 
 1013000     1.096727   -2.4011986    1202.5185  0.098923868   0.10126619            2 
 1014000     1.105809   -2.3689349    1201.2275  0.098720206   0.10124767            1 
 1015000    1.0733711   -2.4025863    1202.7129  0.098744901   0.10122972            1 
 1016000    1.0937249   -2.3641365    1205.8576  0.098905641   0.10121159            2 
 1017000    1.0780001   -2.4096185    1200.7014  0.098385887   0.10119263            2 
 1018000    1.1083056   -2.3991872    1204.0973  0.098567228   0.10117372            1 
 1019000    1.1265516   -2.3884238    1206.1988  0.098642358   0.10115528            1 
 1020000    1.0942191    -2.392717    1206.5876  0.098577415   0.10113675            2 
 1021000    1.0998455   -2.3917912    1207.5769  0.098561612    0.1011178            2 
 1022000    1.0983621   -2.3799995    1211.9488  0.098821655   0.10109883            2 
 1023000    1.0995239   -2.4031558    1204.5907  0.098125668   0.10107966            1 
 1024000    1.0877759   -2.3563808    1208.5978  0.098355937   0.10106041            1 
 1025000    1.0874589   -2.4031965    1212.8588   0.09860641   0.10104198            3 
 1026000     1.092866   -2.4182457    1209.4537  0.098233728   0.10102274            2 
 1027000    1.0604727   -2.3872574    1213.4019  0.098458446    0.1010039            5 
 1028000    1.0837995   -2.3820009     1217.675  0.098709061   0.10098564            1 
 1029000    1.0756623   -2.3866856    1217.9074  0.098631957   0.10096635            1 
 1030000    1.0730794   -2.3851952    1218.8066  0.098608947   0.10094719            2 
 1031000    1.0581325   -2.3771181    1217.3761  0.098397683   0.10092864            2 
 1032000    1.1203771   -2.3896194    1219.9712  0.098511889   0.10091056            1 
 1033000    1.0879289   -2.3973926    1215.5123   0.09805682   0.10089229            1 
 1034000    1.0831001   -2.3774979    1226.0282  0.098809493   0.10087479            2 
 1035000      1.08717   -2.4002972    1220.1054  0.098237152   0.10085744            5 
 1036000    1.1011799   -2.4105779    1222.0185  0.098296215   0.10083903            2 
 1037000     1.089585   -2.4073229    1220.8155   0.09810475   0.10082089            3 
 1038000    1.0490021    -2.401655    1229.0764  0.098673443   0.10080333            2 
 1039000     1.097981   -2.3990059    1220.0266  0.097852633   0.10078619            1 
 1040000    1.0926839   -2.3891398    1225.9544  0.098233522   0.10076822            1 
 1041000    1.0765522   -2.3944638    1228.1313  0.098313421    0.1007507            2 
 1042000    1.0728666   -2.3962614    1231.2592  0.098469223   0.10073298            3 
 1043000    1.0873589   -2.3782719    1237.9568  0.098909938   0.10071678            3 
 1044000    1.0501388   -2.3932252    1230.8344  0.098246678   0.10069971            1 
 1045000    1.0770677   -2.3827874     1238.577  0.098770095   0.10068311            2 
 1046000    1.0836018   -2.4003079    1233.0427  0.098234762   0.10066609            2 
 1047000    1.0948426   -2.3914975    1239.6925  0.098670212   0.10064863            2 
 1048000    1.1037003   -2.3967318    1237.2015  0.098377978   0.10063163            2 
 1049000    1.0778705   -2.4040336    1242.2562  0.098685747   0.10061467            1 
 1050000    1.0836701   -2.4144827    1243.7698  0.098711887   0.10059824            1 
 1051000    1.0906347   -2.4045946    1237.8636  0.098149669   0.10058124            2 
 1052000    1.0826909   -2.3789595    1243.7329  0.098521302    0.1005645            5 
 1053000     1.073446   -2.3944087    1243.2382  0.098388588   0.10054822            1 
 1054000    1.0716395    -2.416377    1242.7007  0.098252741   0.10053204            1 
 1055000    1.1056578   -2.3995703    1240.9378   0.09802036   0.10051433            1 
 1056000    1.0962924   -2.3958963    1244.2684  0.098190371   0.10049703            2 
 1057000    1.0970273   -2.4000789    1244.7295   0.09813383   0.10047963            1 
 1058000    1.1002387   -2.4114819    1246.7081   0.09819692   0.10046142            2 
 1059000    1.0754097   -2.4073644     1247.183  0.098141568   0.10044367            2 
 1060000    1.0781235   -2.3664957    1252.7341  0.098485387   0.10042447            1 
 1061000    1.1042289   -2.4070488     1248.481  0.098058514   0.10040631            4 
 1062000    1.0813839   -2.4194317    1241.4631  0.097415496   0.10038799            2 
 1063000    1.0977306   -2.3878489    1255.0543  0.098389334   0.10036963            1 
 1064000    1.0823772    -2.407201    1251.9273  0.098051947   0.10035125            2 
 1065000    1.0798288   -2.3852954    1252.7926  0.098027588   0.10033317            1 
 1066000    1.1031834   -2.4240485    1251.9415  0.097869098   0.10031456            3 
 1067000    1.0848709   -2.3951308    1253.9651   0.09793542   0.10029627            2 
 1068000    1.0955731   -2.3801352     1256.665  0.098054388   0.10027855            4 
 1069000    1.0642214    -2.372099    1260.0525  0.098226734   0.10026043            2 
 1070000    1.0643302   -2.3888944    1255.5847  0.097786968   0.10024132            2 
 1071000    1.0733702   -2.4086747    1254.8057   0.09763505   0.10022208            3 
 1072000    1.0783352   -2.3837012    1262.0596  0.098107867   0.10020216            1 
 1073000    1.0639688   -2.3965584    1251.7604   0.09721656   0.10018224            1 
 1074000    1.0823513   -2.3844327    1257.9041  0.097602739   0.10016262            2 
 1075000    1.0870779   -2.3917476    1259.4024  0.097628095   0.10014254            3 
 1076000    1.0881398   -2.4008036    1252.2967  0.096987042   0.10012305            1 
 1077000    1.0545583   -2.4089072    1261.1526  0.097582216   0.10010235            1 
 1078000     1.103298   -2.4102934    1259.2554  0.097345036   0.10008249            2 
 1079000    1.0765258   -2.4158564    1257.4792   0.09711764   0.10006306            4 
 1080000    1.0904168   -2.3930945     1259.187  0.097159491   0.10004308            1 
 1081000    1.0830848   -2.3971045    1261.7186   0.09726477   0.10002206            1 
 1082000     1.078018   -2.4147311    1263.7478  0.097331159   0.10000169            1 
 1083000    1.0686999   -2.3954738    1266.2558  0.097434276  0.099981715            1 
 1084000    1.1008815   -2.3986261    1265.1428  0.097258827  0.099962298            1 
 1085000    1.0985314   -2.3911015    1270.1525  0.097553959  0.099942461            1 
 1086000    1.0617788   -2.4030847    1270.8437  0.097517164  0.099923308            1 
 1087000    1.0820451   -2.3861287    1272.5464   0.09755799  0.099904691            2 
 1088000    1.0775598   -2.4196168    1269.1715   0.09720983  0.099886017            2 
 1089000    1.0621339   -2.3966139    1275.2963  0.097589247  0.099866782            3 
 1090000    1.0590892   -2.3861088    1271.2321  0.097189002  0.099848775            1 
 1091000    1.0710571   -2.4029505    1274.9685  0.097385314  0.099830042            1 
 1092000    1.0795433   -2.4043147    1276.3744  0.097403419  0.099811403            2 
 1093000    1.0564963   -2.4038581    1275.3697  0.097237703  0.099792255            2 
 1094000    1.0599566   -2.4184509    1283.0348  0.097732696  0.099774154            2 
 1095000    1.0489384   -2.4011456     1285.645  0.097842089  0.099756321            1 
 1096000    1.0752079   -2.3939408    1282.0151  0.097476817  0.099737353            2 
 1097000    1.0739687   -2.3963844    1279.5944  0.097204075  0.099718499            1 
 1098000    1.0891783   -2.3895177     1280.771  0.097204839  0.099700383            4 
 1099000    1.0839944   -2.3946378    1279.0697  0.096987392  0.099681987            4 
 1100000    1.0651225   -2.4014785    1283.7603   0.09725457  0.099663135            1 
 1101000    1.0704079   -2.3980116    1286.2903  0.097357728  0.099644341            2 
 1102000    1.1095738    -2.402697     1282.354  0.096971721  0.099626056            3 
 1103000    1.0735061   -2.4021652    1288.1796  0.097323935  0.099607708            3 
 1104000     1.042075   -2.4062953    1284.9258  0.096990173  0.099588661            2 
 1105000    1.0711398    -2.390845    1291.6367  0.097408499  0.099569871            2 
 1106000    1.0952596   -2.4360269    1289.1578  0.097133651  0.099552333            2 
 1107000    1.0714145   -2.3704747    1298.6038  0.097756987  0.099534907            2 
 1108000    1.0789023   -2.3849634    1296.1107  0.097481251  0.099517576            2 
 1109000    1.0805978   -2.4138621    1297.7936  0.097519811  0.099500803            2 
 1110000    1.0902229   -2.4005334    1298.2152  0.097463605  0.099483369            1 
 1111000    1.0932523   -2.4281872    1297.5918  0.097329121  0.099465694            3 
 1112000    1.0835806   -2.4097216    1291.9822  0.096821208  0.099447911            1 
 1113000    1.0520592   -2.3986225    1290.9894  0.096659881  0.099429517            2 
 1114000     1.076562   -2.3837232    1301.7606  0.097378859  0.099411491            2 
 1115000    1.0865912   -2.4101648    1301.4992   0.09727199  0.099393208            2 
 1116000    1.0997109   -2.4000656    1300.6924  0.097124579  0.099375634            2 
 1117000    1.0655534   -2.3987545    1302.6637  0.097184701  0.099358392            2 
 1118000    1.0682043   -2.4081821    1302.1751  0.097061349  0.099341338            2 
 1119000    1.0574331   -2.4042932     1305.804  0.097244863  0.099323356            2 
 1120000    1.0726535   -2.4261307    1307.4973  0.097284022  0.099305593            3 
 1121000    1.0661023   -2.3901471    1305.5691  0.097053901  0.099287278            3 
 1122000    1.0559475   -2.4207507    1305.1496  0.096936246   0.09926912            2 
 1123000    1.0812281     -2.42911    1310.0177  0.097211167  0.099252192            2 
 1124000    1.0325492   -2.4320827     1309.804  0.097108834  0.099234478            1 
 1125000     1.072166   -2.4160158    1316.2252  0.097498163  0.099217008            1 
 1126000    1.0781037   -2.3965784    1317.0855  0.097475244  0.099200663            1 
 1127000    1.0698436   -2.4084323    1311.7583  0.096994849  0.099183747            1 
 1128000    1.0765424   -2.4054215    1320.4602  0.097551728  0.099167066            3 
 1129000    1.0645853   -2.4192742    1315.6317  0.097108925  0.099150687            2 
 1130000    1.0465765   -2.4128656    1317.2487  0.097142235  0.099133057            2 
 1131000    1.0818038   -2.4105477    1317.8365  0.097099652  0.099115215            3 
 1132000    1.0721977   -2.4334193    1317.8379   0.09701398  0.099097939            2 
 1133000    1.0661383   -2.4056409    1315.6779   0.09676948  0.099080895            1 
 1134000    1.0657623   -2.4135377    1317.6321  0.096827756  0.099063121            2 
 1135000    1.0770985   -2.3925267    1319.7487  0.096897849  0.099045509            1 
 1136000    1.0674279   -2.4178715    1323.6931  0.097101897  0.099027398            1 
 1137000    1.0706681   -2.3895834     1322.817  0.096952288  0.099009254            2 
 1138000    1.0767433   -2.3777036    1323.1311  0.096890093  0.098990979            2 
 1139000    1.0464469   -2.4074203    1324.0201  0.096870066  0.098973049            3 
 1140000    1.0575472   -2.3915617     1321.441  0.096596566  0.098954965            2 
 1141000      1.05211   -2.4118257    1323.1323   0.09663543  0.098936388            1 
 1142000     1.075887   -2.4199101    1328.5417  0.096945543  0.098918185            4 
 1143000    1.0769025   -2.4213578    1327.7165  0.096800558  0.098900236            4 
 1144000    1.0651063   -2.4254223    1322.6887  0.096349704  0.098881441            1 
 1145000    1.0581293   -2.4179333     1330.111  0.096805751  0.098864012            2 
 1146000    1.0607339   -2.4285494     1327.527  0.096533377    0.0988455            7 
 1147000    1.0769393   -2.4008772     1332.481  0.096809137  0.098826818            1 
 1148000    1.0795513   -2.4117282     1329.423  0.096502831  0.098808875            1 
 1149000    1.0416214    -2.426759    1328.9621  0.096385418  0.098790265            1 
 1150000    1.0579882   -2.3921907    1341.9774  0.097244742  0.098771974            2 
 1151000    1.0734197   -2.4003985     1332.093   0.09644461  0.098754053            1 
 1152000    1.0925415   -2.3935014    1338.2896  0.096809146  0.098735519            6 
 1153000    1.0561925    -2.413738    1333.4756  0.096377246  0.098717954            2 
 1154000    1.0742158   -2.4319928    1340.0671  0.096769725  0.098699973            1 
 1155000    1.0607026   -2.4093601    1338.2782   0.09655687  0.098681844            5 
 1156000    1.0662362   -2.3907145    1335.1149  0.096245307  0.098664184            2 
 1157000    1.0662623   -2.4044439    1335.9129    0.0962196  0.098646286            2 
 1158000    1.0849713   -2.3891134    1336.0065  0.096143244  0.098628614            1 
 1159000    1.0780285   -2.3863269    1341.9743  0.096489378  0.098610515            3 
 1160000    1.0771459   -2.3957575    1340.4133   0.09629406  0.098592205            2 
 1161000    1.0814924   -2.4083015     1337.933  0.096033088  0.098573547            2 
 1162000    1.0511664   -2.4196764    1346.0185  0.096530303  0.098554897            1 
 1163000     1.091588   -2.4297498    1345.8267  0.096433556  0.098536001            2 
 1164000    1.0680407   -2.4012699    1338.5592  0.095830413  0.098517906            2 
 1165000    1.0459786   -2.4230018    1343.8644  0.096127643  0.098499073            1 
 1166000    1.0784291   -2.4167841    1340.3304  0.095792628  0.098479991            3 
 1167000    1.0514715   -2.4050735    1347.8979  0.096250922  0.098460559            1 
 1168000    1.0593059   -2.4135671     1349.065  0.096251783  0.098441531            1 
 1169000    1.0614678   -2.4373768    1340.6588  0.095570201  0.098422536            1 
 1170000    1.0755093   -2.4024707    1348.1352  0.096021028  0.098403368            1 
 1171000    1.0716964   -2.4067794    1349.9645  0.096069207  0.098383805            1 
 1172000    1.0500731   -2.4011002    1347.7338   0.09582863  0.098364066            1 
 1173000    1.0759778   -2.4338864    1347.8475   0.09575501  0.098343815            2 
 1174000     1.055932   -2.4138603    1352.5637  0.096008215  0.098323398            3 
 1175000    1.0683472   -2.4219766    1350.3272  0.095767886   0.09830365            2 
 1176000    1.0332831   -2.3901844    1355.8739  0.096079502   0.09828374            1 
 1177000    1.0684282    -2.416036     1355.117  0.095944278  0.098264083            7 
 1178000     1.046398     -2.41136    1354.0386  0.095786546  0.098243848            2 
 1179000    1.0684881   -2.4340274    1356.1077  0.095851549  0.098224298            2 
 1180000    1.0911061   -2.4246684    1359.6689  0.096021812  0.098205427            2 
 1181000    1.0755131   -2.4161076     1360.941   0.09603027   0.09818608            2 
 1182000     1.059913   -2.4258627    1358.0012  0.095741768  0.098165774            2 
 1183000    1.0662788   -2.3931476     1359.567  0.095771132  0.098145628            2 
 1184000    1.0183113   -2.4481599     1360.116  0.095728885  0.098126009            1 
 1185000    1.0841179   -2.4139924     1357.862   0.09548959  0.098105795            1 
 1186000     1.068075    -2.422635    1353.4109  0.095096327  0.098084873            2 
 1187000    1.0700882   -2.3992309    1363.0459  0.095692636  0.098065023            2 
 1188000    1.0567812   -2.4209708    1362.0464  0.095541972  0.098045172            2 
 1189000    1.0568381   -2.3874461    1371.6461  0.096134437  0.098025567            3 
 1190000    1.0668773   -2.4133691    1372.8726  0.096139541   0.09800653            5 
 1191000    1.0723928   -2.4153594    1376.7487  0.096330022  0.097988211            3 
 1192000    1.0453086   -2.4212194    1363.2816  0.095307715  0.097969316            4 
 1193000    1.0655618   -2.4135669    1371.4536  0.095798658  0.097950453            1 
 1194000    1.0736125    -2.411147    1375.0574  0.095969945  0.097932432            1 
 1195000    1.0851215   -2.4114517    1376.0962  0.095962081   0.09791465            2 
 1196000    1.0547548   -2.4185362    1372.5454  0.095634431  0.097896087            2 
 1197000     1.078503   -2.4276049    1376.7738  0.095848916  0.097878402            2 
 1198000    1.0679361   -2.4295339    1373.9283  0.095570972  0.097860418            5 
 1199000    1.0693708   -2.4350766    1384.3985  0.096218965  0.097842101            2 
 1200000     1.052455   -2.4375872    1377.4353  0.095655229  0.097823878            1 
 1201000    1.0479108   -2.4282557    1374.8312  0.095394895  0.097805338            2 
 1202000    1.0599043   -2.4035454    1384.5399   0.09598862  0.097787346            2 
 1203000    1.0687233   -2.4216275    1373.8944  0.095171404  0.097769706            2 
 1204000    1.0624348   -2.4469053    1382.9841  0.095721491  0.097752068            4 
 1205000    1.0595598   -2.4184982    1387.0281  0.095921722  0.097734629            2 
 1206000    1.0568145   -2.4107706    1391.0215  0.096118127  0.097716635            1 
 1207000    1.0483422   -2.4107159     1381.928  0.095410661  0.097697922            1 
 1208000    1.0364772    -2.428046    1386.3865  0.095639249  0.097679373            3 
 1209000    1.0556079   -2.4076632    1386.4273  0.095562953  0.097661159            2 
 1210000    1.0515714   -2.4191283     1387.151  0.095533813  0.097644002            4 
 1211000    1.0645716   -2.4330345    1386.8817  0.095436396  0.097626443            1 
 1212000    1.0564599   -2.4384594    1390.4308  0.095601679  0.097608573            1 
 1213000    1.0569925   -2.4039322    1391.8282  0.095618862  0.097590463            2 
 1214000    1.0561057   -2.4304683    1391.1834  0.095495842  0.097573015            3 
 1215000    1.0551612   -2.4262077    1391.5699  0.095443751  0.097554852            1 
 1216000    1.0464394   -2.4281844     1399.165  0.095885759  0.097537282            2 
 1217000    1.0515562   -2.4194246    1393.9431  0.095449402  0.097519575            2 
 1218000     1.055951   -2.4393517    1398.0223  0.095650131  0.097502622            2 
 1219000    1.0723404   -2.3977659    1398.7956   0.09562453  0.097485602            2 
 1220000    1.0152903   -2.4329133    1399.4953   0.09559394  0.097468403            3 
 1221000    1.0405847   -2.4215633    1403.5896  0.095795085  0.097451756            1 
 1222000    1.0687936   -2.4229374    1403.1489  0.095686638  0.097434818            1 
 1223000    1.0438104   -2.4498686    1400.3363  0.095416758  0.097418212            3 
 1224000    1.0380378   -2.3992275    1406.6815  0.095770797  0.097401064            3 
 1225000    1.0652418   -2.4181188    1398.1268  0.095110665  0.097384046            2 
 1226000    1.0399973   -2.4253264    1408.8753  0.095763683   0.09736737            1 
 1227000    1.0762859   -2.3904407    1410.6923   0.09580904  0.097350737            1 
 1228000     1.075461   -2.4343995    1409.2357  0.095632173  0.097334104            4 
 1229000    1.0497937   -2.4324218    1408.2491   0.09548746  0.097317116            6 
 1230000    1.0558391   -2.4165702    1412.2869  0.095683393  0.097301171            2 
 1231000    1.0701076   -2.4283194    1411.6969  0.095565723  0.097284461            1 
 1232000    1.0623544   -2.4363003    1416.3809  0.095804987   0.09726867            1 
 1233000    1.0613709   -2.4351939    1408.6705  0.095206171  0.097252501            3 
 1234000    1.0462687   -2.4039315    1414.0317  0.095491064  0.097235567            3 
 1235000    1.0620103   -2.4344536    1409.6994   0.09512142  0.097219291            2 
 1236000    1.0550294   -2.4276396     1410.138  0.095074027  0.097202314            2 
 1237000    1.0662697   -2.4150216    1423.2295  0.095879108  0.097186362            3 
 1238000    1.0626206   -2.4142232    1420.5732  0.095622856  0.097170798            2 
 1239000    1.0599128   -2.4468744    1420.6565  0.095551284  0.097154898            3 
 1240000    1.0739877    -2.436765    1417.7496  0.095278869  0.097138847            2 
 1241000    1.0615139   -2.4242012    1416.7935  0.095137894  0.097123275            4 
 1242000    1.0574201   -2.4384911    1427.2571  0.095763359  0.097107428            2 
 1243000    1.0523286   -2.4178778    1428.8331  0.095791974  0.097091873            2 
 1244000    1.0357071   -2.4352819    1424.5954  0.095431098  0.097075905            3 
 1245000      1.03807   -2.4390805    1428.7456  0.095632238  0.097060026            3 
 1246000    1.0644114   -2.4118347     1430.522  0.095674292  0.097043677            1 
 1247000    1.0377316    -2.410857    1425.8595  0.095285989  0.097027645            1 
 1248000    1.0467965   -2.4420298    1421.3119  0.094905976  0.097011664            1 
 1249000    1.0544238     -2.42542    1424.7935  0.095062284  0.096995653            3 
 1250000    1.0483951   -2.4384529    1429.8331  0.095322205  0.096979138            1 
 1251000    1.0615644   -2.4114512    1434.3718  0.095548346  0.096962792            1 
 1252000    1.0224578   -2.4530903    1430.3987  0.095207583  0.096946919            1 
 1253000    1.0745088   -2.3961996     1435.566  0.095475258  0.096930576            2 
 1254000    1.0602105   -2.4525384    1432.1499  0.095172108  0.096914365            3 
 1255000    1.0363901   -2.4118029    1439.2597  0.095568376  0.096898035            1 
 1256000    1.0323119    -2.410427    1439.9455  0.095537785   0.09688231            1 
 1257000    1.0279008   -2.4368787    1440.7941  0.095518036  0.096866692            2 
 1258000    1.0573711   -2.4317586    1441.0318  0.095457859  0.096851124            2 
 1259000    1.0563811    -2.440452     1438.399   0.09520777  0.096835243            2 
 1260000    1.0530947   -2.4143697    1439.0397   0.09517458  0.096819545            2 
 1261000    1.0419817   -2.4188856    1444.1704   0.09543817  0.096803583            2 
 1262000    1.0500092   -2.4343563    1440.6375  0.095129258  0.096787936            2 
 1263000    1.0498868   -2.4462315    1442.9074  0.095203708   0.09677177            3 
 1264000    1.0508049   -2.4128771    1451.0751  0.095666868  0.096756549            1 
 1265000    1.0427859   -2.4349648    1444.0554  0.095128813  0.096740958            3 
 1266000    1.0559149   -2.4325224    1447.4315    0.0952759  0.096725316            1 
 1267000    1.0546323   -2.4120237    1450.9193  0.095430104   0.09670973            1 
 1268000    1.0173612   -2.4078202    1449.9033   0.09528807  0.096694169            1 
 1269000    1.0716831   -2.4199519    1445.1708  0.094902208  0.096678424            2 
 1270000    1.0631495   -2.4349574    1447.5717   0.09498502  0.096662579            2 
 1271000     1.055063   -2.4385055    1447.6643  0.094916358  0.096646534            2 
 1272000    1.0478828   -2.4175583    1456.3815  0.095412834  0.096630746            2 
 1273000    1.0593101   -2.4263408    1456.0169  0.095314016  0.096614287            2 
 1274000    1.0527464   -2.4209529    1450.8145  0.094898911  0.096598126            6 
 1275000    1.0525745   -2.4468117    1456.9411  0.095224907  0.096581793            1 
 1276000    1.0614741   -2.4432438    1453.2155   0.09490697  0.096565551            3 
 1277000    1.0374243   -2.4384878     1453.486  0.094850302  0.096549439            3 
 1278000    1.0395327   -2.4273031    1462.2279  0.095346107  0.096532733            3 
 1279000    1.0576925   -2.4446966    1455.3947  0.094826345  0.096516273            1 
 1280000     1.032527   -2.4425419    1456.7858  0.094842828  0.096499987            2 
 1281000    1.0565472   -2.4067053    1461.8533  0.095098447  0.096483146            2 
 1282000    1.0283611   -2.4630614    1455.3642  0.094602454   0.09646668            3 
 1283000    1.0323754   -2.4371249    1461.3663  0.094918567  0.096450107            2 
 1284000    1.0552696   -2.4541605    1457.8599  0.094617073  0.096432937            2 
 1285000    1.0214316   -2.4183578    1462.6249   0.09485246  0.096415768            3 
 1286000    1.0298285    -2.422642    1458.3386  0.094500945  0.096399471            3 
 1287000    1.0463745   -2.4053204    1463.2741  0.094747096  0.096383232            2 
 1288000    1.0546188   -2.4366037    1458.2892  0.094351008   0.09636598            1 
 1289000    1.0630882    -2.450899      1465.97  0.094774371  0.096348759            2 
 1290000    1.0559718   -2.4452287    1466.1914  0.094715206  0.096332071            2 
 1291000    1.0512346   -2.4380153    1471.1513  0.094961999  0.096315569            4 
 1292000    1.0370344   -2.4450252    1465.1598  0.094502054  0.096299237            1 
 1293000     1.052813   -2.4182615    1471.6052  0.094844367  0.096282737            1 
 1294000    1.0275799   -2.4246061    1471.8755  0.094788478  0.096266213            1 
 1295000    1.0380195   -2.4468146    1471.1178  0.094666523  0.096249508            2 
 1296000    1.0268668    -2.439584    1472.3798  0.094674624  0.096233355            2 
 1297000    1.0511276   -2.4614288     1476.539  0.094868864  0.096216666            3 
 1298000    1.0351198   -2.4289919    1470.5325  0.094410148  0.096199876            1 
 1299000    1.0656999   -2.4420359     1474.993  0.094623621  0.096183462            2 
 1300000    1.0240048   -2.4489636    1483.5115  0.095096893  0.096167174            2 
 1301000    1.0386515    -2.443233    1475.1961  0.094491165  0.096151209            2 
 1302000    1.0537305   -2.4165945    1483.9115  0.094976413  0.096135436            3 
 1303000    1.0424366   -2.4212844    1477.4171  0.094488177  0.096119934            1 
 1304000    1.0505454   -2.4196846    1485.9462  0.094960777  0.096103677            1 
 1305000     1.053124   -2.4458178    1482.6079  0.094674831  0.096087243            2 
 1306000    1.0334921   -2.4080232    1485.8282  0.094807826  0.096071528            4 
 1307000    1.0469578   -2.4361602    1479.9906  0.094363084  0.096055813            2 
 1308000     1.030876   -2.4425825    1484.6227  0.094586052   0.09603989            2 
 1309000    1.0399292   -2.4430322     1486.034  0.094603643  0.096024788            2 
 1310000    1.0475193   -2.4292462    1484.2847  0.094420148  0.096009036            2 
 1311000    1.0508835   -2.4388001    1485.7566  0.094441683  0.095993582            1 
 1312000    1.0152388   -2.4213322    1492.1851  0.094778019  0.095977766            4 
 1313000    1.0525036    -2.449613    1493.6284  0.094797433  0.095962363            1 
 1314000    1.0397138   -2.4260789    1497.8197  0.094991104   0.09594631            3 
 1315000     1.033489   -2.4323999    1493.0528  0.094616778  0.095930498            3 
 1316000    1.0499515    -2.435032    1496.6038  0.094769741  0.095914792            2 
 1317000    1.0247087   -2.4363778    1491.0996  0.094349509  0.095898768            2 
 1318000    1.0190239   -2.4434092    1490.7644  0.094256729  0.095883089            4 
 1319000    1.0417213    -2.455325    1494.4315  0.094416953  0.095867097            2 
 1320000     1.029525   -2.4585951    1491.7186  0.094174154  0.095850618            2 
 1321000    1.0515089   -2.4401263    1497.0318  0.094438037  0.095834526            2 
 1322000    1.0073074    -2.449083    1495.7755  0.094287413  0.095818665            2 
 1323000    1.0275419   -2.4340648    1498.0018  0.094356374  0.095802038            3 
 1324000    1.0639745   -2.4401111    1501.8112  0.094524875   0.09578619            3 
 1325000     1.027553    -2.441017    1496.8153  0.094139325  0.095770114            2 
 1326000    1.0479882   -2.4316599    1505.9191  0.094640465  0.095754261            3 
 1327000    1.0328024   -2.4372605    1504.0468  0.094451573  0.095738234            2 
 1328000    1.0225934   -2.4706668    1493.4759   0.09371711  0.095721335            2 
 1329000    1.0398695   -2.4670331    1498.2187  0.093943987  0.095705205            3 
 1330000    1.0421588   -2.4513934     1505.019  0.094299436  0.095688554            2 
 1331000    1.0424307   -2.4457935    1506.9991  0.094352563  0.095672064            1 
 1332000    1.0619837   -2.4251419    1507.7515  0.094328795   0.09565567            4 
 1333000    1.0380292     -2.45735    1505.9769  0.094147095  0.095638891            3 
 1334000     1.054133   -2.4473509    1507.4593   0.09416912  0.095623027            2 
 1335000    1.0191289    -2.448801    1506.1496  0.094016826  0.095606918            2 
 1336000    1.0317157   -2.4569003    1504.2764  0.093829615  0.095591101            2 
 1337000    1.0356211   -2.4315962    1517.0155  0.094553444  0.095575155            3 
 1338000    1.0467796    -2.466552    1501.2277  0.093499484  0.095558374            3 
 1339000    1.0631835   -2.4301806    1514.2792  0.094241923  0.095542289            2 
 1340000    1.0382485   -2.4309644    1510.4882  0.093935834  0.095525945            3 
 1341000      1.02548   -2.4265158    1510.9452  0.093894182  0.095509592            4 
 1342000     1.047529   -2.4341324    1520.0653   0.09439054  0.095493779            3 
 1343000    1.0275367   -2.4360877    1524.0223   0.09456579  0.095478332            1 
 1344000    1.0215989    -2.433663    1519.0127  0.094184816  0.095462757            3 
 1345000    1.0452972   -2.4496582    1521.5106  0.094269553  0.095447288            2 
 1346000    1.0226968   -2.4412494    1519.8011   0.09409368  0.095432257            1 
 1347000    1.0735378   -2.4690152    1518.1962  0.093924535  0.095416512            2 
 1348000     1.023258   -2.4555178     1519.611  0.093942322   0.09540064            2 
 1349000    1.0078517   -2.4338284    1515.3925  0.093612089  0.095384741            2 
 1350000    1.0233214   -2.4455952    1524.1243  0.094081745  0.095369265            3 
 1351000    1.0308106   -2.4253873    1524.3385  0.094025323  0.095353458            4 
 1352000    1.0188049   -2.4583262    1527.3216  0.094139645  0.095337791            2 
 1353000    1.0588802   -2.4689166    1529.2461  0.094188598  0.095322663            1 
 1354000    1.0332524   -2.4397572    1525.8974  0.093912937  0.095307425            1 
 1355000    1.0239937   -2.4432493    1533.1059  0.094286954  0.095292322            2 
 1356000     1.022224   -2.4579855    1526.3036  0.093799388  0.095276998            4 
 1357000     1.031852   -2.4403484    1527.4229  0.093798996  0.095261674            1 
 1358000     1.042949   -2.4425709     1536.713  0.094300012  0.095246091            1 
 1359000    1.0523192   -2.4497801    1527.4541  0.093662874   0.09523006            1 
 1360000    1.0304315   -2.4419007    1532.3847  0.093896122   0.09521464            1 
 1361000    1.0311838   -2.4408473     1534.931  0.093983037  0.095199073            1 
 1362000    1.0409155   -2.4724886    1538.5399  0.094134842  0.095183417            3 
 1363000    1.0334697   -2.4372371    1534.6284  0.093826631  0.095166841            1 
 1364000    1.0315312   -2.4493284    1529.7473  0.093459635  0.095150783            1 
 1365000    1.0403288   -2.4435153     1539.494  0.093986205  0.095135133            1 
 1366000    1.0295937    -2.437044    1540.2217  0.093961791  0.095119756            1 
 1367000     1.035717   -2.4509123    1535.4041  0.093599373  0.095104281            5 
 1368000    1.0267633   -2.4383953    1534.2503  0.093460667  0.095088922            4 
 1369000    1.0283596   -2.4581321    1542.4308  0.093890359  0.095073353            2 
 1370000    1.0727412   -2.4574075    1539.7781  0.093660471  0.095057605            1 
 1371000     1.026974   -2.4396807    1539.0479  0.093547772  0.095041563            3 
 1372000    1.0220118   -2.4558974    1544.1983  0.093792411  0.095025814            2 
 1373000    1.0360355   -2.4411325    1543.5902  0.093687192  0.095010223            3 
 1374000    1.0278721   -2.4546609    1539.9187  0.093396328   0.09499435            1 
 1375000    1.0426438   -2.4284037    1541.0916  0.093399489  0.094978217            1 
 1376000    1.0139901   -2.4460282    1544.3116  0.093526621  0.094961953            2 
 1377000    1.0409585   -2.4563325    1551.1078  0.093869995  0.094946447            2 
 1378000    1.0570712   -2.4518731    1543.1395  0.093320001  0.094930877            2 
 1379000     1.026993   -2.4485276    1551.1409  0.093735856  0.094915203            2 
 1380000    1.0407497   -2.4415411    1550.7223  0.093642654  0.094899662            2 
 1381000    1.0409691   -2.4721386    1552.6174  0.093689201  0.094884284            3 
 1382000    1.0230354   -2.4481834    1549.2058  0.093415689  0.094868724            1 
 1383000    1.0516384   -2.4481732    1548.4121  0.093300318  0.094853213            1 
 1384000    1.0221547   -2.4426753    1553.1823  0.093520132  0.094837313            1 
 1385000    1.0073714   -2.4610523    1554.5355  0.093534023  0.094821203            2 
 1386000     1.004486   -2.4240582    1556.4419  0.093581163  0.094805064            3 
 1387000    1.0356689    -2.486857    1551.8579  0.093238279  0.094788884            2 
 1388000    1.0495502   -2.4609878    1554.3041  0.093317972   0.09477262            1 
 1389000    1.0257197   -2.4625782    1560.1657  0.093602456  0.094756895            6 
 1390000    1.0363992    -2.444556    1563.7099  0.093747594  0.094741265            2 
 1391000    1.0296927   -2.4561717    1559.8288  0.093447686  0.094726245            1 
 1392000    1.0202223   -2.4683947    1566.2147  0.093762854  0.094711161            2 
 1393000    1.0190417    -2.448388    1561.7331  0.093427439  0.094695605            2 
 1394000    1.0322184   -2.4294941     1561.129  0.093324308  0.094679593            2 
 1395000    1.0379717   -2.4500214    1566.5925  0.093583781  0.094663909            3 
 1396000    1.0119552   -2.4421817     1569.384  0.093683383  0.094648543            2 
 1397000    1.0097198   -2.4481155    1571.2929  0.093730187  0.094632879            2 
 1398000    1.0264276   -2.4408499    1572.3719  0.093727459  0.094617947            3 
 1399000     1.015447   -2.4417797    1571.7878  0.093625675  0.094603558            2 
 1400000    1.0372174   -2.4904914    1569.5919  0.093428091  0.094588825            2 
 1401000    1.0630444   -2.4685142    1566.0555   0.09315105  0.094573697            3 
 1402000    1.0164245   -2.4380213    1578.3425  0.093814938  0.094559068            2 
 1403000    1.0474076   -2.4567068    1579.3117  0.093805637  0.094544136            5 
 1404000    1.0504545   -2.4343202    1575.4497  0.093509598  0.094529364            3 
 1405000     1.049451   -2.4439775    1573.4686  0.093325542  0.094514164            1 
 1406000     1.025932   -2.4582175    1574.5225  0.093321625  0.094499109            3 
 1407000    1.0338393    -2.445556    1581.0613  0.093642578  0.094484139            7 
 1408000    1.0226007   -2.4453296     1581.531  0.093603868  0.094469091            2 
 1409000    1.0372043   -2.4538858    1578.5642   0.09336197  0.094454009            3 
 1410000    1.0012802   -2.4423282    1578.1158  0.093269258  0.094439215            3 
 1411000    1.0312406   -2.4525457    1583.6953  0.093532677  0.094424501            1 
 1412000      1.02762   -2.4415724    1582.9988   0.09342533  0.094409895            3 
 1413000    1.0166388   -2.4593019    1589.2352  0.093727008  0.094396231            2 
 1414000    1.0251392   -2.4356336    1591.2581  0.093779945  0.094382206            1 
 1415000    1.0227777   -2.4599909    1592.3924   0.09378047  0.094368098            1 
 1416000    1.0063236   -2.4847429    1586.4816  0.093366384  0.094353917            2 
 1417000    1.0600813   -2.4488565    1588.9011  0.093442785   0.09433963            3 
 1418000    1.0041815   -2.4839352     1587.183  0.093275918  0.094325111            3 
 1419000    1.0061763    -2.453594    1586.6917  0.093181331  0.094310861            3 
 1420000    1.0167849   -2.4589862    1590.3484  0.093330307  0.094296026            3 
 1421000    1.0176678   -2.4465391    1592.0309  0.093363292  0.094281397            6 
 1422000    1.0186524   -2.4592919    1594.5364  0.093444466  0.094267763            2 
 1423000    1.0541863    -2.463426    1591.5342  0.093202984   0.09425392            1 
 1424000    1.0518474   -2.4802236    1590.7488  0.093091572  0.094239629            2 
 1425000    1.0177706   -2.4557656    1598.1431   0.09345866  0.094225675            1 
 1426000    1.0349729   -2.4436353    1595.9746  0.093266399  0.094211891            2 
 1427000    1.0102198    -2.470444    1593.6134   0.09306315  0.094197733            2 
 1428000     1.042253   -2.4461503    1605.7251   0.09370478  0.094183845            2 
 1429000    1.0167858   -2.4586111    1593.1158  0.092903886  0.094169929            1 
 1430000    1.0419543   -2.4784059    1599.7931  0.093228035  0.094155738            2 
 1431000    1.0191577   -2.4307105    1603.3193  0.093368231  0.094142345            1 
 1432000    1.0539156   -2.4471197    1602.8063  0.093273181  0.094128216            1 
 1433000    1.0237906   -2.4655159    1598.6912  0.092968783  0.094114069            2 
 1434000    1.0155186   -2.4487504    1603.6489  0.093192058  0.094100071            2 
 1435000    1.0180728   -2.4924741    1611.7468  0.093597377  0.094086302            2 
 1436000    1.0397101   -2.4658823    1608.2416  0.093328783  0.094072601            5 
 1437000    1.0066538   -2.4419855    1611.1646  0.093433345  0.094059263            3 
 1438000    1.0326823   -2.4433264    1612.0214  0.093418024  0.094045483            2 
 1439000    1.0415297    -2.479815    1613.9411  0.093464274  0.094031843            1 
 1440000    1.0419387   -2.4872099    1614.4058   0.09342626  0.094017909            2 
 1441000    1.0142954    -2.469006     1612.833   0.09327047  0.094003719            2 
 1442000     1.024962   -2.5005227    1609.0793  0.092988864  0.093989509            1 
 1443000    1.0495765   -2.4817779    1618.0517  0.093442581  0.093976119            3 
 1444000    1.0337728   -2.4407062    1624.3861  0.093743427  0.093962697            6 
 1445000    1.0066297    -2.437489    1618.6375  0.093347031  0.093949231            2 
 1446000    1.0089472   -2.4653605    1614.7177  0.093056577  0.093935827            2 
 1447000     1.026304    -2.436701    1614.7737  0.092995489  0.093921867            1 
 1448000   0.98400486   -2.4426074    1617.5147  0.093089012  0.093908488            3 
 1449000    1.0293197   -2.4808344    1626.2448  0.093526845  0.093895381            2 
 1450000    1.0354903   -2.4450805     1623.369  0.093297071  0.093882135            3 
 1451000    1.0147214   -2.4617275    1625.4503  0.093352301  0.093868541            3 
 1452000    1.0247574   -2.4239197    1622.6265  0.093125947  0.093854876            3 
 1453000    1.0254785    -2.444638    1629.7139  0.093468335  0.093840984            3 
 1454000    1.0090259   -2.4797353    1618.2199  0.092745295  0.093826755            1 
 1455000    1.0022126   -2.4653249    1623.5746  0.092988238  0.093812446            2 
 1456000    1.0134342   -2.4707268    1617.9952  0.092605039   0.09379785            2 
 1457000     1.031895   -2.4806805     1622.531  0.092800906  0.093783125            3 
 1458000   0.97982178   -2.4459611    1627.3501  0.093012692    0.0937681            5 
 1459000    1.0486286   -2.4624435    1619.7305  0.092513738  0.093753209            2 
 1460000    1.0099259   -2.4552029    1628.6027  0.092956777   0.09373804            1 
 1461000    1.0221934   -2.4622183    1618.9614  0.092343224  0.093722956            2 
 1462000    1.0180227   -2.4464456    1627.7963   0.09278365  0.093708254            4 
 1463000    1.0386329    -2.459553    1630.2091  0.092857662  0.093693541            2 
 1464000    1.0308806   -2.4837831    1627.8107  0.092657715  0.093678711            1 
 1465000    1.0161205   -2.4280441    1628.7548  0.092648168  0.093663854            2 
 1466000    1.0215059   -2.4572743    1637.2937  0.093070357  0.093649223            3 
 1467000    1.0014139   -2.4376219    1628.4889  0.092506754  0.093634471            2 
 1468000    1.0099785   -2.4568153    1629.6834  0.092511547  0.093619538            1 
 1469000    1.0196607   -2.4779024    1624.2522   0.09214047  0.093604329            3 
 1470000    1.0310039   -2.4505119     1635.417  0.092710711  0.093588941            3 
 1471000    1.0321402   -2.4226797    1633.8702  0.092560059  0.093573735            3 
 1472000    1.0220437   -2.4778805    1631.5072  0.092363407  0.093558703            2 
 1473000    1.0107889   -2.4505966    1643.0294  0.092952556  0.093543803            2 
 1474000    1.0148418   -2.4700935    1630.0578   0.09215614  0.093529051            1 
 1475000    1.0254953   -2.4662441    1642.3505  0.092788161  0.093513834            1 
 1476000    1.0181357   -2.4647357    1636.6021   0.09240075  0.093498071            2 
 1477000    1.0104346   -2.4719601    1633.7491  0.092177222  0.093482956            2 
 1478000    1.0219366   -2.4684781       1638.1  0.092360169  0.093467761            3 
 1479000      1.02771   -2.4584347    1642.7362  0.092558949  0.093452744            1 
 1480000   0.98404678   -2.4658743    1641.3621  0.092419038  0.093437882            2 
 1481000    1.0223499   -2.4660878    1648.6118   0.09276456  0.093423293            3 
 1482000    1.0454464   -2.4892544     1640.371  0.092238588  0.093408096            1 
 1483000    1.0066734   -2.4796361    1643.1369  0.092331812  0.093392837            4 
 1484000    1.0207118   -2.4620246    1641.6302  0.092184984  0.093377642            2 
 1485000    1.0054397   -2.5085076    1647.8561  0.092472281  0.093362961            2 
 1486000     1.007289   -2.4477088    1639.1284  0.091920617  0.093347955            1 
 1487000    1.0044627   -2.4524933    1645.7906  0.092232154   0.09333303            2 
 1488000   0.99574765   -2.4517414    1650.2546  0.092420173  0.093317892            6 
 1489000   0.98431679   -2.4667921    1646.1026  0.092125735    0.0933031            1 
 1490000    1.0078764   -2.4483872    1650.4476  0.092306913  0.093288352            3 
 1491000   0.99212701   -2.4739658    1653.8102  0.092432944  0.093273314            1 
 1492000     1.018625   -2.4753205    1654.7268  0.092422184  0.093258155            3 
 1493000    1.0323941    -2.464241    1652.1799  0.092218125  0.093243194            5 
 1494000   0.99663069   -2.4570609    1655.1415   0.09232159  0.093228227            6 
 1495000     1.008105   -2.4626274     1663.276  0.092713265  0.093213247            4 
 1496000    1.0294349    -2.477338    1657.4601  0.092327325  0.093198456            2 
 1497000    1.0201325   -2.4637891    1652.0228  0.091962969  0.093183478            2 
 1498000    1.0089419    -2.459667    1655.4059  0.092089783  0.093168652            3 
 1499000    1.0280984   -2.4719312    1657.8786  0.092165808   0.09315305            3 
 1500000    1.0128531   -2.4745196    1651.5456  0.091752536  0.093138314            2 
 1501000   0.98949418   -2.4916876    1655.5529  0.091913886  0.093123302            2 
 1502000     1.020155   -2.4734838    1658.1265  0.091995478  0.093108498            2 
 1503000    1.0009942   -2.4795881    1662.0632  0.092152541  0.093093789            2 
 1504000    1.0314454   -2.4746033    1663.6662  0.092180086  0.093079089            2 
 1505000    1.0037142   -2.4733158    1662.3555  0.092046262  0.093064188            5 
 1506000    1.0072974   -2.4786384    1668.8888  0.092346656  0.093049909            1 
 1507000    1.0106079   -2.4963776    1663.9065  0.092009871  0.093035234            1 
 1508000    1.0131418   -2.4900013    1661.7545  0.091829936  0.093020106            6 
 1509000    1.0026682   -2.4839357    1665.2597  0.091962651  0.093005412            4 
 1510000    1.0038446   -2.4519214    1665.7442  0.091928487  0.092990652            2 
 1511000     1.007924   -2.4854845    1661.9784  0.091659958  0.092975883            2 
 1512000   0.99184109   -2.4856722    1675.7313  0.092357324  0.092960805            2 
 1513000    1.0122871    -2.460804    1667.9358  0.091866921   0.09294586            2 
 1514000    1.0119827   -2.4651347     1670.748   0.09196103  0.092930707            2 
 1515000     1.002558   -2.4843811    1667.1014  0.091699747  0.092915405            2 
 1516000    1.0140043   -2.4709611    1676.1351  0.092135832  0.092900464            2 
 1517000     1.011822    -2.476633    1662.3599  0.091318387  0.092885192            1 
 1518000   0.99316117   -2.4924668    1670.2656  0.091692227  0.092870459            2 
 1519000    1.0039222   -2.4876377    1665.2829   0.09135851  0.092855338            4 
 1520000   0.99095737   -2.4615758    1671.1612  0.091620682  0.092840472            2 
 1521000     1.026618   -2.5068265    1670.9261  0.091547564  0.092825862            3 
 1522000   0.99123281   -2.4438533     1676.574  0.091796649  0.092811003            2 
 1523000   0.99719648   -2.4976294    1671.8674  0.091478844  0.092796222            2 
 1524000    1.0209586   -2.4806664    1676.1094  0.091650777  0.092781581            2 
 1525000    1.0275141   -2.4660733    1676.7562  0.091626024  0.092766638            2 
 1526000    1.0106445   -2.4769977    1683.7384  0.091947268  0.092752094            2 
 1527000     1.020391   -2.4690409     1682.828  0.091837371  0.092737688            1 
 1528000   0.99598501   -2.4595285    1687.1282  0.092011789  0.092723578            2 
 1529000    1.0353784   -2.4843783    1690.6855   0.09214549  0.092709254            3 
 1530000    1.0205169   -2.4850303    1683.0484  0.091669303  0.092694814            1 
 1531000    1.0093649   -2.4852581    1678.8298  0.091379804  0.092680644            3 
 1532000    0.9846592   -2.4823291    1689.0443  0.091875779  0.092666335            2 
 1533000    1.0156227   -2.5035141    1682.5171  0.091461029  0.092652114            2 
 1534000    1.0000244   -2.4726462    1688.4045  0.091721233  0.092637321            4 
 1535000    1.0156946   -2.4834343    1691.0877  0.091807152  0.092622545            2 
 1536000    1.0167311   -2.5126831    1688.9012  0.091628753  0.092607544            1 
 1537000    1.0253734   -2.4767114    1685.7921  0.091400567  0.092592146            3 
 1538000   0.98860435   -2.4475239    1694.1026  0.091791431  0.092577418            1 
 1539000   0.98525444   -2.4693985      1681.67  0.091058587  0.092562202            1 
 1540000   0.97620609   -2.4776171    1692.1315  0.091565559  0.092547207            1 
 1541000    1.0015082   -2.4882094    1686.4109  0.091196782  0.092532065            1 
 1542000    1.0225199   -2.4453908    1690.4459    0.0913557   0.09251668            2 
 1543000    1.0042787   -2.4627204     1697.018  0.091651436  0.092501323            1 
 1544000   0.99076388   -2.4983593    1692.6417  0.091355876  0.092486213            2 
 1545000   0.99916097   -2.4846045    1690.9946   0.09120791   0.09247044            2 
 1546000   0.98216448    -2.461524    1690.6136  0.091128373  0.092455215            2 
 1547000    1.0090765   -2.5059325    1689.6122  0.091015523  0.092439569            2 
 1548000    1.0370188   -2.4744282    1702.8899  0.091671509  0.092424461            2 
 1549000     1.004684   -2.4826129    1693.5536  0.091110047  0.092409035            1 
 1550000   0.99874138   -2.5205291    1689.2325  0.090818951  0.092393661            1 
 1551000    1.0022613   -2.4949425    1695.7069  0.091108255  0.092377955            2 
 1552000    1.0280007      -2.4638    1703.9697  0.091493217  0.092362274            4 
 1553000    1.0194058   -2.4746827    1705.7103  0.091527702  0.092347259            2 
 1554000    1.0240115   -2.4797899    1708.3475  0.091610224  0.092332813            1 
 1555000    1.0030527   -2.4959057    1707.1365  0.091486415  0.092318339            1 
 1556000   0.99279321   -2.4807022    1706.4716  0.091392009  0.092303214            6 
 1557000   0.99285711   -2.4811538    1708.2786  0.091430025  0.092288469            1 
 1558000   0.99760365   -2.4688004    1707.7958  0.091345519   0.09227351            3 
 1559000    0.9748061   -2.4755241     1711.484  0.091484069  0.092258987            1 
 1560000    1.0244015   -2.4791279    1711.6648  0.091435087  0.092244695            1 
 1561000   0.96987309   -2.5183636    1711.1839   0.09135084   0.09222919            2 
 1562000    1.0118159   -2.5115515    1711.6163  0.091315422  0.092214429            1 
 1563000    1.0074317   -2.4583692    1709.8579  0.091163249  0.092199558            1 
 1564000   0.97901568   -2.4617124    1713.7932  0.091314643  0.092185206            2 
 1565000   0.98791655   -2.4850199    1716.6783  0.091409918  0.092170675            1 
 1566000   0.99960371   -2.4735515    1707.7769  0.090877869  0.092155702            2 
 1567000   0.99767545   -2.4840392    1716.4636  0.091281831  0.092140946            2 
 1568000    1.0017793   -2.4307513    1715.3405  0.091163929  0.092125871            2 
 1569000    1.0146568   -2.4912691    1716.2622   0.09115478  0.092111058            2 
 1570000   0.99521222   -2.4926933    1712.3888  0.090891124  0.092096023            2 
 1571000   0.99197348   -2.5056632    1713.6555  0.090900461  0.092080731            2 
 1572000   0.99141159   -2.4729084    1706.9646  0.090487943   0.09206583            3 
 1573000    1.0182511   -2.4717374     1720.209  0.091132074  0.092050356            1 
 1574000    1.0085566   -2.4758135     1719.768  0.091050824  0.092035487            2 
 1575000    1.0193209   -2.4958885    1717.2607  0.090860357  0.092020504            2 
 1576000    1.0038091   -2.4810155    1723.0118    0.0911068  0.092005961            2 
 1577000    1.0041324    -2.493944    1720.5911  0.090921109  0.091990967            2 
 1578000    1.0224031   -2.4522497    1719.1219  0.090785904  0.091976021            1 
 1579000     0.985372   -2.4839292    1724.2031  0.090996576  0.091960871            5 
 1580000    1.0093806   -2.4905389    1721.1364  0.090777237  0.091945562            1 
 1581000    1.0272846   -2.5219468    1720.7546  0.090699694  0.091929726            3 
 1582000   0.99324958   -2.4937661    1721.8984  0.090702611  0.091914093            1 
 1583000    1.0112787   -2.4577621    1733.6999  0.091266577  0.091898306            2 
 1584000    1.0118303   -2.4921563    1727.6515  0.090890759  0.091882557            1 
 1585000   0.98449301   -2.5141507    1724.3888  0.090661872  0.091866771            2 
 1586000    1.0077845   -2.4731144    1731.8882  0.090998751  0.091850832            3 
 1587000    1.0050283   -2.5003734    1725.7455  0.090618855  0.091835021            3 
 1588000    1.0022337   -2.4789917    1724.9598  0.090520563  0.091819217            3 
 1589000   0.99724047   -2.4692407    1729.4621   0.09069971    0.0918033            2 
 1590000   0.99395585   -2.4929368     1724.407  0.090377723  0.091787278            2 
 1591000    1.0119862   -2.4943964    1730.9222  0.090662173  0.091771248            5 
 1592000   0.99125042   -2.5045231     1730.407  0.090578254  0.091755172            2 
 1593000    1.0089827    -2.514323    1728.0561  0.090398412  0.091738809            2 
 1594000    0.9794047   -2.4793378    1733.6348  0.090633355  0.091723291            1 
 1595000    1.0083924   -2.4756898    1729.7062  0.090371275   0.09170744            3 
 1596000    0.9877246   -2.4907294    1730.7785  0.090370641   0.09169158            3 
 1597000   0.98010273   -2.4521096    1733.8764  0.090475703   0.09167585            2 
 1598000    1.0060302   -2.4948251    1731.7499  0.090308194  0.091660165            2 
 1599000    1.0202679   -2.5037213    1737.9275  0.090573667  0.091643913            2 
 1600000     1.003273   -2.4655367    1734.8297  0.090355712  0.091627436            1 
 1601000   0.98991879   -2.5288358    1738.3298   0.09048146  0.091611723            1 
 1602000   0.99408585   -2.4846024    1736.7325  0.090341892  0.091595497            2 
 1603000   0.98465341   -2.4923024    1738.9891  0.090402842  0.091579395            3 
 1604000   0.99926074   -2.4616951     1740.885  0.090444983  0.091562886            1 
 1605000   0.97508944   -2.4537852    1745.5106  0.090628797  0.091546886            2 
 1606000   0.99891115   -2.4877607    1735.1541   0.09003498   0.09153057            1 
 1607000    1.0061534    -2.511413    1732.0434  0.089817643  0.091514076            3 
 1608000   0.99726578   -2.4999244    1740.6443  0.090207522  0.091497365            3 
 1609000   0.97780583   -2.4903483    1735.4623  0.089883071  0.091480453            1 
 1610000    1.0016379   -2.4854795    1745.5565  0.090349718  0.091463813            3 
 1611000   0.99012996    -2.468521    1739.7834  0.089995003  0.091447157            1 
 1612000   0.99066964    -2.474705    1742.5999  0.090084775  0.091430562            2 
 1613000   0.99156542   -2.4949821     1740.137  0.089901682  0.091414048            2 
 1614000   0.98363893   -2.5032657    1742.2387  0.089954496  0.091397686            1 
 1615000   0.98066911   -2.4901115    1736.9484  0.089625821  0.091381362            3 
 1616000   0.99838872   -2.4989885    1748.0159  0.090141082  0.091364994            5 
 1617000    1.0002004   -2.4688573    1754.1145  0.090399632  0.091348864            2 
 1618000    1.0019426   -2.4756243    1748.6166  0.090060599  0.091333254            1 
 1619000    1.0058716   -2.4565103    1742.0384  0.089666379  0.091317515            5 
 1620000   0.99936186   -2.4861793    1757.9705  0.090430583  0.091301418            4 
 1621000   0.98782189   -2.4858112    1749.6623  0.089947681  0.091285311            3 
 1622000   0.99018047    -2.506025    1748.2813  0.089821277  0.091269177            2 
 1623000   0.97329678   -2.4869966    1751.9959  0.089956657  0.091252932            4 
 1624000   0.98115351    -2.495179    1753.2965  0.089968005  0.091236958            4 
 1625000    1.0083029   -2.4895388    1759.0346  0.090206903  0.091221264            2 
 1626000   0.98305249   -2.5044085     1757.734  0.090084766  0.091205815            3 
 1627000   0.99283591   -2.4899504    1757.9872   0.09004237  0.091190145            2 
 1628000    1.0107961   -2.5058644    1755.1873  0.089843742  0.091174837            3 
 1629000   0.97993176    -2.489566    1760.5624  0.090063556  0.091159593            4 
 1630000   0.97656009   -2.4764201    1757.6036  0.089857034  0.091143693            3 
 1631000   0.99956539   -2.4964782    1763.6003  0.090108335  0.091128025            2 
 1632000   0.99688598   -2.5182704    1760.1945  0.089879211  0.091112116            3 
 1633000   0.97509815   -2.4698245    1771.7275  0.090412714  0.091097035            1 
 1634000   0.99969472   -2.4969941     1767.897  0.090162025  0.091081262            1 
 1635000    1.0079275   -2.5172826    1771.0419  0.090267169  0.091065431            4 
 1636000    0.9783634   -2.5079357    1760.1773  0.089658582  0.091049657            4 
 1637000   0.97733094   -2.4887218    1763.0503  0.089750065  0.091033837            1 
 1638000   0.99312432    -2.485811    1762.7264  0.089678798  0.091018173            1 
 1639000   0.99969898   -2.4899435    1764.2952  0.089703846  0.091002111            3 
 1640000    1.0001394   -2.4913763    1768.3449  0.089854924  0.090985939            2 
 1641000   0.99392844   -2.4692933    1764.8069    0.0896205  0.090970147            2 
 1642000   0.96867197   -2.5266042    1769.0336  0.089780432  0.090954284            4 
 1643000    0.9789574   -2.4633036    1774.7733  0.090016904  0.090938662            1 
 1644000    1.0040009   -2.4918308    1776.7932  0.090064536   0.09092304            2 
 1645000   0.98774166   -2.4821456    1775.8201  0.089960492  0.090907241            2 
 1646000    0.9935786   -2.4829431    1765.5175  0.089384238  0.090891707            2 
 1647000    1.0041716   -2.4834896    1772.2579  0.089671013  0.090875529            2 
 1648000   0.98627377   -2.4897097    1772.4765  0.089627654  0.090859539            4 
 1649000   0.98665839    -2.480765    1782.8244  0.090096238  0.090843765            2 
 1650000      1.03474    -2.508494     1773.564  0.089573939  0.090828295            3 
 1651000    1.0136845   -2.4933887    1777.9345  0.089740283  0.090811934            1 
 1652000   0.98177313   -2.4994776    1776.3112  0.089604076  0.090795477            2 
 1653000   0.99788908   -2.4928813    1776.7862  0.089573817  0.090779771            2 
 1654000    0.9947246   -2.5026301    1775.7935  0.089469647  0.090763811            4 
 1655000    1.0024341     -2.47835    1777.7336  0.089513273  0.090747874            3 
 1656000   0.99352763   -2.5127834    1778.7538  0.089510559  0.090731981            3 
 1657000   0.98340368   -2.4838412    1776.5686   0.08934664  0.090716113            1 
 1658000    1.0251015   -2.5202721    1781.0723  0.089519116  0.090700014            3 
 1659000   0.97398983   -2.4738925    1780.3095  0.089426837  0.090684191            5 
 1660000   0.95226779   -2.4790576    1779.3768  0.089326144  0.090667998            1 
 1661000   0.98065427   -2.4991728    1777.9812  0.089202347  0.090651911            3 
 1662000     1.023395   -2.5005428    1789.7714  0.089739842   0.09063618            2 
 1663000   0.95562989   -2.5077018    1783.1622  0.089354689  0.090620084            4 
 1664000    0.9956218   -2.4979642    1786.9691  0.089491644  0.090604173            2 
 1665000   0.99024802   -2.4767107    1787.8041  0.089479684  0.090587888            3 
 1666000   0.97384923   -2.5135136    1788.6986  0.089470718  0.090571944            1 
 1667000   0.99400585   -2.4873848    1793.6447  0.089664304  0.090556243            3 
 1668000   0.99772666   -2.4978563    1780.5039  0.088954031  0.090540217            2 
 1669000   0.99346729   -2.5262154    1785.4571  0.089148047  0.090524431            3 
 1670000   0.99013151   -2.5020863     1787.476   0.08919541  0.090508445            2 
 1671000    0.9787265   -2.5227755     1786.448  0.089090763  0.090492115            3 
 1672000    0.9782044     -2.49561    1785.4179  0.088986142  0.090475828            2 
 1673000   0.99023921    -2.486974    1793.9286  0.089356872  0.090459788            1 
 1674000   0.98598782   -2.4957335    1794.7567  0.089344719  0.090443611            2 
 1675000   0.99124026   -2.5060399    1791.1211  0.089110501  0.090427486            2 
 1676000   0.97405041   -2.5030594    1793.0521  0.089153344  0.090411183            1 
 1677000    0.9764518   -2.4982939    1790.5235  0.088974533  0.090395258            2 
 1678000   0.97986163   -2.5307548    1794.8712  0.089137425  0.090378974            3 
 1679000   0.97828403   -2.5081362    1797.7086  0.089225164  0.090362823            4 
 1680000   0.98764798   -2.5282388    1794.2997   0.08900296  0.090346245            3 
 1681000   0.98296275   -2.4983818    1790.6512  0.088769146  0.090329544            1 
 1682000   0.97570367   -2.5151031     1798.811  0.089120639  0.090312991            1 
 1683000   0.96494658   -2.4905908    1800.3499  0.089143885  0.090296553            2 
 1684000   0.98190888   -2.5157953    1801.3808  0.089141965  0.090280188            2 
 1685000   0.98471495   -2.4951065    1805.3666   0.08928618   0.09026361            2 
 1686000   0.99199186   -2.4940571    1801.3001  0.089032232  0.090247147            2 
 1687000   0.96691726   -2.5072604     1798.977  0.088864702  0.090230556            4 
 1688000   0.97985305   -2.5126446     1793.388  0.088536136  0.090214081            2 
 1689000    0.9798197   -2.5144931    1796.9622  0.088660063  0.090197671            2 
 1690000   0.98978998   -2.5075405    1801.7102  0.088841727  0.090181087            1 
 1691000   0.97370319     -2.50422     1805.414  0.088971713  0.090164328            2 
 1692000   0.98505727   -2.5228097    1808.0956  0.089051203  0.090147324            2 
 1693000    0.9725039   -2.4911062    1802.9758  0.088746592  0.090130559            3 
 1694000   0.98796726   -2.5257706    1799.2529  0.088511064  0.090113733            3 
 1695000   0.96077525    -2.493266    1804.2394  0.088704001  0.090096687            2 
 1696000   0.98542542   -2.4728881     1800.292  0.088457745  0.090079495            2 
 1697000   0.98704266   -2.5212092    1799.6444  0.088373818  0.090062295            5 
 1698000   0.97737381    -2.533855    1804.8689  0.088578175  0.090045004            2 
 1699000   0.98350121   -2.5094061    1811.5135  0.088851945  0.090028099            2 
 1700000   0.98564805   -2.5154545     1808.174  0.088635982  0.090011317            2 
 1701000   0.99454354   -2.4948948    1814.8492  0.088910896   0.08999455            2 
 1702000   0.97772817   -2.4908999    1808.7151  0.088558319  0.089978254            1 
 1703000     0.974731    -2.502804    1811.4421  0.088639757  0.089961598            4 
 1704000   0.98501463   -2.5164119    1812.6943  0.088648977  0.089944967            4 
 1705000    0.9574266   -2.5190035    1810.3799  0.088483867  0.089928001            2 
 1706000   0.97948636   -2.4984499    1810.8586  0.088455381  0.089911368            2 
 1707000   0.98340082   -2.4729143    1813.7569  0.088545054  0.089895047            5 
 1708000   0.96709961   -2.5103412    1815.6178  0.088584009  0.089878565            3 
 1709000   0.99428673   -2.5126727    1822.3941  0.088862595  0.089862021            3 
 1710000   0.97532847   -2.4997422    1818.2305  0.088607726  0.089845672            4 
 1711000   0.96197835   -2.5111637    1819.8255  0.088633622  0.089829043            1 
 1712000   0.99060486   -2.5484908    1817.9191  0.088489052  0.089812263            2 
 1713000    1.0052665   -2.5045995    1811.5828  0.088129151  0.089795352            2 
 1714000   0.99286454   -2.5116267    1817.8226  0.088381109   0.08977848            2 
 1715000   0.95674957   -2.5194914    1819.5769  0.088414817  0.089761527            1 
 1716000   0.98204346   -2.5057579    1822.2284  0.088492055  0.089744428            2 
 1717000    0.9794593     -2.47521    1823.8983  0.088521562  0.089727817            1 
 1718000   0.99356602   -2.5118424    1819.8915  0.088275683  0.089710937            3 
 1719000   0.96770357   -2.5038417    1823.0607  0.088377967  0.089694078            4 
 1720000   0.95589024   -2.4851399     1825.489  0.088444233  0.089677701            1 
 1721000   0.98560944    -2.511366    1820.1549  0.088134559  0.089660908            2 
 1722000   0.95800303   -2.5098899    1819.5335  0.088053307  0.089643755            1 
 1723000     1.004248   -2.5189185    1823.0259   0.08817111  0.089626865            3 
 1724000   0.95551536   -2.5246477    1823.2275  0.088129714  0.089609921            2 
 1725000    0.9850006   -2.5405131    1823.2676  0.088080559  0.089592893            4 
 1726000   0.99440518   -2.5044755    1826.6413  0.088192415  0.089576067            3 
 1727000    0.9810882   -2.5089762    1825.5802  0.088090146  0.089559609            2 
 1728000   0.96993737   -2.4937533    1829.3481  0.088220877  0.089543483            3 
 1729000   0.96040707   -2.5271631    1836.9823  0.088537803  0.089526887            4 
 1730000    0.9758971    -2.519243    1831.3046  0.088213131  0.089510486            1 
 1731000   0.98277558   -2.5169866    1835.9924  0.088387847  0.089493816            1 
 1732000   0.98639535   -2.5160951    1832.8438  0.088185326  0.089477381            3 
 1733000   0.96830974   -2.5156246    1835.9636  0.088284461   0.08946083            4 
 1734000   0.95848188   -2.5150529      1836.74  0.088270856  0.089444468            3 
 1735000   0.99371151   -2.5202259    1838.4485   0.08830204  0.089427541            4 
 1736000   0.95593624   -2.4973267    1833.9857  0.088036947  0.089411298            3 
 1737000   0.96862313     -2.50928    1831.1461  0.087850033   0.08939469            4 
 1738000   0.98634914   -2.5290701    1827.4855   0.08762397  0.089377794            1 
 1739000   0.98702463   -2.4908446    1842.5004  0.088293099  0.089361054            1 
 1740000   0.99696474   -2.5042766    1842.8776   0.08826042  0.089344324            3 
 1741000   0.98517937    -2.531074    1841.6042  0.088148776  0.089327556            2 
 1742000   0.97473653   -2.4939511    1838.5513  0.087952128  0.089310829            1 
 1743000   0.95619655   -2.5174438    1835.1956   0.08774123   0.08929372            1 
 1744000   0.96990188   -2.5203077    1844.8446  0.088151977  0.089276998            3 
 1745000    0.9721971   -2.4986679    1841.2787  0.087931169  0.089260499            3 
 1746000    0.9539461   -2.5214215    1838.1388  0.087730949  0.089243809            3 
 1747000   0.97713708   -2.5261935    1841.5268   0.08784234  0.089227127            2 
 1748000   0.98687244   -2.4899826    1841.2946  0.087781014  0.089210128            1 
 1749000   0.95743486   -2.4921351    1850.8878  0.088187907  0.089193092            2 
 1750000   0.97329025   -2.5112806    1847.6893  0.087985206  0.089176042            3 
 1751000   0.94748801   -2.5192317    1843.3664  0.087729222  0.089158897            3 
 1752000   0.96987141   -2.5037591    1849.7768  0.087984058  0.089141803            4 
 1753000   0.95529044   -2.5188922    1840.9194  0.087512807  0.089125011            2 
 1754000   0.94980839    -2.524185    1843.5434  0.087587579  0.089108079            2 
 1755000   0.96248059   -2.5166337    1845.6159  0.087636085  0.089091092            3 
 1756000   0.98358712   -2.5177556    1846.3834  0.087622596  0.089074098            3 
 1757000    0.9837369   -2.5189776    1853.1896  0.087895544  0.089057233            3 
 1758000   0.97148793   -2.4787739    1845.7529  0.087493029  0.089040191            2 
 1759000   0.97520593   -2.5275639    1849.1231  0.087602951  0.089023459            3 
 1760000   0.97937514   -2.5211803    1842.9358  0.087260219  0.089006312            2 
 1761000   0.96134712   -2.5188015    1852.9857  0.087686242  0.088988802            3 
 1762000   0.97446518   -2.5162098     1849.186  0.087456771  0.088971167            3 
 1763000   0.98214766    -2.546308    1845.9152  0.087252564  0.088953696            1 
 1764000   0.95396676    -2.515203    1848.6778  0.087333607  0.088936107            1 
 1765000   0.95094798   -2.5170634    1847.7511  0.087240374  0.088918431            2 
 1766000   0.96050563   -2.5254108    1847.6925  0.087188208  0.088900898            2 
 1767000   0.98447792   -2.5046163    1855.3762  0.087501235  0.088883133            2 
 1768000   0.98202189   -2.5449852    1845.7695  0.086998938   0.08886555            4 
 1769000   0.94108092   -2.5176565     1851.452  0.087217451  0.088847513            2 
 1770000     0.972655   -2.4939834    1853.6977  0.087273904  0.088830098            3 
 1771000   0.95479633   -2.5292379    1855.5045   0.08730964  0.088812712            3 
 1772000     0.988328   -2.5036465    1858.1918  0.087386747   0.08879532            3 
 1773000   0.96147149   -2.4928538    1866.1964  0.087713688   0.08877805            2 
 1774000   0.97026975   -2.5445023    1848.1519  0.086816606  0.088760647            4 
 1775000    0.9576629   -2.5411471    1861.1783  0.087379261  0.088743022            3 
 1776000   0.99361324   -2.5240807    1851.5862  0.086879982   0.08872532            3 
 1777000   0.96469344   -2.5397217      1848.89  0.086704651   0.08870739            2 
 1778000   0.98337569     -2.51621    1860.7161  0.087210167  0.088689695            3 
 1779000   0.95835601   -2.5159849    1862.9604  0.087266272   0.08867213            3 
 1780000   0.94852608   -2.5366879    1864.6278   0.08729531  0.088654305            1 
 1781000   0.96395049   -2.4940229    1862.2622  0.087135609  0.088636949            1 
 1782000   0.98364663   -2.5086028     1862.124  0.087080245  0.088619596            3 
 1783000   0.95498589   -2.5438173    1855.4526    0.0867196  0.088602061            4 
 1784000   0.98873491   -2.5349728    1867.0468  0.087212575  0.088584385            2 
 1785000   0.95552788   -2.5204143    1852.8084  0.086498992  0.088566611            2 
 1786000   0.96384964   -2.5112584    1867.2584  0.087124784  0.088548744            1 
 1787000   0.98243074   -2.5102205    1866.1741  0.087025467  0.088530764            2 
 1788000   0.97557449   -2.5276417    1865.6518  0.086952451  0.088513392            2 
 1789000   0.96010495   -2.5363548    1869.9102   0.08710221   0.08849602            3 
 1790000   0.95659419   -2.5429703    1865.2895   0.08683843  0.088478476            2 
 1791000   0.99207478   -2.5132568    1869.3635  0.086979502  0.088460953            2 
 1792000   0.96663761   -2.5161053    1877.5963  0.087313816  0.088443349            3 
 1793000   0.96723706   -2.5151718    1866.1447  0.086732884  0.088425979            2 
 1794000   0.96933196   -2.5305908    1870.0235  0.086864709  0.088408781            2 
 1795000   0.96235789   -2.5355741    1864.3148  0.086551293  0.088391304            2 
 1796000   0.97894331   -2.5297659    1876.6649  0.087076137  0.088374091            2 
 1797000   0.95408644   -2.5329414    1875.6952  0.086982711  0.088356937            3 
 1798000   0.96910332   -2.5461919    1868.8671  0.086617869  0.088339617            9 
 1799000   0.94839713   -2.5130109    1880.6379  0.087114965  0.088322512            2 
 1800000   0.96827497   -2.5139996    1875.5124   0.08682928  0.088304901            3 
 1801000   0.94103477   -2.5061304    1879.0006  0.086942467  0.088287224            4 
 1802000   0.95425745   -2.5215262    1874.5345  0.086687686  0.088269694            3 
 1803000   0.98179178   -2.5355704    1881.3998  0.086956915  0.088252528            2 
 1804000   0.96176076   -2.5500046    1866.1234  0.086203038  0.088235049            2 
 1805000   0.98888067   -2.5064886    1873.5789  0.086499488  0.088217181            2 
 1806000   0.95409566   -2.5046303    1878.5086  0.086679059  0.088199918            2 
 1807000   0.96067772   -2.5455591    1887.3696  0.087039733   0.08818282            2 
 1808000   0.96969688   -2.5101001    1877.8758  0.086554008  0.088165646            3 
 1809000    0.9561746   -2.5186327    1886.8219  0.086918275  0.088148405            2 
 1810000   0.96355931   -2.5331619    1881.8759  0.086642536  0.088131275            6 
 1811000   0.94575208   -2.5214938    1882.9687  0.086644978  0.088113955            3 
 1812000    0.9639038   -2.5244966    1886.0284  0.086737878   0.08809681            1 
 1813000   0.95363149   -2.5448432    1892.3944  0.086982642  0.088079859            2 
 1814000   0.99576667   -2.5417835    1885.8928  0.086636016  0.088062648            2 
 1815000   0.96807604   -2.5305718    1891.0866  0.086826751  0.088045575            7 
 1816000   0.96881048   -2.5362191    1896.1199  0.087009908  0.088028782            3 
 1817000   0.96120815    -2.565415    1887.0241   0.08654486  0.088012063            9 
 1818000   0.95595833   -2.5350287    1897.4279  0.086974143  0.087995253            4 
 1819000   0.96462468   -2.5249824    1887.9854  0.086493744   0.08797799            2 
 1820000   0.95275027    -2.537838    1895.4027   0.08678584  0.087960629            2 
 1821000   0.97253984   -2.5129024    1893.7759  0.086663733   0.08794378            2 
 1822000   0.98791437   -2.5430301     1888.824  0.086389682  0.087926489            2 
 1823000   0.96946084   -2.5227892    1897.6968  0.086747888   0.08790952            3 
 1824000    0.9484772   -2.5289525    1897.9539  0.086712073  0.087892701            8 
 1825000    0.9730325   -2.5485989    1894.0653  0.086487001  0.087875203            1 
 1826000   0.96705164   -2.5097058    1900.6321  0.086739324  0.087858096            2 
 1827000   0.97912632    -2.531365    1897.7519  0.086560476  0.087840947            3 
 1828000   0.96350478    -2.525363    1900.4342  0.086635403  0.087823918            4 
 1829000   0.97196546   -2.5105265    1900.8897  0.086608787  0.087806676            4 
 1830000   0.92905495   -2.5272706    1895.8724  0.086332987  0.087789553            2 
 1831000     0.965622   -2.5154451    1901.9054  0.086560413    0.0877718            3 
 1832000   0.96124641   -2.5451741    1894.3146  0.086167877   0.08775419            5 
 1833000   0.95170238   -2.5309554    1898.3175  0.086302849   0.08773675            2 
 1834000   0.96683238   -2.5472549    1900.9056  0.086373392   0.08771947            3 
 1835000   0.95214777   -2.5331512    1896.4609  0.086124471  0.087701744            2 
 1836000   0.96167274   -2.5505969    1895.5297  0.086035298  0.087683829            4 
 1837000   0.97093835    -2.543665    1894.8249   0.08595649  0.087665793            3 
 1838000   0.96309395   -2.5298442     1905.031  0.086372463  0.087648392            2 
 1839000   0.96004441   -2.5385859    1901.3113  0.086156937  0.087630797            2 
 1840000    0.9731546    -2.518054    1904.4683  0.086253093  0.087613416            2 
 1841000   0.93071182   -2.5299897    1901.5292  0.086073202  0.087596036            2 
 1842000   0.95217817   -2.5307966     1907.554  0.086299043  0.087578409            3 
 1843000   0.94348377   -2.5309366    1906.5335  0.086206071  0.087561063            4 
 1844000   0.98177904   -2.5330651    1904.5279  0.086068685  0.087543855            2 
 1845000   0.95990333   -2.5388394    1901.9689  0.085906456   0.08752653            3 
 1846000   0.94041978   -2.5578524    1904.9611  0.085994994  0.087509239            1 
 1847000   0.96896527   -2.5356456    1901.5876  0.085796226  0.087491841            2 
 1848000   0.96546175   -2.5445932    1905.1957  0.085912504  0.087474519            2 
 1849000   0.92359017   -2.5474184     1908.404  0.086010635  0.087457374            1 
 1850000   0.94601262   -2.5185126    1913.0543  0.086173616  0.087439631            1 
 1851000   0.94379477   -2.5370545    1914.0517  0.086171964  0.087422275            2 
 1852000   0.94687708   -2.5330917    1918.2096  0.086312527  0.087404546            3 
 1853000   0.96030306   -2.5355483    1915.0275  0.086122839  0.087386839            2 
 1854000   0.94308075   -2.4977482    1912.7703  0.085974932  0.087369639            3 
 1855000   0.97813814   -2.5308093    1912.0523  0.085896327  0.087352235            3 
 1856000   0.97091675    -2.523199    1917.8862  0.086111989  0.087334571            3 
 1857000    0.9594747   -2.5257918    1923.4047  0.086313261   0.08731718            1 
 1858000   0.96309748   -2.5336866    1909.0362  0.085622363  0.087299447            2 
 1859000   0.97431727   -2.5411462    1910.2989   0.08563291  0.087281918            2 
 1860000   0.95734169   -2.4996894    1914.9733  0.085796293  0.087264532            1 
 1861000   0.92083665   -2.5465564    1915.5172  0.085774549  0.087247374            1 
 1862000     0.961921   -2.5098659    1918.8325  0.085876858  0.087230087            1 
 1863000   0.94723692   -2.5457679    1926.1752  0.086159205  0.087213228            1 
 1864000   0.94740606   -2.5437078    1920.5711  0.085862442  0.087196341            2 
 1865000   0.96444318   -2.5251311    1922.0037  0.085880417  0.087179288            1 
 1866000   0.94656148   -2.5401824     1924.179  0.085931537  0.087162179            5 
 1867000   0.95158138    -2.545399     1922.165  0.085795618  0.087145166            2 
 1868000   0.94686213   -2.5381473     1924.999  0.085876113  0.087128142            5 
 1869000   0.94561608   -2.5516774    1915.5391  0.085408377  0.087110807            2 
 1870000   0.97032922   -2.5297534    1917.0015  0.085427875  0.087093399            3 
 1871000   0.95025135   -2.5696327    1922.9638  0.085647772  0.087075931            5 
 1872000   0.97829261   -2.5235237    1931.3689  0.085976179  0.087058988            2 
 1873000    0.9680735   -2.5523706    1916.6263   0.08527435  0.087041825            2 
 1874000   0.95759014   -2.5322251     1922.739  0.085500669  0.087024191            3 
 1875000   0.94913569   -2.5457968    1922.0929  0.085426351   0.08700684            2 
 1876000   0.95914072   -2.5386479    1927.6565  0.085627955  0.086989866            3 
 1877000   0.96277398   -2.5445295    1938.7647  0.086075508  0.086972602            3 
 1878000   0.97355263   -2.5334569    1929.3199  0.085610572  0.086955514            2 
 1879000   0.94693943   -2.5462038     1927.068  0.085465142  0.086938202            6 
 1880000    0.9563782   -2.5659739    1934.1743  0.085734674  0.086920968            2 
 1881000   0.96772111   -2.5527547    1932.5539  0.085617308  0.086903712            1 
 1882000   0.92227973    -2.534567    1932.4587  0.085567602  0.086886301            2 
 1883000   0.93936601   -2.5614098    1925.6307   0.08521998  0.086869022            1 
 1884000   0.96186391   -2.5289364     1934.905  0.085584971  0.086851776            2 
 1885000   0.95839261   -2.5314757    1933.8492  0.085492893  0.086834249            2 
 1886000     0.955579   -2.5299249    1933.2272  0.085420077  0.086817446            2 
 1887000   0.95226874    -2.541535     1934.269  0.085420819    0.0868007            3 
 1888000   0.96077459   -2.5425529    1941.4397  0.085692077  0.086783712            1 
 1889000   0.95476915   -2.5318732    1929.7968  0.085133087  0.086766485            3 
 1890000   0.95387984   -2.5413831    1942.4434  0.085645654  0.086749674            3 
 1891000     0.940635   -2.5231606    1948.3523  0.085860756  0.086732666            1 
 1892000   0.95749925   -2.5382786    1943.2316  0.085589836    0.0867158            2 
 1893000   0.94725724   -2.5241921    1943.3515  0.085549899  0.086698916            2 
 1894000   0.93174106   -2.5364166    1939.8854  0.085352226  0.086682022            1 
 1895000   0.97062623   -2.5490271     1950.605  0.085778583  0.086665121            2 
 1896000   0.92992776   -2.5387208    1942.8905  0.085394275  0.086648085            2 
 1897000   0.93687077   -2.5411609    1944.1936  0.085406502  0.086631213            1 
 1898000   0.93860595   -2.5533989     1938.138  0.085095627  0.086614432            2 
 1899000   0.94619687   -2.5420688    1940.8457  0.085169638  0.086597703            2 
 1900000   0.94763229   -2.5352515    1949.5496  0.085506563  0.086580535            2 
 1901000   0.94656173   -2.5641505    1947.7062  0.085380772  0.086563487            2 
 1902000   0.96566522   -2.5585297    1945.8729   0.08525556  0.086546821            3 
 1903000   0.96658424   -2.5477552    1945.8508  0.085209792  0.086529608            2 
 1904000   0.94889337   -2.5152133    1955.4283  0.085584222  0.086512662            2 
 1905000   0.95215086   -2.5221259    1946.7757  0.085160794  0.086495634            3 
 1906000   0.94338854    -2.559524    1942.1297   0.08491298  0.086478502            3 
 1907000   0.93048793   -2.5431321    1955.3834  0.085447622  0.086461505            3 
 1908000   0.94975346   -2.5277062    1949.1556  0.085130836  0.086444338            2 
 1909000   0.91459891     -2.56133    1956.8054  0.085420176  0.086427458            2 
 1910000   0.94048157   -2.5209014    1952.9119  0.085205581  0.086410257            2 
 1911000   0.91107347    -2.541643    1960.8375  0.085506604  0.086392915            2 
 1912000   0.94521678   -2.5235239    1956.2461  0.085261771  0.086375538            2 
 1913000   0.96609548    -2.527678    1955.8642  0.085200567  0.086358407            1 
 1914000   0.95636367   -2.5529685    1946.1323  0.084732334  0.086340959            1 
 1915000   0.92540624   -2.5324419    1954.8824  0.085068858  0.086323661            2 
 1916000   0.93793929   -2.5288688    1965.3921  0.085481563  0.086306296            3 
 1917000   0.96884674   -2.5361011    1957.7139  0.085103194  0.086288936            1 
 1918000   0.93188995   -2.5510773    1951.8086  0.084802252  0.086271389            3 
 1919000   0.96486869   -2.5254104    1951.9006  0.084762055  0.086253457            3 
 1920000   0.96353141   -2.5502578    1955.0045  0.084852625  0.086235799            1 
 1921000   0.92224916   -2.5595462    1948.3908   0.08452155  0.086218179            2 
 1922000   0.95067654   -2.5644837    1952.1432   0.08464027  0.086200241            3 
 1923000    0.9672966   -2.5367583    1955.3321  0.084734445  0.086182615            2 
 1924000   0.94347306   -2.5309007    1954.7571  0.084665503  0.086164728            2 
 1925000   0.96463431   -2.5598174    1957.4943  0.084740014  0.086147279            1 
 1926000    0.9454563    -2.552279    1962.8791  0.084929002  0.086129926            3 
 1927000   0.93596992    -2.567002    1954.6241  0.084527941  0.086112392            3 
 1928000   0.93885289   -2.5622582    1954.2477  0.084467831  0.086094684            2 
 1929000   0.94492928   -2.5317493    1970.6836  0.085134077  0.086077478            3 
 1930000   0.90712985   -2.5436627    1961.9465  0.084712716  0.086060004            3 
 1931000   0.95434987   -2.5454585    1964.0578   0.08475996  0.086042329            2 
 1932000   0.94007107   -2.5652114    1959.8834  0.084536034  0.086024862            3 
 1933000   0.94187752   -2.5622101    1967.3756  0.084815294   0.08600737            2 
 1934000   0.93411911   -2.5372724    1970.3876  0.084901224   0.08598978            2 
 1935000   0.94724821   -2.5701514    1955.2838  0.084206884   0.08597198            3 
 1936000   0.93656947   -2.5455126    1964.3463  0.084553473  0.085954359            2 
 1937000    0.9490778   -2.5681892    1955.9198  0.084147297  0.085936777            2 
 1938000   0.94022569   -2.5712294    1973.5605  0.084862422    0.0859193            3 
 1939000   0.93952286   -2.5194455    1965.5789  0.084475628  0.085902115            2 
 1940000   0.92317913   -2.5690909    1966.8345  0.084486017  0.085884381            2 
 1941000   0.92066991   -2.5594613    1971.6962  0.084651218  0.085866812            2 
 1942000   0.93723376   -2.5415571    1970.5229   0.08455728  0.085849271            2 
 1943000   0.93854726    -2.538612    1970.7917  0.084525292  0.085831576            1 
 1944000   0.96876202   -2.5374901    1965.7877  0.084267307  0.085813851            4 
 1945000   0.93109802   -2.5442273    1969.5728   0.08438615  0.085796141            6 
 1946000   0.94745296   -2.5386811     1974.465  0.084552288  0.085778347            5 
 1947000   0.90514066   -2.5596181    1968.4811  0.084252745  0.085760444            3 
 1948000   0.93401745   -2.5536178    1968.7975  0.084223027  0.085742738            3 
 1949000   0.94109947   -2.5429536    1975.7237  0.084475959  0.085725113            2 
 1950000   0.95158221    -2.551865    1973.4201  0.084334191  0.085707363            3 
 1951000   0.93237605   -2.5769941     1966.529  0.083996627  0.085689392            4 
 1952000   0.93866318   -2.5599014    1983.0848  0.084660381   0.08567148            2 
 1953000   0.94270479   -2.5337228    1980.4928  0.084506433  0.085653582            4 
 1954000   0.94550537   -2.5442785    1969.5945    0.0839984   0.08563593            3 
 1955000   0.92061611   -2.5666532    1978.2099  0.084322673  0.085618249            2 
 1956000   0.97332545   -2.5562522     1976.267  0.084196787  0.085600673            9 
 1957000   0.93644197   -2.5515977    1968.7259  0.083832647  0.085582953            1 
 1958000   0.93532999   -2.5142948    1974.7948  0.084048125  0.085564831            1 
 1959000    0.9289994   -2.5434722    1982.8509  0.084347921  0.085547299            1 
 1960000   0.95052023   -2.5624036    1976.7034  0.084043511  0.085529377            2 
 1961000   0.93949949   -2.5580258    1977.4413  0.084032011  0.085511497            3 
 1962000   0.96064446   -2.5595359    1974.7002  0.083872759  0.085493625            2 
 1963000   0.95037264   -2.5765498    1973.9913  0.083799938  0.085475805            2 
 1964000   0.94899062   -2.5635722    1978.2299  0.083937115  0.085458153            2 
 1965000   0.93327142   -2.5724865    1975.4803   0.08377779  0.085440324            3 
 1966000    0.9392383   -2.5588364     1985.461  0.084158233  0.085422511            4 
 1967000   0.91261007   -2.5504695    1979.3172  0.083855159  0.085404695            3 
 1968000   0.94233364   -2.5605405    1982.0989  0.083930341  0.085386571            2 
 1969000   0.93699414   -2.5454572    1984.4829  0.083988612  0.085368879            3 
 1970000   0.91954293   -2.5419051    1986.0011  0.084010198  0.085351034            2 
 1971000   0.93551411   -2.5555099    1978.3408  0.083643702  0.085333147            3 
 1972000   0.93050226   -2.5543146    1983.7042  0.083827932  0.085315212            2 
 1973000   0.93611557   -2.5546398    1980.4448  0.083647779  0.085297266            3 
 1974000   0.93287034   -2.5763979    1982.0997  0.083675267  0.085279667            5 
 1975000   0.93219956    -2.549231    1984.0072  0.083713385  0.085261468            1 
 1976000   0.92531202   -2.5512325    1984.1257  0.083676016  0.085243519            4 
 1977000   0.92721409   -2.5565442    1986.2506   0.08372326  0.085225388            1 
 1978000   0.95607241   -2.5574236    1987.2429  0.083722736  0.085207741            3 
 1979000    0.9300256   -2.5603651    1985.9371  0.083625448  0.085189785            3 
 1980000   0.92860018   -2.5559087    1989.4191   0.08372976  0.085171703            2 
 1981000   0.93937947   -2.5591214    1983.2463  0.083427826  0.085153711            2 
 1982000   0.92501487   -2.5657935    1995.0241  0.083880934   0.08513559            3 
 1983000   0.93943989   -2.5510784    1986.2144  0.083468415  0.085117457            3 
 1984000    0.9360206   -2.5908931    1985.5991  0.083400501  0.085099462            1 
 1985000    0.9095123   -2.5351091    1997.2514  0.083847664  0.085081349            2 
 1986000   0.93614689   -2.5647825    1992.8596  0.083621163  0.085063535            3 
 1987000   0.93078745   -2.5581478    1993.1801  0.083592521  0.085045624            2 
 1988000   0.91832871   -2.5649006    1992.7633  0.083533001  0.085027563            1 
 1989000   0.95728907   -2.5665927     1996.979   0.08366763  0.085009619            3 
 1990000   0.93738816   -2.5619884    1993.6351  0.083485558    0.0849919            5 
 1991000   0.94082641   -2.5836514    1991.8951  0.083370797  0.084973842            2 
 1992000   0.93839783   -2.5544222    1993.5884  0.083399783  0.084955933            2 
 1993000   0.93384856   -2.5625308    1997.5474  0.083523474  0.084938077            2 
 1994000   0.92248738    -2.548566    1995.2882   0.08338717  0.084920027            6 
 1995000   0.91809176     -2.56543    1989.7997  0.083116111  0.084901756            3 
 1996000   0.94800869   -2.5671098     1992.081  0.083169713  0.084883793            5 
 1997000   0.93905564   -2.5431208    2004.9158  0.083663653  0.084865993            3 
 1998000   0.94887499   -2.5667735    1997.8619  0.083327575  0.084848209            1 
 1999000   0.92857425   -2.5393548    2004.1997  0.083550095  0.084830295            2 
 2000000   0.91198231   -2.5630859    2004.7628  0.083531784  0.084812449            1 
 2001000   0.93057103     -2.55034    1999.0266  0.083251147  0.084794727            3 
 2002000   0.93111104   -2.5659908    2009.0511  0.083626834  0.084776873            3 
 2003000   0.93830381   -2.5721138    2008.1122  0.083546023  0.084759413            2 
 2004000    0.9434338   -2.5956082    1996.2695  0.083011871  0.084741533            2 
 2005000   0.93374992   -2.5594191    2006.8641   0.08341081  0.084723813            3 
 2006000   0.94185053   -2.5627299    2005.3973  0.083308297  0.084706125            1 
 2007000   0.92000695   -2.5752812    2005.0869  0.083253899  0.084688769            3 
 2008000   0.93109406   -2.5586797    2004.0477   0.08316931  0.084671063            2 
 2009000   0.93048031   -2.5554311     2009.155  0.083339765  0.084653667            4 
 2010000   0.91729325   -2.5561175     2002.523   0.08302334  0.084635896            3 
 2011000   0.91532183   -2.5717632    2009.2884  0.083262405  0.084618099            2 
 2012000     0.923074   -2.5675131    2011.6315   0.08331807  0.084600372            2 
 2013000   0.93270819   -2.5490686    2008.5914  0.083150829  0.084582788            3 
 2014000   0.93884642    -2.559909    2003.1883  0.082885976  0.084565189            4 
 2015000   0.92318984   -2.5337099    2015.0778  0.083336551   0.08454748            2 
 2016000   0.93028801   -2.5731833    2006.2868   0.08293183   0.08452985            2 
 2017000   0.93625713   -2.5809497    2012.5702  0.083150315  0.084512245            2 
 2018000   0.93455924   -2.5833717    2022.6129  0.083523822  0.084494587            3 
 2019000   0.93607124   -2.5576973    2016.8098  0.083242935  0.084476961            2 
 2020000    0.9222962   -2.5598655     2004.147  0.082679333  0.084459233            2 
 2021000   0.92917665   -2.5803362    2008.6409  0.082823722  0.084441404            3 
 2022000   0.94285215   -2.5566055    2016.5634  0.083109271  0.084423625            1 
 2023000   0.91197777   -2.5534236    2018.8159  0.083160978  0.084406233            3 
 2024000   0.95937498   -2.5906106    2017.6463  0.083071736  0.084388898            1 
 2025000   0.92591368   -2.6041371    2013.0716  0.082842452  0.084370963            2 
 2026000    0.9280819   -2.5587594    2024.2454  0.083261161  0.084353395            2 
 2027000   0.92030248    -2.545014    2024.2661  0.083220937  0.084335831            3 
 2028000   0.93532828   -2.5425213    2029.8214  0.083408176  0.084318715            3 
 2029000   0.94207476   -2.5466632    2026.4056  0.083226778  0.084301577            4 
 2030000   0.90821148    -2.569435    2021.4526  0.082982455  0.084284076            7 
 2031000   0.95961052    -2.570883    2017.7112  0.082788086   0.08426647            2 
 2032000   0.92980437   -2.5645263    2019.6859  0.082828327  0.084249231            3 
 2033000   0.91039365   -2.5778585     2018.616  0.082743728  0.084231516            3 
 2034000   0.90670572   -2.5923085    2024.0381  0.082925191  0.084213882            2 
 2035000   0.94539242   -2.5554077    2018.5285  0.082658824  0.084196267            7 
 2036000   0.92477851   -2.5413304    2026.9028  0.082960984  0.084178777            1 
 2037000   0.90394815   -2.5526088    2027.7775  0.082956041  0.084161344            2 
 2038000   0.95174525   -2.5821619     2025.757  0.082832721  0.084143977            2 
 2039000   0.93064853   -2.5509772    2022.1734  0.082645637  0.084126487            1 
 2040000   0.93047644   -2.5738673    2031.2823  0.082977219  0.084108819            3 
 2041000     0.916869   -2.5574595    2026.0749  0.082723948  0.084091701            5 
 2042000    0.9362353   -2.5674533    2032.1068  0.082929596  0.084074407            2 
 2043000   0.91042104   -2.5373263    2029.0275    0.0827634  0.084056985            4 
 2044000   0.91583247   -2.5692081    2029.6896    0.0827499  0.084039401            2 
 2045000     0.917457   -2.5708116    2033.0447  0.082846156  0.084021908            3 
 2046000   0.92097257    -2.562112    2030.2848  0.082693253  0.084004212            1 
 2047000   0.93286557    -2.586929    2029.3291  0.082613952   0.08398661            3 
 2048000   0.91469833    -2.561674    2023.8088  0.082348993  0.083969054            1 
 2049000   0.93269417   -2.5738656    2030.8719  0.082596058  0.083951464            3 
 2050000   0.91289327   -2.5684308    2032.8574  0.082636479  0.083933907            4 
 2051000   0.90997628   -2.5909267    2020.2886   0.08208551  0.083916112            3 
 2052000   0.91392961   -2.5655382    2031.0236  0.082481466  0.083898404            5 
 2053000   0.91351529   -2.5715169    2040.7434  0.082835827  0.083881133            1 
 2054000   0.92585337   -2.5849034    2036.3057  0.082615454  0.083863775            1 
 2055000   0.93346893    -2.543249    2037.8301  0.082637067  0.083846452            4 
 2056000   0.91736891   -2.5678393    2034.0413  0.082443307  0.083828895            2 
 2057000   0.92980434   -2.5620838    2035.8039  0.082474634   0.08381159            1 
 2058000   0.93283097   -2.5769005     2039.087  0.082567499  0.083793971            4 
 2059000   0.91465341   -2.5671264    2042.2051  0.082653597   0.08377662            3 
 2060000   0.93065036   -2.5555593    2047.5686  0.082830444  0.083759359            2 
 2061000   0.91195744   -2.5816273    2043.0277  0.082606651  0.083742225            1 
 2062000   0.91052689    -2.568745    2044.3444  0.082619801  0.083725009            1 
 2063000   0.92960544    -2.582935    2042.8454  0.082519203  0.083707586            1 
 2064000   0.94715531   -2.5552569    2039.0546  0.082326172  0.083690525            2 
 2065000   0.92772644     -2.57337    2045.3966  0.082542236  0.083673067            4 
 2066000   0.93358661   -2.5580184    2041.8299   0.08235842  0.083655891            5 
 2067000   0.93041896   -2.5780953    2041.2133  0.082293716  0.083638489            2 
 2068000   0.93344288   -2.5599274    2048.8601  0.082562059  0.083621048            2 
 2069000   0.92840913     -2.60925     2043.571  0.082309126  0.083603876            5 
 2070000   0.94552544   -2.5560973    2047.3082  0.082419815  0.083586754            4 
 2071000   0.92086527   -2.5873789    2039.1542  0.082051915  0.083569606            1 
 2072000   0.92861242   -2.5795954    2047.0743  0.082330852  0.083551936            3 
 2073000     0.921407   -2.5418806    2057.3369  0.082703686  0.083534841            3 
 2074000    0.9202945   -2.5627628    2038.5392   0.08190852  0.083517348            4 
 2075000    0.9188414   -2.5683488    2053.4783  0.082469009   0.08349967            4 
 2076000   0.92770065    -2.540239    2050.6872  0.082317246  0.083482256            2 
 2077000   0.91335064   -2.5870296    2054.3328  0.082423882  0.083464809            2 
 2078000   0.92588498   -2.6008567    2047.5232  0.082111131  0.083447516            5 
 2079000   0.90826038   -2.5983286    2049.5476  0.082152783   0.08343038            2 
 2080000   0.91238777   -2.5777541    2054.2522  0.082301771  0.083413308            3 
 2081000   0.90797803   -2.5893852    2051.4331  0.082149329  0.083395798            2 
 2082000   0.90998405   -2.5566965    2052.2103  0.082140982  0.083378527            2 
 2083000   0.92658662   -2.6042355    2049.6037  0.081997267  0.083361269            4 
 2084000   0.89960695   -2.5673878    2059.2927  0.082345358  0.083343717            2 
 2085000   0.92541921   -2.5868068    2052.5275  0.082035471  0.083326507            2 
 2086000   0.93255814   -2.5892364     2056.484  0.082154205  0.083309259            3 
 2087000   0.90279099   -2.5884799    2056.8635  0.082129991  0.083292242            5 
 2088000   0.91191117   -2.5793424     2059.625   0.08220087  0.083275013            3 
 2089000   0.92351046   -2.5941324    2054.7862  0.081968494  0.083257694            3 
 2090000   0.91631036   -2.5651507    2060.5084  0.082157431  0.083240473            4 
 2091000   0.90878205   -2.5924332    2053.9553   0.08185698  0.083223226            3 
 2092000   0.90932143   -2.6148557    2051.5716  0.081722896  0.083205655            2 
 2093000   0.90274507   -2.5764755    2059.2405  0.081989188  0.083188009            1 
 2094000   0.91952238   -2.5960647    2058.1148  0.081905236  0.083170809            5 
 2095000   0.91988969   -2.5763982     2063.891  0.082095903  0.083153485            4 
 2096000   0.90459068   -2.6009084    2059.2948  0.081873999  0.083136026            4 
 2097000   0.93134704    -2.575038    2060.2918  0.081874575  0.083118857            6 
 2098000   0.91370279   -2.5809147    2066.4978  0.082082055  0.083101677            4 
 2099000   0.91623001   -2.5732932      2068.34  0.082116088  0.083084784            2 
 2100000   0.91932772    -2.557587    2068.0462  0.082065327  0.083067593            3 
 2101000   0.92313108   -2.6060909    2064.7649  0.081896118  0.083050562            3 
 2102000   0.89956071   -2.5866444    2061.9513  0.081745609  0.083033483            5 
 2103000   0.90096565   -2.5662293    2063.0179  0.081749007  0.083016418            2 
 2104000   0.89984864   -2.5767897    2069.9178  0.081983436  0.082999361            5 
 2105000   0.92339411   -2.5687135    2070.3316  0.081960869  0.082982185            3 
 2106000   0.92174865   -2.5538384    2071.1846  0.081955705  0.082965118            7 
 2107000   0.92373162    -2.596895    2066.3689  0.081726344  0.082947969            1 
 2108000   0.93090421   -2.5847126    2066.4875  0.081692265  0.082931104            2 
 2109000   0.90877054   -2.6022022    2063.4766  0.081534558  0.082914294            4 
 2110000   0.89948512   -2.5842447     2069.382  0.081729145  0.082897448            2 
 2111000   0.91798994   -2.5854947    2074.0569  0.081874975  0.082880692            1 
 2112000   0.91493051   -2.6064683    2069.5495  0.081658362  0.082863785            6 
 2113000   0.92741103   -2.5911258    2069.8309  0.081630815   0.08284723            1 
 2114000   0.93211105   -2.5947986    2076.8686  0.081869624  0.082830485            4 
 2115000   0.91857269   -2.5941968    2080.3967  0.081969927  0.082813696            2 
 2116000   0.92306895   -2.5890783    2074.2188  0.081687887  0.082796986            2 
 2117000   0.91984444   -2.5627528    2077.5538  0.081780578  0.082780428            4 
 2118000   0.89558955   -2.5974364    2081.9986  0.081916847  0.082764022            5 
 2119000   0.90713181   -2.6110838    2071.6018  0.081469317    0.0827474            2 
 2120000   0.92297197   -2.6060271    2081.2442  0.081809913  0.082730746            2 
 2121000   0.90857759   -2.6050348    2082.0661  0.081803632  0.082713929            2 
 2122000   0.91130434    -2.572848    2072.5704  0.081392176  0.082697156            2 
 2123000   0.91613158    -2.600508    2083.4829  0.081782183  0.082680499            2 
 2124000   0.89803645   -2.5835763    2092.8794  0.082112344  0.082664101            3 
 2125000   0.91887719   -2.5789289    2092.6206  0.082063551  0.082647702            2 
 2126000   0.93238458    -2.578972    2077.0051  0.081412867  0.082631017            3 
 2127000   0.89342488   -2.5646763     2080.127  0.081496904  0.082614439            2 
 2128000   0.91662183     -2.60539    2085.8404  0.081682347  0.082597811            2 
 2129000   0.90055581    -2.579598    2084.2103  0.081580173  0.082581003            2 
 2130000   0.91910031   -2.5588234    2084.5816  0.081556399  0.082564476            5 
 2131000   0.90175168   -2.5767512    2083.3003  0.081468025  0.082547741            2 
 2132000   0.90910948   -2.5674596    2096.8167  0.081958125  0.082531083            1 
 2133000   0.91761185   -2.5756071    2089.5177  0.081634541  0.082514565            3 
 2134000   0.89005509   -2.5773807    2091.4213  0.081670622  0.082497768            1 
 2135000   0.90772482   -2.6014916    2098.4718  0.081907564  0.082481163            2 
 2136000   0.92024849     -2.58217    2084.8443  0.081337557  0.082464309            2 
 2137000   0.91599682   -2.5909721     2085.154  0.081311575  0.082447553            3 
 2138000   0.92131765   -2.5890767     2090.775  0.081492633  0.082430571            9 
 2139000   0.90229466   -2.6188681     2083.127  0.081156575  0.082413626            2 
 2140000   0.90978195   -2.5823003    2097.2524  0.081668706  0.082397142            2 
 2141000   0.89717694   -2.5943828    2096.4731  0.081600229  0.082380373            2 
 2142000   0.89681234   -2.5838079    2097.0833  0.081585873  0.082363472            2 
 2143000   0.89875048     -2.59894     2092.785  0.081380658  0.082346644            2 
 2144000   0.91503062   -2.6124654    2080.1025  0.080849756  0.082329589            3 
 2145000   0.90826187   -2.5814364    2094.8888  0.081386509  0.082312993            3 
 2146000   0.92616909   -2.5718595    2091.1804  0.081204582   0.08229626            1 
 2147000   0.90905723   -2.5848703    2094.9939  0.081314776  0.082279562            5 
 2148000   0.90948985   -2.5928135    2092.1523  0.081166678  0.082262794            4 
 2149000   0.91560908   -2.5996734    2101.8472  0.081504854  0.082246077            2 
 2150000   0.92774425   -2.5979879    2099.9282  0.081392567  0.082229432            3 
 2151000   0.92297899   -2.5752218    2094.8673   0.08115866  0.082212876            2 
 2152000   0.90637764   -2.5810805    2102.2285     0.081406  0.082196251            2 
 2153000    0.9119013   -2.5637043    2102.2227  0.081367962  0.082179595            1 
 2154000    0.9127761   -2.6055305    2100.7958  0.081274984  0.082162978            3 
 2155000   0.89602703   -2.5781639    2102.3032   0.08129556  0.082146413            2 
 2156000   0.89975108   -2.5669764    2101.1858  0.081214666  0.082129938            5 
 2157000     0.925423   -2.5858916    2107.4667  0.081419667   0.08211335            3 
 2158000   0.89178957   -2.5736068    2108.8177  0.081434108  0.082096851            3 
 2159000    0.8934252   -2.5824216    2103.8394  0.081204238   0.08208043            3 
 2160000   0.88351463   -2.5878607     2105.723  0.081239314  0.082064098            2 
 2161000   0.90398892   -2.5980058    2109.5203  0.081348152   0.08204789            2 
 2162000   0.90081971   -2.5797043     2108.803   0.08128288   0.08203209            2 
 2163000   0.88844472   -2.5879116    2116.4886  0.081541399  0.082016305            4 
 2164000   0.90854085   -2.5913976    2111.8221  0.081324017  0.081999962            1 
 2165000   0.91038703   -2.5899778    2109.0328  0.081179092  0.081983917            2 
 2166000    0.9128442   -2.6085054    2111.2128  0.081225483  0.081967844            4 
 2167000   0.91056117   -2.6022438    2117.4387  0.081427424  0.081952015            2 
 2168000   0.89544022    -2.607034    2112.5981  0.081203802  0.081936001            1 
 2169000   0.91351585    -2.576572    2112.5565  0.081164764  0.081919978            2 
 2170000    0.8981166   -2.6158467    2114.7693  0.081212339  0.081904233            3 
 2171000   0.88850296   -2.5809545     2118.835  0.081330992  0.081888443            9 
 2172000   0.90655326   -2.6005816    2111.3841  0.081007677  0.081872642            5 
 2173000   0.91714256   -2.6120925    2117.4142  0.081201648   0.08185642            2 
 2174000   0.89985918    -2.564908     2120.806  0.081294312  0.081840391            2 
 2175000   0.91020966   -2.5974157    2121.4262  0.081280699  0.081824191            5 
 2176000   0.92763406   -2.6047737    2119.6986  0.081177183  0.081808131            3 
 2177000   0.88195897   -2.5886858    2101.9257  0.080459566  0.081791808            5 
 2178000   0.90170789    -2.607197    2113.7009   0.08087316  0.081775441            2 
 2179000   0.91432279   -2.6015399    2121.2442  0.081124529  0.081759388            4 
 2180000   0.93258547   -2.5768784    2117.3146  0.080937101  0.081743337            4 
 2181000   0.89979514   -2.6096936    2123.6461  0.081141911  0.081727407            2 
 2182000   0.89943119    -2.582368    2118.1031  0.080893032  0.081711559            2 
 2183000   0.89203082   -2.6179103    2123.7413  0.081071206  0.081695458            2 
 2184000   0.91212636    -2.601226    2128.6852  0.081222726  0.081679372            6 
 2185000   0.89576466   -2.5941636     2121.888  0.080926316  0.081663426            2 
 2186000   0.88902862   -2.6007541    2122.6736  0.080919245  0.081647649            1 
 2187000   0.91002553   -2.5754151    2120.7511  0.080808989  0.081631437            4 
 2188000   0.91498119   -2.6084918    2126.3772  0.080986334  0.081615215            3 
 2189000   0.92175529   -2.5994356    2124.3187  0.080870971  0.081599203            2 
 2190000   0.90714161   -2.5886473    2124.3342  0.080834634   0.08158354            1 
 2191000   0.89685374   -2.6056209    2126.3253  0.080873472   0.08156753            3 
 2192000   0.91142711   -2.5885848    2129.0269  0.080939283  0.081551717            2 
 2193000   0.88458603   -2.5883434    2133.3889  0.081068131   0.08153606            3 
 2194000   0.89240175   -2.6115673    2132.3331  0.080991077  0.081520184            4 
 2195000   0.89343536   -2.6014267    2130.9814  0.080902862  0.081504379            5 
 2196000   0.89838793   -2.5793598    2131.4704  0.080884579  0.081488497            3 
 2197000   0.91483826   -2.6071261    2129.9229  0.080789064  0.081472567            3 
 2198000    0.9054684   -2.6069395    2138.4154  0.081074286  0.081456464            3 
 2199000   0.90157016   -2.6155286    2125.8839  0.080562523  0.081440595            5 
 2200000   0.89091465   -2.6177844    2128.3726  0.080620174    0.0814246            2 
 2201000   0.89566479   -2.5938314    2129.8421  0.080639181  0.081408501            3 
 2202000   0.88661755    -2.591442    2132.2392  0.080693281  0.081392369            4 
 2203000   0.90388818   -2.6327952    2125.8856  0.080416311  0.081375987            5 
 2204000   0.90995252    -2.596517    2130.4464  0.080552269  0.081359735            2 
 2205000   0.90321658   -2.6170932    2133.2729  0.080622559  0.081343293            2 
 2206000    0.8823501   -2.6067751     2129.888  0.080458143  0.081327031            3 
 2207000   0.88919895   -2.5748317    2132.3726  0.080515504  0.081310786            2 
 2208000   0.89144631   -2.5526931     2144.526  0.080937728  0.081294656            3 
 2209000   0.90602272   -2.5785239    2131.2118  0.080398816  0.081278594            8 
 2210000   0.89761799   -2.6060008    2130.2764  0.080327166   0.08126234            2 
 2211000   0.88950455   -2.6080551    2134.5067  0.080450273  0.081246105            2 
 2212000   0.91609533   -2.6037936    2149.4941  0.080978529  0.081230116            2 
 2213000     0.891874   -2.5899554    2134.9462   0.08039412  0.081214333            3 
 2214000   0.89972331   -2.5835044    2140.6553  0.080572692  0.081198462            3 
 2215000   0.90507432    -2.576056    2133.8893  0.080281766  0.081182285            2 
 2216000   0.88347128   -2.5979629    2143.2053  0.080595867  0.081166405            3 
 2217000     0.873929    -2.600752    2141.5728   0.08049815  0.081150141            3 
 2218000   0.90361255   -2.5947318    2152.6565  0.080878289  0.081134215            4 
 2219000   0.91198363   -2.6183065    2138.0148   0.08029198  0.081117893            4 
 2220000   0.91167926   -2.6106914    2147.6667  0.080618119  0.081101779            2 
 2221000   0.89992104    -2.603939    2143.2775  0.080417137  0.081085941            3 
 2222000   0.91974534    -2.570726    2148.1231  0.080562674  0.081070143            2 
 2223000   0.89927939   -2.5932655    2141.7152  0.080286219   0.08105419            5 
 2224000   0.89999959   -2.6157441    2142.4003   0.08027579  0.081038113            3 
 2225000   0.87993649   -2.5953283    2150.2233  0.080532708  0.081021874            2 
 2226000   0.89816281   -2.6056344    2146.3671  0.080352166  0.081005853            2 
 2227000   0.90613573   -2.5931107    2142.8002  0.080182613  0.080989512            5 
 2228000   0.90294379   -2.5972259    2150.4302  0.080432008  0.080973472            3 
 2229000   0.90898055   -2.5939667    2145.5489  0.080213433  0.080957281            1 
 2230000   0.90719188   -2.6228807    2149.4874  0.080324643  0.080941021            4 
 2231000   0.89034216   -2.6027173    2136.7143  0.079811531  0.080924785            2 
 2232000   0.88384103   -2.6215667    2144.8886  0.080080965  0.080908546            2 
 2233000   0.87512763   -2.6072209    2145.2353  0.080058043  0.080892312            2 
 2234000    0.9021599   -2.5797742    2152.8353  0.080305702  0.080876133            2 
 2235000   0.89421615   -2.6152936    2152.1204  0.080243119  0.080859847            4 
 2236000   0.89674813   -2.6186853    2151.5049  0.080184293  0.080843437            7 
 2237000   0.89092498   -2.6004938    2150.0208  0.080093161  0.080827333            2 
 2238000   0.89372767   -2.6104016    2153.8903  0.080201456  0.080811206            3 
 2239000   0.87752003   -2.6312989    2157.5382  0.080301406  0.080795176            4 
 2240000   0.89356936   -2.6135407    2154.1165  0.080138264  0.080779125            2 
 2241000   0.90241733   -2.6112172    2155.3788  0.080149441  0.080763106            2 
 2242000   0.89060729   -2.6372583    2156.8317  0.080167697  0.080747075            3 
 2243000   0.89223554   -2.5754669    2163.3304  0.080373399  0.080731433            3 
 2244000   0.89550329   -2.6266179    2162.6986  0.080314118  0.080715629            4 
 2245000   0.90688319   -2.6154643    2162.6532  0.080276658   0.08070001            3 
 2246000   0.91218394   -2.6337441    2158.7283  0.080095293  0.080684304            3 
 2247000   0.89185461   -2.6210465     2152.488  0.079828214  0.080668753            9 
 2248000   0.89510153   -2.5870682    2156.6502  0.079946998  0.080653202            3 
 2249000   0.89202413   -2.6232538    2159.7748  0.080027226  0.080637591            2 
 2250000    0.8678999   -2.6425059    2160.1456  0.080005394  0.080622003            2 
 2251000   0.90215199   -2.5985154    2159.4834  0.079945336  0.080606462            3 
 2252000   0.91513779   -2.6132213    2165.6824  0.080139225   0.08059118            5 
 2253000    0.8905719   -2.5705676    2172.2875  0.080347963  0.080576361            2 
 2254000   0.89356628   -2.6078771    2153.9186  0.079633194  0.080560982            1 
 2255000   0.88728233   -2.6034694    2172.3478  0.080278927  0.080545607            4 
 2256000    0.9033661   -2.5880861    2169.5297  0.080139248  0.080530183            3 
 2257000     0.888942     -2.61148    2171.1561  0.080163789  0.080515356            6 
 2258000   0.88451667   -2.6191699    2171.5532  0.080142945  0.080499903            6 
 2259000   0.90287315   -2.6198397    2172.8895  0.080156763   0.08048466            3 
 2260000   0.88385345   -2.6086035    2172.0154  0.080089062  0.080469135            4 
 2261000   0.90104478    -2.629226    2167.2906  0.079879501  0.080453817            3 
 2262000   0.88721949   -2.5992151    2165.9355  0.079794263  0.080438157            5 
 2263000   0.88296968   -2.6031019    2172.0924  0.079985728  0.080422888            4 
 2264000   0.89532389   -2.6121428    2180.2768  0.080251648  0.080407174            3 
 2265000   0.89177212   -2.6232612    2165.5471  0.079674286  0.080391603            3 
 2266000   0.88956467   -2.6212465    2169.4258  0.079781765  0.080376053            1 
 2267000   0.86559206   -2.6279752    2175.3109  0.079962907  0.080360595            3 
 2268000   0.87991256   -2.6207696    2170.7197  0.079758953  0.080345182            3 
 2269000   0.87521914   -2.6230187    2171.7345  0.079761072  0.080329812            3 
 2270000   0.87971954   -2.6268822    2176.1989  0.079889826  0.080314137            3 
 2271000   0.89307836   -2.6212251    2175.0435  0.079812253  0.080298834            3 
 2272000   0.89673974   -2.6038695    2176.4642  0.079829233  0.080283343            2 
 2273000   0.88702464   -2.6148208    2174.5077  0.079722381  0.080267784            5 
 2274000   0.89117604   -2.6176454    2179.6075  0.079874212  0.080252194            4 
 2275000   0.90937728   -2.6164977    2182.6705  0.079951299  0.080236806            2 
 2276000   0.89139648   -2.6144481    2178.0391  0.079746598  0.080221352            2 
 2277000   0.87588136   -2.5981026    2181.0774   0.07982277  0.080206072            4 
 2278000   0.86428873   -2.6320177    2181.2965  0.079795746  0.080190829            6 
 2279000   0.90655398   -2.6064029    2177.9141  0.079637053  0.080175322            5 
 2280000   0.90037331   -2.6428194    2176.4234   0.07954764  0.080159753            2 
 2281000   0.88407095    -2.605691    2182.2286  0.079724849  0.080144481            2 
 2282000   0.88521976   -2.6460947    2184.7978  0.079783736  0.080128948            3 
 2283000   0.90998537   -2.6037916    2181.4779  0.079627608   0.08011335            3 
 2284000   0.87985954   -2.6033366    2180.6437  0.079562305  0.080097824            5 
 2285000   0.87185607   -2.6262579    2179.6418  0.079490949  0.080082512            5 
 2286000    0.8965281   -2.6123391    2186.2172  0.079695874  0.080066777            3 
 2287000   0.86899508   -2.6115607    2185.7594  0.079644343  0.080051457            4 
 2288000   0.89491784   -2.6220425     2173.993  0.079180979  0.080036049            1 
 2289000   0.87208743   -2.6213015    2179.7488  0.079355933  0.080020545            2 
 2290000   0.88402694   -2.5962188    2185.7592      0.07954  0.080005201            4 
 2291000   0.89186374   -2.6392467    2179.3419  0.079271857  0.079989775            5 
 2292000   0.90028233   -2.6476035    2178.4808  0.079205964  0.079974205            3 
 2293000   0.88944853   -2.6127476    2186.5298  0.079463943  0.079958566            1 
 2294000   0.87608264   -2.6154707    2199.8343  0.079912608  0.079943028            6 
 2295000   0.88315492   -2.6289114    2191.4426  0.079573078  0.079927394            5 
 2296000   0.87793413   -2.6288373    2184.9397  0.079302397   0.07991197            4 
 2297000   0.89790742   -2.6040665    2194.6195  0.079619051  0.079896591            2 
 2298000   0.87842016   -2.5934702    2198.1701   0.07971316   0.07988137            2 
 2299000   0.88016599   -2.6288373    2183.4697  0.079145632  0.079865719            3 
 2300000   0.86772453   -2.5819846    2195.1933  0.079535989  0.079849942            4 
 2301000   0.87466385   -2.6308392     2191.912  0.079382587   0.07983451            6 
 2302000   0.87308128   -2.6150894    2193.0862  0.079390609  0.079818956            1 
 2303000   0.90042679   -2.6121484     2187.229  0.079144196  0.079803346            3 
 2304000   0.88711395   -2.6279767    2192.1762  0.079288782  0.079787527            5 
 2305000   0.88579641   -2.6163533    2194.5839   0.07934143   0.07977171            3 
 2306000   0.85999482   -2.6009468    2186.5086  0.079015198  0.079755946            2 
 2307000   0.89934836   -2.6593162    2187.0006   0.07899872  0.079740273            3 
 2308000   0.88230329   -2.6030752      2185.84  0.078922587  0.079724482            2 
 2309000   0.87985874   -2.6195486    2186.7006  0.078919467  0.079708484            3 
 2310000   0.87982536   -2.6074495    2196.0341   0.07922201  0.079692622            2 
 2311000   0.86859086    -2.635947    2190.7335  0.078996591  0.079676765            3 
 2312000   0.89192939   -2.5956636    2197.6936  0.079213293  0.079660728            5 
 2313000   0.85637707    -2.611727    2201.0338  0.079299386  0.079644723            4 
 2314000   0.88368316   -2.6014419    2193.9206  0.079008954   0.07962887            3 
 2315000   0.88473834   -2.6172409    2192.9823  0.078941046  0.079613097            4 
 2316000   0.89577638   -2.6189896    2191.0797  0.078838504   0.07959723            3 
 2317000   0.88436299    -2.611518    2207.5808  0.079397958  0.079581504            7 
 2318000   0.88066257   -2.6189046    2195.7152  0.078937131   0.07956602            4 
 2319000   0.87318812   -2.6105495    2194.6613  0.078865219  0.079550336            3 
 2320000   0.86254948   -2.6127545    2201.2366  0.079067406  0.079534861            2 
 2321000   0.87516953   -2.6193315    2201.5015  0.079042852  0.079519332            3 
 2322000    0.8944337   -2.6316537    2201.2602  0.079000151  0.079503573            5 
 2323000   0.87084881   -2.6271742    2200.5875  0.078942011  0.079487894            3 
 2324000   0.89137712   -2.6093955    2201.7079   0.07894822  0.079472469            4 
 2325000    0.8931993   -2.6372921    2203.6044  0.078982236  0.079456837            2 
 2326000   0.90480104   -2.6141118    2195.1885  0.078646765  0.079441057            3 
 2327000   0.88060894   -2.6503295    2205.7793   0.07899224  0.079425599            3 
 2328000   0.89416827   -2.6372113    2205.4695  0.078947219  0.079409778            3 
 2329000    0.8731565   -2.6215065    2205.7172  0.078922184  0.079393964            8 
 2330000    0.8887578   -2.6191035    2198.0102  0.078612667  0.079378543            4 
 2331000   0.89532284   -2.6272659    2204.6046  0.078814695  0.079363077            3 
 2332000    0.8838176   -2.6086179    2207.2539  0.078875568  0.079347495            3 
 2333000   0.88327102   -2.6110803    2212.0691  0.079013755  0.079331917            3 
 2334000   0.89000478    -2.635372    2209.6656  0.078894087  0.079316524            2 
 2335000   0.85716418   -2.6140787    2220.2237  0.079237106  0.079301128            3 
 2336000   0.89052186   -2.6234664    2207.1877  0.078738145  0.079285826            2 
 2337000   0.90875205   -2.6181627     2211.767  0.078867745   0.07927057            4 
 2338000   0.87697113   -2.6370564    2211.8849  0.078838213  0.079255229            2 
 2339000   0.86587725   -2.6294143    2213.6028  0.078865711  0.079239964            3 
 2340000    0.8796374   -2.6250985    2222.7622  0.079158199  0.079224713            2 
 2341000   0.87237307   -2.6304918    2210.2097   0.07867755  0.079209498            3 
 2342000   0.87388993   -2.6069412    2212.9461  0.078741321  0.079194228            4 
 2343000   0.86985917   -2.6240124    2215.8052  0.078809404  0.079178725            5 
 2344000   0.89034291     -2.63328    2211.3761   0.07861832  0.079163334            3 
 2345000   0.87845735    -2.635734    2215.9821  0.078748477  0.079147961            3 
 2346000   0.86770286      -2.5927    2216.6198  0.078737559  0.079132792            2 
 2347000   0.88705217    -2.637262    2218.4466  0.078768875  0.079117632            2 
 2348000   0.86890283   -2.6362773    2218.2842  0.078729566  0.079102374            5 
 2349000   0.86254916   -2.6243045    2226.8137  0.078998642  0.079087341            3 
 2350000   0.89058331   -2.6311145    2212.2012  0.078446852  0.079072146            2 
 2351000   0.88738525   -2.6278713    2218.0176   0.07861965  0.079056676            6 
 2352000   0.84946628    -2.634373    2214.9919  0.078479022  0.079041425            2 
 2353000   0.85690979   -2.6382373    2224.1747  0.078770886  0.079026419            5 
 2354000   0.89374373   -2.6432779    2222.5921  0.078681396   0.07901118            3 
 2355000   0.88414645   -2.6239299    2230.3065  0.078920967  0.078995965            2 
 2356000   0.87428435   -2.6226554    2213.9639  0.078309418  0.078980586            3 
 2357000   0.86062818   -2.6215134     2228.843  0.078802254  0.078965364            3 
 2358000   0.86041813   -2.6346155    2221.8463  0.078521569  0.078950185            4 
 2359000    0.8755432    -2.650771    2214.5746  0.078231405  0.078934981            7 
 2360000   0.87095927   -2.6336169     2219.687  0.078378779  0.078919912            7 
 2361000   0.88010856   -2.6441501     2211.343  0.078051074  0.078905006            1 
 2362000   0.87735137   -2.6556795    2228.7821  0.078633294  0.078889736            2 
 2363000   0.88461267   -2.6279985    2232.1158  0.078717582  0.078874694            2 
 2364000   0.89032135   -2.6302207    2223.0191  0.078363619  0.078859656            2 
 2365000   0.86334086   -2.6304583    2232.8546  0.078677047  0.078844699            2 
 2366000   0.86257287   -2.6397535    2239.8643  0.078890683  0.078829969            6 
 2367000   0.89369322    -2.644088    2230.9313  0.078542856  0.078815119            3 
 2368000   0.85490293   -2.6336292    2240.3073  0.078839645  0.078800024            2 
 2369000   0.86650403   -2.6347461     2230.995  0.078478788  0.078785211            3 
 2370000   0.87501183   -2.6073155    2241.7277  0.078823057  0.078770216            4 
 2371000   0.88785363   -2.6530124    2230.9167  0.078409837  0.078755242            3 
 2372000    0.8722052   -2.6468384    2235.1038  0.078523882  0.078740347            2 
 2373000   0.86308169   -2.6648504    2243.8973  0.078799595  0.078725411            4 
 2374000   0.88811829   -2.6069155    2238.0484  0.078561093  0.078710768            3 
 2375000   0.88192214   -2.6475329    2241.4352  0.078646849   0.07869617            3 
 2376000   0.88101904   -2.6299829    2237.8815  0.078489111  0.078681375            3 
 2377000   0.87774592   -2.6404542    2241.4276  0.078580409  0.078666589            3 
 2378000    0.8721404    -2.630118    2234.0941  0.078290374  0.078652015            2 
 2379000   0.85973538   -2.6289454    2238.5197  0.078412487  0.078637243            3 
 2380000   0.87311918   -2.6352212    2241.6418  0.078488859  0.078622445            2 
 2381000   0.88075801    -2.647912     2241.403  0.078447535  0.078607687            3 
 2382000   0.86959334   -2.5932753    2244.7389  0.078531309  0.078592898            3 
 2383000   0.89580564   -2.6330616    2246.8635  0.078572651   0.07857805            2 
 2384000   0.87378201   -2.6240624    2244.6445  0.078462126  0.078563241            2 
 2385000    0.8573825   -2.6722047    2250.2678  0.078625709  0.078548358            4 
 2386000   0.89452962   -2.6216626    2245.3699  0.078421692   0.07853344            2 
 2387000   0.86541505   -2.6230308    2236.5341  0.078080369  0.078518543            4 
 2388000   0.87998857   -2.6200213    2246.1359  0.078382744  0.078503504            2 
 2389000   0.86775316   -2.6330619    2239.2241  0.078108835  0.078488549            3 
 2390000   0.87706396   -2.6326228    2240.6278  0.078125099  0.078473283            4 
 2391000   0.86138699   -2.6334059    2243.6555  0.078197947  0.078458141            3 
 2392000   0.85782416   -2.6273985    2246.7038  0.078271455  0.078442966            5 
 2393000   0.85551806   -2.6215432    2239.4368  0.077985682  0.078427616            3 
 2394000    0.8682227   -2.6367448    2242.2054  0.078049477  0.078412527            2 
 2395000   0.86408788    -2.658335    2243.4209  0.078059181  0.078397513            2 
 2396000   0.87707841   -2.6228218    2243.5028  0.078029452  0.078382384            2 
 2397000   0.86489594   -2.6177007    2247.7927  0.078146041    0.0783671            3 
 2398000   0.87509685   -2.6411426    2241.4496  0.077893022  0.078351765            4 
 2399000    0.8633554   -2.6560055    2247.5586   0.07807276  0.078336622            2 
 2400000   0.86744091   -2.6183892    2246.1396  0.077990958  0.078321566            6 
 2401000     0.875293   -2.6139598    2248.6222  0.078044642  0.078306424            3 
 2402000   0.87302786   -2.6556804    2248.7845  0.078017781  0.078291229            5 
 2403000   0.86944737   -2.6194921    2251.3719  0.078075041  0.078276081            2 
 2404000   0.86681001   -2.6381597    2246.9312  0.077888628  0.078261112            2 
 2405000   0.87260915   -2.6580729    2249.0381  0.077929248   0.07824594            3 
 2406000   0.86553311   -2.6406001    2243.1741  0.077693756  0.078230814            2 
 2407000   0.87123231   -2.6617776     2246.619  0.077780743   0.07821537            3 
 2408000   0.85918267   -2.6413913     2252.775  0.077961484  0.078200097            5 
 2409000   0.87275934   -2.6615143    2249.2906  0.077808587  0.078184997            2 
 2410000   0.87125772   -2.6392207     2249.268   0.07777552  0.078169686            5 
 2411000   0.87595962    -2.631439    2251.0976  0.077806497  0.078154683            3 
 2412000    0.8497578   -2.6382877    2254.4468  0.077889953  0.078139409            2 
 2413000   0.87243861   -2.6468679    2255.2605  0.077885775  0.078124115            2 
 2414000   0.85841383   -2.6633697    2242.4873  0.077412568  0.078108785            2 
 2415000   0.86112727   -2.6589506    2252.2272  0.077716603  0.078093228            3 
 2416000   0.86559236   -2.6605878     2246.755   0.07749569  0.078078082            4 
 2417000   0.85523776   -2.6583386    2255.2973  0.077758149  0.078062856            3 
 2418000   0.85946487   -2.6535426    2256.7851  0.077777264  0.078047688            4 
 2419000   0.87024427   -2.6454344    2250.1874  0.077517825  0.078032381            5 
 2420000   0.86297393   -2.6362046    2252.6884  0.077571913  0.078016899            3 
 2421000   0.87310945   -2.6284289    2270.9762  0.078169359  0.078001813            2 
 2422000   0.87305381   -2.6429762    2254.3429  0.077564783   0.07798677            3 
 2423000   0.86214089   -2.6302866    2263.2966  0.077840713  0.077971632            4 
 2424000   0.87601801   -2.6112373    2266.3154  0.077912383  0.077956508            2 
 2425000   0.85582178   -2.6296493    2262.8064  0.077759671   0.07794168            3 
 2426000   0.86588541   -2.6211478    2262.8356  0.077728619  0.077926733            4 
 2427000   0.86860866   -2.6403892    2257.5213  0.077514121  0.077911591            3 
 2428000   0.85556766   -2.6503396     2255.795  0.077422949  0.077896283            6 
 2429000   0.84389558   -2.6519246    2267.2993  0.077785758  0.077881294            4 
 2430000   0.86776331   -2.6489634    2262.2908  0.077581989  0.077866246            3 
 2431000   0.87787085   -2.6207005    2266.7502  0.077702942  0.077851318            2 
 2432000   0.86612693   -2.6528072    2262.7753  0.077534788  0.077836347            2 
 2433000   0.85953681   -2.6251583    2274.7984  0.077914729  0.077821302            4 
 2434000   0.85143587   -2.6434783     2269.189  0.077690668  0.077806577            4 
 2435000   0.86169089   -2.6583965    2268.5228  0.077635962  0.077791855            1 
 2436000   0.86570752   -2.6449648    2265.0389  0.077484911  0.077777048            2 
 2437000   0.86552945   -2.6408989     2270.828  0.077651075  0.077762176            4 
 2438000    0.8485197   -2.6426445     2273.284  0.077703171  0.077747498            5 
 2439000   0.84755868   -2.6245204    2270.2462   0.07756752  0.077733009            7 
 2440000   0.86784318     -2.65107    2267.7181  0.077449389  0.077718314            7 
 2441000   0.86433772   -2.6829789    2272.2928  0.077573836  0.077703535            2 
 2442000    0.8673209   -2.6454805    2277.9899  0.077736482  0.077688908            2 
 2443000    0.8714832   -2.6723037    2273.0759  0.077537043  0.077674042            2 
 2444000   0.87391855   -2.6602456    2272.4486  0.077483927  0.077659534            3 
 2445000   0.87194717   -2.6279649    2272.6328  0.077458513  0.077645085            2 
 2446000   0.83855658   -2.6615742    2274.3057  0.077483842   0.07763034            4 
 2447000   0.86220314   -2.6355781    2281.2036  0.077687085  0.077615778            3 
 2448000   0.85759402   -2.6359607    2275.6686  0.077466931   0.07760115            2 
 2449000   0.85389413   -2.6251294    2286.3099  0.077797397  0.077586843            1 
 2450000   0.86447453   -2.6505223    2280.2911  0.077560923  0.077572147            4 
 2451000   0.86132801   -2.6477237    2282.1344  0.077591948  0.077557261            3 
 2452000   0.84798109   -2.6369203    2279.4448  0.077468897  0.077542562            1 
 2453000   0.86732418   -2.6554041    2271.0565  0.077152349   0.07752766            9 
 2454000   0.84739159   -2.6284755    2275.1806  0.077260956  0.077512998            2 
 2455000   0.85565181   -2.6864704    2283.6472  0.077516877  0.077498313            4 
 2456000    0.8508599   -2.6618432    2284.2522  0.077505843  0.077483602            1 
 2457000   0.86303495   -2.6615265    2280.9748  0.077363141  0.077469093            2 
 2458000   0.85415465   -2.6358851     2287.659  0.077558279  0.077454736            3 
 2459000    0.8386621   -2.6464425    2279.4995  0.077250219  0.077440189            3 
 2460000   0.86263976   -2.6537076    2287.8954  0.077503232  0.077425721            6 
 2461000   0.84957124   -2.6390697     2294.422  0.077692739  0.077411564            5 
 2462000   0.87216597   -2.6447125     2290.074  0.077514011  0.077397192            5 
 2463000   0.84998588   -2.6751361    2282.5438  0.077227764  0.077382914            6 
 2464000   0.86113055   -2.6570934    2284.1226  0.077249816  0.077368561            7 
 2465000   0.87209843   -2.6445921    2287.2076  0.077322773  0.077354368            4 
 2466000    0.8658214   -2.6391231      2288.91  0.077348944  0.077340268            2 
 2467000   0.86207702   -2.6607609    2295.0081  0.077523581  0.077326022            3 
 2468000   0.86449851   -2.6598439    2294.6617  0.077480473  0.077311559            3 
 2469000    0.8559775   -2.6483382    2305.0466  0.077799602  0.077297184            4 
 2470000   0.86438267   -2.6624789    2286.7587  0.077151103  0.077282684            4 
 2471000   0.85179589   -2.6468517    2296.9465   0.07746346  0.077268629            4 
 2472000   0.85448214   -2.6479446    2289.7984  0.077191155  0.077254273            3 
 2473000   0.86028455   -2.6453728    2299.6165  0.077490783  0.077239839            4 
 2474000   0.88444269   -2.6627674    2299.3403  0.077450158  0.077225677            4 
 2475000   0.86971328    -2.656497    2302.3205  0.077519209  0.077211629            4 
 2476000   0.85606494   -2.6775661    2294.2523  0.077216352  0.077197458            3 
 2477000   0.85249344   -2.6469944    2293.4465   0.07715807  0.077183284            2 
 2478000   0.86734945   -2.6380327    2295.1271  0.077183452  0.077169035            2 
 2479000   0.83884168   -2.6559859    2291.2681  0.077022594  0.077154576            3 
 2480000   0.85993274   -2.6301526    2303.0897  0.077388767   0.07714022            7 
 2481000   0.86495109   -2.6652265    2293.5196  0.077036128  0.077125806            3 
 2482000   0.85335247   -2.6466359    2301.9173  0.077287044  0.077111693            2 
 2483000    0.8631422   -2.6518603    2301.6815  0.077248004  0.077097589            2 
 2484000   0.84568213   -2.6710989    2296.1902  0.077032682  0.077083196            2 
 2485000   0.86669725   -2.6119712    2298.0057  0.077062566  0.077068859            3 
 2486000   0.86346987   -2.6399003    2293.0022  0.076863845  0.077054522            2 
 2487000   0.88191736    -2.614338    2304.3681  0.077213782  0.077040288            4 
 2488000   0.87105784   -2.6723697    2288.5792  0.076653911  0.077026175            4 
 2489000   0.85562828   -2.6468816    2302.5221  0.077089933  0.077011749            3 
 2490000   0.85931983   -2.6560993    2304.8758  0.077137745  0.076997443            2 
 2491000   0.86161322   -2.6873014    2302.6771  0.077033224  0.076982963            5 
 2492000   0.87060429   -2.6503189    2304.2737  0.077055702  0.076968649            5 
 2493000   0.84461743   -2.6336295    2299.8233  0.076876031  0.076954483            3 
 2494000   0.85862394   -2.6638357    2308.8452  0.077146657  0.076940002            6 
 2495000   0.86795776   -2.6507735    2307.0586  0.077056066  0.076925643            1 
 2496000   0.83153947   -2.6449336    2312.4031   0.07720363  0.076911277            2 
 2497000   0.86665192   -2.6777676    2303.6016  0.076878975  0.076897035            4 
 2498000   0.83298814   -2.6807621    2305.8431  0.076922974  0.076882766            3 
 2499000    0.8668901   -2.6672242    2310.3398  0.077042144   0.07686857            4 
 2500000   0.84601987   -2.6458054    2301.8073  0.076726911  0.076854377            1 
 2501000    0.8540035   -2.6738639    2318.2486  0.077244057  0.076840182            3 
 2502000   0.83952759   -2.6677826    2320.5412  0.077289541   0.07682609            3 
 2503000   0.87402575   -2.6735921    2306.3646  0.076786675  0.076812165            4 
 2504000   0.83735619   -2.6811334    2307.7357  0.076801642  0.076798167            5 
 2505000   0.86580972   -2.6549487    2313.1171  0.076950004  0.076784216            4 
 2506000   0.85821287   -2.6538176    2322.4528  0.077229743  0.076770161            2 
 2507000   0.84732545   -2.6400538    2304.9061  0.076615678  0.076756127            4 
 2508000   0.84076398   -2.6719917    2313.5617   0.07687273  0.076742043            5 
 2509000   0.85262512   -2.6451711    2317.5097   0.07697322  0.076728024            3 
 2510000   0.84729288   -2.6506364    2316.9987  0.076925586  0.076713982            4 
 2511000   0.86297975   -2.6519052    2319.9658  0.076993421  0.076700188            5 
 2512000    0.8573956     -2.65989    2320.5586  0.076982438  0.076686311            2 
 2513000   0.85604679   -2.6715095    2322.7975  0.077026046  0.076672522            2 
 2514000   0.85811708   -2.6149415    2326.6867  0.077124328  0.076658479            3 
 2515000   0.85790031   -2.6595874    2327.4699  0.077119613  0.076644661            4 
 2516000   0.85504462   -2.6698454    2320.3651  0.076853641  0.076630884            3 
 2517000   0.87176828   -2.6666637    2321.1429  0.076848859  0.076617214            4 
 2518000   0.83746537    -2.650023    2318.1366  0.076718845  0.076603442            3 
 2519000   0.84859392   -2.6808217    2319.3727  0.076729281  0.076589546            3 
 2520000   0.83628182   -2.6886341    2329.1613  0.077022528  0.076575842            2 
 2521000   0.84797341   -2.6723914    2316.8193  0.076584004  0.076561803            2 
 2522000   0.85607822   -2.6366519    2325.9515  0.076855388  0.076547897            3 
 2523000   0.84790844   -2.6741582     2325.665  0.076815463  0.076534186            1 
 2524000    0.8507067   -2.6855072    2317.9363  0.076529856  0.076520291            2 
 2525000   0.85648951   -2.6647268    2322.0821  0.076636374  0.076506427            3 
 2526000   0.83361453   -2.6763418     2324.226  0.076676761   0.07649248            3 
 2527000   0.84700118   -2.6792045    2327.7066    0.0767612  0.076478608            7 
 2528000    0.8570428   -2.6717051    2330.4158  0.076820142  0.076464896            5 
 2529000   0.85127449   -2.6691368    2331.6723  0.076831168  0.076451387            7 
 2530000   0.86609216    -2.683859    2327.7995  0.076673238  0.076437536            2 
 2531000   0.88117162   -2.6626394    2331.9357  0.076779128  0.076423628            2 
 2532000    0.8297753    -2.667589    2332.6969  0.076773859  0.076409904            4 
 2533000   0.83812411   -2.6503551    2324.9655  0.076489193  0.076396218            3 
 2534000   0.85139121   -2.6894092    2332.5851  0.076709585  0.076382594            2 
 2535000   0.86153293   -2.6948208    2332.0572  0.076661971  0.076368806            3 
 2536000   0.84875723   -2.6532781    2334.0665  0.076697768  0.076355093            4 
 2537000   0.84548638   -2.6707376    2343.1348  0.076965404  0.076341681            1 
 2538000   0.83005364   -2.6630039    2333.0093  0.076602617  0.076328168            3 
 2539000   0.83413741   -2.6698143    2340.2461  0.076809968  0.076314694            4 
 2540000   0.85501163   -2.6493601    2336.5599  0.076658788  0.076301265            2 
 2541000    0.8332578   -2.6751318    2336.2274  0.076617718  0.076287699            5 
 2542000   0.83428649   -2.6464728    2344.8395  0.076869903  0.076274319            5 
 2543000   0.85234545   -2.6950988    2350.4019  0.077021951  0.076260871            3 
 2544000   0.84378709   -2.6745577    2344.2383  0.076789776  0.076247624            3 
 2545000   0.86009231   -2.6619371    2339.2946  0.076597728  0.076234391            2 
 2546000   0.84471631    -2.678418    2342.9633  0.076687722   0.07622105            3 
 2547000   0.84167358   -2.6505208    2350.3177  0.076898237  0.076207669            3 
 2548000   0.84895605   -2.6734145    2334.6528  0.076355731  0.076194215            3 
 2549000   0.84037372   -2.6824018    2345.1528  0.076669047  0.076180831            3 
 2550000   0.85017906   -2.6425264    2351.2592  0.076838536  0.076167312            3 
 2551000   0.84033257   -2.6748811    2347.4727  0.076684723  0.076153935            2 
 2552000   0.86214469   -2.6845888    2348.1008  0.076675184  0.076140608            2 
 2553000   0.84271186   -2.6469768    2348.0641   0.07664395  0.076127357            3 
 2554000   0.84423102   -2.6729747    2351.7709  0.076734888  0.076114097            4 
 2555000    0.8485144   -2.6510761    2354.3369  0.076788549  0.076100789            4 
 2556000   0.82763608   -2.6658159    2347.4238  0.076533117  0.076087464            6 
 2557000   0.83893072   -2.6479087    2344.6835  0.076413879  0.076074063            4 
 2558000    0.8615108   -2.6734382     2352.202  0.076628942  0.076060853            1 
 2559000   0.85148107   -2.6579857    2355.2829  0.076699325  0.076047703            3 
 2560000    0.8389026     -2.66515    2362.5471  0.076905831  0.076034548            3 
 2561000   0.81092721   -2.6840167    2349.8224  0.076461748  0.076021424            5 
 2562000   0.84633934    -2.697911    2343.2201  0.076217152  0.076008067            4 
 2563000    0.8496808   -2.6737221    2354.2425  0.076545796  0.075994736            2 
 2564000   0.84743792   -2.6720615    2359.5778  0.076689346  0.075981617            3 
 2565000   0.84934987   -2.6901713    2353.6194  0.076465869  0.075968353            2 
 2566000    0.8346997   -2.6687225    2355.3965  0.076493779   0.07595515            6 
 2567000    0.8436287   -2.6923573    2349.9407  0.076286869  0.075941836            3 
 2568000   0.83720059   -2.6833633    2355.9872  0.076453373  0.075928497            3 
 2569000   0.84245323   -2.6784325    2358.2197  0.076496032  0.075915206            3 
 2570000   0.83070379   -2.6812657    2354.2375  0.076337143  0.075901808            8 
 2571000   0.82093519   -2.6610545    2356.3995  0.076377527  0.075888672            2 
 2572000    0.8366362   -2.6645342    2352.8154  0.076231707  0.075875559            3 
 2573000   0.83792545    -2.706586    2352.9241  0.076205598  0.075862393            4 
 2574000   0.83603897   -2.6706267    2362.4778  0.076485296  0.075849117            3 
 2575000   0.83102862   -2.6765967    2357.8614  0.076306195   0.07583592            5 
 2576000   0.85161515   -2.6659159    2364.3891  0.076487743  0.075822612            3 
 2577000   0.84095997   -2.6539277    2358.5001  0.076267628    0.0758094            3 
 2578000   0.83530745    -2.644549    2363.7326  0.076407181   0.07579623            6 
 2579000   0.84217723   -2.6843615    2363.4907  0.076369739  0.075782993            3 
 2580000   0.83431648   -2.6624318    2369.5054  0.076534414  0.075769776            5 
 2581000   0.84328266   -2.6637231    2364.0089  0.076327293  0.075756676            5 
 2582000   0.82848876   -2.6569863    2369.9263  0.076488715  0.075743644            3 
 2583000   0.83243789   -2.7003148    2368.7367   0.07642072  0.075730695            2 
 2584000   0.83856015   -2.6864469    2359.3587   0.07608871   0.07571762            2 
 2585000   0.83157195   -2.6874804    2370.6638   0.07642372  0.075704604            2 
 2586000   0.84035712   -2.6643747     2366.811  0.076270011  0.075691707            2 
 2587000   0.83664374   -2.6441186    2373.0248  0.076440691  0.075678914            3 
 2588000   0.84425187   -2.6894997    2366.7015  0.076207544  0.075665891            2 
 2589000   0.86219854   -2.6676434    2364.1038  0.076094496  0.075652807            4 
 2590000   0.84512305   -2.6833326    2371.0228  0.076287735  0.075639853            5 
 2591000   0.83935764   -2.6594361    2367.9754  0.076160278  0.075626682            3 
 2592000   0.83335338   -2.6598227    2381.2021  0.076556136  0.075613743            1 
 2593000   0.84861778   -2.6696662    2374.3857  0.076307549  0.075600715            5 
 2594000   0.81590496   -2.6666175    2370.7662  0.076161853  0.075587691            3 
 2595000   0.82504014    -2.673457    2368.5335  0.076060805  0.075574643            2 
 2596000   0.84128126   -2.6622818    2372.8155  0.076168961  0.075561645            4 
 2597000   0.84605019   -2.6817712    2379.9584  0.076368835  0.075548567            1 
 2598000   0.83379456    -2.673731    2372.1207  0.076088038  0.075535665            3 
 2599000   0.82193484   -2.6877371    2375.7799   0.07617609  0.075522866            4 
 2600000   0.84387618    -2.670628    2373.0531  0.076059395  0.075509908            5 
 2601000    0.8331067   -2.6748515    2380.6008  0.076271972  0.075497074            2 
 2602000   0.84023255   -2.6720289    2380.3641  0.076235079  0.075484165            4 
 2603000   0.84711173    -2.683764    2373.7726  0.075994768  0.075471037            3 
 2604000   0.82539862   -2.6997062    2376.7823    0.0760619  0.075458058            3 
 2605000   0.85960688   -2.6737799    2371.3013  0.075857368   0.07544508            3 
 2606000   0.84655036   -2.6861857    2376.8833  0.076006756  0.075432046            4 
 2607000   0.83870628   -2.6855291    2374.5582  0.075903279   0.07541899            2 
 2608000    0.8403383   -2.6985409    2369.3809  0.075708746   0.07540582            2 
 2609000   0.84740872   -2.7001248    2372.4088  0.075776441  0.075392833            3 
 2610000   0.83074482   -2.6963164    2377.5268  0.075910819  0.075379654            3 
 2611000   0.84909679   -2.6622593    2382.6826  0.076046298  0.075366567            3 
 2612000    0.8536033   -2.7051524    2377.1498  0.075840663  0.075353619            7 
 2613000   0.83883295    -2.688994    2377.3108  0.075816774   0.07534072            4 
 2614000   0.82088667   -2.6756379    2375.3914  0.075726583  0.075327703            3 
 2615000    0.8615382   -2.6946991    2382.1539  0.075913125  0.075314719            1 
 2616000   0.82669509   -2.6872935    2377.5505  0.075737465  0.075301802            5 
 2617000   0.83280369   -2.6925474    2382.3491  0.075861328  0.075288827            3 
 2618000   0.84226171   -2.6965132    2381.0364  0.075790565  0.075275829            4 
 2619000   0.83949485   -2.6771683    2388.3417  0.075994071  0.075262804            7 
 2620000   0.82400035   -2.6893742    2394.0901  0.076147903  0.075249851            4 
 2621000   0.83047411   -2.6851796    2386.2459  0.075869449  0.075236897            4 
 2622000   0.83395737   -2.6712936     2385.266  0.075809369  0.075224028            4 
 2623000   0.85471902   -2.6736283    2392.5742  0.076012651  0.075211306            3 
 2624000   0.83304546   -2.6926652    2383.1923  0.075685731  0.075198531            2 
 2625000   0.81927325   -2.7024168    2385.1915  0.075720367  0.075185857            2 
 2626000   0.84365189     -2.69296    2380.6173  0.075546372  0.075172945            4 
 2627000   0.81077661   -2.6793526    2391.0356  0.075848104  0.075160027            3 
 2628000   0.82973247   -2.6968784    2379.2606   0.07544586  0.075147096            3 
 2629000   0.81877454   -2.6942031    2390.1824  0.075763357  0.075134163            2 
 2630000   0.84130159   -2.6989169    2389.9401  0.075726873    0.0751212            4 
 2631000   0.84548703   -2.6560362    2388.4668  0.075651424   0.07510835            2 
 2632000   0.81998277   -2.7125599     2378.663  0.075312278  0.075095381            3 
 2633000   0.82217305   -2.6787787    2392.1043  0.075709087  0.075082342            5 
 2634000   0.82676293   -2.6691323    2391.6505  0.075665988  0.075069311            4 
 2635000   0.82941997   -2.7024034    2384.5065  0.075411337  0.075056297            2 
 2636000   0.83794948    -2.703374    2388.5935  0.075511934  0.075043197            2 
 2637000    0.8166335   -2.6781254    2397.0074  0.075749193  0.075030202            4 
 2638000   0.83525676   -2.6833436    2393.9501  0.075623897   0.07501724            3 
 2639000   0.80985644   -2.6998189    2388.8563  0.075434392  0.075004061            2 
 2640000   0.81406629   -2.7032628    2379.8635  0.075121955  0.074990952            4 
 2641000   0.83041832   -2.7095897    2393.8297  0.075534195    0.0749779            2 
 2642000   0.81526888   -2.6830098    2389.6382  0.075373397  0.074964763            4 
 2643000   0.83306176   -2.6834978    2396.4682  0.075560228  0.074951463            2 
 2644000   0.82385071   -2.6942294    2392.6872  0.075412483   0.07493822            1 
 2645000   0.82345149   -2.6881034    2403.3979  0.075721422  0.074925117            6 
 2646000   0.83015031   -2.7287044    2393.8272  0.075391383  0.074911889            3 
 2647000   0.82739004   -2.6689349    2398.2533  0.075502245  0.074898678            4 
 2648000   0.85066992    -2.695631    2391.9229  0.075274513  0.074885582            2 
 2649000    0.8271823   -2.6947068    2399.0044   0.07546887  0.074872325            1 
 2650000   0.85724418   -2.7127754    2394.4961   0.07529862  0.074859158            5 
 2651000   0.81603875   -2.6872231    2402.5628  0.075523788  0.074845869            2 
 2652000   0.82339924   -2.6892825     2399.776  0.075407742  0.074832898            3 
 2653000   0.82881728   -2.7282402    2396.7591  0.075284554  0.074819774            3 
 2654000   0.83920078   -2.6869834    2398.8886  0.075323055  0.074806462            2 
 2655000   0.83489081    -2.714046     2394.163  0.075146361  0.074793209            4 
 2656000   0.80779691   -2.6533213    2400.3356  0.075311735  0.074780088            5 
 2657000   0.82566421   -2.7069548    2404.5197  0.075414619  0.074766986            5 
 2658000   0.83355319   -2.6687145    2399.6568  0.075233786  0.074753828            3 
 2659000   0.81641828   -2.6623446     2406.872  0.075431615  0.074740795            2 
 2660000   0.81955127    -2.703308    2401.4714  0.075234067  0.074727613            3 
 2661000   0.83025652    -2.682968    2400.9762  0.075190286   0.07471431            3 
 2662000   0.82086637     -2.69364    2399.9012  0.075128386  0.074701035            3 
 2663000   0.80297919   -2.6749869    2408.2133  0.075360287  0.074687649            3 
 2664000   0.82459408   -2.6895567    2396.5725  0.074967857  0.074674291            3 
 2665000   0.81903934   -2.6949639    2404.2481  0.075179741  0.074661004            3 
 2666000   0.81362391   -2.6971427    2394.5765  0.074849229  0.074647487            3 
 2667000   0.84475582   -2.6974055    2401.1615  0.075026918  0.074633856            3 
 2668000   0.84472447   -2.7120759    2409.1967  0.075249771  0.074620218            2 
 2669000   0.81509634   -2.6775661     2390.343  0.074632914  0.074606445            3 
 2670000   0.81268666   -2.6872101     2406.269  0.075102027  0.074592846            2 
 2671000   0.82172093   -2.6818716    2399.9507  0.074876784  0.074579284            5 
 2672000   0.81381915   -2.7064329    2403.4137  0.074956765  0.074565743            6 
 2673000   0.84451149   -2.6956396    2396.4507  0.074711644  0.074552169            5 
 2674000   0.82360659   -2.6920139    2406.3043  0.074990786  0.074538624            2 
 2675000   0.81952894   -2.6893947     2408.672  0.075036512  0.074525237            2 
 2676000   0.81569695   -2.7022222    2407.0529  0.074958049  0.074511699            3 
 2677000   0.81522667   -2.6916131    2406.7824  0.074921629  0.074498295            2 
 2678000   0.81280986   -2.7108886    2406.3213  0.074879303   0.07448473            2 
 2679000   0.83537586   -2.6958612    2397.9268  0.074590231  0.074471251            4 
 2680000   0.81435842   -2.7003141    2410.0397  0.074939046  0.074457728            3 
 2681000   0.83174998   -2.7077011    2419.3363  0.075200058  0.074444505            2 
 2682000   0.81397312   -2.6876083    2405.0634  0.074728543  0.074431397            3 
 2683000   0.82683727   -2.6809792     2419.157  0.075138433  0.074418088            5 
 2684000   0.81213069   -2.6932948    2414.6126  0.074969343  0.074404801            4 
 2685000   0.83100032   -2.6877716    2423.8785  0.075229004  0.074391681           10 
 2686000   0.81170061   -2.6877635    2413.7438  0.074886565  0.074378573            6 
 2687000   0.81741086   -2.7103196     2407.483  0.074664526  0.074365298            5 
 2688000   0.83236685   -2.6936169    2407.0953  0.074624729  0.074352035            2 
 2689000   0.80892102   -2.7042206    2407.5519  0.074611128  0.074338668            4 
 2690000   0.83198259   -2.7095958    2415.8863  0.074841584  0.074325318            3 
 2691000   0.79631477   -2.6928979    2415.9885  0.074816937  0.074311941            5 
 2692000   0.82328329    -2.705586    2414.5133  0.074743479   0.07429886            4 
 2693000   0.82625124   -2.7367538    2408.5368  0.074530782  0.074285702            3 
 2694000   0.83184143   -2.7035392    2427.8773  0.075101377  0.074272499            4 
 2695000    0.8066643   -2.6926901    2411.8712  0.074578577  0.074259466            8 
 2696000   0.82517982   -2.6932372    2423.5011  0.074910396  0.074246316           10 
 2697000   0.82686428   -2.7256805    2414.0308  0.074590001  0.074233141            5 
 2698000   0.81651479   -2.7069346    2419.7218  0.074738132  0.074220146            7 
 2699000   0.83025261    -2.683414    2419.2394  0.074695549   0.07420702            2 
 2700000   0.83678428   -2.6888915    2423.1034  0.074787141  0.074194124            2 
 2701000   0.83096088   -2.6875976    2429.1941  0.074947367  0.074181233            3 
 2702000   0.82374231   -2.6846378    2430.3609  0.074955615  0.074168271            1 
 2703000   0.81959843   -2.7078199    2425.3764  0.074774215  0.074155286            3 
 2704000   0.81067008   -2.7055095    2428.1595  0.074832331  0.074142283            5 
 2705000   0.81302558   -2.7092747    2413.2298  0.074344725  0.074129205            2 
 2706000    0.8232215   -2.7180231     2430.239  0.074841062  0.074116102            4 
 2707000   0.81144132   -2.6868631    2425.4024  0.074664524  0.074103004            3 
 2708000   0.80654599   -2.6974618    2421.6077  0.074520178  0.074090022            4 
 2709000   0.82831471   -2.6895914    2422.7532  0.074527908  0.074076873            3 
 2710000   0.82485776   -2.7059765    2424.1486  0.074543314   0.07406381            4 
 2711000   0.83467742   -2.6884181     2432.835  0.074782831  0.074050595            3 
 2712000   0.82762444    -2.682868    2423.4386  0.074466527   0.07403755            3 
 2713000   0.81449732   -2.6947837    2424.1516  0.074460977  0.074024535            2 
 2714000   0.81395149   -2.6946959    2423.6793   0.07441904  0.074011563            6 
 2715000   0.80684577   -2.7193211    2422.1781  0.074345553  0.073998431            3 
 2716000   0.81435558   -2.6989471    2434.3965  0.074693068  0.073985361           10 
 2717000   0.81521101   -2.6980215    2430.6136  0.074549553  0.073972346            4 
 2718000   0.80605792   -2.7162557    2435.9943  0.074687096  0.073959135            4 
 2719000   0.80710824   -2.7123197    2434.9331  0.074627101  0.073946054            2 
 2720000   0.80294731   -2.7152059     2429.759  0.074441145  0.073933005            3 
 2721000   0.82053415   -2.7023763    2433.3693  0.074524356  0.073920115            3 
 2722000   0.82536318   -2.7238806     2429.739  0.074385836  0.073907007            3 
 2723000   0.82244335   -2.7002421    2430.9616  0.074395935  0.073893815            2 
 2724000   0.83003611   -2.7063498    2435.2246  0.074499038  0.073880763            2 
 2725000   0.81270912   -2.7117396    2427.2897  0.074229043  0.073867683            4 
 2726000   0.82303807   -2.7058681    2437.5655  0.074515943  0.073854585            2 
 2727000   0.81024818   -2.7240685    2440.0547  0.074564685   0.07384152            3 
 2728000    0.8080134   -2.7206155     2431.957  0.074289986  0.073828458            5 
 2729000   0.81719659   -2.7009582    2441.3956  0.074550984  0.073815305            5 
 2730000   0.81079515   -2.6973125    2438.0574  0.074421777  0.073802232            4 
 2731000   0.80907139   -2.6932166    2438.4414  0.074406244  0.073789359            3 
 2732000    0.8290839   -2.7317274    2437.4093  0.074347527  0.073776593            3 
 2733000   0.81818117   -2.6958971     2425.676  0.073962557  0.073763457            3 
 2734000   0.83058969   -2.6934789    2435.5528  0.074236551  0.073750168            2 
 2735000   0.81392836   -2.7128391    2432.3563  0.074112015  0.073737128            3 
 2736000   0.81422885   -2.6896704    2439.6353  0.074306632  0.073724101            6 
 2737000   0.81431277   -2.7266941     2440.875  0.074317227   0.07371098            6 
 2738000    0.8165578   -2.7153082     2434.242  0.074088202  0.073697775            4 
 2739000   0.81601583   -2.7122232    2435.3421  0.074094624  0.073684479            5 
 2740000   0.81218588    -2.705553     2431.973  0.073965116  0.073671236            5 
 2741000   0.82502004   -2.7223102    2435.2834  0.074038775  0.073657946            3 
 2742000   0.80635578    -2.716309    2443.4863  0.074261071  0.073644585            6 
 2743000   0.81233117   -2.7101354    2436.1744  0.074011862  0.073631322            2 
 2744000   0.80895453   -2.7179082     2427.313  0.073715774   0.07361788            3 
 2745000   0.81971498   -2.7104799    2440.3077  0.074083414   0.07360444            4 
 2746000   0.81833843   -2.7207875    2443.1237  0.074141893  0.073591048            4 
 2747000   0.82041708   -2.6979604    2435.1227  0.073872186  0.073577704            3 
 2748000   0.81436955   -2.7059623    2437.8358  0.073927578  0.073564326            2 
 2749000   0.81495043   -2.7030267    2439.4223  0.073948777  0.073550827            2 
 2750000   0.81587855   -2.7072835    2447.3132  0.074161007  0.073537698            4 
 2751000   0.79651737   -2.7363096    2441.8805  0.073969482  0.073524441            3 
 2752000   0.81686738   -2.7124169     2443.653  0.073996275  0.073511068            5 
 2753000   0.82511068   -2.7063578    2443.2808  0.073958131  0.073497713            7 
 2754000   0.80600315    -2.710925    2442.4547  0.073906279  0.073484346            5 
 2755000   0.78958781   -2.7100003    2445.9917  0.073986441   0.07347059            8 
 2756000   0.81752209   -2.7199748    2428.6295  0.073434613  0.073457065            3 
 2757000   0.80575848    -2.713696    2440.4904  0.073766486  0.073443425            6 
 2758000   0.79823751   -2.6916156    2433.7281  0.073535417  0.073429736            6 
 2759000   0.79955568   -2.7172643    2447.5688   0.07392681  0.073415935            3 
 2760000   0.80018999   -2.6877811    2440.4736  0.073685798  0.073402243            2 
 2761000   0.82950366   -2.7150771    2437.3405  0.073564544  0.073388452            3 
 2762000   0.79485987   -2.7242163     2438.576  0.073575188  0.073374667            4 
 2763000   0.80951603   -2.7206896    2437.5769  0.073518424  0.073360914            3 
 2764000   0.82791475   -2.7093543    2444.2564   0.07369321  0.073347129            2 
 2765000   0.81937877   -2.7215996    2432.8163   0.07332177  0.073333171            4 
 2766000    0.7969731   -2.7022867    2433.0383   0.07330195  0.073319319            3 
 2767000    0.7961512    -2.737368    2426.0208  0.073064112  0.073305197            5 
 2768000   0.79916794   -2.7157668    2437.9625  0.073397233  0.073290937            3 
 2769000   0.81789907    -2.694935    2431.7624  0.073184135  0.073276734            7 
 2770000     0.808436   -2.7285346    2442.8479  0.073491214  0.073262651            5 
 2771000   0.81508419   -2.7045781    2440.4405  0.073392293  0.073248628            2 
 2772000   0.82555707   -2.7129366    2437.1872  0.073268015  0.073234706            2 
 2773000   0.79509669   -2.7384297    2437.4481  0.073249433  0.073220568            3 
 2774000   0.81364552    -2.710241    2434.1375  0.073123572  0.073206474            3 
 2775000   0.80207561   -2.7009321    2443.5576  0.073380109  0.073192353            3 
 2776000   0.82247628   -2.6873822    2442.7542  0.073329557  0.073178271            2 
 2777000   0.80234561   -2.7030723    2440.8522  0.073246076  0.073164212            3 
 2778000   0.81698884   -2.7191954    2445.8938  0.073370944   0.07315008            3 
 2779000   0.80340515   -2.7283344    2438.3634  0.073118729  0.073135907            3 
 2780000   0.81981513   -2.7173305    2445.0721  0.073293529  0.073121799            3 
 2781000   0.80922131   -2.7083393     2441.346   0.07315552  0.073107658            3 
 2782000   0.81543681   -2.7058828    2445.5309   0.07325458  0.073093566            3 
 2783000   0.82085455   -2.7099686    2436.6674  0.072962852  0.073079563            4 
 2784000   0.80058389   -2.7351768    2455.0455  0.073486756  0.073065509            3 
 2785000   0.79344869    -2.688953    2449.5387  0.073295591  0.073051186            2 
 2786000   0.81440544   -2.7435637     2436.201  0.072870334  0.073037006            3 
 2787000   0.79604041   -2.7220002    2441.0105  0.072987994    0.0730227            4 
 2788000   0.79649248   -2.7064565    2447.7378  0.073162895   0.07300847            3 
 2789000   0.80260822   -2.7171763    2443.6378  0.073014157  0.072994177            8 
 2790000   0.80897694   -2.7141488    2445.0678  0.073030698  0.072980088            2 
 2791000   0.82009394   -2.7066533    2441.8992  0.072909923  0.072965729            3 
 2792000   0.79567784   -2.7352874    2441.9542  0.072885451  0.072951669            5 
 2793000   0.80441935   -2.6880218    2444.9107   0.07294757  0.072937375            4 
 2794000   0.79278749   -2.7349765    2446.6319  0.072972796  0.072923154            1 
 2795000   0.78922053    -2.710544      2447.16  0.072962432  0.072908988            4 
 2796000   0.78582286   -2.7194069    2449.9515  0.073019538  0.072894986            7 
 2797000    0.8042281   -2.7514949    2448.6495  0.072954639   0.07288081            2 
 2798000   0.79899454   -2.7031658     2452.479  0.073042619  0.072866761            2 
 2799000    0.7876029   -2.7253931    2445.6128    0.0728121  0.072852661            3 
 2800000   0.79289701   -2.7267659    2452.2236  0.072982845  0.072838576            3 
 2801000   0.80128674   -2.7077008    2444.0486  0.072713572  0.072824369            3 
 2802000   0.80312897   -2.7114638    2454.3037  0.072992616  0.072810315           11 
 2803000   0.80852167   -2.6958167    2445.4725  0.072704021  0.072795996            4 
 2804000    0.8107941   -2.7105945    2461.7267  0.073161158  0.072781799            3 
 2805000   0.79929828   -2.7247283    2445.9205  0.072665493  0.072767666            3 
 2806000   0.79484118   -2.7234546    2445.8945  0.072638824  0.072753311            2 
 2807000    0.7913238   -2.7192054    2454.6943  0.072874192  0.072739356            4 
 2808000   0.79032177   -2.7121953     2451.726  0.072760148  0.072725264            3 
 2809000   0.79575591   -2.7350278    2453.8847  0.072798289  0.072711187            3 
 2810000   0.79964109   -2.7089772    2455.0029  0.072805543  0.072697099            3 
 2811000   0.79722337   -2.7318349     2457.682  0.072859067  0.072683161            4 
 2812000   0.81964135   -2.7144463    2452.5764  0.072681853  0.072669101            5 
 2813000   0.80266218    -2.743419    2451.1712  0.072614384  0.072654988            9 
 2814000   0.80506408    -2.730804    2459.0319  0.072821365  0.072640974            4 
 2815000   0.82614226   -2.7410791    2452.8414  0.072612237  0.072626742            4 
 2816000   0.79575599   -2.7309309    2452.3856  0.072572963   0.07261265            5 
 2817000    0.7795249   -2.7101887    2462.3167  0.072840985  0.072598748            3 
 2818000   0.80100721   -2.7126248    2459.3883   0.07272854  0.072584747            2 
 2819000   0.80166575   -2.7475813    2459.0346  0.072692285  0.072570624            2 
 2820000   0.78822037   -2.7278413    2454.9524  0.072545874  0.072556304            2 
 2821000   0.78921872   -2.7522837    2455.6826   0.07254173  0.072542085            3 
 2822000   0.80341647   -2.7233999    2466.7529  0.072842927  0.072528015            4 
 2823000   0.81245785   -2.7163241    2460.1001  0.072620736  0.072513893            8 
 2824000   0.81704084   -2.7329078    2462.1961  0.072656874    0.0724999            7 
 2825000   0.79492195   -2.7101649    2461.1942  0.072601598  0.072485785            3 
 2826000   0.80456752   -2.7316593    2457.8299  0.072476702  0.072471676            3 
 2827000   0.77722311   -2.7316848    2461.2201  0.072551001  0.072457705            6 
 2828000   0.81132091   -2.7283236    2458.3291  0.072440154  0.072443559            4 
 2829000   0.79703716   -2.7244165    2458.1234  0.072408489  0.072429436            3 
 2830000   0.79306252   -2.7357217    2461.4302  0.072480276  0.072415409            2 
 2831000   0.79864626   -2.7407231    2452.7378  0.072198806  0.072401274            3 
 2832000   0.80656622   -2.7126824    2460.3518  0.072397358  0.072387149            3 
 2833000   0.78727529   -2.7197522    2456.7269  0.072265174  0.072372939            4 
 2834000   0.81237549   -2.7465319    2457.1721  0.072252766  0.072358698            4 
 2835000   0.77971072   -2.7579489    2464.3492  0.072438247  0.072344532            5 
 2836000   0.80718468   -2.7332986    2458.7761  0.072248945   0.07233043            2 
 2837000   0.80174247   -2.7309141    2464.4906  0.072391335   0.07231621            7 
 2838000   0.79635385   -2.7236558    2461.6856  0.072283461  0.072302086            3 
 2839000   0.80625087   -2.7337352    2465.4323  0.072367978   0.07228824            2 
 2840000   0.79809423   -2.7426061    2470.0678  0.072478515  0.072274141            3 
 2841000   0.79001157   -2.7243175    2463.2682  0.072253556  0.072260184            2 
 2842000   0.81099239   -2.7334726    2469.6497  0.072415252  0.072246204            2 
 2843000   0.80494369   -2.7195681    2469.2948  0.072379377  0.072232393            6 
 2844000   0.80308846   -2.7178871    2472.0118  0.072433537  0.072218435            5 
 2845000   0.81527559   -2.7319594    2471.9359  0.072405854  0.072204417            2 
 2846000   0.79335948   -2.7427078    2474.9411  0.072468409  0.072190499            4 
 2847000   0.78885538   -2.7192825    2468.8013  0.072263241   0.07217653            7 
 2848000   0.80034765   -2.7328712    2476.9284  0.072475666  0.072162483            3 
 2849000   0.79349059   -2.7401285    2469.7477  0.072240193  0.072148515            4 
 2850000   0.80792883   -2.7310002    2468.9102  0.072190357  0.072134591            4 
 2851000    0.7975997   -2.7173704    2478.3333  0.072440468  0.072120498            3 
 2852000   0.78900037    -2.731689    2475.3033  0.072326533  0.072106452            7 
 2853000   0.78663115   -2.7473825    2459.7997  0.071848337  0.072092444            3 
 2854000   0.78026634   -2.7359397     2478.685   0.07237459  0.072078375            6 
 2855000   0.78561031   -2.7149386    2479.6446  0.072377251  0.072064496            4 
 2856000   0.78764189   -2.7473194    2469.5417  0.072057123  0.072050746            2 
 2857000   0.79344523    -2.739277    2477.4673  0.072263076  0.072036755            6 
 2858000   0.80245782   -2.7150172    2474.4673  0.072150317   0.07202266            3 
 2859000   0.80902133   -2.7309806    2479.1152  0.072260556  0.072008784            5 
 2860000   0.77326322   -2.7306413    2476.3219  0.072153902  0.071994801            3 
 2861000    0.8078423   -2.7194515    2472.8252  0.072026833  0.071980926            4 
 2862000   0.78703835   -2.7443202    2478.1677  0.072157225  0.071966805            3 
 2863000   0.79414444   -2.7376207    2479.8193  0.072180095  0.071952947            2 
 2864000   0.81306432   -2.7100846    2481.4575  0.072202559  0.071938898            4 
 2865000    0.7799943   -2.7390455    2480.8459  0.072159567  0.071925119            3 
 2866000   0.81685993    -2.726377    2480.3758  0.072120721  0.071911361            7 
 2867000   0.79714685   -2.7301353    2474.6061   0.07192786  0.071897426            7 
 2868000   0.81122883   -2.7183563    2484.1775  0.072180888  0.071883576            5 
 2869000   0.79251616   -2.7444829    2471.2257   0.07177953  0.071869679            4 
 2870000   0.79113469   -2.7245729    2480.8622  0.072034326  0.071855659            3 
 2871000   0.79174916   -2.7343521    2482.0403  0.072043431  0.071841601            4 
 2872000   0.78488735   -2.7698747    2469.0486  0.071641382  0.071827509            3 
 2873000      0.78478   -2.7448318    2486.3421  0.072118056  0.071813259            2 
 2874000    0.8019806   -2.6961737    2484.9101  0.072051442  0.071799292            2 
 2875000   0.79596211   -2.7496842    2478.7507  0.071847846  0.071785428            2 
 2876000   0.79548812   -2.7404804    2478.6445  0.071819788  0.071771368            4 
 2877000   0.80456416   -2.7363049    2478.9135  0.071802616  0.071757318            5 
 2878000   0.79264598   -2.7273372    2480.8686  0.071834278  0.071743173            3 
 2879000    0.7929993   -2.7563174    2479.2247  0.071761744  0.071729038            3 
 2880000   0.78249889   -2.7420265    2482.9058   0.07184334  0.071714927            4 
 2881000     0.794566   -2.7384418    2483.3741  0.071831949  0.071700799           10 
 2882000   0.77773807   -2.7185476     2479.757  0.071702434  0.071686689            2 
 2883000   0.79494584   -2.7475864    2481.8873  0.071739139  0.071672579            4 
 2884000   0.80985693   -2.7450788    2489.4195  0.071931908  0.071658459            4 
 2885000   0.78407664   -2.7370915    2490.0438  0.071925008  0.071644415            4 
 2886000   0.76229211   -2.7306603    2494.7249  0.072035255  0.071630322            2 
 2887000   0.77928218   -2.7359336      2486.17  0.071763363   0.07161623            5 
 2888000   0.79366217   -2.7409115    2486.8098  0.071756976  0.071602194            3 
 2889000   0.78971713   -2.7285445    2477.8528  0.071473774  0.071588004            2 
 2890000   0.79809399   -2.7419327    2483.4853  0.071611456  0.071573955            4 
 2891000   0.77938927   -2.7489182    2485.7501  0.071651968   0.07155971            4 
 2892000   0.78623622   -2.7489684    2485.2378  0.071612431  0.071545616            2 
 2893000   0.79656446   -2.7350227     2477.307  0.071359229  0.071531189            3 
 2894000   0.78205918   -2.7194917    2488.7945  0.071665357  0.071516944            4 
 2895000   0.80528494   -2.7140434     2474.313  0.071223748  0.071502585            3 
 2896000   0.77070544   -2.7442108    2482.2409  0.071427282  0.071488202            9 
 2897000    0.7871112   -2.7321293    2478.6822   0.07130026  0.071473769            4 
 2898000   0.79616122   -2.7395654    2480.7052  0.071333828  0.071459475            6 
 2899000   0.76018677    -2.739773    2478.4916   0.07124559  0.071445122            6 
 2900000   0.78774396   -2.7315101    2481.7392  0.071314346  0.071430774            3 
 2901000   0.78917515   -2.7533211    2479.8733  0.071236162  0.071416453            7 
 2902000   0.78818173   -2.7655934    2490.1843  0.071507705  0.071402111           12 
 2903000   0.78779038     -2.76887    2485.0498   0.07133568  0.071387745            3 
 2904000   0.81027287   -2.7679944    2478.1303  0.071112554  0.071373393            4 
 2905000   0.77883346   -2.7411758    2480.6822   0.07116128   0.07135891            4 
 2906000   0.78699441   -2.7425863     2492.025  0.071462062  0.071344579            2 
 2907000   0.79267545    -2.726936    2487.8967  0.071319134  0.071330139            6 
 2908000   0.78710482    -2.753309    2487.3025  0.071277581  0.071315698            6 
 2909000   0.80668374   -2.7407806    2485.8397  0.071211174  0.071301294            5 
 2910000   0.78030446   -2.7303694    2486.0891  0.071193847  0.071286921            5 
 2911000   0.77035926   -2.7533037    2485.9692  0.071165958  0.071272598            3 
 2912000   0.79082412   -2.7461214    2479.8418  0.070966167  0.071258162            4 
 2913000   0.77420602   -2.7466298     2489.739  0.071224941  0.071243839            7 
 2914000   0.77380494   -2.7507593    2490.3967  0.071219307  0.071229625            4 
 2915000   0.78606703   -2.7594318    2486.2573  0.071076537  0.071215314            2 
 2916000   0.78893577   -2.7603952    2490.7897  0.071181691  0.071201026            3 
 2917000   0.77814996   -2.7582065    2490.5188  0.071149547  0.071186749            3 
 2918000   0.80079404   -2.7490808    2493.0703  0.071198033  0.071172365            5 
 2919000   0.79584256   -2.7385016    2494.9608  0.071227613  0.071158196            3 
 2920000   0.77426423   -2.7587061    2505.5455  0.071505293  0.071144052           10 
 2921000   0.80920537   -2.7500502    2492.4518  0.071107264  0.071129829            4 
 2922000   0.77817212   -2.7556645    2493.5131  0.071113196  0.071115465            5 
 2923000    0.7813695   -2.7300457    2494.4879  0.071116659   0.07110138            8 
 2924000   0.79834579   -2.7412318    2495.0506  0.071108374  0.071087016            7 
 2925000   0.77841468   -2.7158595    2496.2942  0.071119493   0.07107289            2 
 2926000   0.77316446   -2.7558466    2495.3383  0.071067963  0.071058727            3 
 2927000   0.79191502   -2.7302118    2502.3081  0.071242118  0.071044465            4 
 2928000   0.78533982   -2.7634931    2486.8669  0.070778317  0.071030336            5 
 2929000   0.78145678   -2.7451714    2502.2561   0.07119199  0.071016188            2 
 2930000   0.78093406   -2.7412824     2489.675  0.070809869  0.071001947            4 
 2931000   0.79752192   -2.7869379    2491.3072  0.070832115  0.070987534            5 
 2932000   0.77456823   -2.7490343    2496.6152  0.070958823  0.070973364            7 
 2933000   0.76592144   -2.7211866    2498.3737  0.070984591  0.070959264            2 
 2934000   0.78900116   -2.7419841    2497.4477  0.070934097  0.070945114            3 
 2935000   0.77490379   -2.7595427     2500.568  0.070998522  0.070931007            8 
 2936000   0.77084171   -2.7626963     2487.203  0.070594998   0.07091676            2 
 2937000   0.77379626   -2.7393741     2508.086  0.071163488  0.070902539            3 
 2938000   0.77706825   -2.7582573    2491.8161  0.070677788   0.07088833            4 
 2939000   0.77682908   -2.7543388    2507.8839  0.071109333  0.070874104            3 
 2940000   0.77094063   -2.7500927    2496.8522  0.070772456  0.070859827            4 
 2941000   0.76781654   -2.7528322    2502.0881   0.07089675  0.070845642            7 
 2942000   0.77710606    -2.736444    2501.1399  0.070845793  0.070831549            6 
 2943000   0.77982919   -2.7252243    2503.2295   0.07088089  0.070817532            4 
 2944000   0.78105178   -2.7377535    2505.0832  0.070909284  0.070803413            4 
 2945000   0.77288181   -2.7662773    2503.3078  0.070834969   0.07078918            4 
 2946000    0.7636578   -2.7569804    2508.6482  0.070961987  0.070775047            6 
 2947000   0.78522202    -2.769272    2501.2108  0.070727599  0.070760957            4 
 2948000   0.76158425   -2.7477587    2501.7496  0.070718837  0.070746836            3 
 2949000   0.79081726   -2.7465628    2501.5424  0.070689002  0.070732821            4 
 2950000   0.74955927   -2.7524611    2507.8079  0.070842031  0.070718748            3 
 2951000   0.77607899   -2.7289518    2502.8281    0.0706774   0.07070476            3 
 2952000   0.77835522   -2.7616738     2507.235  0.070777862  0.070690746            4 
 2953000   0.77755724   -2.7410111    2508.6671  0.070794309  0.070676614            4 
 2954000   0.79215355   -2.7450532    2511.0534  0.070837661  0.070662592            3 
 2955000   0.77613746   -2.7416458    2502.0258  0.070559104  0.070648578            4 
 2956000   0.76276671   -2.7347126    2505.1347  0.070622877  0.070634761           14 
 2957000   0.78217242   -2.7368419    2511.6693  0.070783151  0.070620828            4 
 2958000     0.789172   -2.7474148    2511.1283   0.07074398  0.070607145            3 
 2959000    0.7786761   -2.7396067    2517.0974  0.070888179  0.070593083            2 
 2960000   0.79235844   -2.7676613     2518.337  0.070899128  0.070579188            4 
 2961000   0.77985522   -2.7527851    2511.5202  0.070683333   0.07056535            5 
 2962000   0.77551588   -2.7519021    2514.5583  0.070744945  0.070551391            2 
 2963000   0.78244792   -2.7662341    2510.1955  0.070598365  0.070537277            3 
 2964000   0.78952697   -2.7685222    2511.4768  0.070610573  0.070523269            4 
 2965000   0.76560073   -2.7608229    2514.1095  0.070660751  0.070509221            5 
 2966000   0.75905771   -2.7567362    2518.4121  0.070757814  0.070495235            2 
 2967000   0.77882799    -2.758266    2512.3289  0.070563108    0.0704812            7 
 2968000   0.76171634   -2.7526789    2510.0554  0.070475499  0.070467186            6 
 2969000   0.77495437   -2.7285771    2513.4053  0.070545788  0.070453119            3 
 2970000    0.7982318   -2.7329317    2512.9543   0.07050938  0.070439037            2 
 2971000   0.77880055   -2.7427391    2520.0211  0.070683863  0.070425092            5 
 2972000   0.78996993   -2.7631861    2508.0085  0.070323254  0.070411053            4 
 2973000   0.76872242   -2.7711354    2516.4427  0.070536009  0.070397006            2 
 2974000   0.77273093   -2.7679408    2507.9782  0.070275112   0.07038281            3 
 2975000   0.76669538   -2.7678906    2513.2173  0.070398243  0.070368684            5 
 2976000   0.78183686   -2.7514409    2506.9615  0.070199414   0.07035447            4 
 2977000   0.77572873   -2.7603683    2512.0336  0.070317815  0.070340271            4 
 2978000    0.7754233   -2.7581525    2511.6457  0.070283347  0.070326203            7 
 2979000   0.78794517   -2.7770077    2508.5556  0.070173313  0.070311963            4 
 2980000   0.76693922   -2.7789304     2520.212  0.070475728  0.070297824            4 
 2981000   0.75821763   -2.7659731    2515.1499  0.070310574   0.07028372            7 
 2982000     0.778288   -2.7689697    2523.1795  0.070511387  0.070269573            3 
 2983000   0.76409864   -2.7614613    2513.1528  0.070207642   0.07025562            4 
 2984000   0.75804125    -2.792772    2513.5842  0.070196163  0.070241363            5 
 2985000   0.77033668   -2.7459175    2510.8238  0.070095583  0.070227353            3 
 2986000   0.76677229   -2.7663874    2519.4189  0.070311982  0.070213351            5 
 2987000   0.76945002   -2.7575854    2520.9369  0.070330793  0.070199194            8 
 2988000   0.77364635   -2.7679078    2526.0738  0.070450518  0.070185138            5 
 2989000   0.75924649   -2.7456855    2518.4004  0.070213015   0.07017112            4 
 2990000   0.79732639   -2.7595659    2517.5284  0.070165227  0.070157004            4 
 2991000   0.76234166    -2.772881    2513.2558  0.070022729  0.070142823            4 
 2992000   0.77594125   -2.7411955    2528.6386  0.070427767  0.070128677            2 
 2993000   0.78437084    -2.764522    2518.0109  0.070108332  0.070114736            3 
 2994000   0.76623213   -2.7739581    2522.7191  0.070215963  0.070100542            6 
 2995000   0.77618396   -2.7586286    2526.2606  0.070291057   0.07008646            3 
 2996000   0.77534346   -2.7669191    2525.6972  0.070251925  0.070072381            2 
 2997000   0.79133311   -2.7564937    2519.6745  0.070061018  0.070058259            2 
 2998000   0.77732128   -2.7620648    2514.9784  0.069907116  0.070044231            3 
 2999000   0.77813167   -2.7810108    2528.4294  0.070257569  0.070030014            4 
 3000000   0.77862298   -2.7596652    2518.6563  0.069962676  0.070015852            2 
 3001000   0.78422623   -2.7721918    2524.8205  0.070110531  0.070001617            4 
 3002000    0.7733901   -2.7662427    2526.6902   0.07013908  0.069987484            5 
 3003000   0.80205023   -2.7789734    2527.9574  0.070150887  0.069973394            3 
 3004000   0.75808161   -2.7641859    2529.3353  0.070165761  0.069959388            6 
 3005000   0.75253109   -2.7868299    2525.3689  0.070032414  0.069945372            7 
 3006000   0.76308205   -2.7714371    2523.2766  0.069951115  0.069931323            4 
 3007000   0.75794408    -2.772326    2517.8533  0.069777556  0.069917247            4 
 3008000   0.75697553   -2.7680175     2530.586  0.070107103  0.069903203            7 
 3009000   0.77152416   -2.7493065    2528.0517  0.070013616   0.06988917            9 
 3010000   0.78756866   -2.7691932    2526.7956  0.069955582  0.069875176            2 
 3011000   0.75377978    -2.760076     2530.536  0.070035868  0.069861106            2 
 3012000   0.77084027   -2.7576097    2530.9583  0.070024299   0.06984724            5 
 3013000   0.77463418   -2.7629247    2524.5849  0.069824783   0.06983326            4 
 3014000    0.7489761   -2.7750742    2535.1027  0.070092422   0.06981939            2 
 3015000   0.77203771   -2.7345095    2536.9075  0.070119058  0.069805394            3 
 3016000   0.78526704    -2.765856    2537.6943  0.070117548  0.069791507            3 
 3017000    0.7718752   -2.7763238    2532.5188  0.069951353  0.069777526            2 
 3018000   0.75678442   -2.7341677    2523.7832  0.069686966  0.069763467            6 
 3019000   0.76830646   -2.7853494    2532.0792  0.069892877  0.069749483            4 
 3020000   0.76049006   -2.7565877     2520.698  0.069555685  0.069735457            2 
 3021000   0.77764686   -2.7512738    2527.0446   0.06970773  0.069721285            2 
 3022000   0.75336431   -2.7816797     2528.575  0.069726865  0.069707258            3 
 3023000   0.75861876   -2.7551027    2524.3938  0.069588539    0.0696933            5 
 3024000   0.75369971   -2.7636053    2535.4769  0.069870946  0.069679189            3 
 3025000   0.75185305   -2.7672763    2530.2086  0.069702717  0.069665102            3 
 3026000   0.77274128   -2.7499425    2536.6623  0.069857411  0.069650973            5 
 3027000   0.77096752   -2.7712085    2525.1404  0.069517135  0.069636856            6 
 3028000   0.76217666   -2.7814859    2531.6786  0.069674113  0.069622688            5 
 3029000    0.7640988   -2.7485485    2533.3493  0.069697076  0.069608677            4 
 3030000    0.7738488   -2.7661684    2529.8858  0.069578818  0.069594631            4 
 3031000   0.75273006   -2.8014915     2530.866  0.069582812  0.069580379            3 
 3032000   0.75829777   -2.7661962    2536.1958  0.069706348   0.06956625            7 
 3033000   0.77888717   -2.7967925    2537.2422  0.069712116  0.069552138            2 
 3034000   0.76999765   -2.7679982    2536.5632  0.069670491  0.069538131            4 
 3035000    0.7677842   -2.7555818    2543.5171  0.069838471   0.06952407            4 
 3036000   0.76319422   -2.7636284    2544.4064  0.069839877  0.069509891            3 
 3037000   0.77065413   -2.7665777    2531.7199  0.069468772  0.069495816            2 
 3038000   0.77147071   -2.7560247    2539.2684  0.069652962  0.069481683            5 
 3039000    0.7824772   -2.7887815    2523.4431  0.069196092  0.069467635            5 
 3040000   0.76051073   -2.7615022    2532.7265  0.069427809  0.069453455            3 
 3041000    0.7611107   -2.7579896    2540.7093  0.069623734  0.069439377            2 
 3042000   0.76724433   -2.7550552      2535.85  0.069467728   0.06942536            4 
 3043000   0.75498112   -2.7842059     2534.428  0.069405959  0.069411263            4 
 3044000   0.76582851   -2.7796963    2535.3716   0.06940899  0.069397344            4 
 3045000   0.75963571   -2.7688226    2532.9377  0.069319587  0.069383304            3 
 3046000   0.75879889   -2.7820134    2530.7648  0.069237383  0.069369139            4 
 3047000   0.75855188   -2.7813381    2536.4221  0.069369383  0.069354886            7 
 3048000    0.7628087   -2.7590879    2535.6309  0.069324991  0.069340778            5 
 3049000   0.75741428   -2.7771845    2537.8842  0.069363841  0.069326686            3 
 3050000   0.74858568   -2.7795355    2540.8715  0.069422718  0.069312496            7 
 3051000   0.76994947   -2.7616758    2545.2515  0.069519598  0.069298343            3 
 3052000   0.75270926   -2.7592442    2537.6807  0.069290103   0.06928426            3 
 3053000   0.76522817    -2.802479    2533.5637  0.069155031  0.069270186            3 
 3054000   0.77142399   -2.7593096     2534.474  0.069157225  0.069256067            3 
 3055000   0.75724129   -2.7783403     2539.667   0.06927624  0.069242012            3 
 3056000   0.75855931   -2.7851523    2536.7707  0.069174593  0.069227827            6 
 3057000   0.75650002    -2.776888    2545.6458  0.069393899   0.06921367            4 
 3058000   0.75774314   -2.7887939    2542.3893  0.069282463  0.069199551            5 
 3059000   0.75420155   -2.7812917    2537.2816  0.069120672  0.069185415            2 
 3060000   0.75387675   -2.7907288    2535.0646  0.069037708  0.069171075            7 
 3061000   0.75629803   -2.7648797    2541.9357  0.069202214  0.069156851            6 
 3062000   0.75600774   -2.8079361    2536.1996  0.069023504  0.069142503            4 
 3063000   0.75384749   -2.7642453    2540.9496  0.069130199  0.069128265            4 
 3064000   0.74619139    -2.764571    2542.6337   0.06915344  0.069114064            2 
 3065000   0.72774978   -2.7482142    2551.3291  0.069367294   0.06909998            3 
 3066000   0.75595191   -2.7611424    2543.8893  0.069142458  0.069085742            2 
 3067000   0.77439557    -2.779237    2548.9491  0.069257393  0.069071611           12 
 3068000   0.76486974   -2.7740955    2536.0359   0.06888407  0.069057482            4 
 3069000   0.77410695   -2.7840282    2546.6414  0.069149597  0.069043286            2 
 3070000   0.75178616   -2.7700382    2546.6966  0.069128573  0.069028985            4 
 3071000   0.75484081   -2.7879235    2547.2314  0.069120573  0.069014754            6 
 3072000   0.76229559   -2.8007996    2547.1261  0.069095218  0.069000629            3 
 3073000   0.75667757   -2.7729038    2546.0671  0.069044014  0.068986516            7 
 3074000   0.75798037   -2.7493095    2550.8793  0.069152008  0.068972491            2 
 3075000   0.75095538   -2.7969712    2546.3784  0.069007546  0.068958451            9 
 3076000   0.76795916   -2.8027323    2540.5618  0.068827531  0.068944358            5 
 3077000   0.76498059   -2.7809052    2542.9529  0.068869919  0.068930197            4 
 3078000   0.77082664   -2.7949694    2549.3814  0.069021589  0.068916129            3 
 3079000   0.75315667   -2.7817215    2546.7718  0.068928544  0.068901999            4 
 3080000   0.75889539   -2.7748039    2551.8926  0.069044713  0.068888007            4 
 3081000   0.73154598   -2.7745493    2554.1676  0.069083836  0.068873917            5 
 3082000   0.76861295   -2.7677858    2549.1749  0.068926426  0.068859961            2 
 3083000   0.77812388   -2.7834106    2553.4424  0.069019419  0.068846061            4 
 3084000   0.75623417   -2.7712389    2557.9516  0.069118881  0.068832095            5 
 3085000   0.75867951   -2.7712983    2559.6295  0.069141803  0.068818363            3 
 3086000   0.75338958   -2.7933143    2553.4234  0.068951808  0.068804489            5 
 3087000   0.74557892   -2.7693316    2550.0532  0.068838494  0.068790674            4 
 3088000   0.75142185   -2.7962642    2552.5247  0.068882898  0.068776771            5 
 3089000     0.741745   -2.7843715    2554.1924  0.068905588  0.068762709            9 
 3090000   0.75857551   -2.8052077    2556.4485  0.068944134   0.06874872           11 
 3091000   0.77025582   -2.7864978    2550.9126  0.068772583   0.06873464            3 
 3092000   0.75926358   -2.7804435    2569.2175  0.069243679  0.068720746            3 
 3093000   0.75433561   -2.7766118    2555.8616   0.06886145  0.068706909            4 
 3094000   0.75997242   -2.7986536    2558.8674  0.068920151  0.068692934            5 
 3095000   0.75496069   -2.7864333    2561.0836  0.068957555  0.068679032            5 
 3096000   0.74952305   -2.7752186    2549.3995  0.068620788  0.068665076            3 
 3097000   0.76350192   -2.7664171    2569.0446  0.069127235  0.068651046            3 
 3098000   0.76947226   -2.7573713    2561.1617  0.068892879  0.068637082            7 
 3099000   0.75500936   -2.7965625    2552.3307   0.06863318  0.068623134            5 
 3100000   0.76912945   -2.7743243    2553.9158  0.068653651  0.068609112            3 
 3101000   0.77060165   -2.7610113    2556.3705  0.068697478  0.068595085            9 
 3102000   0.76673785   -2.7723415    2562.1874  0.068831598  0.068581095            3 
 3103000   0.77589924   -2.7795423    2560.5961  0.068766681  0.068567169            3 
 3104000   0.76613437   -2.7874873    2557.4058  0.068658875  0.068553133            9 
 3105000   0.75999778   -2.7779629    2552.4995  0.068505087  0.068539072            5 
 3106000   0.75167155   -2.7999903    2554.6142  0.068539767  0.068524952            6 
 3107000   0.75784743   -2.8064392    2564.6794  0.068787668  0.068511006            5 
 3108000   0.73915725   -2.7758426    2564.1298    0.0687508  0.068497227            5 
 3109000   0.76426959   -2.8135369    2553.6753  0.068448463   0.06848343            5 
 3110000   0.75904505   -2.7955558    2560.8708  0.068619259   0.06846946            5 
 3111000   0.75615032   -2.7719641    2565.6159  0.068724308  0.068455667            4 
 3112000   0.77125284   -2.7873543    2561.2643  0.068585697  0.068441777            5 
 3113000   0.76102486   -2.8073463    2558.3027  0.068484386  0.068427909            5 
 3114000   0.73905837   -2.7805274    2558.0712  0.068456197  0.068413897            5 
 3115000   0.75699483   -2.7938095    2564.3605  0.068602475       0.0684            5 
 3116000   0.75243665   -2.7897693    2565.8297   0.06861975  0.068386077            6 
 3117000   0.75995687   -2.7906148    2555.5968  0.068324159  0.068372144            2 
 3118000   0.75716783   -2.7984878    2565.2478  0.068560183  0.068358256           10 
 3119000   0.73129398   -2.7790159    2569.3667  0.068648251  0.068344585            3 
 3120000   0.75207952   -2.7904214    2565.5469  0.068524223  0.068330829            5 
 3121000   0.75057196   -2.7870044    2567.9587  0.068566663  0.068317028            4 
 3122000   0.76479072   -2.7913995    2564.6418  0.068456167  0.068303264            3 
 3123000   0.75420939   -2.7668222    2579.8218  0.068839304  0.068289508            3 
 3124000   0.75914027   -2.7824932    2574.4205  0.068673188   0.06827573            3 
 3125000   0.76132617   -2.7971051     2567.739  0.068473041  0.068261978            4 
 3126000   0.75051699   -2.7955846    2571.7779  0.068558805  0.068248296            2 
 3127000   0.73998681   -2.8024137    2569.6907  0.068481256  0.068234536            4 
 3128000   0.74995468   -2.7580995    2573.2047  0.068552982   0.06822081            3 
 3129000   0.75843272   -2.8018245    2573.7069  0.068544447  0.068207164            3 
 3130000   0.74619071   -2.7970655    2568.2092  0.068376178  0.068193432            4 
 3131000   0.74391397   -2.8124223    2571.5168  0.068442372  0.068179713            2 
 3132000   0.76042018   -2.7824148    2576.6689  0.068557601  0.068165851            5 
 3133000   0.76526829   -2.7909251    2580.4007  0.068634979  0.068152157            8 
 3134000   0.74006075   -2.7667194    2581.3488  0.068638291  0.068138481            3 
 3135000   0.74376275   -2.7840172    2575.5145   0.06846131   0.06812496            6 
 3136000   0.76944414   -2.7763295    2566.3058  0.068194776  0.068111369            3 
 3137000   0.72990026   -2.7689937    2569.6731  0.068262488  0.068097681            6 
 3138000   0.74911491   -2.8104556    2575.0877  0.068384526  0.068084034            7 
 3139000   0.75189082   -2.8044903    2568.5691  0.068189687  0.068070348            7 
 3140000   0.76108255   -2.7725887    2579.0592   0.06844637  0.068056668            3 
 3141000   0.73674171   -2.7952347    2585.5334  0.068596345   0.06804316            3 
 3142000   0.74967177     -2.78375    2579.7239  0.068420431  0.068029493            3 
 3143000   0.73578925   -2.7976275      2587.73  0.068610936  0.068015915            5 
 3144000   0.73901377   -2.7801084    2579.7301   0.06837707  0.068002081            3 
 3145000   0.75979167   -2.7993073    2576.5932   0.06827221  0.067988445            5 
 3146000   0.74148581   -2.7878423    2578.8725  0.068310884  0.067974946            2 
 3147000   0.75930884   -2.7951905    2568.2118  0.068006881  0.067961398            4 
 3148000   0.72768716   -2.7989865    2570.3579  0.068042087  0.067947632            3 
 3149000   0.74620658   -2.8002585    2579.9628  0.068274658  0.067933956            4 
 3150000   0.74018842   -2.7741005    2587.6203  0.068455564  0.067920513            2 
 3151000   0.74417061   -2.7876326    2575.2403  0.068106429  0.067906904            7 
 3152000   0.74730506   -2.7857449    2583.6749  0.068307819   0.06789323            4 
 3153000   0.73864636   -2.8163527    2579.8185   0.06818423  0.067879554            4 
 3154000   0.74410522   -2.7916356    2580.0353  0.068168339  0.067865982           10 
 3155000   0.74035296   -2.8086025    2578.3532  0.068102303  0.067852395            4 
 3156000   0.74180976   -2.7975537    2578.9213  0.068095725  0.067838849            9 
 3157000   0.74703724   -2.7924792    2580.4368  0.068114158  0.067825256            3 
 3158000   0.74590178   -2.7868513    2577.8916  0.068025427  0.067811829            2 
 3159000   0.75877051    -2.797629    2581.2039  0.068091271  0.067798228            5 
 3160000   0.73110177   -2.7733002    2587.3973  0.068233052   0.06778467            9 
 3161000   0.73159063   -2.7993369    2582.4812  0.068081862  0.067771104            4 
 3162000   0.74690269   -2.7911693    2578.5252  0.067956072  0.067757484            4 
 3163000    0.7440028   -2.8100183    2581.7236  0.068018854  0.067743848            3 
 3164000   0.75535518   -2.7962133     2581.905  0.068002133  0.067730188            3 
 3165000   0.72042296    -2.793335    2574.3178  0.067780879    0.0677165           10 
 3166000   0.74417114   -2.7911486    2580.8076  0.067930292  0.067702783            3 
 3167000   0.74588042   -2.7903114    2583.1984   0.06797175  0.067689213            4 
 3168000   0.72970606   -2.7913025     2587.461   0.06806242  0.067675617            7 
 3169000   0.72794879   -2.8179767     2579.923  0.067842722  0.067661985            9 
 3170000   0.74611056   -2.7890124     2586.985  0.068006967   0.06764831            3 
 3171000   0.73827446     -2.78631    2590.7637  0.068084823  0.067634805            4 
 3172000   0.75889381    -2.792226    2587.1405  0.067968172  0.067621394            3 
 3173000   0.74071636   -2.8107059    2588.9624  0.067994599  0.067607786            7 
 3174000   0.75334885   -2.7908249    2594.7478  0.068125074  0.067594222            3 
 3175000   0.75457055   -2.8025299    2583.0663  0.067797017  0.067580617            3 
 3176000   0.74842427   -2.7951723    2587.5842  0.067894212  0.067567101            3 
 3177000    0.7362474   -2.7938224    2596.6481  0.068110589   0.06755366            4 
 3178000   0.73561693   -2.8172907     2577.989  0.067599878  0.067540145            4 
 3179000   0.74169999   -2.7911224    2588.3288   0.06784966  0.067526615            4 
 3180000   0.74153238   -2.8071946    2591.5926  0.067913853  0.067513081            5 
 3181000   0.72758695   -2.8056768    2596.6476  0.068024928  0.067499542            6 
 3182000   0.75805533   -2.7971807    2595.9447  0.067985143  0.067486087            8 
 3183000   0.75078891   -2.8119043    2592.8388   0.06788247   0.06747256            4 
 3184000   0.73766362   -2.8026484    2586.8143  0.067703474  0.067458989            4 
 3185000   0.74381771   -2.8295725    2599.1668  0.068005411  0.067445466            3 
 3186000   0.75782471   -2.8138699    2585.4373  0.067624956  0.067431841            4 
 3187000   0.74218984   -2.8003252    2583.8536  0.067562327  0.067418212            4 
 3188000   0.74503581   -2.8134402    2592.1125  0.067757019  0.067404579            5 
 3189000    0.7413282   -2.7915776    2601.7096  0.067986557  0.067391021            3 
 3190000   0.72325864    -2.829361    2591.4624  0.067697555  0.067377589            4 
 3191000   0.74672376   -2.8164887    2600.6537   0.06791637  0.067364067            7 
 3192000   0.74875178   -2.8304865    2593.8656  0.067717877  0.067350549            8 
 3193000   0.73573205   -2.8024869    2602.8637  0.067931508  0.067336953            9 
 3194000   0.74368599   -2.7964184    2589.9997  0.067574612  0.067323393            4 
 3195000   0.74174434   -2.7934023    2607.9827  0.068022501   0.06730983            7 
 3196000   0.74108096   -2.7925319    2593.4236    0.0676216  0.067296395            7 
 3197000   0.74380221   -2.7892514    2600.8193  0.067793225  0.067282866            4 
 3198000    0.7443496   -2.7961231     2602.705  0.067821165  0.067269372            5 
 3199000   0.74860525   -2.8282383    2588.2478  0.067423357  0.067255748            4 
 3200000    0.7505197   -2.8002246     2596.944  0.067628749  0.067242182            7 
 3201000   0.74453641   -2.7916225    2598.2073  0.067640512  0.067228652            5 
 3202000   0.74548205   -2.7896647    2599.3554  0.067649265  0.067215001            5 
 3203000   0.73027576   -2.8407619     2596.901  0.067564288  0.067201374            7 
 3204000   0.75317606   -2.8041395    2599.7407   0.06761706   0.06718767            5 
 3205000   0.74471476   -2.7982457    2597.1747  0.067529244  0.067174187            8 
 3206000   0.74471872   -2.8078454    2604.8161  0.067706803  0.067160646            4 
 3207000   0.74389375   -2.7992091    2598.0462  0.067509775  0.067147152            5 
 3208000   0.75264676   -2.8155956    2594.5201  0.067397134  0.067133338            8 
 3209000   0.72977489   -2.8181351    2593.4949  0.067349509  0.067119811            4 
 3210000   0.73715281   -2.8055898    2600.4151   0.06750818  0.067106339            4 
 3211000   0.74077943   -2.7983254      2596.39  0.067382694  0.067092935            2 
 3212000   0.73839247   -2.8194051    2599.9174  0.067453234  0.067079376            6 
 3213000   0.72922856   -2.8167308    2592.4193  0.067237767  0.067065735            9 
 3214000   0.75163373   -2.8008473    2600.8811  0.067436246   0.06705214           11 
 3215000   0.74269125   -2.8096779    2603.3256  0.067478631  0.067038578            7 
 3216000   0.73049336   -2.8008384     2597.755  0.067313302  0.067025012            4 
 3217000   0.73447639   -2.8005787     2605.167   0.06748438  0.067011485            3 
 3218000   0.74405287   -2.8278009    2605.7471  0.067478432  0.066997949            3 
 3219000   0.74809358   -2.8106389    2592.3799  0.067111419  0.066984385            1 
 3220000   0.73010064    -2.814218    2601.0244  0.067314295  0.066970898            6 
 3221000    0.7404497   -2.8172257    2598.3424  0.067224009  0.066957286            3 
 3222000   0.72108539   -2.8220234     2600.612  0.067261847  0.066943578            4 
 3223000   0.72561158    -2.824176    2600.3007  0.067232928  0.066929922            5 
 3224000   0.75141279   -2.8124865    2607.0474   0.06738646  0.066916414            3 
 3225000   0.72697554   -2.7939021    2604.5938  0.067302166  0.066902823            3 
 3226000   0.73995316   -2.8019954    2609.0027  0.067395194  0.066889323            6 
 3227000   0.73710105    -2.805821    2602.6986  0.067211513  0.066875855            4 
 3228000   0.73706921   -2.8141946    2608.3379  0.067336273  0.066862271            3 
 3229000   0.74941877   -2.8254494    2603.6133  0.067193489  0.066848692            3 
 3230000   0.72692955   -2.8052379    2594.5988  0.066940114   0.06683519            8 
 3231000   0.73004038   -2.8146037    2603.7887  0.067156419  0.066821576            7 
 3232000   0.75114009   -2.8119227    2607.2699  0.067225401  0.066808203            3 
 3233000   0.72929974   -2.7999217    2606.8223  0.067193068  0.066794891            6 
 3234000   0.74307492   -2.8032645    2617.3311  0.067443081  0.066781494            3 
 3235000   0.74742166   -2.8141208    2612.4004  0.067295219  0.066768117            4 
 3236000   0.71820943   -2.8108031    2607.6082  0.067151015  0.066754533            3 
 3237000   0.73539923   -2.8178101    2612.1232  0.067246504  0.066741109            8 
 3238000   0.74212122   -2.8160637     2610.064  0.067172741  0.066727677            3 
 3239000   0.73455916   -2.8205803    2609.2544  0.067131172  0.066714204            3 
 3240000   0.72115383   -2.8081982    2615.1391  0.067261807  0.066700765            2 
 3241000   0.73441822   -2.7999269    2609.4281  0.067094213  0.066687279            7 
 3242000   0.72289417   -2.8067136    2616.5082  0.067255505  0.066673882            6 
 3243000   0.74082875   -2.8288181    2615.4928  0.067208676  0.066660436            3 
 3244000   0.72774215   -2.8178551    2609.2647  0.067027967  0.066646955            3 
 3245000   0.72498536   -2.8100696    2615.9748   0.06717963    0.0666335            4 
 3246000   0.73936403   -2.8218725    2611.0449  0.067032369  0.066619983            8 
 3247000   0.70643481   -2.8327585    2608.0489  0.066934834  0.066606533            3 
 3248000   0.72320804    -2.826913    2617.3087  0.067151803  0.066593083            5 
 3249000    0.7389921    -2.819296     2602.423  0.066749334  0.066579568            9 
 3250000   0.72375187   -2.8313074    2610.2289  0.066928947  0.066565932            4 
 3251000   0.74505259   -2.8228519    2614.6497  0.067021678  0.066552477            2 
 3252000   0.73135232   -2.8251465    2612.3401  0.066941883   0.06653891            5 
 3253000    0.7348583   -2.8057692    2609.4305  0.066846768  0.066525407            3 
 3254000   0.72476722   -2.8152764    2607.5981  0.066779299  0.066511885            5 
 3255000   0.71099289   -2.8265582    2610.2121  0.066825708  0.066498413            4 
 3256000   0.74367484   -2.8422429      2612.35  0.066859899  0.066484754            9 
 3257000   0.72595237   -2.8217813     2612.917  0.066853878  0.066471233            7 
 3258000   0.72728351   -2.8068875    2604.2138  0.066610747   0.06645774            4 
 3259000   0.73225497   -2.8371437    2606.1676  0.066640268  0.066444181            5 
 3260000   0.71393721   -2.8072469    2615.1155  0.066848556  0.066430618            5 
 3261000   0.75421727   -2.8228492    2610.5393  0.066711115  0.066417122            6 
 3262000    0.7337049   -2.8267213    2616.5973  0.066845424  0.066403692            8 
 3263000   0.75112313   -2.8158709    2620.0795  0.066913869  0.066390204            3 
 3264000   0.72355849    -2.834173    2609.3424  0.066619241  0.066376718            3 
 3265000   0.73914443   -2.8265429     2614.698  0.066735527  0.066363292           10 
 3266000   0.71304958   -2.8101871    2622.9665  0.066926068  0.066349804           15 
 3267000   0.71283455   -2.8158575    2624.0116  0.066932242   0.06633637           12 
 3268000   0.73236039   -2.8317227    2624.2339   0.06691743  0.066322914            7 
 3269000   0.72601737   -2.8292964    2615.3702  0.066671006  0.066309589            4 
 3270000   0.73065689   -2.8406699       2621.2  0.066799185  0.066296175            4 
 3271000   0.72771055   -2.8109681    2615.7806  0.066640697  0.066282756            9 
 3272000   0.73887034   -2.8085582    2626.0923  0.066882953  0.066269309            3 
 3273000   0.75209431   -2.8333422    2629.2874   0.06694387  0.066255914            4 
 3274000   0.72819793   -2.8318448    2620.2125  0.066692438  0.066242518            4 
 3275000    0.7168512   -2.8328446    2624.5836  0.066783297  0.066229098            6 
 3276000   0.72510774    -2.818254    2626.2431  0.066805126  0.066215719            7 
 3277000   0.73336516   -2.8199592    2627.8196  0.066824829  0.066202316            5 
 3278000   0.72319223   -2.8245135    2618.0754  0.066556727  0.066188937            7 
 3279000   0.72568069   -2.8421289    2614.9246  0.066456354  0.066175556            8 
 3280000   0.72780684   -2.7913255    2620.0749  0.066566944  0.066162192            6 
 3281000   0.73876159   -2.8353623    2628.2476  0.066754231  0.066148787            8 
 3282000   0.73503172   -2.8351254    2629.1376  0.066756489  0.066135429            2 
 3283000   0.71613817   -2.8364496    2619.3066  0.066486612  0.066122157           10 
 3284000   0.72677135   -2.8217116    2627.0415  0.066662644  0.066108782            5 
 3285000   0.74291705   -2.8316271    2634.6411  0.066835137  0.066095522            6 
 3286000   0.71706634   -2.8210348    2630.4755  0.066709157   0.06608219            2 
 3287000   0.71085185   -2.8074982    2636.5568  0.066843038  0.066068951            4 
 3288000   0.73708403   -2.8131567    2628.1842  0.066610507   0.06605565            4 
 3289000    0.7335556   -2.8363013    2620.2852  0.066390119  0.066042418            4 
 3290000   0.74630624   -2.8263334    2627.1563  0.066543978  0.066029012            3 
 3291000   0.72650027   -2.8052146    2631.4346  0.066632094  0.066015729            6 
 3292000   0.71875754   -2.8267837     2627.281  0.066506708  0.066002384            6 
 3293000   0.71513769   -2.8183691    2626.7676  0.066473519  0.065988926            5 
 3294000   0.73605356   -2.8163135     2624.616  0.066398907  0.065975602            6 
 3295000   0.72845719   -2.8248995    2627.5725  0.066453528  0.065962206            3 
 3296000   0.71433744   -2.8151265      2628.74  0.066462883  0.065948946            5 
 3297000   0.72302849   -2.8347627    2625.1579  0.066352187  0.065935565            3 
 3298000   0.72641715   -2.8216522    2625.2108  0.066333405  0.065922119            6 
 3299000   0.73145583   -2.8380876    2624.1864   0.06628742  0.065908827            3 
 3300000   0.72280996   -2.8255366    2627.5591  0.066352502   0.06589541            3 
 3301000   0.70540029   -2.8238884    2630.4318  0.066404923  0.065882122            4 
 3302000   0.72347807   -2.8225928    2627.8899  0.066320662  0.065868803            4 
 3303000   0.72015749   -2.8346372    2624.6916  0.066219891  0.065855328            3 
 3304000   0.72671308   -2.8273459    2631.7704  0.066378389  0.065842014            6 
 3305000   0.72978818   -2.8372321    2626.2035  0.066217939  0.065828657            5 
 3306000   0.71429961    -2.818707    2632.1749   0.06634843  0.065815201            5 
 3307000   0.72692018   -2.8451574    2632.7632   0.06634319   0.06580164            6 
 3308000   0.71748851   -2.8247222    2633.4899  0.066341442  0.065788279            3 
 3309000    0.7162872   -2.8146491    2633.9615  0.066333271   0.06577498            8 
 3310000   0.72162242   -2.8362267    2634.0611  0.066315737  0.065761528            2 
 3311000    0.7199615   -2.8439355    2619.9658  0.065940949  0.065748074            3 
 3312000    0.7274941   -2.8297162    2630.4991  0.066186069   0.06573475            5 
 3313000    0.7195449   -2.8119494    2625.6141  0.066043216  0.065721302            5 
 3314000   0.72990035   -2.8258694    2632.4773  0.066195869  0.065707938            4 
 3315000   0.73406212   -2.8259002    2627.1176  0.066041166  0.065694468            4 
 3316000   0.71398384   -2.8217428    2630.7744  0.066113147  0.065681132            2 
 3317000    0.7274312   -2.8205072    2631.4096  0.066109175  0.065667676            3 
 3318000   0.73235204   -2.8475329     2627.476  0.065990455  0.065654093            3 
 3319000   0.70913352   -2.8405212    2632.6141  0.066099581  0.065640789            3 
 3320000    0.7169878   -2.8493713     2629.605  0.066004142  0.065627332            5 
 3321000   0.72031138   -2.8245967    2634.3772  0.066104015  0.065613862            5 
 3322000   0.72580611   -2.8056263    2630.8711  0.065996165  0.065600483            6 
 3323000   0.73039728    -2.820657    2633.6843  0.066046853  0.065586901            6 
 3324000   0.71746249   -2.8373321    2625.8509  0.065830598  0.065573307            3 
 3325000   0.70860298   -2.8044181    2624.9227  0.065787537  0.065559688            3 
 3326000   0.73704919   -2.8298222    2622.2012  0.065699568  0.065546076            5 
 3327000   0.72802067   -2.8359479     2643.183  0.066205366  0.065532493            6 
 3328000   0.72521487    -2.846053    2625.3864  0.065739843  0.065518822            4 
 3329000   0.72022419   -2.8336671    2630.9505  0.065859379  0.065505146            2 
 3330000   0.72397797   -2.8457779    2637.6015  0.066006044  0.065491546            7 
 3331000    0.7274216   -2.8322416    2624.5715  0.065660251  0.065477911            3 
 3332000   0.71402305    -2.824797     2631.808   0.06582153  0.065464348           12 
 3333000   0.71640685      -2.8285    2627.8401  0.065702574  0.065450583            6 
 3334000   0.72204561   -2.8541573    2630.7856  0.065756488  0.065436982            7 
 3335000   0.70887778     -2.83507    2629.8086  0.065712358  0.065423371            6 
 3336000   0.70901816   -2.8183088     2633.502  0.065784921  0.065409804            2 
 3337000   0.71038493   -2.8512929    2626.2646  0.065584472  0.065396211            6 
 3338000   0.70125104   -2.8286965    2639.6313  0.065898524  0.065382663            2 
 3339000   0.71560363   -2.8376654    2628.2134  0.065593826  0.065369243            4 
 3340000   0.70374608   -2.8493045     2629.976  0.065618164  0.065355748            4 
 3341000   0.70350827   -2.8322555    2639.5228  0.065836647  0.065342245            4 
 3342000   0.69836109   -2.8378632     2630.486  0.065591613  0.065328718            2 
 3343000   0.71042763   -2.8317833    2633.4214  0.065645164  0.065315116            6 
 3344000   0.71424818   -2.8412704    2620.5172  0.065303957  0.065301521            2 
 3345000   0.73080694   -2.8177579    2643.9534  0.065868296  0.065288012            3 
 3346000   0.72656309   -2.8566494    2640.4413   0.06576114  0.065274599            6 
 3347000   0.71996084   -2.8416912    2637.0878  0.065657998  0.065261106            3 
 3348000   0.71017592   -2.8554287    2634.3233  0.065569578  0.065247725            6 
 3349000   0.70017371   -2.8453252    2633.1949  0.065521919  0.065234247            5 
 3350000   0.72065592   -2.8199844    2631.3721  0.065457018  0.065220907            3 
 3351000   0.72812189   -2.8535879    2642.5913  0.065716484   0.06520739            3 
 3352000   0.72032559   -2.8342806    2637.9696  0.065581981  0.065194017            4 
 3353000   0.71025108   -2.8193291    2639.3286  0.065596199  0.065180626            3 
 3354000   0.72676454   -2.8461356    2631.8515  0.065390863  0.065167142            2 
 3355000   0.72856466   -2.8503405    2653.0679  0.065898359  0.065153725            3 
 3356000   0.72230356   -2.8631222    2635.1198   0.06543305  0.065140124            3 
 3357000   0.71686005   -2.8370422    2643.7368  0.065627464  0.065126744            7 
 3358000   0.72012273    -2.823145    2646.3243  0.065672135   0.06511352            5 
 3359000   0.71282152   -2.8492873    2644.4185    0.0656053  0.065100228            5 
 3360000   0.70767753    -2.822539    2641.3243  0.065509036  0.065086814            5 
 3361000   0.70447616    -2.861086     2645.978  0.065604928  0.065073443            8 
 3362000    0.6970883   -2.8359479    2638.3287  0.065395814  0.065060019            5 
 3363000   0.71716027   -2.8568261    2640.9101  0.065440333   0.06504668            3 
 3364000   0.71217072   -2.8555359    2640.3523  0.065407064  0.065033381            5 
 3365000   0.70832357   -2.8494113    2640.5535  0.065392607  0.065020069            8 
 3366000   0.70274144   -2.8382824    2638.4485  0.065321067   0.06500671            3 
 3367000   0.70550366   -2.8366119    2657.1419  0.065764328  0.064993284            4 
 3368000   0.70792806   -2.8490433      2645.49  0.065456502  0.064979976            6 
 3369000    0.7085828   -2.8232443     2651.004  0.065573463  0.064966672            4 
 3370000   0.71228528   -2.8433168    2643.2897  0.065363247  0.064953325            7 
 3371000   0.71137657   -2.8485853    2645.8292  0.065406635   0.06493999            5 
 3372000   0.71396918   -2.8423633    2643.5732  0.065331484  0.064926464            4 
 3373000   0.72284286   -2.8269105    2642.4721  0.065284913  0.064913186            5 
 3374000   0.71843673   -2.8365222     2642.281  0.065260843  0.064899681            7 
 3375000   0.71415064   -2.8530273    2634.3044  0.065044553  0.064886293            7 
 3376000   0.69450205   -2.8597051     2643.179  0.065244348  0.064872856            6 
 3377000   0.72288682   -2.8559756    2643.2513  0.065226812  0.064859413            3 
 3378000   0.70877661   -2.8725141    2640.9497  0.065150723  0.064845921            4 
 3379000    0.7111259   -2.8211278    2648.0287  0.065306025  0.064832508            4 
 3380000   0.71521501   -2.8602803    2649.6084   0.06532565  0.064819109            7 
 3381000   0.70434936   -2.8493363    2646.6445  0.065233276  0.064805725            2 
 3382000   0.72021566   -2.8429253    2644.7045  0.065166186  0.064792339            7 
 3383000   0.70722569   -2.8347894    2655.1789  0.065404938  0.064779034            4 
 3384000   0.71512876   -2.8308108    2647.3389  0.065192546  0.064765615            7 
 3385000   0.71613627   -2.8346561    2645.6747  0.065132317  0.064752198            7 
 3386000    0.7137486   -2.8459426    2645.7919  0.065115966   0.06473867            3 
 3387000   0.71012588   -2.8301641    2652.7318  0.065267489  0.064725333            3 
 3388000   0.70921046   -2.8480935    2652.3291   0.06523832  0.064711845            3 
 3389000   0.71368178   -2.8560124    2647.0093  0.065088259  0.064698288            5 
 3390000   0.71098108    -2.857227    2650.5373  0.065155784  0.064684876            4 
 3391000   0.71621356   -2.8429649    2649.4899   0.06511083  0.064671412            6 
 3392000   0.70869102   -2.8450454    2646.0031  0.065005972  0.064657849            6 
 3393000   0.69041248   -2.8369785    2654.9458  0.065206451   0.06464442            4 
 3394000   0.70998307   -2.8562932    2653.8167  0.065159513  0.064631061            4 
 3395000   0.71623042   -2.8518398    2647.6135  0.064988059  0.064617543            6 
 3396000   0.69401677   -2.8587262    2651.5051  0.065064416  0.064604104            5 
 3397000   0.71430829   -2.8337673    2655.1138   0.06513379  0.064590572            4 
 3398000    0.7036141   -2.8447313    2653.3535  0.065071451  0.064577218            3 
 3399000    0.7070803   -2.8507508    2658.3921  0.065175838  0.064563817            4 
 3400000   0.70547803   -2.8503849    2648.4946  0.064914083  0.064550376            6 
 3401000   0.70010521    -2.846774    2654.7605  0.065048527  0.064537058            3 
 3402000   0.69228523   -2.8353172    2648.6612  0.064880002    0.0645237            4 
 3403000   0.72653676    -2.853154    2649.1625  0.064873212   0.06451025            9 
 3404000   0.70725759   -2.8385063    2652.9588  0.064947091  0.064496895            2 
 3405000    0.7132973   -2.8769695    2650.4238  0.064865976  0.064483344            8 
 3406000   0.71419418   -2.8464719    2646.6703  0.064755096  0.064469717            2 
 3407000    0.6980913   -2.8538596    2649.9721  0.064816851  0.064456282            8 
 3408000   0.69309729   -2.8572931    2652.9648  0.064871009  0.064442816            4 
 3409000   0.69059806   -2.8582359    2659.8814  0.065021057  0.064429402            7 
 3410000   0.72122125   -2.8318103    2653.6439  0.064849557  0.064416066            4 
 3411000   0.72429838   -2.8658318    2650.5676   0.06475539  0.064402708            5 
 3412000   0.70159465   -2.8569108    2662.1822  0.065020082  0.064389391            3 
 3413000   0.72011204   -2.8579775    2655.6838  0.064842362   0.06437613            4 
 3414000   0.70601754    -2.842036    2658.6276  0.064895225  0.064362738            3 
 3415000    0.7065211   -2.8347588    2662.8422  0.064979068  0.064349543            3 
 3416000   0.71476575   -2.8494152    2649.9989  0.064646732  0.064336256            3 
 3417000   0.69277715   -2.8350506    2654.7981  0.064744857  0.064322992            6 
 3418000   0.69332679   -2.8652887    2662.9503  0.064924671  0.064309741            3 
 3419000   0.70232555   -2.8669632    2654.9662  0.064711081   0.06429643            3 
 3420000   0.69761405   -2.8476771    2654.9812  0.064692524  0.064283081            9 
 3421000   0.70425709   -2.8624201     2661.857  0.064841105  0.064269919            5 
 3422000   0.70962887   -2.8710331    2659.3097  0.064760122  0.064256653            5 
 3423000   0.71133982   -2.8593919    2660.5417  0.064771198  0.064243444           14 
 3424000   0.70364946   -2.8531424    2656.8164  0.064661613  0.064230115            2 
 3425000   0.70278615   -2.8477639    2662.3586  0.064777581  0.064216884           20 
 3426000   0.70737223   -2.8581327    2666.9201  0.064869628   0.06420369            2 
 3427000   0.69674302   -2.8153766    2662.9765  0.064754803  0.064190446            6 
 3428000   0.70214574   -2.8563201    2658.8151   0.06463475  0.064177361            5 
 3429000   0.69501082   -2.8618828    2664.6637  0.064758038  0.064164144            4 
 3430000   0.69826669    -2.860742    2664.9282  0.064745584  0.064150828            4 
 3431000   0.69463866   -2.8592599    2664.1977   0.06470897  0.064137621            5 
 3432000   0.70308981   -2.8665094    2657.4856  0.064527137  0.064124317            6 
 3433000    0.7161023    -2.865629     2663.596  0.064656667  0.064110889            5 
 3434000   0.70661007   -2.8791623    2664.3287  0.064655619  0.064097636           11 
 3435000   0.69629252   -2.8694437    2657.4548  0.064470033  0.064084259            5 
 3436000    0.7075787   -2.8408496    2669.7681  0.064749906  0.064071023            6 
 3437000   0.71706692   -2.8323007    2665.3933  0.064624994  0.064057989            2 
 3438000   0.71192098   -2.8563618    2667.7873  0.064664225  0.064044819            2 
 3439000   0.70952972   -2.8720739    2664.5331  0.064566566  0.064031554            5 
 3440000   0.69769438   -2.8586275    2662.7288  0.064504089   0.06401835            6 
 3441000   0.71542459      -2.8532    2658.8758  0.064392032  0.064005321            3 
 3442000   0.69292514   -2.8478407    2673.7218  0.064732756  0.063992215            5 
 3443000   0.69605533   -2.8545297    2662.9203   0.06445252  0.063979063            6 
 3444000   0.71657251    -2.872578    2664.4942  0.064471889  0.063966031            4 
 3445000     0.695066   -2.8640537    2667.1032  0.064516284   0.06395293           10 
 3446000   0.70809314   -2.8597246    2674.5899   0.06467861  0.063939995            9 
 3447000   0.69880626    -2.877041    2673.9056  0.064643303  0.063926963            3 
 3448000   0.69649565   -2.8504397    2660.2766  0.064295162  0.063913831            5 
 3449000   0.68916591   -2.8528012    2665.9743  0.064414186  0.063900779            7 
 3450000   0.71268237   -2.8597665    2673.1329  0.064568426  0.063887772            5 
 3451000   0.70417585   -2.8471318    2675.7121  0.064611998  0.063874796            5 
 3452000   0.69247203   -2.8775731    2671.3747  0.064488573  0.063861736            4 
 3453000   0.69705607    -2.864464    2677.8947   0.06462725  0.063848737            6 
 3454000   0.69064873   -2.8573918     2672.381  0.064475511  0.063835803            3 
 3455000   0.69566621     -2.87905    2675.7477  0.064538053  0.063822773            4 
 3456000   0.68960778    -2.880374    2670.1313  0.064383953  0.063809856            5 
 3457000   0.69290148   -2.8681773    2684.7742  0.064718306  0.063796975            6 
 3458000   0.69618528   -2.8543128     2678.802  0.064555668  0.063784127            5 
 3459000   0.69094914   -2.8555967    2682.6704  0.064630201  0.063771332           14 
 3460000   0.70033258   -2.8618692    2670.1389  0.064309703  0.063758515            4 
 3461000    0.7180661   -2.8739958    2681.1212  0.064555553  0.063745657            3 
 3462000   0.69859894   -2.8626754    2678.0472  0.064462911  0.063732814            3 
 3463000   0.69384556   -2.8647139    2675.6938  0.064387665  0.063719915            4 
 3464000   0.69436034   -2.8769096    2683.0584  0.064546246  0.063707084            6 
 3465000   0.68943347   -2.8623002    2676.4682  0.064369124  0.063694257            4 
 3466000   0.69528107    -2.879427    2671.5957  0.064233403  0.063681404            6 
 3467000   0.69883362   -2.8605629    2686.3699   0.06456999   0.06366857            3 
 3468000   0.70138178   -2.8806675    2685.3279  0.064526332  0.063655844            8 
 3469000   0.70279313   -2.8559954    2682.9687  0.064451061  0.063643081            5 
 3470000   0.71202052   -2.8768211    2680.7625  0.064379504   0.06363021           11 
 3471000   0.69560724   -2.8797694    2686.2766  0.064493341  0.063617453            6 
 3472000   0.71361198      -2.8726    2678.4579  0.064287103  0.063604652            5 
 3473000    0.7082433     -2.87766    2677.6634  0.064249529  0.063591938            7 
 3474000   0.69004134   -2.8761942    2687.9987  0.064478956  0.063579144            5 
 3475000   0.69456383   -2.8671975    2685.3003  0.064395691  0.063566215            4 
 3476000   0.69802723   -2.8679759    2681.4796  0.064285567  0.063553413            6 
 3477000   0.70781911   -2.8761873    2683.7511  0.064321521  0.063540582            2 
 3478000   0.69092534   -2.8535699    2678.6474  0.064180742  0.063527803            6 
 3479000   0.68759825   -2.8649406     2688.368  0.064395132  0.063515007            3 
 3480000   0.69329154   -2.8635157     2687.808  0.064363217  0.063502202            6 
 3481000   0.68744835   -2.8621001    2683.7743  0.064248164  0.063489472            3 
 3482000   0.71930048   -2.8824972    2681.1382  0.064166623  0.063476746            7 
 3483000   0.68567521   -2.8811659     2694.538    0.0644688  0.063463933            9 
 3484000    0.7012305   -2.8670781    2690.8006  0.064360901  0.063450997            3 
 3485000   0.69587415   -2.8705325    2683.0307   0.06415664  0.063438208            4 
 3486000   0.68918253   -2.8919826    2685.0935  0.064187548  0.063425424            8 
 3487000    0.6928425   -2.8715764     2689.469  0.064273707  0.063412636            4 
 3488000    0.7050918   -2.8584599    2686.6758  0.064188547  0.063399899            5 
 3489000   0.68577096   -2.8824526    2682.7911  0.064077365  0.063387235            3 
 3490000    0.6781056   -2.8753788    2687.1745  0.064163671  0.063374533            5 
 3491000   0.70603849   -2.8505278    2684.7576  0.064087598  0.063361746            8 
 3492000   0.68020856   -2.8654913    2693.6433  0.064281294  0.063348874            9 
 3493000   0.70122568   -2.8548715    2696.4559   0.06432999  0.063336131            5 
 3494000   0.69333607   -2.8718432    2694.1037  0.064255479   0.06332348            3 
 3495000   0.68504377   -2.8771324    2682.7905  0.063967347  0.063310746            4 
 3496000   0.69454116   -2.8629247    2680.2424   0.06388831   0.06329805           11 
 3497000   0.69637151   -2.8676674     2686.897  0.064028619  0.063285299            4 
 3498000   0.70204999   -2.8787282    2691.7862  0.064126791  0.063272635            5 
 3499000   0.68444873   -2.8650753    2699.1067  0.064282811  0.063260025            8 
 3500000   0.70256683   -2.8804938    2692.8922  0.064116481  0.063247346            5 
 3501000   0.69318514   -2.8704013    2697.0831  0.064197922  0.063234647            5 
 3502000   0.68013853   -2.8846524    2695.5556  0.064143241  0.063222059            4 
 3503000   0.70143098   -2.8630649    2691.5756   0.06403025  0.063209477            7 
 3504000   0.69738416    -2.887352    2695.3745  0.064102324  0.063196857            5 
 3505000   0.67774485   -2.8780093    2694.7307  0.064068728  0.063184248            5 
 3506000   0.69821701   -2.8666488    2689.4293  0.063924447  0.063171559            7 
 3507000   0.68766994   -2.8484278    2709.3884  0.064380487  0.063158834            5 
 3508000   0.69064436   -2.8597472    2694.9552  0.064019271  0.063146139            5 
 3509000   0.68560046   -2.8817053    2693.7904  0.063973363  0.063133509            3 
 3510000   0.69402347   -2.8955992     2693.851  0.063956577  0.063120797            5 
 3511000   0.70294114   -2.8788373    2690.3188  0.063854523  0.063108096            3 
 3512000   0.69726045   -2.8882794    2692.4432   0.06388675   0.06309534            7 
 3513000   0.68975096   -2.8694684    2696.4006  0.063962439  0.063082581            5 
 3514000   0.68795918   -2.8809683    2683.9923  0.063649979  0.063069897            7 
 3515000   0.69227341   -2.8726983    2694.4111  0.063878879  0.063057264            5 
 3516000   0.68903148   -2.8951896    2698.9385  0.063968015  0.063044463            5 
 3517000   0.70462412   -2.8839142     2692.598  0.063799593  0.063031717            5 
 3518000   0.69098771    -2.867614    2698.6428  0.063924645  0.063019003            4 
 3519000   0.69526757   -2.8765039     2704.359  0.064041843  0.063006326            9 
 3520000   0.69609223   -2.8920648    2697.0362  0.063850289  0.062993617            4 
 3521000    0.6890031   -2.8818928    2697.0392  0.063832225  0.062980952            4 
 3522000   0.67907427   -2.8710638    2696.7141   0.06380641   0.06296833            9 
 3523000   0.68412257   -2.8854694    2696.2807  0.063778047  0.062955663            7 
 3524000   0.70669075   -2.8560709    2701.2304  0.063876995  0.062943075            3 
 3525000   0.70554373   -2.8741241    2705.3299   0.06395579  0.062930426            6 
 3526000    0.6908705   -2.8644116    2702.8109  0.063878117  0.062917949            8 
 3527000   0.68877418   -2.8782109    2687.6384  0.063501521  0.062905341            7 
 3528000   0.69727013   -2.8806802    2697.7211  0.063721682  0.062892826            9 
 3529000   0.68389109   -2.8835582    2698.3365  0.063718157  0.062880129            5 
 3530000   0.66532207   -2.8951028    2692.2352  0.063556071  0.062867461            7 
 3531000   0.68397187    -2.867246    2696.4309  0.063637092  0.062854759            6 
 3532000   0.68883423   -2.8670678    2690.0326  0.063468116  0.062842169            7 
 3533000   0.67998691   -2.8778311    2702.6018  0.063746622  0.062829474           10 
 3534000   0.67904066   -2.8797186    2698.0292  0.063620759  0.062816766            5 
 3535000   0.68773712   -2.8703709    2704.8011  0.063762402  0.062804026            6 
 3536000   0.71911251   -2.8854875    2709.9453  0.063865604  0.062791266            6 
 3537000   0.69394879   -2.8649353    2699.4997  0.063601445  0.062778592            4 
 3538000   0.69153003   -2.8662156    2705.9562  0.063735543  0.062765946            4 
 3539000   0.68689222   -2.9137351    2697.4689  0.063517681  0.062753128            7 
 3540000    0.6875846   -2.8871977    2704.4158  0.063663272  0.062740233            6 
 3541000   0.68636405   -2.8908243    2701.3764  0.063573765  0.062727556            3 
 3542000   0.68481301   -2.8850058    2698.7495  0.063494012  0.062714851           12 
 3543000    0.6639628   -2.8879529    2708.5821  0.063707359  0.062702124            3 
 3544000   0.68904409   -2.8912906    2700.0063  0.063487733   0.06268947            4 
 3545000   0.69114464   -2.8769561    2704.6494   0.06357897  0.062676811            5 
 3546000   0.69823556   -2.8811322     2704.661  0.063561313   0.06266407           12 
 3547000   0.67838111   -2.8715152    2696.9957  0.063363306  0.062651375            6 
 3548000   0.68271743   -2.8763495    2700.2299   0.06342141  0.062638549            5 
 3549000   0.67567223   -2.9004161    2694.4358  0.063267489   0.06262568            3 
 3550000   0.67460915   -2.8770252    2697.7673  0.063327871  0.062612763            7 
 3551000   0.67144959   -2.8645795    2697.4002  0.063301422  0.062600112            6 
 3552000   0.67015425   -2.8971726    2702.3923  0.063400719  0.062587241            5 
 3553000   0.66431376   -2.9038243    2701.7108  0.063366892  0.062574409            6 
 3554000   0.67462499   -2.8820658    2701.0117  0.063332669  0.062561635           14 
 3555000   0.69890081   -2.8679431    2703.1774  0.063365622  0.062548882            4 
 3556000    0.6564337   -2.9136348    2698.5486  0.063239327  0.062536057            5 
 3557000   0.67062745    -2.881672    2698.2726  0.063215084  0.062523237            7 
 3558000   0.68013003    -2.884422    2708.6945  0.063441411  0.062510428            3 
 3559000   0.68246089   -2.8741512    2701.7832  0.063261758  0.062497668            3 
 3560000    0.6795514   -2.8893061    2707.3802  0.063375005  0.062484927            5 
 3561000   0.67454597   -2.8966353    2705.6491  0.063316697  0.062472107           13 
 3562000   0.67511034    -2.878222    2706.2809  0.063313703   0.06245944            5 
 3563000   0.67069988   -2.8697576    2711.4785  0.063417497  0.062446869            2 
 3564000   0.66249852   -2.8742666    2712.0961  0.063414143  0.062434237           10 
 3565000    0.6934404   -2.8867829    2704.9149  0.063228493  0.062421519            6 
 3566000   0.67807875   -2.8635676    2710.4593  0.063340328  0.062408887            5 
 3567000   0.68233591   -2.8758007    2716.1609  0.063455773  0.062396363           10 
 3568000   0.68015457   -2.8958542    2703.3766  0.063139401  0.062383667            8 
 3569000   0.68281357   -2.9031198    2697.1013  0.062975187  0.062370982            4 
 3570000   0.66563776   -2.8865574    2709.6122  0.063249585  0.062358177            7 
 3571000   0.68879267   -2.8876786    2706.8858  0.063168248  0.062345452            6 
 3572000   0.69107065   -2.9018139    2705.1494  0.063110056  0.062332647            3 
 3573000   0.68057942    -2.902965    2702.4821  0.063030183  0.062319844            9 
 3574000   0.68436586   -2.8925372    2697.8338  0.062904165  0.062307098            3 
 3575000   0.67495517   -2.8865409    2708.5033  0.063135274  0.062294488            4 
 3576000   0.68575286   -2.8942987     2707.614  0.063096896  0.062281823            6 
 3577000   0.66725269   -2.9025652    2706.4494  0.063052125  0.062269026            4 
 3578000   0.67926936   -2.8811353    2707.5481  0.063060091  0.062256322           15 
 3579000   0.67447692   -2.8953061    2715.4875  0.063227333  0.062243692            7 
 3580000   0.67438195   -2.8735651    2701.9378  0.062894268   0.06223093            6 
 3581000   0.68748417   -2.8902663    2705.6609  0.062963346  0.062218208            6 
 3582000    0.6682286   -2.8755587    2715.4056  0.063172474  0.062205523            6 
 3583000    0.6892314   -2.8855783    2703.6236  0.062880816  0.062192788            3 
 3584000    0.6698382   -2.8914945    2708.7456  0.062982366  0.062179979            5 
 3585000   0.67440054   -2.8901319    2703.1776  0.062835369  0.062167186            5 
 3586000   0.68138342   -2.9090077    2708.8151  0.062948855  0.062154483            5 
 3587000   0.67844408   -2.8963688    2702.4378  0.062783146  0.062141745            6 
 3588000   0.68599333   -2.9116299    2712.3986  0.062996995  0.062129056            5 
 3589000   0.67224753   -2.8942559    2710.3952  0.062932925  0.062116348           11 
 3590000   0.67606015   -2.8686801    2718.5358  0.063104359  0.062103683            5 
 3591000   0.68447188   -2.8888218    2710.8299  0.062907962  0.062091056            6 
 3592000   0.65986949   -2.9093643    2703.8688  0.062728953  0.062078294            3 
 3593000   0.66003853   -2.8944791    2703.5589  0.062704306  0.062065491            5 
 3594000   0.66175474   -2.8928229    2715.3984   0.06296138  0.062052823            5 
 3595000   0.68796001   -2.9021746    2707.2915  0.062755946  0.062040205            4 
 3596000   0.67757375   -2.9010459    2712.8272  0.062866778  0.062027542            3 
 3597000   0.67047708    -2.905131    2709.5994  0.062774521  0.062014892            4 
 3598000   0.68115207   -2.8767108    2714.3254  0.062866532  0.062002255            2 
 3599000    0.6702166   -2.8823163     2712.826  0.062814346  0.061989774            5 
 3600000   0.68435021   -2.8906701    2713.7787  0.062818952  0.061977196            7 
 3601000   0.67758759   -2.9186455    2720.5748  0.062958781  0.061964533            6 
 3602000   0.68128949   -2.9010416    2713.9071  0.062787041  0.061951796            4 
 3603000   0.66989327   -2.9281697    2713.3685  0.062757159  0.061939103            5 
 3604000   0.66866487   -2.8851917    2714.1206  0.062757136  0.061926404            5 
 3605000   0.68189685   -2.8839816     2718.542  0.062841932  0.061913789           12 
 3606000   0.67140488   -2.8792278    2713.1611  0.062700154  0.061901152            8 
 3607000   0.68807122   -2.9233209    2707.6413  0.062555247  0.061888371            4 
 3608000    0.6806118   -2.8947346    2714.7236  0.062701488  0.061875703            4 
 3609000   0.67481257   -2.9107981    2721.5106  0.062840829  0.061863077            6 
 3610000   0.66933271   -2.8906666    2714.8713  0.062670159  0.061850347            4 
 3611000   0.69310616   -2.9046074    2715.7157  0.062672291  0.061837652            9 
 3612000   0.66707763   -2.9054656    2709.0928  0.062502142  0.061824994            5 
 3613000   0.66735353   -2.9081007    2716.8603  0.062663999  0.061812377            3 
 3614000   0.66818913   -2.8960451    2718.3476  0.062680955  0.061799737            7 
 3615000   0.66701446   -2.8955111    2713.6407  0.062555111  0.061787035            5 
 3616000   0.68335374   -2.9038619     2709.676  0.062446441  0.061774221            3 
 3617000   0.67288519   -2.9107554    2714.0509  0.062529972  0.061761565            6 
 3618000   0.69414098   -2.9139455    2714.0954  0.062513713  0.061748746           10 
 3619000   0.66382235   -2.9093089    2720.9675  0.062654681     0.061736            2 
 3620000   0.68558802   -2.8910545    2712.7664  0.062448583  0.061723359            6 
 3621000   0.65078631   -2.9027071    2716.2411  0.062511302  0.061710763            5 
 3622000   0.67176738   -2.8835128    2714.4499  0.062452831  0.061698193           11 
 3623000   0.68571337   -2.9179255    2715.6992   0.06246433  0.061685628            9 
 3624000   0.66466404   -2.9082559    2716.0394  0.062454916  0.061672894           11 
 3625000   0.67164773   -2.9182159     2712.627  0.062359241  0.061660203            6 
 3626000    0.6752442   -2.9020155    2715.4982  0.062408029  0.061647524            3 
 3627000   0.66272104   -2.9065598    2721.8448  0.062536643  0.061634805            8 
 3628000   0.67144005   -2.9094978    2719.5843  0.062467482   0.06162219            6 
 3629000   0.66991172   -2.8926263    2714.2597  0.062327999  0.061609578            6 
 3630000   0.65018511   -2.9011033    2728.6731  0.062641716  0.061597127            4 
 3631000   0.69257325   -2.8848788    2727.2134  0.062590961  0.061584591            5 
 3632000   0.66338894   -2.9006546    2722.3291  0.062461662  0.061572161            5 
 3633000   0.67613765   -2.8987729    2720.9476   0.06241278  0.061559625            4 
 3634000   0.66772567   -2.9102139    2723.6186  0.062456857   0.06154716            5 
 3635000   0.67796099   -2.9068322    2714.4824  0.062230225  0.061534582            5 
 3636000   0.67311068   -2.9144759    2726.3188  0.062484389  0.061522183           16 
 3637000   0.66603001   -2.9002487     2717.633  0.062268193  0.061509723            5 
 3638000   0.66100656   -2.9046039    2728.9746  0.062510872  0.061497402            5 
 3639000   0.69153845   -2.9120749    2723.8501  0.062376343  0.061485027            6 
 3640000   0.67950538   -2.9054829    2733.0638  0.062570142  0.061472654            7 
 3641000   0.66303689   -2.9093747    2732.5742  0.062541751  0.061460414           13 
 3642000   0.66215066   -2.8943091    2729.8656  0.062462602  0.061448048            9 
 3643000   0.65467491   -2.9093975    2731.6625   0.06248656  0.061435736            5 
 3644000   0.66661389   -2.9198265    2723.4477  0.062281553  0.061423338            5 
 3645000   0.67019124   -2.8956771    2729.3159  0.062398627  0.061411004            4 
 3646000   0.66891934   -2.9093296    2735.5493  0.062523984  0.061398707            5 
 3647000   0.66342148    -2.889449    2727.1192  0.062314213  0.061386416            7 
 3648000   0.67466479    -2.914815    2732.2848  0.062415132  0.061374138            5 
 3649000   0.67508548   -2.9024495    2729.0732  0.062324683  0.061361905            8 
 3650000   0.65864212   -2.9404181    2732.9421  0.062395937  0.061349585            6 
 3651000   0.68270033   -2.8893689     2733.523  0.062392108  0.061337307            5 
 3652000    0.6651433   -2.8946634    2728.8363   0.06226808  0.061325041            3 
 3653000   0.67495087   -2.9116055    2725.9625  0.062185475  0.061312681            4 
 3654000   0.67334185   -2.9058211    2735.6298  0.062388931   0.06130035            5 
 3655000   0.68338993   -2.8962587    2733.2162   0.06231683  0.061288137            4 
 3656000   0.66658413   -2.9214428      2726.63  0.062149663   0.06127578            4 
 3657000   0.65555945   -2.8997289    2725.4735  0.062106315  0.061263555            5 
 3658000   0.66774438   -2.9135608    2739.3535  0.062405538  0.061251229            4 
 3659000   0.67922223   -2.8922034    2730.5806   0.06218868  0.061239023            8 
 3660000   0.65686113   -2.9016565    2738.6422  0.062355241  0.061226873            5 
 3661000   0.66502866   -2.9318776    2727.4035  0.062082388  0.061214661            5 
 3662000   0.66852703   -2.9421627    2743.4185  0.062429877  0.061202421            5 
 3663000   0.64988745   -2.9146411    2741.8793  0.062377816  0.061190304            4 
 3664000   0.66405403   -2.9299937    2735.1317  0.062207326  0.061178145            4 
 3665000   0.66601611   -2.9204049    2737.7613  0.062250143  0.061165963            6 
 3666000   0.66885605   -2.8960927    2734.2803  0.062154035  0.061153816            3 
 3667000    0.6530439   -2.9312054    2742.3273  0.062319955  0.061141674            4 
 3668000   0.66306823   -2.8978828    2744.6047  0.062354704  0.061129638            3 
 3669000   0.67481605   -2.8988196    2733.7663  0.062091539  0.061117566            4 
 3670000   0.67047766   -2.9292283    2736.1734  0.062129279  0.061105426            7 
 3671000   0.66426693   -2.9473436    2738.0503  0.062154959  0.061093227            5 
 3672000   0.66778415   -2.9143744    2742.3457  0.062235513  0.061081083            5 
 3673000   0.66219605   -2.9031956    2740.0633  0.062166788   0.06106896            6 
 3674000   0.66435234    -2.931332    2732.7126  0.061983138  0.061056892            8 
 3675000   0.68058864    -2.928225    2748.3843  0.062321639   0.06104467           11 
 3676000   0.67737973   -2.9107131    2745.8632  0.062247533  0.061032524            8 
 3677000   0.65514186   -2.8966877    2752.9384  0.062390953  0.061020473            4 
 3678000   0.65488739   -2.8975275    2732.4057  0.061908774  0.061008393            5 
 3679000   0.67967549   -2.9055316    2748.5264  0.062257098  0.060996334            6 
 3680000   0.66608759   -2.9140585    2740.9605  0.062068851  0.060984262            4 
 3681000   0.65789965   -2.9127693    2744.1587  0.062124394   0.06097212            4 
 3682000   0.65524576   -2.9208624    2744.7967   0.06212196  0.060960018            5 
 3683000   0.66214398   -2.9144699      2745.97  0.062131642  0.060947955            6 
 3684000   0.65859573   -2.9178275    2737.9252    0.0619328  0.060935846            7 
 3685000   0.65748861   -2.9230314    2746.8271  0.062117302  0.060923775            6 
 3686000     0.657473   -2.9280545    2747.8589  0.062123776  0.060911723            3 
 3687000   0.66183502   -2.8978151    2751.6889  0.062193494  0.060899734            4 
 3688000   0.66290362    -2.921851     2750.748  0.062155368  0.060887753            7 
 3689000    0.6648892     -2.91636    2751.7859  0.062161966  0.060875792            9 
 3690000   0.65403136   -2.9211023    2755.9344  0.062238807  0.060863784            6 
 3691000   0.67385596   -2.9226949    2749.1065  0.062067789  0.060851723            9 
 3692000   0.66015473   -2.9353408     2752.781  0.062133915  0.060839629            6 
 3693000   0.65688792   -2.9093307    2746.4238  0.061973639  0.060827672           10 
 3694000   0.67752508   -2.8923164    2755.5128  0.062161902  0.060815724            5 
 3695000   0.67060571   -2.9298602    2747.4661  0.061963603  0.060803809           10 
 3696000   0.65942348   -2.9178559     2746.125  0.061916599  0.060791844            3 
 3697000    0.6572157   -2.9145276    2751.9937  0.062032137  0.060779874           11 
 3698000   0.65743613   -2.9258688    2751.9873  0.062015217  0.060767855            4 
 3699000    0.6598355   -2.9106977    2747.8371  0.061904954  0.060755938            7 
 3700000   0.67379504   -2.8986844    2755.2654  0.062055526  0.060743926            5 
 3701000   0.66751075   -2.9335533    2750.8975  0.061940411   0.06073199            6 
 3702000   0.65288231       -2.932     2743.276  0.061752116  0.060719915            7 
 3703000   0.66084387   -2.9265358    2745.0266  0.061774836  0.060707865            7 
 3704000   0.65639006   -2.9200286    2751.1067   0.06189495  0.060695861            6 
 3705000   0.65137794   -2.9424333    2741.9993  0.061673398  0.060683772            5 
 3706000   0.65300385   -2.9241719    2757.9968  0.062016477  0.060671676            3 
 3707000   0.66676682   -2.8987858    2759.3204  0.062029502   0.06065967            4 
 3708000   0.64596858   -2.9121911    2750.3771  0.061811782   0.06064769            4 
 3709000   0.66215677   -2.9309742    2750.3073   0.06179355  0.060635696           11 
 3710000   0.64280251   -2.9308951    2753.7545  0.061854324  0.060623578            6 
 3711000     0.671339   -2.9227534    2758.2733  0.061939128  0.060611637            3 
 3712000   0.66092767   -2.9038898     2755.934  0.061869927  0.060599715            6 
 3713000   0.65845706   -2.9323515    2754.7221  0.061826063  0.060587755            4 
 3714000   0.65465799   -2.9306519    2750.1931  0.061707796  0.060575793            5 
 3715000   0.65648411   -2.9338554    2752.2468  0.061737254  0.060563805            7 
 3716000   0.65500532   -2.9405457     2748.578  0.061638367  0.060551803            6 
 3717000   0.65863755    -2.914954    2751.2148  0.061680898   0.06053985            5 
 3718000   0.65342626   -2.9341168    2753.8857  0.061724173  0.060527918            7 
 3719000   0.64752954   -2.9275763    2761.9859  0.061889081  0.060515834            7 
 3720000   0.65605113    -2.926509    2754.4021  0.061702555  0.060503914            5 
 3721000     0.655389   -2.9302498    2761.0376  0.061834578  0.060491966            5 
 3722000   0.66016815   -2.9396768    2763.2281  0.061867009  0.060480049            8 
 3723000    0.6617457   -2.9270039    2755.8129  0.061684414   0.06046802            6 
 3724000    0.6653577   -2.9293871    2757.7163  0.061710443  0.060455988            4 
 3725000     0.665209   -2.9059595    2761.9035   0.06178755  0.060444074           10 
 3726000   0.65899476   -2.9410504    2743.7691  0.061365385  0.060432001            4 
 3727000   0.64727405   -2.9289108     2758.898  0.061687192   0.06042004            4 
 3728000   0.64900206   -2.9372382    2763.9814  0.061784276  0.060408015            4 
 3729000   0.64477336   -2.9520366     2751.187  0.061481787  0.060395976            5 
 3730000   0.66266155    -2.936709    2757.7956   0.06161295  0.060383882            9 
 3731000   0.65572385   -2.9292056    2752.1665  0.061470706  0.060371722            5 
 3732000   0.66564236   -2.9163835    2753.2251  0.061477874  0.060359642            6 
 3733000   0.64913788   -2.9421424    2753.7328  0.061472738  0.060347515            8 
 3734000   0.65709447   -2.9211796    2750.6697  0.061387915  0.060335396            3 
 3735000   0.65961314   -2.9213743    2751.1469  0.061382127  0.060323227            7 
 3736000   0.66345366   -2.9243573    2757.2222  0.061501208  0.060311153            5 
 3737000   0.65011963   -2.9219564    2757.7911  0.061497439  0.060299167           10 
 3738000   0.64170393   -2.9394359    2759.7592  0.061524861  0.060287139            3 
 3739000    0.6644547   -2.9428588    2748.9089  0.061266581  0.060275033           11 
 3740000   0.65771031   -2.9283893    2764.4415  0.061596291  0.060263096            4 
 3741000   0.64279018   -2.9425198    2745.8928  0.061166639   0.06025103           12 
 3742000   0.65786976   -2.9338788    2771.2003  0.061713885  0.060239021            3 
 3743000   0.65378635   -2.9244849    2761.9938  0.061492426  0.060227057            3 
 3744000   0.66073594   -2.9293311    2753.3979  0.061284675  0.060215027           17 
 3745000   0.67233491   -2.9161678    2753.0768  0.061261167  0.060203045            7 
 3746000   0.65580088   -2.9633152    2758.0011  0.061354359  0.060191057            5 
 3747000   0.65639893   -2.9302452     2754.741  0.061265478  0.060178944           12 
 3748000   0.66311699   -2.9234044    2759.2578  0.061349559  0.060166962            5 
 3749000   0.65392555   -2.9125327    2762.8661  0.061413402  0.060154983            6 
 3750000   0.65743208   -2.9376494    2761.4947  0.061366549  0.060143027            5 
 3751000   0.66084645   -2.9115565    2755.4688  0.061216316  0.060131072            6 
 3752000    0.6544548    -2.954764    2758.9262   0.06127679  0.060119075            5 
 3753000   0.65008351   -2.9382941    2764.9837  0.061394967  0.060107023            6 
 3754000   0.64629427   -2.9303461    2761.4419  0.061299988  0.060094984            5 
 3755000   0.65280201   -2.9273061    2765.8592  0.061381694  0.060083125            7 
 3756000   0.66575051   -2.9501054    2757.9081  0.061188944  0.060071118            5 
 3757000    0.6570202   -2.9269139    2762.4803  0.061274073  0.060059089            5 
 3758000    0.6411881   -2.9207226    2764.7142  0.061307304  0.060046984            3 
 3759000   0.63905834   -2.9363165    2758.3988  0.061150988  0.060035055            5 
 3760000   0.64239631   -2.9381559    2761.4545  0.061202448  0.060023005           11 
 3761000   0.64952958   -2.9335656    2759.3245  0.061138982  0.060011023            5 
 3762000   0.64164522   -2.9295493    2767.8295  0.061311126  0.059999074            7 
 3763000   0.64300043   -2.9213458    2763.3731  0.061196145  0.059987091            3 
 3764000   0.64903188   -2.9469985    2755.4113  0.061003616  0.059975142            6 
 3765000   0.66410247   -2.9500993    2756.7943  0.061018023  0.059963115            4 
 3766000   0.64900373   -2.9120441    2763.8912  0.061158859  0.059951041            5 
 3767000   0.66270086   -2.9478223    2768.9133  0.061253723  0.059939172            5 
 3768000   0.64207114   -2.9164238    2762.2062  0.061089131  0.059927299            7 
 3769000   0.64151895   -2.9321885    2762.6504  0.061082746  0.059915374            4 
 3770000   0.65446336   -2.9492092    2760.7783  0.061025162  0.059903453            7 
 3771000   0.65961923   -2.9569998    2765.5661  0.061114783   0.05989155           10 
 3772000   0.64917742   -2.9376863     2764.785  0.061081324  0.059879665            9 
 3773000   0.64987984   -2.9478383    2770.9932  0.061202253  0.059867793            7 
 3774000   0.64577715   -2.9383636    2763.3216  0.061016641   0.05985589            5 
 3775000   0.63980301   -2.9371806    2774.4058  0.061245161  0.059843972           11 
 3776000   0.66129489   -2.9254164    2762.1709  0.060958927  0.059832093           13 
 3777000   0.64608998   -2.9131408    2767.9679   0.06107069  0.059820208            9 
 3778000   0.64521469   -2.9329177    2769.3059  0.061084038  0.059808352           11 
 3779000   0.64024369   -2.9425405    2765.9073  0.060992928  0.059796502            6 
 3780000   0.63281578   -2.9336607     2775.721  0.061193143  0.059784639            9 
 3781000   0.64210341    -2.941842    2774.7706  0.061156011  0.059772762            9 
 3782000    0.6392397   -2.9563856    2767.7374  0.060984872  0.059760902            5 
 3783000   0.63709345   -2.9344353    2766.8739  0.060949729  0.059748976           11 
 3784000   0.65365459   -2.9383629    2762.8392  0.060844767   0.05973698            7 
 3785000   0.63160277   -2.9532982    2773.1241  0.061055132  0.059725131            6 
 3786000   0.65734417   -2.9565815    2769.6897  0.060963411  0.059713211            8 
 3787000   0.64701413    -2.950617    2766.4372  0.060875741   0.05970124            6 
 3788000   0.64752145   -2.9511155    2767.7181   0.06088785  0.059689352            6 
 3789000    0.6519187   -2.9474461    2767.7242  0.060871915  0.059677382            4 
 3790000   0.64982717   -2.9523107    2763.1174   0.06075456  0.059665405            5 
 3791000   0.64365301   -2.9420292    2773.5595  0.060968072  0.059653425            3 
 3792000   0.65573564   -2.9399718    2770.2958   0.06088027  0.059641511            2 
 3793000   0.64725088   -2.9354734    2766.8431  0.060788362  0.059629631            4 
 3794000   0.63060645   -2.9362919     2758.995   0.06059996  0.059617634            4 
 3795000   0.64622281   -2.9467784    2768.5565   0.06079395  0.059605624            5 
 3796000   0.64731079   -2.9471624    2764.3818  0.060686289  0.059593583            7 
 3797000   0.63769546   -2.9425983    2761.7278  0.060612058  0.059581544            6 
 3798000   0.64864974   -2.9436548    2773.8143  0.060861293  0.059569558            2 
 3799000   0.62638065   -2.9238709    2764.0084  0.060630174  0.059557638            8 
 3800000   0.63993277   -2.9555127    2755.3436  0.060424202   0.05954563            4 
 3801000   0.64736011   -2.9537332     2762.824  0.060572305  0.059533524            8 
 3802000   0.63816398   -2.9421003    2768.7177  0.060685554  0.059521425            7 
 3803000   0.63918872   -2.9381055    2765.7954  0.060605561  0.059509484            5 
 3804000   0.62748308   -2.9408832    2771.3681  0.060711708  0.059497545            4 
 3805000   0.65969091   -2.9679033    2766.3546  0.060585954  0.059485612            6 
 3806000   0.64713975   -2.9404744    2774.1379  0.060740451  0.059473742            5 
 3807000   0.65034283   -2.9387169    2779.9309  0.060851301  0.059461783            5 
 3808000   0.65235224   -2.9741425    2770.2143  0.060622686   0.05944993            7 
 3809000   0.63442763   -2.9593966    2777.2219  0.060760083  0.059438001            3 
 3810000   0.64358605   -2.9325277    2772.0367  0.060630725  0.059426058            6 
 3811000   0.63794014   -2.9500978    2765.6948   0.06047614  0.059414114           13 
 3812000   0.64010582   -2.9630421    2778.9279   0.06074956   0.05940226            3 
 3813000   0.65195162   -2.9585545    2775.7608  0.060664411  0.059390388            5 
 3814000   0.63889461   -2.9603845    2769.8982  0.060520412  0.059378432           10 
 3815000   0.64006163   -2.9501826    2779.1289  0.060706179  0.059366515           11 
 3816000   0.63720961   -2.9495672    2776.7649  0.060638648  0.059354596            7 
 3817000   0.63611538    -2.937623    2770.0872  0.060476972  0.059342672           16 
 3818000   0.63267767   -2.9561371    2775.1715  0.060572104  0.059330783            3 
 3819000   0.64460193   -2.9547215    2772.3686  0.060495082  0.059318868            5 
 3820000   0.64347773   -2.9540355    2767.9905  0.060383737   0.05930694            8 
 3821000    0.6490554   -2.9569753    2772.2885   0.06046167  0.059294928            4 
 3822000   0.63783752   -2.9530169    2776.4124  0.060535767  0.059282947            8 
 3823000    0.6398134   -2.9346505    2769.6034  0.060371509  0.059271041            7 
 3824000   0.64146415   -2.9222148    2779.1628  0.060564042  0.059259121            6 
 3825000   0.64573066   -2.9395995    2771.4502  0.060380178  0.059247126            5 
 3826000   0.63797436   -2.9416007    2779.8573   0.06054751  0.059235194            6 
 3827000   0.63984662   -2.9372585    2779.0399   0.06051389  0.059223236           11 
 3828000    0.6271881   -2.9335228    2778.7599  0.060491986   0.05921137            7 
 3829000    0.6264589   -2.9526804    2773.0585  0.060352104  0.059199472            8 
 3830000    0.6397306   -2.9629023    2775.3235  0.060385629  0.059187459            4 
 3831000   0.63568286   -2.9789172     2779.248  0.060455234  0.059175528            7 
 3832000   0.63223509   -2.9490977    2777.7837  0.060407613  0.059163613            4 
 3833000    0.6292802   -2.9293242    2779.8781  0.060437388  0.059151677            5 
 3834000   0.64601974   -2.9521589    2781.8425  0.060464321  0.059139794           11 
 3835000    0.6518677   -2.9704733    2772.5525  0.060246687  0.059127956            9 
 3836000   0.64611509   -2.9471603    2779.1842  0.060375048  0.059116065            7 
 3837000   0.62623095   -2.9460408    2775.0589  0.060269719  0.059104203            5 
 3838000   0.65011036   -2.9481502    2783.0949  0.060428497  0.059092282            6 
 3839000   0.63080401   -2.9684152    2773.0007  0.060193643   0.05908034            6 
 3840000   0.64150875   -2.9395671    2774.5985  0.060212642  0.059068387            6 
 3841000   0.63406764   -2.9428352    2779.0458  0.060293451  0.059056512            8 
 3842000   0.63966292   -2.9689025    2783.5075  0.060374534  0.059044598            4 
 3843000   0.63899616   -2.9684625    2782.4541  0.060335982  0.059032721            4 
 3844000   0.63771365   -2.9622058    2770.3008  0.060056815  0.059020787            9 
 3845000   0.63989723   -2.9501506    2778.0845  0.060209894  0.059008855            5 
 3846000   0.64457988   -2.9475804    2782.3108  0.060285811  0.058996909           13 
 3847000   0.62970759   -2.9284112    2775.7493  0.060128006  0.058985046            7 
 3848000   0.63374087   -2.9521183    2783.5677  0.060281697  0.058973236            4 
 3849000   0.63086847   -2.9521237    2781.1753  0.060214239  0.058961339            4 
 3850000   0.63976946   -2.9535479    2782.9356  0.060236702  0.058949524            9 
 3851000   0.63536088   -2.9553582    2787.3606  0.060316813  0.058937692            8 
 3852000   0.64333166   -2.9509611    2776.4259  0.060064596  0.058925824            4 
 3853000   0.61593142   -2.9503161     2788.713  0.060314756  0.058914043            4 
 3854000   0.63671768   -2.9470384    2779.9948  0.060110596  0.058902212            8 
 3855000   0.63877112   -2.9734739    2790.9225  0.060331226  0.058890383            6 
 3856000   0.64435748   -2.9612349    2788.7518  0.060268667  0.058878556            7 
 3857000    0.6294713   -2.9793422    2784.3839   0.06015867  0.058866742            6 
 3858000   0.63196497   -2.9532842    2784.2737  0.060140697  0.058854964            3 
 3859000   0.63833325   -2.9655162    2781.2655  0.060060151  0.058843158            7 
 3860000   0.62936846    -2.946677    2781.6032  0.060051882  0.058831306            6 
 3861000   0.64140562   -2.9492027    2781.1383  0.060026295  0.058819507            8 
 3862000   0.62706252   -2.9503595    2790.3987  0.060210571  0.058807651            5 
 3863000    0.6449067   -2.9596569    2788.4908  0.060153827  0.058795926            6 
 3864000   0.62922698   -2.9624862    2776.6587   0.05988308  0.058784158            9 
 3865000   0.63399607   -2.9602005    2789.4518  0.060143419  0.058772378            4 
 3866000   0.64482894   -2.9638004    2781.4039  0.059954386  0.058760608            8 
 3867000   0.63907948   -2.9548225    2789.8881  0.060121717  0.058748922            7 
 3868000   0.63105584   -2.9686257    2775.7658  0.059801917  0.058737162            3 
 3869000   0.63914851   -2.9634803     2791.695  0.060129556  0.058725395            5 
 3870000   0.62102803   -2.9602258    2792.0206  0.060121028  0.058713727            8 
 3871000   0.62797021    -2.960034    2795.5283  0.060181011  0.058701992            9 
 3872000   0.63302023   -2.9841267    2795.1032  0.060156319  0.058690253            5 
 3873000   0.62547118    -2.949505    2794.4407  0.060126533  0.058678503            5 
 3874000   0.62728839    -2.969576    2779.2127  0.059783443  0.058666758            6 
 3875000   0.62985666   -2.9664719    2783.2492  0.059854821  0.058654986            8 
 3876000   0.62673514    -2.955407    2790.3043  0.059991062    0.0586432            5 
 3877000   0.62393945   -2.9784066    2783.0607  0.059819894  0.058631328            5 
 3878000   0.62914913   -2.9570342    2790.2821  0.059959646  0.058619526            6 
 3879000   0.64249741    -2.967707    2791.4189  0.059968611  0.058607851            7 
 3880000   0.62525831    -2.963468    2790.7724   0.05993927  0.058596161            6 
 3881000    0.6295794   -2.9573242    2790.1508  0.059910478  0.058584317            6 
 3882000   0.63672378   -2.9671755    2791.0844  0.059915086  0.058572555            5 
 3883000   0.62907235   -2.9629389    2787.3927  0.059820428  0.058560867            5 
 3884000    0.6155278   -2.9711861    2790.2676   0.05986671  0.058549109           23 
 3885000   0.63380365   -2.9406991    2789.7891  0.059841036  0.058537349            8 
 3886000   0.62539618   -2.9688675    2789.1548  0.059812035  0.058525576            5 
 3887000   0.62178849   -2.9567121    2795.0362  0.059922739  0.058513841            4 
 3888000   0.62871509   -2.9644907    2795.1224  0.059909172  0.058502112            5 
 3889000    0.6252359   -2.9522556    2796.9437  0.059932796  0.058490294            4 
 3890000   0.62491426   -2.9569497    2790.1928  0.059772768  0.058478518            4 
 3891000   0.63185017   -2.9705837    2787.1244   0.05969169  0.058466741            4 
 3892000   0.62781985   -2.9720524    2791.3211  0.059766211  0.058454883            5 
 3893000   0.62396042    -2.982536    2787.6728  0.059672763  0.058443091            7 
 3894000   0.61324165   -2.9731918    2784.3672  0.059586698  0.058431261           10 
 3895000   0.63804685   -2.9562471    2787.9396  0.059647831  0.058419381            8 
 3896000   0.62223392   -2.9637666    2793.8334  0.059758586  0.058407652            8 
 3897000   0.62533073   -2.9683597    2780.9636  0.059468044  0.058395874           11 
 3898000   0.63925791   -2.9421171     2794.678  0.059745982   0.05838416            5 
 3899000    0.6229128   -2.9866148    2783.8044  0.059498255  0.058372362           11 
 3900000   0.63146718   -2.9734658    2797.0102  0.059765175   0.05836064            7 
 3901000   0.62008361   -2.9606491    2797.4223  0.059758658  0.058348856           11 
 3902000    0.6366079   -2.9761563    2784.6612   0.05947081  0.058337118            4 
 3903000   0.61282425   -2.9409475    2793.1065  0.059635889  0.058325386            4 
 3904000    0.6389861    -2.971191    2789.7468  0.059548898  0.058313656            6 
 3905000     0.628107   -2.9820383    2794.4356  0.059633709  0.058301828            5 
 3906000   0.62150831   -2.9720684    2797.6515  0.059687051   0.05829011            4 
 3907000   0.61291548    -2.972657    2788.5194  0.059476994  0.058278313           11 
 3908000   0.61066691   -2.9557239    2798.9018  0.059683168  0.058266563            5 
 3909000    0.6246501   -2.9694625    2800.1954  0.059695476  0.058254917            6 
 3910000   0.61577202   -2.9828724    2797.8205  0.059629593  0.058243298            4 
 3911000   0.63264733   -2.9863752    2791.7986  0.059486035  0.058231611            7 
 3912000   0.63694661   -2.9684442    2799.3056  0.059630742   0.05821994            4 
 3913000   0.63040972   -2.9749999    2794.9102  0.059521897  0.058208248           13 
 3914000   0.63414679   -2.9687513    2790.8336  0.059419895  0.058196558            7 
 3915000   0.61807701   -2.9725933    2801.7846  0.059637817  0.058184972            5 
 3916000     0.633537   -2.9666397    2794.3159   0.05946365  0.058173193            7 
 3917000   0.63367175   -2.9762985    2803.5282  0.059644461  0.058161487           10 
 3918000   0.63374321   -2.9620367    2797.3552  0.059497941  0.058149858            4 
 3919000   0.64658545   -2.9819397    2786.7109   0.05925642  0.058138197            7 
 3920000   0.61584989   -2.9779256    2798.9492  0.059501471   0.05812655            4 
 3921000   0.63427531   -2.9853662    2797.8522   0.05946298  0.058114843            5 
 3922000   0.63693159    -2.960113    2801.7494  0.059530626  0.058103152            8 
 3923000   0.62210167   -2.9827879    2799.2366  0.059462073  0.058091497            5 
 3924000   0.61035889   -2.9663489     2795.703  0.059371878  0.058079837           11 
 3925000   0.62850367   -2.9611592    2799.0142  0.059427053  0.058068169            6 
 3926000    0.6236738   -2.9673396    2800.2452  0.059438045  0.058056444            5 
 3927000   0.60346334   -2.9743376    2795.2769  0.059317478  0.058044774            4 
 3928000   0.62130902   -2.9656037    2798.1417  0.059363156  0.058033101            7 
 3929000   0.61631375   -2.9723105    2801.6777  0.059423044   0.05802131            4 
 3930000   0.64124683    -2.968923    2797.2584  0.059314215  0.058009558            5 
 3931000   0.61614519   -2.9929816     2806.165  0.059487937  0.057997823            4 
 3932000    0.6173775   -2.9636374    2795.1543  0.059239453  0.057986197           11 
 3933000   0.61153709   -2.9706746     2799.354  0.059313373  0.057974566            6 
 3934000   0.61468885   -2.9639714    2804.4846  0.059406978  0.057962944            8 
 3935000   0.62205153   -2.9823844    2797.3155  0.059240056   0.05795129            6 
 3936000   0.62277504   -2.9825258    2800.1225  0.059284437  0.057939551           17 
 3937000   0.61772749   -2.9790465    2798.5338  0.059235752   0.05792786           11 
 3938000   0.62877557   -2.9781731    2801.4598  0.059282626  0.057916181           14 
 3939000   0.61381107    -2.991122    2796.4214  0.059160985  0.057904486            6 
 3940000   0.62463442   -2.9717695    2807.0365  0.059370484  0.057892865           11 
 3941000   0.61931163   -2.9675165    2798.2309  0.059169223  0.057881232            7 
 3942000   0.62342034   -2.9790567    2806.9873  0.059339323  0.057869564            6 
 3943000   0.62261773   -2.9969077    2807.9768  0.059345185  0.057857932            5 
 3944000    0.6234353   -2.9812858    2804.2329  0.059251033   0.05784631            9 
 3945000   0.61141739   -2.9811732    2798.3952  0.059112699  0.057834656           11 
 3946000   0.60834454   -2.9688339    2800.0906  0.059133524  0.057823075           25 
 3947000   0.61421992   -3.0027758    2795.8479  0.059028966  0.057811376            5 
 3948000   0.62034551   -2.9764013    2802.2604  0.059149368  0.057799727            9 
 3949000   0.62333581   -2.9992806    2805.4699  0.059202116  0.057788074            7 
 3950000   0.62211948    -2.957176    2797.2953  0.059014668  0.057776402            5 
 3951000   0.62647985   -2.9878017    2806.0987  0.059185411   0.05776476            4 
 3952000   0.62978829   -2.9606123    2794.8817  0.058933909  0.057753154            9 
 3953000   0.59834942   -2.9792058    2801.4567  0.059057608  0.057741521            7 
 3954000   0.63134299   -2.9738858    2798.5974  0.058982411   0.05772984           10 
 3955000   0.63075637   -2.9643425     2801.478  0.059028192  0.057718148           16 
 3956000   0.61897377   -2.9858106    2804.4433  0.059075736  0.057706434            6 
 3957000   0.61248451   -2.9830492    2799.6135  0.058959092  0.057694799            6 
 3958000   0.61972255   -2.9895528    2804.1396   0.05903949  0.057683103            5 
 3959000   0.61901939    -2.975535    2800.4553  0.058947025  0.057671393            6 
 3960000   0.61376776   -2.9618201    2804.6625  0.059020675  0.057659796            7 
 3961000   0.62409568   -2.9901399    2806.3796  0.059041899  0.057648172           11 
 3962000   0.61784638   -3.0007421    2800.9748  0.058913317  0.057636503            8 
 3963000   0.61813198   -2.9849051    2803.6842  0.058955426   0.05762483            7 
 3964000   0.61452649    -2.988286    2802.6135  0.058918044  0.057613221            5 
 3965000   0.62015792   -3.0020702    2797.8978  0.058804074  0.057601553            6 
 3966000   0.62840719   -2.9938983    2794.0909  0.058709255  0.057589804            7 
 3967000   0.60860835   -3.0065326     2801.669  0.058853647  0.057578131           11 
 3968000   0.60355574   -3.0090682    2802.0441  0.058846693  0.057566411            6 
 3969000   0.62564158   -2.9760932     2808.532  0.058968086   0.05755466            9 
 3970000   0.60704091   -2.9854649     2805.564  0.058890933  0.057543038           12 
 3971000   0.60463664   -2.9906227    2799.6354  0.058751688  0.057531388            8 
 3972000   0.61675213   -2.9761547    2802.0442  0.058787434  0.057519755            7 
 3973000   0.61645216   -2.9956518    2802.1874  0.058775641  0.057508058            4 
 3974000   0.61229447   -2.9913358     2788.979  0.058483874  0.057496306            7 
 3975000   0.60455753   -2.9693275    2805.6481  0.058818618  0.057484534            4 
 3976000   0.62433098   -2.9755715    2807.3549  0.058839597  0.057472865            7 
 3977000   0.61982724   -2.9829586    2805.3616  0.058783035  0.057461165           11 
 3978000   0.62608193   -2.9808579    2796.1994  0.058576323   0.05744939            9 
 3979000   0.62075662   -2.9879402    2802.7889  0.058699608  0.057437597           10 
 3980000   0.60253746    -2.969877    2801.6601  0.058661224  0.057425898            8 
 3981000   0.62728076   -2.9727789    2802.0641  0.058654947  0.057414173            6 
 3982000   0.60864123   -2.9927234    2809.0216  0.058785819  0.057402497            5 
 3983000   0.61399978   -2.9767576    2800.2786  0.058588137  0.057390751            4 
 3984000   0.59824623   -2.9985896    2801.7017  0.058603198  0.057379062            6 
 3985000   0.62199775   -2.9971413    2805.5034  0.058667993  0.057367265            6 
 3986000   0.61067152   -2.9816236    2803.3826  0.058608936  0.057355552            4 
 3987000   0.62876645   -2.9747458    2809.2451  0.058716768  0.057343903            8 
 3988000   0.61063756   -2.9965923    2804.4613  0.058602084  0.057332075            8 
 3989000   0.59723403   -2.9760446    2797.5048  0.058442065  0.057320297            6 
 3990000    0.6166197   -2.9729059    2796.7877  0.058412441  0.057308587            5 
 3991000   0.60440047    -2.971253    2810.6749  0.058687774  0.057296862            9 
 3992000   0.61295483   -2.9968914    2807.5264  0.058607348  0.057285126            8 
 3993000   0.61755067   -2.9849753    2807.3004  0.058587953  0.057273404           13 
 3994000   0.61106032   -2.9841137    2798.0555  0.058380393  0.057261702           10 
 3995000   0.61767954    -2.968094    2808.2941  0.058579352  0.057249968            5 
 3996000   0.61070635   -3.0022677    2802.6516  0.058447022  0.057238166            8 
 3997000   0.60013259   -3.0029332    2798.5592  0.058347077  0.057226381           11 
 3998000   0.60757974   -3.0008438     2810.587  0.058583187  0.057214608           11 
 3999000   0.61098745   -2.9771981    2813.2282  0.058623576  0.057202875            5 
 4000000   0.61489381   -2.9926909    2800.3519  0.058340665  0.057191115            9 
 4001000   0.61805602   -2.9990571    2808.6783  0.058499507  0.057179403            7 
 4002000   0.61631409    -2.992905    2807.1432  0.058452924  0.057167594            7 
 4003000   0.61407325   -2.9801341    2813.3873  0.058568309  0.057155861           10 
 4004000    0.6143518    -2.980202    2798.8163  0.058250423  0.057144139           11 
 4005000   0.59802122   -3.0046935    2810.3129  0.058475091  0.057132421           16 
 4006000   0.61938914    -2.992157     2807.739  0.058406952   0.05712068           15 
 4007000    0.6110579   -2.9982453    2805.7571  0.058351158  0.057108972           10 
 4008000   0.62104998   -2.9805068    2804.7642  0.058315956  0.057097196            5 
 4009000   0.60110106   -2.9956513    2808.3052  0.058375014  0.057085453            5 
 4010000   0.62379829   -2.9924277     2804.154   0.05827419  0.057073702            3 
 4011000   0.60878177   -3.0006645    2812.5263  0.058433606  0.057061937            8 
 4012000   0.60989978   -3.0021024    2808.8553  0.058342791  0.057050219            6 
 4013000   0.60836072   -3.0011851     2813.689  0.058428628  0.057038452            6 
 4014000   0.61922078   -2.9970447    2811.9307  0.058377568    0.0570268            5 
 4015000   0.62099671    -2.998743    2805.3818  0.058227102  0.057015111            9 
 4016000   0.59730084    -2.995688     2803.786  0.058179491  0.057003355           10 
 4017000   0.60143929   -2.9927108    2810.8908  0.058312396  0.056991662           12 
 4018000   0.61254558   -3.0142297     2813.161  0.058344969  0.056979901            6 
 4019000   0.60900525   -2.9828639    2814.3064    0.0583542  0.056968159           13 
 4020000   0.60631747   -3.0092008      2811.65  0.058284618   0.05695644            8 
 4021000   0.61449439   -2.9946057    2812.5667  0.058289121  0.056944732            7 
 4022000   0.60795402   -3.0077463    2803.7997  0.058092982   0.05693296            9 
 4023000    0.6184003   -3.0044016    2818.6577  0.058386313  0.056921221           13 
 4024000   0.60300628    -2.995208    2809.2026  0.058175998  0.056909526            8 
 4025000   0.61015292   -3.0036901    2810.3934  0.058186198  0.056897803            6 
 4026000   0.61555971   -3.0009849    2805.8095  0.058076864  0.056886052            4 
 4027000   0.59656131   -2.9972583    2814.7735   0.05824794  0.056874372            6 
 4028000    0.5996221   -2.9737726      2814.04  0.058218304  0.056862722            9 
 4029000   0.59711247   -3.0014727    2812.1366  0.058164486  0.056851046            6 
 4030000   0.62069572   -3.0110998    2813.7344  0.058183093  0.056839372            6 
 4031000   0.61756691   -3.0206781    2806.4618  0.058018313   0.05682764            9 
 4032000   0.59633204   -3.0090223    2813.1119  0.058141367  0.056815921            7 
 4033000   0.60465618   -3.0126866    2802.9064  0.057916076  0.056804057            7 
 4034000   0.59617203   -2.9860187    2809.4688  0.058037282  0.056792206            6 
 4035000   0.59290028   -3.0017058    2806.3284  0.057958042  0.056780424            6 
 4036000   0.61925364    -2.998599    2802.6341  0.057867405  0.056768601            6 
 4037000   0.60907366   -2.9865644     2809.948  0.058004046  0.056756817            6 
 4038000   0.59333197   -3.0178278    2812.7144  0.058046772  0.056745037            9 
 4039000   0.60497637   -2.9903841    2812.7195  0.058032506  0.056733217            6 
 4040000   0.59545282   -3.0209666    2802.1025  0.057799144  0.056721468           28 
 4041000   0.59394547   -2.9989832    2808.0294  0.057907066   0.05670975            9 
 4042000   0.59454817   -2.9979085    2802.4875  0.057778483  0.056698079            9 
 4043000    0.5991759   -3.0085897    2819.8485  0.058122031   0.05668638            4 
 4044000   0.59942745   -2.9892817    2810.2294  0.057909443  0.056674558            8 
 4045000   0.60387153   -2.9972598    2812.2609  0.057936979  0.056662808            6 
 4046000   0.61596463   -3.0033883    2813.5777   0.05794978  0.056651103            6 
 4047000   0.61657179   -3.0155172    2819.1729  0.058050674   0.05663937           13 
 4048000   0.60451382   -3.0133615    2810.7117  0.057862148  0.056627677            8 
 4049000   0.60631822   -2.9942666    2813.7546  0.057910485  0.056615995            8 
 4050000   0.60096106   -3.0194638    2811.3296  0.057846287  0.056604155            6 
 4051000   0.61531351   -3.0173832    2812.0873  0.057847596  0.056592375            8 
 4052000   0.60874996   -3.0070662    2811.4261  0.057819721   0.05658062            3 
 4053000   0.61160133   -2.9995385    2805.3807  0.057681155  0.056568801            5 
 4054000   0.60563121   -2.9990112     2810.259  0.057767204  0.056557031            6 
 4055000   0.59782413   -2.9884515    2813.6663  0.057822983  0.056545246            7 
 4056000   0.59720711    -3.007474    2813.5747  0.057806843  0.056533518            5 
 4057000   0.60518017   -2.9969606    2811.6018   0.05775207  0.056521721           11 
 4058000   0.59945863   -3.0193947    2805.5057  0.057612653  0.056509883            7 
 4059000   0.58859045   -3.0120528    2805.6721  0.057601875  0.056498018           10 
 4060000   0.59290567   -3.0132545    2806.9111  0.057613117   0.05648619            7 
 4061000   0.61813263   -3.0051851     2806.065  0.057581569  0.056474395            6 
 4062000   0.59231496   -3.0031348    2809.0428  0.057628484   0.05646261           20 
 4063000   0.59996686   -3.0140691    2812.4422  0.057684023  0.056450831           10 
 4064000   0.59903389   -3.0093334     2818.072  0.057785269  0.056439077            4 
 4065000   0.60280549   -3.0216817    2810.9656  0.057625371  0.056427303            7 
 4066000   0.59792423   -3.0002982    2813.9763  0.057672903  0.056415552           11 
 4067000   0.60099486   -3.0104387    2817.5812  0.057732588  0.056403822            5 
 4068000   0.58840825   -2.9975951    2824.9612  0.057869575  0.056392097            8 
 4069000   0.59813484   -2.9887423    2814.7771  0.057646782  0.056380437            6 
 4070000   0.60721893   -3.0126686    2815.2294  0.057641879  0.056368706            4 
 4071000   0.60399681   -3.0145838    2819.3045  0.057711137     0.056357            9 
 4072000    0.6193154   -3.0135295    2810.9513  0.057526017  0.056345274            4 
 4073000   0.60627889   -3.0288008    2815.8915   0.05761297   0.05633358            5 
 4074000   0.60815342   -3.0060745    2814.5874  0.057572152  0.056321807            6 
 4075000    0.5931525   -3.0118087     2815.563  0.057577976  0.056310102            5 
 4076000   0.60669255    -3.032618    2811.5214  0.057481219  0.056298288            7 
 4077000   0.58829256   -3.0111424     2817.725  0.057593922  0.056286537           18 
 4078000   0.59227624   -3.0149109    2807.8472  0.057377947  0.056274877           12 
 4079000   0.58002336   -3.0211625    2814.5121  0.057500043  0.056263066           17 
 4080000    0.6051339   -3.0181768    2817.0146  0.057537062  0.056251332            6 
 4081000   0.59540617   -3.0159725    2812.6246  0.057433321  0.056239628            7 
 4082000   0.60054716   -3.0163319     2811.756   0.05740152  0.056227869           10 
 4083000   0.59880421   -3.0078615    2816.0256  0.057474602  0.056216107           10 
 4084000   0.60647709   -2.9964425    2824.6118   0.05763573  0.056204476           11 
 4085000   0.60527998   -3.0285713    2815.2401  0.057430438  0.056192853            6 
 4086000   0.60476564   -3.0244997    2818.4527  0.057481903  0.056181172            6 
 4087000   0.58797842   -3.0121022    2814.9382  0.057396178  0.056169477           10 
 4088000   0.58060271   -3.0124248    2812.9972  0.057342572  0.056157765            5 
 4089000   0.58752903   -3.0052266    2820.6267  0.057484036  0.056146094            6 
 4090000   0.60066821   -3.0204148    2815.9374  0.057374438  0.056134373            8 
 4091000   0.59280101    -3.017216    2811.1544  0.057262984  0.056122616            9 
 4092000   0.59221142   -3.0252308     2815.491  0.057337305  0.056110872           13 
 4093000   0.58876074   -2.9968985    2818.1194  0.057376809  0.056099103            8 
 4094000   0.60543623   -3.0044693    2816.5037  0.057329908  0.056087383            6 
 4095000   0.58782529   -3.0141966    2818.1671  0.057349758  0.056075625           11 
 4096000   0.59564229   -3.0068939    2813.0915  0.057232494   0.05606387            4 
 4097000   0.59520778   -3.0197131    2814.5222  0.057247625  0.056052159           10 
 4098000   0.59412403   -3.0306522    2817.9025  0.057302393  0.056040454            7 
 4099000   0.60084133   -3.0125532    2813.5006  0.057198922  0.056028643            6 
 4100000   0.60016002   -3.0039293    2816.7746  0.057251516  0.056016892            5 
 4101000   0.59565194   -3.0181471    2813.4734  0.057170475  0.056005112            8 
 4102000   0.59411388   -3.0390106     2809.491  0.057075635   0.05599337            6 
 4103000   0.58238263   -3.0418124    2819.4651  0.057264301  0.055981549            7 
 4104000   0.59738524   -3.0150883    2813.2255   0.05712365  0.055969703           10 
 4105000   0.59910999    -3.015184    2821.8576  0.057284969  0.055957916            9 
 4106000   0.60149293   -3.0280573     2816.515  0.057162587  0.055946073            7 
 4107000   0.59680366   -3.0260991    2805.3242    0.0569216  0.055934265            8 
 4108000   0.59636735    -3.021961    2813.9735  0.057083201  0.055922474            5 
 4109000   0.58292231   -3.0312287     2822.617  0.057244604  0.055910692            6 
 4110000   0.57411216   -3.0270526    2812.6957  0.057029515   0.05589884           14 
 4111000   0.60700368   -3.0170279    2816.3193  0.057089097  0.055887041            5 
 4112000    0.6006192   -3.0255789    2814.2302  0.057032875  0.055875199            8 
 4113000   0.57965499   -3.0094132    2814.7644  0.057029833  0.055863367            7 
 4114000   0.58694801   -3.0275109    2819.2975  0.057107793  0.055851546            5 
 4115000   0.60942451   -3.0090708     2813.922  0.056985055  0.055839684            7 
 4116000    0.5978559   -3.0095086    2823.3522  0.057162135  0.055827927           12 
 4117000   0.59301834   -3.0346451    2823.3499  0.057148205  0.055816114            6 
 4118000   0.59024757   -3.0407784    2814.3192  0.056951578  0.055804215            8 
 4119000   0.58759993   -3.0298856    2815.3641  0.056958891  0.055792257            4 
 4120000    0.5844794   -3.0112939    2833.0541  0.057302874  0.055780492            5 
 4121000   0.59066657    -3.018416    2817.5157  0.056974757  0.055768691            8 
 4122000   0.59475431   -3.0267572    2816.0412  0.056931125  0.055756921            8 
 4123000   0.60126372   -3.0224998    2813.5988  0.056867953  0.055745111           10 
 4124000   0.59008132   -3.0223916    2811.7631   0.05681707  0.055733278           10 
 4125000   0.57508356   -3.0378443    2808.8562   0.05674457  0.055721451            4 
 4126000   0.58332295   -3.0357074    2820.2226  0.056960385  0.055709704            7 
 4127000   0.58342309   -3.0143885    2820.6552  0.056955319  0.055697889            5 
 4128000   0.59251269   -3.0201869    2817.6299  0.056880449   0.05568613            4 
 4129000   0.57906725   -3.0249912    2816.6627  0.056847152  0.055674321            7 
 4130000   0.58863871   -3.0058101    2817.8915  0.056858181  0.055662503           13 
 4131000   0.59769684   -3.0222968    2810.0208  0.056685646   0.05565074           14 
 4132000   0.59361604   -3.0247114    2817.6338  0.056825465  0.055638928            8 
 4133000   0.60352089   -3.0224185    2815.4091  0.056766858  0.055627122            6 
 4134000   0.58315683   -3.0007725    2829.5932   0.05703905  0.055615337            5 
 4135000   0.59997979   -3.0261415    2816.2098  0.056755539  0.055603534            7 
 4136000   0.58839774   -3.0215207    2821.6099  0.056850619  0.055591741            9 
 4137000   0.59341248    -3.017739    2820.1687  0.056807847   0.05558001            6 
 4138000   0.58751982   -3.0285619    2815.0538   0.05669111  0.055568237            5 
 4139000   0.59104721   -3.0401348    2815.2271  0.056680902  0.055556426            9 
 4140000   0.58745968   -3.0305105     2814.151  0.056645552  0.055544574           10 
 4141000   0.58518531   -3.0281711    2819.9043  0.056747652  0.055532796            6 
 4142000   0.59303611   -3.0096352    2821.5089  0.056766233  0.055521016            5 
 4143000   0.60136015   -3.0261683    2828.2503  0.056888131  0.055509242            9 
 4144000   0.59279052   -3.0402579    2811.2952  0.056533446  0.055497476           14 
 4145000    0.5989262   -3.0382921    2817.6207  0.056646979  0.055485677           10 
 4146000   0.58365099   -3.0362685    2817.3356  0.056627585  0.055473915            6 
 4147000   0.58906132   -3.0321776    2826.3607  0.056795287  0.055462183            3 
 4148000   0.58446397   -3.0174497    2830.9821  0.056874439  0.055450555            6 
 4149000   0.59216146   -3.0449063    2814.6208  0.056532112  0.055438831           10 
 4150000   0.60665695   -3.0524452    2820.5205  0.056636958  0.055427143           10 
 4151000   0.59766991   -3.0344103    2829.8568  0.056810745  0.055415477            8 
 4152000   0.59068686   -3.0254915    2825.0922  0.056701433   0.05540381            7 
 4153000   0.58547167   -3.0117484     2832.672  0.056839874   0.05539215           12 
 4154000   0.59098387   -3.0199625    2826.7472  0.056707334  0.055380425            8 
 4155000   0.60670935   -3.0444749      2820.76  0.056573607   0.05536873           10 
 4156000   0.57993846   -3.0392077    2827.3496  0.056692125  0.055356935            8 
 4157000   0.60251951   -3.0423651    2822.2958  0.056577174  0.055345159           19 
 4158000   0.57657547    -3.041851    2827.7632  0.056673144  0.055333465            7 
 4159000   0.58687656   -3.0329841    2825.0187  0.056604526  0.055321825            6 
 4160000   0.59068569    -3.024717    2819.6888  0.056484151  0.055310222            5 
 4161000   0.58979149   -3.0460903    2822.4972   0.05652682  0.055298509           10 
 4162000   0.57628101   -3.0418352    2829.8632  0.056660724  0.055286738           11 
 4163000   0.58823292    -3.024727    2824.0903  0.056531554  0.055275069            6 
 4164000   0.59675975   -3.0157208    2823.8734  0.056513637  0.055263421           12 
 4165000   0.58882529   -3.0292896    2819.8996  0.056420561  0.055251748            8 
 4166000   0.58947417   -3.0396052    2821.1809  0.056432647  0.055240057           13 
 4167000   0.58758048    -3.038931    2826.8901   0.05653328  0.055228389            5 
 4168000   0.58294226   -3.0481046    2826.3215  0.056508348  0.055216656           17 
 4169000   0.58338477   -3.0125865    2825.8335  0.056485039     0.055205           12 
 4170000   0.57364613   -3.0468115    2826.2536  0.056479888  0.055193344           11 
 4171000   0.58581656   -3.0223425    2824.9331  0.056439964  0.055181676            8 
 4172000   0.58304462   -3.0176928    2823.2473  0.056392763  0.055169974            8 
 4173000   0.58177264   -3.0201719    2831.5048  0.056544148  0.055158233           12 
 4174000   0.57372581   -3.0509293    2813.0712  0.056162578  0.055146456            9 
 4175000   0.58053514   -3.0343516    2825.6904  0.056401007  0.055134763            8 
 4176000    0.5870344   -3.0328283    2827.5935  0.056425477  0.055123067           11 
 4177000   0.58887308    -3.015651    2829.6141  0.056452279  0.055111451            6 
 4178000    0.5876214   -3.0539527    2817.1374  0.056189911  0.055099845            9 
 4179000      0.58014   -3.0247943    2827.0987  0.056375104  0.055088227            7 
 4180000   0.57609052   -3.0506883    2823.6747  0.056293355  0.055076565            5 
 4181000   0.58521786   -3.0416274    2827.7633  0.056361382  0.055064815            6 
 4182000    0.5972669   -3.0448771    2825.7441   0.05630767  0.055053146            4 
 4183000   0.55754016   -3.0602569     2827.937  0.056337895  0.055041513            6 
 4184000   0.58871323   -3.0409032    2834.8945  0.056463005  0.055029858            6 
 4185000   0.57497619   -3.0440092    2828.3375  0.056318946  0.055018203            9 
 4186000   0.59437415   -3.0201044    2826.1215  0.056261376  0.055006552            5 
 4187000   0.58986688   -3.0377572    2823.8188  0.056202109  0.054994961           12 
 4188000   0.57364524   -3.0512817     2833.506  0.056381447  0.054983424            4 
 4189000   0.57627434   -3.0463842    2820.4642  0.056108543  0.054971856            5 
 4190000    0.5836357   -3.0424071    2831.1907  0.056308486  0.054960277           27 
 4191000   0.58484299   -3.0233867    2829.8152  0.056267701  0.054948657            4 
 4192000    0.5981399   -3.0348362      2826.76  0.056193542  0.054937203            7 
 4193000   0.58770166   -3.0347371    2831.3821  0.056272004  0.054925618            9 
 4194000   0.59048801   -3.0326191    2826.5053  0.056161686  0.054914155            5 
 4195000   0.58140556    -3.037695     2831.806  0.056253596  0.054902617            5 
 4196000   0.58224764   -3.0469079    2826.0543   0.05612596  0.054891034           13 
 4197000   0.56117206   -3.0408691    2829.0631  0.056172327  0.054879378           12 
 4198000   0.58562488   -3.0481181    2819.2261  0.055963674  0.054867778           18 
 4199000   0.56845375   -3.0433044    2837.7302   0.05631758  0.054856235           17 
 4200000   0.56542853   -3.0405275    2831.7466  0.056185449  0.054844635            9 
 4201000   0.56900615    -3.022732     2835.693  0.056250357  0.054833078            5 
 4202000   0.58819455   -3.0327162    2828.9176  0.056102603  0.054821497            6 
 4203000   0.56983711   -3.0581925    2827.8938  0.056068955  0.054809899           11 
 4204000    0.5725363   -3.0517797    2826.9799  0.056037501  0.054798271            7 
 4205000   0.58165347   -3.0440452    2836.3609  0.056210085  0.054786669            7 
 4206000   0.56955592   -3.0463065    2831.6452   0.05610329  0.054775036            6 
 4207000   0.58124571   -3.0412414     2828.113  0.056019986  0.054763476            9 
 4208000   0.59172931   -3.0445238    2838.3905  0.056210205  0.054751903            5 
 4209000   0.57567858   -3.0547336    2827.5762  0.055982739  0.054740259            5 
 4210000   0.58251111   -3.0393842    2838.8673  0.056192938  0.054728743            4 
 4211000   0.57421683   -3.0373827     2828.968  0.055983693  0.054717219            9 
 4212000   0.56969445   -3.0442942    2832.5967  0.056042196  0.054705648            7 
 4213000   0.58162598    -3.043941    2833.8549   0.05605378  0.054694173            6 
 4214000   0.57921701   -3.0616193    2840.9595  0.056180974  0.054682617            6 
 4215000   0.58186368   -3.0455238    2830.1389  0.055953715   0.05467105            6 
 4216000   0.58828763   -3.0564423    2825.9879  0.055858394  0.054659444            8 
 4217000   0.57899655    -3.050384     2830.054    0.0559255  0.054647894           15 
 4218000    0.5719955     -3.06177    2836.3088  0.056035815  0.054636355           16 
 4219000   0.58133391   -3.0585111    2835.9382  0.056015213  0.054624823           11 
 4220000   0.58394394   -3.0595805    2833.7583  0.055958893  0.054613287            7 
 4221000   0.57544306   -3.0502975    2829.7373   0.05586625  0.054601736           15 
 4222000   0.56616832   -3.0471362    2837.4102  0.056004465  0.054590261            8 
 4223000   0.57589927   -3.0637465    2835.1101  0.055945815   0.05457874            5 
 4224000   0.56744068   -3.0328754    2836.6685  0.055963315  0.054567163            7 
 4225000   0.57384294   -3.0578946    2835.0574  0.055918292  0.054555706           15 
 4226000   0.57796275   -3.0484837    2834.4995  0.055894059  0.054544212            9 
 4227000    0.5727816   -3.0552325    2843.7807  0.056063811  0.054532809           10 
 4228000   0.57944708   -3.0532383    2830.3659  0.055786145  0.054521294            6 
 4229000   0.57064737   -3.0511257     2833.874  0.055842083  0.054509757           10 
 4230000   0.57559097   -3.0644387    2837.2165   0.05589473  0.054498266           13 
 4231000   0.56417545   -3.0525073    2829.9713   0.05573882  0.054486624           14 
 4232000   0.57272199   -3.0355125    2834.2323  0.055809553  0.054475091           33 
 4233000   0.56736839   -3.0618232    2839.4733  0.055899545    0.0544636            7 
 4234000   0.57510798   -3.0478452    2827.8781  0.055658127  0.054452091            5 
 4235000   0.57907379   -3.0706733    2836.1458  0.055807671  0.054440561           15 
 4236000   0.56730669   -3.0515554      2832.55  0.055723757  0.054429027           12 
 4237000   0.56727671    -3.061066    2837.0075  0.055798274  0.054417489            7 
 4238000   0.57834022   -3.0493419    2827.2405  0.055593058  0.054405945            8 
 4239000   0.56999049   -3.0490487    2841.6653  0.055863515   0.05439439            9 
 4240000    0.5732565   -3.0492251    2840.1722  0.055820994  0.054382875           10 
 4241000   0.57831263   -3.0456716     2841.271  0.055829422  0.054371405           10 
 4242000   0.58347058   -3.0584123    2842.5584  0.055841552  0.054359909            8 
 4243000   0.57091059   -3.0441927    2846.6586  0.055908921   0.05434849            5 
 4244000   0.57772271   -3.0529458    2840.8598  0.055781885  0.054337075           10 
 4245000    0.5724095   -3.0487145    2846.3762  0.055877036   0.05432564           13 
 4246000   0.57573735   -3.0510648    2845.6849  0.055850307  0.054314228           12 
 4247000   0.56753964   -3.0514983    2843.2615  0.055789606  0.054302841           10 
 4248000   0.57917415   -3.0548142    2849.5312  0.055899467  0.054291478           10 
 4249000    0.5807148   -3.0606408    2837.4936  0.055650224  0.054280068           10 
 4250000   0.56579654   -3.0614708    2847.2767  0.055828954  0.054268637           14 
 4251000   0.58114833   -3.0465662    2843.8097  0.055747858  0.054257221           15 
 4252000   0.55776417   -3.0581576    2837.6604  0.055614228  0.054245834            6 
 4253000   0.56134779   -3.0540796    2833.9198  0.055527859  0.054234442            7 
 4254000   0.56458654    -3.044607    2838.6336  0.055607146  0.054223035            7 
 4255000   0.56600214   -3.0542686    2838.7857  0.055597056  0.054211674            8 
 4256000   0.56717968   -3.0408288    2842.3496  0.055653775  0.054200235            7 
 4257000   0.56678614   -3.0592329    2837.6236  0.055548187  0.054188816           10 
 4258000    0.5781018    -3.064336    2836.1413  0.055506131  0.054177456            9 
 4259000   0.55636073   -3.0499254    2845.9746  0.055685502  0.054166089            5 
 4260000   0.57501672   -3.0835159    2848.2108  0.055716173  0.054154665           11 
 4261000   0.56875539   -3.0426982     2840.967   0.05556143   0.05414326            4 
 4262000   0.57154651   -3.0724514    2842.1775  0.055572062  0.054131925           14 
 4263000   0.57594022   -3.0514791    2848.9899  0.055692194  0.054120563           13 
 4264000   0.57154965   -3.0703702    2844.5632   0.05559262  0.054109149            5 
 4265000   0.56470866   -3.0831449    2838.2143  0.055455536  0.054097684           15 
 4266000   0.55124642   -3.0718454    2844.4854  0.055565038  0.054086294            8 
 4267000   0.56805047   -3.0578597    2845.3976   0.05556983  0.054074917            7 
 4268000    0.5698458   -3.0524258    2833.8235  0.055330825  0.054063541           11 
 4269000   0.57850984   -3.0647996    2844.2639  0.055521666  0.054052114           12 
 4270000   0.56292492    -3.074582    2843.8517  0.055500618  0.054040705            4 
 4271000   0.57931877   -3.0434322    2838.4887  0.055382984   0.05402928           11 
 4272000   0.57357244    -3.062423    2842.2029  0.055442471  0.054017888            7 
 4273000   0.56321866   -3.0607944    2842.7302  0.055439781  0.054006522            7 
 4274000   0.58410229   -3.0476232    2850.2319  0.055573075  0.053995184            9 
 4275000   0.56906724   -3.0486955      2840.13  0.055363158  0.053983882            6 
 4276000   0.56521457   -3.0603364    2847.3218  0.055490369  0.053972557           15 
 4277000   0.55406686   -3.0637933    2842.9537  0.055392285  0.053961178           13 
 4278000   0.56564358   -3.0611811    2845.7506   0.05543382  0.053949862            6 
 4279000   0.55421713   -3.0654831    2841.1308  0.055330896   0.05393849           23 
 4280000   0.58157157   -3.0654284      2847.95  0.055450739  0.053927107            4 
 4281000     0.566146   -3.0725506     2845.154  0.055383361  0.053915734            7 
 4282000   0.57492143   -3.0580929    2843.3819  0.055335939  0.053904335           12 
 4283000   0.56596618   -3.0495974    2844.6567  0.055347822  0.053892927           13 
 4284000   0.55998002   -3.0524419    2840.9967  0.055263708  0.053881485            8 
 4285000   0.56394234   -3.0687632    2845.7598  0.055343443   0.05387006            4 
 4286000    0.5606289   -3.0681515    2842.1161  0.055259684  0.053858649           10 
 4287000   0.56579135   -3.0539273    2841.7841  0.055240341   0.05384723           15 
 4288000    0.5630458   -3.0596833    2839.3594  0.055180336  0.053835859            7 
 4289000   0.54820164   -3.0725278    2843.6646  0.055251119  0.053824491           11 
 4290000   0.55299934   -3.0682572    2849.4383  0.055350394  0.053813113            9 
 4291000   0.55886793   -3.0694651    2850.0109  0.055348616  0.053801732           12 
 4292000   0.56716582   -3.0632178    2842.8518  0.055196719  0.053790367           16 
 4293000   0.56572316   -3.0655797    2845.5929   0.05523707  0.053779007            8 
 4294000   0.56658693   -3.0764727     2845.586  0.055224071  0.053767637           19 
 4295000   0.56496815    -3.055108    2848.7747  0.055273084  0.053756319            6 
 4296000   0.55933223   -3.0721903     2845.722     0.055201  0.053744962            9 
 4297000   0.56769996   -3.0682728    2853.6508  0.055341922  0.053733626           21 
 4298000   0.56493023   -3.0623152     2841.744  0.055098186  0.053722321            8 
 4299000   0.56258442   -3.0801724    2845.7577  0.055163171  0.053710975            7 
 4300000   0.56726009   -3.0776284    2851.4428   0.05526052  0.053699641            9 
 4301000   0.55170033   -3.0746004    2844.2672  0.055108642  0.053688403            6 
 4302000   0.56459962   -3.0845521    2844.2965  0.055096398  0.053677088           12 
 4303000   0.56525757   -3.0771664    2854.0097  0.055271704  0.053665732           14 
 4304000   0.55778052   -3.0694103    2847.6401  0.055135534  0.053654363            9 
 4305000   0.55771393    -3.061702    2850.6592  0.055181168  0.053643064           19 
 4306000   0.56533345   -3.0757226     2849.038  0.055136979  0.053631728           12 
 4307000   0.55734459   -3.0637926     2845.753  0.055060618  0.053620425           13 
 4308000   0.56879949   -3.0724589    2852.5496  0.055179309  0.053609118            9 
 4309000    0.5634319   -3.0770871    2840.2695  0.054929015  0.053597803           10 
 4310000   0.55766406   -3.0694922    2849.6172  0.055097007  0.053586517           13 
 4311000    0.5700347   -3.0696706    2847.1121  0.055035802  0.053575257            9 
 4312000   0.55313058   -3.0620523    2850.1622  0.055081985  0.053563999            9 
 4313000   0.57311269   -3.0630226    2850.8101  0.055081731  0.053552715            8 
 4314000   0.56461894   -3.0878197    2848.5945  0.055026166  0.053541442           12 
 4315000   0.57428016    -3.077024    2850.8325  0.055056634  0.053530129            8 
 4316000   0.56275055   -3.0811713    2842.8915  0.054890552  0.053518785           12 
 4317000    0.5676265   -3.0767743    2856.7638  0.055145622  0.053507462            9 
 4318000   0.55439031   -3.0732864    2844.2764  0.054891856   0.05349622           15 
 4319000   0.54988312   -3.0644893    2859.6196  0.055175188  0.053484913            7 
 4320000   0.55624696   -3.0746983     2845.708  0.054894059  0.053473659            9 
 4321000   0.54958627   -3.0661118    2850.8374  0.054980278  0.053462407            5 
 4322000   0.56062585   -3.0695313    2847.9525  0.054911933  0.053451114           11 
 4323000   0.55740789   -3.0856133    2852.4669  0.054986254  0.053439823            8 
 4324000   0.55874662   -3.0658867     2853.093  0.054985604  0.053428561            8 
 4325000   0.56379149   -3.0823067    2852.1692  0.054955091  0.053417315            9 
 4326000    0.5590195   -3.0525416    2849.0275  0.054881868  0.053406008            6 
 4327000   0.56788873   -3.0644149    2855.9637  0.055002767   0.05339472           11 
 4328000   0.54993798    -3.091068    2844.7701  0.054774531  0.053383445           12 
 4329000   0.55288977   -3.0771797    2852.6251  0.054913089  0.053372108           20 
 4330000   0.55797677   -3.0799932    2846.1252  0.054775312  0.053360763           12 
 4331000   0.56904046   -3.0709528    2847.4599  0.054788346  0.053349469           12 
 4332000   0.56223019   -3.0746544    2850.9669  0.054843162  0.053338111           13 
 4333000   0.56015834    -3.087047    2850.6041  0.054823527  0.053326835           15 
 4334000   0.56259387   -3.0689989    2864.5374  0.055078785    0.0533156            9 
 4335000    0.5711478   -3.0838317    2850.1828  0.054790134  0.053304312           12 
 4336000   0.55965062   -3.0886182     2856.917  0.054906922  0.053293041            9 
 4337000   0.55017095   -3.0722664    2856.9999  0.054895855  0.053281824           14 
 4338000   0.55127862   -3.0812857     2851.395   0.05477553  0.053270549            6 
 4339000   0.55144954   -3.0897262    2852.3435  0.054781122  0.053259326            8 
 4340000   0.55647168   -3.0899757    2847.6988  0.054679317  0.053248056            6 
 4341000   0.54628295   -3.0624544    2860.7582   0.05491742  0.053236853           11 
 4342000   0.56825763   -3.0769722    2851.7417  0.054731723  0.053225642            6 
 4343000   0.55457541   -3.0870889    2860.2634  0.054882634   0.05321446           10 
 4344000    0.5549826   -3.0775933    2858.0998  0.054828495  0.053203261           27 
 4345000   0.56410608   -3.0782943    2847.5801  0.054614117  0.053192046           15 
 4346000   0.56139331   -3.0995804    2853.8807  0.054722363  0.053180777           17 
 4347000   0.54526907   -3.0786238    2851.0838  0.054656157  0.053169521            9 
 4348000   0.55761701   -3.0895081    2855.1552  0.054721618  0.053158275           10 
 4349000   0.55007028   -3.0861195    2851.7149  0.054643115  0.053147023           21 
 4350000   0.55689645   -3.0922854    2846.6829  0.054534154  0.053135861           20 
 4351000   0.55780964   -3.0931022    2852.7348  0.054637532  0.053124657            6 
 4352000   0.55582127   -3.0767791    2861.7475  0.054797555  0.053113501            9 
 4353000   0.56278535   -3.0882649    2854.9101  0.054654073  0.053102325            8 
 4354000   0.55314126    -3.083262    2860.0561  0.054740011  0.053091119           10 
 4355000    0.5543663   -3.0885348    2865.7722   0.05483682  0.053079939            7 
 4356000   0.55586722    -3.080165    2849.1895  0.054506992  0.053068778           12 
 4357000   0.55618125   -3.0862775    2853.6467  0.054579732  0.053057591           11 
 4358000   0.54645335   -3.0659537    2858.2993  0.054656175   0.05304644            5 
 4359000   0.54863921   -3.0750321    2860.1583  0.054679175  0.053035291           12 
 4360000   0.54773725    -3.083779    2863.1774  0.054724339  0.053024177           13 
 4361000   0.54975778   -3.0810524    2849.7545  0.054455295  0.053012966            6 
 4362000   0.54693601   -3.0943511    2860.6957  0.054651835   0.05300177           15 
 4363000   0.55585961   -3.0581853    2854.8856  0.054528337  0.052990594            8 
 4364000   0.53675531   -3.0954831    2855.1461  0.054520816  0.052979427            7 
 4365000    0.5596341   -3.0920242    2853.7686  0.054482028  0.052968228            8 
 4366000   0.54951843   -3.0809395    2862.2337  0.054631121  0.052957027           16 
 4367000   0.56054817   -3.0920266    2857.0028  0.054518792  0.052945948           21 
 4368000   0.53652058   -3.0713797    2850.9563  0.054390954   0.05293477           13 
 4369000   0.55263716   -3.1011273    2860.5355  0.054561217  0.052923655            8 
 4370000   0.55792051   -3.0798411    2865.4013   0.05464152  0.052912558           12 
 4371000   0.56701894   -3.0761623     2862.511  0.054573915  0.052901515            9 
 4372000   0.55539866   -3.0846832    2854.5608  0.054409896  0.052890407            7 
 4373000   0.55587566   -3.0851432    2851.6846  0.054342645  0.052879375           13 
 4374000   0.55477484   -3.0776747    2858.5131  0.054460316  0.052868223           10 
 4375000   0.56638016   -3.0846158    2855.3098  0.054386853  0.052857097           10 
 4376000   0.54947692   -3.0953964    2852.8504  0.054327591  0.052845966           10 
 4377000   0.56227879   -3.1041156    2852.0007     0.054299  0.052834724            8 
 4378000   0.56095229   -3.0720006    2860.8191  0.054454452  0.052823548            7 
 4379000   0.55776771   -3.1035946    2860.3437   0.05443297  0.052812358            5 
 4380000   0.56029467    -3.085241    2854.3842  0.054307158  0.052801214           17 
 4381000   0.55798326    -3.105614    2858.1594  0.054366572  0.052790052           15 
 4382000   0.56885759   -3.0904405    2855.6851  0.054307111   0.05277889           11 
 4383000    0.5380878   -3.0881239    2854.9251  0.054280271  0.052767716           16 
 4384000   0.55351546   -3.1038516    2857.2378   0.05431185  0.052756583           11 
 4385000    0.5495219   -3.0618054    2862.2797   0.05439528  0.052745413            6 
 4386000   0.55282728   -3.0795499     2863.717  0.054410188  0.052734255           12 
 4387000   0.55538771   -3.0984125    2863.0607  0.054385319  0.052723212            5 
 4388000   0.55147326   -3.0947517    2861.8007  0.054348996  0.052712091            4 
 4389000   0.54312881   -3.0951265    2857.4522  0.054254047  0.052700986            6 
 4390000   0.54028569   -3.0963628    2857.9618  0.054251362  0.052689831           19 
 4391000   0.53284916   -3.0944102    2859.2382  0.054263232  0.052678682           34 
 4392000   0.55609858    -3.092431    2859.2011  0.054250172  0.052667526            9 
 4393000   0.53608071    -3.103525    2861.2677  0.054277026   0.05265642           15 
 4394000   0.56636322   -3.0913813    2855.6002  0.054157189  0.052645294           18 
 4395000   0.55392205   -3.0971933    2864.2874  0.054309582  0.052634133            5 
 4396000   0.53039372   -3.0817395    2851.2816  0.054050683  0.052622952            8 
 4397000   0.54853446   -3.0940638     2858.843  0.054181695  0.052611806            9 
 4398000   0.53887218   -3.0826671    2860.3233  0.054197426   0.05260064           10 
 4399000   0.54612388   -3.1094601    2850.6359  0.054001589   0.05258946            6 
 4400000   0.54415904   -3.1144201     2857.275  0.054115057  0.052578245            8 
 4401000   0.54858707   -3.0989893    2855.9794  0.054078229  0.052567073           15 
 4402000   0.54848245   -3.0814934    2855.5578  0.054057962  0.052555854            4 
 4403000   0.54601926   -3.0999972    2852.6256  0.053990188  0.052544668           19 
 4404000   0.55462998   -3.0911371    2860.7361  0.054131398  0.052533527           11 
 4405000    0.5447092   -3.0977754    2862.4495  0.054151522  0.052522369            8 
 4406000   0.54327173    -3.085523    2852.2646  0.053946599  0.052511185            9 
 4407000   0.54877883   -3.1014501     2858.707  0.054056179  0.052500006           16 
 4408000   0.55566504   -3.1094568    2860.5118  0.054078036  0.052488765           10 
 4409000   0.54546724   -3.1009282    2857.4073  0.054007094  0.052477537            7 
 4410000   0.54253376   -3.0756333    2860.7023   0.05405711  0.052466379           23 
 4411000   0.54768224   -3.0881273    2860.2832  0.054036938  0.052455236            5 
 4412000   0.53508817   -3.1042192    2855.1644  0.053928006  0.052444111            8 
 4413000   0.53259894   -3.1052784     2859.965   0.05400644  0.052432965           14 
 4414000   0.55025754   -3.0874322    2869.3223  0.054170863   0.05242187            4 
 4415000   0.54989544   -3.0810139    2857.9052  0.053943095  0.052410782           10 
 4416000   0.54069948   -3.1007681    2865.6624  0.054077265  0.052399659           11 
 4417000   0.54347957   -3.0851574    2875.5437  0.054251446  0.052388633           11 
 4418000   0.54269252   -3.0999168    2860.5912  0.053957129  0.052377588           14 
 4419000   0.56104721   -3.0924252    2864.0393  0.054009943  0.052366463           13 
 4420000   0.54652892   -3.1021903    2863.7092  0.053991501  0.052355351           12 
 4421000   0.54397327   -3.0990477    2860.3588  0.053916134  0.052344198           17 
 4422000   0.54572471   -3.1027793    2858.8313  0.053875156  0.052333065           16 
 4423000   0.55369082   -3.0821213    2862.1645  0.053925777  0.052321999            7 
 4424000   0.54935503   -3.1020725    2864.7218  0.053961758  0.052310885            9 
 4425000   0.55177128   -3.1017834    2866.8731  0.053990078  0.052299804            6 
 4426000   0.54560784   -3.1065854    2870.1376  0.054039344  0.052288688           27 
 4427000   0.53701732    -3.094418     2865.583  0.053941402  0.052277538           20 
 4428000   0.53919667   -3.1045561    2860.4992  0.053833545  0.052266489           16 
 4429000   0.55291169   -3.1021242     2864.094  0.053889027  0.052255365           13 
 4430000   0.54787211    -3.104321    2859.8703  0.053797409   0.05224425           12 
 4431000   0.54832597   -3.0896725    2858.2189  0.053754211  0.052233125            3 
 4432000   0.54315373   -3.1158432    2859.7354  0.053770596  0.052222021            9 
 4433000    0.5372205   -3.1095197    2862.2276  0.053805316  0.052210918           19 
 4434000   0.55510739   -3.0916693    2867.8651  0.053899134  0.052199841           16 
 4435000   0.54512044   -3.0934887    2858.4017  0.053709163  0.052188787           13 
 4436000   0.53127924   -3.1141862     2861.827  0.053761403  0.052177628            8 
 4437000   0.54990707   -3.0896094    2856.6785   0.05365259  0.052166551            5 
 4438000   0.55130501   -3.0857856    2868.1455  0.053855819  0.052155447           11 
 4439000   0.56030454   -3.1067586    2855.7689  0.053611341  0.052144292           14 
 4440000   0.54843367   -3.1069593    2859.8882   0.05367658  0.052133142            7 
 4441000   0.55211373   -3.1086375    2860.5854  0.053677576  0.052122028           14 
 4442000   0.53680995   -3.1276744    2856.3302  0.053585664  0.052110881           15 
 4443000   0.54220228   -3.0876664    2864.8924  0.053734196  0.052099755            9 
 4444000   0.54803601   -3.1278684    2857.6753  0.053586771  0.052088631           10 
 4445000   0.54014284   -3.1168252    2860.8398  0.053634043  0.052077432            9 
 4446000   0.54385385    -3.104245    2856.1891  0.053534809  0.052066244            9 
 4447000   0.54026414   -3.1058701    2866.1582  0.053709583  0.052055073           10 
 4448000   0.53407185   -3.0770736     2867.223  0.053717458  0.052043926           11 
 4449000   0.53285614   -3.0917447    2868.7182  0.053733389  0.052032837           11 
 4450000   0.54550492    -3.116182    2865.9386  0.053669263  0.052021723           10 
 4451000   0.54402822   -3.1248764    2860.3368  0.053552326  0.052010589           10 
 4452000   0.55445044   -3.1134832    2859.1322   0.05351775  0.051999435            7 
 4453000   0.54899966   -3.1110043    2863.7805  0.053592719  0.051988324            8 
 4454000   0.53032931    -3.112915    2857.1674  0.053456957  0.051977177           12 
 4455000   0.52682082   -3.1184085    2862.8193  0.053550679  0.051965998            7 
 4456000   0.53730881    -3.120648    2859.2738  0.053472355  0.051954866            8 
 4457000   0.54797184   -3.1082791    2862.1981  0.053515034  0.051943737           20 
 4458000   0.54590435   -3.1055295    2867.7794  0.053607362  0.051932619           30 
 4459000   0.53668332   -3.0981585    2858.6435    0.0534246  0.051921526           11 
 4460000    0.5382649   -3.0933391    2863.0404  0.053494775  0.051910457            9 
 4461000    0.5337068   -3.1055557    2866.8604  0.053554143  0.051899364           10 
 4462000   0.53737641   -3.1202021    2855.4933  0.053329846  0.051888328           13 
 4463000   0.53298155    -3.114686    2869.7936  0.053584913  0.051877255            9 
 4464000   0.53754857    -3.115773    2867.5858  0.053531695  0.051866226            6 
 4465000   0.53557014   -3.0972176    2869.0793  0.053547579  0.051855203            7 
 4466000   0.53655236   -3.0943546    2856.5826  0.053302407  0.051844132            9 
 4467000   0.54122532   -3.1166349    2863.3045  0.053415875  0.051833126           14 
 4468000   0.54380766   -3.1144296    2866.0514  0.053455151  0.051822109           15 
 4469000   0.53361572   -3.1100827    2861.4037  0.053356525     0.051811            5 
 4470000   0.52173038   -3.1078142    2868.7929  0.053482344  0.051799896           12 
 4471000    0.5425698   -3.1106405    2865.3973  0.053407092   0.05178883           17 
 4472000   0.53168131   -3.1114691    2860.3355  0.053300826   0.05177782           13 
 4473000    0.5314906   -3.1127272    2865.6145  0.053387258  0.051766772           13 
 4474000   0.54479143   -3.1326898    2864.6471  0.053357307  0.051755692            8 
 4475000   0.52392835   -3.1251479    2869.8865  0.053442952  0.051744624            4 
 4476000   0.53059759   -3.1267327    2867.9058  0.053394135  0.051733556            7 
 4477000     0.540895   -3.1139878    2863.9442   0.05330847  0.051722452            7 
 4478000   0.54133953   -3.1008578    2872.9917  0.053464933  0.051711428           11 
 4479000   0.53931853   -3.1227697     2862.439   0.05325666  0.051700397           12 
 4480000   0.53355194   -3.1113921    2866.5541  0.053321318  0.051689347           10 
 4481000   0.52313641   -3.1120943    2861.9278  0.053223385  0.051678339            7 
 4482000    0.5307058   -3.1212606    2865.3822  0.053275736  0.051667378           14 
 4483000   0.54350851   -3.1329421    2860.8595  0.053179781  0.051656279            9 
 4484000   0.53270707   -3.1190605    2859.2825  0.053138614  0.051645191           21 
 4485000   0.53397931   -3.1199773    2863.4617  0.053204416  0.051634126           10 
 4486000   0.52943684   -3.1363264     2868.654  0.053289011  0.051623041            6 
 4487000   0.53139924   -3.1260443    2868.4429  0.053273212  0.051611989           10 
 4488000   0.53488178   -3.1166815    2870.2724  0.053295313  0.051600978           16 
 4489000   0.52927539   -3.1146095    2869.0629  0.053260987  0.051589934           17 
 4490000    0.5482428   -3.1302807    2870.4277  0.053274456  0.051578927           22 
 4491000    0.5367777   -3.1283964    2868.1077  0.053219544  0.051567873            9 
 4492000   0.53615174   -3.1087642    2866.1499  0.053171376  0.051556803           10 
 4493000   0.53149012   -3.1336447    2865.3967  0.053145573  0.051545784            5 
 4494000   0.53005894   -3.1184849    2862.6655  0.053083101  0.051534752           12 
 4495000   0.53892464   -3.1020097    2865.7401  0.053128292  0.051523699           16 
 4496000   0.52841354   -3.1136133    2871.0607  0.053215093  0.051512616           20 
 4497000   0.53449469   -3.1131099    2865.9768   0.05310905  0.051501642           18 
 4498000   0.54144111   -3.1185536    2861.9566  0.053022762  0.051490556           23 
 4499000   0.52568035   -3.1211901    2871.2526  0.053183163  0.051479437           14 
 4500000   0.53617546   -3.1243504    2864.6453  0.053048988  0.051468394           12 
 4501000   0.53425096   -3.1271529    2866.4368   0.05307037  0.051457318            9 
 4502000   0.53272329   -3.1157415    2861.4371  0.052966035  0.051446246           15 
 4503000   0.53188076   -3.1365371    2867.1087  0.053059234  0.051435203            8 
 4504000   0.53304665   -3.1392218    2863.0049  0.052971523  0.051424115           14 
 4505000   0.53674559   -3.1131895    2863.0037  0.052959742  0.051413087            8 
 4506000   0.54057433   -3.1306186    2866.6848  0.053016068  0.051402084            8 
 4507000   0.53533431   -3.1127097    2865.6065  0.052984366  0.051391091           11 
 4508000   0.54047445   -3.1204891     2871.868  0.053088361  0.051380064            8 
 4509000   0.53468796   -3.1239396    2868.2258  0.053009273  0.051369014            7 
 4510000   0.54704291     -3.12133    2864.6353  0.052931176  0.051357984            9 
 4511000   0.51787918   -3.1218934    2871.2765  0.053042129  0.051347007           12 
 4512000   0.52560976    -3.115674    2863.2525  0.052882175  0.051336004           18 
 4513000   0.53008053    -3.118494     2860.915  0.052827296  0.051325002           13 
 4514000   0.52078932    -3.135501    2866.6132  0.052920788  0.051314004           14 
 4515000   0.53277962   -3.1211378    2865.0744  0.052880665  0.051302954           12 
 4516000   0.53834932    -3.114458    2868.5275  0.052932675  0.051291998           16 
 4517000   0.52582753   -3.1328838    2870.6536   0.05296018  0.051280997            7 
 4518000   0.52598397   -3.1134836    2872.4009  0.052980686  0.051269961            8 
 4519000   0.53403812   -3.1290605    2856.4348  0.052674537   0.05125895            8 
 4520000   0.52920461   -3.1396688    2861.6647  0.052759304  0.051247874           32 
 4521000   0.52506583   -3.1182227    2865.6906  0.052821842  0.051236796            9 
 4522000   0.52388535   -3.1122186    2864.6963  0.052791837  0.051225759            7 
 4523000   0.53295633   -3.1244703    2863.5057  0.052758229  0.051214712           18 
 4524000   0.52071084   -3.1414725    2869.6101  0.052859012  0.051203693           21 
 4525000   0.52040591   -3.1231384    2864.5294  0.052753765  0.051192687           20 
 4526000   0.52912875    -3.110487    2862.5809  0.052706233  0.051181733           13 
 4527000   0.52433231   -3.1265465     2862.866  0.052699838  0.051170729           12 
 4528000   0.53740804   -3.1391852    2861.9357  0.052671078  0.051159702           16 
 4529000   0.52712228   -3.1335924    2868.7507  0.052784844  0.051148666            8 
 4530000   0.52987984   -3.1385376     2865.462  0.052712694   0.05113766            6 
 4531000   0.52002842   -3.1341926     2874.652   0.05287008  0.051126695            6 
 4532000   0.52768201   -3.1263309    2863.8268  0.052659363  0.051115735           11 
 4533000    0.5325338   -3.1172346    2873.4136  0.052823987  0.051104812           11 
 4534000   0.52968511   -3.1200158    2873.9416   0.05282204  0.051093858            9 
 4535000   0.52262372    -3.144111     2864.927  0.052644745   0.05108286            8 
 4536000    0.5221152   -3.1453392    2876.7046  0.052849512   0.05107189            8 
 4537000    0.5295272   -3.1394766    2871.3237  0.052739029  0.051060943           14 
 4538000   0.53449454   -3.1448449    2869.5501  0.052694838  0.051049934            9 
 4539000    0.5205523   -3.1391753    2871.7561   0.05272373  0.051038984            9 
 4540000   0.52108714   -3.1241385     2865.665  0.052600312  0.051027997            6 
 4541000   0.53130174   -3.1218871    2869.0714   0.05265124  0.051017128           11 
 4542000   0.51745182   -3.1472201    2874.4591  0.052738499  0.051006182           13 
 4543000   0.53327024   -3.1312303     2868.093  0.052610115  0.050995239            9 
 4544000     0.532258   -3.1409865    2869.9662  0.052632889  0.050984339           16 
 4545000   0.52614114    -3.127882    2874.5029   0.05270449  0.050973464           10 
 4546000   0.51334188   -3.1416902    2875.1834   0.05270537  0.050962615           24 
 4547000    0.5205054   -3.1306662    2872.6667  0.052647655  0.050951742           12 
 4548000   0.52944652   -3.1423507    2876.7002  0.052709986  0.050940852           10 
 4549000   0.52305125   -3.1277801     2872.164  0.052615299  0.050929951           15 
 4550000   0.52614419      -3.1253    2874.2999  0.052642856  0.050919042            8 
 4551000   0.52159525   -3.1297453    2873.9481  0.052624846  0.050908205           17 
 4552000   0.52820023   -3.1415105    2870.6271  0.052552489  0.050897337           12 
 4553000   0.51765416   -3.1238503    2879.3914  0.052701358  0.050886462           15 
 4554000   0.52896046   -3.1364434    2875.8381  0.052624764   0.05087561           10 
 4555000   0.53330988   -3.1384794    2870.8718  0.052522352  0.050864734            6 
 4556000   0.53246963   -3.1453278    2883.5016  0.052741835  0.050853913           15 
 4557000   0.51972763   -3.1367351    2877.8902  0.052627646  0.050843061           12 
 4558000   0.52889079     -3.15164    2877.0433  0.052600616  0.050832249            9 
 4559000    0.5260043   -3.1420111    2873.0067  0.052515294  0.050821387           25 
 4560000   0.53183722   -3.1532922    2867.4781  0.052402743  0.050810468           10 
 4561000   0.52555238   -3.1355684    2885.4316  0.052719279  0.050799626            9 
 4562000   0.50919903   -3.1238973    2874.8624  0.052514657   0.05078886            5 
 4563000   0.51229455   -3.1301074    2870.9954  0.052432526  0.050777985            7 
 4564000   0.52405574   -3.1271855    2874.8346  0.052491137  0.050767145            9 
 4565000   0.51534008   -3.1442112     2871.802  0.052424278  0.050756265            6 
 4566000   0.52605549   -3.1293284    2871.8847  0.052414307  0.050745362           10 
 4567000    0.5173003   -3.1460435    2877.0291  0.052496699  0.050734506            8 
 4568000   0.52184403   -3.1393895    2875.7238  0.052461394  0.050723634            7 
 4569000   0.52742777   -3.1517706    2881.7501  0.052559824  0.050712787           10 
 4570000   0.52023712   -3.1424974    2879.2792  0.052503268  0.050702024           12 
 4571000   0.51756343   -3.1411803    2873.5605  0.052387525  0.050691149            5 
 4572000   0.51631295   -3.1477835    2884.4777  0.052575053  0.050680271           19 
 4573000    0.5075799   -3.1393933    2878.7915  0.052459938  0.050669427            6 
 4574000    0.5244195   -3.1538562    2876.7198  0.052410723  0.050658638            9 
 4575000   0.51990773   -3.1181783    2880.6436  0.052470739  0.050647835           10 
 4576000   0.52986094   -3.1234012    2877.3918  0.052400055  0.050637073           12 
 4577000   0.52299091   -3.1219314    2878.1153   0.05240178  0.050626343           13 
 4578000   0.51634626   -3.1489266    2875.8935  0.052349889  0.050615532           20 
 4579000   0.52039464   -3.1302007    2877.6591  0.052370588  0.050604706           10 
 4580000   0.51414367   -3.1312749    2879.8945  0.052399827  0.050593879           14 
 4581000   0.51799177   -3.1418972    2875.4352   0.05230727   0.05058308           27 
 4582000   0.52431073   -3.1424599    2870.6428  0.052208694  0.050572259           27 
 4583000   0.52037247   -3.1608601    2877.5549  0.052322985  0.050561444           31 
 4584000    0.5123415    -3.129166    2885.6208  0.052458202  0.050550703           19 
 4585000    0.5233084   -3.1411991    2878.1896  0.052311697   0.05053997           12 
 4586000   0.53072971   -3.1482808    2881.9849  0.052369257  0.050529211           10 
 4587000   0.51283786   -3.1482233    2881.3329  0.052345995  0.050518467            6 
 4588000   0.52730515   -3.1340044    2884.8032  0.052397617  0.050507741            7 
 4589000   0.51568522    -3.145657     2879.874  0.052296687  0.050496931            6 
 4590000   0.50838059   -3.1338328    2878.8331  0.052266397   0.05048618            8 
 4591000   0.51812168   -3.1387312    2873.1911  0.052152601  0.050475392           17 
 4592000   0.51845346   -3.1118371    2882.0532  0.052302068  0.050464625            8 
 4593000   0.52304605   -3.1529334    2877.7326   0.05221229  0.050453808           14 
 4594000   0.51527421   -3.1429785    2878.9253  0.052222561  0.050443009           13 
 4595000   0.51227943   -3.1414051    2871.6758  0.052079721  0.050432144           22 
 4596000   0.51819079   -3.1491708    2885.8973  0.052326249  0.050421384           17 
 4597000   0.51600481   -3.1459238    2877.6273   0.05216495  0.050410613           13 
 4598000   0.52893254   -3.1493252    2876.7761  0.052138177  0.050399825           17 
 4599000   0.52158566   -3.1466361    2884.2164  0.052261658  0.050389051            9 
 4600000   0.51484479   -3.1497224     2875.941  0.052100381  0.050378329           15 
 4601000   0.52386039   -3.1518656    2880.0331  0.052163172  0.050367533           15 
 4602000   0.51242617   -3.1684316     2878.922  0.052131718  0.050356783           16 
 4603000   0.52092332    -3.146035    2884.8525  0.052227759  0.050346036           14 
 4604000   0.52102601   -3.1495463    2876.4806  0.052064881  0.050335307           11 
 4605000     0.511337   -3.1522504     2875.908  0.052043213  0.050324542           15 
 4606000   0.51723143   -3.1467899    2876.1824   0.05203688  0.050313785           10 
 4607000   0.51470926   -3.1335006    2888.2474  0.052243822  0.050303058           11 
 4608000   0.50090204   -3.1463125    2878.0114  0.052047371  0.050292347           38 
 4609000   0.51801928   -3.1513603    2884.2823   0.05214946  0.050281616            7 
 4610000   0.51350042   -3.1469591    2872.3078  0.051921688  0.050270834           37 
 4611000   0.50840282    -3.152019     2877.145   0.05199785  0.050260079            9 
 4612000   0.52750793   -3.1489619    2878.3368   0.05200811  0.050249299           17 
 4613000   0.50329444   -3.1747836    2880.5995   0.05203771  0.050238508           12 
 4614000   0.52276309   -3.1561006    2882.4308  0.052059507  0.050227667           12 
 4615000   0.50772925   -3.1628086    2873.8206  0.051892751  0.050216873           14 
 4616000   0.50243736   -3.1625745    2874.6458  0.051896408  0.050206084           10 
 4617000   0.51039001   -3.1627036    2883.7717  0.052049882  0.050195307           11 
 4618000   0.52053419   -3.1613649    2878.3838  0.051941385  0.050184546            7 
 4619000   0.52359126   -3.1446523    2872.9614  0.051832312  0.050173784           12 
 4620000   0.51041667   -3.1536399    2884.3299  0.052026153  0.050163039           19 
 4621000   0.52245327   -3.1497103     2889.833  0.052114135  0.050152285           16 
 4622000   0.50287239   -3.1362084    2891.6845  0.052136242  0.050141619           12 
 4623000   0.51763903   -3.1611303    2885.4801  0.052013125  0.050130933           10 
 4624000   0.52455775   -3.1496258    2878.2188  0.051871013  0.050120177           14 
 4625000   0.51753125   -3.1432766    2889.0975   0.05205581  0.050109481           15 
 4626000   0.49414635   -3.1567738    2878.6573  0.051856486  0.050098809           10 
 4627000   0.50603577   -3.1593687       2887.6   0.05200634  0.050088091           12 
 4628000   0.51641717   -3.1555797    2879.5994   0.05185104  0.050077372            9 
 4629000   0.50259072   -3.1649737    2879.6264  0.051840325  0.050066629            9 
 4630000   0.50812291   -3.1592264     2884.666  0.051919834  0.050055897           13 
 4631000   0.50702428   -3.1571956    2881.8948  0.051858756  0.050045112            9 
 4632000   0.52020459   -3.1681162    2878.5759  0.051787851  0.050034367           12 
 4633000   0.49641065   -3.1416487    2877.4935  0.051757204  0.050023625           13 
 4634000   0.50498286   -3.1532748    2884.2692  0.051867883  0.050012884           46 
 4635000   0.50860294   -3.1494071    2877.2214  0.051729978  0.050002146           64 
 4636000   0.50617857   -3.1586592    2875.2902  0.051684106  0.049991344           52 
 4637000   0.50204245   -3.1511506     2880.073  0.051758915  0.049980535           52 
 4638000    0.5087671   -3.1583617     2872.053  0.051603654  0.049969757           51 
 4639000   0.51997567   -3.1633715    2880.0305  0.051735835  0.049958982           18 
 4640000   0.50681074   -3.1592923    2879.4624  0.051714483  0.049948237           13 
 4641000   0.51022975   -3.1480636    2874.7013   0.05161785  0.049937484           26 
 4642000    0.5155209   -3.1526267    2878.7727   0.05167982   0.04992676           20 
 4643000   0.51012924   -3.1497105    2879.7336  0.051685936  0.049916015           11 
 4644000   0.51542294   -3.1642826    2884.1469     0.051754  0.049905248           12 
 4645000   0.50936896   -3.1635568    2881.5202  0.051695734  0.049894488           12 
 4646000   0.50764322   -3.1492655    2883.6815  0.051723374  0.049883734           24 
 4647000   0.51333944   -3.1691141    2877.7342  0.051605591  0.049872993           12 
 4648000   0.51693958   -3.1607921    2878.1179  0.051601367  0.049862254            9 
 4649000   0.49334357   -3.1533501    2884.5963  0.051706395  0.049851516           13 
 4650000   0.50788732   -3.1774164    2877.7759  0.051573044  0.049840765           15 
 4651000   0.51684729   -3.1597483    2884.8729  0.051689116  0.049830006            7 
 4652000   0.49244469   -3.1558521    2886.4549  0.051706344  0.049819269            9 
 4653000   0.50569619   -3.1677788    2880.1694  0.051582659  0.049808512            7 
 4654000   0.49306406   -3.1805196    2883.5852  0.051632739  0.049797726           12 
 4655000   0.49933294   -3.1560475    2885.6777  0.051659107  0.049786922           15 
 4656000   0.50718519   -3.1584414    2872.1741  0.051406324  0.049776099           13 
 4657000   0.50492739   -3.1594419    2879.6076  0.051528301  0.049765263           25 
 4658000   0.50545064   -3.1679606    2881.9028  0.051558302  0.049754478           25 
 4659000   0.49753128   -3.1760269    2878.7679  0.051491163  0.049743665           12 
 4660000   0.49553457   -3.1687299    2881.3303  0.051525936  0.049732854           20 
 4661000   0.50903028   -3.1721268    2874.6313  0.051395109  0.049722069           18 
 4662000   0.51071291   -3.1650783    2879.6454  0.051473713  0.049711274           15 
 4663000   0.50705049   -3.1587139    2875.3426  0.051385778  0.049700513           14 
 4664000   0.50250019   -3.1937153    2880.7542  0.051471452  0.049689755            8 
 4665000   0.50928502   -3.1789294    2878.7744  0.051425051  0.049678967           10 
 4666000    0.5012226   -3.1539713     2878.804  0.051414559  0.049668215           11 
 4667000   0.50515315   -3.1554489    2887.5473  0.051559662  0.049657522           10 
 4668000    0.4974796    -3.156069    2883.1461  0.051470047  0.049646869            8 
 4669000   0.50570876      -3.1459    2883.6542  0.051468091  0.049636196           16 
 4670000   0.50505019   -3.1622722    2878.9352  0.051372863  0.049625447           14 
 4671000   0.50188044   -3.1803102     2876.798  0.051323736  0.049614695            8 
 4672000   0.50369569   -3.1583758    2881.2595  0.051392328  0.049603929           34 
 4673000   0.49448353   -3.1732425    2878.5322  0.051332696  0.049593166           28 
 4674000   0.50765776   -3.1690274    2879.1568  0.051332849  0.049582384            5 
 4675000    0.5055941   -3.1660705    2881.3141  0.051360322   0.04957162           11 
 4676000   0.50718622   -3.1715806     2871.617  0.051176522  0.049560841            9 
 4677000   0.50942042   -3.1670131    2883.6098  0.051379264  0.049550037            8 
 4678000   0.50463507   -3.1484228     2883.118  0.051359519  0.049539304           15 
 4679000   0.50794333   -3.1595298    2882.5481  0.051338394  0.049528534           18 
 4680000   0.51107197   -3.1652937    2874.8934  0.051191121  0.049517769           18 
 4681000   0.49484701   -3.1744321     2869.154  0.051078011  0.049506953           39 
 4682000   0.50736429   -3.1758041    2878.2567  0.051229117  0.049496191           11 
 4683000    0.5015646   -3.1942815    2879.4898  0.051240121   0.04948547           22 
 4684000   0.50668816   -3.1602163    2877.8659  0.051200289  0.049474668           20 
 4685000   0.50578153   -3.1644912    2883.8009  0.051294929  0.049463971           21 
 4686000   0.50091735   -3.1805326    2878.2325  0.051184957  0.049453203           19 
 4687000   0.50247027   -3.1803178    2877.5144  0.051161269  0.049442387           25 
 4688000   0.49331289   -3.1606594    2873.4229  0.051077625  0.049431552           13 
 4689000   0.50097976   -3.1781537    2877.3255  0.051136089  0.049420743           16 
 4690000   0.49936862    -3.161042    2878.0333  0.051137763  0.049410026           16 
 4691000   0.50367599   -3.1583244    2881.9807  0.051196986  0.049399301           16 
 4692000   0.50862319   -3.1778408    2882.1336  0.051188789  0.049388513           59 
 4693000   0.50259236   -3.1577673     2875.786  0.051065169  0.049377734           17 
 4694000   0.50635941   -3.1605796    2877.4647  0.051084092  0.049366997           14 
 4695000   0.49439449   -3.1629447    2872.3423  0.050982292  0.049356231            8 
 4696000   0.49004155   -3.1779162    2882.5435  0.051152461  0.049345495            7 
 4697000   0.49306613   -3.1684297    2878.3409   0.05106701  0.049334715           15 
 4698000   0.50324042   -3.1742442    2886.6779  0.051204022  0.049324011            9 
 4699000   0.49441177   -3.1827474    2875.1006   0.05098781  0.049313266           33 
 4700000   0.49333873   -3.1775268     2877.728  0.051023546  0.049302471           45 
 4701000   0.50492014   -3.1662856    2878.9822  0.051034925  0.049291701           11 
 4702000   0.50303754   -3.1623457    2880.9232  0.051058471  0.049280963            9 
 4703000    0.4976818   -3.1649434    2879.0219  0.051013926  0.049270212           15 
 4704000   0.50247671   -3.1628897     2873.375  0.050903043  0.049259417           37 
 4705000   0.49572476   -3.1848043    2882.6164  0.051055904  0.049248603           15 
 4706000   0.49843757   -3.1665531    2881.1692  0.051019429  0.049237845            6 
 4707000   0.49837626   -3.1769872    2874.5687  0.050891735   0.04922705            9 
 4708000   0.50427236   -3.1638444    2874.3118  0.050876376  0.049216235           18 
 4709000   0.49848902   -3.1870193     2875.354  0.050884017  0.049205438            9 
 4710000   0.48743666   -3.1848078    2875.4573   0.05087504  0.049194614            9 
 4711000   0.48893971   -3.1911407    2879.1436  0.050929449  0.049183811            7 
 4712000   0.49375553    -3.167604    2882.5904  0.050979598   0.04917304           12 
 4713000    0.5018075   -3.1657107    2875.7492  0.050847818  0.049162236            9 
 4714000   0.49406569    -3.180785     2878.761  0.050890274  0.049151379           30 
 4715000   0.49716494   -3.1849809    2879.3955  0.050890695  0.049140492           11 
 4716000   0.48773994   -3.1846962     2879.328  0.050878712   0.04912959           42 
 4717000     0.485451   -3.1791696    2874.7697  0.050787395  0.049118754           12 
 4718000   0.51035911   -3.1815587    2874.1477  0.050765643  0.049107938           16 
 4719000   0.49632797   -3.1833771    2876.3071  0.050793019  0.049097095            8 
 4720000     0.504474   -3.1780996    2879.8974  0.050845647  0.049086291            9 
 4721000   0.50588734   -3.1605158    2878.2709  0.050806165  0.049075513           23 
 4722000   0.50180241   -3.1874016    2880.8924   0.05084167  0.049064752           15 
 4723000   0.49868998   -3.1928866    2878.0988  0.050781614  0.049053929           14 
 4724000   0.49749993   -3.1796888    2876.1639  0.050736732  0.049043127           13 
 4725000   0.49592893   -3.1861911    2873.9001  0.050686069  0.049032342           12 
 4726000    0.4958162   -3.1718851    2879.7518  0.050778526  0.049021525            5 
 4727000   0.49944373   -3.1805872    2884.9163  0.050858831  0.049010768            7 
 4728000   0.49897261   -3.1789301    2880.8868  0.050777051  0.049000029           14 
 4729000   0.50324556    -3.182154    2875.5172  0.050671692  0.048989244           11 
 4730000   0.49465539   -3.1899068    2884.7697   0.05082399  0.048978449           16 
 4731000   0.49678214   -3.1789754    2874.3921  0.050630454   0.04896768           25 
 4732000   0.49976188   -3.1964955    2872.1696  0.050580614  0.048956835           20 
 4733000    0.5058334   -3.1885388    2878.3695  0.050679088   0.04894602           46 
 4734000   0.48925664   -3.1814199    2875.1106  0.050611016  0.048935203            8 
 4735000   0.48923045   -3.1748926    2881.5731  0.050714064   0.04892441            8 
 4736000   0.48958807   -3.1834474    2884.2767  0.050750928  0.048913592           16 
 4737000   0.49880853   -3.1870794    2875.9182  0.050593171  0.048902845           20 
 4738000   0.49149432   -3.1773363    2887.0887  0.050778963  0.048892111           14 
 4739000   0.48854527   -3.1964373    2881.4716  0.050669473  0.048881349           18 
 4740000   0.49541728   -3.1821481    2876.1527  0.050565273  0.048870562            7 
 4741000   0.49995613   -3.2035601    2871.7964  0.050478036  0.048859775           10 
 4742000   0.48145517   -3.1810154    2876.1363  0.050543658  0.048848976           23 
 4743000   0.47998887   -3.1836785    2875.7822   0.05052678  0.048838158           12 
 4744000   0.49208623    -3.182546    2874.4091  0.050492009  0.048827339           24 
 4745000   0.49021063   -3.1832775    2871.0411  0.050422217   0.04881658           11 
 4746000   0.50156172   -3.1857542     2878.548  0.050543405  0.048805848           29 
 4747000   0.49817635    -3.185337    2878.5705  0.050533153  0.048795084           21 
 4748000   0.49779072   -3.1742526    2874.4713  0.050450563  0.048784306           15 
 4749000   0.49924146   -3.1819937     2879.767  0.050532866  0.048773508            8 
 4750000     0.503057   -3.1972134     2883.577  0.050589071   0.04876275           29 
 4751000    0.4965594   -3.1748293    2873.0026  0.050392945  0.048751961           28 
 4752000   0.48548339   -3.1792144    2880.1478  0.050507642  0.048741161           11 
 4753000   0.49937188   -3.1828383    2875.5746  0.050416834  0.048730376           30 
 4754000   0.48975433   -3.1934375     2873.369  0.050367568  0.048719538           17 
 4755000   0.48574424   -3.1726192    2872.0174  0.050333288  0.048708762           24 
 4756000   0.49874596   -3.1937166    2876.8481  0.050407347  0.048697926           15 
 4757000   0.48360391   -3.1835675    2871.8757  0.050309644  0.048687129           12 
 4758000   0.49130146    -3.178433    2873.9736  0.050335814  0.048676305            8 
 4759000   0.49455896   -3.2059562    2874.7667  0.050339124  0.048665447            9 
 4760000     0.487047   -3.1907624    2878.2717  0.050389911  0.048654594           11 
 4761000   0.48590655   -3.1751582    2875.8288  0.050336567  0.048643841           25 
 4762000   0.49254988   -3.1881896    2877.8239  0.050360912  0.048633046           13 
 4763000   0.49337024   -3.2060698    2871.5682  0.050240889  0.048622219           10 
 4764000     0.484547   -3.1747355    2879.5321  0.050369648  0.048611402           10 
 4765000   0.49448658   -3.1914987    2877.6791  0.050326672  0.048600567           21 
 4766000   0.49616075   -3.1843688    2880.1395  0.050359133   0.04858978           11 
 4767000   0.49257568   -3.2104776      2873.65  0.050235123  0.048578943           12 
 4768000   0.47583039   -3.1902521    2876.5782  0.050275766  0.048568075           14 
 4769000   0.49665555   -3.2016069    2882.6186  0.050370772  0.048557281           15 
 4770000   0.49108481   -3.1833029    2884.2031  0.050387895  0.048546534           13 
 4771000   0.47636075   -3.1969024    2873.9202  0.050197726  0.048535726           29 
 4772000   0.48766144   -3.1844945    2875.5047  0.050214877   0.04852492            7 
 4773000   0.48068145   -3.1968743    2880.9483  0.050299397  0.048514126           15 
 4774000    0.4853672    -3.183537    2874.7329  0.050180367  0.048503355           14 
 4775000   0.49115483    -3.199167    2873.5285  0.050148839  0.048492577           26 
 4776000   0.49304343   -3.1942551    2879.6068  0.050244396   0.04848177           12 
 4777000   0.48626011   -3.1741451    2877.6625   0.05019996  0.048470987           15 
 4778000   0.48383774   -3.1766001    2871.4254  0.050080672  0.048460224           21 
 4779000   0.47464086   -3.1799964    2874.0365  0.050115723   0.04844944           13 
 4780000   0.48507297   -3.1921112    2868.6186  0.050010785  0.048438587           24 
 4781000    0.4889289   -3.1966218    2868.3338   0.04999536  0.048427754           24 
 4782000   0.48243544    -3.188954    2882.6112   0.05023371  0.048416968           18 
 4783000   0.48261025   -3.1893938    2875.8671  0.050105706   0.04840615           12 
 4784000   0.48354784   -3.1985954    2879.7406  0.050162705  0.048395305           34 
 4785000   0.49323557    -3.193563    2877.5738  0.050114486  0.048384509            6 
 4786000   0.48194829   -3.1861468    2883.1039  0.050200305  0.048373707           19 
 4787000   0.47938059   -3.1735538    2882.6916  0.050182641  0.048362941           12 
 4788000   0.48514213   -3.1870966     2877.758  0.050086291  0.048352164           45 
 4789000    0.4749818   -3.1940593    2876.5217   0.05005432  0.048341319           26 
 4790000   0.48707497   -3.2144221    2873.6119  0.049993249  0.048330494           13 
 4791000   0.48410677   -3.1927737    2883.1042  0.050147919  0.048319697            7 
 4792000   0.48014452   -3.1924599    2876.6145  0.050024599  0.048308937           22 
 4793000   0.47607058   -3.1946643    2876.5227  0.050012565    0.0482982           15 
 4794000   0.48304032   -3.2093804    2881.9402  0.050096304  0.048287429           16 
 4795000   0.48713395   -3.2089593     2876.633  0.049993621   0.04827661            8 
 4796000   0.48126144   -3.1923977     2874.272  0.049942175  0.048265783           11 
 4797000   0.48404008   -3.1912591    2878.2807  0.050001402  0.048254992           19 
 4798000   0.49053381   -3.1969045    2878.8195  0.050000338  0.048244204           25 
 4799000   0.49223764    -3.209956    2877.1743  0.049961352  0.048233346           28 
 4800000   0.48351818   -3.1796654    2875.1846  0.049916399   0.04822253           18 
 4801000   0.47338862   -3.2104168    2871.4944  0.049841949  0.048211723           20 
 4802000   0.47771959   -3.1939305    2877.6798   0.04993891  0.048200937           11 
 4803000   0.49142664   -3.1932679    2867.9363   0.04975946  0.048190158           12 
 4804000   0.47506597   -3.1989028    2875.9461  0.049888046  0.048179374            9 
 4805000   0.48489066   -3.2089927    2875.8374  0.049875779   0.04816857           31 
 4806000   0.47994613   -3.2129781         2873  0.049816201  0.048157745           21 
 4807000   0.48094777   -3.1937656    2871.5354  0.049780448  0.048146959           10 
 4808000   0.48524772   -3.1877027    2874.5047  0.049821559  0.048136158           16 
 4809000   0.48328734   -3.1922383    2873.6029  0.049795572  0.048125359           22 
 4810000   0.47188284   -3.2128315    2866.9859   0.04967058  0.048114568           18 
 4811000    0.4844178   -3.2041726    2872.6525  0.049758409  0.048103744           11 
 4812000   0.47944785   -3.2015338    2873.7302  0.049766733  0.048092944           23 
 4813000   0.47647059   -3.1996747    2875.6771  0.049790102   0.04808217            6 
 4814000   0.47020822   -3.2097389    2880.3507  0.049860661  0.048071454           16 
 4815000   0.47835135   -3.1925411    2873.9614  0.049739727  0.048060702           30 
 4816000   0.48524301   -3.2063413    2880.1367  0.049836253   0.04804998           15 
 4817000   0.46939086   -3.2144266    2873.0097   0.04970261  0.048039215           23 
 4818000   0.47703933   -3.1898309    2874.7319  0.049722083  0.048028444            8 
 4819000   0.47682601   -3.2044418    2869.7801  0.049626134    0.0480177           19 
 4820000   0.48433271   -3.1903635    2871.7704   0.04965025  0.048006898           18 
 4821000   0.48089889   -3.2055556    2874.8821  0.049693737  0.047996159           18 
 4822000   0.48525243   -3.2139002    2867.7329  0.049559881   0.04798538           32 
 4823000   0.46573168   -3.2143185    2876.5516  0.049701976  0.047974585           22 
 4824000   0.48612336   -3.2087763    2878.5209  0.049725692  0.047963805           16 
 4825000   0.48260882   -3.2105443     2873.604  0.049630467   0.04795307           16 
 4826000   0.48392239   -3.2178804    2874.5689  0.049636844   0.04794232           42 
 4827000   0.47851651   -3.2091521    2882.6186  0.049765531  0.047931598           21 
 4828000   0.47161503   -3.2097979    2879.2856  0.049697695   0.04792088           18 
 4829000   0.48195695   -3.1967582    2878.0782  0.049666567  0.047910148           25 
 4830000   0.49162871   -3.2227473    2873.6486  0.049579858  0.047899378           40 
 4831000   0.46942745   -3.2187912    2870.7353  0.049519342  0.047888588           12 
 4832000    0.4861341   -3.2080283    2872.5334  0.049540104  0.047877824           23 
 4833000   0.47735328   -3.2207395    2870.7735  0.049499509   0.04786707           17 
 4834000   0.48301656   -3.2068079    2874.7476  0.049557779  0.047856274           20 
 4835000   0.47163861   -3.2156193    2880.6816  0.049649803  0.047845505           23 
 4836000    0.4700681   -3.2242921    2879.4969  0.049619122  0.047834739           24 
 4837000   0.47370235   -3.2020754    2874.6765  0.049525817  0.047823967           15 
 4838000   0.48072381   -3.2071826    2872.9833  0.049486414  0.047813211           16 
 4839000   0.49051777   -3.2095982    2867.0107  0.049373333  0.047802458           11 
 4840000   0.46176182   -3.2059474     2878.663  0.049563757  0.047791739            8 
 4841000   0.46874418   -3.2180331    2876.0285  0.049508168  0.047781017           14 
 4842000    0.4797939   -3.2072546    2876.6182  0.049508092  0.047770279           20 
 4843000   0.48421521   -3.2151452    2878.8409  0.049536116  0.047759584           15 
 4844000   0.48055092   -3.2259007    2881.0564  0.049564003  0.047748843            5 
 4845000   0.47923743   -3.2204132    2876.3019  0.049471996  0.047738103           11 
 4846000   0.47254907   -3.2178794    2874.4939  0.049430698  0.047727326            9 
 4847000   0.47780265    -3.228966    2868.3773  0.049315337  0.047716558           16 
 4848000   0.47184031   -3.2149959    2883.6626  0.049567908    0.0477058           10 
 4849000   0.47629748   -3.2100873    2882.3431  0.049535009  0.047695075           21 
 4850000    0.4646653   -3.2114508    2875.0667  0.049399771  0.047684367           11 
 4851000   0.48450494   -3.2104288    2878.9119  0.049455643   0.04767367           41 
 4852000    0.4734187   -3.2041121    2869.5655  0.049284925  0.047662933           11 
 4853000   0.48020485   -3.1983822    2879.3705  0.049443136  0.047652245           28 
 4854000   0.46773442   -3.2162078    2869.1555   0.04925758  0.047641544           20 
 4855000   0.47938549   -3.2229011    2876.7828  0.049378352  0.047630824           11 
 4856000   0.46477151   -3.2034695    2880.2227  0.049427216   0.04762012           15 
 4857000    0.4799569   -3.2061487    2887.6634  0.049544702  0.047609403           10 
 4858000     0.475469   -3.2032404    2885.9358  0.049504868  0.047598752            7 
 4859000   0.46877829   -3.2094303    2882.1656   0.04943002  0.047588117           24 
 4860000   0.47955363   -3.2254032    2884.1456  0.049453799  0.047577395           20 
 4861000    0.4846193   -3.2060208     2878.027  0.049338734  0.047566673           29 
 4862000   0.47208116   -3.2186322    2875.1716  0.049279645  0.047555981           24 
 4863000   0.46369236   -3.2133285    2870.9414  0.049197022  0.047545199           19 
 4864000   0.47325336   -3.2128049    2870.3343  0.049176506   0.04753443           16 
 4865000   0.48354504   -3.2136513    2868.4082  0.049133405  0.047523717           13 
 4866000   0.47415282   -3.2116468    2878.2182  0.049291311  0.047512941           25 
 4867000   0.47744382   -3.2287208    2876.0225  0.049243588  0.047502212           17 
 4868000   0.47276759   -3.2200236    2880.3665  0.049307835  0.047491437           17 
 4869000   0.46820375   -3.2151744    2880.8942   0.04930674  0.047480705           20 
 4870000   0.48018947   -3.2073115    2881.5152  0.049307241  0.047469992           22 
 4871000   0.46461142   -3.2268157    2878.4041  0.049243895  0.047459255           22 
 4872000   0.47698022   -3.2313559    2873.6341  0.049152199  0.047448488           45 
 4873000   0.47431282   -3.2127336    2869.9906  0.049079804  0.047437743           25 
 4874000   0.47476093   -3.2245886    2873.6037  0.049131509  0.047426975           34 
 4875000   0.47424739   -3.2170216    2881.5552  0.049257354  0.047416257           21 
 4876000   0.47053401   -3.2138737     2879.629  0.049214332  0.047405536           46 
 4877000   0.46754368   -3.2349416    2869.3829  0.049029166  0.047394792           20 
 4878000   0.47629309   -3.2304369    2879.2338  0.049187403   0.04738401           44 
 4879000   0.46958063   -3.2226485    2875.2843  0.049109864  0.047373294           24 
 4880000   0.47248137   -3.2275525    2878.8809  0.049161218  0.047362563           19 
 4881000   0.46943324   -3.2136502    2875.1668  0.049087735  0.047351846            9 
 4882000   0.47288186   -3.2193999    2880.9012  0.049175563  0.047341193           12 
 4883000   0.47759116   -3.2326941    2877.7974  0.049112523  0.047330517           21 
 4884000   0.47110016   -3.2217098    2874.5241  0.049046616   0.04731984            9 
 4885000   0.46648195    -3.229692    2874.8136  0.049041514  0.047309132            9 
 4886000   0.46563057   -3.2201697    2876.2013  0.049055146   0.04729846           18 
 4887000   0.48036724   -3.2158288     2873.879  0.049005508  0.047287812           12 
 4888000   0.47741903   -3.2137101    2881.4494  0.049124547  0.047277176           15 
 4889000   0.47615152   -3.2303008    2877.0189   0.04903898  0.047266438           87 
 4890000   0.47456959    -3.239717    2873.9613  0.048976846  0.047255697           27 
 4891000   0.47263324   -3.2398917     2873.582   0.04896037  0.047244963           10 
 4892000   0.47989657   -3.2319445    2869.8468  0.048886734  0.047234237           27 
 4893000   0.47040124   -3.2326413     2870.211  0.048882945  0.047223477           24 
 4894000   0.47004828    -3.239829    2867.1406  0.048820676  0.047212738           37 
 4895000   0.47083138   -3.2230348    2882.9297  0.049079497  0.047202049           43 
 4896000   0.47757486   -3.2150622    2877.6229  0.048979148  0.047191343           28 
 4897000   0.46332787   -3.2257448    2879.4469  0.049000185  0.047180648           49 
 4898000   0.46960479   -3.2235578    2875.9308  0.048930359  0.047169962           21 
 4899000    0.4654265   -3.2158237    2878.3842  0.048962104  0.047159301           16 
 4900000   0.46478402   -3.2309962    2875.0087  0.048894705  0.047148629           18 
 4901000   0.47064582   -3.2305907    2879.6328  0.048963354  0.047137922           25 
 4902000   0.47288421   -3.2413236    2876.5382  0.048900759  0.047127204           29 
 4903000   0.45455395   -3.2348267    2876.6861  0.048893298  0.047116486           25 
 4904000   0.47764455   -3.2282188    2884.2448  0.049011773  0.047105809           20 
 4905000   0.46517718   -3.2394312    2874.4575  0.048835499  0.047095173           64 
 4906000    0.4696085   -3.2268973    2881.4783    0.0489448    0.0470845           57 
 4907000   0.46813089   -3.2256099    2873.8234  0.048804827   0.04707385           50 
 4908000   0.46565932   -3.2340613    2878.7901  0.048879212  0.047063187           54 
 4909000   0.47737539   -3.2398578    2879.0149  0.048873072  0.047052496           57 
 4910000   0.46621251   -3.2360789    2875.8958   0.04881018  0.047041806           47 
 4911000   0.46705782   -3.2302915    2873.2427  0.048755221  0.047031147           29 
 4912000   0.47631531    -3.221431    2878.3029  0.048831144  0.047020499           24 
 4913000   0.46712951   -3.2193901    2876.1772  0.048785148  0.047009883           25 
 4914000   0.46263196   -3.2293195    2874.1636  0.048741073   0.04699923           28 
 4915000   0.47364907   -3.2133746    2874.5748  0.048738129  0.046988579           14 
 4916000   0.46783145   -3.2389457    2874.0645  0.048719564  0.046977925           14 
 4917000   0.46776613   -3.2292621    2875.5571  0.048734952  0.046967271           14 
 4918000   0.47658949   -3.2344073    2873.1347  0.048683995  0.046956612           11 
 4919000   0.45579857   -3.2321491     2877.312  0.048744866  0.046945949           24 
 4920000   0.47185475   -3.2384111    2877.1479   0.04873218  0.046935307           16 
 4921000   0.45627015   -3.2295595    2877.4778  0.048727864  0.046924673           19 
 4922000   0.46178399    -3.232839    2876.9082   0.04870832  0.046914046           25 
 4923000   0.45410435     -3.23587    2873.2788   0.04863699  0.046903381           18 
 4924000    0.4680168   -3.2294514    2873.0263   0.04862284  0.046892725           14 
 4925000   0.46117084   -3.2258064    2884.1974  0.048801987   0.04688211           15 
 4926000   0.45968662   -3.2340288    2881.1091  0.048739835   0.04687146           33 
 4927000   0.45691885   -3.2410664    2881.0557  0.048729038   0.04686085           27 
 4928000   0.46310749   -3.2369159    2877.1587  0.048653251  0.046850187           11 
 4929000   0.45962565   -3.2294278     2876.544  0.048632988  0.046839529           12 
 4930000   0.46207046   -3.2413175    2872.2238  0.048550098  0.046828836           16 
 4931000    0.4723244    -3.226627     2868.955  0.048485011  0.046818207           25 
 4932000   0.47140321   -3.2427619    2874.3397  0.048566162  0.046807585           11 
 4933000   0.46323595   -3.2467613    2870.5921  0.048493008  0.046796949           17 
 4934000   0.47080774   -3.2506411    2876.1465  0.048576991  0.046786268           10 
 4935000   0.46579219   -3.2261183    2876.8436   0.04857892  0.046775616           10 
 4936000   0.46417918   -3.2419828    2878.0439  0.048589341  0.046764969           17 
 4937000   0.45819064   -3.2383378    2876.4814  0.048553126  0.046754333           40 
 4938000   0.46809827   -3.2412126    2875.4127  0.048525258  0.046743686           21 
 4939000   0.45239036   -3.2408095    2881.9114  0.048625082  0.046733071           31 
 4940000   0.46118967    -3.245765    2876.3798  0.048521927  0.046722476           11 
 4941000   0.45195685   -3.2310209    2878.1098  0.048541284  0.046711824           45 
 4942000   0.47639976   -3.2499092    2876.4134  0.048502856   0.04670119           27 
 4943000   0.46721594   -3.2503923    2877.3305  0.048508505  0.046690578           21 
 4944000   0.46169651   -3.2379214     2872.798  0.048422297   0.04667994           34 
 4945000   0.46126545   -3.2278659     2882.753  0.048580267  0.046669327           33 
 4946000   0.45522109   -3.2575088    2872.0076  0.048389399  0.046658679           28 
 4947000   0.46419965   -3.2437238    2872.3085  0.048384686  0.046648021           31 
 4948000   0.45865327   -3.2550253    2877.6322  0.048464567  0.046637362           31 
 4949000    0.4644102   -3.2221781    2881.4005  0.048518228  0.046626726           47 
 4950000   0.45766899   -3.2406056    2876.3332  0.048423118  0.046616116           32 
 4951000   0.46323888   -3.2586697    2875.2907  0.048395791  0.046605469           20 
 4952000   0.45939517   -3.2400108    2870.8414  0.048311144  0.046594809           29 
 4953000    0.4569385   -3.2458281    2873.7275  0.048349948  0.046584113           24 
 4954000   0.45431205   -3.2357575     2869.506  0.048269176  0.046573453           19 
 4955000   0.44913105    -3.249131    2869.0344  0.048251503  0.046562826           46 
 4956000   0.46318168   -3.2302956    2871.9144  0.048290194  0.046552177           11 
 4957000   0.45435166   -3.2505587     2873.501  0.048307125  0.046541541           11 
 4958000   0.45154903   -3.2495249    2869.9423  0.048237567  0.046530905           31 
 4959000   0.45491163   -3.2497982    2881.0553  0.048414588  0.046520243           35 
 4960000   0.45510289   -3.2390728    2868.7629  0.048198302  0.046509595           38 
 4961000    0.4605696   -3.2549429    2877.7183  0.048339016  0.046498955           45 
 4962000   0.46817622   -3.2575819    2872.5238  0.048242036  0.046488312           20 
 4963000   0.46862653   -3.2546786    2879.5864  0.048350904  0.046477686           37 
 4964000   0.45883391   -3.2418385    2875.2351  0.048268116  0.046467064           13 
 4965000    0.4563928   -3.2526623    2870.2387  0.048174533  0.046456417           18 
 4966000   0.46062326   -3.2373717    2876.7852  0.048274687  0.046445757           34 
 4967000   0.47267455   -3.2384004    2875.7628  0.048247816   0.04643519           19 
 4968000    0.4576873   -3.2575689    2868.1285  0.048110047  0.046424575           46 
 4969000   0.45374257   -3.2367409      2872.52  0.048174013  0.046413924           66 
 4970000    0.4604205    -3.239823    2867.3208  0.048077143  0.046403237           40 
 4971000   0.44629268   -3.2469752    2864.4134  0.048018732  0.046392547          209 
 4972000   0.45218296   -3.2609806    2873.4947  0.048161282  0.046381874           59 
 4973000   0.45115005   -3.2636047    2875.9413  0.048192595  0.046371204           33 
 4974000   0.45829637   -3.2617088    2871.9048   0.04811528  0.046360499           29 
 4975000   0.46360931   -3.2362345    2865.9587  0.048006008  0.046349837           56 
 4976000   0.46128775   -3.2480647     2872.735  0.048109844  0.046339147           29 
 4977000   0.45675489   -3.2675638     2874.249  0.048125528  0.046328465           13 
 4978000   0.45619113   -3.2543103    2871.8458   0.04807563  0.046317839           13 
 4979000   0.46324814   -3.2636976    2865.9646   0.04796754  0.046307198           19 
 4980000   0.45614684   -3.2449659    2871.4986  0.048050512  0.046296516           21 
 4981000   0.46003297   -3.2616987     2863.444   0.04790611   0.04628589           48 
 4982000    0.4500836   -3.2452399    2875.3232  0.048095195  0.046275242           32 
 4983000   0.44689897   -3.2467594    2871.9442  0.048029036  0.046264632           19 
 4984000   0.44999628   -3.2461025    2872.8651  0.048034796  0.046254014           26 
 4985000   0.45183868   -3.2574386    2873.3613  0.048033455  0.046243392           23 
 4986000   0.45690621    -3.245031    2875.3177   0.04805652  0.046232802           28 
 4987000   0.45576645    -3.267534    2879.8374  0.048122408  0.046222246           46 
 4988000   0.45054002   -3.2523356    2868.4647  0.047922759  0.046211586           69 
 4989000   0.45164838   -3.2469613     2867.044  0.047889423  0.046200964           15 
 4990000   0.45255682   -3.2671553    2869.4829  0.047920556  0.046190335           27 
 4991000   0.45887917   -3.2452447    2866.8167  0.047866438  0.046179722           83 
 4992000   0.45918953   -3.2496367    2876.4796  0.048018156  0.046169141           42 
 4993000   0.45044573   -3.2680744    2874.4226  0.047974208  0.046158579           13 
 4994000    0.4554126   -3.2469385    2874.5531  0.047966779  0.046148007           44 
 4995000   0.46216798    -3.260739    2874.6944  0.047959533  0.046137384           20 
 4996000   0.45805749   -3.2447844    2870.3819     0.047878  0.046126781           24 
 4997000   0.45204812   -3.2484152    2873.4598  0.047919749  0.046116227           21 
 4998000   0.44572845   -3.2496089    2872.3461  0.047891591  0.046105651           24 
 4999000   0.44684629   -3.2591732    2869.1522  0.047828769  0.046095019           15 
 5000000   0.44500272   -3.2460855    2875.4731  0.047924551  0.046084465           26 
 5001000    0.4463533   -3.2529864    2874.7833  0.047903474  0.046073911           19 
 5002000   0.45270798   -3.2443728    2870.8023  0.047827574  0.046063308           20 
 5003000   0.44216778   -3.2658317    2875.3333  0.047893485  0.046052714           25 
 5004000   0.45878301   -3.2484233    2869.9764  0.047794704  0.046042102           17 
 5005000   0.45057824   -3.2520299    2871.1429  0.047804577  0.046031498           35 
 5006000   0.44193479    -3.242624    2878.9904  0.047925663  0.046020926           34 
 5007000   0.44394042   -3.2558168    2875.2225   0.04785338   0.04601036           20 
 5008000   0.45182601   -3.2668759    2876.8936  0.047871632  0.045999838           15 
 5009000   0.44502008   -3.2429099    2876.1759  0.047850134  0.045989279           17 
 5010000   0.44425381   -3.2534355    2873.4863  0.047795847  0.045978758           12 
 5011000   0.44936762   -3.2518951    2869.3959  0.047718284  0.045968195           12 
 5012000   0.45165096   -3.2519658    2872.8016  0.047765389  0.045957646           23 
Loop time of 11948.5 on 48 procs for 5000000 steps with 4000 atoms

Performance: 72310.367 tau/day, 418.463 timesteps/s
99.4% CPU use with 48 MPI tasks x no OpenMP threads

MPI task timing breakdown:
Section |  min time  |  avg time  |  max time  |%varavg| %total
---------------------------------------------------------------
Pair    | 791.02     | 843.19     | 896.78     |  95.9 |  7.06
Neigh   | 80.487     | 83.573     | 86.373     |  16.9 |  0.70
Comm    | 757.56     | 813.58     | 872.1      | 101.6 |  6.81
Output  | 13.772     | 13.776     | 13.858     |   0.3 |  0.12
Modify  | 10075      | 10093      | 10106      |   7.3 | 84.47
Other   |            | 101.5      |            |       |  0.85

Nlocal:        83.3333 ave          90 max          80 min
Histogram: 7 7 7 7 5 5 5 1 1 3
Nghost:        2156.96 ave        2174 max        2134 min
Histogram: 2 2 4 6 4 6 5 7 5 7
Neighs:        14225.0 ave       15828 max       13084 min
Histogram: 3 4 6 12 7 5 7 2 1 1
FullNghs:      28450.3 ave       30736 max       27124 min
Histogram: 7 8 7 6 5 7 3 1 1 3

Total # of neighbors = 1365613
Ave neighs/atom = 341.40325
Neighbor list builds = 271742
Dangerous builds = 3

#clear
#
#next RN
#
#jump SELF
Total wall time: 3:19:11
