
units lj                  # Use reduced LJ style units
atom_style atomic         # Uncharged point particles
atom_modify map hash      # Needed for indexing of clusters etc
                          # Used to be able to find where atoms are in relation to each other.

lattice fcc 1.0 spacing 1 1 1
Lattice spacing in x,y,z = 1.5874011 1.5874011 1.5874011
region box block 0 10 0 10 0 10 units lattice
create_box 2 box
Created orthogonal box = (0.0000000 0.0000000 0.0000000) to (15.874011 15.874011 15.874011)
  3 by 4 by 4 MPI processor grid
create_atoms 1 box
Created 4000 atoms
  using lattice units in orthogonal box = (0.0000000 0.0000000 0.0000000) to (15.874011 15.874011 15.874011)
  create_atoms CPU = 0.003 seconds
set type 1 type/fraction 2 0.2 78393
Setting atom values ...
  836 settings made for type/fraction
mass 1 1.0
mass 2 1.0
pair_style lj/cut  3.5
pair_modify tail  yes
pair_coeff 1  1  1.0  1.0   # Intearaction between 1 and 1 set with epsilon = 1 and sigma = 1
pair_coeff 1  2  1.5  0.8
pair_coeff 2  2  0.5  0.88

write_data data.0
System init for write_data ...
Neighbor list info ...
  update every 1 steps, delay 10 steps, check yes
  max neighbors/atom: 2000, page size: 100000
  master list distance cutoff = 3.8
  ghost atom cutoff = 3.8
  binsize = 1.9, bins = 9 9 9
  1 neighbor lists, perpetual/occasional/extra = 1 0 0
  (1) pair lj/cut, perpetual
      attributes: half, newton on
      pair build: half/bin/atomonly/newton
      stencil: half/bin/3d
      bin: standard
WARNING: Not all mixed pair coeffs generated from mixing. Use write_data with 'pair ij' option to store all pair coeffs. (../write_data.cpp:312)


#############################
#   M E L T   S Y S T E M   #
#############################

velocity all create 2.4 2750902 mom yes dist gaussian # Assign velocities
                                                    # Temperature 2.4, random number seed, zero linear momentum
                                                                                # Gaussian distribution

timestep 0.002   # simulation timestep
thermo 1000       # output thermodynamic data every 1000 steps bf 100

# Define a fix  in this case with index 1 applied to all
# particles in the simulation. This fix is for simulations
# in the anisotropic NPT ensemble. Note that we use the MTK
# correction.
fix 1 all npt temp 2.4 2.4 0.1 iso 5.68 5.68 0.5 mtk yes tchain 5 pchain 5 # Use NPT ensemble
                                                                         # Set temperature and pressure and damping
                                                                         # Numbers of thermostats in chain and in barostat
run 10000          # run for 10000 steps
Per MPI rank memory allocation (min/avg/max) = 3.642 | 3.644 | 3.648 Mbytes
Step Temp E_pair E_mol TotEng Press Volume 
       0          2.4   -7.0365901            0   -3.4374901   -3.6176696         4000 
    1000     2.404635   -4.8509757            0   -1.2449249    5.4790135    4491.0855 
    2000    2.4515124   -4.7797325            0   -1.1033832    5.6952296    4504.7941 
    3000    2.3952847    -4.851834            0   -1.2598053    6.1918605     4405.066 
    4000    2.3950079   -4.7761101            0   -1.1844964    5.8623906    4475.8354 
    5000    2.3998132     -4.82601            0   -1.2271902    5.5928888    4484.2747 
    6000    2.4328493   -4.9086585            0   -1.2602969     5.580245    4444.8184 
    7000    2.3822527   -4.8043097            0    -1.231824     5.857468    4463.0736 
    8000    2.3587946   -4.7586823            0    -1.221375    5.8827042     4484.409 
    9000    2.3714446   -4.8022159            0   -1.2459383    5.9153496    4461.0193 
   10000    2.3826445   -4.7971107            0   -1.2240375    5.9062861    4468.0202 
Loop time of 2.31857 on 48 procs for 10000 steps with 4000 atoms

Performance: 745287.078 tau/day, 4313.004 timesteps/s
99.6% CPU use with 48 MPI tasks x no OpenMP threads

MPI task timing breakdown:
Section |  min time  |  avg time  |  max time  |%varavg| %total
---------------------------------------------------------------
Pair    | 0.95887    | 1.0364     | 1.1478     |   3.7 | 44.70
Neigh   | 0.19624    | 0.20565    | 0.22307    |   1.2 |  8.87
Comm    | 0.67997    | 0.80774    | 0.89214    |   4.4 | 34.84
Output  | 0.00024418 | 0.00024946 | 0.000308   |   0.0 |  0.01
Modify  | 0.23568    | 0.25416    | 0.28175    |   2.7 | 10.96
Other   |            | 0.01438    |            |       |  0.62

Nlocal:        83.3333 ave          94 max          77 min
Histogram: 3 12 10 3 7 5 2 2 3 1
Nghost:        1517.08 ave        1539 max        1493 min
Histogram: 2 5 1 6 9 8 5 4 5 3
Neighs:        8536.06 ave        9976 max        7764 min
Histogram: 8 9 8 4 7 5 2 2 0 3

Total # of neighbors = 409731
Ave neighs/atom = 102.43275
Neighbor list builds = 912
Dangerous builds = 229

# Equilibrate just above the melting temperature to avoid step fn in T

fix 1 all npt temp 1.25 1.25 0.1 iso 5.68 5.68 0.5 mtk yes tchain 5 pchain 5
run 2000
Per MPI rank memory allocation (min/avg/max) = 3.642 | 3.645 | 3.649 Mbytes
Step Temp E_pair E_mol TotEng Press Volume 
   10000    2.3826445   -4.7971107            0   -1.2240375    5.9062861    4468.0202 
   11000    1.2384849   -6.5394851            0   -4.6822221    5.7437264    3644.5352 
   12000    1.3011108   -6.5447003            0    -4.593522       5.7921    3642.2475 
Loop time of 0.49197 on 48 procs for 2000 steps with 4000 atoms

Performance: 702482.564 tau/day, 4065.293 timesteps/s
99.6% CPU use with 48 MPI tasks x no OpenMP threads

MPI task timing breakdown:
Section |  min time  |  avg time  |  max time  |%varavg| %total
---------------------------------------------------------------
Pair    | 0.22242    | 0.24255    | 0.26923    |   2.1 | 49.30
Neigh   | 0.031883   | 0.033979   | 0.0364     |   0.5 |  6.91
Comm    | 0.13923    | 0.16647    | 0.18855    |   2.5 | 33.84
Output  | 5.3148e-05 | 5.4974e-05 | 6.8612e-05 |   0.0 |  0.01
Modify  | 0.039041   | 0.044537   | 0.052109   |   1.6 |  9.05
Other   |            | 0.004375   |            |       |  0.89

Nlocal:        83.3333 ave          90 max          75 min
Histogram: 2 2 3 4 7 6 11 2 6 5
Nghost:        1746.27 ave        1767 max        1724 min
Histogram: 2 3 5 6 5 8 9 4 5 1
Neighs:        10495.9 ave       11861 max        9217 min
Histogram: 2 4 3 8 10 6 8 5 0 2

Total # of neighbors = 503801
Ave neighs/atom = 125.95025
Neighbor list builds = 142
Dangerous builds = 14

#############################
# L I N E A R  Q U E N C H  #
#############################

# Define solid atoms. This closely follows ten Wolde  Ruiz-Montero and Frenkel  Faraday Discuss  1996  104  93-110
# Compute components of the per-atom q6 vector
compute q6 all orientorder/atom degrees 1 6 components 6 nnn NULL cutoff 1.3 # compute the Q6 parameter.
                                                                             # Use all neighbours within 1.3 unit cell.

# get number of connections
compute coord_number all coord/atom orientorder q6 0.5

# An atom is solid if it has 8 or more connections (of a possible 14)
variable is_solid atom c_coord_number>=8
group solid dynamic all var is_solid    # Must be dynamic to update
dynamic group solid defined

# do clustering
compute cluster solid cluster/atom 1.3 # Create a cluster where all atoms within are solid and max 1.3 units from another member

# define chunks one chunk per cluster
compute clus_chunks solid chunk/atom c_cluster nchunk every compress yes  # Says which atoms are in which chunk

# count the size of each chunk
compute size_chunks solid property/chunk clus_chunks count


# Find the maximum entry in the vector of chunk sizes
variable max_n equal max(c_size_chunks)


# Thermo style which includes this variable
# thermo_style custom step temp pe vol v_max_n

thermo ${N}  # Print the thermo information every 100 steps
thermo 1000  

# Reset the npt fix at a lower temperature (below freezing)
fix 1  all npt temp  ${temp} ${temp}  0.1  iso  5.68  5.68  0.5  mtk yes tchain  5  pchain  5
fix 1  all npt temp  0.45 ${temp}  0.1  iso  5.68  5.68  0.5  mtk yes tchain  5  pchain  5
fix 1  all npt temp  0.45 0.45  0.1  iso  5.68  5.68  0.5  mtk yes tchain  5  pchain  5

dump dmp2 all dcd ${N} traj.dcd
dump dmp2 all dcd 1000 traj.dcd


compute msd all msd com yes
variable twopoint equal c_msd[4]/6/(step*dt+1.0e-6)
fix 9 all vector 10 c_msd[4]
variable fit equal slope(f_9)/6/(10*dt)
thermo_style custom step temp pe c_msd[4] v_twopoint v_fit v_max_n

fix 1 all npt temp 1.25 ${temp} 0.1 iso 5.68 5.68 0.5 mtk yes tchain 5 pchain 5
fix 1 all npt temp 1.25 0.45 0.1 iso 5.68 5.68 0.5 mtk yes tchain 5 pchain 5
run 500000 # 5000000  # Run for this many steps
Neighbor list info ...
  update every 1 steps, delay 10 steps, check yes
  max neighbors/atom: 2000, page size: 100000
  master list distance cutoff = 3.8
  ghost atom cutoff = 3.8
  binsize = 1.9, bins = 9 9 9
  4 neighbor lists, perpetual/occasional/extra = 1 3 0
  (1) pair lj/cut, perpetual
      attributes: half, newton on
      pair build: half/bin/atomonly/newton
      stencil: half/bin/3d
      bin: standard
  (2) compute orientorder/atom, occasional
      attributes: full, newton on
      pair build: full/bin/atomonly
      stencil: full/bin/3d
      bin: standard
  (3) compute coord/atom, occasional
      attributes: full, newton on
      pair build: full/bin/atomonly
      stencil: full/bin/3d
      bin: standard
  (4) compute cluster/atom, occasional
      attributes: full, newton on
      pair build: full/bin/atomonly
      stencil: full/bin/3d
      bin: standard
Per MPI rank memory allocation (min/avg/max) = 9.774 | 9.779 | 9.783 Mbytes
Step Temp PotEng c_msd[4] v_twopoint v_fit v_max_n 
   12000    1.3011108   -6.5447003 1.841793e-30 1.2790229e-32 8.3333333e+20            1 
   13000    1.2525575   -6.6000541   0.53456082 0.0034266718  0.043961851            2 
   14000    1.2518415   -6.5713994    1.0089613 0.0060057217  0.041666203            1 
   15000    1.2498784    -6.616555    1.4939655 0.0082998081  0.040534114            2 
   16000    1.2262891   -6.5758506     1.997808   0.01040525  0.040484454            2 
   17000    1.2371058   -6.5824353    2.5492348  0.012496249  0.041181998            2 
   18000    1.2274929   -6.5903412    3.0364366  0.014057576  0.041807173            3 
   19000    1.2314721   -6.5598074    3.5378668  0.015516959  0.041744011            4 
   20000    1.2308732   -6.5603353    4.0610942  0.016921225  0.041756527            1 
   21000    1.2240472   -6.6202223    4.6004609  0.018255797  0.042111755            2 
   22000    1.2537201   -6.6003989    5.1392591   0.01946689  0.042433228            2 
   23000    1.2505489   -6.6422341    5.6212377  0.020366803  0.042557229            2 
   24000    1.2309919   -6.6229941    6.0698279  0.021075791  0.042518816            2 
   25000    1.2153561   -6.6119978    6.5815827  0.021938608  0.042408792            2 
   26000    1.2340975   -6.6128922    7.0110403  0.022471282  0.042318867            1 
   27000    1.2392385   -6.6356505    7.5045373  0.023162152  0.042047246            1 
   28000    1.2303959   -6.5846689    8.0942285  0.024089965  0.041998306            1 
   29000    1.2497587   -6.5673859    8.5147093  0.024467555  0.041883451            1 
   30000    1.1928524   -6.6316979    8.9764713  0.024934642  0.041737787            4 
   31000    1.2011282   -6.6173231    9.4292851   0.02534754  0.041624229            1 
   32000    1.1969444   -6.6461621    9.8926251  0.025762044  0.041454925            2 
   33000    1.2322692   -6.5982879    10.456313   0.02640483  0.041384591            3 
   34000    1.2219925   -6.6365892    10.841943  0.026573389  0.041271177            1 
   35000    1.1871799   -6.6365875    11.326483  0.026967817  0.041144743            2 
   36000     1.209598   -6.6167245    11.834324  0.027394267  0.041090342            1 
   37000    1.2129667   -6.6462203    12.321717  0.027751614   0.04101209            3 
   38000    1.2181131   -6.6458763    12.750248   0.02796107  0.040943673            2 
   39000    1.1816001   -6.6503854    13.284547  0.028385784  0.040869475            1 
   40000    1.1998457   -6.7022306    13.653629   0.02844506  0.040786868            1 
   41000    1.1806807   -6.6286514    14.204682  0.028871305  0.040700797            4 
   42000    1.1990868   -6.6599881    14.648329  0.029064144  0.040627985            2 
   43000    1.1876423   -6.7064866    15.060657  0.029187319  0.040538251            1 
   44000    1.2104466   -6.6060641    15.508977  0.029373062   0.04046242            3 
   45000     1.211439   -6.6430326    15.908359  0.029459924  0.040355733            1 
   46000    1.1956574    -6.693373    16.424021  0.029753661  0.040272192            1 
   47000    1.2123656   -6.6310632    16.934542  0.030025783  0.040195318            2 
   48000    1.2154501   -6.6692992    17.334688  0.030094944  0.040132128            1 
   49000    1.1787632   -6.6577443    17.932678  0.030497752  0.040078028            4 
   50000    1.1761657   -6.6388996     18.38592  0.030643199  0.040049208            2 
   51000    1.1831261   -6.6857646    18.976126  0.031006742  0.040022469            1 
   52000    1.1998023   -6.6620536     19.50341  0.031255465  0.040039208            1 
   53000    1.1693209      -6.7025    19.796636  0.031126785  0.040022427            1 
   54000    1.1579566   -6.6650338    20.357695  0.031416195    0.0399936            2 
   55000    1.1531784   -6.6455418    20.668557  0.031315995   0.03994614            1 
   56000    1.1732675   -6.7159524    20.993674  0.031240586  0.039871374            3 
   57000    1.1977297   -6.7022118    21.415483  0.031309185  0.039791251            1 
   58000    1.1677346   -6.7183627    21.899774  0.031465192  0.039721522            2 
   59000    1.1625838   -6.7312293    22.350974  0.031569172  0.039653217            3 
   60000    1.1800341   -6.7038101    22.954305  0.031880979  0.039595004            1 
   61000     1.194446   -6.7565348    23.470408  0.032063399  0.039557627            3 
   62000    1.1662397   -6.7142513    23.875668  0.032090951  0.039536282            5 
   63000    1.1650233   -6.7350659     24.37654    0.0322441  0.039510151            3 
   64000    1.1702487   -6.7220625    25.107706  0.032692326  0.039509355            3 
   65000    1.1448155   -6.7450842    25.488925  0.032678109  0.039529427            2 
   66000    1.1504751   -6.7071756    25.901143  0.032703463  0.039521316            2 
   67000    1.1471891   -6.7065808      26.1735  0.032554104  0.039478168            3 
   68000    1.1369075    -6.712444    26.403302  0.032356987  0.039420467            4 
   69000    1.1794288   -6.7516743    26.715094  0.032264606  0.039346548            1 
   70000    1.1791593    -6.719931    27.117009  0.032282153  0.039264071            2 
   71000    1.1394197   -6.7354695    27.486042  0.032260612  0.039178857            2 
   72000    1.1448821   -6.7260666    27.900748  0.032292532  0.039093217            3 
   73000    1.1489381   -6.7490985    28.231781   0.03222806  0.038997006            1 
   74000    1.1617702   -6.7380383    28.679395  0.032296615  0.038895307            2 
   75000    1.1302297   -6.7645515    29.052964  0.032281071  0.038799668            3 
   76000    1.1391296   -6.7795522    29.493494  0.032339357  0.038702709            2 
   77000    1.1481368   -6.7720452     29.92334  0.032384566  0.038616094            3 
   78000    1.1515916   -6.7662936     30.29113  0.032362318  0.038532285            2 
   79000    1.1501777   -6.7475755    30.515835    0.0321897  0.038435612            4 
   80000    1.1527802   -6.8136485    30.880976  0.032167683  0.038329241            1 
   81000    1.1474764   -6.7950166    31.473883  0.032380538  0.038232965            2 
   82000    1.1417724   -6.7718122    31.877659  0.032395995   0.03814896            2 
   83000    1.1470086   -6.8106718    32.353318  0.032483251  0.038067178            2 
   84000     1.156049   -6.8122396    32.771687  0.032511594  0.037990231            1 
   85000    1.1453146   -6.7999697    33.067497  0.032419114  0.037910211            4 
   86000    1.1197924   -6.7832031    33.185293  0.032156292  0.037822337            3 
   87000    1.1393503    -6.809913     33.44029  0.032030929  0.037716221            1 
   88000     1.117774   -6.8104705    33.635348  0.031851656  0.037590735            2 
   89000    1.1270622   -6.8212745    33.920867  0.031761111  0.037462368            2 
   90000    1.1090587     -6.80218    34.248637  0.031711701  0.037333592            2 
   91000    1.1315803   -6.8108119    34.613638  0.031697471   0.03720609            3 
   92000    1.1189303   -6.8351153    34.958947  0.031665713   0.03708113            3 
   93000    1.1018926    -6.826484    35.219961  0.031559105  0.036951671            2 
   94000    1.1017828   -6.8160502    35.479545  0.031453498  0.036817341            3 
   95000    1.1125492    -6.816512    35.908878  0.031499015  0.036690144            6 
   96000    1.0945933   -6.8332843    36.142262  0.031373491  0.036564909            2 
   97000    1.1281984   -6.8336464    36.633595   0.03147216   0.03644427            1 
   98000    1.0964662   -6.8230348    37.140925  0.031582419  0.036327301            2 
   99000    1.0917135   -6.8107285    37.381463  0.031465878  0.036221562            3 
  100000    1.1073865   -6.8134759    37.904551  0.031587125  0.036114712            2 
  101000    1.1231666   -6.8532797    38.198307  0.031516755  0.036009889            3 
  102000    1.1012012   -6.8931121    38.500153  0.031454374  0.035909726            1 
  103000    1.1111179   -6.8664499    39.027454   0.03157561  0.035811497            2 
  104000    1.1199629   -6.8900884     39.44249  0.031604559  0.035724224            3 
  105000     1.100491   -6.8192188    39.799201  0.031586667  0.035634711            2 
  106000    1.1067565   -6.8336983    40.074609  0.031505195  0.035544656            3 
  107000    1.1032578    -6.812108    40.425415  0.031483968  0.035453747            3 
  108000    1.0896421   -6.8782065    40.574492  0.031307478  0.035363226            3 
  109000    1.0957114   -6.8233498    40.990336  0.031338178  0.035271137            2 
  110000    1.0896931   -6.8791306    41.075362  0.031117698  0.035173608            3 
  111000    1.0983933   -6.8659759     41.39356  0.031076246   0.03507156            2 
  112000    1.0814953   -6.8908197    41.770485   0.03107923  0.034973507            4 
  113000    1.0613492   -6.8795983    42.169636  0.031098551  0.034880374            2 
  114000    1.0780459   -6.8926689    42.544256  0.031099602  0.034789786            4 
  115000    1.0929668   -6.8935246    42.697758  0.030940404  0.034695151            2 
  116000    1.0997754   -6.8691129    43.037699  0.030917887  0.034600362            2 
  117000    1.0846573   -6.9132652    43.281191  0.030827059  0.034501358            2 
  118000    1.0839109   -6.9023757    43.668581  0.030839393  0.034402779            2 
  119000    1.0783121   -6.9021618    43.805759  0.030676302  0.034304296            2 
  120000    1.0766687    -6.908405    43.942845  0.030515865  0.034204958            3 
  121000    1.0710697    -6.888541    44.425642  0.030596172  0.034106004            2 
  122000    1.0532125   -6.9108283    44.716517  0.030544069  0.034010521            2 
  123000     1.057836   -6.9271845     45.04857  0.030520711  0.033918453            3 
  124000    1.0623138   -6.9162794    45.279918  0.030430052  0.033824207            2 
  125000    1.0593328   -6.9235746    45.488442  0.030325628  0.033725401            2 
  126000    1.0652416   -6.9351886    45.621212  0.030172759   0.03362528            3 
  127000    1.0549362   -6.9509939    45.836167  0.030076225  0.033523598            2 
  128000    1.0548608   -6.9663305    46.092823  0.030008348  0.033420643            3 
  129000    1.0611208   -6.9374988    46.723964  0.030183439  0.033320776            3 
  130000    1.0758107   -6.9468204    46.739961  0.029961514   0.03322534            3 
  131000    1.0736638   -6.9258911    47.064151  0.029939027  0.033125312            3 
  132000    1.0501316   -6.9613518    47.137012  0.029758214  0.033024068            4 
  133000    1.0686471   -6.9543012    47.390875   0.02969353  0.032919807            3 
  134000    1.0590302   -6.9215105    47.721586  0.029677603  0.032817113            2 
  135000    1.0465447   -6.9487288    47.843647  0.029533115  0.032712654            2 
  136000    1.0507105   -6.9646948    48.151997    0.0295049  0.032608855            2 
  137000    1.0392317   -6.9677475    48.662789  0.029600237  0.032512933            2 
  138000     1.050696   -6.9402939    49.023465  0.029603542   0.03241753            2 
  139000    1.0453724   -6.9862499    49.291394  0.029551196  0.032323873            2 
  140000    1.0404451   -6.9335548    49.815309  0.029651969  0.032235547            5 
  141000    1.0423239   -6.9762664    49.894463  0.029488453  0.032149487            2 
  142000    1.0595126   -6.9366976    50.403714  0.029579644  0.032061195            3 
  143000     1.055544   -6.9462571    50.460845  0.029406087  0.031974868            4 
  144000    1.0408838   -6.9678335    50.749155  0.029368724   0.03188951            4 
  145000    1.0247921   -6.9717718    51.174419  0.029410586  0.031808211            1 
  146000    1.0454828    -7.014499     51.66186  0.029487363  0.031731125            2 
  147000    1.0510813   -7.0004218    51.820502  0.029376702  0.031657655            2 
  148000    1.0328012    -6.983769     52.06064  0.029313423  0.031582736            3 
  149000    1.0399279   -6.9883657    52.223226  0.029207621  0.031507926            3 
  150000    1.0292566   -6.9588655    52.847297   0.02935961  0.031435754            3 
  151000    1.0271115   -6.9882553    52.999106  0.029248955  0.031366023            7 
  152000    1.0372814   -6.9871598    53.202138  0.029167839  0.031293611            4 
  153000    1.0138764    -7.004954    53.650499  0.029221405  0.031223282            2 
  154000   0.98838309   -7.0079406    53.971622  0.029205423  0.031156197            2 
  155000    1.0354826   -7.0149879    54.172698  0.029125107  0.031088116            3 
  156000    1.0031143   -7.0217325     54.59683  0.029164973  0.031020649            2 
  157000    1.0109211    -7.024824    54.719044  0.029044078  0.030953569            3 
  158000    1.0252594   -7.0833094    54.759731  0.028881714  0.030884619            3 
  159000   0.99608331   -7.0674022    55.314088  0.028990612  0.030815569            1 
  160000    1.0151693   -7.0435977    55.338477  0.028822123  0.030747722            3 
  161000     1.012052   -7.0605727    55.529874  0.028742171  0.030679782            5 
  162000    1.0149799   -7.0565285    55.794595  0.028700923    0.0306135            2 
  163000    1.0067823   -7.0015245    56.383442  0.028825891  0.030544986            3 
  164000   0.97912075   -7.0269356    56.270562  0.028592765  0.030475935            4 
  165000   0.99102938    -7.055426    56.483003  0.028526769  0.030404338            5 
  166000    1.0143121   -7.0961859    56.753187  0.028490555  0.030334026            2 
  167000    1.0000253   -7.0721414     57.04881   0.02846747  0.030264674            3 
  168000    1.0236807   -7.0689433    57.493521  0.028518612  0.030196691            2 
  169000    1.0027869   -7.0727566    57.320634  0.028264613  0.030127723            1 
  170000    0.9970021   -7.0616835    57.721401  0.028294804  0.030057124            1 
  171000   0.99532089   -7.0407205    57.823756  0.028179218  0.029986971            3 
  172000   0.98479775   -7.0975234    58.214296  0.028204601  0.029916271            1 
  173000   0.99869812   -7.1192341    58.201063  0.028035194  0.029844347            2 
  174000   0.97814897   -7.0797775    58.361435  0.027950879  0.029771194            3 
  175000   0.96694129   -7.0692351    58.760098  0.027980999  0.029698614            2 
  176000   0.99921076   -7.0884505    59.029545  0.027949595  0.029627131            2 
  177000   0.99553293   -7.1085468    59.157708  0.027852028  0.029556547            3 
  178000   0.97803783   -7.0845265    59.472232  0.027842805  0.029486233            3 
  179000   0.98735863   -7.0914716    59.608705  0.027750794  0.029416833            2 
  180000   0.99860301   -7.1035164    59.797425  0.027683993  0.029347086            2 
  181000   0.98157295   -7.0970704    60.119742  0.027679439  0.029276395            2 
  182000   0.96494714    -7.095794    60.164378  0.027547792  0.029204077            4 
  183000   0.99996081   -7.1196674    60.557614  0.027576327  0.029132986            3 
  184000   0.98644699   -7.1364529    60.624179  0.027456603   0.02906265            3 
  185000   0.94693941   -7.1353748    60.993679   0.02747463  0.028991956            2 
  186000   0.95018314   -7.1117132    61.237905  0.027436337  0.028921387            2 
  187000   0.97482155    -7.110037    61.269284  0.027303602  0.028851064            4 
  188000   0.97658355   -7.1285355    61.612623   0.02731056  0.028780799            2 
  189000   0.92919946   -7.1085195    61.760793   0.02723139  0.028710355            2 
  190000   0.96902974     -7.13521    62.149557  0.027258578  0.028642211            2 
  191000   0.95427637   -7.1207749    62.342253  0.027199936  0.028572986            3 
  192000    0.9668843   -7.1000872    62.353358  0.027063089  0.028503847            2 
  193000   0.92733286   -7.1598438    62.427452  0.026954858  0.028434083            1 
  194000   0.94162552   -7.1330661    62.605026  0.026892193  0.028364454            2 
  195000   0.96753442   -7.1054686    63.208769  0.027012294  0.028295857            2 
  196000   0.95698735   -7.1224942     63.24124  0.026888282  0.028227483            3 
  197000   0.93864798   -7.1291407    63.261441  0.026760339  0.028158026            3 
  198000   0.96448283   -7.1530972    63.296111  0.026639777  0.028086907            2 
  199000   0.95796947   -7.1352026    63.402375  0.026550408  0.028014782            2 
  200000   0.94626321   -7.1544108    63.569089   0.02648712  0.027942507            3 
  201000   0.95310563   -7.1045373    63.840497  0.026467867  0.027869509            2 
  202000   0.95209756   -7.1757753    63.780753  0.026312192  0.027796162            3 
  203000   0.94567647   -7.1823825    64.065129  0.026299314  0.027720925            1 
  204000   0.93580939    -7.181797    63.855172  0.026084629  0.027645576            6 
  205000   0.93266637   -7.1493318    64.368461  0.026166041  0.027571596            2 
  206000    0.9320528   -7.1823485    64.550953  0.026112845  0.027498705            5 
  207000   0.94819303   -7.1980107    64.745617  0.026065063  0.027427183            4 
  208000   0.94430975   -7.1879987    64.967394  0.026028603  0.027356024            2 
  209000   0.93247542   -7.1958448    65.111468   0.02596151  0.027284661            2 
  210000   0.92450151   -7.1904047    65.584298  0.026025515  0.027214553            3 
  211000   0.93882046    -7.221379    65.508306  0.025872159  0.027144564            6 
  212000    0.9440524   -7.1986179    65.839705  0.025880387  0.027075129            4 
  213000   0.92902075   -7.2013532    65.740365  0.025720018  0.027005034            2 
  214000   0.90474221   -7.2211292    65.880916  0.025654562  0.026933776            5 
  215000   0.92691158   -7.1956001    66.320032  0.025705439  0.026864393            3 
  216000   0.88691366   -7.2266286    66.205357   0.02554219  0.026794181            4 
  217000   0.92924724   -7.2394935    66.408729  0.025502584  0.026723542            2 
  218000    0.9089607   -7.2527576    66.561643  0.025444053  0.026652545            4 
  219000   0.90586561   -7.2273587    66.764265  0.025404971  0.026582546            6 
  220000    0.9202279   -7.2248193    67.011665  0.025383206  0.026513511            2 
  221000   0.89891914   -7.2655742    67.177813     0.025331  0.026444772            4 
  222000   0.90833959   -7.2549868    67.280575  0.025255471  0.026375619            5 
  223000   0.91508484   -7.2492387    67.543935  0.025240633  0.026308398            4 
  224000   0.89742135   -7.2648504    67.859205   0.02524524  0.026240722            2 
  225000   0.91693154   -7.2501769    67.629447  0.025047943  0.026172315            2 
  226000   0.91837998   -7.2614317    67.746558  0.024980294  0.026101617            2 
  227000   0.89157263    -7.250515    68.067658  0.024988127  0.026031069            3 
  228000   0.89498923    -7.296563    68.193921  0.024924679  0.025962067            3 
  229000   0.88486304   -7.2792693    68.482456  0.024920835  0.025893909            2 
  230000   0.90376025   -7.2852678    68.483328    0.0248128  0.025825699            2 
  231000   0.90645859   -7.2650065    68.480974  0.024704536  0.025756188            2 
  232000   0.89798176   -7.3150404    68.618121  0.024647313  0.025687272            2 
  233000   0.88541998   -7.2791748    68.861665  0.024628635  0.025618511            2 
  234000   0.89743857   -7.2772259    69.062021  0.024594737  0.025549619            1 
  235000   0.88940467   -7.2929862    69.210635  0.024542778  0.025481731            3 
  236000   0.90624243   -7.2874831    69.041409  0.024379029  0.025412864            3 
  237000   0.89663016   -7.3161845    69.311594  0.024371165  0.025344431            5 
  238000   0.88957908   -7.3037305    69.690256   0.02440135  0.025276494            6 
  239000     0.887797   -7.3157366    69.552129  0.024251091  0.025208042            3 
  240000   0.88512889   -7.3228793    69.716624  0.024207161  0.025140073            5 
  241000   0.86973679   -7.3077083    69.967431  0.024193441  0.025072665            4 
  242000   0.87946983   -7.2848781    69.955817  0.024089469  0.025005311            5 
  243000   0.88254167    -7.301618    70.214504  0.024079048   0.02493717            3 
  244000   0.88760094   -7.3416402    70.206136  0.023977505  0.024869705            5 
  245000   0.87460437   -7.3531491    70.258167  0.023897336  0.024802479            4 
  246000   0.87371728   -7.3150465    70.467691  0.023871169  0.024733513            4 
  247000   0.89106763   -7.3589102     70.39274  0.023749238  0.024666064            9 
  248000   0.86981489   -7.3214637    70.336705  0.023634645  0.024597761            5 
  249000   0.88777899    -7.344386     70.68498  0.023656285  0.024529313            6 
  250000   0.85045636   -7.3578003    70.641894  0.023547298    0.0244608            3 
  251000   0.87442651   -7.3473243    70.810861  0.023509582  0.024391781            3 
  252000   0.86520674   -7.3281116    70.964536  0.023467108  0.024323467            4 
  253000   0.87768317   -7.3701948    71.182708  0.023446215  0.024255386            3 
  254000   0.87199873   -7.3378005    71.288136  0.023388496   0.02418707            7 
  255000   0.87202635    -7.376182    71.132063  0.023245772  0.024119027            6 
  256000   0.86795198   -7.3672305    71.284779  0.023204681  0.024049875            5 
  257000   0.85329919   -7.3642956    71.435055  0.023163118  0.023981115            6 
  258000   0.84935168   -7.3463518    71.564571  0.023115171  0.023913083            4 
  259000   0.83753191   -7.3536184    71.560841  0.023024724  0.023844596            2 
  260000   0.84050568   -7.3928487    71.613868  0.022953163  0.023776008            3 
  261000   0.84425547   -7.3664046    71.872873  0.022947916  0.023708181            3 
  262000   0.84945119   -7.3982733    72.054417  0.022918072  0.023640636            3 
  263000   0.83240178   -7.4228275    71.768923   0.02274047   0.02357211            6 
  264000   0.83670083   -7.3764877    72.022375  0.022734336  0.023505025            5 
  265000   0.85951034   -7.4006467    72.451379  0.022783452   0.02343837            5 
  266000   0.82914478   -7.3951431    72.481854  0.022707348  0.023372653            3 
  267000   0.84314896   -7.3917351    72.770708  0.022712456   0.02330771            4 
  268000   0.83180027   -7.4170448    72.614662  0.022579186  0.023243058            7 
  269000    0.8588889   -7.3984005    72.981153  0.022608783  0.023178534            2 
  270000   0.84745995   -7.4175637    72.859804  0.022487594  0.023113983            4 
  271000   0.82738144   -7.4364333    72.936084   0.02242807  0.023049324            2 
  272000   0.82902418   -7.4484082    73.077721  0.022389008  0.022984607            7 
  273000   0.82729455   -7.4359807    73.170937  0.022335451  0.022920577            5 
  274000    0.8344847   -7.4354621    73.512795  0.022357906  0.022856982            7 
  275000   0.81221935   -7.4546453    73.654093  0.022319422  0.022793969            3 
  276000   0.83691734   -7.4377967    73.587432  0.022218427  0.022730834            3 
  277000   0.82953323   -7.4491254    73.732075  0.022181731  0.022668351            5 
  278000   0.83147697   -7.4538833    73.931659  0.022161768  0.022606222            6 
  279000   0.79227917   -7.4148944    73.989186  0.022099518   0.02254457            3 
  280000   0.83670818    -7.460037     73.94336  0.022006952  0.022482864            4 
  281000   0.82448295   -7.4529513    74.151027  0.021990222  0.022420781            7 
  282000   0.82183125   -7.4240195    74.102207  0.021897815  0.022358412            3 
  283000   0.82061874   -7.4267613    74.266183  0.021868723  0.022296233            5 
  284000   0.82319865   -7.4559567    74.221572   0.02177863  0.022233249            5 
  285000   0.82928746   -7.4554126    74.138408  0.021677897  0.022170705            4 
  286000   0.82602281   -7.4866154    74.411326  0.021681622  0.022107612            5 
  287000   0.80391049     -7.44838    74.315946  0.021578382  0.022044756            3 
  288000   0.82624612   -7.4626906    74.326513  0.021506514  0.021981495            6 
  289000   0.79930249   -7.4954586    74.093571  0.021364928  0.021917764            4 
  290000   0.80276921   -7.4799434    74.447239  0.021392885  0.021853881            3 
  291000   0.82042448   -7.5206985    74.474871  0.021327283  0.021789921            5 
  292000    0.7955275   -7.5065434    74.489961  0.021258551  0.021726288            3 
  293000   0.79195301   -7.4888038    74.518068   0.02119399    0.0216627            3 
  294000   0.79839174   -7.5234648    74.697818  0.021172851  0.021599942           11 
  295000   0.80395495   -7.5018814    74.768402  0.021121017  0.021536777            6 
  296000   0.80725698    -7.522891     74.87285  0.021079068  0.021473873            4 
  297000   0.78065091   -7.4982139    74.696473  0.020958606  0.021410938            4 
  298000   0.78587148   -7.4796195    75.166308  0.021019661  0.021348218            3 
  299000   0.78382378    -7.522557     74.85461  0.020862489   0.02128556            5 
  300000     0.794931   -7.5170544    75.001172  0.020833659   0.02122247            4 
  301000   0.78004811   -7.5277111    75.117699  0.020796705  0.021159646            2 
  302000   0.78289196   -7.5379745    75.305061  0.020779542  0.021097474            2 
  303000   0.78278735   -7.5173389    75.376719  0.020730671  0.021036254            2 
  304000   0.76403714   -7.5289728    75.323541    0.0206479  0.020974935            3 
  305000    0.7925639   -7.5572478    75.287391  0.020570325  0.020913556            4 
  306000    0.7880315   -7.5221064     75.40722  0.020535735  0.020852125            4 
  307000   0.79439243   -7.5465038    75.563017  0.020511134  0.020791631            4 
  308000   0.77862522   -7.5398057    75.612914   0.02045804  0.020730865            4 
  309000   0.78109243   -7.5586255    75.811093  0.020445279  0.020670921            4 
  310000   0.76460986   -7.5483614    75.950772  0.020416874  0.020611781            3 
  311000   0.76398603   -7.5801051    75.934211  0.020346787  0.020552526            3 
  312000   0.76817832   -7.5601786    76.256261  0.020367591  0.020493758            7 
  313000   0.75193557   -7.5493043    76.136036   0.02027051  0.020434584            4 
  314000   0.76852126    -7.573304    76.173886     0.020216  0.020375616            3 
  315000   0.75469883   -7.5862585    76.248095  0.020171454   0.02031648            6 
  316000   0.77554401    -7.592266    76.325175  0.020127947  0.020257356            6 
  317000   0.77352016   -7.5832526     76.30494  0.020059132  0.020198709            3 
  318000    0.7489799   -7.5754166    76.420898  0.020026441  0.020140502            6 
  319000    0.7730351    -7.583915    76.493929   0.01998274  0.020082512           10 
  320000   0.74725587   -7.5824427    76.602772  0.019948639  0.020024661            4 
  321000   0.75714623   -7.5634233    76.590642  0.019883344  0.019967246            5 
  322000   0.74867692   -7.5870114    76.698425  0.019849489  0.019909731            3 
  323000   0.74522373   -7.5870743    76.615833  0.019766727  0.019852367            4 
  324000   0.74649425    -7.629205    76.704079  0.019728415  0.019794921            6 
  325000   0.73683474   -7.6107904    76.746292  0.019678536  0.019737691            6 
  326000   0.74361971   -7.6215665    76.869034  0.019649548  0.019680817            3 
  327000   0.73589908   -7.6443803    76.867969  0.019589187  0.019623684            4 
  328000   0.75139975   -7.6394792    76.949665   0.01955022  0.019566567            2 
  329000   0.74282284   -7.6430579    76.939684  0.019488268  0.019509777            6 
  330000   0.73881108   -7.6319835    77.060267  0.019459663  0.019453467            4 
  331000   0.72995576   -7.6424043    76.944515  0.019371731  0.019397415            7 
  332000   0.74420938   -7.6416848    77.071586  0.019345278  0.019341519            4 
  333000   0.73398001   -7.6438136    77.177844  0.019313775  0.019285658            5 
  334000   0.72680736   -7.6345226    77.081813  0.019231989  0.019229903            5 
  335000   0.73016778   -7.6107066    77.390828   0.01925145  0.019174449            4 
  336000   0.74899168   -7.6478983    77.382912  0.019192191  0.019119223            5 
  337000   0.73036259   -7.6513564    77.363313  0.019130394  0.019063858            4 
  338000   0.73061521   -7.6723162    77.308112  0.019060185  0.019008382            6 
  339000   0.72423516   -7.6775741    77.334144   0.01901036  0.018952781            4 
  340000   0.73712265   -7.6570169    77.595612  0.019018532  0.018897663            4 
  341000   0.72835657   -7.6949806    77.410629  0.018917554  0.018842709            5 
  342000   0.72330159   -7.6755568    77.604927  0.018909583  0.018787711            5 
  343000   0.71593968   -7.6706931    77.463587  0.018820113   0.01873312            4 
  344000   0.70883581   -7.7060037    77.438861  0.018759414  0.018678279            4 
  345000   0.71434103   -7.6616708     77.67399  0.018761833  0.018623753            5 
  346000   0.71956063   -7.6945128    77.622721   0.01869526  0.018569526            5 
  347000   0.71189174   -7.6671243    77.570595  0.018628865  0.018515208            5 
  348000   0.70881228   -7.7010003    77.692795  0.018604596  0.018460882            5 
  349000   0.70506305   -7.6873297    77.763429  0.018568154  0.018406753            5 
  350000   0.69204444   -7.7183876    77.742553  0.018510132  0.018352714            6 
  351000   0.70427423   -7.7064582    77.632903  0.018431363  0.018298563            5 
  352000   0.70805036   -7.7088814    77.592718  0.018369488  0.018244569            6 
  353000   0.71207411   -7.7157171     77.49675  0.018294795  0.018190615           10 
  354000   0.69556867   -7.6934458    77.589626  0.018264978  0.018136365            7 
  355000   0.70053949   -7.7124791    77.573746  0.018209799  0.018082188            5 
  356000   0.69875564     -7.69166    77.899287  0.018234852  0.018028154            3 
  357000   0.69786819   -7.7537686    77.479883  0.018085874  0.017974002            2 
  358000   0.69095707   -7.7370678    77.684947  0.018083088  0.017919724            5 
  359000   0.69837748   -7.7693689    77.616151  0.018016748  0.017865229            5 
  360000   0.68740966   -7.7421776    77.718618  0.017990421  0.017810897            4 
  361000   0.68505855   -7.7503905    77.699204  0.017936104  0.017756974            3 
  362000     0.685494   -7.7599106    77.703418  0.017887527  0.017703327            5 
  363000   0.68505393   -7.7481216    77.822886  0.017865676  0.017649478            8 
  364000   0.69638165   -7.7814388    77.713809  0.017791623  0.017595883            7 
  365000   0.69173549   -7.7635971     77.86063  0.017776399  0.017542352            8 
  366000   0.67730616   -7.7585286    77.741194  0.017700636  0.017488945            3 
  367000   0.67852562   -7.7723585     77.67746  0.017637934  0.017435476            4 
  368000   0.67562447   -7.7650088    77.661926  0.017586487  0.017381992            4 
  369000   0.68270726   -7.8020023    77.784507   0.01756651  0.017328922            2 
  370000   0.67762848   -7.7647972    77.633187  0.017484952  0.017275828            4 
  371000   0.67728674   -7.7835758    77.814163  0.017478473  0.017222862            6 
  372000    0.6758005   -7.7869327     77.82095  0.017433008  0.017170066            3 
  373000   0.67480848   -7.7781778    77.714871  0.017362572  0.017117334           12 
  374000   0.68499581   -7.8060326    77.684651  0.017309414  0.017064566            5 
  375000   0.67548496    -7.817634    77.698285  0.017266286  0.017011899            3 
  376000   0.66459298   -7.8109758    77.768477  0.017235921  0.016959305            4 
  377000   0.67527739   -7.7938163    77.775582  0.017191773  0.016906802            3 
  378000   0.67554468   -7.8274161     77.60863  0.017109486  0.016854547            5 
  379000    0.6744743   -7.8092577    77.680252   0.01708009   0.01680257            5 
  380000   0.66548582   -7.8301775    78.106829  0.017128691  0.016750649            3 
  381000   0.64745655   -7.8065911    77.881807  0.017034516   0.01669905            3 
  382000   0.65461649    -7.800384    77.916849  0.016997567  0.016647653            4 
  383000   0.66403676   -7.8088172    77.869068  0.016942791  0.016596243            4 
  384000   0.64264614   -7.7963013    77.826241  0.016889375   0.01654492            5 
  385000   0.65516319   -7.8255175    77.680636   0.01681399  0.016493673           11 
  386000   0.66196269   -7.8068105    77.835213  0.016803803  0.016442539            4 
  387000   0.67218547   -7.8164955    77.945722  0.016784178  0.016391605           11 
  388000   0.67161592   -7.8301854    77.858066  0.016722093  0.016340788            7 
  389000   0.65274848   -7.8347875    77.842437  0.016675758  0.016290274            6 
  390000   0.65056791   -7.8461442    77.830185  0.016630381  0.016239753            4 
  391000   0.66237059   -7.8193538    78.025511  0.016629478  0.016189576            6 
  392000   0.64245672   -7.8450359    77.814947  0.016542293  0.016139432            7 
  393000   0.65121816   -7.8582459    78.022545  0.016544221  0.016089385           10 
  394000   0.63802471   -7.8534021    78.000992  0.016497672  0.016039762            5 
  395000   0.62088811   -7.8514365    77.934552  0.016441889  0.015990068            9 
  396000   0.62315846   -7.8690543    78.122407    0.0164399  0.015940663            7 
  397000   0.62910113   -7.8659397    78.082137  0.016390037  0.015891497            4 
  398000   0.63099828   -7.8761912    77.972481  0.016325896  0.015842455            3 
  399000   0.61379771   -7.8876136    78.199168  0.016332324  0.015793589           11 
  400000   0.63320704   -7.8933878     78.06214  0.016262946  0.015744561           10 
  401000   0.64035104    -7.894605    77.887811  0.016186162  0.015695744            9 
  402000   0.61781399   -7.8940958    78.017508  0.016172783  0.015646993            7 
  403000   0.63540461   -7.9229772    77.894683  0.016107255  0.015598303           10 
  404000   0.61498577    -7.901909    77.840404  0.016056189  0.015549557            8 
  405000   0.61458176   -7.9203789    77.956317  0.016040394  0.015501001            7 
  406000   0.61855005   -7.8985239    77.915751   0.01599256  0.015452421            8 
  407000   0.61276038   -7.9024933    77.937004  0.015957617  0.015404112            4 
  408000   0.61273557   -7.9143915    77.929817  0.015917038  0.015355941            6 
  409000   0.62115044   -7.9084393    77.839002  0.015859617  0.015307947            6 
  410000   0.60729592   -7.9490276    77.779102  0.015808761  0.015259986            5 
  411000   0.62034108   -7.9188339    77.850911  0.015784856  0.015212164            7 
  412000   0.60785516   -7.9485337    77.856833  0.015747741  0.015164589            8 
  413000   0.61874265   -7.9503706    77.827188  0.015703629  0.015117027            7 
  414000   0.61155148   -7.9457209    77.804454  0.015661122   0.01506957            7 
  415000   0.61347454   -7.9375936    77.910785  0.015644736  0.015022269            8 
  416000    0.6022572    -7.949961    77.862024  0.015597361  0.014975151           11 
  417000   0.59541179   -7.9442933    77.977336  0.015583001  0.014928268            9 
  418000   0.59983146   -7.9422313    77.913306  0.015532956  0.014881536            6 
  419000   0.60712857   -7.9492129    77.894084  0.015492061  0.014834879            8 
  420000   0.59333738   -7.9393088    77.910756  0.015458483  0.014788532            6 
  421000   0.60382026   -7.9517096    77.803833    0.0154006  0.014742315            9 
  422000     0.592475   -7.9524918    77.898837  0.015382867  0.014696189            8 
  423000   0.58700252   -7.9657861     77.96114  0.015358775  0.014650169           13 
  424000   0.57094304   -7.9753576    77.872888  0.015305206  0.014604225            7 
  425000   0.59446108   -7.9800929    77.980512  0.015290296  0.014558553            6 
  426000   0.57542201   -7.9810627    77.996408  0.015257513  0.014513084            5 
  427000   0.59405459   -7.9644404    77.843159  0.015191873  0.014467783            6 
  428000   0.59864188   -7.9763811    77.969466  0.015180971   0.01442259            6 
  429000   0.57205044   -7.9813035    77.999334  0.015151386  0.014377564            5 
  430000   0.59513196    -7.999225    77.886593  0.015094301   0.01433262            5 
  431000   0.58071526    -8.003818    77.924057  0.015066523  0.014287806            4 
  432000   0.57706335   -7.9907667     77.86431  0.015020121  0.014243158            4 
  433000   0.59226045   -7.9947257    78.012551  0.015013963  0.014198732            6 
  434000   0.57177152   -7.9664141    78.004955   0.01497791  0.014154484            8 
  435000   0.57358371   -8.0051309    77.852737  0.014914317  0.014110272            5 
  436000   0.56704178   -7.9995062    77.818376  0.014873543  0.014066286            5 
  437000   0.56732872   -8.0174195    77.814914  0.014838847  0.014022321            6 
  438000   0.57802893   -8.0136557    77.747059  0.014792058  0.013978464            7 
  439000   0.57805602   -8.0017318    77.780329  0.014764679  0.013934762            6 
  440000   0.56758681   -8.0290736    77.821353  0.014738893  0.013891238            6 
  441000   0.55612202   -8.0157899    77.827203  0.014706576  0.013847829            5 
  442000   0.54928546   -8.0289427    77.890638  0.014685264  0.013804652            6 
  443000   0.55880785   -8.0315021    77.860706  0.014646483  0.013761665            6 
  444000   0.56438979   -8.0414042    77.863948  0.014614104  0.013718794           11 
  445000    0.5517593   -8.0323736    77.932978  0.014594191  0.013676087            8 
  446000   0.55381103   -8.0251108    77.903006  0.014555868  0.013633494            6 
  447000   0.54985001   -8.0380298    77.862808  0.014515811  0.013591039            6 
  448000   0.54290664   -8.0509532    77.935572  0.014496944  0.013548717            7 
  449000   0.55388542   -8.0459191    77.718125  0.014424299  0.013506561            5 
  450000   0.54803566   -8.0531039      77.7676  0.014401407  0.013464494            9 
  451000   0.54810484   -8.0609337    77.739986  0.014364373  0.013422498            7 
  452000   0.54222143   -8.0510695    77.928411  0.014367332  0.013380705            7 
  453000   0.53177216   -8.0758995    77.883346  0.014327326  0.013339012            9 
  454000   0.55812988   -8.0612893    77.835048  0.014286903  0.013297413            9 
  455000   0.52457584   -8.0643222    77.758353  0.014241457  0.013255979            7 
  456000   0.53856001   -8.0634244    77.684743  0.014196773  0.013214767            3 
  457000   0.53496275     -8.06487    77.833828  0.014192893  0.013173716            7 
  458000   0.53347247   -8.0656625    77.718589  0.014140937  0.013132773            9 
  459000   0.52950361   -8.0861551    77.652075  0.014098053  0.013091913            5 
  460000   0.53217854   -8.0823851     77.88688  0.014109942  0.013051177            8 
  461000   0.53152471   -8.0720972    77.599879  0.014027455  0.013010545            5 
  462000   0.52760886   -8.0773237     77.59848   0.01399684  0.012969998            5 
  463000   0.51944529   -8.0868212    77.593051  0.013965632  0.012929525            6 
  464000   0.51182864   -8.0904824    77.640313  0.013944022  0.012889217           17 
  465000    0.5233508   -8.0915495    77.740709  0.013932027  0.012848969            4 
  466000   0.52820883   -8.1001424     77.59303  0.013875721  0.012808973            8 
  467000   0.51546711   -8.0871451    77.593923  0.013846167  0.012769013           10 
  468000   0.52337406   -8.1038306      77.5732  0.013812892  0.012729164           11 
  469000   0.51129354   -8.1111091    77.789345  0.013821845  0.012689462            7 
  470000   0.51022073   -8.1145444    77.532937  0.013746975  0.012649861            9 
  471000   0.51401404   -8.1257029    77.696038  0.013746645  0.012610451            8 
  472000   0.50423733   -8.1140479    77.639152  0.013707477  0.012571185           10 
  473000   0.51188436   -8.1167421    77.539089  0.013660868  0.012532079            7 
  474000     0.514157   -8.1110672    77.526765  0.013629881  0.012493094            6 
  475000   0.50594478   -8.1015397    77.511003  0.013598422  0.012454212           10 
  476000   0.50380324   -8.1148054    77.574682  0.013581002  0.012415502            4 
  477000    0.5090306   -8.1156862    77.499839  0.013539455  0.012376916            6 
  478000   0.50458636    -8.117244       77.668  0.013540446  0.012338545           11 
  479000   0.50033007   -8.1494701    77.460752  0.013476123  0.012300261            9 
  480000   0.49309851   -8.1433775    77.566209  0.013466356  0.012262094           10 
  481000   0.51032858   -8.1433163    77.548992  0.013435376  0.012224091            7 
  482000   0.50143995   -8.1338558    77.429707  0.013386879  0.012186188            8 
  483000   0.49364916   -8.1373761    77.554964  0.013380774  0.012148445            5 
  484000   0.49435392   -8.1539515    77.469259  0.013338371  0.012110819            6 
  485000   0.49381603   -8.1235792    77.400643   0.01329908  0.012073346            5 
  486000   0.48871886   -8.1492136     77.52716  0.013293409   0.01203594            7 
  487000   0.49294054   -8.1498441    77.525058  0.013265752  0.011998702            7 
  488000   0.48172005   -8.1514533    77.501443  0.013234536  0.011961635            7 
  489000   0.48295172   -8.1468998    77.545782  0.013215028  0.011924606            9 
  490000   0.49542718   -8.1510864    77.432933  0.013168866  0.011887823            6 
  491000   0.47852601   -8.1539298    77.311909  0.013121505  0.011851115            6 
  492000   0.47912453   -8.1622737    77.471321  0.013121836  0.011814535            7 
  493000   0.47391526   -8.1541543    77.502288  0.013100454  0.011778162           11 
  494000   0.49120425   -8.1717023    77.385678  0.013054264  0.011741861            9 
  495000   0.47478043   -8.1615006    77.526647  0.013051624   0.01170569            8 
  496000   0.49148214    -8.150485    77.348082   0.01299531  0.011669699            6 
  497000   0.47489646    -8.171635    77.302248  0.012961477  0.011633841            5 
  498000   0.47350258   -8.1715509    77.476176  0.012964554  0.011598072            5 
  499000   0.47406902   -8.1770314     77.32705  0.012913669  0.011562443           12 
  500000   0.47327012   -8.1837263    77.338378   0.01288973  0.011526961           12 
  501000   0.46830759   -8.1840476    77.271879  0.012852941  0.011491586            6 
  502000    0.4587556   -8.1870303    77.417361  0.012851488  0.011456364            8 
  503000    0.4701469    -8.182471    77.327049  0.012810976  0.011421215            8 
  504000    0.4666594   -8.2016435    77.231389   0.01276974  0.011386163            8 
  505000   0.46764762   -8.2034218    77.310802  0.012757558  0.011351233            9 
  506000   0.46325268   -8.1922786    77.286012  0.012728263  0.011316476            9 
  507000   0.46437348   -8.1979388    77.398706  0.012721681  0.011281877            8 
  508000   0.46518704   -8.1925964    77.368591  0.012691698  0.011247403           14 
  509000   0.45630404   -8.2060733     77.31253  0.012657585  0.011212996            9 
  510000   0.46077493   -8.2028367    77.214953  0.012616822  0.011178697            6 
  511000   0.45622233   -8.2118003    77.330756  0.012611017   0.01114453            5 
  512000   0.44131975   -8.2013111    77.223941  0.012569001  0.011110512           15 
Loop time of 1145.68 on 48 procs for 500000 steps with 4000 atoms

Performance: 75413.534 tau/day, 436.421 timesteps/s
99.4% CPU use with 48 MPI tasks x no OpenMP threads

MPI task timing breakdown:
Section |  min time  |  avg time  |  max time  |%varavg| %total
---------------------------------------------------------------
Pair    | 67.996     | 75.034     | 82.513     |  40.1 |  6.55
Neigh   | 7.3294     | 7.6216     | 7.9496     |   6.0 |  0.67
Comm    | 69.52      | 76.906     | 84.504     |  42.8 |  6.71
Output  | 0.8349     | 0.83577    | 0.8576     |   0.3 |  0.07
Modify  | 971.32     | 973.95     | 977.51     |   4.0 | 85.01
Other   |            | 11.33      |            |       |  0.99

Nlocal:        83.3333 ave          90 max          74 min
Histogram: 1 0 3 5 3 11 16 4 3 2
Nghost:        1928.52 ave        1947 max        1907 min
Histogram: 2 3 4 3 4 15 7 0 2 8
Neighs:        12225.3 ave       13363 max       10235 min
Histogram: 1 2 1 5 4 4 10 6 11 4
FullNghs:      24450.5 ave       26736 max       21519 min
Histogram: 1 1 4 5 5 9 12 7 2 2

Total # of neighbors = 1173626
Ave neighs/atom = 293.40650
Neighbor list builds = 26846
Dangerous builds = 0

#clear
#
#next RN
#
#jump SELF
Total wall time: 0:19:08
