
units lj                  # Use reduced LJ style units
atom_style atomic         # Uncharged point particles
atom_modify map hash      # Needed for indexing of clusters etc
                          # Used to be able to find where atoms are in relation to each other.

lattice fcc 1.0 spacing 1 1 1
Lattice spacing in x,y,z = 1.5874011 1.5874011 1.5874011
region box block 0 10 0 10 0 10 units lattice
create_box 2 box
Created orthogonal box = (0.0000000 0.0000000 0.0000000) to (15.874011 15.874011 15.874011)
  3 by 4 by 4 MPI processor grid
create_atoms 1 box
Created 4000 atoms
  using lattice units in orthogonal box = (0.0000000 0.0000000 0.0000000) to (15.874011 15.874011 15.874011)
  create_atoms CPU = 0.003 seconds
set type 1 type/fraction 2 0.52 78393
Setting atom values ...
  2077 settings made for type/fraction
mass 1 1.0
mass 2 1.0
pair_style lj/cut  3.5
pair_modify tail  yes
pair_coeff 1  1  1.0  1.0   # Intearaction between 1 and 1 set with epsilon = 1 and sigma = 1
pair_coeff 1  2  1.5  0.8
pair_coeff 2  2  0.5  0.88

write_data data.0
System init for write_data ...
Neighbor list info ...
  update every 1 steps, delay 10 steps, check yes
  max neighbors/atom: 2000, page size: 100000
  master list distance cutoff = 3.8
  ghost atom cutoff = 3.8
  binsize = 1.9, bins = 9 9 9
  1 neighbor lists, perpetual/occasional/extra = 1 0 0
  (1) pair lj/cut, perpetual
      attributes: half, newton on
      pair build: half/bin/atomonly/newton
      stencil: half/bin/3d
      bin: standard
WARNING: Not all mixed pair coeffs generated from mixing. Use write_data with 'pair ij' option to store all pair coeffs. (../write_data.cpp:312)


#############################
#   M E L T   S Y S T E M   #
#############################

velocity all create 2.4 6229865 mom yes dist gaussian # Assign velocities
                                                    # Temperature 2.4, random number seed, zero linear momentum
                                                                                # Gaussian distribution

timestep 0.002   # simulation timestep
thermo 1000       # output thermodynamic data every 1000 steps bf 100

# Define a fix  in this case with index 1 applied to all
# particles in the simulation. This fix is for simulations
# in the anisotropic NPT ensemble. Note that we use the MTK
# correction.
fix 1 all npt temp 2.4 2.4 0.1 iso 5.68 5.68 0.5 mtk yes tchain 5 pchain 5 # Use NPT ensemble
                                                                         # Set temperature and pressure and damping
                                                                         # Numbers of thermostats in chain and in barostat
run 10000          # run for 10000 steps
Per MPI rank memory allocation (min/avg/max) = 3.642 | 3.644 | 3.648 Mbytes
Step Temp E_pair E_mol TotEng Press Volume 
       0          2.4   -5.1913276            0   -1.5922276   -4.1950394         4000 
    1000    2.3958658   -4.7906837            0   -1.1977834    5.8413379    3683.1438 
    2000    2.3871207   -4.7690514            0   -1.1892655    6.0314367    3680.5938 
    3000    2.4078288   -4.8660471            0   -1.2552068    6.0897328    3634.2291 
    4000    2.3521596   -4.8219252            0   -1.2945678     5.748206    3676.6698 
    5000     2.441419   -4.7590444            0   -1.0978314    5.8205362    3700.4384 
    6000    2.4138652   -4.7948373            0   -1.1749447    5.9061262    3682.4258 
    7000    2.3195912   -4.7965998            0   -1.3180828    5.4471418    3698.9323 
    8000    2.4550555   -4.8064573            0   -1.1247946    5.5776093    3708.0522 
    9000    2.4171219   -4.8792474            0   -1.2544709    5.6255671    3661.7381 
   10000    2.3789066   -4.8242868            0   -1.2568189    5.6965409    3679.0674 
Loop time of 2.59089 on 48 procs for 10000 steps with 4000 atoms

Performance: 666953.414 tau/day, 3859.684 timesteps/s
99.6% CPU use with 48 MPI tasks x no OpenMP threads

MPI task timing breakdown:
Section |  min time  |  avg time  |  max time  |%varavg| %total
---------------------------------------------------------------
Pair    | 1.1686     | 1.2467     | 1.3394     |   2.4 | 48.12
Neigh   | 0.21534    | 0.22198    | 0.23118    |   0.6 |  8.57
Comm    | 0.76392    | 0.86832    | 0.94353    |   3.2 | 33.51
Output  | 0.00024619 | 0.00025057 | 0.0003155  |   0.0 |  0.01
Modify  | 0.21238    | 0.23814    | 0.26047    |   2.5 |  9.19
Other   |            | 0.01551    |            |       |  0.60

Nlocal:        83.3333 ave          90 max          74 min
Histogram: 2 2 2 4 3 11 9 4 5 6
Nghost:        1736.17 ave        1761 max        1710 min
Histogram: 1 5 6 3 11 5 3 5 5 4
Neighs:        10365.4 ave       11517 max        8929 min
Histogram: 3 2 0 8 6 8 9 1 7 4

Total # of neighbors = 497541
Ave neighs/atom = 124.38525
Neighbor list builds = 907
Dangerous builds = 219

# Equilibrate just above the melting temperature to avoid step fn in T

fix 1 all npt temp 1.25 1.25 0.1 iso 5.68 5.68 0.5 mtk yes tchain 5 pchain 5
run 2000
Per MPI rank memory allocation (min/avg/max) = 3.644 | 3.646 | 3.649 Mbytes
Step Temp E_pair E_mol TotEng Press Volume 
   10000    2.3789066   -4.8242868            0   -1.2568189    5.6965409    3679.0674 
   11000    1.2618303    -6.917237            0   -5.0249647    5.6924559    2860.3773 
   12000    1.2826522   -7.0622265            0   -5.1387292    5.7218545    2827.0647 
Loop time of 0.670061 on 48 procs for 2000 steps with 4000 atoms

Performance: 515774.030 tau/day, 2984.803 timesteps/s
99.6% CPU use with 48 MPI tasks x no OpenMP threads

MPI task timing breakdown:
Section |  min time  |  avg time  |  max time  |%varavg| %total
---------------------------------------------------------------
Pair    | 0.29024    | 0.31804    | 0.39433    |   3.0 | 47.46
Neigh   | 0.039928   | 0.043422   | 0.053321   |   1.0 |  6.48
Comm    | 0.17625    | 0.25918    | 0.29545    |   3.8 | 38.68
Output  | 5.178e-05  | 5.3295e-05 | 7.1354e-05 |   0.0 |  0.01
Modify  | 0.03817    | 0.044458   | 0.05051    |   1.7 |  6.63
Other   |            | 0.004903   |            |       |  0.73

Nlocal:        83.3333 ave          91 max          75 min
Histogram: 2 4 1 7 4 9 13 3 4 1
Nghost:        2064.10 ave        2102 max        2035 min
Histogram: 3 4 4 10 9 9 3 3 1 2
Neighs:        13500.8 ave       14872 max       11742 min
Histogram: 1 1 5 5 7 4 12 9 1 3

Total # of neighbors = 648037
Ave neighs/atom = 162.00925
Neighbor list builds = 143
Dangerous builds = 12

#############################
# L I N E A R  Q U E N C H  #
#############################

# Define solid atoms. This closely follows ten Wolde  Ruiz-Montero and Frenkel  Faraday Discuss  1996  104  93-110
# Compute components of the per-atom q6 vector
compute q6 all orientorder/atom degrees 1 6 components 6 nnn NULL cutoff 1.3 # compute the Q6 parameter.
                                                                             # Use all neighbours within 1.3 unit cell.

# get number of connections
compute coord_number all coord/atom orientorder q6 0.5

# An atom is solid if it has 8 or more connections (of a possible 14)
variable is_solid atom c_coord_number>=8
group solid dynamic all var is_solid    # Must be dynamic to update
dynamic group solid defined

# do clustering
compute cluster solid cluster/atom 1.3 # Create a cluster where all atoms within are solid and max 1.3 units from another member

# define chunks one chunk per cluster
compute clus_chunks solid chunk/atom c_cluster nchunk every compress yes  # Says which atoms are in which chunk

# count the size of each chunk
compute size_chunks solid property/chunk clus_chunks count


# Find the maximum entry in the vector of chunk sizes
variable max_n equal max(c_size_chunks)


# Thermo style which includes this variable
# thermo_style custom step temp pe vol v_max_n

thermo ${N}  # Print the thermo information every 100 steps
thermo 1000  

# Reset the npt fix at a lower temperature (below freezing)
fix 1  all npt temp  ${temp} ${temp}  0.1  iso  5.68  5.68  0.5  mtk yes tchain  5  pchain  5
fix 1  all npt temp  0.45 ${temp}  0.1  iso  5.68  5.68  0.5  mtk yes tchain  5  pchain  5
fix 1  all npt temp  0.45 0.45  0.1  iso  5.68  5.68  0.5  mtk yes tchain  5  pchain  5

dump dmp2 all dcd ${N} traj.dcd
dump dmp2 all dcd 1000 traj.dcd


compute msd all msd com yes
variable twopoint equal c_msd[4]/6/(step*dt+1.0e-6)
fix 9 all vector 10 c_msd[4]
variable fit equal slope(f_9)/6/(10*dt)
thermo_style custom step temp pe c_msd[4] v_twopoint v_fit v_max_n

fix 1 all npt temp 1.25 ${temp} 0.1 iso 5.68 5.68 0.5 mtk yes tchain 5 pchain 5
fix 1 all npt temp 1.25 0.45 0.1 iso 5.68 5.68 0.5 mtk yes tchain 5 pchain 5
run 500000 # 5000000  # Run for this many steps
Neighbor list info ...
  update every 1 steps, delay 10 steps, check yes
  max neighbors/atom: 2000, page size: 100000
  master list distance cutoff = 3.8
  ghost atom cutoff = 3.8
  binsize = 1.9, bins = 8 8 8
  4 neighbor lists, perpetual/occasional/extra = 1 3 0
  (1) pair lj/cut, perpetual
      attributes: half, newton on
      pair build: half/bin/atomonly/newton
      stencil: half/bin/3d
      bin: standard
  (2) compute orientorder/atom, occasional
      attributes: full, newton on
      pair build: full/bin/atomonly
      stencil: full/bin/3d
      bin: standard
  (3) compute coord/atom, occasional
      attributes: full, newton on
      pair build: full/bin/atomonly
      stencil: full/bin/3d
      bin: standard
  (4) compute cluster/atom, occasional
      attributes: full, newton on
      pair build: full/bin/atomonly
      stencil: full/bin/3d
      bin: standard
Per MPI rank memory allocation (min/avg/max) = 9.840 | 9.845 | 9.849 Mbytes
Step Temp PotEng c_msd[4] v_twopoint v_fit v_max_n 
   12000    1.2826522   -7.0622265            0            0 8.3333333e+20            1 
   13000     1.241773   -6.9870169   0.43766997 0.0028055766  0.036211605            4 
   14000    1.2512299   -7.0529931   0.82043974 0.0048835697  0.032541612            3 
   15000    1.2560414   -7.0186041    1.2278549 0.0068214161  0.032451074            1 
   16000    1.2167102    -7.108829    1.6275922 0.0084770426  0.032977499            2 
   17000    1.2427617   -7.1017576    2.0346253 0.0099736533  0.033272141            1 
   18000    1.2550825   -7.1094348    2.4771762  0.011468408  0.033594807            2 
   19000    1.2075167   -7.1363365    2.8655848  0.012568354  0.033858885            2 
   20000    1.2072764   -7.0765667    3.2649576   0.01360399  0.033815174            1 
   21000    1.2082122   -7.0973063    3.6985482  0.014676778  0.033899791            2 
   22000    1.2660675   -7.0958355    4.0873004  0.015482198  0.033944112            1 
   23000     1.252711   -7.1173882    4.3881321  0.015899029  0.033730112            2 
   24000    1.2223588   -7.0751258    4.7313695  0.016428366   0.03335374            3 
   25000    1.2127733   -7.1161832    5.0868065  0.016956021   0.03296231            3 
   26000     1.235339   -7.1716475    5.4886727  0.017591899  0.032707312            3 
   27000    1.2099155   -7.1234099    5.8849815  0.018163523  0.032514955            5 
   28000    1.2070966   -7.1627264    6.2331067  0.018550913  0.032381255            3 
   29000    1.2288567   -7.1403427    6.5734865  0.018889329  0.032224356            2 
   30000    1.2027831   -7.1378979    6.9809159  0.019391433  0.032105398            3 
   31000    1.2276831   -7.1440959    7.4177321   0.01994014  0.032067546            1 
   32000    1.2035923     -7.10804     7.799563  0.020311362   0.03204651            2 
   33000    1.2146148   -7.0864882    8.1961468   0.02069734  0.032061356            2 
   34000    1.2153461   -7.1629077    8.4177918  0.020631842  0.031948342            1 
   35000    1.2260365   -7.1655402    8.7920513  0.020933455   0.03180401            3 
   36000    1.1859466   -7.1931823    9.2661973   0.02144953  0.031729697            2 
   37000    1.2018948   -7.1125656    9.6701246   0.02177956  0.031716382            3 
   38000    1.2200158    -7.161133    10.056139  0.022052936  0.031755211            2 
   39000    1.1956049   -7.2059562    10.309719  0.022029313  0.031739466            3 
   40000    1.1811463   -7.1542439    10.664994  0.022218737  0.031678591            2 
   41000    1.2085926   -7.1570787    11.053021   0.02246549  0.031607495            4 
   42000    1.2130798   -7.1356265    11.479469  0.022776724  0.031588619            2 
   43000    1.2044586   -7.1481178    11.730704  0.022733922  0.031532886            4 
   44000    1.2175798   -7.1919746    11.972099   0.02267443  0.031424955            2 
   45000    1.2148651   -7.2155198    12.181297  0.022557956  0.031259168            2 
   46000    1.1977139   -7.2071901    12.502261  0.022649023  0.031086046            4 
   47000     1.211036   -7.2163291      12.7915  0.022679964  0.030901283            3 
   48000    1.1941049   -7.2008308    13.122032  0.022781305  0.030738016            4 
   49000    1.1980357   -7.2485784    13.377168  0.022750286  0.030580322            2 
   50000     1.181248   -7.1834373    13.791579  0.022985965  0.030424469            1 
   51000    1.1681773   -7.1816156    14.122142  0.023075395  0.030296344            2 
   52000    1.1800988   -7.2642451    14.377519  0.023040895  0.030159389            5 
   53000    1.1671794   -7.1845119    14.729733  0.023159957  0.030008607            2 
   54000    1.1948631   -7.2133388    15.043254  0.023214899  0.029897291            3 
   55000    1.1926414   -7.2515609    15.538822  0.023543669  0.029808313            2 
   56000    1.1782139   -7.2992912    15.801071  0.023513498  0.029731865            2 
   57000    1.1632618   -7.2574043     16.14782  0.023607924  0.029656938            1 
   58000    1.1814753   -7.2480947    16.525905  0.023744117  0.029585407            3 
   59000    1.2059914   -7.2330014    16.709978  0.023601663  0.029504006            2 
   60000    1.1651036    -7.231106     16.98678  0.023592749  0.029409434            2 
   61000    1.1511786   -7.2294233     17.19072  0.023484589  0.029304627            1 
   62000    1.1505062   -7.2838399    17.429112  0.023426226  0.029183127            1 
   63000    1.1867796    -7.321154    17.708647  0.023424136  0.029065448            5 
   64000    1.1493883   -7.2320291    18.103576  0.023572364  0.028968786            5 
   65000    1.1555272   -7.2797907    18.323877   0.02349215  0.028867421            2 
   66000    1.1842994   -7.3120898    18.426062   0.02326523    0.0287474            2 
   67000    1.1833223   -7.3124114    18.733667  0.023300581  0.028619846            3 
   68000    1.1763406   -7.3115735    18.944075  0.023215778  0.028487878            1 
   69000    1.1428346    -7.290108     19.46095  0.023503563    0.0283754            1 
   70000    1.1655268   -7.2879364    19.720208  0.023476438  0.028283628            3 
   71000     1.146809     -7.32624    19.960255  0.023427529  0.028177392            1 
   72000    1.1514668   -7.3269809    20.228698  0.023412845  0.028066719            1 
   73000    1.1545889    -7.306768    20.569753  0.023481453  0.027968848            9 
   74000    1.1504828   -7.3188293    20.860404  0.023491445   0.02787647            4 
   75000    1.1497307   -7.2941822    21.329744  0.023699715  0.027790308            3 
   76000    1.1556609   -7.3403193    21.590612  0.023673917  0.027721321            2 
   77000    1.1343861   -7.3971825    21.759804  0.023549571   0.02764601            3 
   78000    1.1042009   -7.3461233    22.139622  0.023653442  0.027574407            2 
   79000    1.1557455   -7.3457602    22.241143  0.023461122  0.027492805            3 
   80000    1.1384811   -7.3431387     22.64152  0.023584917  0.027415127            2 
   81000    1.1265844   -7.3310872    22.913195  0.023573245  0.027340906            4 
   82000    1.1344163    -7.415915    23.152983  0.023529454  0.027268432            2 
   83000    1.1361888   -7.3126674    23.603169  0.023697961  0.027202978            3 
   84000    1.1163256   -7.3279411    24.007122   0.02381659  0.027148826            3 
   85000    1.1232868   -7.3348562    24.196695   0.02372225  0.027094446            1 
   86000    1.1297912   -7.3169035    24.448686  0.023690587  0.027033198            2 
   87000    1.1294787   -7.3326819    24.735481  0.023692989  0.026974208            1 
   88000    1.1313486   -7.4259958    24.994054  0.023668611  0.026918419            5 
   89000    1.1154281   -7.3732647    25.476244  0.023854161  0.026865498            3 
   90000    1.1340408   -7.3507518    25.717457   0.02381246  0.026820431            4 
   91000    1.1100841   -7.3872839    25.929238  0.023744724   0.02677239            2 
   92000    1.1127458   -7.4460465    26.101372  0.023642547  0.026721398            2 
   93000     1.123598   -7.3982975    26.496478  0.023742364  0.026672166            5 
   94000    1.0954606   -7.3482708    26.840297  0.023794589  0.026628801            3 
   95000    1.1542532   -7.3980436    26.863413  0.023564397  0.026579577            3 
   96000    1.1267883   -7.4869769     26.99669  0.023434627  0.026522229            2 
   97000    1.1273225   -7.4057566    27.399141   0.02353878  0.026459901            2 
   98000    1.1045031   -7.4120431    27.602849   0.02347181  0.026403134            3 
   99000    1.1248082   -7.4665744    27.683231  0.023302383  0.026340099            2 
  100000    1.1093089   -7.4039411    28.110822  0.023425685  0.026277298            2 
  101000    1.1157642    -7.399036    28.314799  0.023362045  0.026211045            5 
  102000    1.0956268   -7.4472449    28.513415  0.023295273  0.026148931            3 
  103000    1.0901642   -7.4631516    28.766435  0.023273815  0.026082387            2 
  104000    1.0992545   -7.4509817    29.063718  0.023288235  0.026019836            3 
  105000    1.0945369   -7.4781375    29.263565  0.023225051  0.025955887            5 
  106000    1.1173159   -7.4523441    29.582761  0.023256887  0.025894404            3 
  107000    1.0666166   -7.4715015     29.68363  0.023118092  0.025830561            5 
  108000    1.1097782   -7.4580626    30.013669  0.023158695   0.02576628            5 
  109000    1.0874802   -7.4102083    30.314003  0.023175843  0.025704799            3 
  110000    1.0798149   -7.4619969    30.306742  0.022959653  0.025638111            2 
  111000    1.0952497   -7.4711183     30.69727  0.023045998  0.025569251            4 
  112000    1.0860566   -7.4490206    30.809279  0.022923571  0.025496465            3 
  113000    1.0862722   -7.4622701    31.070669  0.022913472  0.025426512            2 
  114000    1.0805329   -7.5020664    31.295836  0.022877073  0.025359201            4 
  115000    1.0808686    -7.496072    31.310464  0.022688742  0.025285953            6 
  116000    1.0753726   -7.4934026    31.723959    0.0227902  0.025214168            3 
  117000    1.0793839   -7.5158712    31.819585  0.022663522  0.025144694            5 
  118000    1.0733571   -7.5327496    31.940406  0.022556784  0.025073155            3 
  119000    1.0779027   -7.5419266     32.16656  0.022525602  0.024997329            1 
  120000    1.0817814    -7.454216    32.490589  0.022562909  0.024923182            1 
  121000    1.0896346   -7.5074133     32.80147  0.022590544  0.024855227            3 
  122000    1.0822179   -7.5226636    32.899481  0.022472323  0.024785554            5 
  123000    1.0551721   -7.5425368    33.124501  0.022442074  0.024716317            2 
  124000     1.044603   -7.5765586    33.168347  0.022290556  0.024645438            3 
  125000    1.0829727   -7.5158921    33.377249  0.022251499  0.024567524            1 
  126000    1.0887326   -7.5590513    33.529029  0.022175284  0.024490932            2 
  127000    1.0613428    -7.531239    33.705936  0.022116756  0.024412975            3 
  128000    1.0785386   -7.5473095    33.754977  0.021975897  0.024333319            4 
  129000    1.0605587   -7.5431422    34.064905  0.022005752  0.024254493            4 
  130000     1.073976   -7.5490495    34.364032  0.022028225  0.024178257            4 
  131000    1.0596861   -7.5385999    34.629143  0.022028717  0.024106028            3 
  132000     1.072848   -7.5496734    34.541961  0.021806793  0.024032319            3 
  133000    1.0497199   -7.6024021    34.904361    0.0218699  0.023957018            2 
  134000    1.0419676   -7.5932137    35.098704  0.021827552  0.023883459            2 
  135000    1.0399216   -7.5928692    35.311348  0.021797128  0.023812009            5 
  136000    1.0409303   -7.5767534    35.543539  0.021779129  0.023741678            2 
  137000    1.0416414   -7.6103058    35.618398  0.021665692  0.023668628            1 
  138000    1.0714016   -7.5897416    35.952272  0.021710309  0.023596279            1 
  139000    1.0490745   -7.6105502    35.962376  0.021560178   0.02352565            7 
  140000    1.0535232   -7.5556807    36.306486  0.021611003  0.023453218            3 
  141000    1.0259931   -7.5837705    36.715864  0.021699683  0.023384802            4 
  142000    1.0356875   -7.6125417    36.881874  0.021644292  0.023322102            4 
  143000    1.0232381   -7.5956593     37.06186   0.02159782  0.023261808            6 
  144000    1.0604615   -7.6415926    37.380567  0.021632273   0.02320091            1 
  145000    1.0368536   -7.6675278    37.427139   0.02150985  0.023141421            3 
  146000    1.0492926   -7.5540546    37.849936  0.021603845  0.023084728            3 
  147000    1.0143385   -7.6275813    37.927534   0.02150087   0.02302848            3 
  148000    1.0303944   -7.6358863    38.071658  0.021436744  0.022969796            5 
  149000     1.021771   -7.6096215    38.451157  0.021505121  0.022913359            4 
  150000    1.0302634   -7.6413524    38.591992  0.021439996  0.022857162            7 
  151000    1.0143785   -7.6135102    38.745771  0.021382876  0.022802987            1 
  152000    1.0298168    -7.636542    38.856159  0.021302719  0.022747017            5 
  153000    1.0002283   -7.6852465    38.857155  0.021164028  0.022689707            3 
  154000    1.0360245   -7.6239828    39.168665  0.021195165  0.022629738            4 
  155000    1.0069473   -7.6425645    39.489323  0.021230819   0.02257174            3 
  156000    1.0243165   -7.6629912    39.602326  0.021155089  0.022515542            4 
  157000    1.0097456   -7.6691282    39.872674   0.02116384  0.022459479            5 
  158000    1.0159013   -7.6503032    40.069898  0.021133913  0.022405705            3 
  159000    1.0225538   -7.6912968    40.152018  0.021044035  0.022350302            3 
  160000    1.0225408   -7.6795534    40.322355  0.021001226  0.022294415            5 
  161000   0.99353921   -7.6876039     40.46377   0.02094398  0.022238342           11 
  162000     1.005976   -7.6522264    40.635425  0.020902997  0.022182176            3 
  163000     1.018939   -7.7456856    40.768638  0.020842862  0.022125971            3 
  164000    1.0153645    -7.712836    40.904763  0.020784941   0.02207019            4 
  165000    1.0019118   -7.7035268     40.98046  0.020697202  0.022011452            3 
  166000     1.009378   -7.7288409    41.083532  0.020624263  0.021952959            4 
  167000   0.99957873   -7.7191217    41.299133   0.02060835  0.021893556            3 
  168000    1.0054714   -7.7958143    41.416041  0.020543671  0.021834047            4 
  169000   0.99338169   -7.7499492    41.676541  0.020550563  0.021774964            3 
  170000    1.0096231   -7.7127588    41.739488  0.020460533  0.021714963            3 
  171000   0.98270299   -7.7518189    41.796285   0.02036856  0.021654319            3 
  172000   0.97368942   -7.8119586    41.786929  0.020245605  0.021592787            6 
  173000    1.0115524   -7.7587522    41.956152  0.020210093  0.021531138            2 
  174000   0.99115178   -7.7396156    42.253521  0.020236361  0.021470589            1 
  175000   0.99131715   -7.8034883    42.173947  0.020082832  0.021408339            2 
  176000    0.9553835   -7.7616949    42.410919  0.020080928  0.021346171            4 
  177000   0.97407641    -7.815739     42.38523  0.019955381  0.021282972            4 
  178000   0.99272253   -7.8075397     42.74351  0.020011006  0.021220025            2 
  179000   0.97557816   -7.7948638    42.802877  0.019926851   0.02115684            3 
  180000   0.99642656    -7.781583    43.015542  0.019914603  0.021093798            2 
  181000   0.99956709   -7.7814443    42.996706  0.019795905  0.021030446            5 
  182000   0.97107698   -7.7612885    43.241137  0.019799055   0.02096807            3 
  183000    1.0001052   -7.8257302    43.255946  0.019697607  0.020907343            6 
  184000   0.96817376   -7.7678859    43.451661  0.019679194  0.020845296            3 
  185000   0.98061597   -7.8158315    43.523982  0.019605397  0.020783564            4 
  186000   0.96074228   -7.8024375    43.751455  0.019601906  0.020720948            6 
  187000   0.97073056   -7.7954341    43.927753  0.019575648  0.020658518            4 
  188000   0.96165137   -7.8236307    43.836237  0.019430956  0.020595932            2 
  189000   0.96762929   -7.8317676    43.917092  0.019363797  0.020531872            5 
  190000   0.95888094   -7.8187946    44.086275  0.019336085  0.020467177            5 
  191000   0.95197212   -7.8017157    44.229546  0.019297359  0.020403957            2 
  192000   0.98247164   -7.7959229    44.302778  0.019228636  0.020340696            4 
  193000   0.96704207   -7.8131628    44.409257  0.019174981  0.020277243            2 
  194000   0.92584426   -7.8158479    44.459377   0.01909767  0.020213452            6 
  195000   0.95161081   -7.8271911    44.638226  0.019076165  0.020149362            5 
  196000   0.93912781     -7.85173    44.768689  0.019034306  0.020086166            4 
  197000   0.94719865   -7.8640959    44.866802  0.018979189  0.020023533            6 
  198000   0.96569507   -7.8423506    45.242287  0.019041366  0.019962433            8 
  199000   0.96638413   -7.8602793    45.176561  0.018918158  0.019902733            4 
  200000   0.95565357    -7.866385    45.145651  0.018810688  0.019841343            8 
  201000    0.9412566   -7.8500902    45.315278  0.018787428  0.019778956            7 
  202000   0.93317172   -7.8540337    45.491487  0.018767115  0.019716588            6 
  203000   0.94036375    -7.879074    45.566423  0.018705428  0.019654908            5 
  204000   0.93715591   -7.8834421    45.607957  0.018630702  0.019592181            3 
  205000   0.94747996   -7.9045785    45.647635  0.018555949  0.019529701            4 
  206000   0.95727163   -7.9266701    45.592858  0.018443713  0.019466917            3 
  207000   0.95582969   -7.9466794    45.697368  0.018396686  0.019404367            5 
  208000   0.91397683   -7.9213589    45.856461  0.018371979  0.019342212            3 
  209000   0.94549375   -7.8924102    46.033104  0.018354507   0.01927946            2 
  210000   0.93716373   -7.9279412    46.027518  0.018264888  0.019217741            6 
  211000   0.94489606   -7.9751055    45.935665  0.018142048  0.019154505            6 
  212000   0.93244483   -7.9704657    46.113151  0.018126239  0.019090733            3 
  213000   0.91090154   -7.9561129    46.253705  0.018096129  0.019026899            5 
  214000   0.91516557   -7.9583132    46.176991  0.017981694   0.01896276            8 
  215000   0.92436979   -7.9796361    46.273329  0.017935399  0.018899551            6 
  216000   0.91783387   -7.9192981    46.629863  0.017989916  0.018837993            8 
  217000   0.92621801    -7.973048    46.772021  0.017961606  0.018777325            5 
  218000   0.93000404    -7.921395    46.779855  0.017882208  0.018717462            6 
  219000   0.93319488   -7.9284595    47.060485  0.017907338   0.01865811            4 
  220000   0.90543793   -7.9684819    47.084666  0.017835101  0.018599525            5 
  221000   0.92966697   -7.9364248    47.132108  0.017772288  0.018539858            7 
  222000   0.91913129    -7.959452    47.176347  0.017708839  0.018479662            9 
  223000   0.93232298   -7.9767064    47.299727  0.017675533  0.018419038           11 
  224000   0.91386309   -7.9519919    47.329727  0.017607785  0.018358805            3 
  225000   0.90684935   -7.9552748    47.542127  0.017608195  0.018298867            5 
  226000    0.9158826   -7.9908507     47.36194  0.017463842  0.018238555            4 
  227000   0.90018919   -7.9816694    47.406275  0.017403185  0.018177066            7 
  228000   0.89766069   -8.0314488    47.358345  0.017309336  0.018116476            4 
  229000   0.90671854   -8.0144232    47.640907  0.017336575   0.01805568           10 
  230000   0.91799982   -8.0242171    47.636846  0.017259727  0.017993569            6 
  231000    0.9052036   -8.0212136    47.584709  0.017166201  0.017931782            4 
  232000   0.90176419   -8.0200202    47.752236  0.017152384  0.017870456            7 
  233000   0.87516301   -8.0356578    47.764893  0.017083295  0.017809552            9 
  234000   0.88640276   -8.0329368    47.724267  0.016995822  0.017748556           14 
  235000    0.8931472   -8.0548067    47.859268  0.016971372  0.017687768            3 
  236000   0.88423702   -8.0163013    47.973798    0.0169399  0.017627624            7 
  237000   0.87602162   -8.0709723    48.074547  0.016903849  0.017566813           12 
  238000   0.89620675   -8.0505663    47.989127  0.016802916  0.017506864           14 
  239000   0.88276166   -8.0414359    48.089429  0.016767583  0.017446669           15 
  240000   0.89885678   -8.0568753    48.220896  0.016743367  0.017386356           13 
  241000   0.87229094    -8.093526    48.155631  0.016651325  0.017326026           22 
  242000   0.86035894   -8.1012741    48.263107  0.016619527  0.017264994           25 
  243000   0.88133255   -8.0832603    48.350737  0.016581185  0.017204031           29 
  244000   0.87469567   -8.0804472    48.160281  0.016448183  0.017143461           12 
  245000   0.87500849   -8.1141489    48.317891  0.016434657   0.01708331            6 
  246000   0.86941202   -8.0921085    48.408816   0.01639865  0.017023405           11 
  247000   0.85535508   -8.0983365    48.413722  0.016333914  0.016963207            8 
  248000   0.86109435   -8.0976324    48.491089  0.016294049  0.016903352            9 
  249000   0.87469044   -8.1205081    48.453837  0.016216143  0.016843129           18 
  250000   0.85701652   -8.1048599     48.53818  0.016179393  0.016783204           12 
  251000   0.84866597   -8.1005067    48.572867   0.01612645  0.016723243            8 
  252000   0.86492325   -8.1007309    48.761711  0.016124905  0.016663264            4 
  253000   0.85005185   -8.1287724    48.700189  0.016040905  0.016603244           19 
  254000   0.85455271   -8.1552747    48.851167  0.016027286  0.016543779            6 
  255000   0.85678568   -8.1105238    48.947451  0.015995899  0.016485214            9 
  256000   0.86886922    -8.084465    49.002564  0.015951355  0.016426615            7 
  257000   0.85774764   -8.1461296    49.017604  0.015894165  0.016368348            4 
  258000   0.85577296   -8.1531219    48.902194  0.015795282  0.016309998            6 
  259000   0.85190839      -8.1321    49.010462  0.015769132  0.016251551            6 
  260000   0.85426506   -8.1377813    49.079451  0.015730593   0.01619316           11 
  261000   0.86420023   -8.1506446    49.145854  0.015691524  0.016135551            4 
  262000    0.8674356   -8.1605047    49.172272  0.015640036  0.016077663            4 
  263000   0.86169681   -8.1891718    49.237698  0.015601299  0.016020153            6 
  264000   0.85126859   -8.1931615    49.235961  0.015541654  0.015962901           13 
  265000   0.85714152   -8.2056061    49.180382  0.015465529  0.015905228           12 
  266000   0.85725601   -8.1877787    49.241727  0.015426606  0.015848081            5 
  267000   0.84064954   -8.1821226    49.173286  0.015347468   0.01579049           13 
  268000   0.84694797   -8.1945664    49.287816  0.015325814  0.015733081            5 
  269000   0.84183194   -8.2154851    49.242052  0.015254663  0.015675985            7 
  270000   0.85573429   -8.2124951    49.313918  0.015220345   0.01561885            9 
  271000   0.84293086   -8.1763184    49.476497  0.015214175  0.015562016           22 
  272000   0.84335141   -8.2281416    49.207674   0.01507588  0.015504751            7 
  273000   0.82385147   -8.2630773    49.215186   0.01502295  0.015446757           12 
  274000   0.85190327   -8.2243283    49.293935  0.014992073  0.015389017            7 
  275000   0.81500367   -8.2495188    49.294531  0.014937737  0.015331473           20 
  276000   0.82608711   -8.2697034    49.140496  0.014837106  0.015273895           14 
  277000   0.83333198   -8.2268704     49.31386  0.014835698  0.015216146            9 
  278000   0.81798714   -8.2508828    49.205801   0.01474994  0.015158489           11 
  279000   0.84346183   -8.2863516    49.261663  0.014713758  0.015100586           11 
  280000   0.83508901   -8.2339199    49.455921  0.014719024  0.015042976           18 
  281000   0.81420272   -8.2376376    49.376824  0.014643186  0.014985564            9 
  282000   0.82803492   -8.2658191    49.180707  0.014533306  0.014927936           10 
  283000   0.80955531   -8.2716199    49.176298  0.014480653  0.014870068           16 
  284000   0.81875044   -8.2905153    49.222469  0.014443213  0.014812262            6 
  285000   0.82042943   -8.2748347    49.337153  0.014426068  0.014754743           10 
  286000   0.81973964   -8.3088885    49.244745  0.014348702  0.014697195           16 
  287000   0.81721178   -8.2901472    49.230891  0.014294684    0.0146402           10 
  288000   0.80332289   -8.3121262    49.370106  0.014285331  0.014583491           11 
  289000       0.8039   -8.3018209    49.456674  0.014260863  0.014527071           10 
  290000   0.80089326   -8.3143412    49.447754  0.014209125  0.014471063           14 
  291000   0.81047159   -8.2946153    49.430003  0.014155213  0.014415482           11 
  292000   0.79724629   -8.2865562    49.598133  0.014154718  0.014360104           26 
  293000   0.79765131    -8.334724    49.691117  0.014132855  0.014305126            9 
  294000   0.81493528    -8.348369    49.696755  0.014086382  0.014250897           17 
  295000   0.79210988   -8.3495122    49.644502  0.014023871  0.014196878            7 
  296000   0.80011966   -8.3487623    49.804861  0.014021639  0.014142727           10 
  297000   0.80514097   -8.3465281    49.737134  0.013955425   0.01408908           14 
  298000   0.79935636   -8.3514337    49.663384  0.013887971  0.014035152            8 
  299000   0.79446336   -8.3046268    49.884672  0.013903197  0.013982092            7 
  300000   0.77037626   -8.3296679    49.765327  0.013823702  0.013929228           11 
  301000   0.77549376   -8.3730238    49.655111  0.013747262  0.013876606            9 
  302000    0.7758977    -8.393557    49.664054  0.013704209  0.013824004           19 
  303000   0.77526967   -8.4044243    49.728057  0.013676583  0.013771364           14 
  304000   0.78132726    -8.382484    49.837219  0.013661518  0.013718868           18 
  305000   0.77053289   -8.3631462     49.75771  0.013595003  0.013666161            7 
  306000   0.76977095   -8.3609021    49.872213  0.013581757  0.013614043           41 
  307000   0.78291377   -8.4109798    49.765916  0.013508663  0.013562077           17 
  308000    0.7925708   -8.3836979    49.900574  0.013501238   0.01351026           18 
  309000    0.7891438   -8.3992909    49.856133  0.013445559  0.013458489           13 
  310000   0.75436711     -8.42392    49.746972  0.013372842  0.013406818           29 
  311000   0.77427737   -8.4289188    49.832341  0.013352717  0.013355335           11 
  312000   0.75867215   -8.4008359    49.952171  0.013341926    0.0133043           30 
  313000   0.76829715   -8.4102388    49.819691  0.013264028  0.013253283           35 
  314000   0.77324769   -8.4175879    49.963381  0.013259921  0.013202662           32 
  315000   0.75608394   -8.3929517    49.885113   0.01319712  0.013152297           20 
  316000   0.76847553   -8.3875079    49.974123   0.01317883  0.013101831           35 
  317000   0.76428716   -8.3894805    49.926103  0.013124633  0.013051782           24 
  318000   0.76685241   -8.4171998    49.976105  0.013096464  0.013001625           41 
  319000   0.75236085   -8.4212892    49.852572  0.013023138  0.012951363           24 
  320000   0.76038533   -8.4509984    49.791724  0.012966595  0.012901319           30 
  321000   0.75028188   -8.4634135    49.823076   0.01293434  0.012851502           28 
  322000   0.74104675    -8.463041    49.775261  0.012881796  0.012801605           22 
  323000      0.75221   -8.4783538    49.872414   0.01286698  0.012751949           25 
  324000   0.74957647   -8.4737846    49.714557  0.012786666  0.012702654           19 
  325000   0.75729855   -8.4680273     49.93035  0.012802654  0.012653592           20 
  326000   0.75027511   -8.4728888    50.076269  0.012800682  0.012605078           41 
  327000   0.72909215   -8.4541252     50.02978  0.012749689  0.012556877           31 
  328000   0.74901731   -8.4883557    50.035694  0.012712321  0.012509102           26 
  329000   0.74177756   -8.4857453    50.003289  0.012665473  0.012461369           32 
  330000   0.74875571   -8.4964461    49.886365  0.012597567  0.012413483           25 
  331000   0.73052588   -8.4799364    49.965648  0.012579468  0.012365575           42 
  332000   0.73373245   -8.4925462    49.896757  0.012524286  0.012317963           44 
  333000   0.73648459   -8.4810276    49.937292   0.01249682  0.012270516           72 
  334000   0.73420792   -8.4763764    49.966047  0.012466579  0.012223425           43 
  335000   0.72987743   -8.4978785    50.037599  0.012447164  0.012176689           31 
  336000    0.7417205   -8.5219919    50.040428  0.012410821  0.012130045           49 
  337000   0.73398957   -8.5017957    50.097892  0.012388203  0.012083596           52 
  338000     0.732394   -8.5107797    49.986637  0.012324122  0.012037382           56 
  339000   0.72294594   -8.5133852     49.98659  0.012287756  0.011991202           70 
  340000   0.71138057    -8.509743    49.923082   0.01223605   0.01194514           61 
  341000   0.73132994   -8.5247955    49.985872  0.012215511  0.011899493           58 
  342000    0.7198249   -8.5196354    49.974238  0.012176959  0.011853782           73 
  343000   0.72832567   -8.5244024    49.882559  0.012119183  0.011808071           47 
  344000   0.74833665   -8.5345564    49.953498  0.012101138  0.011762567           75 
  345000   0.70716312   -8.5539717    49.964693  0.012068766  0.011717326           54 
  346000   0.73413888   -8.5691124    49.941041  0.012028189   0.01167236           70 
  347000   0.72653189   -8.5717481    49.948524  0.011995323  0.011627431           53 
  348000   0.70717339   -8.5717253    49.930812  0.011956612  0.011582675           67 
  349000   0.73826144   -8.5652521    49.801296  0.011891427  0.011537882           51 
  350000   0.70267353   -8.5839947    49.986045  0.011901439  0.011493539           59 
  351000   0.71051172   -8.5818072    49.815892  0.011827135  0.011449255           63 
  352000   0.69532366   -8.5639562    49.911482  0.011816165  0.011405193           94 
  353000   0.70379948   -8.5671051    49.916994  0.011783993  0.011361243           79 
  354000   0.69554445   -8.6010927    50.005544   0.01177155  0.011317477           59 
  355000   0.69027618    -8.592477     49.89868  0.011713305  0.011273805           68 
  356000   0.69193679   -8.5969903      49.9279  0.011687243  0.011230402           89 
  357000   0.70017788   -8.5799139    49.986541  0.011668193  0.011186999           76 
  358000   0.69006581   -8.5830017    49.877093  0.011610124  0.011143612           90 
  359000    0.6960889   -8.5997008    49.908701  0.011585121  0.011100517           79 
  360000   0.70527469   -8.6162723    49.759243  0.011518343  0.011057699           73 
  361000   0.68848906   -8.6162153    49.926028  0.011524937   0.01101507           90 
  362000   0.68899001   -8.6239285    49.794287  0.011462773  0.010972708           80 
  363000   0.70266755   -8.6086986    49.888768  0.011452885  0.010930418          113 
  364000   0.67676462   -8.6107831    49.866508  0.011416325  0.010888277          137 
  365000    0.6785222   -8.6206218    49.964687  0.011407463  0.010846419          199 
  366000   0.69744052   -8.6121927    49.912272  0.011364361  0.010804797          114 
  367000    0.6930679   -8.6518012    49.853386  0.011320024  0.010763426           91 
  368000   0.68441421   -8.6655587    49.862664  0.011291364  0.010722259          123 
  369000    0.6898037   -8.6325081     49.99379  0.011290377  0.010681248          109 
  370000    0.6730722   -8.6292246    49.932498  0.011246058  0.010640537          122 
  371000   0.67987258   -8.6339505    49.949864  0.011219646  0.010600072          187 
  372000   0.68386936   -8.6584602    49.957964    0.0111913  0.010559712          125 
  373000   0.67527371   -8.6710834    49.929769  0.011154997  0.010519457          108 
  374000   0.68085914   -8.6640669    50.025347  0.011146468  0.010479312          111 
  375000   0.66320957   -8.6796576     49.85112  0.011078027  0.010439274          106 
  376000   0.65758631   -8.6640971    49.878586  0.011054651  0.010399358          117 
  377000   0.67334556   -8.6728074    49.855006  0.011020116  0.010359562          200 
  378000   0.66295678   -8.6777454    49.937301  0.011009105  0.010320009          160 
  379000   0.66479179   -8.6835401    49.915519  0.010975268  0.010280524          136 
  380000    0.6634582   -8.6822075    49.974696  0.010959363    0.0102413          117 
  381000   0.66547666   -8.6983054    49.897565  0.010913728  0.010202203          111 
  382000   0.66096102   -8.7244164      49.8812  0.010881588  0.010163323          124 
  383000   0.65353272   -8.7006822    49.830178  0.010842075  0.010124725          143 
  384000   0.63679376   -8.6869065    49.993338  0.010849249   0.01008627          209 
  385000   0.65530346   -8.6902425     49.97492  0.010817082  0.010048098          165 
  386000   0.64866443   -8.7295922    49.866324  0.010765614  0.010009999          130 
  387000   0.64985813   -8.7282672    49.841808  0.010732517 0.0099721731          151 
  388000   0.65106377   -8.7205594      49.8959  0.010716473 0.0099344997          140 
  389000   0.65129799   -8.7334681    49.856016   0.01068038 0.0098970532          128 
  390000   0.64945233   -8.7226183    49.926839  0.010668128 0.0098597791          112 
  391000   0.63631248   -8.7271408    49.799527   0.01061371  0.009822451          138 
  392000   0.64273904   -8.7404699    49.830274   0.01059317 0.0097853075          256 
  393000   0.61722522   -8.7258582    49.845358  0.010569414 0.0097483157          132 
  394000    0.6401627   -8.7555001    49.913234  0.010556945 0.0097116074          146 
  395000   0.63536385   -8.7485989     49.83112  0.010512894   0.00967497          156 
  396000   0.63199266   -8.7553417    49.887306  0.010498171 0.0096385123          148 
  397000   0.63534025   -8.7850336    49.779651  0.010449129 0.0096021198          140 
  398000    0.6173296   -8.7729588    49.814096  0.010430087  0.009565943          233 
  399000     0.637873    -8.758473    49.805923  0.010402239 0.0095299531          136 
  400000   0.62102897   -8.7741446      49.8086  0.010376792 0.0094941343          140 
  401000   0.62732433   -8.7814943    49.671293   0.01032238 0.0094583892          159 
  402000   0.62666982   -8.7797731    49.842462  0.010332185 0.0094228288          143 
  403000   0.61531239   -8.8045244    49.813208  0.010300498 0.0093874172          190 
  404000   0.62347632   -8.7848759     49.71269  0.010254268 0.0093521054          254 
  405000    0.6164437   -8.7867154     49.68081  0.010222389 0.0093168253          170 
  406000   0.62589319   -8.8049754    49.729396  0.010207183 0.0092816616          287 
  407000   0.61544048   -8.7864283    49.756982  0.010187752 0.0092468187          282 
  408000   0.62480217   -8.8028653    49.695055  0.010150134 0.0092120078          249 
  409000   0.62605862   -8.8132069    49.753636  0.010137253 0.0091773399          142 
  410000   0.60087086   -8.7831352    49.699281   0.01010148  0.009142865          193 
  411000    0.6196938   -8.7986478    49.677256  0.010072436 0.0091085178          154 
  412000   0.61149798   -8.8087482    49.742014  0.010061087 0.0090743779          180 
  413000   0.59702476   -8.7983711     49.62479  0.010013073 0.0090402746          233 
  414000   0.60039021    -8.825429    49.552804 0.0099743969 0.0090063985          231 
  415000   0.61917998   -8.8280681    49.597312 0.0099592996 0.0089725692          178 
  416000   0.59980611   -8.8400072     49.67043 0.0099500061 0.0089389663          160 
  417000   0.58945582   -8.8260176     49.65417 0.0099228956 0.0089055113          149 
  418000   0.60446632    -8.822253    49.569799 0.0098823362 0.0088721868          280 
  419000   0.59800194   -8.8347952    49.547611  0.009854338  0.008838975          158 
  420000   0.59211295     -8.83729    49.574039 0.0098361189 0.0088059153          143 
  421000   0.59418639   -8.8334291    49.548824  0.009807764 0.0087730091          291 
  422000   0.58040835    -8.811271    49.595163 0.0097936735 0.0087402796          160 
  423000   0.59367433   -8.8361944    49.645547 0.0097804466 0.0087076812          263 
  424000   0.59403505   -8.8385035    49.651802 0.0097586088 0.0086753254          171 
  425000   0.59414205   -8.8527589    49.692435 0.0097436147 0.0086431568          148 
  426000   0.57804461   -8.8813715    49.569228 0.0096966408 0.0086110567          151 
  427000   0.58212776   -8.8463265    49.562435 0.0096726063  0.008579107          192 
  428000   0.58990249    -8.880638    49.538963 0.0096454367 0.0085472993          191 
  429000   0.58322788    -8.851683    49.471446 0.0096098381 0.0085156743          293 
  430000   0.57704168    -8.868412    49.578697 0.0096082746 0.0084841744          146 
  431000   0.57630633   -8.8714988    49.459354 0.0095629068 0.0084527449          191 
  432000   0.57945231   -8.8631447    49.593462 0.0095666401 0.0084214092          155 
  433000   0.57362966   -8.8663463    49.572605 0.0095405321 0.0083903027          341 
  434000   0.57725148   -8.9091803    49.460998 0.0094971194    0.0083593          181 
  435000   0.56608278   -8.8786975    49.541487 0.0094907062 0.0083284145          164 
  436000   0.57927493   -8.8802444    49.533812 0.0094674718 0.0082977022          157 
  437000   0.57178936   -8.8635599    49.480724 0.0094356834 0.0082671236          326 
  438000   0.56635411    -8.885232    49.478139 0.0094136489 0.0082367309          293 
  439000   0.57509867     -8.88048     49.51343 0.0093989048 0.0082064633          164 
  440000     0.566415   -8.9042165    49.512087 0.0093772892 0.0081763714          171 
  441000   0.55537948   -8.8724155    49.531927 0.0093597746 0.0081464076          181 
  442000   0.55800866   -8.9055853    49.517098 0.0093358028 0.0081165254          286 
  443000   0.55070943   -8.8893334    49.433648 0.0092990308 0.0080868219          170 
  444000   0.55618894   -8.9123045    49.491909 0.0092890219 0.0080573254          190 
  445000   0.56237034   -8.9230811    49.360218 0.0092434864 0.0080278549          279 
  446000   0.56678261   -8.9035659    49.489825 0.0092469778 0.0079985289          302 
  447000    0.5484367   -8.9141768    49.445268 0.0092179843 0.0079693739          305 
  448000   0.55003122   -8.9340608    49.415488  0.009191869 0.0079402811          288 
  449000   0.55405671    -8.901874     49.49544 0.0091862361 0.0079113795          186 
  450000   0.55790682   -8.9342491    49.379491 0.0091443502 0.0078825728          179 
  451000   0.54104349   -8.9289807    49.424859 0.0091324573 0.0078539771          194 
  452000   0.54444842   -8.9454051    49.342784  0.009097121 0.0078254329          155 
  453000   0.54498276   -8.9445924    49.459233 0.0090984609 0.0077970696          282 
  454000   0.54378159   -8.9321395    49.381433 0.0090641397  0.007768845          298 
  455000   0.54482567   -8.9405263    49.412587 0.0090499244 0.0077406995          271 
  456000   0.54361701    -8.925906    49.371162 0.0090225077 0.0077126945          387 
  457000   0.54044597    -8.936682    49.294194 0.0089887298 0.0076847591          156 
  458000   0.53200095   -8.9398675    49.301034 0.0089703483 0.0076569946          200 
  459000   0.52994714   -8.9457855    49.294706 0.0089496562 0.0076293463          204 
  460000   0.53180848     -8.96311    49.283243 0.0089281238 0.0076017976          203 
  461000   0.54033733   -8.9399024    49.349897 0.0089208057 0.0075743744          149 
  462000   0.52365946   -8.9792657    49.408921 0.0089121431 0.0075470765          276 
  463000   0.53536086   -8.9486765    49.297187 0.0088727838 0.0075199212          174 
  464000   0.52050822   -8.9666181    49.249514 0.0088450995 0.0074928086          288 
  465000   0.52320196   -8.9603904    49.272496 0.0088301964 0.0074658696          282 
  466000   0.53307584   -8.9529135    49.293843 0.0088150649 0.0074390349          169 
  467000   0.52636243    -8.969681    49.240993 0.0087867581 0.0074123431          188 
  468000    0.5172873   -8.9728838    49.343399 0.0087862177 0.0073857762          183 
  469000   0.50266364   -8.9562578    49.296759 0.0087591967 0.0073593793          166 
  470000   0.51359536   -8.9924883    49.322607 0.0087451431 0.0073331072          188 
  471000   0.51961552   -8.9676765    49.294304 0.0087215683  0.007306952          149 
  472000   0.50757946   -8.9809533    49.299994  0.008704095 0.0072809554          296 
  473000   0.51173978   -8.9988247    49.286075 0.0086832408 0.0072550321          156 
  474000   0.50374836   -9.0010651    49.272281 0.0086624966 0.0072292215          179 
  475000   0.50822752   -8.9883278      49.2636 0.0086427368 0.0072035206          310 
  476000   0.51278543    -8.991934    49.243808 0.0086211148 0.0071779477          376 
  477000   0.50915227   -8.9988154    49.230258 0.0086006739  0.007152475          262 
  478000   0.50750884   -9.0003328    49.210744 0.0085792789 0.0071271661          406 
  479000   0.49273008    -9.003409    49.305483 0.0085778502 0.0071019483          184 
  480000    0.5061452   -8.9975234    49.189393 0.0085398252 0.0070768303          308 
  481000   0.50489551    -9.006692    49.257696 0.0085339044 0.0070518158          140 
  482000   0.50318412   -9.0081339    49.257988 0.0085162497 0.0070269138          194 
  483000   0.49359165   -9.0167075     49.30997 0.0085075862 0.0070021743          215 
  484000   0.49420696   -9.0385963    49.088987 0.0084519605 0.0069775023          299 
  485000   0.49281329   -9.0303313    49.184604 0.0084509629 0.0069529349          293 
  486000   0.49757084   -9.0188171    49.083812 0.0084162915 0.0069285019          182 
  487000   0.48179438    -9.020531    49.243674 0.0084263645 0.0069041937          467 
  488000   0.49123878   -9.0349864    49.193395 0.0084005114 0.0068799973          167 
  489000   0.48062193   -9.0252251    49.174474  0.008380108 0.0068558665          292 
  490000   0.48053433    -9.049264    49.111237 0.0083522511 0.0068319294          167 
  491000    0.4824979   -9.0350003    49.221679 0.0083539848 0.0068080955          176 
  492000   0.48264199   -9.0433826    49.199295 0.0083332139 0.0067843793          440 
  493000   0.48278894   -9.0296637    49.082207 0.0082965191 0.0067607291          314 
  494000   0.48194027   -9.0422169    49.294095 0.0083154681 0.0067372164          194 
  495000   0.47180493   -9.0354872    49.128266 0.0082707519 0.0067138299          175 
  496000   0.48162794   -9.0424837    49.174186 0.0082617919 0.0066904828          220 
  497000   0.46946104    -9.053866    49.103416 0.0082333026 0.0066672312          402 
  498000   0.46205127   -9.0589019     49.02221 0.0082031811 0.0066440779          149 
  499000   0.47605453   -9.0554903    49.038064 0.0081893894 0.0066210096          268 
  500000   0.47309094   -9.0663982     49.10802 0.0081846699  0.006598037          271 
  501000   0.46824583   -9.0819689    49.154462 0.0081760581 0.0065752328          168 
  502000   0.46973137   -9.0684844    49.078262 0.0081471218 0.0065525008          298 
  503000   0.46307548   -9.0552574    49.113847 0.0081368202 0.0065298692          289 
  504000   0.47136491   -9.0854652    49.020244 0.0081051991 0.0065073239          314 
  505000   0.45377716   -9.0670875    49.081053 0.0080991837  0.006484892          291 
  506000   0.45242668   -9.0678186    49.057474 0.0080792941 0.0064625634          286 
  507000   0.45346219   -9.0709656    49.174916 0.0080826621  0.006440363          162 
  508000   0.44787131   -9.0690762    49.061043 0.0080480713 0.0064182426          300 
  509000   0.46843048   -9.0767827    49.056323 0.0080314871 0.0063962378          180 
  510000   0.44893178   -9.0696304     49.06561 0.0080172565 0.0063742966          283 
  511000   0.45060847   -9.0790128    49.030906 0.0079959077  0.006352461          447 
  512000   0.45162293   -9.0990055    49.140967 0.0079982043 0.0063307402          182 
Loop time of 1288.35 on 48 procs for 500000 steps with 4000 atoms

Performance: 67062.387 tau/day, 388.093 timesteps/s
99.4% CPU use with 48 MPI tasks x no OpenMP threads

MPI task timing breakdown:
Section |  min time  |  avg time  |  max time  |%varavg| %total
---------------------------------------------------------------
Pair    | 90.613     | 96.085     | 101.22     |  31.2 |  7.46
Neigh   | 8.6936     | 9.0046     | 9.8239     |   7.5 |  0.70
Comm    | 81.355     | 87.71      | 93.966     |  35.4 |  6.81
Output  | 0.97493    | 0.97563    | 0.99912    |   0.3 |  0.08
Modify  | 1078.3     | 1081.7     | 1086.9     |   6.6 | 83.96
Other   |            | 12.91      |            |       |  1.00

Nlocal:        83.3333 ave          90 max          74 min
Histogram: 2 0 2 5 3 11 13 6 3 3
Nghost:        2335.62 ave        2355 max        2323 min
Histogram: 5 6 4 11 5 9 3 3 0 2
Neighs:        15907.0 ave       17305 max       13578 min
Histogram: 1 2 2 1 8 4 12 7 6 5
FullNghs:      31813.8 ave       34673 max       27989 min
Histogram: 2 0 3 4 3 15 10 6 3 2

Total # of neighbors = 1527060
Ave neighs/atom = 381.76500
Neighbor list builds = 26641
Dangerous builds = 0

#clear
#
#next RN
#
#jump SELF
Total wall time: 0:21:31
