
units lj                  # Use reduced LJ style units
atom_style atomic         # Uncharged point particles
atom_modify map hash      # Needed for indexing of clusters etc
                          # Used to be able to find where atoms are in relation to each other.

lattice fcc 1.0 spacing 1 1 1
Lattice spacing in x,y,z = 1.5874011 1.5874011 1.5874011
region box block 0 10 0 10 0 10 units lattice
create_box 2 box
Created orthogonal box = (0.0000000 0.0000000 0.0000000) to (15.874011 15.874011 15.874011)
  3 by 4 by 4 MPI processor grid
create_atoms 1 box
Created 4000 atoms
  using lattice units in orthogonal box = (0.0000000 0.0000000 0.0000000) to (15.874011 15.874011 15.874011)
  create_atoms CPU = 0.002 seconds
set type 1 type/fraction 2 0.87 78393
Setting atom values ...
  3472 settings made for type/fraction
mass 1 1.0
mass 2 1.0
pair_style lj/cut  3.5
pair_modify tail  yes
pair_coeff 1  1  1.0  1.0   # Intearaction between 1 and 1 set with epsilon = 1 and sigma = 1
pair_coeff 1  2  1.5  0.8
pair_coeff 2  2  0.5  0.88

write_data data.0
System init for write_data ...
Neighbor list info ...
  update every 1 steps, delay 10 steps, check yes
  max neighbors/atom: 2000, page size: 100000
  master list distance cutoff = 3.8
  ghost atom cutoff = 3.8
  binsize = 1.9, bins = 9 9 9
  1 neighbor lists, perpetual/occasional/extra = 1 0 0
  (1) pair lj/cut, perpetual
      attributes: half, newton on
      pair build: half/bin/atomonly/newton
      stencil: half/bin/3d
      bin: standard
WARNING: Not all mixed pair coeffs generated from mixing. Use write_data with 'pair ij' option to store all pair coeffs. (../write_data.cpp:312)


#############################
#   M E L T   S Y S T E M   #
#############################

velocity all create 2.4 8172548 mom yes dist gaussian # Assign velocities
                                                    # Temperature 2.4, random number seed, zero linear momentum
                                                                                # Gaussian distribution

timestep 0.002   # simulation timestep
thermo 1000       # output thermodynamic data every 1000 steps bf 100

# Define a fix  in this case with index 1 applied to all
# particles in the simulation. This fix is for simulations
# in the anisotropic NPT ensemble. Note that we use the MTK
# correction.
fix 1 all npt temp 2.4 2.4 0.1 iso 5.68 5.68 0.5 mtk yes tchain 5 pchain 5 # Use NPT ensemble
                                                                         # Set temperature and pressure and damping
                                                                         # Numbers of thermostats in chain and in barostat
run 10000          # run for 10000 steps
Per MPI rank memory allocation (min/avg/max) = 3.642 | 3.644 | 3.648 Mbytes
Step Temp E_pair E_mol TotEng Press Volume 
       0          2.4   -3.3406884            0   0.25841159    -2.808294         4000 
    1000     2.366426   -2.4991913            0    1.0495603    5.4563746    3943.9325 
    2000    2.3838878   -2.4531326            0    1.1218052    5.5379871    3971.1732 
    3000    2.3891768    -2.451755            0    1.1311142    5.7475191    3946.2817 
    4000    2.3787619   -2.5055024            0    1.0617483    5.5534944    3939.3292 
    5000    2.3973306   -2.4648809            0     1.130216    5.6392297    3940.3477 
    6000    2.4043229   -2.5094247            0     1.096158     5.691505     3926.672 
    7000    2.4381436   -2.4773908            0    1.1789103    5.7037547    3924.6209 
    8000    2.4484385    -2.470099            0    1.2016405    5.8562215    3915.8045 
    9000    2.3838061   -2.4718094            0    1.1030058     5.785682    3916.0762 
   10000    2.4208938   -2.4570316            0    1.1734012    5.7853888    3942.9771 
Loop time of 2.52187 on 48 procs for 10000 steps with 4000 atoms

Performance: 685206.563 tau/day, 3965.316 timesteps/s
99.7% CPU use with 48 MPI tasks x no OpenMP threads

MPI task timing breakdown:
Section |  min time  |  avg time  |  max time  |%varavg| %total
---------------------------------------------------------------
Pair    | 1.0697     | 1.1654     | 1.3246     |   3.9 | 46.21
Neigh   | 0.20662    | 0.21613    | 0.24095    |   1.2 |  8.57
Comm    | 0.73622    | 0.87144    | 0.95234    |   4.8 | 34.56
Output  | 0.00023821 | 0.00024314 | 0.00031196 |   0.0 |  0.01
Modify  | 0.20437    | 0.25356    | 0.29587    |   5.7 | 10.05
Other   |            | 0.0151     |            |       |  0.60

Nlocal:        83.3333 ave          93 max          74 min
Histogram: 3 3 5 7 10 4 6 4 3 3
Nghost:        1653.40 ave        1683 max        1617 min
Histogram: 2 1 6 5 6 5 10 5 2 6
Neighs:        9680.38 ave       11240 max        8166 min
Histogram: 2 4 5 5 10 8 4 4 5 1

Total # of neighbors = 464658
Ave neighs/atom = 116.16450
Neighbor list builds = 906
Dangerous builds = 199

# Equilibrate just above the melting temperature to avoid step fn in T

fix 1 all npt temp 1.25 1.25 0.1 iso 5.68 5.68 0.5 mtk yes tchain 5 pchain 5
run 2000
Per MPI rank memory allocation (min/avg/max) = 3.643 | 3.645 | 3.649 Mbytes
Step Temp E_pair E_mol TotEng Press Volume 
   10000    2.4208938   -2.4570316            0    1.1734012    5.7853888    3942.9771 
   11000    1.2356094   -3.7151601            0   -1.8622094    5.3980693    3044.6613 
   12000    1.2671018   -3.7140291            0   -1.8138516     5.688131     3023.432 
Loop time of 0.629124 on 48 procs for 2000 steps with 4000 atoms

Performance: 549335.199 tau/day, 3179.023 timesteps/s
99.6% CPU use with 48 MPI tasks x no OpenMP threads

MPI task timing breakdown:
Section |  min time  |  avg time  |  max time  |%varavg| %total
---------------------------------------------------------------
Pair    | 0.2675     | 0.29613    | 0.35585    |   2.7 | 47.07
Neigh   | 0.039617   | 0.041966   | 0.048641   |   0.7 |  6.67
Comm    | 0.18079    | 0.24137    | 0.27083    |   3.2 | 38.37
Output  | 5.0802e-05 | 5.2899e-05 | 6.9292e-05 |   0.0 |  0.01
Modify  | 0.039058   | 0.04488    | 0.049441   |   1.3 |  7.13
Other   |            | 0.004727   |            |       |  0.75

Nlocal:        83.3333 ave          91 max          73 min
Histogram: 1 0 1 7 7 8 13 4 5 2
Nghost:        1977.15 ave        1998 max        1956 min
Histogram: 3 5 6 4 6 5 6 6 3 4
Neighs:        12650.0 ave       13974 max       11509 min
Histogram: 5 6 5 4 4 10 2 6 2 4

Total # of neighbors = 607198
Ave neighs/atom = 151.79950
Neighbor list builds = 144
Dangerous builds = 13

#############################
# L I N E A R  Q U E N C H  #
#############################

# Define solid atoms. This closely follows ten Wolde  Ruiz-Montero and Frenkel  Faraday Discuss  1996  104  93-110
# Compute components of the per-atom q6 vector
compute q6 all orientorder/atom degrees 1 6 components 6 nnn NULL cutoff 1.3 # compute the Q6 parameter.
                                                                             # Use all neighbours within 1.3 unit cell.

# get number of connections
compute coord_number all coord/atom orientorder q6 0.5

# An atom is solid if it has 8 or more connections (of a possible 14)
variable is_solid atom c_coord_number>=8
group solid dynamic all var is_solid    # Must be dynamic to update
dynamic group solid defined

# do clustering
compute cluster solid cluster/atom 1.3 # Create a cluster where all atoms within are solid and max 1.3 units from another member

# define chunks one chunk per cluster
compute clus_chunks solid chunk/atom c_cluster nchunk every compress yes  # Says which atoms are in which chunk

# count the size of each chunk
compute size_chunks solid property/chunk clus_chunks count


# Find the maximum entry in the vector of chunk sizes
variable max_n equal max(c_size_chunks)


# Thermo style which includes this variable
# thermo_style custom step temp pe vol v_max_n

thermo ${N}  # Print the thermo information every 100 steps
thermo 1000  

# Reset the npt fix at a lower temperature (below freezing)
fix 1  all npt temp  ${temp} ${temp}  0.1  iso  5.68  5.68  0.5  mtk yes tchain  5  pchain  5
fix 1  all npt temp  0.45 ${temp}  0.1  iso  5.68  5.68  0.5  mtk yes tchain  5  pchain  5
fix 1  all npt temp  0.45 0.45  0.1  iso  5.68  5.68  0.5  mtk yes tchain  5  pchain  5

dump dmp2 all dcd ${N} traj.dcd
dump dmp2 all dcd 1000 traj.dcd


compute msd all msd com yes
variable twopoint equal c_msd[4]/6/(step*dt+1.0e-6)
fix 9 all vector 10 c_msd[4]
variable fit equal slope(f_9)/6/(10*dt)
thermo_style custom step temp pe c_msd[4] v_twopoint v_fit v_max_n

fix 1 all npt temp 1.25 ${temp} 0.1 iso 5.68 5.68 0.5 mtk yes tchain 5 pchain 5
fix 1 all npt temp 1.25 0.45 0.1 iso 5.68 5.68 0.5 mtk yes tchain 5 pchain 5
run 500000 # 5000000  # Run for this many steps
Neighbor list info ...
  update every 1 steps, delay 10 steps, check yes
  max neighbors/atom: 2000, page size: 100000
  master list distance cutoff = 3.8
  ghost atom cutoff = 3.8
  binsize = 1.9, bins = 8 8 8
  4 neighbor lists, perpetual/occasional/extra = 1 3 0
  (1) pair lj/cut, perpetual
      attributes: half, newton on
      pair build: half/bin/atomonly/newton
      stencil: half/bin/3d
      bin: standard
  (2) compute orientorder/atom, occasional
      attributes: full, newton on
      pair build: full/bin/atomonly
      stencil: full/bin/3d
      bin: standard
  (3) compute coord/atom, occasional
      attributes: full, newton on
      pair build: full/bin/atomonly
      stencil: full/bin/3d
      bin: standard
  (4) compute cluster/atom, occasional
      attributes: full, newton on
      pair build: full/bin/atomonly
      stencil: full/bin/3d
      bin: standard
Per MPI rank memory allocation (min/avg/max) = 9.827 | 9.832 | 9.837 Mbytes
Step Temp PotEng c_msd[4] v_twopoint v_fit v_max_n 
   12000    1.2671018   -3.7140291 1.6822459e-30 1.1682263e-32 8.3333333e+20            2 
   13000    1.2720313   -3.6978927   0.91787592 0.0058838198   0.07775434            3 
   14000    1.2395072   -3.6944968    1.9108351  0.011374018  0.080571419            3 
   15000    1.2275582   -3.7203219    2.9651116  0.016472842  0.082446729            2 
   16000      1.25288   -3.7013261      3.94862  0.020565729  0.083560352            3 
   17000    1.2652752    -3.704518    4.8453561  0.023751745  0.082607829            2 
   18000    1.2492598   -3.6993147    5.8005599  0.026854443  0.081631872            2 
   19000    1.2276261   -3.6925557    6.8375362  0.029989193  0.081315989            2 
   20000    1.2173346   -3.6783148    7.7919603    0.0324665  0.081140917            2 
   21000    1.2477055   -3.6952777    8.7131775  0.034576101  0.081160139            1 
   22000    1.2145294   -3.7324541    9.5669443  0.036238425  0.080787809            2 
   23000    1.2409952   -3.6969567    10.447258  0.037852385  0.080152419            3 
   24000    1.2376415   -3.7209878    11.192682  0.038863477   0.07925776            2 
   25000    1.2208817   -3.6953704    12.238847  0.040796154  0.078613853            3 
   26000     1.238453   -3.7002733    13.398865  0.042945079  0.078475824            1 
   27000    1.2253898   -3.7492589    14.453677  0.044610114   0.07877498            3 
   28000     1.206865   -3.7313145    15.277113  0.045467597  0.078912903            3 
   29000    1.2166745   -3.7514182    16.155831    0.0464248  0.078944463            1 
   30000    1.2224614   -3.7080606    16.906769  0.046963247  0.078843267            1 
   31000    1.1935631   -3.7126156    17.841323  0.047960544   0.07859083            2 
   32000    1.2177415   -3.7250038    18.746592   0.04881925   0.07832596            1 
   33000    1.2398281   -3.7371045    19.586752  0.049461493  0.078022005            2 
   34000    1.2285687   -3.7279311     20.39204   0.04998049  0.077740289            3 
   35000    1.2128516   -3.7483589    21.351752  0.050837504  0.077551619            2 
   36000    1.2442897   -3.7553718    22.378712  0.051802573  0.077420925            2 
   37000    1.2182391   -3.7609957    23.282322  0.052437661  0.077377213            2 
   38000     1.232149   -3.7386242    24.334291  0.053364671  0.077328313            3 
   39000     1.218554   -3.7541171    25.088404    0.0536077   0.07724004            3 
   40000    1.2160405   -3.7542747     26.09679  0.054368311  0.077095139            1 
   41000    1.1973438   -3.7691515    26.903858  0.054682638  0.077022323            1 
   42000    1.2126226   -3.7384082    27.742851  0.055045339  0.076913672            2 
   43000    1.2005952   -3.7409495    28.465596  0.055165884  0.076790928            2 
   44000    1.1810433    -3.787798     29.57494  0.056013144  0.076660648            1 
   45000    1.1991686   -3.7458907     30.31728   0.05614311  0.076541564            2 
   46000    1.1636945    -3.718912    31.197058  0.056516409  0.076383362            6 
   47000    1.1878449   -3.7545296    31.921192  0.056597858  0.076194857            2 
   48000     1.187455   -3.7571231    32.808314  0.056958877   0.07602631            1 
   49000    1.2170495   -3.7949778    33.499481  0.056971905  0.075832172            2 
   50000    1.1729591    -3.778426    34.272813  0.057121354  0.075632124            1 
   51000     1.190033   -3.7931089    35.031425  0.057240889  0.075428873            4 
   52000     1.192034   -3.7867738    36.159969  0.057948668  0.075226815            2 
   53000    1.2132561    -3.784687    36.819075  0.057891626  0.075074814            4 
   54000    1.2027687   -3.7787775    37.885667  0.058465534  0.074941026            3 
   55000    1.1670032   -3.7979145    38.765365    0.0587354  0.074833922            2 
   56000    1.1926743   -3.8149722    39.441229  0.058692305  0.074686789            3 
   57000     1.171495   -3.7669486    40.516088  0.059234047   0.07456868            3 
   58000    1.1648366   -3.7595402    41.573278  0.059731721   0.07451758            2 
   59000    1.1565346   -3.7800518    42.424121  0.059921074  0.074486785            1 
   60000    1.1440887   -3.8089183    43.392641  0.060267556  0.074454627            1 
   61000    1.1906544   -3.7970218    44.417091  0.060679086  0.074431113            1 
   62000     1.160504   -3.8260436    45.031086  0.060525652  0.074410131            2 
   63000    1.1639303   -3.7807959    46.177327   0.06108112  0.074386868            3 
   64000    1.1776705   -3.8456751    47.104779  0.061334348   0.07438582            1 
   65000    1.1632512   -3.8144141     47.84748  0.061342923  0.074363318            2 
   66000     1.153452   -3.8308867    48.681724  0.061466822  0.074341661            4 
   67000    1.1698363   -3.7870075    49.515642  0.061586619  0.074312862            1 
   68000    1.1772143   -3.8227002    50.533107  0.061927827   0.07428878            2 
   69000    1.1787388   -3.8137688    51.102984   0.06171858  0.074249703            2 
   70000    1.1576571   -3.8293302    52.255511  0.062208941  0.074222254            2 
   71000    1.1383981   -3.8326897    52.831679  0.062009012  0.074201954            5 
   72000    1.1574445   -3.8209055     53.75011  0.062210775  0.074168126            2 
   73000    1.1333391    -3.852338    54.548875  0.062270405  0.074138006            1 
   74000    1.1388026   -3.8191769    55.591561  0.062603109  0.074104467            4 
   75000    1.1539962   -3.8478151    56.317716  0.062575239  0.074067611            3 
   76000    1.1541083   -3.8246452     57.00143  0.062501568  0.074014499            2 
   77000    1.1150927   -3.8490349    57.852385  0.062610805  0.073958896            4 
   78000    1.1554794   -3.8547508    58.794574  0.062814716  0.073894447            3 
   79000    1.1324819   -3.8367915    59.676686  0.062950091   0.07383708            2 
   80000    1.1336674   -3.8722905    60.068254  0.062571097  0.073771342            2 
   81000    1.1231361   -3.8345333    61.113687  0.062874164  0.073692301            4 
   82000    1.1341163    -3.870337    61.537403  0.062538011  0.073601593            1 
   83000    1.1184268   -3.8362014    62.647746  0.062899343  0.073495469            2 
   84000    1.1345078   -3.8549813    63.296723  0.062794367  0.073381573            2 
   85000    1.1150995   -3.8448856     64.08507    0.0628285  0.073277685            4 
   86000    1.1296144    -3.884817    64.836599  0.062826161   0.07317847            2 
   87000     1.119968   -3.8601707    65.897011  0.063119742  0.073079004            3 
   88000    1.1430837   -3.8806918    66.214853  0.062703459  0.072988133            4 
   89000    1.1169707   -3.8562011     67.20993  0.062930645  0.072892179            2 
   90000    1.1234502    -3.857213    67.774696  0.062754348   0.07277432            5 
   91000     1.108683   -3.8535426    68.472689  0.062703927   0.07265163            2 
   92000    1.1068912   -3.8089376    69.347088  0.062814391  0.072532981            3 
   93000    1.1579255   -3.8663109    70.078693  0.062794528  0.072401158            1 
   94000    1.1185469   -3.8768472    70.524474  0.062521696  0.072263781            5 
   95000    1.1126926   -3.8573112    71.580684  0.062790074  0.072134104            1 
   96000    1.1429341   -3.8946614    72.249432   0.06271652  0.072016314            2 
   97000    1.1303741   -3.8963729    73.230977  0.062913211  0.071896307            4 
   98000    1.1055747   -3.8788734    74.201537  0.063096545  0.071775138            1 
   99000    1.1190279   -3.8947431    74.579953  0.062777738  0.071656619            2 
  100000    1.1231259   -3.8957493     75.32803  0.062773358  0.071545881            2 
  101000    1.1367923   -3.9184157     75.99583   0.06270283  0.071433761            2 
  102000     1.114921   -3.8722136    76.952097   0.06286936  0.071337154            1 
  103000    1.1034338   -3.8793357    77.390532  0.062613698  0.071222303            2 
  104000    1.1014646   -3.8856141     78.14957  0.062619847  0.071097631            5 
  105000     1.106875   -3.8835036    79.014609  0.062710007  0.070977443            1 
  106000    1.1053623   -3.8970185    79.280467  0.062327411  0.070845605            2 
  107000    1.1298363   -3.8813494    80.178414  0.062444248  0.070715892            3 
  108000    1.0901352   -3.8982914    80.795485  0.062342195  0.070577202            4 
  109000    1.0922293   -3.9420202    80.889605  0.061842205   0.07043408            2 
  110000    1.1145401   -3.9317031    81.809454  0.061976859  0.070282951            4 
  111000    1.0947549   -3.9047347    82.353184  0.061826715  0.070134971            2 
  112000    1.0726934   -3.9374447      82.8015  0.061608258  0.069980521            3 
  113000    1.0890916    -3.959691    83.722801  0.061742478  0.069824755            2 
  114000     1.096926   -3.9379947    83.880978  0.061316504  0.069664097            2 
  115000    1.0806282   -3.9354287    84.952428   0.06155973  0.069507961            2 
  116000    1.1050503   -3.9333028    85.679606  0.061551441  0.069353312            2 
  117000    1.1042315   -3.9633949    85.554061  0.060935941  0.069192645            2 
  118000    1.1048284   -3.9334151    86.955935  0.061409558  0.069027826            2 
  119000    1.0850304    -3.894106    87.345344  0.061166207  0.068861495            4 
  120000    1.0568279   -3.9705754    87.788642  0.060964334  0.068695947            2 
  121000    1.0825798   -3.9432626    88.559733  0.060991551  0.068539237            2 
  122000    1.0642165   -3.9433902    89.354698   0.06103463  0.068381144            4 
  123000    1.0910227    -3.955244    90.019311  0.060988693  0.068235584            3 
  124000    1.0633049   -3.9441857    90.877238  0.061073413  0.068089313            3 
  125000    1.0809359   -3.9480158    91.388744  0.060925829  0.067950104            2 
  126000    1.0486209   -3.9728038    91.969862  0.060826628  0.067809828            3 
  127000    1.0513585   -3.9376258    93.138206  0.061114308  0.067666321            4 
  128000    1.0627999   -3.9362842    93.682304  0.060991083  0.067534776            5 
  129000     1.083068    -3.958569    94.540211  0.061072488  0.067404643            2 
  130000    1.0346212     -3.97063    94.814585   0.06077858  0.067273229            4 
  131000    1.0641829   -3.9352873    96.074269  0.061115947  0.067150269            5 
  132000    1.0495743   -3.9773233    96.633337  0.061005894  0.067021021            3 
  133000    1.0418325   -3.9790951    97.025636  0.060793005  0.066895358            3 
  134000    1.0613165   -4.0046614    97.533078  0.060654899  0.066776137            2 
  135000    1.0380497   -3.9771805    98.032428  0.060513844  0.066648753            8 
  136000    1.0271731   -3.9944185    98.512999  0.060363357  0.066521609            3 
  137000    1.0451612   -3.9856773    99.080388  0.060267876  0.066390219            3 
  138000    1.0206232   -3.9744485    99.858384  0.060300956  0.066252484            1 
  139000    1.0353654   -3.9595583    100.78876  0.060424915  0.066126794            4 
  140000    1.0675605   -3.9724492    100.71927  0.059951948  0.066001539            2 
  141000    1.0712037   -3.9400492    101.68728  0.060098865  0.065867904            4 
  142000    1.0389446   -3.9701481    102.53571   0.06017354  0.065736703            3 
  143000    1.0529846   -3.9880046    102.88172  0.059954384   0.06560175            1 
  144000    1.0172176   -4.0145844    102.85173  0.059520679  0.065464616            3 
  145000    1.0347942    -3.996465    103.87884  0.059700484   0.06533086            2 
  146000    1.0290435   -4.0072254    104.75763  0.059793165  0.065205969            2 
  147000    1.0218393   -3.9845564    105.21903  0.059647975  0.065080069            2 
  148000    1.0438199   -4.0006615    105.85172  0.059601193  0.064954072            4 
  149000    1.0007818   -3.9931079    106.29313  0.059448061  0.064822189            4 
  150000    1.0262314   -4.0059119    107.08282  0.059490453  0.064691252            1 
  151000    1.0375908   -4.0056044    107.22319  0.059173944  0.064562191            3 
  152000      1.02339   -3.9820453    108.30819  0.059379488  0.064432311            6 
  153000    1.0256329   -4.0263326    107.92391  0.058782086   0.06430007            2 
  154000    1.0303017    -4.014239    109.15036  0.059064049  0.064170574            1 
  155000    1.0063999   -4.0450537    109.57334  0.058910398  0.064043479            3 
  156000    1.0084159    -4.032365    110.28987  0.058915526  0.063917212            4 
  157000    1.0286769   -4.0584931    110.40978  0.058603919   0.06379175            4 
  158000    1.0297632   -4.0246403    111.50851  0.058812503  0.063666665            3 
  159000    1.0130577   -4.0541469    111.66407  0.058524145  0.063540752            2 
  160000    1.0079851    -4.032417    112.86934  0.058786115  0.063422096            2 
  161000    1.0020884   -4.0574219    113.20773  0.058596132  0.063304978            3 
  162000    1.0238727   -4.0727684    113.87221  0.058576238  0.063184785            3 
  163000   0.99506885   -4.0338854    114.06062  0.058313198   0.06306019            3 
  164000    1.0255708   -4.0667157    114.29993  0.058079235  0.062931956            4 
  165000    1.0064787   -4.0637138    114.99773  0.058079663  0.062808448            4 
  166000   0.98499074   -4.0205694    115.80279  0.058133932  0.062682356            2 
  167000   0.98691295   -4.0701542     116.2936  0.058030737  0.062559524            2 
  168000   0.99972545    -4.079878    116.56808  0.057821468  0.062431359            3 
  169000     1.008475   -4.0832168    116.97782  0.057681368  0.062300083            3 
  170000   0.97468871   -4.0847498    117.40104   0.05754953  0.062170904            5 
  171000    1.0226529   -4.0842212    118.35024  0.057675553  0.062045853            7 
  172000   0.99880019   -4.0303807    119.45246  0.057874252  0.061927657            2 
  173000   0.99037194   -4.0739922    119.65179  0.057635738  0.061809362            3 
  174000   0.98051023   -4.0707919    120.08845  0.057513627  0.061695175            1 
  175000   0.98363333   -4.0682857    120.76406  0.057506696  0.061577826            3 
  176000     0.991731    -4.115329    121.06412  0.057322025  0.061458295            6 
  177000    1.0089144   -4.0958729    121.31058  0.057114208  0.061336841            3 
  178000   0.98093476    -4.085426    121.07668  0.056683841  0.061208679            3 
  179000    0.9749129   -4.0748015    121.05118  0.056355298  0.061073549            3 
  180000   0.98945233   -4.0816819    122.40485   0.05666891  0.060938334            3 
  181000   0.98347973   -4.0939213     122.4548  0.056378823   0.06080944            2 
  182000     0.952749   -4.0951753    123.14309  0.056384196  0.060677036            3 
  183000   0.99821918   -4.1002706    123.42729  0.056205504  0.060542615            2 
  184000   0.94676256   -4.1097579     123.8635    0.0560976  0.060409008            3 
  185000   0.95375576   -4.0828047    124.39014  0.056031596  0.060273351            5 
  186000   0.95303336   -4.1178174    124.56904  0.055810503  0.060140036            4 
  187000   0.95575264   -4.1159481     125.9204  0.056114259  0.060009327            4 
  188000    0.9676416   -4.1020491    126.26481  0.055968446  0.059879307            8 
  189000   0.97749077   -4.1156536    126.41881  0.055740216   0.05974941            3 
  190000   0.92761316   -4.1353089    127.04543  0.055721681  0.059619928            9 
  191000   0.96567349    -4.105393    127.98829  0.055841314  0.059493421            4 
  192000   0.94920271   -4.1324218    128.17563  0.055631782  0.059370616            1 
  193000   0.97499898   -4.1113415    128.92989  0.055669209  0.059249139            3 
  194000   0.97055425   -4.1446086    129.73501  0.055728098  0.059130748            2 
  195000   0.96611414   -4.1220091    130.74377  0.055873406  0.059014979            6 
  196000   0.94988747   -4.1043524    131.36311   0.05585166  0.058905701            6 
  197000   0.95296787   -4.1736767    131.64654  0.055688045  0.058800171            3 
  198000   0.94325113   -4.1390661    132.66396  0.055834999  0.058698643            3 
  199000   0.96490879   -4.1028943    133.27269  0.055809333  0.058600511            5 
  200000   0.94443345   -4.1480377    132.94056  0.055391901  0.058501622            3 
  201000   0.96152002   -4.1076981    134.33238  0.055693359  0.058398418            5 
  202000   0.94108779   -4.1546487    133.91476  0.055245363  0.058293707            2 
  203000   0.96502986     -4.17439    134.50029  0.055213582   0.05818976            4 
  204000   0.93124495    -4.137015    134.85241   0.05508677  0.058089003            3 
  205000   0.94138489   -4.1248621    135.62781  0.055133256   0.05799118            3 
  206000    0.9487152   -4.1569966    136.48085  0.055210698  0.057891897            3 
  207000   0.91409021   -4.1762311    137.12842  0.055204679  0.057793269            6 
  208000   0.95797863   -4.1679041    137.40621  0.055050564  0.057693996            3 
  209000   0.92098828   -4.1767808    137.80328  0.054945487  0.057591615            5 
  210000   0.93221923   -4.2171757    137.65609  0.054625432  0.057488798            5 
  211000   0.92568076    -4.190927     138.3398  0.054636571  0.057386822            3 
  212000   0.94609697   -4.1963026    139.16403  0.054702843  0.057286569            3 
  213000   0.92932545   -4.1569821    140.41747  0.054936411  0.057190324            2 
  214000   0.92855019   -4.1718025    140.43236    0.0546855  0.057097338            3 
  215000   0.92770233   -4.1730156     140.4227  0.054427402  0.057005762            3 
  216000   0.93273932   -4.1661327    141.48066  0.054583588  0.056914835            4 
  217000   0.92334888   -4.1956917    142.01885  0.054538727  0.056821975            4 
  218000    0.9177169   -4.1992266    142.78545  0.054581592  0.056730195            4 
  219000    0.9198071   -4.2117095    142.61416  0.054267184  0.056635371            5 
  220000   0.92864892   -4.2018607    143.13643  0.054218344  0.056541161            4 
  221000   0.94296513   -4.2260532    144.28681  0.054406792  0.056451317            2 
  222000   0.91713448   -4.1860028     145.0137  0.054434574  0.056362935            4 
  223000   0.91526967   -4.2149987    144.65958  0.054058139  0.056270297            3 
  224000    0.9017115   -4.2176958    145.51624  0.054135506  0.056179567            6 
  225000   0.90725585   -4.2272982    145.74268   0.05397877  0.056089008            3 
  226000   0.90269751     -4.23577    146.17907  0.053900837  0.055995176            4 
  227000   0.90960834   -4.2101232    146.23794  0.053684998  0.055899917            1 
  228000   0.90452151   -4.2168897    146.27159  0.053461839   0.05580533            4 
  229000   0.91042598    -4.213532    147.26333  0.053589274  0.055710786            4 
  230000   0.88428847   -4.2210259     147.5364  0.053455217  0.055615679            2 
  231000   0.90553802   -4.2307825    147.91943  0.053361988   0.05551722            5 
  232000     0.881258   -4.2195375    148.58666  0.053371646  0.055422949            7 
  233000   0.90584839   -4.2303844    149.40217  0.053434254  0.055328175            4 
  234000   0.89240148   -4.2204458    149.45391  0.053224326  0.055233283            5 
  235000   0.88064541   -4.2249053    149.49471  0.053012308  0.055136419            6 
  236000   0.88382381   -4.2382821    149.68496  0.052854858  0.055039164            2 
  237000   0.88567617   -4.2458175    150.49661  0.052917232  0.054942425            5 
  238000   0.89569553   -4.2653606    149.37891  0.052303538  0.054842511            6 
  239000   0.90575614   -4.2450578    150.60311  0.052511544  0.054744214            5 
  240000   0.89269184   -4.2761316    151.19908   0.05249968  0.054646794            4 
  241000   0.86510596   -4.2598653    151.37464  0.052342544  0.054545838            5 
  242000   0.87468208   -4.2824815    151.50661  0.052171697  0.054446004            4 
  243000   0.86920625   -4.2817946    152.44765  0.052279714  0.054349312            3 
  244000    0.8734028   -4.2685673    152.64558  0.052133054  0.054252588            3 
  245000   0.89648197   -4.2763869    153.08664  0.052070284   0.05415409            7 
  246000   0.85599805   -4.2797902     153.6807  0.052059858  0.054055341            3 
  247000   0.87165119   -4.2624919    153.83597  0.051901474  0.053957234            6 
  248000   0.87517072   -4.2693247    153.94388  0.051728455  0.053858912            3 
  249000   0.86465542   -4.2708921    154.39135  0.051670465    0.0537586            3 
  250000   0.87508685   -4.2724228    154.23196  0.051410655  0.053657203            5 
  251000   0.88118479   -4.2772728    154.59703  0.051327036  0.053553951            6 
  252000   0.85751828   -4.2928475    154.92808  0.051232831  0.053451281            4 
  253000    0.8578248   -4.3033453    155.59328  0.051249434  0.053347993            4 
  254000   0.85242912   -4.2923016    155.35952  0.050970969  0.053244222            6 
  255000   0.83249256   -4.2879145    155.91393  0.050952266  0.053139734            3 
  256000   0.86198731   -4.3196344    156.00753  0.050783702  0.053034205            6 
  257000   0.87749385   -4.2987219    156.26372   0.05066917  0.052930128            5 
  258000   0.85559552   -4.3240573    156.82498  0.050654063  0.052826768            3 
  259000   0.85361117   -4.3083605    157.35764  0.050629872  0.052723237            4 
  260000   0.85742755   -4.3157117    157.40619  0.050450702   0.05261996            3 
  261000   0.83763718   -4.3151766    158.19705  0.050509913    0.0525173            4 
  262000   0.83575054   -4.3155339    158.70495  0.050478672  0.052414993            4 
  263000    0.8376199   -4.3365957    158.41565  0.050195072  0.052312665            6 
  264000   0.84765394    -4.305329    158.89878  0.050157444  0.052208444            4 
  265000    0.8557455   -4.3469885    158.66111   0.04989343  0.052102619            5 
  266000   0.84553679   -4.3210713    160.02937  0.050134514  0.051998148            5 
  267000   0.83588561   -4.3411269    160.20602  0.050001879  0.051897129            5 
  268000   0.83455646    -4.343273    160.13615  0.049793578  0.051796563            4 
  269000   0.81625775   -4.3402609    160.27001  0.049649941  0.051693764            5 
  270000   0.83294798   -4.3467793    160.54209  0.049550027  0.051590962            8 
  271000   0.84210468   -4.3391605    161.02723  0.049516367  0.051489313            3 
  272000   0.84552335   -4.3571968     161.7979  0.049570435  0.051386306            5 
  273000   0.82516723   -4.3602504    162.08072   0.04947519  0.051283985            3 
  274000    0.8181672   -4.3656061    161.87215  0.049231188  0.051182372            4 
  275000   0.82203485   -4.3448155    162.73223  0.049312796  0.051080966            4 
  276000   0.83645616   -4.3368314    162.91382  0.049188955  0.050979796            6 
  277000   0.82871971    -4.353726     163.1134  0.049071419  0.050878999            5 
  278000    0.8393677   -4.3857128    163.23776  0.048932183  0.050778421            4 
  279000   0.83073463    -4.343543    163.65824   0.04888239   0.05067706            4 
  280000   0.84117236   -4.3600722    163.80032  0.048750094  0.050574794            3 
  281000   0.80492993   -4.3798971    164.06725  0.048655769  0.050474075            5 
  282000   0.80878032   -4.4020483    164.65951  0.048658247  0.050373044            5 
  283000   0.81168067   -4.3807289    164.30458  0.048381797  0.050269135            5 
  284000   0.80152496   -4.3872445    165.30302  0.048504407  0.050165951            5 
  285000   0.83124536   -4.3916866    165.87106  0.048500311  0.050064157            8 
  286000   0.81581715   -4.4104094    165.83199  0.048319343  0.049963288            7 
  287000   0.80765031   -4.3965899    166.20729  0.048259958   0.04986223            7 
  288000     0.793492   -4.3741275    165.83129   0.04798359  0.049759116            5 
  289000   0.80589354   -4.3974903    166.27895  0.047946642  0.049656345            4 
  290000   0.78959943   -4.3988216    166.32945   0.04779582  0.049552794            5 
  291000   0.80027006   -4.4326137    166.07948  0.047559988  0.049448378            5 
  292000   0.78326137   -4.4189797    166.95744   0.04764767  0.049344215            4 
  293000   0.78963942   -4.3717431    167.14499  0.047538392  0.049239576            5 
  294000   0.79999387   -4.4103202    167.13763  0.047374611  0.049134191            6 
  295000    0.8002408   -4.4175066    167.07963  0.047197636  0.049028797            6 
  296000   0.79150819   -4.4258853    167.57183  0.047176753  0.048921994            7 
  297000   0.77857006   -4.4189755    167.33649  0.046951876   0.04881623            3 
  298000   0.79946347   -4.4395104    167.59308  0.046866073  0.048709057           10 
  299000     0.786265    -4.435907    167.82684  0.046774483  0.048601603            4 
  300000   0.79975497   -4.4284275    168.08922  0.046691449  0.048494493           10 
  301000   0.78861379   -4.4409538    168.10585  0.046540934  0.048388457            2 
  302000   0.77814497   -4.4331164      168.882  0.046600994  0.048282359            4 
  303000   0.80290727   -4.4608792    168.70397  0.046398232  0.048175411           11 
  304000   0.76030325   -4.4520268    169.38333  0.046431834   0.04806995            6 
  305000   0.76610368   -4.4303624    169.73919  0.046376829   0.04796511            4 
  306000   0.78157681   -4.4427562    170.32837  0.046385721  0.047860921            4 
  307000   0.78540209   -4.4682055    169.64578  0.046049344  0.047755728            9 
  308000   0.76958991    -4.446709    169.79488  0.045940172  0.047651105            7 
  309000   0.76287537    -4.453053    170.12001  0.045879182  0.047546917            7 
  310000   0.77817674   -4.4963559    169.99774  0.045698318  0.047442731           12 
  311000   0.78669873   -4.4751829    170.50996  0.045688627  0.047338686            4 
  312000   0.77237465   -4.4614422    170.46033  0.045528933  0.047233826            9 
  313000   0.77376692   -4.4657589    170.44586  0.045379621  0.047129529           10 
  314000    0.7703413   -4.4787553     171.1986  0.045434873  0.047023229           14 
  315000   0.74650454   -4.4756474    171.16971  0.045282992  0.046917432            3 
  316000   0.76218434   -4.4673435    171.50726  0.045228707   0.04681157            7 
  317000   0.76303308   -4.4631329    171.51496  0.045088054  0.046705451            6 
  318000   0.76568437   -4.4725389    172.14673  0.045111826  0.046600418            5 
  319000   0.76540025   -4.5064398    171.68181  0.044848958  0.046494731           10 
  320000   0.75341364   -4.4815039    172.09623  0.044816727  0.046387543            4 
  321000   0.76665548   -4.4857532    171.96636  0.044643396  0.046281023            3 
  322000   0.74149382   -4.4804641    172.83581  0.044729764  0.046174677            6 
  323000   0.75991027   -4.5083446    172.34694  0.044465156  0.046068936            6 
  324000   0.76519083   -4.4791776    172.54269  0.044378265  0.045963215            3 
  325000   0.74750607   -4.5218347    172.95403  0.044347187    0.0458584            6 
  326000    0.7336751   -4.5002472    172.88874  0.044194464   0.04575304            8 
  327000   0.75553505   -4.5146295    173.37114  0.044182247  0.045648137            5 
  328000   0.74492416    -4.482431    173.50679   0.04408201  0.045543642            6 
  329000   0.74663432   -4.5291253    173.85221  0.044035514  0.045438978            8 
  330000   0.73434613   -4.4890079    174.10826  0.043966732  0.045334487            7 
  331000   0.75468192    -4.511663    174.12974  0.043839309   0.04522991            6 
  332000   0.74692983   -4.5184237    174.31775  0.043754455  0.045125513            4 
  333000   0.74797998   -4.5453181    174.41898  0.043648392  0.045023204            7 
  334000   0.74721873    -4.546699    174.34147  0.043498371  0.044919578            5 
  335000   0.73255672   -4.5440858    174.71539  0.043461539  0.044816378            5 
  336000   0.72031999   -4.5527891    175.05023  0.043415235  0.044714428            6 
  337000   0.71619567   -4.5515593    175.29336  0.043346529  0.044612692            4 
  338000   0.74434056   -4.5645285    175.91488  0.043371519  0.044511212            4 
  339000   0.71679818   -4.5327971    176.27426  0.043331923  0.044410358            7 
  340000   0.72663283   -4.5645783    176.12921  0.043168923  0.044310314            6 
  341000   0.73309289   -4.5494892    176.58823  0.043154505  0.044209695            6 
  342000   0.71480081   -4.5608723    176.83132  0.043087553  0.044109293           13 
  343000   0.70385386   -4.5759343     176.9776  0.042997474  0.044010067           10 
  344000   0.71796781   -4.5506686    176.74492  0.042816114  0.043910502            4 
  345000   0.72937639   -4.5811647     177.0278  0.042760338  0.043811742            8 
  346000   0.71008605   -4.5673259    177.04675  0.042641317  0.043713717           10 
  347000   0.71981225    -4.553683    177.26609  0.042571108  0.043616103           10 
  348000   0.70460434   -4.5773422    177.71559  0.042556415  0.043518196            6 
  349000   0.72139628   -4.5600849    178.43192   0.04260552  0.043420735            5 
  350000   0.69511086   -4.5809529    177.70958  0.042311804  0.043323272            7 
  351000   0.70374118   -4.5877468    177.86947  0.042229219  0.043225407            8 
  352000   0.71429456   -4.6107551    178.14207  0.042173785  0.043126934            5 
  353000   0.69938156   -4.5752845    178.80709  0.042211306  0.043028734            4 
  354000   0.69794865   -4.6048025    178.70097  0.042067084  0.042931958            5 
  355000   0.71833395   -4.5917705    178.68286  0.041944334  0.042834338            9 
  356000   0.70842466   -4.5824165     178.5441  0.041794031  0.042737098            6 
  357000   0.69953795   -4.5796776    178.57679  0.041684591   0.04263921            7 
  358000    0.7096727   -4.6025814     179.5767  0.041800908  0.042541988            2 
  359000   0.71072825   -4.5916505     179.7556  0.041725998  0.042445315           10 
  360000   0.70083882    -4.619585    179.45255  0.041539941  0.042349037            6 
  361000   0.68912328   -4.5865593    179.78383  0.041501347  0.042253045            6 
  362000   0.69338959   -4.6165771     179.4333  0.041306008   0.04215641            7 
  363000   0.67748481   -4.6305006    179.57454  0.041224642  0.042059859           16 
  364000   0.68949711   -4.6387661    179.95346  0.041198136  0.041963735            7 
  365000   0.68282955   -4.6357638    180.74161  0.041265207  0.041868901            8 
  366000   0.68884058   -4.6377922    180.62565  0.041126058  0.041774156           15 
  367000   0.68381131   -4.6572675    180.52595  0.040991361  0.041679696           10 
  368000   0.68579067   -4.6554471    181.03242  0.040994661  0.041585662            3 
  369000   0.67502037   -4.6403192    180.93391  0.040861317  0.041491586            8 
  370000   0.67896943   -4.6510665    181.06152  0.040779621  0.041398466            5 
  371000   0.66668889   -4.6492572    181.28913  0.040720828  0.041305862           11 
  372000   0.67492814    -4.667024    181.54008   0.04066758  0.041212928            6 
  373000   0.65768273   -4.6594702    181.60488  0.040573029  0.041119847            4 
  374000   0.66773068   -4.6500502    181.47831  0.040436344  0.041026881            5 
  375000   0.67249108    -4.667805    182.18277   0.04048506   0.04093341            4 
  376000   0.65728565   -4.6488558    182.15543  0.040371327  0.040838926            6 
  377000   0.67557475      -4.6831    181.63629  0.040149489  0.040745103            9 
  378000   0.65445181   -4.6781901    182.01577  0.040126932  0.040651956           17 
  379000   0.66871134   -4.6876229    181.52057  0.039912175  0.040559015            7 
  380000   0.66522323   -4.6848308    182.40417  0.040000914  0.040465806            6 
  381000   0.66053561   -4.6856836    182.56503  0.039931109  0.040372948            7 
  382000   0.65656961   -4.6975493    182.17196  0.039740828  0.040280095            8 
  383000   0.65784037   -4.6898776    182.53423  0.039715889  0.040187322            9 
  384000   0.64724609   -4.7047201    182.45552  0.039595381  0.040094293           15 
  385000   0.68071067   -4.7054339    182.34631  0.039468899  0.040001357            6 
  386000   0.66403008   -4.6985549    182.80107  0.039464825  0.039908909            8 
  387000   0.64131415   -4.6928652    183.06551  0.039419791  0.039816877            8 
  388000   0.65498531   -4.7006543    183.25038  0.039357899  0.039724442            9 
  389000   0.64224643   -4.6879434    183.14125  0.039233344  0.039632754            6 
  390000   0.64649495   -4.7030237    183.27341  0.039160986  0.039540927           26 
  391000   0.63441826   -4.7112579    182.74473  0.038948153  0.039448987           10 
  392000   0.64528205   -4.7313045    183.36338  0.038980311  0.039357055           15 
  393000   0.63384827   -4.7124083    183.76316  0.038965895   0.03926565            6 
  394000   0.63920093   -4.7416823    183.39131  0.038788349  0.039173768            6 
  395000   0.63439375   -4.7291484     183.4699   0.03870673  0.039082582            4 
  396000   0.65117558   -4.7501283    183.81948  0.038682551  0.038991255           14 
  397000   0.62870722   -4.7447446    183.70621  0.038561337  0.038900299           14 
  398000   0.64140929   -4.7381977    183.62835  0.038448147   0.03880957           10 
  399000    0.6346219     -4.74011    184.41228  0.038515514  0.038719745            9 
  400000   0.63832333   -4.7451495    184.25633  0.038386735  0.038630376            7 
  401000   0.62887747   -4.7518073    184.27275  0.038294421  0.038540699           10 
  402000   0.62777711   -4.7473151    184.80473  0.038309438  0.038451444           10 
  403000   0.62370922   -4.7788089    184.49287   0.03814989  0.038362204           13 
  404000   0.62278224   -4.7546006    184.51532   0.03806009  0.038273204           23 
  405000   0.61806471   -4.7695074    184.91499  0.038048352   0.03818486           11 
  406000   0.62392551   -4.7335559    184.95796  0.037963457  0.038096718           10 
  407000   0.63494932   -4.7587905    184.99468  0.037877698  0.038008528            9 
  408000   0.61640472   -4.7879174    185.01079   0.03778815  0.037920097           10 
  409000   0.61581867   -4.7767463    185.05291  0.037704342  0.037831499           11 
  410000   0.61566102   -4.7787953    185.30118  0.037662842  0.037743247            6 
  411000   0.61212485   -4.7855719    185.06203  0.037522716  0.037655363            9 
  412000   0.60510687   -4.7787712    185.45485  0.037511095  0.037567371            8 
  413000   0.60748699   -4.8005725    185.00376   0.03732925  0.037479681           27 
  414000   0.61040219   -4.7893888    185.65098   0.03736936  0.037391702            6 
  415000   0.60182682    -4.788048     185.4362  0.037236185  0.037303677           13 
  416000   0.60188232   -4.7899747    185.47998  0.037155444  0.037215615            8 
  417000   0.58840266   -4.7782724    185.70855   0.03711202  0.037127592           27 
  418000   0.59878364   -4.8040728    184.68024   0.03681823  0.037039811           32 
  419000   0.60784644   -4.7917269    185.51083   0.03689555  0.036952148            6 
  420000   0.59911254   -4.8250664    185.80487  0.036866045   0.03686445           10 
  421000   0.60727219   -4.8007756    185.74389  0.036766407  0.036776586            8 
  422000   0.59850211   -4.8303635    185.74739  0.036679974  0.036688831           18 
  423000   0.59829306   -4.8094481    185.61475  0.036567129  0.036601345           11 
  424000   0.58676092   -4.8264124     186.1454  0.036585181  0.036514175            7 
  425000   0.59191382   -4.8295685    186.06091  0.036482531  0.036427095           16 
  426000    0.6027396   -4.8321282    186.30509  0.036444658  0.036340058           17 
  427000   0.58629445   -4.8428737    186.03203  0.036306017  0.036253418           15 
  428000   0.58909481   -4.8348683    185.80809  0.036177588  0.036166913           13 
  429000   0.58409075   -4.8494652    185.74424  0.036080855  0.036080275           12 
  430000   0.58317603   -4.8462379    185.93826  0.036034547  0.035993584           22 
  431000   0.58261984   -4.8484886    186.09814  0.035981853  0.035907152            7 
  432000   0.57609767   -4.8559437    185.88924  0.035858263  0.035820558           28 
  433000   0.58834479   -4.8608592    185.99816  0.035796413  0.035733965           15 
  434000    0.5726522   -4.8745079    186.13314  0.035739851  0.035647285           12 
  435000   0.55646252   -4.8666504    185.89144  0.035611387  0.035561336           12 
  436000    0.5686018   -4.8515156    186.33902  0.035615256  0.035475621           18 
  437000   0.56567475   -4.8527346    186.58717  0.035581077  0.035390318            7 
  438000   0.57012606   -4.8610063    186.40736  0.035465632  0.035304691           12 
  439000   0.57343435    -4.867619     186.7704  0.035453758  0.035219701           15 
  440000   0.56374088   -4.8883511    185.80722  0.035190762  0.035134435           12 
  441000   0.56264803   -4.8966822    186.90597  0.035318589  0.035049594           16 
  442000   0.56583673    -4.878962    186.51584  0.035165129  0.034965579           23 
  443000    0.5597668   -4.8853305    186.67159  0.035115047  0.034881429           14 
  444000    0.5651407   -4.8839582    186.66895  0.035035463  0.034797234           21 
  445000   0.55561279    -4.911471    186.66042  0.034955134  0.034712748           23 
  446000   0.57510193   -4.9099833     186.6997    0.0348841   0.03462859           11 
  447000   0.55112026   -4.9009859    186.77611  0.034820304   0.03454488           22 
  448000   0.55594243   -4.9217545    186.57548   0.03470526  0.034461021           41 
  449000   0.54268258   -4.9191172    187.30187  0.034762783  0.034377584            8 
  450000    0.5466674   -4.9015389    186.95409  0.034621128  0.034294872           22 
  451000   0.54386216   -4.9098204    186.90086  0.034534527  0.034211535            9 
  452000   0.54437946   -4.9269906     186.8658   0.03445166  0.034127869           15 
  453000    0.5378106   -4.9337861    186.66457   0.03433859  0.034043941           29 
  454000   0.55518011   -4.9210568    186.78774  0.034285562  0.033960476           15 
  455000   0.54991324   -4.9367615    186.95593  0.034241013    0.0338772           13 
  456000   0.53854593   -4.9412131    186.67135  0.034113916  0.033793934           21 
  457000   0.53645683   -4.9434503    186.93553  0.034087441  0.033710994           12 
  458000   0.53008741    -4.945571    186.62665  0.033956814  0.033627832           32 
  459000   0.53526917   -4.9557347    186.49561  0.033859043    0.0335444           18 
  460000   0.52757414    -4.932581    186.35496  0.033759957  0.033461049           11 
  461000   0.53111557      -4.9539    186.38264  0.033691728  0.033377757           15 
  462000    0.5280347   -4.9633282    186.56568  0.033651817  0.033294449           42 
  463000   0.53009188   -4.9431919    186.00571   0.03347835  0.033211353           48 
  464000   0.52011148   -4.9447752    186.52659  0.033499746  0.033128541           22 
  465000   0.52481487      -4.9475    186.57284  0.033435993   0.03304558           37 
  466000    0.5162181   -4.9625093    186.44631  0.033341615  0.032963104           44 
  467000    0.5224693   -4.9695512    186.66215  0.033308736  0.032880673           19 
  468000   0.51314985   -4.9963071    186.68959  0.033242448  0.032798192           25 
  469000   0.52710307   -4.9878417    186.07207  0.033061846  0.032715646           30 
  470000   0.52144997   -4.9843332    186.10544  0.032997418  0.032633033           28 
  471000   0.51364545   -4.9692068     186.8504  0.033059165  0.032550883           25 
  472000   0.52180617   -4.9831465    186.43732  0.032916194  0.032469456           45 
  473000   0.50490868   -4.9925987    186.27616  0.032818209  0.032387626           38 
  474000   0.50852578   -4.9858053    186.57498  0.032801509  0.032305856           24 
  475000   0.50284035   -4.9978656     186.1641  0.032660368  0.032224085           28 
  476000   0.51457982   -4.9978327    186.20552  0.032599005  0.032142578           15 
  477000   0.51120044   -4.9996861    186.57493    0.0325952  0.032061217           14 
  478000   0.50009386   -5.0032598    186.38233  0.032493433  0.031979964           20 
  479000   0.50201958   -5.0180751     186.4858  0.032443597  0.031899157           11 
  480000   0.49822311    -5.009148    186.34406    0.0323514  0.031818147           17 
  481000   0.50636311   -5.0384077    185.95616  0.032216938  0.031737035           32 
  482000   0.50715364    -5.009071    186.27534   0.03220528  0.031656243           22 
  483000   0.49214777   -5.0173471    186.29197  0.032141472  0.031575517           40 
  484000   0.49820113   -5.0182623    186.14888  0.032050428  0.031495113           42 
  485000    0.5034922   -5.0181466     186.2998  0.032010274  0.031414697           24 
  486000   0.49889846   -5.0353257    186.03945  0.031899769  0.031334259           29 
  487000   0.48986573   -5.0317663    186.50665  0.031914211  0.031253623           29 
  488000    0.4954961   -5.0467492     185.7208  0.031714617  0.031172968           27 
  489000   0.49172536   -5.0198718     185.7992  0.031663122  0.031092891           36 
  490000   0.48915564   -5.0407636    185.75284  0.031590619   0.03101254           36 
  491000   0.47696781   -5.0394449    185.44997  0.031474876  0.030932113           58 
  492000   0.48107744   -5.0592741     185.4719  0.031414616  0.030851852           42 
  493000    0.4745064   -5.0586073    185.26708  0.031316275   0.03077165           35 
  494000      0.47961    -5.051177    185.51549  0.031294786  0.030691614           52 
  495000   0.47227049   -5.0509243    185.75516  0.031271912  0.030611946           42 
  496000   0.47289312   -5.0483898    185.67796  0.031195894  0.030532676           38 
  497000   0.47171551   -5.0633847    185.38349  0.031083752  0.030453303           55 
  498000   0.46722608   -5.0640466    185.70944  0.031075876  0.030373982           36 
  499000   0.47083086   -5.0643854    185.86643  0.031039818  0.030295169           30 
  500000   0.45971473   -5.0646821    185.31924   0.03088654  0.030216468           33 
  501000   0.46185703   -5.0733101    185.71239  0.030890284  0.030138012           23 
  502000   0.46000685   -5.0970048    185.27918  0.030756836  0.030059406           22 
  503000   0.47606401   -5.0849617    185.63208  0.030754156  0.029981193           49 
  504000   0.46676918   -5.0812523    185.35904   0.03064799  0.029902934           28 
  505000   0.45613915   -5.0961058    185.70377  0.030644186   0.02982503           61 
  506000   0.45724845   -5.0926733    185.49451  0.030549161  0.029747069           22 
  507000   0.46234243   -5.1161515    185.07655  0.030420209  0.029669177           33 
  508000   0.46454634   -5.0984136    185.63232  0.030451497  0.029591596           23 
  509000   0.45583326   -5.0998964     185.3757  0.030349657   0.02951417           28 
  510000   0.45360789   -5.1230317    185.45829  0.030303642  0.029436622           51 
  511000    0.4494277   -5.1132587    185.11344  0.030188102  0.029358959           53 
  512000   0.44903534   -5.1116874    185.27839  0.030155989  0.029281498           39 
Loop time of 1256.6 on 48 procs for 500000 steps with 4000 atoms

Performance: 68757.217 tau/day, 397.901 timesteps/s
99.4% CPU use with 48 MPI tasks x no OpenMP threads

MPI task timing breakdown:
Section |  min time  |  avg time  |  max time  |%varavg| %total
---------------------------------------------------------------
Pair    | 85.099     | 90.443     | 95.88      |  22.2 |  7.20
Neigh   | 8.5818     | 8.8054     | 9.1189     |   4.1 |  0.70
Comm    | 82.064     | 86.166     | 91.705     |  21.9 |  6.86
Output  | 0.88869    | 0.88953    | 0.91432    |   0.4 |  0.07
Modify  | 1054.4     | 1058.8     | 1061.1     |   4.5 | 84.26
Other   |            | 11.48      |            |       |  0.91

Nlocal:        83.3333 ave          95 max          77 min
Histogram: 5 7 6 15 2 7 4 0 1 1
Nghost:        2288.19 ave        2304 max        2266 min
Histogram: 2 2 2 7 4 5 8 6 8 4
Neighs:        15437.8 ave       17623 max       13609 min
Histogram: 2 3 6 7 11 7 6 3 2 1
FullNghs:      30875.1 ave       35350 max       28464 min
Histogram: 7 5 9 11 4 4 6 0 1 1

Total # of neighbors = 1482004
Ave neighs/atom = 370.50100
Neighbor list builds = 26986
Dangerous builds = 0

#clear
#
#next RN
#
#jump SELF
Total wall time: 0:21:00
