
units lj                  # Use reduced LJ style units
atom_style atomic         # Uncharged point particles
atom_modify map hash      # Needed for indexing of clusters etc
                          # Used to be able to find where atoms are in relation to each other.

lattice fcc 1.0 spacing 1 1 1
Lattice spacing in x,y,z = 1.5874011 1.5874011 1.5874011
region box block 0 10 0 10 0 10 units lattice
create_box 2 box
Created orthogonal box = (0.0000000 0.0000000 0.0000000) to (15.874011 15.874011 15.874011)
  3 by 4 by 4 MPI processor grid
create_atoms 1 box
Created 4000 atoms
  using lattice units in orthogonal box = (0.0000000 0.0000000 0.0000000) to (15.874011 15.874011 15.874011)
  create_atoms CPU = 0.026 seconds
set type 1 type/fraction 2 0.24 78393
Setting atom values ...
  997 settings made for type/fraction
mass 1 1.0
mass 2 1.0
pair_style lj/cut  3.5
pair_modify tail  yes
pair_coeff 1  1  1.0  1.0   # Intearaction between 1 and 1 set with epsilon = 1 and sigma = 1
pair_coeff 1  2  1.5  0.8
pair_coeff 2  2  0.5  0.88

write_data data.0
System init for write_data ...
Neighbor list info ...
  update every 1 steps, delay 10 steps, check yes
  max neighbors/atom: 2000, page size: 100000
  master list distance cutoff = 3.8
  ghost atom cutoff = 3.8
  binsize = 1.9, bins = 9 9 9
  1 neighbor lists, perpetual/occasional/extra = 1 0 0
  (1) pair lj/cut, perpetual
      attributes: half, newton on
      pair build: half/bin/atomonly/newton
      stencil: half/bin/3d
      bin: standard
WARNING: Not all mixed pair coeffs generated from mixing. Use write_data with 'pair ij' option to store all pair coeffs. (../write_data.cpp:312)


#############################
#   M E L T   S Y S T E M   #
#############################

velocity all create 2.4 6229865 mom yes dist gaussian # Assign velocities
                                                    # Temperature 2.4, random number seed, zero linear momentum
                                                                                # Gaussian distribution

timestep 0.002   # simulation timestep
thermo 1000       # output thermodynamic data every 1000 steps bf 100

# Define a fix  in this case with index 1 applied to all
# particles in the simulation. This fix is for simulations
# in the anisotropic NPT ensemble. Note that we use the MTK
# correction.
fix 1 all npt temp 2.4 2.4 0.1 iso 5.68 5.68 0.5 mtk yes tchain 5 pchain 5 # Use NPT ensemble
                                                                         # Set temperature and pressure and damping
                                                                         # Numbers of thermostats in chain and in barostat
run 10000          # run for 10000 steps
Per MPI rank memory allocation (min/avg/max) = 3.642 | 3.644 | 3.648 Mbytes
Step Temp E_pair E_mol TotEng Press Volume 
       0          2.4   -6.7864136            0   -3.1873136   -3.7949501         4000 
    1000    2.4297132   -4.9273323            0   -1.2836737    5.7508622    4313.2456 
    2000     2.398713   -4.9092668            0   -1.3120969    5.8886484    4317.5823 
    3000    2.4194383   -4.9524448            0   -1.3241947    5.4716875     4336.973 
    4000    2.3784773   -4.8723005            0   -1.3054765    5.6844714    4344.2188 
    5000    2.4939118   -4.8734874            0   -1.1335548    5.8393421     4343.996 
    6000    2.3898552   -4.9307889            0   -1.3469024    5.8644023    4301.9455 
    7000    2.3981961   -4.9176237            0   -1.3212288    5.7743248    4315.9025 
    8000    2.3693978   -4.9097083            0   -1.3565001    5.9284009    4302.9403 
    9000    2.4248495   -4.8864068            0   -1.2500419    5.4874023    4358.5238 
   10000    2.3881694   -4.9443872            0   -1.3630286     5.620758     4322.199 
Loop time of 2.38281 on 48 procs for 10000 steps with 4000 atoms

Performance: 725193.592 tau/day, 4196.722 timesteps/s
99.6% CPU use with 48 MPI tasks x no OpenMP threads

MPI task timing breakdown:
Section |  min time  |  avg time  |  max time  |%varavg| %total
---------------------------------------------------------------
Pair    | 0.9875     | 1.07       | 1.2462     |   4.4 | 44.90
Neigh   | 0.19547    | 0.20773    | 0.2363     |   1.6 |  8.72
Comm    | 0.67106    | 0.84449    | 0.91875    |   5.4 | 35.44
Output  | 0.00023786 | 0.00024295 | 0.00031231 |   0.0 |  0.01
Modify  | 0.2134     | 0.24556    | 0.30308    |   5.1 | 10.31
Other   |            | 0.01481    |            |       |  0.62

Nlocal:        83.3333 ave          94 max          74 min
Histogram: 2 6 3 7 5 7 7 8 1 2
Nghost:        1566.62 ave        1599 max        1539 min
Histogram: 1 6 4 6 14 4 4 6 2 1
Neighs:        8838.10 ave        9964 max        7627 min
Histogram: 3 4 5 4 5 6 10 5 2 4

Total # of neighbors = 424229
Ave neighs/atom = 106.05725
Neighbor list builds = 907
Dangerous builds = 196

# Equilibrate just above the melting temperature to avoid step fn in T

fix 1 all npt temp 1.25 1.25 0.1 iso 5.68 5.68 0.5 mtk yes tchain 5 pchain 5
run 2000
Per MPI rank memory allocation (min/avg/max) = 3.643 | 3.645 | 3.649 Mbytes
Step Temp E_pair E_mol TotEng Press Volume 
   10000    2.3881694   -4.9443872            0   -1.3630286     5.620758     4322.199 
   11000    1.2365226    -6.599578            0   -4.7452579     5.683781    3538.5223 
   12000    1.2360842   -6.7519949            0   -4.8983322    5.1791178    3518.2628 
Loop time of 0.514091 on 48 procs for 2000 steps with 4000 atoms

Performance: 672255.075 tau/day, 3890.365 timesteps/s
99.7% CPU use with 48 MPI tasks x no OpenMP threads

MPI task timing breakdown:
Section |  min time  |  avg time  |  max time  |%varavg| %total
---------------------------------------------------------------
Pair    | 0.23683    | 0.25439    | 0.28157    |   2.0 | 49.48
Neigh   | 0.033261   | 0.035174   | 0.037235   |   0.5 |  6.84
Comm    | 0.14051    | 0.17391    | 0.19043    |   2.6 | 33.83
Output  | 5.0378e-05 | 5.1588e-05 | 6.6902e-05 |   0.0 |  0.01
Modify  | 0.042499   | 0.04599    | 0.051963   |   1.1 |  8.95
Other   |            | 0.004577   |            |       |  0.89

Nlocal:        83.3333 ave          95 max          74 min
Histogram: 4 1 2 11 11 13 4 0 1 1
Nghost:        1789.60 ave        1817 max        1759 min
Histogram: 1 2 6 7 5 7 7 7 4 2
Neighs:        10870.3 ave       12733 max        9624 min
Histogram: 3 5 5 9 13 9 2 1 0 1

Total # of neighbors = 521775
Ave neighs/atom = 130.44375
Neighbor list builds = 141
Dangerous builds = 8

#############################
# L I N E A R  Q U E N C H  #
#############################

# Define solid atoms. This closely follows ten Wolde  Ruiz-Montero and Frenkel  Faraday Discuss  1996  104  93-110
# Compute components of the per-atom q6 vector
compute q6 all orientorder/atom degrees 1 6 components 6 nnn NULL cutoff 1.3 # compute the Q6 parameter.
                                                                             # Use all neighbours within 1.3 unit cell.

# get number of connections
compute coord_number all coord/atom orientorder q6 0.5

# An atom is solid if it has 8 or more connections (of a possible 14)
variable is_solid atom c_coord_number>=8
group solid dynamic all var is_solid    # Must be dynamic to update
dynamic group solid defined

# do clustering
compute cluster solid cluster/atom 1.3 # Create a cluster where all atoms within are solid and max 1.3 units from another member

# define chunks one chunk per cluster
compute clus_chunks solid chunk/atom c_cluster nchunk every compress yes  # Says which atoms are in which chunk

# count the size of each chunk
compute size_chunks solid property/chunk clus_chunks count


# Find the maximum entry in the vector of chunk sizes
variable max_n equal max(c_size_chunks)


# Thermo style which includes this variable
# thermo_style custom step temp pe vol v_max_n

thermo ${N}  # Print the thermo information every 100 steps
thermo 1000  

# Reset the npt fix at a lower temperature (below freezing)
fix 1  all npt temp  ${temp} ${temp}  0.1  iso  5.68  5.68  0.5  mtk yes tchain  5  pchain  5
fix 1  all npt temp  0.45 ${temp}  0.1  iso  5.68  5.68  0.5  mtk yes tchain  5  pchain  5
fix 1  all npt temp  0.45 0.45  0.1  iso  5.68  5.68  0.5  mtk yes tchain  5  pchain  5

dump dmp2 all dcd ${N} traj.dcd
dump dmp2 all dcd 1000 traj.dcd


compute msd all msd com yes
variable twopoint equal c_msd[4]/6/(step*dt+1.0e-6)
fix 9 all vector 10 c_msd[4]
variable fit equal slope(f_9)/6/(10*dt)
thermo_style custom step temp pe c_msd[4] v_twopoint v_fit v_max_n

fix 1 all npt temp 1.25 ${temp} 0.1 iso 5.68 5.68 0.5 mtk yes tchain 5 pchain 5
fix 1 all npt temp 1.25 0.45 0.1 iso 5.68 5.68 0.5 mtk yes tchain 5 pchain 5
run 2000000 # 5000000  # Run for this many steps
Neighbor list info ...
  update every 1 steps, delay 10 steps, check yes
  max neighbors/atom: 2000, page size: 100000
  master list distance cutoff = 3.8
  ghost atom cutoff = 3.8
  binsize = 1.9, bins = 9 9 9
  4 neighbor lists, perpetual/occasional/extra = 1 3 0
  (1) pair lj/cut, perpetual
      attributes: half, newton on
      pair build: half/bin/atomonly/newton
      stencil: half/bin/3d
      bin: standard
  (2) compute orientorder/atom, occasional
      attributes: full, newton on
      pair build: full/bin/atomonly
      stencil: full/bin/3d
      bin: standard
  (3) compute coord/atom, occasional
      attributes: full, newton on
      pair build: full/bin/atomonly
      stencil: full/bin/3d
      bin: standard
  (4) compute cluster/atom, occasional
      attributes: full, newton on
      pair build: full/bin/atomonly
      stencil: full/bin/3d
      bin: standard
Per MPI rank memory allocation (min/avg/max) = 9.784 | 9.790 | 9.796 Mbytes
Step Temp PotEng c_msd[4] v_twopoint v_fit v_max_n 
   12000    1.2360842   -6.7519949 7.4882621e-31 5.2001818e-33 8.3333333e+20            2 
   13000     1.239493   -6.6662163   0.52383285 0.0033579027  0.042236574            5 
   14000    1.2651885   -6.6905371    1.0392045 0.0061857411  0.042666617            1 
   15000    1.2701141   -6.7107262     1.553272 0.0086292886  0.043005273            1 
   16000    1.2569566   -6.7455781    2.0695425  0.010778867  0.043087844            1 
   17000    1.2637782   -6.6879837    2.5397155  0.012449586  0.042796218            1 
   18000    1.2709675   -6.6798801    3.0200879  0.013981888  0.041929992            2 
   19000    1.2296858   -6.6953656    3.5914378   0.01575192  0.041921072            1 
   20000    1.2482293   -6.6838056    4.1301397  0.017208915  0.042341149            1 
   21000    1.2436531   -6.6925311    4.6291569   0.01836967  0.042597228            1 
   22000    1.2381005   -6.7001432     5.181207  0.019625784  0.042785168            3 
   23000    1.2315354   -6.6876082    5.6722457  0.020551615  0.042871312            2 
   24000    1.2209729   -6.6965214    6.2042148  0.021542412  0.042925534            1 
   25000    1.2218237   -6.7420171    6.6970235  0.022323411  0.042988803            2 
   26000    1.2607816   -6.7137552    7.1484484  0.022911693  0.042962111            1 
   27000    1.2522384   -6.6866692    7.5981031  0.023450935   0.04275902            2 
   28000    1.2406721   -6.7229544    8.1604785  0.024287138  0.042593641            1 
   29000    1.2506563   -6.7252371    8.8086804    0.0253123  0.042668207            2 
   30000    1.2373117   -6.7364106    9.2727112  0.025757531  0.042774663            2 
   31000    1.2486857   -6.7567945    9.8561696  0.026495079  0.042894685            4 
   32000    1.2875609   -6.6832273    10.503378  0.027352547   0.04306623            2 
   33000    1.2438005   -6.7427863    10.978068  0.027722393  0.043225561            2 
   34000    1.2273379    -6.735637    11.557398  0.028326955  0.043362747            6 
   35000    1.2473217   -6.7022513      12.0219  0.028623572  0.043490687            2 
   36000    1.2424481   -6.7636749    12.538314  0.029023874  0.043563384            1 
   37000    1.2685631   -6.7299294    13.126591  0.029564393  0.043616526            1 
   38000    1.2474656    -6.723385    13.700815  0.030045646   0.04372558            5 
   39000    1.2328272   -6.6800275    14.230973  0.030408061  0.043798193            2 
   40000    1.2423533   -6.7399009    14.664206  0.030550428  0.043815464            2 
   41000    1.2467992   -6.6801082     15.11753  0.030726686   0.04382199            2 
   42000    1.2658417   -6.7353645    15.571453   0.03089574  0.043782999            2 
   43000    1.2428564   -6.7199109     16.08137  0.031165445  0.043764781            3 
   44000    1.2373188   -6.7623363    16.603499   0.03144602  0.043734629            3 
   45000    1.2482961   -6.7646574    17.232468  0.031911977  0.043729407            4 
   46000    1.2514955   -6.7189415    17.695406  0.032056895  0.043721377       -1e+20 
   47000    1.2235236   -6.6907498    18.010037   0.03193269  0.043668176            1 
   48000    1.2274512   -6.7424617    18.494584  0.032108653  0.043539901            2 
   49000    1.2778608   -6.7393906    18.992056  0.032299415  0.043420177            1 
   50000    1.2481628   -6.7465928    19.469506  0.032449176  0.043330628            1 
   51000    1.2620924   -6.7329743    20.027717  0.032725027  0.043246552            1 
   52000    1.2073185   -6.7545847    20.442364  0.032760199  0.043169171            2 
   53000    1.2043222   -6.7671824    20.920337  0.032893611  0.043076721            3 
   54000    1.2142447   -6.6857795    21.501781   0.03318176  0.042989503            2 
   55000    1.2337681   -6.7420084    21.773417  0.032990026  0.042896078            2 
   56000    1.2457718   -6.7457324    22.268682  0.033137919   0.04278532            3 
   57000    1.2257966   -6.7119231    22.930033  0.033523439  0.042693226            1 
   58000    1.2222847   -6.7473769    23.316132  0.033500189  0.042627783            3 
   59000    1.2163632   -6.7165899    23.658214  0.033415556  0.042546303            3 
   60000     1.257745   -6.7002585    24.246424  0.033675589   0.04244444            2 
   61000     1.215478   -6.7348587    24.730399  0.033784698  0.042355586            1 
   62000    1.2335444   -6.7459526    25.122726  0.033767105  0.042273055            2 
   63000    1.2275865   -6.7078634    25.536712   0.03377872  0.042186356            1 
   64000    1.2458829   -6.7723887    26.084129  0.033963709  0.042115501            2 
   65000    1.2364287   -6.7341617     26.59205  0.034092371  0.042045325            2 
   66000    1.2218961   -6.6925412    27.005143  0.034097403  0.041962438            1 
   67000    1.1995985   -6.7369373    27.249734  0.033892704  0.041879211            1 
   68000    1.2380971   -6.7608038    27.578321  0.033796962  0.041780926            1 
   69000    1.2285289    -6.774167    28.051874  0.033879075  0.041656264            5 
   70000      1.23208   -6.7623648    28.414061  0.033826262  0.041540079            1 
   71000    1.2463794   -6.7332843    28.859739  0.033872933  0.041422433            2 
   72000    1.2211607   -6.7378457    29.207808  0.033805333  0.041301595            3 
   73000    1.2057847   -6.7470581    29.671882  0.033872011  0.041181646            2 
   74000    1.2086819   -6.7447347    30.167335  0.033972223  0.041081084            1 
   75000    1.2029225   -6.7218827    30.551428  0.033946031  0.040960616            2 
   76000    1.2204928    -6.762468    31.051068  0.034047224    0.0408559            1 
   77000    1.2075064   -6.7428991    31.361825  0.033941369  0.040752567            1 
   78000    1.2392907   -6.7404481    31.894458  0.034075275  0.040645689            1 
   79000    1.2345467   -6.7935297    32.281849  0.034052583  0.040560867            2 
   80000    1.2096672   -6.7130333    32.839459   0.03420777  0.040465552            2 
   81000    1.2417702   -6.7911415    33.316413  0.034276145   0.04039103            1 
   82000    1.2362422   -6.7483331    33.871995  0.034422759  0.040322113            2 
   83000    1.1919724   -6.7664731    34.062024  0.034198819  0.040250075            4 
   84000    1.2301683   -6.7632816    34.646885   0.03437191   0.04017531            1 
   85000     1.239541   -6.7419334    35.181308  0.034491478   0.04011522            1 
   86000    1.2387322   -6.7554881    35.906473  0.034793094  0.040071077            2 
   87000    1.2063309   -6.7822538    36.510133  0.034971391   0.04004107            1 
   88000     1.190809   -6.7980918    36.708142  0.034761498  0.040003566            1 
   89000    1.2192089   -6.7675547    37.178688  0.034811505  0.039958376            2 
   90000    1.2226501   -6.7328246    37.710611  0.034917232  0.039923292            2 
   91000    1.2255856   -6.7552816    38.178502  0.034961998  0.039889729            4 
   92000    1.2194178   -6.7806152    38.596034  0.034960176  0.039860901            1 
   93000    1.2094142   -6.7829054    38.792782  0.034760557  0.039822006            1 
   94000    1.2225935    -6.752683     39.27119  0.034814884  0.039779144            1 
   95000     1.204818   -6.7359467    39.841528  0.034948709  0.039739639            1 
   96000    1.2168608   -6.7633507      40.3519  0.035027691  0.039696703            3 
   97000    1.2304573   -6.7554583    40.625509   0.03490164  0.039656422            1 
   98000     1.241032    -6.750785    41.141155  0.034983975  0.039610781            2 
   99000    1.2203831   -6.7782582    41.602197  0.035018684  0.039577215            1 
  100000    1.2040425   -6.8052924    41.786465  0.034822054  0.039537789            1 
  101000    1.2136337   -6.7789432     42.20694  0.034824208  0.039491958            2 
  102000    1.2412976   -6.7769476    42.726612  0.034907362   0.03944042            1 
  103000    1.2236025   -6.7467334    43.220665  0.034968176  0.039393851            2 
  104000    1.2277488   -6.8234707    43.531787  0.034881239  0.039342837            2 
  105000    1.2271481   -6.8081771    44.252669  0.035121166  0.039302102            1 
  106000    1.2364481   -6.7676751    44.527135  0.035005609  0.039268657            2 
  107000    1.2229371   -6.7769649    45.168401  0.035177882  0.039231704            1 
  108000    1.2161945   -6.7155802     45.50432  0.035111358  0.039198948            2 
  109000    1.2065182   -6.7865128    45.873286  0.035071319  0.039168752            2 
  110000    1.2051556    -6.756789    46.520547  0.035242839  0.039142413            1 
  111000    1.2333634   -6.7620408    46.952127  0.035249344   0.03911814            2 
  112000    1.2011428   -6.8031989    47.456362  0.035309793  0.039097301            2 
  113000    1.2213479   -6.7567312    48.082443  0.035459028  0.039078618            1 
  114000    1.2190752   -6.7824514    48.508063   0.03545911  0.039058444            2 
  115000    1.2024313   -6.7493037    49.066367  0.035555338  0.039039083            1 
  116000    1.2221566    -6.785018    49.304525  0.035419917  0.039021761            1 
  117000    1.2070926   -6.8205548    49.720599  0.035413532  0.038994839            6 
  118000    1.1996049   -6.7989205    50.373869  0.035574766  0.038979486            4 
  119000    1.2285554   -6.8069955    50.933289  0.035667569  0.038971218            1 
  120000    1.2160953   -6.7945183    51.352764  0.035661642  0.038963878            3 
  121000    1.2127123   -6.7686413     52.10331  0.035883822  0.038959209            3 
  122000    1.2171444   -6.7690289    52.676902   0.03598149   0.03896332            2 
  123000    1.2041372   -6.7612315    53.072631  0.035957067  0.038961964            1 
  124000    1.2009294   -6.8217952    53.393453  0.035882697  0.038959238            1 
  125000    1.2126385   -6.7840817     53.91859  0.035945727  0.038959469            1 
  126000    1.2201424   -6.8187262     54.28732  0.035904312   0.03895655            2 
  127000    1.2279574   -6.8063506    54.838272  0.035983118  0.038949281            1 
  128000    1.1784267   -6.8159257    55.259769  0.035976412  0.038944669            1 
  129000    1.1969851   -6.7876597    55.673576  0.035964842  0.038944057            1 
  130000    1.1911416   -6.7987861    55.996763  0.035895361  0.038940482            1 
  131000     1.227058   -6.7548158    56.551122  0.035973996  0.038935087            1 
  132000    1.1871461   -6.7935643    56.598868  0.035731608  0.038925521            2 
  133000    1.1882062   -6.8028931    57.104619  0.035779837  0.038908899            2 
  134000    1.1879299   -6.8351335    57.492159   0.03575383  0.038894858            2 
  135000    1.1984026    -6.813977    57.862536  0.035717615  0.038878097            2 
  136000    1.1899028   -6.7796576    58.592709  0.035902395  0.038862704            2 
  137000    1.2068776    -6.776563    59.089484  0.035942508  0.038847395            2 
  138000    1.2126643   -6.7688483    59.731463  0.036069724   0.03883495            2 
  139000    1.2062087   -6.7561306    59.876733  0.035897322  0.038821908            2 
  140000    1.2030467   -6.7998946    60.139793  0.035797495  0.038805535            1 
  141000    1.2202534   -6.7932893     60.27541  0.035623765   0.03878075            1 
  142000    1.2105086   -6.7882114    60.507924  0.035509345  0.038756227            3 
  143000    1.1937565   -6.8187113    61.322524  0.035735736  0.038727589            2 
  144000    1.2155037   -6.8108004    61.516636  0.035599905   0.03870041            5 
  145000    1.1825976   -6.8338955    61.849249  0.035545545  0.038672786            1 
  146000    1.2030516   -6.8181001    62.549972  0.035702039  0.038645295            2 
  147000    1.2209733    -6.757337    63.074144  0.035756317  0.038618827            1 
  148000    1.1722821   -6.8326859    63.305471  0.035644972  0.038595394            3 
  149000    1.2078359   -6.8114544    63.531623  0.035532228  0.038570927            1 
  150000    1.2087763   -6.7692801    64.070377  0.035594654  0.038542149            3 
  151000    1.2173386   -6.7863877     64.44255  0.035564321  0.038511639            1 
  152000    1.1776174   -6.7989587    64.931422  0.035598367  0.038478942            1 
  153000    1.1882836   -6.8294521    65.115236  0.035465815  0.038446003            2 
  154000    1.1827696   -6.8168293    65.613304  0.035505035  0.038415286            3 
  155000    1.2264087   -6.8198742    65.557337   0.03524588  0.038379585            1 
  156000    1.1780052   -6.7777777     66.19983  0.035363157  0.038341991            1 
  157000    1.1850558   -6.8299136    66.243301  0.035160988  0.038304514            2 
  158000    1.1787066   -6.7927405    66.609037  0.035131348  0.038261808            2 
  159000     1.175021   -6.7997134    67.052332  0.035142731  0.038219413            1 
  160000    1.1870271   -6.7794708    67.407533   0.03510809  0.038174258            1 
  161000    1.1595446   -6.8370104    67.793536  0.035089822  0.038128041            2 
  162000    1.1730345   -6.7611065    68.062714  0.035011684  0.038082732            1 
  163000    1.2006741   -6.8149418    68.312566  0.034924625    0.0380368            2 
  164000    1.2059037   -6.7818254    69.387018  0.035257631  0.037991733            1 
  165000    1.1791556   -6.8491491    69.533774  0.035118067  0.037952924            1 
  166000    1.2011386   -6.8439932    69.907872  0.035094313  0.037912834            2 
  167000    1.2000656   -6.8206993    70.624235  0.035241634  0.037879155            1 
  168000    1.1902244   -6.8575426     70.81776  0.035127857  0.037844308            1 
  169000    1.2058806   -6.8311281    71.135017  0.035076438  0.037808201            5 
  170000    1.2182334   -6.7987535    71.349832  0.034975408  0.037770393            1 
  171000    1.1902354   -6.8814726    71.707207  0.034945032  0.037734362            1 
  172000    1.1881473   -6.8468365    72.455447  0.035104383  0.037698575            1 
  173000    1.1871897   -6.8057861    72.923891  0.035127115  0.037665924            1 
  174000    1.1952983   -6.7931764    73.599631  0.035248865  0.037636672            3 
  175000    1.1692592   -6.7843202    74.075819  0.035274199  0.037607069            1 
  176000    1.2039564   -6.8058386    74.283292  0.035172013  0.037578609            2 
  177000    1.1882104   -6.8165097    74.702254  0.035170553   0.03755144            1 
  178000    1.1850994   -6.8244371     75.33843    0.0352708  0.037526493            4 
  179000    1.2248663   -6.8570741    75.980562  0.035372701  0.037503384            1 
  180000    1.1685925   -6.8288135     76.33892  0.035342093  0.037482798            1 
  181000    1.2003135    -6.832289     76.71254  0.035318849  0.037462004            1 
  182000    1.1568433   -6.8552602    76.941515  0.035229631  0.037440739            2 
  183000    1.1596721   -6.8482067    77.564656  0.035320881   0.03741827            4 
  184000    1.1801724   -6.8638431    77.810836  0.035240415   0.03739607            1 
  185000    1.1856088   -6.8321007    78.495174  0.035358187  0.037375931            3 
  186000     1.188119   -6.8536466    78.753878  0.035283996  0.037354818            3 
  187000    1.2204751   -6.8824504    79.109105  0.035253612  0.037333666            1 
  188000     1.194852   -6.8062794    79.920118  0.035425584  0.037314798            5 
  189000    1.1611791   -6.8201324    80.252195  0.035384566  0.037298914            1 
  190000    1.1802115    -6.838793     80.39168  0.035259509  0.037279358            1 
  191000    1.1963178   -6.8841767    80.549708  0.035143852  0.037257907            2 
  192000    1.1760624   -6.8166413    81.235323  0.035258387  0.037239902            1 
  193000    1.1909052   -6.8341724    81.752762   0.03529912   0.03722083            2 
  194000    1.1687831   -6.8343078    82.148325  0.035287081  0.037200635            1 
  195000    1.1705069   -6.8503861    82.516989   0.03526367   0.03717961            1 
  196000    1.1837107    -6.844667    82.403983  0.035035707  0.037157739            3 
  197000    1.1744012   -6.8533608    82.897944  0.035066812  0.037134845            2 
  198000    1.1713938   -6.8701404    83.281137  0.035050983  0.037112324            3 
  199000    1.1543954   -6.8560411    83.952573  0.035156019  0.037090626            1 
  200000    1.1626831   -6.8217254    84.187735  0.035078223   0.03706757            1 
  201000    1.1930986   -6.8830741    84.323806  0.034960118  0.037042951            1 
  202000     1.166101   -6.8710376    84.590665  0.034897139  0.037016518            1 
  203000    1.1876893    -6.832707    85.212013  0.034980301  0.036988961            3 
  204000    1.1854882   -6.8381894    85.418918  0.034893349  0.036962438            2 
  205000    1.1894969   -6.8601796    85.564036  0.034782129  0.036932979            5 
  206000    1.1498284   -6.8574333    86.160081  0.034854402  0.036902463            1 
  207000      1.15919   -6.8140555    86.258894  0.034725803  0.036873498            2 
  208000    1.1742709   -6.8630388    86.733414  0.034748964  0.036843789            2 
  209000    1.1733879   -6.9097224    87.269262  0.034796357  0.036817198            2 
  210000    1.1480187   -6.8778836    87.501924  0.034722986  0.036787601            1 
  211000    1.2056077   -6.8537119    87.977764  0.034746352  0.036760139            5 
  212000    1.1544821   -6.8796727    88.727383  0.034877116  0.036734329            1 
  213000    1.1671264   -6.8816575     89.23458  0.034911807  0.036708816            3 
  214000     1.170175   -6.8511682    89.574733  0.034881126  0.036684969            2 
  215000    1.1678343   -6.8317869    90.094541  0.034920364  0.036659442            2 
  216000    1.1942216   -6.8598946    90.299552   0.03483779  0.036633479            2 
  217000    1.1838587     -6.86641    90.294345  0.034675248  0.036605465            3 
  218000    1.1523083   -6.8525961    90.579766  0.034625293   0.03657596            2 
  219000    1.1951258   -6.8660939    90.812951  0.034555917  0.036547613            3 
  220000    1.1831011   -6.8414488    91.395747  0.034619601  0.036518863            3 
  221000    1.1682878   -6.8841731     91.35635  0.034448096  0.036490357            1 
  222000    1.1567823   -6.8882764    91.935743  0.034510414  0.036460274            3 
  223000    1.1740525   -6.8784003    92.341184  0.034507169  0.036432666            1 
  224000    1.2049533    -6.865992    92.630968  0.034460926   0.03640319            1 
  225000    1.1525156   -6.8735031    93.227565  0.034528728  0.036374462            2 
  226000    1.1706025   -6.8972193    92.942032  0.034270661  0.036342725            1 
  227000    1.1542887   -6.8513883    93.452047  0.034306919   0.03630934            1 
  228000    1.1621616   -6.8691669    93.475736  0.034165108   0.03627374            1 
  229000    1.1515329   -6.8750514    93.754253  0.034117268  0.036236432            1 
  230000    1.1467302   -6.8909917    94.474233  0.034229794  0.036201022            1 
  231000    1.1746028   -6.9031477    95.025514  0.034280488  0.036167952            3 
  232000    1.1474554   -6.8641755     95.40364  0.034268549  0.036134746            2 
  233000    1.1583038    -6.842295    95.981536   0.03432816  0.036103042            3 
  234000    1.1593929   -6.8833375    96.475971  0.034357539   0.03607377            3 
  235000    1.2009648   -6.8642532    96.505558  0.034221829  0.036044242            2 
  236000    1.1374065   -6.8633958    97.029556  0.034261849  0.036013765            1 
  237000    1.1571012   -6.9044974    97.225867   0.03418631  0.035983437            2 
  238000    1.1525167   -6.9058206    97.555121  0.034157955  0.035951884            2 
  239000    1.1630767   -6.8778604    98.235127  0.034252136  0.035922407            2 
  240000    1.1559694   -6.8715083    98.667045  0.034259391  0.035894615            4 
  241000    1.1085281   -6.8750028    99.015024   0.03423756  0.035866257            4 
  242000    1.1864219   -6.8985394    99.213507  0.034164431  0.035839464            1 
  243000    1.1764442    -6.866626    99.645453  0.034171966  0.035813443            3 
  244000    1.1488317   -6.8656828    100.18185  0.034215114  0.035786097            2 
  245000    1.1649904   -6.8818692    100.14589  0.034063227   0.03575755            2 
  246000      1.15334   -6.8853904    100.43544  0.034022846  0.035727424            1 
  247000    1.1365722   -6.9084273    100.80108  0.034008462   0.03569761            1 
  248000    1.1543562   -6.9031003    100.92749  0.033913806  0.035667073            3 
  249000    1.1452753   -6.8677979     101.6955  0.034034637  0.035637817            1 
  250000    1.1503088   -6.8454176    102.08291  0.034027637  0.035609951            1 
  251000    1.1471277    -6.891775    102.61131  0.034067501  0.035583266            1 
  252000    1.1669346   -6.8856338    103.01324  0.034065226  0.035556002            1 
  253000    1.1694868   -6.9199907      102.984  0.033920947  0.035528088            1 
  254000    1.1436702   -6.9037064    103.49811  0.033956074  0.035500612            2 
  255000    1.1385874   -6.9468737    104.14669  0.034034864  0.035474279            1 
  256000    1.1655552   -6.8708771    104.67933  0.034075302  0.035449885            2 
  257000    1.1371745    -6.874808    105.03195  0.034057054  0.035424684            3 
  258000    1.1547759   -6.8876572    104.80681  0.033852328  0.035399665            2 
  259000    1.1533014   -6.8825274    105.31709  0.033885808  0.035372717            2 
  260000    1.1320838   -6.9026139    105.72596  0.033886525   0.03534753            2 
  261000    1.1720477    -6.886662    106.37724  0.033964637  0.035322867            4 
  262000    1.1563105   -6.8790988    106.53888  0.033886413  0.035297551            1 
  263000     1.146488   -6.9153332    107.19956  0.033966908   0.03527252            2 
  264000    1.1491477   -6.8850181    107.11481  0.033811492   0.03524759            1 
  265000    1.1644547   -6.9350798     107.5793  0.033829968   0.03522141            3 
  266000    1.1888782   -6.9155384    108.14629  0.033880417  0.035196521            2 
  267000    1.1182034   -6.9211504    107.91778  0.033682203  0.035169752            2 
  268000    1.1398379   -6.9405132    108.31409  0.033679755  0.035142356            2 
  269000    1.1548855   -6.8829399     109.0564   0.03378451  0.035116663            6 
  270000    1.1219331   -6.9377031    109.22141  0.033710313  0.035091695            1 
  271000     1.146807    -6.885305    109.63966  0.033714532   0.03506615            3 
  272000    1.1313975   -6.9012396    109.83076  0.033649131  0.035040094            3 
  273000    1.1398224   -6.8952849    110.00114  0.033577882  0.035012806            1 
  274000     1.139526   -6.8934434     110.3459  0.033560187  0.034985941            1 
  275000    1.1444951   -6.9303985    110.83836   0.03358738  0.034959379            2 
  276000    1.1677564   -6.9464276    111.20003  0.033574888  0.034932351            5 
  277000    1.1364106   -6.8944286    111.68102  0.033598381  0.034905727            2 
  278000    1.1288566   -6.8855979      111.856  0.033529977  0.034879598            1 
  279000    1.1302257   -6.8511204    112.34967  0.033557248   0.03485418            3 
  280000    1.1421856   -6.8801649    112.73755  0.033552843  0.034829385            4 
  281000    1.1432683   -6.8876971    113.19454  0.033568962  0.034804688            1 
  282000    1.1461794   -6.9291292    113.78566  0.033624603  0.034780152            4 
  283000    1.1368705   -6.9343445    113.57482  0.033443705  0.034757371            3 
  284000    1.1545239   -6.8954026    114.69902  0.033655814  0.034734308            1 
  285000    1.1010131   -6.8810381    115.00533  0.033627291  0.034711251            3 
  286000     1.131667   -6.9233288    114.94797  0.033492999  0.034688183            3 
  287000    1.1036888   -6.9192619    115.05552  0.033407527  0.034663687            2 
  288000    1.1498408    -6.942368    115.38754  0.033387597  0.034639153            1 
  289000    1.1365829   -6.9013883    116.12722  0.033485357  0.034614657            2 
  290000    1.1621852   -6.9141076    115.88637   0.03330068  0.034590893            2 
  291000    1.1543779   -6.9415331    116.23667  0.033286561  0.034565319            2 
  292000    1.1209568   -6.9260444    116.64498  0.033289092  0.034539449            3 
  293000    1.1676437   -6.9321584    116.87937  0.033242142   0.03451289            4 
  294000    1.1335341   -6.9158014     117.4275  0.033284439  0.034487837            2 
  295000    1.1385334   -6.9760794    117.34521  0.033148364   0.03446104            2 
  296000    1.1431271   -6.9421666    117.64805  0.033121635  0.034433828            2 
  297000    1.1387494   -6.9224038    118.14144  0.033148553  0.034407341            2 
  298000    1.1536189   -6.9094681    118.48875  0.033134438  0.034380962            1 
  299000    1.1086502    -6.956832    118.45956  0.033015485  0.034353801            2 
  300000    1.1387172   -6.9227258    118.85689  0.033015803  0.034325965            2 
  301000    1.1534344   -6.9309251    119.65479  0.033127017  0.034299838            3 
  302000    1.1436583   -6.9455924    119.72193  0.033035852  0.034274125            2 
  303000    1.1609027   -6.8943986     120.6205  0.033173956  0.034249751            1 
  304000    1.1221339   -6.9502967     120.4042  0.033005537  0.034226103            2 
  305000    1.1375436   -6.9413052    121.03105  0.033068592   0.03420313            2 
  306000    1.1319485   -6.9101286    121.75917  0.033158816  0.034179821            1 
  307000    1.1601213   -6.9658422    122.06103  0.033132743  0.034157052            2 
  308000    1.1156718   -6.9262078    122.52049  0.033149484  0.034134185            2 
  309000     1.115103   -6.9513588    122.69801  0.033090077  0.034110494            2 
  310000    1.1449609   -6.9648921    122.72809  0.032991421  0.034086224            2 
  311000    1.1267404   -6.9754936    122.32742   0.03277798  0.034061254            2 
  312000    1.1291209   -6.9305771    122.81002  0.032801821  0.034034675            3 
  313000    1.1532348   -6.9664649    123.20955  0.032803396  0.034008908            1 
  314000    1.1257211   -6.9350378    123.73223  0.032837641  0.033982776            3 
  315000    1.1125658   -6.9477505    123.92053   0.03278321  0.033957139            2 
  316000    1.1184979   -6.9680079    124.39623  0.032804913  0.033931103            3 
  317000    1.1171268   -6.9301554    124.06179  0.032613509  0.033904704            2 
  318000    1.1121854   -6.9353302    125.24971  0.032822251  0.033878753            1 
  319000    1.1400372   -6.9268077    125.53345  0.032793483  0.033853946            1 
  320000    1.1002474    -6.952673     126.0175  0.032817058  0.033829738            2 
  321000    1.1175536   -6.9956666    126.16402   0.03275286  0.033804669            2 
  322000    1.1186027   -6.9505343    126.49297  0.032736275   0.03377931            2 
  323000    1.1216605   -6.9082963    126.94277  0.032750973    0.0337551            1 
  324000    1.1415577    -6.975343    127.01471  0.032668392  0.033731688            5 
  325000    1.1430923   -6.9271823    127.84223   0.03278006  0.033707745            2 
  326000     1.115397   -6.9523199    128.43341  0.032830627  0.033685451            1 
  327000    1.1361282   -6.9261993    128.86126  0.032839262  0.033663754            1 
  328000    1.1363341   -6.9276539    129.50374  0.032902374  0.033643854            1 
  329000    1.1053369   -6.9855147    129.45012  0.032788784  0.033624149            2 
  330000    1.1482235   -6.9222348    130.21568  0.032882748  0.033605651            1 
  331000    1.1362414    -6.952901    130.37571  0.032823694  0.033587768            2 
  332000    1.1445985   -6.9912529    130.94285  0.032867182  0.033570165            2 
  333000    1.1186565    -6.966892      131.083  0.032803554  0.033551838            3 
  334000    1.1064945   -6.9466743     132.2391  0.032993788  0.033533379            3 
  335000    1.1075746   -6.9755943    132.31755  0.032914814  0.033516535            2 
  336000    1.0974834    -6.952587    133.13021  0.033018404  0.033500177            1 
  337000    1.1246115     -6.96243    132.98663  0.032884923  0.033484311            1 
  338000    1.1150604    -6.939218    133.07988  0.032810622  0.033466741            1 
  339000    1.1211918   -6.9165695    133.96715  0.032931944  0.033449636            2 
  340000    1.1383288   -6.9390247    133.82006  0.032799035  0.033432132            4 
  341000    1.1275366   -6.9616087     133.9296  0.032729619  0.033415453            1 
  342000    1.1131971   -6.9680474    134.82656  0.032852475  0.033399253            2 
  343000    1.1129033   -6.9604101    134.93892  0.032783995   0.03338297            1 
  344000    1.1222023   -6.9268279    135.26385  0.032767405  0.033366642            1 
  345000    1.1095508    -6.941629    135.82688  0.032808426  0.033350897            1 
  346000    1.1349046   -6.9593887    135.45842  0.032624861  0.033333118            1 
  347000    1.1137936   -6.9811691    136.04361  0.032671377  0.033315329            2 
  348000    1.1048161   -6.9405787    136.70287  0.032735361  0.033298116            2 
  349000    1.1233998   -6.9764841    136.60956  0.032619283   0.03327999            1 
  350000    1.1354516   -6.9755687    136.87751  0.032589882  0.033262829            1 
  351000     1.131189   -6.9284639    137.42518  0.032627061  0.033245801            3 
  352000    1.1351427   -6.9550545     137.9923  0.032668632  0.033228501            2 
  353000    1.1267654   -6.9835649    138.03392  0.032585912    0.0332113            3 
  354000    1.1327963   -6.9610558    138.58594  0.032623808  0.033194594            2 
  355000    1.0818971   -6.9749512    138.69529  0.032557579  0.033178716            1 
  356000    1.1199617   -6.9951927    139.24938  0.032595829  0.033162377            3 
  357000    1.1288024   -7.0172228    139.86058  0.032647194    0.0331466            2 
  358000     1.100449   -6.9449044     140.1125  0.032614641  0.033130548            1 
  359000    1.1072763   -6.9517418     140.3793  0.032585724  0.033114562            2 
  360000    1.1184435    -7.004198    140.67582  0.032563847  0.033098608            1 
  361000    1.1307132   -6.9397645    140.89109  0.032523335  0.033082639            1 
  362000    1.1160135   -6.9726016    141.53837  0.032582498  0.033066145            1 
  363000     1.142009   -6.9847174    141.79552  0.032551773  0.033049925            3 
  364000    1.1118203   -6.9991191    142.12117  0.032536897  0.033033975            2 
  365000    1.1428934   -6.9563371    142.23824  0.032474485  0.033018116            2 
  366000    1.1039723   -6.9682342    142.92876  0.032542977  0.033002188            1 
  367000    1.0984225   -6.9685969    143.11807  0.032497291  0.032985939            1 
  368000    1.0924988   -7.0039753    143.33157  0.032457331  0.032969871            2 
  369000    1.1067907   -7.0039648    143.59391  0.032428615  0.032954044            2 
  370000    1.1150353   -6.9800602    144.00068  0.032432585  0.032938181            1 
  371000    1.1112175   -7.0091377    144.36868  0.032427826  0.032922063            1 
  372000    1.1035724   -6.9962339     144.2492  0.032313889  0.032906029            3 
  373000    1.0892343   -6.9828165    144.76732  0.032343011    0.0328899            3 
  374000    1.1014846   -7.0057114    144.88395  0.032282521   0.03287316            2 
  375000    1.1147505   -7.0004421    145.66196  0.032369325  0.032856318            1 
  376000    1.0920953   -6.9747922    146.37949  0.032442262  0.032839731            3 
  377000    1.0994213   -6.9956928    146.28315  0.032334913  0.032823741            1 
  378000    1.0660895   -6.9738918    146.73311  0.032348568  0.032807577            2 
  379000    1.1141721   -6.9825909    146.74413  0.032265641  0.032790332            1 
  380000    1.1046507   -6.9693734    146.93577  0.032222757  0.032772236            1 
  381000    1.1113483   -6.9612994    147.06148  0.032165678  0.032753845            2 
  382000    1.0791394    -7.029658    147.19577   0.03211077   0.03273478            3 
  383000    1.1164356   -7.0270878    147.37536  0.032066005  0.032715099            5 
  384000     1.092691    -6.972508    147.15716  0.031935149  0.032695583            4 
  385000    1.1118493   -6.9946589    147.60536  0.031949211  0.032675951            2 
  386000    1.0767741     -6.95795    148.77072   0.03211803  0.032657337            2 
  387000     1.108807   -7.0084816    148.27299  0.031927861  0.032638397            1 
  388000    1.1020717   -7.0016154    149.21229  0.032047314  0.032620112            3 
  389000    1.1121986   -7.0046592    149.28399   0.03198029  0.032601248            1 
  390000    1.0832245   -7.0157778    149.03224  0.031844496   0.03258131            4 
  391000    1.0908386   -7.0285195    149.79912  0.031926496  0.032561564            4 
  392000    1.0959182   -6.9678373    150.47824  0.031989422   0.03254272            2 
  393000    1.0947338   -7.0304352    150.30201  0.031870655  0.032523399            2 
  394000    1.0870614   -6.9626467    151.37474  0.032016653  0.032504296            3 
  395000     1.092196    -6.973141     151.0852  0.031874514   0.03248589            3 
  396000    1.0833824   -7.0168469    151.54556  0.031890901  0.032467691            3 
  397000    1.1097559    -7.000621    151.58471  0.031818789  0.032448587            2 
  398000    1.1183052   -6.9931668     151.6228  0.031746818  0.032429038            2 
  399000    1.1065577   -6.9924955    151.54241  0.031650462  0.032408802            3 
  400000     1.101588   -7.0567878    152.28231  0.031725482  0.032388634            2 
  401000    1.0991884   -6.9961702    152.75977  0.031745589  0.032369125            2 
  402000    1.1075747   -6.9678958    153.53928  0.031828208  0.032349938            2 
  403000    1.1005638   -6.9966371    153.30514  0.031700816  0.032330854            1 
  404000    1.1079438   -7.0158132    153.24787  0.031610533  0.032311207            3 
  405000    1.0914258   -7.0217854    153.44197  0.031572422  0.032291859            4 
  406000    1.0608787   -6.9818157     154.2037  0.031651006  0.032272745            3 
  407000    1.0930847   -7.0374938    154.19875  0.031572226  0.032253261            2 
  408000    1.0903002   -7.0538051    154.38844  0.031533587  0.032232783            2 
  409000    1.0798024   -7.0188098    155.32041  0.031646375  0.032212295            3 
  410000    1.0813811    -7.039241     155.0249  0.031509126  0.032191418            2 
  411000    1.0619822   -7.0187492    155.33613  0.031495565  0.032170955            1 
  412000    1.0657294   -7.0130717    155.42878   0.03143786  0.032149804            3 
  413000    1.0903993   -7.0380749    155.33801  0.031343423  0.032128237            2 
  414000    1.0705138   -7.0416348    155.68372  0.031337303  0.032106109            3 
  415000    1.0833073   -7.0037982    156.34733  0.031395047  0.032084798            6 
  416000    1.0577091   -7.0199902      156.567  0.031363581  0.032064525            1 
  417000    1.0675212   -7.0180525    157.31772  0.031438393  0.032044142            4 
  418000    1.0881364   -7.0248237    157.42787  0.031385141  0.032023529            1 
  419000    1.0731463   -7.0713269    156.84095  0.031193506   0.03200311            2 
  420000    1.0642691   -7.0445883     157.6112  0.031272064   0.03198162            2 
  421000    1.0711892   -7.0480383    157.89653  0.031254262  0.031960402            1 
  422000    1.0875711   -7.0626716    158.08018  0.031216464    0.0319398            1 
  423000    1.1072362   -7.0294371    158.47302  0.031220058  0.031918478            3 
  424000    1.0521252   -7.0955896    157.88295  0.031030455  0.031896381            2 
  425000    1.0811747   -7.0033506    159.36246  0.031247541  0.031874771            2 
  426000    1.0847132    -7.001273    159.38317  0.031178241  0.031853846            1 
  427000     1.067283   -7.0324063    159.80993   0.03118851  0.031832476            1 
  428000    1.0716688   -7.0246023    159.46516  0.031048512  0.031811029            2 
  429000    1.0781557   -7.0261371    160.47252  0.031171818  0.031789982            2 
  430000    1.0896977   -7.0194196    160.53354  0.031111151  0.031768788            2 
  431000    1.0754252   -7.0497091    160.78317  0.031087233  0.031747535            2 
  432000     1.077196   -7.0271538    161.20644  0.031096922  0.031726197            1 
  433000    1.0773782    -6.989168     161.4677  0.031075385  0.031705883            2 
  434000    1.0527099   -7.0264567    161.41493   0.03099365  0.031685009            3 
  435000    1.0825717   -7.0305058    162.16948   0.03106695  0.031663918            2 
  436000    1.0896111   -7.0518795    162.48412  0.031055833  0.031643225            3 
  437000    1.1000536   -7.0385581    162.15432  0.030921877  0.031622378            2 
  438000     1.074817   -7.0313335    162.41309  0.030900511  0.031601016            1 
  439000    1.0735292   -7.0706383    162.48264  0.030843325  0.031579507            2 
  440000    1.0816144   -7.0243379    163.25085  0.030918721  0.031558251            2 
  441000    1.0597566   -7.0412387    163.35759  0.030868781   0.03153708            3 
  442000    1.0888509   -7.0469014    163.37408  0.030802051  0.031515463            4 
  443000    1.0898214   -7.0429552    163.87431   0.03082662  0.031493873            3 
  444000    1.0629544   -7.0103372    164.35466  0.030847346  0.031472285            3 
  445000    1.0739529   -7.0146044    164.25178  0.030758761  0.031451316            2 
  446000    1.0889639   -7.0498081    165.00573  0.030830668  0.031430774            2 
  447000    1.0915479   -7.0676158    165.04045  0.030768168  0.031410718            2 
  448000    1.0676589   -7.0929224    165.65443  0.030813697   0.03139075            1 
  449000    1.0855663   -7.0514104    165.82301  0.030776358  0.031370782            3 
  450000    1.0674901    -7.077293    166.66908  0.030864644  0.031350371            2 
  451000    1.0917483   -7.0660594    166.44381  0.030754585  0.031330996            1 
  452000    1.0477401   -7.0721268    166.99897  0.030788895  0.031311849            2 
  453000    1.0764996   -7.0240247    167.82327  0.030872566  0.031293023            6 
  454000    1.0840314   -7.0201974    168.17411  0.030868962  0.031274171            3 
  455000    1.0836502   -7.0581767    168.07187  0.030782394  0.031255059            2 
  456000    1.1048966   -7.0086176     168.3137  0.030759083  0.031236274            2 
  457000    1.0548065   -7.0548551    168.61719  0.030747116  0.031217523            1 
  458000    1.0685959   -7.0479643    168.98368  0.030746667  0.031198704            2 
  459000    1.0650524   -7.0622921    169.28919  0.030735147  0.031180155            2 
  460000    1.0643752   -7.0171142    169.23061  0.030657719  0.031161489            1 
  461000    1.0618536   -7.0812062    169.61717  0.030661094   0.03114243            2 
  462000    1.0838338    -7.083077     169.8881  0.030643596  0.031123471            1 
  463000    1.0775901   -7.0656546     170.0513  0.030606785  0.031104426            2 
  464000    1.0565582   -7.0591512    170.07057  0.030544283  0.031085292            2 
  465000    1.0757135   -7.0795354    170.26805  0.030513987  0.031066437            2 
  466000    1.0601511   -7.0305094     171.4078  0.030652324  0.031048204            2 
  467000    1.0665325   -7.1246525    171.28445  0.030564677  0.031029718            1 
  468000    1.0776613   -7.0502392    171.82784  0.030596125  0.031011096            2 
  469000    1.0619185   -7.0745062     171.4942  0.030471607  0.030992141            1 
  470000     1.058285   -7.0791838    171.97226  0.030491536  0.030972368            2 
  471000    1.0937388   -7.0817316    172.31742  0.030487866   0.03095327            3 
  472000    1.0629555   -7.0623177    173.24273   0.03058664  0.030934628            2 
  473000    1.0865498   -7.1028914    172.91488  0.030464215   0.03091606            2 
  474000    1.0665047   -7.0825028     173.5237   0.03050698  0.030897056            2 
  475000    1.0752623   -7.0581822    173.70409  0.030474401   0.03087809            1 
  476000    1.0724984   -7.0378493    174.26089  0.030507858  0.030859292            3 
  477000    1.0415273   -7.1069486    174.37115  0.030463164  0.030840826            2 
  478000     1.075249   -7.0692772    174.44268  0.030411903  0.030822649            3 
  479000    1.0737283   -7.0374807     175.2598   0.03049057  0.030804464            2 
  480000    1.0659799   -7.0801947    175.31786  0.030437129  0.030786817            2 
  481000    1.0601704   -7.0938004    175.74782  0.030448341    0.0307689            1 
  482000    1.0659959   -7.0739489    176.00819  0.030430185  0.030751274            2 
  483000    1.0611258   -7.1123214    175.75686  0.030323819  0.030732983            3 
  484000    1.0499737    -7.097585    176.04401  0.030310607  0.030715154            2 
  485000    1.0731746   -7.1021193    176.52068  0.030330014  0.030697625            1 
  486000    1.0394124   -7.0665542    177.06802  0.030361458  0.030680311            2 
  487000    1.0763296   -7.0645446    177.52145  0.030376703  0.030663004            2 
  488000    1.0439973     -7.06945    177.96034  0.030389402  0.030646159            2 
  489000    1.0726421   -7.0753784    177.73263  0.030288452  0.030629303            3 
  490000    1.0286039   -7.1188333    177.57669  0.030200118  0.030611442            2 
  491000    1.0647739   -7.0910089    178.47948  0.030291834   0.03059388            2 
  492000    1.0612163   -7.1459303    178.13716  0.030172283  0.030576034            3 
  493000    1.0478342   -7.0863842    178.90068  0.030240142   0.03055768            1 
  494000      1.04251   -7.1196726    179.31434  0.030248709  0.030540012            4 
  495000    1.0497011   -7.1207475    178.90224  0.030118222  0.030522375            1 
  496000    1.0417163   -7.1221203     179.3534  0.030133299  0.030504987            2 
  497000    1.0603811   -7.1071145    180.19779   0.03021425  0.030487523            2 
  498000     1.074535   -7.1112923    180.06002  0.030130526   0.03046964            4 
  499000    1.0603796   -7.1061407    180.23972  0.030100154   0.03045113            2 
  500000    1.0510373   -7.0744912    180.14976   0.03002496  0.030432759            3 
  501000    1.0409656    -7.102706    180.86118  0.030083363  0.030414465            2 
  502000    1.0745813   -7.0814962    181.19431  0.030078736  0.030396238            1 
  503000    1.0566032   -7.1131111    180.96963  0.029981715  0.030378293            2 
  504000    1.0782158   -7.1064421    181.54028  0.030016581  0.030359914            3 
  505000    1.0402271   -7.1449781     181.9568  0.030025875  0.030341721            3 
  506000    1.0422335   -7.0581099     182.1757  0.030002585  0.030323822            2 
  507000    1.0412967   -7.1018623    182.68255  0.030026718  0.030305797            3 
  508000    1.0267297   -7.0864214    182.43827  0.029927538    0.0302885            2 
  509000    1.0652978   -7.0991536    183.04666  0.029968347  0.030271245            2 
  510000    1.0411932   -7.0927741      183.716  0.030018953  0.030253807            5 
  511000    1.0678182   -7.0818057    183.76309  0.029967888  0.030236647            4 
  512000    1.0463973   -7.0871256    183.80998  0.029916989  0.030219254            2 
  513000    1.0469162   -7.0635748    184.13616  0.029911657  0.030201896            1 
  514000    1.0313548   -7.0919569    184.69872  0.029944669  0.030184532            4 
  515000    1.0391703   -7.1187127    184.23246  0.029811078  0.030166989            4 
  516000    1.0578628   -7.1251884    184.79606  0.029844325   0.03014975            3 
  517000    1.0470758   -7.1409361    185.01959  0.029822629  0.030132349            4 
  518000    1.0675732   -7.0795706    185.71838  0.029877475  0.030114916            1 
  519000    1.0448112   -7.1035147     186.0512  0.029873346  0.030097583            1 
  520000    1.0249914   -7.1201131    186.50864  0.029889205   0.03008029            3 
  521000    1.0553223   -7.0978123     186.8037  0.029879031  0.030063277            4 
  522000    1.0523451   -7.0786992    186.55672  0.029782363  0.030046243            2 
  523000    1.0565657   -7.1006087    186.99129  0.029794661  0.030029032            3 
  524000    1.0640751   -7.1091724    187.30277  0.029787337  0.030011835            2 
  525000     1.036581   -7.1081729    187.96533  0.029835767  0.029994454            2 
  526000    1.0400393    -7.118456    187.64598   0.02972845  0.029977001            3 
  527000    1.0333051   -7.1141644    187.49242  0.029647758  0.029959097            3 
  528000    1.0442317   -7.1063887    188.14978  0.029695356  0.029941694            2 
  529000    1.0461272   -7.1291679    188.15237  0.029639629  0.029924175            3 
  530000    1.0359692   -7.1382956    188.24441  0.029598177  0.029906569            1 
  531000    1.0430842   -7.1042323    188.62788  0.029602618  0.029889237            2 
  532000    1.0551596   -7.1411814    189.00076  0.029605382  0.029871651            2 
  533000    1.0587094   -7.1313303    188.82448  0.029522277  0.029854007            2 
  534000    1.0314618   -7.1709506    188.71881  0.029450501  0.029836193            1 
  535000    1.0374318   -7.1017814    190.22727  0.029630416   0.02981835            2 
  536000    1.0414538   -7.1340466    189.95554  0.029532888   0.02980087            3 
  537000    1.0302417   -7.1009163    189.99948  0.029484712  0.029783408            1 
  538000    1.0319842   -7.1135008    190.37595  0.029488221  0.029766267            3 
  539000    1.0336509   -7.1254181     190.1545  0.029399273  0.029748187            2 
  540000    1.0406751   -7.1186835    191.13695  0.029496443  0.029730668            3 
  541000    1.0460045   -7.1090467    191.05739  0.029429665  0.029713438            2 
  542000    1.0384172    -7.148419    191.75048  0.029481931  0.029696281            1 
  543000     1.035986   -7.1283937    192.43633  0.029532893  0.029679343            7 
  544000    1.0313728   -7.1233893     191.8036  0.029381679  0.029662232            1 
  545000    1.0518082    -7.131023     192.3093  0.029405091  0.029645222            3 
  546000    1.0498853   -7.1095483    192.43335   0.02937017  0.029627888            1 
  547000    1.0284688   -7.1600873    192.77227   0.02936811  0.029610675            1 
  548000    1.0313699   -7.1370183    193.30189  0.029395057  0.029593653            4 
  549000    1.0325251   -7.1394289      193.138  0.029316636  0.029576758            2 
  550000    1.0430545   -7.1421925    193.60747  0.029334465  0.029559739            3 
  551000    1.0287728   -7.1024702    194.21394  0.029372949    0.0295425            4 
  552000    1.0243621    -7.164487    193.93017  0.029276897  0.029525308            1 
  553000    1.0269658   -7.1479349    194.50418  0.029310455   0.02950814            4 
  554000    1.0339879    -7.080584    194.80427  0.029302688  0.029490991            2 
  555000    1.0462625   -7.1246355    195.05451  0.029287464  0.029473831            3 
  556000    1.0434219   -7.1211572    194.93298  0.029216574  0.029456513            1 
  557000    1.0220441   -7.1586263    195.04894  0.029181469  0.029439449            2 
  558000    1.0299396   -7.1496089    195.43305  0.029186537  0.029421559            2 
  559000    1.0066507   -7.1823472    195.30707  0.029115544  0.029403696            3 
  560000    1.0175205    -7.161105    195.38243  0.029074766  0.029385359            1 
  561000    1.0226575    -7.173204    194.97213  0.028961993  0.029366979            3 
  562000    1.0374202   -7.2005254    195.56536  0.028998422  0.029348208            2 
  563000    1.0161325   -7.1366502    196.08455  0.029023764   0.02932982            3 
  564000    1.0162374   -7.1123443    196.13182  0.028979288  0.029311819            2 
  565000    1.0514393    -7.166424     196.5575  0.028990782  0.029293831            1 
  566000    1.0374214   -7.1670352    196.59592  0.028945218   0.02927594            1 
  567000    1.0189469   -7.1527683    196.60707  0.028895807  0.029257993            3 
  568000    1.0061838   -7.1825158    197.47637  0.028972471   0.02923987            1 
  569000    1.0145301   -7.1862556    197.49201  0.028923844  0.029221883            3 
  570000    1.0332616   -7.1510971    197.74489  0.028910071  0.029204002            2 
  571000    1.0158276   -7.1614395     198.3921  0.028953897  0.029185988            1 
  572000    1.0189232   -7.1899299    197.25749   0.02873798  0.029167673            2 
  573000    1.0025276   -7.1804927    197.92581  0.028785022  0.029148943            1 
  574000    1.0248831   -7.1477325    197.82208  0.028719814   0.02912995            2 
  575000    1.0134387   -7.1552061    198.21431  0.028726711  0.029110859            4 
  576000    1.0426788   -7.1488216    198.74372  0.028753431    0.0290919            3 
  577000    1.0296595   -7.1910895    198.96031  0.028734881  0.029073184            3 
  578000    1.0119461   -7.1735573    198.69471  0.028646873   0.02905425            1 
  579000    1.0282417   -7.1935515    199.62442  0.028731207  0.029035317            2 
  580000    1.0147962   -7.1647918    199.81712  0.028709356  0.029016542            2 
  581000    1.0104252   -7.1521037    200.78647  0.028798978  0.028998352            3 
  582000    1.0489185   -7.1342683    200.93534  0.028770811  0.028980416            2 
  583000    1.0525565   -7.1822721    201.11058  0.028746509  0.028962464            1 
  584000    1.0145277   -7.1613466    200.68849  0.028637056  0.028944907            3 
  585000    1.0093512   -7.1810195    201.00515  0.028633213  0.028926942            2 
  586000    1.0107034   -7.1504847    200.98487  0.028581466  0.028909227            1 
  587000     1.027237   -7.1926825    202.17752   0.02870209  0.028891233            1 
  588000    1.0249981   -7.1776739    202.13801  0.028647677  0.028873622            2 
  589000    1.0036778   -7.1427465    202.77605  0.028689311  0.028856384            1 
  590000    1.0234755   -7.1870149    202.81373  0.028646007  0.028839801            1 
  591000    1.0131258   -7.1751218     203.4976  0.028693964  0.028823123            1 
  592000   0.99658398   -7.1862597    204.09474  0.028729553  0.028806756            2 
  593000    1.0028045   -7.1807181    203.94969  0.028660721  0.028790585            2 
  594000    1.0431756   -7.1666525     204.7748  0.028728226  0.028774713            3 
  595000    1.0386233   -7.1501588    204.94576  0.028703889  0.028758847            2 
  596000    1.0199766    -7.207588    204.87818  0.028646277   0.02874296            2 
  597000     1.007845    -7.161331    205.63766  0.028704307  0.028727489            2 
  598000    1.0044284   -7.1891185    205.80484  0.028679605  0.028711899            2 
  599000    1.0217545   -7.1900193    206.40022  0.028714554  0.028696697            4 
  600000    1.0308832     -7.19072    206.16125  0.028633507  0.028681102            2 
  601000    1.0235059   -7.1377592    205.65974  0.028516326  0.028665303            4 
  602000   0.99513699   -7.1797589    206.61595  0.028601323   0.02864933            3 
  603000    1.0380038   -7.1759568    206.63888   0.02855706  0.028633479            2 
  604000    1.0195952   -7.1937901    206.76544  0.028527241  0.028617697            2 
  605000    1.0059923   -7.2116073    206.68338  0.028468785   0.02860142            7 
  606000    1.0064941   -7.1747543    207.15064  0.028486062  0.028584857            2 
  607000    1.0082113   -7.1655886    207.58863  0.028499263  0.028568799            2 
  608000    1.0255198   -7.1363436    207.97534  0.028505392  0.028552553            1 
  609000    1.0135786   -7.1918317    207.53954  0.028398952  0.028536292            2 
  610000     1.022758   -7.1575388    208.56914  0.028493052  0.028519754            2 
  611000     1.024568   -7.1913057    208.57095  0.028446666  0.028503529            4 
  612000     1.002748   -7.2361106    208.35785  0.028371167   0.02848728            3 
  613000   0.97284169    -7.213204     208.3647  0.028325816  0.028470739            2 
  614000    1.0036671   -7.1978416    208.64869  0.028318226   0.02845409            1 
  615000    1.0098075   -7.2025294    208.50118  0.028252193  0.028437379            2 
  616000    1.0216099   -7.1844173    208.82473  0.028250098  0.028420451            3 
  617000     1.007463   -7.1810496    209.33491  0.028273218  0.028403501            3 
  618000   0.98031082   -7.2299268    209.50066   0.02824982  0.028386819            2 
  619000    1.0035584   -7.2160966    208.47499    0.0280661  0.028369538            3 
  620000   0.99641633   -7.2260949    209.98952  0.028224398  0.028352361            3 
  621000   0.98862606   -7.1796618    209.44457   0.02810582  0.028335375            5 
  622000    1.0003864   -7.2277123    210.33973  0.028180564  0.028318041            2 
  623000    0.9981289    -7.227393    210.47594  0.028153551  0.028300905            2 
  624000   0.99896114   -7.1972958    210.71724  0.028140658  0.028283917            1 
  625000    0.9945911   -7.1828273    210.19382  0.028025842  0.028266801            2 
  626000   0.98604976   -7.2538114     211.2945  0.028127596  0.028249951            2 
  627000    1.0101064     -7.20957    211.24857  0.028076631  0.028233239            3 
  628000    1.0085405   -7.2282731    212.24265  0.028163833  0.028216785            5 
  629000    1.0162315   -7.1912534    212.13064  0.028104219  0.028200685            1 
  630000     1.014237   -7.2189329    212.57515  0.028118406  0.028184054            2 
  631000    1.0335188    -7.172208    212.16377  0.028019516  0.028167236            4 
  632000    1.0234328   -7.1890363    212.68769  0.028044262  0.028150595            2 
  633000    1.0066611   -7.2291002    212.89988  0.028027893  0.028134067            4 
  634000   0.98202797   -7.1524861    213.12661  0.028013487  0.028117104            3 
  635000    1.0025856   -7.2247589    212.53374  0.027891567  0.028099969            3 
  636000   0.98500508   -7.1923246    213.57209  0.027983764    0.0280827            2 
  637000   0.99871412   -7.2193567    213.32196  0.027907111  0.028065553            2 
  638000   0.99519317   -7.2076809    213.32056  0.027863187  0.028048619            2 
  639000   0.98530103   -7.2084694    213.50481  0.027843611   0.02803152            4 
  640000    1.0120915   -7.1792841    214.46812  0.027925536   0.02801443            3 
  641000   0.98890661   -7.2014008    214.48013  0.027883532   0.02799787            4 
  642000   0.99434462   -7.1995905    214.46367  0.027837963  0.027981122            2 
  643000   0.98020484   -7.2167707    215.07964    0.0278745  0.027964518            5 
  644000    1.0133205   -7.2773508    214.85529  0.027802186  0.027947913            3 
  645000   0.99709134   -7.2499899    215.36792  0.027825313   0.02793105            2 
  646000   0.98676373   -7.1920155    215.94253  0.027856363  0.027914593            1 
  647000   0.97856692   -7.2673775    215.82459  0.027798119  0.027898092            3 
  648000   0.98166324   -7.2004603    216.29184  0.027815308  0.027881756            3 
  649000    1.0036952   -7.1999808    216.42011  0.027788919  0.027865575            3 
  650000   0.99638427   -7.2026236     216.9345  0.027812116  0.027849507            3 
  651000   0.99360414    -7.199332    216.85479  0.027759189  0.027833493            2 
  652000    1.0052741   -7.1818676    217.45224  0.027792976  0.027817541            4 
  653000   0.96692224   -7.2225944    217.30183  0.027731218  0.027801874            2 
  654000     1.013114    -7.214231    217.80123   0.02775245  0.027785926            3 
  655000    0.9998513   -7.2035238    218.82334  0.027840119  0.027770254            2 
  656000    1.0092498   -7.2399575     218.2254  0.027721723  0.027754532            2 
  657000   0.99013743   -7.1974963    218.97439   0.02777453  0.027739172            2 
  658000   0.97635409   -7.2236209    218.93794  0.027727703  0.027723955            3 
  659000   0.99944973   -7.2459212    218.81379  0.027669928   0.02770849            2 
  660000   0.99126992   -7.2068543    219.62889  0.027730921  0.027692942            2 
  661000   0.98671364   -7.2277064    219.46824  0.027668714  0.027677387            1 
  662000   0.99616213   -7.2484041    219.60596  0.027644255  0.027661576            2 
  663000   0.96066592    -7.188794    219.83108  0.027630855  0.027645761            2 
  664000   0.98605371   -7.2438507    219.26356  0.027518017  0.027629976            6 
  665000   0.98788813   -7.2238558    220.14983  0.027587698  0.027613924            2 
  666000    1.0027968    -7.253569    220.42244  0.027580385  0.027598065            3 
  667000    1.0019952   -7.2397083    220.64658  0.027567039  0.027582382            2 
  668000    1.0176338   -7.2503896    220.65235  0.027526491  0.027566574            3 
  669000   0.99936424   -7.2639916    220.56178  0.027474064  0.027550673            3 
  670000   0.97260864   -7.2163112    220.63505  0.027442171  0.027534539            2 
  671000   0.98178955   -7.2495834    220.65105   0.02740326  0.027518493            3 
  672000    0.9782978   -7.2557458    221.15067  0.027424438  0.027502105            3 
  673000   0.98677701   -7.2280468    221.53114    0.0274308  0.027485704            3 
  674000    1.0028214   -7.2621052    222.09192  0.027459436  0.027469571            2 
  675000   0.97529747   -7.2570786     221.5343  0.027349913  0.027453387            3 
  676000   0.97353943   -7.1975086    222.16959   0.02738777    0.0274369            3 
  677000   0.98550241   -7.2494919      221.658  0.027284342  0.027420184            4 
  678000   0.98760428    -7.261233    222.01247  0.027287669  0.027403336            3 
  679000   0.98584244   -7.2231487    222.28192   0.02728055  0.027386505            3 
  680000   0.98893449   -7.2587388    222.62257  0.027282178  0.027370102            3 
  681000   0.97788042   -7.2447336    222.39574  0.027214359  0.027353623            2 
  682000    0.9682808   -7.2686366    222.76902  0.027220066  0.027337138            2 
  683000   0.97227053   -7.2268729    223.32344  0.027247857  0.027320883            2 
  684000   0.97729051   -7.2385925    223.36261  0.027212794  0.027304348            4 
  685000    1.0093062   -7.2760874    223.57226  0.027198571  0.027288315            3 
  686000   0.99505676   -7.2326932    224.53472  0.027275841  0.027272478            3 
  687000   0.97278312   -7.2461915    224.02603  0.027174434  0.027256175            3 
  688000   0.95176469    -7.224889    224.87849  0.027238189  0.027239936           10 
  689000   0.95299534   -7.2406054    224.41397  0.027142474  0.027223889            2 
  690000    1.0021247   -7.2643082    224.80174  0.027149968  0.027207779            2 
  691000   0.97312339   -7.2416362    225.38442  0.027180948  0.027191859            4 
  692000   0.96588301   -7.2570258    225.11637  0.027109389  0.027175827            3 
  693000   0.98283068   -7.2576763    225.30883  0.027093414      0.02716            7 
  694000   0.99390614   -7.2811482    225.18973  0.027040073   0.02714385            3 
  695000   0.96160821    -7.245698    226.05423  0.027104823  0.027127903            2 
  696000    1.0008947    -7.259217    226.25022  0.027089346   0.02711174            5 
  697000   0.98217354   -7.2664399    226.08136  0.027030292  0.027095514            2 
  698000   0.99289355     -7.26937    226.67692  0.027062669  0.027079405            2 
  699000    0.9878479   -7.2740662    226.33999  0.026983785     0.027063            1 
  700000   0.99325979   -7.2730814    227.04076  0.027028662  0.027046433            5 
  701000   0.98274564   -7.2887784    227.46158  0.027040131  0.027030161            1 
  702000   0.97578875   -7.2837937    227.39746     0.026994  0.027014299            2 
  703000   0.96689468   -7.2648818    227.84352  0.027008478  0.026998432            2 
  704000    0.9560259   -7.2661201    228.39606  0.027035519  0.026982631            3 
  705000   0.97466537   -7.2737192    228.27964  0.026983409  0.026966537            3 
  706000   0.98394802   -7.2816256    228.00023  0.026912208  0.026950492            1 
  707000   0.95984536   -7.2686957    228.13515  0.026890046  0.026934104            3 
  708000   0.98796692   -7.3363866    227.69997  0.026800843  0.026917313            3 
  709000   0.99179951    -7.283802    228.10122  0.026810204  0.026900609            5 
  710000   0.96932367   -7.2862856    228.04458  0.026765795  0.026883811            1 
  711000   0.96587646   -7.2668351    227.46034  0.026659674  0.026866653            3 
  712000   0.98621816   -7.3077034    228.64436   0.02676081  0.026849401            4 
  713000   0.95263543   -7.2926893    228.53631  0.026710649  0.026832428            5 
  714000   0.98410439   -7.2693877    228.80508  0.026704608   0.02681555            3 
  715000   0.95960107    -7.273682    229.14644  0.026707045  0.026798832            2 
  716000   0.97964642   -7.2700468    229.17117  0.026672622  0.026782017            1 
  717000   0.97381685   -7.2979864    229.97996  0.026729423  0.026765451            2 
  718000   0.97000821   -7.2621413    230.60587  0.026764841  0.026749375            2 
  719000   0.95589747   -7.2785384    230.06289  0.026664683  0.026733325            2 
  720000   0.96728994   -7.2872588    230.60184  0.026690028  0.026717243            1 
  721000   0.96757164   -7.2529418    230.41119  0.026630974  0.026701074            3 
  722000   0.97494763   -7.2728501    230.46661  0.026600486  0.026684932            2 
  723000   0.96812183   -7.2832931    231.30179  0.026659958  0.026668782            3 
  724000   0.96582655   -7.3074624     230.9865  0.026586844  0.026652424            3 
  725000   0.95526807   -7.3285617    231.08889  0.026561941  0.026636312            2 
  726000   0.96532766   -7.3019598    231.76098    0.0266025  0.026619997            1 
  727000   0.98882049   -7.2692635    231.97918  0.026590919  0.026603915            2 
  728000    0.9683904   -7.2625827    232.42584  0.026605522   0.02658788            2 
  729000   0.94423887   -7.2794724    231.81138  0.026498786  0.026571681            1 
  730000   0.98071203   -7.2964099    232.52724  0.026544206  0.026555683            4 
  731000   0.95442988   -7.2772811    232.65017  0.026521907  0.026539552            1 
  732000    0.9798033   -7.3054046    232.26693  0.026442045  0.026523127            4 
  733000   0.95202119   -7.2866215    232.71654  0.026457088  0.026506604            2 
  734000   0.94803233   -7.3186361    232.31203  0.026375117  0.026490055            2 
  735000   0.96214334   -7.2699622    233.71296  0.026498068  0.026473661            4 
  736000   0.95887363   -7.2987052    233.27061   0.02641198  0.026457298            2 
  737000   0.95073694   -7.3049981    232.50416   0.02628948  0.026440666            2 
  738000   0.95317504   -7.3035551    233.54898  0.026371836  0.026424019            3 
  739000   0.95859437   -7.2642497    233.47023   0.02632727  0.026407279            4 
  740000   0.94560431   -7.3290985    233.16091  0.026256859  0.026390599            3 
  741000   0.95267504   -7.3195154    233.58134  0.026268707  0.026373697            3 
  742000   0.95752167   -7.2702871    233.71035  0.026247793  0.026356795            1 
  743000   0.95347224   -7.2593854    234.42822  0.026292981  0.026340252            2 
  744000   0.95177272   -7.3024585    234.34601  0.026248433  0.026323762            3 
  745000   0.92584342   -7.3027363    234.14467  0.026190679  0.026306712            3 
  746000   0.96583143   -7.3060438    233.35305  0.026067141  0.026289619            3 
  747000    0.9555994   -7.2913303    234.52837  0.026163361  0.026272552            1 
  748000    0.9396901   -7.3079959     234.3208  0.026105259  0.026255514            2 
  749000   0.95578848   -7.3295468    234.32796  0.026071201  0.026238352            2 
  750000   0.95205062   -7.3107812     235.3497  0.026149967  0.026221529            2 
  751000   0.95528581   -7.3344347     234.5873  0.026030548  0.026204431            3 
  752000   0.95563069   -7.3203743    235.20635  0.026064534  0.026187462            2 
  753000   0.94821913   -7.3297417    236.13137   0.02613229  0.026170662            3 
  754000   0.93537795    -7.303989    236.00816  0.026084014  0.026154019            2 
  755000   0.94715294   -7.3280057    236.08066  0.026057468  0.026137057            2 
  756000   0.95229757   -7.3283709    236.18915  0.026034959  0.026120084            1 
  757000   0.96135857   -7.3052144    236.45881  0.026030252  0.026103164            2 
  758000   0.95879545   -7.3540363    235.98725  0.025944069  0.026086318            4 
  759000   0.95961616   -7.3154671    237.10358  0.026032453   0.02606947            2 
  760000   0.93287374   -7.3135361    236.70321  0.025954299  0.026052494            5 
  761000   0.95024731   -7.3311219    236.49572  0.025897473  0.026035546            1 
  762000   0.97772217   -7.2855882    236.68648  0.025884348  0.026018496            2 
  763000   0.94225576   -7.3557491    236.67227  0.025848872  0.026001285            2 
  764000   0.96204083   -7.3385004    236.71258  0.025819435  0.025983993            3 
  765000   0.95245502     -7.29753    237.88872  0.025913804  0.025966875            2 
  766000   0.93049207   -7.3204602    237.21926  0.025807143  0.025949651            1 
  767000   0.95074135   -7.3692259    237.07262  0.025757564  0.025932452            3 
  768000   0.96229458    -7.344676    237.76648  0.025799314  0.025915404            2 
  769000   0.93174921   -7.3532514    236.77988  0.025658852  0.025897937            2 
  770000   0.95705788    -7.363906    237.67324  0.025722212   0.02588044            5 
  771000   0.96123865   -7.2965475     238.0173  0.025726038  0.025862863            2 
  772000   0.94666003   -7.3277388    238.31799  0.025725172  0.025845587            2 
  773000   0.94089376   -7.3686509    237.31724  0.025584006  0.025828182            2 
  774000   0.95755245   -7.3453117    237.82037  0.025605122  0.025810729            1 
  775000   0.94346692   -7.3648831    237.76229  0.025565838  0.025792948            1 
  776000   0.94541916   -7.3391455    238.02109  0.025560684  0.025775297            3 
  777000   0.93221879   -7.3394217    238.06306  0.025532289  0.025757611            4 
  778000   0.95639948   -7.3608455    237.66063  0.025456366  0.025739902            3 
  779000   0.94091071   -7.3182525    238.44531  0.025507628  0.025722032            7 
  780000   0.95219592   -7.3434714    239.60371  0.025598687  0.025704434            2 
  781000    0.9437854   -7.3397118    238.74068  0.025473824  0.025686827            4 
  782000   0.92875977   -7.3644591    239.10398  0.025479963  0.025669242            2 
  783000   0.94754736    -7.331721    238.68688  0.025403031    0.0256513            5 
  784000   0.93472685   -7.3337589    239.30519  0.025436351  0.025633251            3 
  785000   0.95661796   -7.3577204    239.46835  0.025421269  0.025615565            4 
  786000    0.9380063   -7.2998044    239.28573  0.025369564  0.025597922            2 
  787000   0.94831169   -7.3145828    239.29217   0.02533801  0.025580187            2 
  788000   0.90930843   -7.3278039    240.06347  0.025387423  0.025562618            2 
  789000   0.92560748   -7.3327838    239.83702  0.025331328  0.025545119            5 
  790000   0.93726693   -7.3479993    240.21717  0.025339364  0.025527705            2 
  791000   0.94082287    -7.334181    240.90703  0.025380008  0.025510219            2 
  792000   0.91994446   -7.3553708    240.82925  0.025339778  0.025492853            4 
  793000   0.94240422   -7.3872835     240.7441  0.025298875  0.025475232            2 
  794000   0.95463773   -7.3779484     240.8155  0.025274506  0.025457597            6 
  795000   0.92301585   -7.3492355    241.17333  0.025280223  0.025439959            5 
  796000   0.93710491   -7.3705327    240.77189  0.025206438  0.025422364            3 
  797000   0.93110524   -7.3788161    240.53094  0.025149617  0.025404615            2 
  798000   0.92893112   -7.3695591    240.89524  0.025156145  0.025386881            4 
  799000   0.91758304   -7.3564543    241.15135  0.025151372  0.025369135            3 
  800000    0.9346433   -7.3383437    241.96006  0.025204173  0.025351678            2 
  801000   0.93911222    -7.369444    241.78107  0.025154085  0.025334172            4 
  802000   0.91702088   -7.3690412    241.16752  0.025058969  0.025316353            2 
  803000    0.9306609    -7.341865    242.53053  0.025169213  0.025298701            3 
  804000   0.94364781    -7.353083    242.11613  0.025094955   0.02528133            2 
  805000   0.92290116   -7.3605951     242.6404  0.025118054  0.025263716            2 
  806000   0.92964855   -7.3855444    242.19181   0.02504051  0.025246004            4 
  807000   0.93164742   -7.3870693    242.50281  0.025041595  0.025228408            2 
  808000   0.91227049   -7.3638851    242.30312  0.024990009  0.025210727            4 
  809000   0.92176817   -7.3995986    243.09992  0.025041195  0.025193194            4 
  810000   0.93634402   -7.3803476    243.60228  0.025061963  0.025175812            2 
  811000    0.9294932   -7.3792486    243.76931  0.025048223  0.025158642            3 
  812000   0.93494916   -7.3720628     243.8636  0.025027052  0.025141491            2 
  813000   0.93177501   -7.3508181    245.32822  0.025146394  0.025124398            2 
  814000   0.93945994   -7.3680408    245.08908   0.02509102   0.02510752            3 
  815000   0.94118374   -7.3752467    244.99389    0.0250505  0.025090889            2 
  816000   0.94750639   -7.3407359    245.69623  0.025091527  0.025074372            2 
  817000   0.92962427   -7.3682662    244.52577  0.024941429  0.025057562            2 
  818000   0.94233765   -7.3729021    245.23358  0.024983046  0.025040664            3 
  819000   0.93588569   -7.3843672    245.23576  0.024952764  0.025023873            4 
  820000   0.91244924   -7.3854748    245.37503  0.024936487  0.025007118            1 
  821000   0.94825491    -7.376492    245.74776  0.024943946  0.024990427            4 
  822000   0.93736251   -7.3841136    246.36697  0.024976376  0.024973664            3 
  823000   0.91834018     -7.31343    246.38338   0.02494769  0.024956958            6 
  824000    0.9256586   -7.3641747    246.36869  0.024915927  0.024940323            3 
  825000   0.93083227   -7.3548545    245.90572  0.024838962  0.024923535            4 
  826000   0.94044595   -7.3496163    246.92547   0.02491177  0.024906793            1 
  827000   0.92884256    -7.369541    246.28977  0.024817591   0.02489005            1 
  828000   0.93219654    -7.342896    246.43702  0.024802438  0.024873271            3 
  829000   0.93094764   -7.3816971    246.54876  0.024783752  0.024856479            2 
  830000   0.95065172   -7.3916396    246.55735  0.024754754  0.024839488            3 
  831000   0.92413945   -7.3889091    246.32745   0.02470191  0.024822333            5 
  832000   0.90939207   -7.4070045    246.83418  0.024722975   0.02480514            2 
  833000    0.9411366   -7.3834747    246.70941  0.024680813  0.024787808            3 
  834000   0.91166328    -7.396335    247.25709  0.024705944  0.024770564            2 
  835000   0.92509015   -7.3919221    246.37868  0.024588691  0.024753275            1 
  836000   0.93142564   -7.4305864    246.46789   0.02456817  0.024735857            1 
  837000   0.89733142   -7.3904927    246.82017  0.024573892  0.024718472            3 
  838000   0.90955394   -7.3963382    247.07933  0.024570339  0.024701022            2 
  839000   0.95347974   -7.4122571    247.31794  0.024564754  0.024683714            2 
  840000   0.93675273   -7.4164716    246.97958  0.024501942  0.024666535            2 
  841000   0.92269242    -7.376986    247.36118   0.02451062  0.024649447            5 
  842000   0.91549052   -7.3703231    248.08798  0.024553442  0.024632451            6 
  843000   0.90301427   -7.4101776    247.83208   0.02449902  0.024615511            4 
  844000    0.9122299   -7.3890642    247.64359  0.024451381  0.024598548            3 
  845000   0.92236421   -7.4084132    248.18319   0.02447566  0.024581476            3 
  846000   0.88866691   -7.3950851    248.37867  0.024465984  0.024564561            2 
  847000   0.88999234   -7.3911929    249.60908  0.024558154  0.024547658            2 
  848000   0.90643718   -7.4410692    249.71851  0.024539948  0.024531094            3 
  849000    0.8972708   -7.3982733    249.00642  0.024441149  0.024514445            5 
  850000   0.90370538   -7.4047165    249.05963  0.024417611  0.024497759            2 
  851000   0.87934249   -7.3853454    250.16476  0.024497137  0.024480964            2 
  852000   0.92944455   -7.4205314    248.61506  0.024316809  0.024464007            2 
  853000   0.91811718   -7.4249691    249.22525  0.024347914  0.024446917            3 
  854000   0.90641331   -7.4128979    249.73091  0.024368746  0.024429928            1 
  855000   0.91106621   -7.3875564    249.80561  0.024347525   0.02441324            3 
  856000   0.91912358   -7.3983961    250.28987  0.024366226  0.024396473            3 
  857000   0.91208943   -7.4179279    250.36849  0.024345439  0.024379747            1 
  858000   0.92512614   -7.4341689    250.08396  0.024289429  0.024362767            2 
  859000   0.91797688   -7.4023015    250.42869  0.024294595  0.024345814            5 
  860000   0.89610361   -7.4029593    250.83294  0.024305518  0.024329038            2 
  861000   0.89985366   -7.3901123    250.98612  0.024292114  0.024312297            4 
  862000   0.91107697   -7.3957549    250.30255  0.024197849  0.024295403            3 
  863000   0.90775623   -7.4430049    251.02027  0.024239114  0.024278517            1 
  864000    0.9004076    -7.428707    250.28329  0.024139977   0.02426158            2 
  865000    0.9002506   -7.4282406    250.71425  0.024153588  0.024244591            2 
  866000   0.92983084   -7.3938621    250.20761  0.024076945  0.024227597            5 
  867000   0.91798021   -7.3952051    251.81039  0.024203228  0.024210818            3 
  868000     0.920357   -7.4247499    251.62687  0.024157726  0.024194088            1 
  869000   0.90334927   -7.3930671    252.58994  0.024222281  0.024177427            2 
  870000   0.91597366   -7.4170507    251.97305   0.02413535  0.024160625            3 
  871000   0.90910963    -7.390244    252.11024  0.024120766  0.024144093            3 
  872000   0.90862523   -7.4207395    252.12441  0.024094458  0.024127507            4 
  873000   0.91655076   -7.4375026    252.54424  0.024106934  0.024111013            5 
  874000   0.91571726   -7.4278957    253.24445  0.024146114  0.024094489            3 
  875000   0.91260084   -7.3961299    252.80801  0.024076953  0.024078127            2 
  876000   0.90918619   -7.4316445     253.0992  0.024077169  0.024061877            3 
  877000   0.90610726   -7.4375747      252.819   0.02402309  0.024045566            2 
  878000   0.92541354   -7.4176802    253.79697  0.024088551  0.024029236            3 
  879000   0.89468725   -7.4442505    253.26728  0.024010929  0.024012792            3 
  880000   0.90359486   -7.4122993    253.21226  0.023978434  0.023996437            3 
  881000   0.91236631   -7.4485498      253.327  0.023962069  0.023980111            5 
  882000   0.90370357   -7.4497184    253.96896  0.023995555  0.023963848            2 
  883000   0.91904769   -7.3954468    253.20002  0.023895812  0.023947671            2 
  884000   0.90277621   -7.4523098      254.369  0.023978978   0.02393124            2 
  885000   0.90926225   -7.4237594    254.22191  0.023938033  0.023914831            4 
  886000   0.89547828   -7.4199198     254.2677  0.023915322  0.023898514            2 
  887000   0.89441577   -7.4091542    255.48741  0.024002951  0.023882197            3 
  888000   0.89872186    -7.441116    254.45287  0.023878835  0.023865851            8 
  889000   0.90491417   -7.4293186    254.68724  0.023873944  0.023849414            5 
  890000   0.90251501   -7.4439738    254.89661  0.023866723  0.023833094            2 
  891000   0.89329244   -7.4540588    254.58131  0.023810448  0.023816685            2 
  892000   0.87905047   -7.4240157    254.70163  0.023794995    0.0238002            4 
  893000   0.91040588   -7.4275869    254.93393  0.023790027  0.023783896            2 
  894000    0.8925177   -7.4307103    255.14286  0.023782891  0.023767476            3 
  895000   0.88010724   -7.4566808    255.09433  0.023751799   0.02375106            1 
  896000   0.91804157   -7.4642274    255.20339  0.023735434  0.023734551            2 
  897000   0.89840824   -7.4349944    254.98485  0.023688671  0.023718105            4 
  898000   0.90759871   -7.4213379    255.76132  0.023734347  0.023701752            2 
  899000   0.87710019   -7.4079128     255.5475  0.023688126  0.023685336            3 
  900000   0.90085471    -7.474421    255.59295  0.023666013   0.02366879            2 
  901000   0.88282528   -7.4533397    255.63445  0.023643585  0.023652308            3 
  902000   0.89603797   -7.4410305    255.95582  0.023647064  0.023635887            7 
  903000   0.87555324   -7.4622491    255.92656  0.023618176  0.023619566            4 
  904000   0.89596638   -7.4579324    255.77846  0.023578398  0.023603088            3 
  905000   0.90096832   -7.4631956     256.2017  0.023591317  0.023586495            2 
  906000   0.90583663   -7.4913711    255.37603  0.023489333   0.02356987            1 
  907000   0.89887047   -7.4628102    256.55285   0.02357156  0.023553389            2 
  908000   0.91143955   -7.4361149     257.7023  0.023651092  0.023537125            2 
  909000    0.9015265   -7.4438835    256.83078  0.023545176  0.023520837            2 
  910000   0.89147164   -7.4668248    257.07555  0.023541717  0.023504501            2 
  911000   0.88940024   -7.4508978    257.19654  0.023526943  0.023488144            2 
  912000   0.87725752   -7.4420686    257.62386  0.023540192  0.023471926            2 
  913000   0.90504208   -7.4412695    257.29991  0.023484841  0.023455627            5 
  914000    0.8955974    -7.428783    257.58719  0.023485338  0.023439246            3 
  915000   0.88716381   -7.4723362     256.6769  0.023376767  0.023422954            5 
  916000   0.88138113   -7.4647867    258.35167  0.023503609  0.023406447            4 
  917000   0.90279964   -7.4781411    257.40592  0.023392032  0.023389972            5 
  918000   0.87682132   -7.4374837    258.16065  0.023435062  0.023373549            2 
  919000   0.87772184    -7.473734    257.44183   0.02334438  0.023357081            3 
  920000   0.86735866    -7.472248    257.15381  0.023292918  0.023340515            5 
  921000   0.89442718   -7.4932599    257.45603  0.023294972  0.023323879            4 
  922000   0.89637307   -7.4429199     257.4269  0.023267073   0.02330737            3 
  923000   0.88270166   -7.4448777    258.12732  0.023305103  0.023290727            2 
  924000   0.89871091   -7.4925719    256.91956  0.023170956  0.023274009            3 
  925000   0.88692207   -7.4596459    257.90194  0.023234409  0.023257245            2 
  926000   0.86259433   -7.4982987    258.01533  0.023219522  0.023240464            3 
  927000   0.89369911   -7.4604551    258.31296   0.02322123  0.023223635            3 
  928000   0.89197769   -7.4464369    257.99464  0.023167622   0.02320695            1 
  929000   0.86830457   -7.4400417    258.09878  0.023152026  0.023190089            5 
  930000   0.86112314   -7.4862795    258.55336  0.023167864  0.023173241            4 
  931000    0.8813463    -7.474622    258.30646  0.023120879   0.02315646            2 
  932000   0.87957423   -7.4913837    258.55231  0.023118053  0.023139659            3 
  933000   0.86973394   -7.5018277    258.34041  0.023074349  0.023122845            2 
  934000    0.8630566   -7.4782505    258.35787  0.023051201  0.023106106            4 
  935000   0.86771601   -7.5007094    258.68104  0.023055351  0.023089388            2 
  936000   0.88576113   -7.5356764    258.34867  0.023001128  0.023072536            2 
  937000   0.86471293   -7.4839458    259.35962  0.023066491  0.023055846            2 
  938000   0.87591753   -7.4882712    258.88169   0.02299944  0.023039264            3 
  939000   0.89617417   -7.4705108    259.18373  0.023001751  0.023022825            3 
  940000   0.88106449    -7.444291    260.02115  0.023051521  0.023006347            4 
  941000   0.87290684   -7.4914445    259.75308  0.023003283  0.022989858            2 
  942000    0.8800896    -7.476334    260.19512  0.023017969   0.02297356            3 
  943000   0.89731446   -7.5056921    260.32889  0.023005381  0.022957235            2 
  944000   0.88674257   -7.4765393    260.17479  0.022967408  0.022940788            2 
  945000   0.87411668   -7.4711073    260.16684  0.022942402   0.02292442            2 
  946000    0.8743225   -7.4961606    260.30498  0.022930319  0.022908014            2 
  947000   0.86047756   -7.5133963    260.57512  0.022929877  0.022891697            4 
  948000   0.87827109   -7.4876105     260.7639  0.022922284  0.022875434            3 
  949000   0.88248666   -7.4678553    261.18274  0.022934909  0.022859269            1 
  950000   0.87391675   -7.4621617    260.53668  0.022854095  0.022842981            3 
  951000   0.90523119   -7.4893847    260.42091  0.022819919  0.022826654            2 
  952000   0.88405235   -7.4810185    261.04534  0.022850607  0.022810141            3 
  953000    0.8706653   -7.4917541    260.96559  0.022819656  0.022793733            3 
  954000   0.87088871   -7.4610251    261.21362  0.022817402  0.022777374            5 
  955000   0.87152603   -7.4990311    260.57987  0.022738209  0.022760957            4 
  956000   0.86497469   -7.5280793    261.18426  0.022767108  0.022744491            4 
  957000   0.87158983   -7.4917009    261.73829  0.022791562  0.022728121            2 
  958000   0.90077474   -7.4899736    261.88389  0.022780436  0.022711806            4 
  959000   0.86606689   -7.4874758    262.25019  0.022788512  0.022695639            2 
  960000   0.87170319    -7.510653    262.03742  0.022746304  0.022679482            1 
  961000   0.85933346    -7.492341    262.02797  0.022721815  0.022663227            4 
  962000   0.86428393   -7.4965929    262.83395  0.022768013   0.02264688            6 
  963000   0.89100377   -7.4657879    261.88411  0.022662176  0.022630654            5 
  964000   0.85677202   -7.4924433    262.22306  0.022667969  0.022614353            3 
  965000   0.88378748   -7.4686861    262.39949  0.022659714  0.022598084            2 
  966000   0.87168088   -7.5355153    261.83582  0.022587631  0.022581815            4 
  967000   0.85658313   -7.5040947    262.93136  0.022658683  0.022565657            3 
  968000   0.86395935   -7.4942616    263.08892   0.02264884  0.022549716            2 
  969000   0.87531126   -7.5143287     263.7231  0.022680005  0.022533665            5 
  970000   0.86096141   -7.5408849    263.18016   0.02260998  0.022517498            5 
  971000   0.87810315   -7.5368448    262.77483  0.022551908  0.022501376            4 
  972000   0.86639594   -7.5091773    262.87069  0.022536925  0.022485267            2 
  973000    0.8699444   -7.5225539     263.2769  0.022548553  0.022469171            3 
  974000    0.8607601   -7.5443688    263.41793  0.022537469  0.022453145            4 
  975000   0.87554726   -7.4941075    263.69844  0.022538328  0.022437126            3 
  976000   0.86557537   -7.5176743     264.5426  0.022587313   0.02242141            5 
  977000   0.89389238   -7.5196739    263.96856   0.02251523  0.022405648            2 
  978000   0.85410132   -7.5200793    263.71982  0.022471014   0.02238988            3 
  979000   0.84729431   -7.5218833    264.58992  0.022522125  0.022374146            5 
  980000   0.85297289   -7.5232457    264.42754  0.022485335  0.022358505            7 
  981000   0.83160817   -7.5180318    264.71374  0.022486726  0.022342684            3 
  982000   0.86551715    -7.498838    264.70561  0.022463138  0.022326944            2 
  983000   0.85547105   -7.5279889    264.81239  0.022449338  0.022311195            2 
  984000   0.86437533   -7.5653874    264.60595  0.022409041  0.022295421            4 
  985000   0.86779061   -7.5157773    265.06718  0.022425311  0.022279585            3 
  986000   0.86452088   -7.5289865     265.2659  0.022419363  0.022263899            2 
  987000   0.86040445    -7.500558    265.08109  0.022381045   0.02224816            3 
  988000    0.8430645   -7.5155724    265.40143  0.022385411  0.022232535            4 
  989000    0.8770431   -7.5053569    265.62962  0.022382004  0.022216956            2 
  990000   0.85300338   -7.4962498    265.53729  0.022351624  0.022201437            2 
  991000   0.86397001   -7.5207341    265.16788  0.022298006  0.022185896            4 
  992000   0.85483642    -7.524943    265.25139  0.022282543  0.022170276            1 
  993000   0.85987734   -7.5405621    265.75577  0.022302432  0.022154569            2 
  994000   0.85997107   -7.5248987      265.736  0.022278337  0.022138923            4 
  995000   0.85311732   -7.5158617    265.79787  0.022261128  0.022123202            1 
  996000   0.85831078   -7.5668388    265.50762  0.022214493  0.022107476            2 
  997000   0.84494465   -7.5282002    266.18538  0.022248862   0.02209178            4 
  998000   0.84993814   -7.5067444     266.7431  0.022273138  0.022076158            5 
  999000   0.83579888   -7.4954175    266.49602  0.022230232   0.02206043            6 
 1000000   0.86221405   -7.5504966    266.63044  0.022219203  0.022044775            6 
 1001000   0.83785722   -7.4958298    266.67492  0.022200709  0.022029255            3 
 1002000   0.87784986   -7.5333964    266.63864  0.022175536  0.022013826            3 
 1003000   0.86746574    -7.524769    267.20092  0.022200143  0.021998237            1 
 1004000   0.86510842   -7.5186136    266.63174  0.022130788  0.021982813            2 
 1005000   0.86172443    -7.553584    266.68592   0.02211326  0.021967386            2 
 1006000    0.8492737   -7.5687638    266.75642  0.022097119  0.021951882            2 
 1007000   0.85606899   -7.5633489    266.53513  0.022056863  0.021936281            3 
 1008000   0.85029269    -7.553053    267.25186  0.022094234  0.021920772            5 
 1009000   0.84953453   -7.5437699    267.19329    0.0220675  0.021905266            3 
 1010000    0.8314406   -7.5428409    267.59389  0.022078704  0.021889844            4 
 1011000   0.84309647   -7.5726708    267.26121  0.022029444  0.021874358            2 
 1012000   0.82861481   -7.5393061    267.66765  0.022041144  0.021858871            5 
 1013000   0.84611394   -7.5707227    268.61504  0.022097322  0.021843564            3 
 1014000   0.84244487   -7.5329205    268.19824  0.022041276  0.021828292            5 
 1015000    0.8504885   -7.5426945    268.28432  0.022026628   0.02181299            2 
 1016000   0.85295134   -7.5619442    268.37285  0.022012209  0.021797662            3 
 1017000   0.85413522   -7.5597645    268.37205  0.021990499  0.021782256            3 
 1018000    0.8428569   -7.5936677    268.07572   0.02194464  0.021766922            9 
 1019000   0.83809269   -7.5335739    268.89702   0.02199027  0.021751564            3 
 1020000   0.84581614   -7.6060698    268.22537  0.021913838  0.021736158            3 
 1021000   0.83865247   -7.5584531    268.75822  0.021935865  0.021720841            6 
 1022000    0.8564893   -7.5646774    268.71212  0.021910643  0.021705507            1 
 1023000   0.84286655    -7.556862    268.77754  0.021894554  0.021690144            4 
 1024000   0.84780053   -7.5476589    268.89323  0.021882587  0.021674821            2 
 1025000   0.84084473   -7.5923119     268.5849  0.021836171  0.021659439            2 
 1026000   0.85199351   -7.6041606    268.51108  0.021808892  0.021644019            4 
 1027000   0.84368994   -7.5415077    268.98864  0.021826407  0.021628535            4 
 1028000   0.84988288   -7.5709569    268.52812  0.021767844  0.021613161            2 
 1029000   0.84429043   -7.5868994    268.41176  0.021737266  0.021597618            5 
 1030000   0.86671605   -7.5519947     269.2365  0.021782888  0.021582206            3 
 1031000   0.83756245   -7.5407641    269.22373  0.021760728  0.021566783            3 
 1032000   0.84871795   -7.5638773     269.1551    0.0217341  0.021551324            3 
 1033000   0.83670081   -7.5781604    269.17279  0.021714488  0.021535846            1 
 1034000   0.85093019   -7.5956917    269.33923  0.021706901  0.021520291            2 
 1035000   0.85071588   -7.5595391    269.15736  0.021671285  0.021504726            6 
 1036000   0.84929718   -7.5881773    268.62087  0.021607213  0.021489153            3 
 1037000    0.8425872   -7.5858977    269.43627  0.021651902  0.021473503           10 
 1038000     0.838064     -7.58416    269.61888  0.021645703  0.021457997            9 
 1039000    0.8409376   -7.6095783    268.96046  0.021572061  0.021442391            5 
 1040000   0.84770817   -7.6160323    269.34973  0.021582511  0.021426701            3 
 1041000   0.82502533   -7.5567629    270.15517  0.021626254  0.021411072            4 
 1042000   0.83070299   -7.5914531    269.80306   0.02157734  0.021395525            3 
 1043000   0.83838327   -7.5841778    269.49971  0.021532415  0.021379963            2 
 1044000   0.82778891    -7.548512    270.16864  0.021565185   0.02136446            1 
 1045000   0.82489569   -7.5548694    270.19619  0.021546746  0.021348972            1 
 1046000   0.84083951   -7.5636519    269.23265  0.021449383  0.021333351            2 
 1047000   0.85817537   -7.5735273    269.86911  0.021479553  0.021317803            2 
 1048000   0.81162073   -7.5652669    270.73669  0.021528044  0.021302315            2 
 1049000   0.82487473   -7.5640044    270.53017  0.021491116  0.021286779            3 
 1050000   0.84600377   -7.6024667    269.57443  0.021394796  0.021271206            2 
 1051000    0.8315058   -7.5873405    270.09031  0.021415343  0.021255562            4 
 1052000   0.82205749   -7.6247743    270.05394  0.021392106  0.021239981            5 
 1053000   0.82707274   -7.5823756    270.38987  0.021398375  0.021224473            3 
 1054000   0.83754012   -7.5718822    270.27627  0.021369091  0.021208963            5 
 1055000   0.81934165   -7.6065698     270.0568  0.021331501  0.021193539            4 
 1056000   0.84684798   -7.5983667    270.41995  0.021339959  0.021178032            3 
 1057000   0.82696128   -7.5980706    271.06227  0.021370409  0.021162541            4 
 1058000    0.8323432   -7.5652159    271.37478  0.021374825  0.021147193            4 
 1059000   0.83526853   -7.5747383    271.01396  0.021326248  0.021131838            3 
 1060000   0.83423571   -7.5916392    271.16177  0.021317749  0.021116481            3 
 1061000   0.83902777   -7.5792728    271.52638  0.021326294  0.021101021            2 
 1062000   0.82253899   -7.5846958    270.88502  0.021255887  0.021085741            2 
 1063000    0.8405252   -7.6061424    271.28756  0.021267448  0.021070457            2 
 1064000   0.83006577   -7.5927941    272.38019  0.021333035   0.02105521            2 
 1065000   0.84337626   -7.6052212    271.30982   0.02122925  0.021040061            1 
 1066000    0.8290213   -7.5763226     272.3791  0.021292925  0.021024915            3 
 1067000   0.83006729   -7.6071263    271.77468  0.021225764  0.021009644            6 
 1068000   0.82520623   -7.6005826    271.53465  0.021187161  0.020994421            1 
 1069000   0.82557963   -7.6117574    271.62161   0.02117412  0.020979223            3 
 1070000   0.83337491   -7.6200884    272.05342  0.021187961  0.020964073            3 
 1071000   0.82672155    -7.576475    273.00739  0.021242405  0.020948971            2 
 1072000   0.83949597   -7.6070783    272.43809  0.021178334  0.020933875            3 
 1073000   0.83127454   -7.6017267    272.47247  0.021161267  0.020918696            5 
 1074000   0.82318477    -7.573026    272.45201  0.021139976  0.020903628            2 
 1075000   0.82307253   -7.5898472    272.47212   0.02112187  0.020888508            3 
 1076000   0.83086675   -7.6013448    272.75191  0.021123908  0.020873318            1 
 1077000   0.82633822   -7.5963401    272.80429  0.021108348   0.02085813            4 
 1078000   0.84102634    -7.630739    272.70146  0.021080818  0.020842941            4 
 1079000   0.82671659   -7.6361975    272.88359  0.021075347  0.020827782            3 
 1080000   0.81846597   -7.6109424    272.58846   0.02103306  0.020812667            2 
 1081000   0.82151576    -7.621833     273.7826  0.021105658   0.02079749            3 
 1082000   0.81689465   -7.6521371    272.05974  0.020953461   0.02078224            2 
 1083000   0.82209037   -7.6264896    272.16498  0.020942211  0.020766977            3 
 1084000   0.80920041   -7.6619601    272.56424  0.020953586  0.020751646            3 
 1085000    0.8448297   -7.6256543    272.43469  0.020924323  0.020736314            4 
 1086000   0.82457435   -7.6352218    273.16552  0.020961135  0.020721065            4 
 1087000   0.82206467   -7.6385236    273.19935  0.020944446   0.02070592            1 
 1088000   0.82529676   -7.6508946    272.73021  0.020889263  0.020690763            3 
 1089000   0.83198441   -7.6252079    273.90433  0.020959928  0.020675538            3 
 1090000   0.82189589   -7.6474415    272.67519  0.020846727  0.020660286            3 
 1091000   0.81968258   -7.6423438    272.75004  0.020833336  0.020645054            3 
 1092000   0.81625063   -7.6501495    273.02294  0.020835084  0.020629953            2 
 1093000    0.8241043   -7.6361084     273.5077  0.020852981  0.020614928            3 
 1094000   0.83070731   -7.6511282    273.55271  0.020837349  0.020599882            6 
 1095000   0.82742287   -7.6311879    274.23759   0.02087044  0.020584872            2 
 1096000   0.81019317   -7.6350813    273.70379  0.020810811  0.020569824            5 
 1097000   0.81571144   -7.6499051    274.14595  0.020825429  0.020554749            4 
 1098000    0.8249585    -7.632612     274.8493  0.020859843  0.020539834            2 
 1099000   0.80467961   -7.6252535    274.23016  0.020793916  0.020524956            3 
 1100000   0.81143593   -7.6176644    274.41453   0.02078898  0.020509998            4 
 1101000   0.81728552   -7.6368786    274.52913  0.020778772  0.020495063            1 
 1102000   0.81938357   -7.6189777    275.00835  0.020796155   0.02048012            3 
 1103000   0.79407635   -7.6028806      274.865   0.02076647  0.020465173            5 
 1104000   0.80651051   -7.6174785    274.34326  0.020708278  0.020450261            3 
 1105000   0.81034082   -7.6541537    273.77494  0.020646677  0.020435354            2 
 1106000   0.82556138    -7.647917    274.68708  0.020696736  0.020420458            3 
 1107000   0.81787768   -7.6343198     274.6297   0.02067372  0.020405611            3 
 1108000   0.80782261   -7.6432548    274.77313  0.020665849  0.020390751            2 
 1109000   0.80387955    -7.649204    274.83419  0.020651803  0.020375924            5 
 1110000   0.80160195   -7.6559283     274.1688  0.020583243  0.020360962            5 
 1111000   0.80988306   -7.6278201    274.86197  0.020616709  0.020346062            2 
 1112000   0.80513507   -7.6370893    274.25716  0.020552845  0.020331113            4 
 1113000   0.81633645   -7.6243602      274.779   0.02057345  0.020316186            2 
 1114000   0.82403825   -7.6400824    274.77849  0.020554944   0.02030118            2 
 1115000   0.81881821   -7.6510313    275.02406  0.020554862  0.020286197            7 
 1116000   0.79186613   -7.6400877    274.17453  0.020473009  0.020271164            3 
 1117000   0.80488422   -7.6374562    274.42995  0.020473736  0.020256162            3 
 1118000   0.81615639   -7.6523165    275.06326  0.020502628  0.020241232            3 
 1119000   0.81621097   -7.6573251    274.70692  0.020457769  0.020226233            4 
 1120000    0.7935672   -7.6550884    274.89168   0.02045325  0.020211243            4 
 1121000    0.7964779   -7.6464559    275.72577   0.02049701  0.020196261            2 
 1122000    0.8112918   -7.6647427    275.43223   0.02045694  0.020181308            3 
 1123000   0.80895607   -7.6387235    276.01562  0.020482014  0.020166397            2 
 1124000   0.80123547   -7.6318392     275.2546  0.020407369  0.020151535            3 
 1125000   0.79889776   -7.6638577    275.96686  0.020441989  0.020136557            2 
 1126000   0.81136022   -7.6675477    275.61473  0.020397775  0.020121698            3 
 1127000   0.80679992   -7.6620674    275.47609  0.020369424  0.020106716            3 
 1128000   0.79829869   -7.6512239    275.81098  0.020376107  0.020091684            4 
 1129000   0.79972259   -7.6612961    275.33413  0.020322861  0.020076695            3 
 1130000   0.78815222   -7.6390303    275.92863  0.020348719  0.020061738            2 
 1131000   0.78623821   -7.6766448    275.86222  0.020325834  0.020046842            4 
 1132000   0.81136502   -7.6850825    275.84385  0.020306526  0.020031898            4 
 1133000   0.80726023   -7.6787139    275.52806  0.020265377  0.020016931            4 
 1134000   0.80367112   -7.6597302    276.19607  0.020296595  0.020001993            4 
 1135000   0.80356646   -7.6605428    275.24087  0.020208581  0.019987072            3 
 1136000   0.79637046   -7.6879608    276.17619  0.020259404  0.019972177            2 
 1137000   0.79161998   -7.6679038    276.27408   0.02024876  0.019957284            5 
 1138000   0.81368244    -7.649201     276.5264  0.020249443   0.01994246            2 
 1139000   0.80750865    -7.680431    276.33359  0.020217559  0.019927612            5 
 1140000   0.78001243   -7.6404069    276.85294  0.020237788  0.019912803            2 
 1141000   0.80135738   -7.6900543    276.79381  0.020215732  0.019898059            7 
 1142000   0.80245456   -7.6894494    276.33926  0.020164861  0.019883367            2 
 1143000   0.78410927   -7.6975128     276.5589  0.020163233   0.01986863            3 
 1144000   0.78285121   -7.6543967    276.54095    0.0201443  0.019853923            2 
 1145000   0.78873799   -7.6506336    277.11856  0.020168745  0.019839221            3 
 1146000    0.7828098   -7.6670413    276.68821  0.020119852  0.019824586            5 
 1147000    0.8047132   -7.6722765    277.56605  0.020166089  0.019809947            3 
 1148000     0.814456   -7.6690621    277.72522  0.020160077  0.019795492            2 
 1149000    0.8163285   -7.6842404    277.29228  0.020111132  0.019781056            2 
 1150000   0.79484469   -7.6883177    277.33549  0.020096774  0.019766593            4 
 1151000   0.77490349   -7.6758275    278.11879  0.020136026  0.019752175            6 
 1152000   0.79960801   -7.6349832     278.1468  0.020120573  0.019737775            2 
 1153000   0.77400678   -7.6402417    277.80969  0.020078757  0.019723445            2 
 1154000   0.80901966   -7.6963259    278.35684   0.02010087  0.019708952            4 
 1155000   0.79018197   -7.6891877    277.80682  0.020043782  0.019694527            3 
 1156000   0.79987128    -7.690297    277.69223  0.020018183  0.019680116            3 
 1157000   0.78415403    -7.690959     277.7352  0.020003976  0.019665609            3 
 1158000   0.79124642   -7.6901511    277.99292  0.020005247  0.019651056            4 
 1159000   0.80485346   -7.6979395    278.04866  0.019991995  0.019636398            3 
 1160000   0.79724102   -7.7068291    278.01223  0.019972143  0.019621838            3 
 1161000   0.80401602   -7.6953659    277.19909  0.019896575  0.019607187            4 
 1162000   0.78956264   -7.6929789    278.10595  0.019944488  0.019592487            1 
 1163000   0.78975162   -7.6915694    278.35528  0.019945205  0.019577888            2 
 1164000   0.78417084   -7.6890092    278.07278  0.019907845  0.019563291            2 
 1165000   0.80302172   -7.6910651    278.18049  0.019898461  0.019548797            2 
 1166000   0.79930571   -7.6898604    277.84937  0.019857731  0.019534277            2 
 1167000    0.7708067   -7.6941573    278.37248  0.019878069  0.019519723            3 
 1168000   0.79650152   -7.6891283    277.49613  0.019798525  0.019505188            3 
 1169000   0.78205331   -7.7136662     278.0582  0.019821657  0.019490556            3 
 1170000   0.79129547   -7.6855467    278.19797   0.01981467  0.019475873            3 
 1171000   0.78213402   -7.7159991    278.20628   0.01979834  0.019461252            3 
 1172000   0.78103419   -7.7022325    278.68691  0.019815622  0.019446603            2 
 1173000   0.76661944   -7.6991514     277.9726  0.019747982  0.019432089            4 
 1174000   0.79647706   -7.7297004    277.85079  0.019722515  0.019417571            5 
 1175000   0.79889219   -7.6909881    278.54246  0.019754785  0.019403094            3 
 1176000   0.79337139   -7.6867028    278.91142  0.019764131  0.019388677            3 
 1177000   0.77243673   -7.6807586    278.29638  0.019703793  0.019374227            2 
 1178000   0.79178516   -7.6942571    278.93454  0.019732212  0.019359735            4 
 1179000   0.78189037    -7.683212    278.43021  0.019679828  0.019345314            4 
 1180000   0.76305825   -7.7087973    278.49065  0.019667419   0.01933084            3 
 1181000   0.77797503   -7.7238376    278.36116  0.019641629  0.019316452            2 
 1182000    0.7773424   -7.7265072    278.89353  0.019662544  0.019302047            6 
 1183000   0.78295517   -7.7166142    278.98329  0.019652246   0.01928765            2 
 1184000   0.77659707   -7.7423242    278.46569  0.019599218    0.0192732            2 
 1185000   0.76802516   -7.7330161    279.11389  0.019628262  0.019258746            2 
 1186000   0.78145334   -7.7236358    278.84715   0.01959297  0.019244285            4 
 1187000   0.76032034    -7.735059    279.03544  0.019589683  0.019229883            2 
 1188000   0.77484866    -7.750294    278.43307  0.019530939  0.019215411            5 
 1189000   0.78683233   -7.7322708     279.5096  0.019589964  0.019200972            2 
 1190000   0.77519214   -7.6962974    279.55201  0.019576471  0.019186637            4 
 1191000   0.78115932   -7.7026153    279.94877  0.019587795   0.01917227            3 
 1192000   0.76765309   -7.7244401    279.44663  0.019536258  0.019157879            3 
 1193000   0.78064403   -7.7498385    278.70774  0.019468269  0.019143388            5 
 1194000   0.78306914   -7.7347237     278.8561  0.019462319  0.019128943            6 
 1195000   0.75814785   -7.7619298     279.3998  0.019483947  0.019114533            6 
 1196000   0.77503439   -7.7387627    279.74029   0.01949138  0.019100085            4 
 1197000   0.77133004   -7.7426961    279.01766  0.019424789  0.019085684            2 
 1198000   0.78300989   -7.7146388    278.63932  0.019382256  0.019071306            3 
 1199000   0.79354387   -7.7384127    279.55678  0.019429857  0.019056928            1 
 1200000   0.77095713   -7.7226815    279.75973  0.019427759  0.019042627            3 
 1201000   0.77080898   -7.7285395    279.11188  0.019366631  0.019028322            3 
 1202000   0.77645248   -7.7504425    280.19571  0.019425659  0.019013983            7 
 1203000   0.76641383   -7.7177635    279.56543  0.019365851  0.018999652            4 
 1204000   0.76186313    -7.717694     280.2518  0.019397273  0.018985438            2 
 1205000   0.76559778   -7.7297469    279.90513  0.019357201  0.018971251            3 
 1206000   0.75116164   -7.7184055    280.66405  0.019393591  0.018957029            3 
 1207000   0.75897979     -7.75514    280.07547  0.019336887  0.018942789            4 
 1208000   0.78243176   -7.7161041    280.44661  0.019346483  0.018928663            3 
 1209000   0.76784794   -7.7264154    279.55352  0.019268922  0.018914497            4 
 1210000   0.76211834   -7.7502477    280.43685  0.019313832   0.01890037            2 
 1211000   0.76631836   -7.7563437    280.28352  0.019287333  0.018886248            3 
 1212000   0.76888877   -7.7510321    279.63007   0.01922649  0.018872111            3 
 1213000   0.76985377   -7.7443288     280.4097    0.0192642  0.018857986            2 
 1214000   0.77231658   -7.7257627    280.52816  0.019256463   0.01884401            3 
 1215000   0.77694506   -7.7577038    280.89855  0.019266018  0.018830034            3 
 1216000   0.76540972   -7.7132825    281.24833  0.019274145  0.018816059            2 
 1217000   0.76326137   -7.7294611    281.07358  0.019246342  0.018802037            1 
 1218000   0.76755201   -7.7392209    281.28822  0.019245226  0.018788053            6 
 1219000   0.76755331   -7.7336825    280.94679  0.019206097  0.018774066            2 
 1220000   0.76352563   -7.7545585    281.17656  0.019206049  0.018760112            2 
 1221000   0.77999108   -7.7562778    281.51158  0.019213185  0.018746046            2 
 1222000   0.74910045   -7.7604589    281.21752  0.019177409  0.018731999            2 
 1223000   0.75398031   -7.7392039    281.12758    0.0191556  0.018717947            2 
 1224000   0.76839111   -7.7607798    280.61539  0.019105078  0.018703829            4 
 1225000   0.78921915   -7.7689005     281.0337  0.019117939  0.018689711            3 
 1226000   0.78309377   -7.7472449     281.1511  0.019110325  0.018675678            3 
 1227000   0.75851975   -7.7405216    281.17838  0.019096603  0.018661671            4 
 1228000   0.75408303    -7.744284    281.59281  0.019109175  0.018647654            4 
 1229000   0.76458172   -7.7729046    280.78879   0.01903911  0.018633681            5 
 1230000   0.77457514   -7.7523112    280.82701   0.01902622   0.01861966            3 
 1231000   0.77090279   -7.7828613    281.44273  0.019052446  0.018605628            2 
 1232000   0.75658765   -7.7555556    280.92081  0.019001678  0.018591586            3 
 1233000   0.75308364    -7.788771    281.01936  0.018992928  0.018577567            6 
 1234000   0.75634457   -7.7635167     282.2462  0.019060386   0.01856356            4 
 1235000   0.74868977    -7.777369    281.51018  0.018995289  0.018549558            2 
 1236000   0.76640776   -7.7873797    281.00463  0.018945835  0.018535521            3 
 1237000   0.76025375   -7.7894096    280.64725  0.018906444  0.018521485            3 
 1238000   0.75210362   -7.7494094    281.95557  0.018979239  0.018507548            3 
 1239000   0.75245393   -7.7626586    281.12836  0.018908283  0.018493685            2 
 1240000   0.76364908   -7.7845417    281.27655  0.018902994  0.018479822            3 
 1241000   0.75707075   -7.8038867    281.72656   0.01891798  0.018465962            2 
 1242000   0.75981443   -7.7842104    281.44067  0.018883566    0.0184521            2 
 1243000   0.76620967    -7.762135    282.18059   0.01891798  0.018438242            5 
 1244000   0.77903399    -7.780336    282.20188  0.018904199  0.018424446            2 
 1245000   0.74151167   -7.7684316    282.16355  0.018886449  0.018410712            1 
 1246000   0.75369157   -7.7827291    281.69404   0.01883989  0.018396938            4 
 1247000   0.74537214   -7.7533369     281.9233  0.018840103  0.018383187            6 
 1248000   0.75538165   -7.7734033     281.9693  0.018828078  0.018369469            9 
 1249000   0.73483764   -7.7758174    282.48365  0.018847321  0.018355727            3 
 1250000   0.75510985   -7.7682493    282.34244  0.018822829  0.018341991            2 
 1251000    0.7656085   -7.7743984    282.25302  0.018801826  0.018328309            2 
 1252000   0.75254802   -7.7841899    282.62434  0.018811524  0.018314609            2 
 1253000   0.75496562   -7.7701241    281.94627  0.018751415   0.01830092            2 
 1254000   0.74607616    -7.750555    282.44531  0.018769625   0.01828722            2 
 1255000   0.77075528   -7.8261357    282.18307  0.018737255  0.018273512            5 
 1256000   0.74151095   -7.7801412    282.67162  0.018754752  0.018259834            2 
 1257000   0.75175531   -7.7788585    282.46728  0.018726285  0.018246155            5 
 1258000   0.73707303   -7.7800394    282.41705  0.018708071  0.018232454            4 
 1259000   0.75369888   -7.7964211    282.09225  0.018671714  0.018218786            3 
 1260000   0.74550451   -7.7976466    282.60823  0.018691021  0.018205175            4 
 1261000   0.75662013   -7.7625604    283.37328  0.018726757  0.018191653            2 
 1262000   0.76081624    -7.771722    283.27679  0.018705546  0.018178168            3 
 1263000   0.73583003   -7.7455661    284.03289  0.018740623  0.018164732            6 
 1264000   0.75314968     -7.78073    283.42033  0.018685412  0.018151208            4 
 1265000   0.75370003    -7.799024    283.03085  0.018644983  0.018137609            3 
 1266000   0.74903695    -7.800899    282.06334  0.018566571  0.018123951            4 
 1267000   0.74211698   -7.7976339    282.58586  0.018586284  0.018110362            5 
 1268000   0.74838352   -7.7953787    282.78864  0.018584952  0.018096755            2 
 1269000   0.76414681   -7.7746198    283.34637  0.018606933  0.018083092            3 
 1270000   0.73497191   -7.8126951     282.6855  0.018548918  0.018069479            2 
 1271000   0.77117308   -7.7854721    282.76677  0.018539652  0.018055865            2 
 1272000   0.73580634   -7.8014542    282.88861  0.018533059  0.018042242            3 
 1273000   0.75914819   -7.7988872    282.75655  0.018509855  0.018028609            5 
 1274000   0.72237643   -7.7655719    283.35789  0.018534661   0.01801505            7 
 1275000    0.7546373   -7.8027863    283.45903  0.018526734  0.018001456            6 
 1276000   0.74200788   -7.7978802    283.56165  0.018518917  0.017987846            6 
 1277000   0.74650304   -7.8076944    282.86475  0.018458937  0.017974278            3 
 1278000   0.75690783   -7.7934579    283.47907   0.01848455  0.017960755            6 
 1279000     0.733584   -7.8124115    282.97484  0.018437245  0.017947227            4 
 1280000   0.74710649   -7.7739998    283.32016  0.018445323  0.017933698            3 
 1281000   0.73067883   -7.8024113    283.46385  0.018440271  0.017920191            2 
 1282000   0.72504776    -7.793339     283.4978  0.018428094  0.017906704            3 
 1283000   0.73416098   -7.7808061    283.84338  0.018436177  0.017893218            6 
 1284000   0.75460336   -7.7919303    283.50176  0.018399647   0.01787975            4 
 1285000    0.7352467   -7.7786156    282.94954  0.018349516  0.017866267            3 
 1286000   0.74605994   -7.8012145    283.45433  0.018367958  0.017852789            2 
 1287000   0.76272256   -7.7876054    283.84812  0.018379184  0.017839387            2 
 1288000    0.7418405   -7.8077515    283.86743  0.018366164  0.017825971            3 
 1289000   0.73983554   -7.8310284    283.62961   0.01833654  0.017812517            2 
 1290000   0.72873773   -7.8413144    283.43151  0.018309529  0.017799021            3 
 1291000   0.72730647   -7.8438196    283.52143  0.018301151  0.017785513            4 
 1292000   0.72106737    -7.799829    283.68994  0.018297855  0.017772017            2 
 1293000   0.72697584   -7.8193943    283.42654  0.018266727  0.017758571            2 
 1294000   0.72823741   -7.8190424    284.03859  0.018292027  0.017745136            3 
 1295000   0.71245958   -7.8320736    283.91215  0.018269765  0.017731723            2 
 1296000   0.72817648   -7.8258838    283.82239  0.018249897  0.017718224            3 
 1297000   0.73109033   -7.8271619    283.85298  0.018237791  0.017704671            5 
 1298000   0.73253961   -7.8215175    284.06972  0.018237655  0.017691196            2 
 1299000   0.73862805   -7.8366614    283.71358  0.018200768  0.017677723            4 
 1300000   0.72813531   -7.8339387    284.15033  0.018214765  0.017664288            2 
 1301000   0.73355274   -7.8064578    284.68256  0.018234855  0.017650883            4 
 1302000   0.72265713   -7.8151372    284.11764  0.018184693  0.017637534            4 
 1303000   0.71122719   -7.8142744    283.81528    0.0181514   0.01762412            3 
 1304000   0.73929956   -7.8459478    283.68178  0.018128948   0.01761075            3 
 1305000   0.71359498   -7.8298666    284.44048  0.018163505  0.017597416            2 
 1306000   0.72179687   -7.8452814    284.02448  0.018123053   0.01758408            4 
 1307000   0.75757169   -7.8513541    284.50669  0.018139931  0.017570755            2 
 1308000   0.71001181   -7.8302178    284.38581  0.018118362  0.017557473            3 
 1309000   0.74033279   -7.8557876    284.82508  0.018132485  0.017544242            2 
 1310000   0.75060775   -7.8178968    284.31387  0.018086124  0.017531014            1 
 1311000    0.7339178   -7.8457423    285.41046  0.018142033  0.017517806            2 
 1312000   0.71106697    -7.869005    284.54437  0.018073194  0.017504585            4 
 1313000   0.74074705   -7.8568175    284.15764  0.018034884  0.017491346            4 
 1314000    0.7491463   -7.8622079    284.22903  0.018025687  0.017478165            3 
 1315000   0.71260582   -7.8271034    285.04622  0.018063766  0.017464913            3 
 1316000   0.72082633   -7.8497281    284.67269  0.018026386  0.017451662            7 
 1317000   0.71500619   -7.8398568    284.39336  0.017995024   0.01743834            2 
 1318000   0.73642663   -7.8724256     284.3814  0.017980615  0.017425125            4 
 1319000   0.73016255   -7.8547004    284.71361  0.017987971  0.017411823            4 
 1320000   0.72581627   -7.8484051    284.61183  0.017967919  0.017398569            2 
 1321000   0.72446338   -7.8731472    284.86011  0.017969979  0.017385335            4 
 1322000   0.73799429   -7.8497105    285.59505  0.018002714  0.017372186            1 
 1323000   0.73392694   -7.8642745    285.28177  0.017969373  0.017359092           11 
 1324000   0.73265479   -7.8469796    285.01746  0.017939165  0.017345973            8 
 1325000    0.7176951   -7.8680724    284.33851  0.017882925  0.017332823            4 
 1326000   0.73936681   -7.8506034    285.10055  0.017917329  0.017319646            2 
 1327000   0.72725468   -7.8792762    284.85845  0.017888624  0.017306526            2 
 1328000   0.72390822   -7.8517852    285.27199  0.017901104  0.017293369            4 
 1329000   0.71775485   -7.8534159    285.42533  0.017897249  0.017280304            2 
 1330000   0.71924914   -7.8611011    284.94025  0.017853399  0.017267234            3 
 1331000   0.71471697   -7.8704798    284.93015  0.017839353  0.017254123            2 
 1332000   0.71202232   -7.8588563    285.62696  0.017869554  0.017241085            2 
 1333000   0.71826362   -7.8573838    285.64792   0.01785746  0.017228058            3 
 1334000   0.73073058   -7.8519086    285.92626  0.017861461  0.017214992            7 
 1335000   0.72863446   -7.8827125    285.01627  0.017791278  0.017201908           10 
 1336000   0.70925818   -7.8705248    284.89817  0.017770595    0.0171888            3 
 1337000   0.73894154   -7.8658928    285.03123  0.017765596  0.017175721            3 
 1338000   0.72953216   -7.8580349    284.71735   0.01773277  0.017162672            4 
 1339000   0.72402448   -7.8773049    284.86584  0.017728768  0.017149666            7 
 1340000    0.6919712   -7.8670301     284.7138  0.017706082  0.017136652            3 
 1341000    0.6883767   -7.8481831     285.1566  0.017720395  0.017123603            6 
 1342000   0.74041515   -7.8565002     285.3595   0.01771979  0.017110645            2 
 1343000   0.72067105   -7.8769524    285.71967  0.017728944  0.017097671           10 
 1344000   0.70654605   -7.8628987    285.72576  0.017716131  0.017084681            3 
 1345000   0.72957883   -7.8808898    285.42404  0.017684265  0.017071736            4 
 1346000    0.7160022   -7.8988617    285.26128   0.01766105  0.017058803            2 
 1347000    0.7142277   -7.8843577    285.96962  0.017691761  0.017045896           11 
 1348000   0.72511734   -7.8760008    285.51601  0.017650594   0.01703304           10 
 1349000    0.7113608   -7.8730662    285.99429  0.017667055  0.017020231            4 
 1350000   0.70974178   -7.8597542    287.06012   0.01771976  0.017007434            2 
 1351000   0.71120356    -7.901363    285.90247  0.017635238  0.016994579            3 
 1352000   0.71380305   -7.8879131    285.82473  0.017617402  0.016981734            2 
 1353000   0.71083156   -7.8732325    286.27156  0.017631902   0.01696898            3 
 1354000   0.72064156   -7.8768529    286.22404  0.017615955  0.016956264            3 
 1355000   0.72066601   -7.8860592    286.19223  0.017600998  0.016943541            4 
 1356000   0.69214521   -7.8699165    286.35606  0.017598086  0.016930772            2 
 1357000   0.71745977   -7.8762303     286.2704  0.017579858  0.016917977            4 
 1358000   0.69871913   -7.8657134    286.46271  0.017578713  0.016905268            2 
 1359000    0.7102401   -7.8905902    286.37023  0.017560107  0.016892512            2 
 1360000   0.72325965   -7.8464223    286.14234  0.017533232  0.016879798            5 
 1361000   0.70416482   -7.8696189    286.71775  0.017555581  0.016867103            3 
 1362000   0.70392748   -7.8871157    286.43858   0.01752561  0.016854358            6 
 1363000   0.70218438   -7.9082324    286.12743  0.017493729  0.016841626            3 
 1364000   0.71173314   -7.8918645    286.87313  0.017526462  0.016828961            2 
 1365000   0.69537226   -7.8935546    286.80741   0.01750961  0.016816359            5 
 1366000   0.70633855   -7.9178766     285.9191    0.0174426  0.016803678            3 
 1367000   0.70861355   -7.9138044    286.82939  0.017485332  0.016790989            5 
 1368000   0.70735962   -7.9017108    286.17941  0.017432956  0.016778236            7 
 1369000   0.72400903   -7.9126949    286.25008  0.017424524  0.016765508            4 
 1370000   0.68338144    -7.907265    286.38866  0.017420235  0.016752775            8 
 1371000   0.70838684   -7.9121207    286.11568  0.017390936  0.016740041            6 
 1372000    0.7158765   -7.9204919    285.97752  0.017369869  0.016727324            5 
 1373000   0.71047525   -7.9258807    286.19072  0.017370158  0.016714588            5 
 1374000    0.6979597    -7.921071    285.96293    0.0173437  0.016701873            9 
 1375000   0.69499191   -7.9069391    285.74112  0.017317644  0.016689126            5 
 1376000    0.7204151   -7.9108562    286.26467  0.017336765  0.016676385            5 
 1377000   0.69634277   -7.9340169    286.29483  0.017326001  0.016663669            3 
 1378000   0.70373871   -7.9019905    286.44695  0.017322626  0.016650955            4 
 1379000   0.68731852   -7.9129747    286.28217  0.017300107  0.016638231            1 
 1380000   0.71699747   -7.9110609    286.47684  0.017299326  0.016625514            2 
 1381000   0.72359888   -7.9274704    286.24984  0.017273101  0.016612804            5 
 1382000   0.70257928   -7.9161461    285.43137   0.01721125  0.016600008            2 
 1383000   0.69409107    -7.909145    286.11641  0.017240083  0.016587285            3 
 1384000   0.71979357    -7.915762    285.91381  0.017215427  0.016574595            7 
 1385000    0.7029699   -7.9144165    286.63959  0.017246666  0.016561956            4 
 1386000   0.69065259   -7.8995842    286.79027  0.017243282  0.016549318            4 
 1387000   0.70679958   -7.9186621    286.66733  0.017223463  0.016536683            2 
 1388000   0.68991435   -7.9312173     285.6122  0.017147706  0.016524052            4 
 1389000   0.70332589   -7.9212657    286.27778  0.017175293  0.016511429            6 
 1390000    0.6976137   -7.9158746    286.70063  0.017188287  0.016498817            3 
 1391000   0.69441742   -7.9114798    286.54809  0.017166792  0.016486218            2 
 1392000   0.69488641   -7.9203284    286.98724  0.017180749  0.016473634            6 
 1393000   0.68653282   -7.9202418    286.50574  0.017139611   0.01646105            6 
 1394000   0.69330491   -7.9210526    286.15026  0.017106065  0.016448434            4 
 1395000   0.69680158   -7.9056987    287.44981  0.017171434  0.016435837            4 
 1396000   0.68381923   -7.9139772    286.54085  0.017104874  0.016423273            3 
 1397000   0.70052579    -7.910275    287.11839  0.017127081  0.016410703            3 
 1398000   0.70186417   -7.8984877    286.98669   0.01710698  0.016398169            2 
 1399000   0.69242251   -7.9088851    287.07076  0.017099759  0.016385622            3 
 1400000   0.69763325   -7.9191359    286.77495  0.017069937  0.016373029            2 
 1401000   0.68275113   -7.9182163    287.10203  0.017077209  0.016360462            2 
 1402000   0.70656878   -7.9264479    287.04822   0.01706183  0.016347913            2 
 1403000    0.6865842   -7.9177347    286.97378  0.017045247   0.01633537            4 
 1404000   0.69438648   -7.9071612     286.7423  0.017019367  0.016322861            3 
 1405000   0.68557575   -7.9331771    287.30193  0.017040447  0.016310351            2 
 1406000    0.6973398    -7.910721    287.34065  0.017030622  0.016297869            8 
 1407000   0.69445348   -7.9185006    286.79661  0.016986295  0.016285394            3 
 1408000   0.70053465   -7.9107032    286.73952  0.016970852  0.016272939            4 
 1409000   0.69535628   -7.9201328    286.94153  0.016970755  0.016260567            2 
 1410000   0.68373828   -7.9455772    287.64598  0.017000354  0.016248206            2 
 1411000   0.69154988   -7.8926703    287.41462  0.016974641  0.016235807            2 
 1412000   0.67794948   -7.9341773    287.71418  0.016980299  0.016223403            2 
 1413000   0.69638507   -7.9311224    287.38038  0.016948595  0.016211028            9 
 1414000   0.69911186   -7.9249903    287.16362  0.016923834  0.016198683            2 
 1415000   0.67058668   -7.9124438    286.34536  0.016863684  0.016186297            3 
 1416000   0.68585714   -7.9403052    287.09304  0.016895777   0.01617394            3 
 1417000   0.67866914   -7.9470684    287.44986  0.016904838  0.016161574            2 
 1418000   0.67547739   -7.9499526     286.9232  0.016861965  0.016149172            5 
 1419000   0.68818803   -7.9178069    286.73591  0.016839083  0.016136767            3 
 1420000    0.6919441   -7.9473037     286.8143  0.016831825  0.016124379            3 
 1421000   0.69019741    -7.978114    287.66833  0.016870064     0.016112            5 
 1422000   0.67911371   -7.9552736    286.68653  0.016800664  0.016099589            3 
 1423000   0.68657725   -7.9584105    287.46014  0.016834162   0.01608718            3 
 1424000   0.69591768   -7.9590281     286.9321  0.016791438  0.016074795            4 
 1425000   0.66839903   -7.9625987    286.31041  0.016743299  0.016062407            3 
 1426000   0.68824858   -7.9434714    287.21608  0.016784483  0.016050028            4 
 1427000   0.68252217   -7.9452737     287.1524  0.016769003  0.016037684            3 
 1428000   0.67602248   -7.9644569    287.39854  0.016771624  0.016025343            3 
 1429000   0.68433905   -7.9420674    287.12972  0.016744211  0.016012999            2 
 1430000   0.68378103   -7.9449272    287.07695  0.016729426  0.016000678           10 
 1431000   0.67499913   -7.9627352    286.72721  0.016697368  0.015988348            4 
 1432000   0.68264285   -7.9585173    286.87898   0.01669454  0.015976017            6 
 1433000   0.68883127   -7.9563775    286.92281  0.016685439  0.015963723            2 
 1434000    0.6858336   -7.9589465    286.42384  0.016644807  0.015951357            3 
 1435000   0.67842039    -7.957678    286.06163  0.016612173  0.015938976            3 
 1436000   0.67485971   -7.9582831    286.98392  0.016654127  0.015926616            3 
 1437000   0.67137392   -7.9670282     286.3741  0.016607173  0.015914235            4 
 1438000   0.68072125    -7.973127    287.09754  0.016637549  0.015901864            2 
 1439000   0.67398118    -7.986499    286.91687  0.016615524  0.015889493           10 
 1440000   0.70111107   -7.9699994    286.89196  0.016602544  0.015877144            5 
 1441000   0.68756002   -7.9591475    286.73345  0.016581856  0.015864764            7 
 1442000   0.67792372   -7.9815374    287.14626  0.016594213  0.015852399            9 
 1443000   0.68065352   -7.9988632    286.56451  0.016549117  0.015840016            2 
 1444000   0.67648438   -8.0003825    287.02683  0.016564337  0.015827643            4 
 1445000   0.66658846   -7.9615476    286.39694  0.016516548  0.015815294            3 
 1446000   0.68154694   -7.9608267    286.92817   0.01653574  0.015802976            4 
 1447000   0.68368368   -7.9927668    286.78019  0.016515791  0.015790676            2 
 1448000   0.66332415   -7.9640793    286.75626  0.016503008  0.015778368            4 
 1449000   0.66307711   -7.9895744    286.60136   0.01648271  0.015766025            6 
 1450000   0.66416339   -7.9728833    286.58699  0.016470517  0.015753699            4 
 1451000   0.68353033   -7.9917665    286.61982  0.016461051    0.0157414            2 
 1452000   0.68725483    -7.950107    286.52166   0.01644408   0.01572912            3 
 1453000    0.6771925   -8.0122373    286.90658  0.016454839  0.015716848            4 
 1454000    0.6641361   -7.9710845    286.85317  0.016440461  0.015704597            3 
 1455000   0.67568499   -7.9939147    287.02474  0.016438988  0.015692361            5 
 1456000   0.66768952   -7.9761702    287.48732  0.016454174  0.015680117            4 
 1457000    0.6783207   -7.9748312    287.39745   0.01643774  0.015667892            7 
 1458000   0.66628022   -7.9816074    286.81453  0.016393149  0.015655686            2 
 1459000   0.65458557   -7.9643555     287.1133  0.016398978  0.015643491            5 
 1460000   0.67504562   -7.9602397    286.91689  0.016376535  0.015631306            3 
 1461000   0.67482892   -7.9961573    286.75851  0.016356292  0.015619128            3 
 1462000   0.65943031   -7.9929233    286.89362  0.016352806  0.015606928            3 
 1463000   0.67005309   -7.9981459     286.6179  0.016325923  0.015594714            7 
 1464000   0.68266986   -7.9820524    286.67072  0.016317778  0.015582495            6 
 1465000   0.67504174   -7.9943355    286.53017  0.016298644   0.01557028            3 
 1466000   0.66699827    -8.006953    286.75773  0.016300462  0.015558072            4 
 1467000   0.67030809   -8.0170258    286.88052  0.016296326  0.015545882            4 
 1468000   0.65855546   -8.0036362    287.03202  0.016293825  0.015533708            5 
 1469000    0.6631891   -8.0141367    287.18878  0.016291626  0.015521513            5 
 1470000   0.67020719   -8.0236102    287.02586  0.016271307  0.015509351            4 
 1471000   0.66519465     -7.99704    286.97184  0.016257186  0.015497199            2 
 1472000   0.65529425   -7.9896172    286.95967  0.016245452  0.015485071            4 
 1473000   0.66235722   -7.9974983    286.61564   0.01621496   0.01547294            7 
 1474000   0.67606325   -8.0116395    286.86101  0.016217832  0.015460841            3 
 1475000   0.66051596   -7.9978563    287.11918  0.016221422  0.015448736            6 
 1476000   0.65801157   -7.9933327    286.91614  0.016198969  0.015436618            5 
 1477000   0.66111717   -8.0097592    286.67613   0.01617446  0.015424504            3 
 1478000   0.65388278   -8.0244074     287.4264  0.016205819  0.015412425            3 
 1479000   0.66203147    -8.000535    286.57813  0.016147066  0.015400322            2 
 1480000   0.67187508     -7.99614    287.10297  0.016165708  0.015388245            3 
 1481000   0.65483224   -8.0236265    286.88972  0.016142793  0.015376141            2 
 1482000   0.66471673   -8.0164683     286.8721   0.01613091  0.015364039            4 
 1483000   0.65808678   -8.0177443    286.74255  0.016112753  0.015351934            2 
 1484000   0.67769017   -8.0176994    286.95353  0.016113743  0.015339834            2 
 1485000   0.65425889   -8.0109216    286.84273  0.016096674  0.015327722            5 
 1486000   0.66910383   -8.0010175    286.55897  0.016069929   0.01531564            2 
 1487000   0.66543448   -8.0221887     286.8109   0.01607324  0.015303544            3 
 1488000   0.65570242   -8.0390071    286.93837  0.016069577  0.015291456            3 
 1489000   0.66195793   -8.0457179    286.74869  0.016048169  0.015279365            3 
 1490000    0.6723756   -8.0386108    286.70999  0.016035234  0.015267306            2 
 1491000   0.65619267   -8.0286877    286.89269  0.016034691  0.015255265            4 
 1492000   0.66639648    -8.016792    286.36052   0.01599422  0.015243231            4 
 1493000   0.66635641    -8.028018    286.82875  0.016009642  0.015231185            2 
 1494000   0.65983887   -8.0082139    286.94029  0.016005148  0.015219189            6 
 1495000    0.6712267   -8.0578478    286.72609  0.015982502  0.015207191            3 
 1496000   0.65102455   -8.0392081    286.75988  0.015973701  0.015195198            5 
 1497000   0.67082232   -8.0357646    287.01292  0.015977116  0.015183211            2 
 1498000    0.6566702   -8.0262755    286.79404  0.015954275  0.015171241            5 
 1499000   0.65284184   -8.0275674    286.45487  0.015924776  0.015159275            5 
 1500000   0.65416276   -8.0197672    287.02712  0.015945951  0.015147301            5 
 1501000    0.6597219   -8.0360644    287.14389  0.015941811  0.015135331            4 
 1502000   0.64664882   -8.0279735    286.69914  0.015906521  0.015123359            3 
 1503000   0.66414379   -8.0378102    286.39486  0.015879068  0.015111405            2 
 1504000   0.64796928   -8.0354411    286.70879  0.015885903  0.015099444            3 
 1505000   0.64948623   -8.0267842    287.10217   0.01589713  0.015087469            5 
 1506000   0.66188103   -8.0411323    286.12749  0.015832641  0.015075504            3 
 1507000   0.65240879   -8.0414604    286.40758  0.015837623  0.015063551            7 
 1508000   0.65394119   -8.0626823     286.9408  0.015856587  0.015051583            3 
 1509000   0.64891294   -8.0271133    286.64754  0.015829884  0.015039625            3 
 1510000    0.6478568   -8.0543049    286.19833   0.01579461  0.015027682            6 
 1511000   0.63695709    -8.042289    286.90936  0.015823371   0.01501575            4 
 1512000   0.66316702   -8.0460163    286.73983  0.015803562  0.015003831            2 
 1513000   0.63686735   -8.0454399    286.11662  0.015758792   0.01499192            1 
 1514000   0.62796824   -8.0370814    286.57865  0.015773814  0.014979999            6 
 1515000   0.65789646   -8.0626301    286.20631  0.015742921  0.014968099            3 
 1516000   0.65913963   -8.0448624    286.37039  0.015741556    0.0149562            4 
 1517000   0.66593269   -8.0494315    286.33781   0.01572939    0.0149443            5 
 1518000   0.64116357   -8.0597551    286.69256  0.015738502  0.014932408            2 
 1519000    0.6446071   -8.0658229    286.81321   0.01573476  0.014920534            5 
 1520000    0.6459933   -8.0581672    286.77378  0.015722247  0.014908642            3 
 1521000   0.64273378   -8.0578892     286.9948   0.01572402  0.014896734            7 
 1522000   0.63151643   -8.0613156    286.18902   0.01566957  0.014884845            3 
 1523000   0.65688246   -8.0408652    286.55681  0.015679405  0.014872957           13 
 1524000   0.64060951   -8.0668841    286.40375  0.015660748  0.014861072            3 
 1525000   0.64979026   -8.0401999    285.73534  0.015613953  0.014849201            9 
 1526000   0.63930096   -8.0333992    286.39937  0.015639983  0.014837364            2 
 1527000   0.62918279   -8.0720545     286.5956   0.01564045  0.014825556            2 
 1528000   0.64602037   -8.0601783    286.69638   0.01563571  0.014813731            4 
 1529000   0.63900401   -8.0722468    286.09409  0.015592658  0.014801924            3 
 1530000   0.64574147    -8.059285    286.68399  0.015614596  0.014790111            2 
 1531000   0.63549272    -8.061083    286.41209  0.015589598  0.014778323            2 
 1532000    0.6526525   -8.0736102    286.56496  0.015587737  0.014766542            4 
 1533000   0.64605586   -8.0578612    286.43252   0.01557037  0.014754806            4 
 1534000   0.65562138   -8.0459679     286.5569  0.015566977  0.014743028            2 
 1535000   0.63753415   -8.0818943    286.20196  0.015537566  0.014731246            3 
 1536000   0.64681544   -8.0621434    286.42135  0.015539353  0.014719455            6 
 1537000   0.63036941   -8.0818242    286.07037  0.015510213  0.014707701            4 
 1538000   0.63272567   -8.0396471    286.02206  0.015497511  0.014695922            3 
 1539000   0.64822082    -8.060714    286.42443  0.015509229  0.014684162            2 
 1540000   0.63979533   -8.0476908    286.49464  0.015502957  0.014672432            3 
 1541000    0.6236901   -8.0516874    286.19098  0.015476475  0.014660704           10 
 1542000   0.63297513   -8.0768752    286.10412  0.015461744  0.014648989            4 
 1543000    0.6517034   -8.0529416    287.12242   0.01550672  0.014637289            6 
 1544000   0.62965886   -8.0516071    286.60075   0.01546852   0.01462558            5 
 1545000   0.63847638   -8.0677233    286.75729  0.015466952  0.014613882            3 
 1546000   0.63589781   -8.0781559    286.41499  0.015438496  0.014602177            7 
 1547000   0.64306104   -8.0895406    286.19413   0.01541662  0.014590476            2 
 1548000    0.6477223   -8.0971555    286.37746   0.01541653  0.014578779            4 
 1549000   0.62149558   -8.0946865     286.5174  0.015414106  0.014567088            3 
 1550000   0.63700965   -8.1001936    286.51063  0.015403797  0.014555413            3 
 1551000   0.64255743   -8.0952334    286.75143  0.015406804  0.014543746            6 
 1552000   0.63091562   -8.0685783    287.16421  0.015419041  0.014532116            3 
 1553000   0.63793923   -8.0585909    286.47199  0.015371968  0.014520498            4 
 1554000   0.63028603   -8.0614736    287.11178  0.015396384  0.014508899            4 
 1555000   0.63643129   -8.0860132    286.30137  0.015343053  0.014497268            3 
 1556000   0.63241299   -8.0631942      286.148  0.015324978  0.014485682            7 
 1557000   0.62011067   -8.0717872    286.20612  0.015318247  0.014474077            7 
 1558000   0.63801804   -8.1111891     286.5078  0.015324551  0.014462485            2 
 1559000   0.63205977   -8.1005046    286.40076  0.015308999  0.014450914            2 
 1560000   0.63384687   -8.0927488    286.42621  0.015300545  0.014439352            4 
 1561000   0.63260134   -8.0888501    286.59076  0.015299528  0.014427783            2 
 1562000   0.63230767   -8.0972455    286.38109  0.015278547  0.014416249            3 
 1563000   0.63776078   -8.0769514    286.32568  0.015265818  0.014404739            4 
 1564000   0.62118014   -8.1016616    286.50873  0.015265811  0.014393214            3 
 1565000   0.62283787   -8.0827137      286.302  0.015245048  0.014381697            3 
 1566000   0.63193042   -8.0713624    286.72407  0.015257773  0.014370217            3 
 1567000   0.62949068    -8.099819    286.18679  0.015219463  0.014358729            3 
 1568000   0.62455684   -8.0764839    286.98489  0.015252173  0.014347256            2 
 1569000   0.62249577   -8.0672906    285.98878  0.015189547  0.014335799            3 
 1570000   0.63478396   -8.0774462    286.47963  0.015205925  0.014324381            2 
 1571000   0.62095674   -8.0879584    286.70738  0.015208327  0.014312981            2 
 1572000   0.62716931   -8.0868805    286.81814  0.015204524  0.014301567            2 
 1573000   0.62788369   -8.1009705    286.84165  0.015196103  0.014290165            2 
 1574000   0.62739219   -8.1008375    287.14702  0.015202616   0.01427876            3 
 1575000   0.62418242   -8.0924963    287.07549  0.015189179  0.014267373            2 
 1576000   0.61841533   -8.1036896    286.68181  0.015158725  0.014255967            2 
 1577000   0.62982535   -8.1051792    286.54194  0.015141722  0.014244568            4 
 1578000   0.61385905   -8.0971813     286.8167  0.015146636  0.014233166            3 
 1579000   0.61319789   -8.1020616     286.8412  0.015138337  0.014221802            5 
 1580000   0.61528777   -8.1046289     286.1702  0.015093365  0.014210406            2 
 1581000   0.62452972   -8.0915343    286.16467  0.015083527  0.014199038            4 
 1582000   0.61695641   -8.1031065    286.01142   0.01506592  0.014187674            3 
 1583000   0.61116678   -8.1196234    286.74626  0.015095086  0.014176298            7 
 1584000   0.61035508   -8.1000208    286.55453   0.01507547  0.014164942            4 
 1585000   0.61680691   -8.0961879    286.91321  0.015084817    0.0141536            3 
 1586000   0.62033687   -8.1126527    286.65984  0.015061992   0.01414226            7 
 1587000   0.61768885   -8.0885406    286.33962  0.015035687  0.014130945            4 
 1588000    0.6143677   -8.0886894     286.6975  0.015044999  0.014119648            3 
 1589000   0.61921776    -8.102943     286.6283  0.015031902  0.014108372            3 
 1590000   0.61981268   -8.1143822    286.30363  0.015005431  0.014097052            3 
 1591000   0.61590592   -8.1022361    286.47646  0.015005052  0.014085774            3 
 1592000   0.59880935   -8.0935514    287.44121  0.015046127  0.014074529            2 
 1593000   0.62629294    -8.084594    286.34688  0.014979435  0.014063287            2 
 1594000    0.6247494   -8.1184607    286.83742  0.014995683  0.014052024            5 
 1595000   0.60399207   -8.1057409    286.84161    0.0149865  0.014040767            4 
 1596000   0.61391242   -8.1168191    286.58639  0.014963784  0.014029505            7 
 1597000    0.6161589   -8.0991434    286.55805  0.014952935  0.014018267            2 
 1598000   0.60383076   -8.1217617    286.69266  0.014950598  0.014007034            3 
 1599000   0.61457021     -8.10343    286.44077   0.01492812  0.013995804            2 
 1600000   0.61025581   -8.0756117     287.0362  0.014949802  0.013984593            4 
 1601000   0.60572747   -8.1064664    286.33036  0.014903725  0.013973396            2 
 1602000   0.62234089   -8.1136592    286.96543  0.014927457  0.013962227            2 
 1603000   0.61079763   -8.1305604    286.14596  0.014875544  0.013951048            2 
 1604000   0.61706859   -8.1201683    286.37981  0.014878419  0.013939869            4 
 1605000   0.60564117   -8.1030242    286.50582  0.014875692  0.013928677            4 
 1606000   0.60855152   -8.1277106    286.97358  0.014890701  0.013917527            3 
 1607000   0.61168073   -8.1144116    286.32925  0.014848022  0.013906346            6 
 1608000   0.60858805   -8.1213207    285.97381  0.014820367  0.013895169            6 
 1609000   0.59508857   -8.1195097    286.25808  0.014825879  0.013884016            5 
 1610000   0.60838811   -8.0825171    286.67076  0.014838031  0.013872876            2 
 1611000   0.59740706   -8.1182078    286.79037  0.014835008  0.013861759            3 
 1612000   0.61011815   -8.1219605    286.47293  0.014809395  0.013850627            2 
 1613000   0.60626757   -8.1285743    286.41207  0.014797069  0.013839515            4 
 1614000   0.59227714   -8.1097868    286.57119  0.014796117  0.013828429            2 
 1615000   0.61134312   -8.1428334    285.89308  0.014751965  0.013817346            3 
 1616000   0.60170343   -8.1483916    285.86572  0.014741425  0.013806253            5 
 1617000   0.60378125   -8.1255608    286.40882  0.014760298  0.013795173            4 
 1618000   0.61687543   -8.1395921     286.1651  0.014738623  0.013784094            2 
 1619000   0.61349174   -8.1166568     286.3862    0.0147409  0.013773028            5 
 1620000   0.60323965   -8.1339863     286.4711  0.014736168  0.013761969            5 
 1621000   0.60510276   -8.1398205    285.63024  0.014683849  0.013750915            4 
 1622000   0.60234443   -8.1365545    285.89437  0.014688367  0.013739879            2 
 1623000   0.61431269   -8.1227546    286.65673   0.01471846  0.013728844            4 
 1624000   0.60038927   -8.1229518    286.17793  0.014684828  0.013717827            4 
 1625000   0.60301218   -8.1364922     286.5119  0.014692918  0.013706807            4 
 1626000   0.60834389    -8.134273    285.91881  0.014653486  0.013695796            3 
 1627000   0.60981922   -8.1393181    285.69468  0.014632999  0.013684801            3 
 1628000   0.58659485   -8.1541884    286.54019  0.014667291  0.013673797            7 
 1629000   0.59768799   -8.1518627     286.3692  0.014649539  0.013662809            5 
 1630000   0.59865949   -8.1561305    286.05633  0.014624557  0.013651818            5 
 1631000   0.59484735   -8.1553552    286.14017  0.014619874   0.01364085            4 
 1632000   0.58927991   -8.1454329    286.20757  0.014614357  0.013629862            3 
 1633000   0.61147841   -8.1249836    286.42536  0.014616522  0.013618913            6 
 1634000   0.59364005   -8.1593037    285.76983  0.014574144   0.01360796            3 
 1635000   0.60302171   -8.1550096    285.74687   0.01456406  0.013596971            4 
 1636000   0.60242631   -8.1618109    286.43575  0.014590248  0.013585989            3 
 1637000   0.60036614   -8.1672774    285.73538  0.014545682  0.013575032            5 
 1638000   0.60526835    -8.162442    285.31941  0.014515639   0.01356407            3 
 1639000   0.59600207   -8.1615741    286.43816  0.014563665  0.013553113            4 
 1640000   0.60512356   -8.1501889    285.95015  0.014529987  0.013542173            3 
 1641000   0.60002281   -8.1490756    285.78707  0.014512851  0.013531231            8 
 1642000   0.59573566   -8.1590289    285.87606  0.014508529  0.013520308            6 
 1643000   0.60357686   -8.1661302    285.81071  0.014496384  0.013509391            2 
 1644000   0.59821722   -8.1546266    286.02971  0.014498667  0.013498497            4 
 1645000   0.59839315   -8.1547799     286.3115  0.014504128  0.013487584            6 
 1646000   0.59877878   -8.1511814    286.02786  0.014480957  0.013476702            3 
 1647000   0.59035618   -8.1578272    285.70178  0.014455666  0.013465812            3 
 1648000     0.579254   -8.1355122    286.02065  0.014463018   0.01345496            4 
 1649000   0.59368435   -8.1615323    285.96593  0.014451482   0.01344409            2 
 1650000    0.6006153   -8.1536872    286.41276  0.014465291  0.013433231            4 
 1651000   0.58195692   -8.1800047     285.9403  0.014432682  0.013422389            2 
 1652000    0.5902067   -8.1425277    285.92842  0.014423346  0.013411554            3 
 1653000   0.59092722   -8.1453178     286.1959  0.014428105  0.013400715            4 
 1654000   0.58143364   -8.1565611    286.18265  0.014418715  0.013389881            5 
 1655000   0.58916411   -8.1488122    285.84282  0.014392891  0.013379056            2 
 1656000   0.58037793   -8.1655057    285.86442  0.014385287  0.013368251            3 
 1657000   0.60086052   -8.1719386     285.8055  0.014373642  0.013357457            3 
 1658000   0.59427558   -8.1675535    285.93265  0.014371364  0.013346656            5 
 1659000   0.59301656   -8.1621502    285.55442  0.014343702  0.013335861            4 
 1660000   0.60128535   -8.1539322    285.53644  0.014334159   0.01332508            6 
 1661000   0.58433679   -8.1683826    285.71451  0.014334463  0.013314296            3 
 1662000   0.58607978   -8.1514296    286.18306  0.014349331  0.013303528            3 
 1663000   0.59007238   -8.1731321    285.74837   0.01431892  0.013292759            2 
 1664000    0.5828524   -8.1679147    285.55968  0.014300866  0.013281997            2 
 1665000   0.60687149    -8.169295    285.94956   0.01431179  0.013271258            3 
 1666000    0.5847924   -8.1573644    285.45038   0.01427823  0.013260526            3 
 1667000   0.59351807   -8.1614172    285.84267  0.014289276  0.013249792            3 
 1668000   0.58055157   -8.1738241    285.52883  0.014265029  0.013239065            4 
 1669000   0.58526165   -8.1744038    285.56479  0.014258278  0.013228359            2 
 1670000   0.60519361   -8.1984944    285.40907   0.01424197  0.013217645            2 
 1671000   0.59132913   -8.1739976     285.5449   0.01424022  0.013206951            3 
 1672000   0.59399438   -8.2008978    285.77658  0.014243251  0.013196247            3 
 1673000   0.56918426   -8.1709486    285.17511  0.014204777   0.01318557            4 
 1674000   0.58149045   -8.1766073    285.57225  0.014216062  0.013174885            4 
 1675000   0.57252264   -8.1901743    285.31051  0.014194553  0.013164202            3 
 1676000   0.57739368   -8.2001671    285.10727  0.014175978  0.013153525            4 
 1677000   0.58439843   -8.2044382    284.87338  0.014155902  0.013142843            4 
 1678000   0.59748248   -8.1821889    285.21076  0.014164221  0.013132182            2 
 1679000   0.57287899   -8.1911119    285.34976  0.014162684  0.013121532            2 
 1680000   0.56962722   -8.1919121    285.65361  0.014169326  0.013110888            3 
 1681000   0.57512466   -8.1796891    285.25336  0.014141055   0.01310024            3 
 1682000    0.5710359   -8.1982739    285.57952  0.014148807  0.013089606            6 
 1683000   0.57608619   -8.2024518    285.31988  0.014127544   0.01307896            3 
 1684000   0.57373734   -8.1987164    285.20229  0.014113336  0.013068342            4 
 1685000    0.5763349   -8.1891683     285.3213  0.014110846  0.013057729            4 
 1686000   0.58253986   -8.2027914    285.93136   0.01413263  0.013047119            4 
 1687000   0.56860153   -8.2085547     285.3056  0.014093341  0.013036516            2 
 1688000   0.57591737   -8.1925469    285.17132  0.014078363   0.01302592            2 
 1689000   0.57424768    -8.207732    284.86546  0.014054937  0.013015333            3 
 1690000     0.584519   -8.1999653    285.32261  0.014069162  0.013004764            3 
 1691000   0.58743986   -8.1963976    285.34862  0.014062124  0.012994196            3 
 1692000     0.572977    -8.192821    285.57251   0.01406484  0.012983636            3 
 1693000   0.57460771     -8.21429     285.2231  0.014039334  0.012973074            5 
 1694000   0.56340394   -8.2100236    284.81222  0.014010833  0.012962533            3 
 1695000   0.56925513   -8.1983295    285.00398  0.014011995  0.012951981            5 
 1696000   0.57651638   -8.1727378    285.35729  0.014021093  0.012941455            2 
 1697000   0.57178019   -8.1913046    285.65483  0.014027442  0.012930938            2 
 1698000   0.57400504   -8.1863438    285.33398  0.014003434  0.012920434            2 
 1699000   0.56612542   -8.2133292    285.64003  0.014010204  0.012909939            9 
 1700000   0.57187826    -8.192492    285.54942  0.013997521  0.012899465            5 
 1701000   0.57848765    -8.204293    284.82333   0.01395372  0.012888994            4 
 1702000   0.57644595   -8.2048128    284.77125  0.013942971  0.012878531            6 
 1703000    0.5674265   -8.1795447    285.33811  0.013962522  0.012868079            4 
 1704000   0.58276298    -8.200511    285.13582  0.013944436  0.012857639            8 
 1705000   0.56910336   -8.1974731    285.04259    0.0139317  0.012847198            6 
 1706000   0.56950661   -8.2250188    284.85455  0.013914349  0.012836756            9 
 1707000   0.56297335   -8.2159063    284.85458  0.013906199  0.012826315            7 
 1708000   0.57054558   -8.2246871    285.06399  0.013908274  0.012815884            8 
 1709000   0.56532309   -8.1978681    285.38424  0.013915752  0.012805467            5 
 1710000   0.56148704   -8.1967576    284.99947  0.013888863  0.012795068            6 
 1711000   0.57959855   -8.2095122    284.71686  0.013866981  0.012784677            3 
 1712000   0.56685925   -8.2105679    284.62134  0.013854232  0.012774313            6 
 1713000   0.56980128   -8.2113713     284.8574  0.013857628  0.012763926            2 
 1714000   0.57145156    -8.229974      284.577   0.01383591  0.012753554            5 
 1715000   0.57347426   -8.1946247     285.2556  0.013860816  0.012743186            4 
 1716000   0.57253986   -8.2218623    285.37386  0.013858482  0.012732827            4 
 1717000   0.57251071   -8.2216052    285.31175  0.013847396  0.012722478            5 
 1718000   0.57488863   -8.1995378    284.56819  0.013803269  0.012712141            4 
 1719000   0.57445044   -8.2107235    284.79664  0.013806314  0.012701808            4 
 1720000   0.55530457   -8.2095892    284.70958  0.013794069  0.012691488            1 
 1721000   0.56579727   -8.2023217    285.10623   0.01380526   0.01268118            2 
 1722000   0.56004686   -8.2214819    284.74192  0.013779613  0.012670892            3 
 1723000   0.57246789   -8.2156775    285.60903  0.013813553  0.012660615            2 
 1724000   0.57264224   -8.2119754    284.95802  0.013774073  0.012650336            5 
 1725000   0.57068533   -8.2144798    284.97251  0.013766788  0.012640083            6 
 1726000   0.55809807   -8.2241193    285.29398  0.013774333  0.012629849            3 
 1727000    0.5641228   -8.2125225    285.20387  0.013762009  0.012619611            8 
 1728000   0.56583431   -8.2286822    284.69125  0.013729323  0.012609395            3 
 1729000   0.54120768   -8.2233296    285.10598  0.013741372  0.012599184            3 
 1730000    0.5567408   -8.2096247    285.24482  0.013740117  0.012588979            3 
 1731000    0.5624912   -8.2261119    284.90862  0.013715994  0.012578783            3 
 1732000   0.56249447   -8.2063322    285.31395  0.013727577  0.012568614            3 
 1733000   0.56413423   -8.2210244      285.018  0.013705424  0.012558447            3 
 1734000   0.55945725   -8.2225381    285.36906  0.013714392  0.012548287            3 
 1735000    0.5489846   -8.2340025    285.03849   0.01369061  0.012538132            4 
 1736000   0.55984478   -8.2441239    285.65325  0.013712234  0.012527973            3 
 1737000    0.5674508   -8.2323816    284.69259  0.013658251   0.01251782            2 
 1738000   0.54182786   -8.2384592    285.24851  0.013677048    0.0125077            2 
 1739000   0.55461949   -8.2248766    285.17537  0.013665678  0.012497576            9 
 1740000   0.56158494   -8.2116602    284.36125  0.013618834  0.012487457            4 
 1741000   0.56826916   -8.2200894    285.02116  0.013642598  0.012477332            3 
 1742000   0.56249849   -8.2165217    284.74949   0.01362177  0.012467252            3 
 1743000     0.558031   -8.2378686    284.87939  0.013620166  0.012457156            4 
 1744000   0.54810649   -8.2273975     284.7724  0.013607244  0.012447068            6 
 1745000   0.55860726   -8.2335147    284.97435   0.01360909  0.012436985            3 
 1746000   0.55100084   -8.2161669    284.75645  0.013590896  0.012426906            3 
 1747000   0.54500973   -8.2383681    284.90295  0.013590105  0.012416846            8 
 1748000   0.55971623   -8.2116218    284.94652  0.013584407  0.012406789            3 
 1749000   0.54818258   -8.2547912    284.64329  0.013562192  0.012396741            7 
 1750000   0.55464655   -8.2374479    284.31744  0.013538926  0.012386681            5 
 1751000   0.57031892   -8.2301134    284.72272  0.013550482  0.012376647            3 
 1752000   0.56353783   -8.2442543    285.23051    0.0135669   0.01236662            2 
 1753000   0.55621578   -8.2436819    284.67296  0.013532657   0.01235659            4 
 1754000   0.57269367   -8.2491361    284.84029  0.013532891  0.012346565            4 
 1755000   0.55823483   -8.2394943    284.61069  0.013514278  0.012336544            5 
 1756000   0.55146793   -8.2498065     284.8736  0.013519058  0.012326537            5 
 1757000   0.54880531   -8.2340251       284.64  0.013500284   0.01231655            3 
 1758000   0.55044988   -8.2418928    285.24077  0.013521083  0.012306566            4 
 1759000   0.56453675   -8.2577567    284.85112  0.013494936  0.012296609            6 
 1760000   0.55186622   -8.2539764    284.54529  0.013472788  0.012286658            5 
 1761000   0.54311132   -8.2189859    284.56304  0.013465978  0.012276707            6 
 1762000   0.53793042   -8.2411251    284.69418  0.013464537  0.012266759            4 
 1763000   0.55162862   -8.2558735     284.4167  0.013443784  0.012256805            7 
 1764000   0.54402437   -8.2458899    284.69573  0.013449345  0.012246863            4 
 1765000   0.54756803   -8.2382964    284.80509  0.013446888  0.012236936            7 
 1766000   0.54832509   -8.2371803    284.89322  0.013443432  0.012227009            6 
 1767000   0.54231964   -8.2486745    284.82182  0.013432457  0.012217097            6 
 1768000   0.54647122    -8.256988    284.19051  0.013395103  0.012207203            4 
 1769000   0.54595758   -8.2388487    285.06233  0.013428601  0.012197318            6 
 1770000   0.54080454   -8.2602225    284.89555  0.013413162  0.012187437            5 
 1771000   0.54904664   -8.2422345    284.38527  0.013381577  0.012177562            6 
 1772000   0.55173028   -8.2642733    284.35517   0.01337261  0.012167701           10 
 1773000   0.54227853   -8.2690923    284.56563  0.013374959  0.012157851            5 
 1774000   0.54892119   -8.2721616    284.24891  0.013352542  0.012148013            7 
 1775000   0.54991794   -8.2813126    284.88915  0.013375078  0.012138184            4 
 1776000   0.56400667    -8.251437    284.22132   0.01333621  0.012128356            6 
 1777000   0.55298164   -8.2657064    284.29457  0.013332141  0.012118529            5 
 1778000   0.54497594   -8.2755286    284.28506  0.013324197  0.012108724            3 
 1779000   0.55043671   -8.2486763    284.65733  0.013334145   0.01209892            7 
 1780000   0.55056955   -8.2536573    284.02262  0.013296939  0.012089122            6 
 1781000   0.53666622   -8.2551664    284.13678  0.013294815  0.012079339            5 
 1782000   0.55186972   -8.2419999    284.03872  0.013282768  0.012069561            4 
 1783000   0.54981197   -8.2585502    284.82893  0.013312252  0.012059808            6 
 1784000   0.54833817   -8.2654494    284.11089  0.013271248  0.012050051            5 
 1785000    0.5369619   -8.2793522    284.61178  0.013287198  0.012040304            3 
 1786000   0.54138532   -8.2519906    284.65301  0.013281682  0.012030554            9 
 1787000   0.52665109   -8.2680202    284.40184  0.013262537  0.012020825            7 
 1788000   0.54214756   -8.2676137    284.50493  0.013259924  0.012011111            6 
 1789000   0.54213478   -8.2825041     284.1455  0.013235769  0.012001403            5 
 1790000   0.53643479   -8.2615693    284.51011   0.01324535  0.011991705            4 
 1791000   0.53825186   -8.2909045    284.44948  0.013235133  0.011982016            5 
 1792000   0.54286598   -8.2666854    284.34548  0.013222911  0.011972327            5 
 1793000   0.54777316   -8.2724872    284.45809   0.01322077  0.011962644            4 
 1794000   0.53116321   -8.2758986    284.33793  0.013207819  0.011952969           10 
 1795000    0.5367817   -8.2802982    284.37858  0.013202348  0.011943302            7 
 1796000   0.54024602   -8.2586045    283.82712   0.01316941  0.011933634            6 
 1797000   0.53674833   -8.2719436    284.33897  0.013185817  0.011923973            9 
 1798000   0.53075175   -8.2916254    284.18736  0.013171457  0.011914324            5 
 1799000   0.53645122   -8.2689307    284.44034  0.013175854  0.011904686           12 
 1800000   0.54134087   -8.2760517    284.38039  0.013165759  0.011895052            4 
 1801000   0.53170398   -8.2733123    284.42063   0.01316031  0.011885438            4 
 1802000   0.54005621    -8.248858    284.06727  0.013136666  0.011875821            4 
 1803000   0.52542081   -8.2774387    284.40882  0.013145166  0.011866214            6 
 1804000   0.53054566   -8.2762283     284.0121  0.013119554  0.011856623            8 
 1805000    0.5363913   -8.2688087    284.18219  0.013120138  0.011847042            7 
 1806000   0.52296088   -8.2816185    284.41276  0.013123512  0.011837469            6 
 1807000    0.5215709   -8.2847989    284.29644  0.013110885  0.011827919            7 
 1808000   0.51513066   -8.2867567    284.25958  0.013101935  0.011818369            3 
 1809000   0.54529509   -8.2732007    284.59183  0.013109998  0.011808841            4 
 1810000   0.53285354   -8.2964362    284.71839  0.013108581  0.011799307            3 
 1811000   0.52764012   -8.2742108    284.11219  0.013073449  0.011789779            8 
 1812000   0.52946722    -8.282884    284.49746  0.013083953  0.011780274            4 
 1813000   0.52645261   -8.2854905    284.52128  0.013077831  0.011770767            8 
 1814000   0.53017987   -8.2935151       284.46  0.013067806  0.011761264            5 
 1815000   0.51366148   -8.2780109    284.53072  0.013063853  0.011751773            7 
 1816000   0.53368831   -8.2854639     283.8713    0.0130264  0.011742289            6 
 1817000   0.52571474   -8.2830023    284.26612  0.013037338  0.011732811           11 
 1818000   0.52569807   -8.2803531    284.07955  0.013021615  0.011723334            5 
 1819000   0.52920676   -8.2871342    284.16988  0.013018594  0.011713873            7 
 1820000   0.53358543   -8.3028337    283.60581  0.012985614  0.011704404            7 
 1821000   0.52529373   -8.2852447    284.01003  0.012996981  0.011694943            7 
 1822000    0.5189431    -8.302852    284.13014  0.012995341  0.011685493            5 
 1823000    0.5149071   -8.3020738    283.90575  0.012977955  0.011676057            4 
 1824000   0.52707164   -8.2893014    284.20019  0.012984292  0.011666623            7 
 1825000   0.51865126   -8.3093768    284.69102   0.01299959  0.011657182            7 
 1826000   0.51497003   -8.3016846    283.83219  0.012953276  0.011647766            4 
 1827000   0.53147139   -8.2831583    283.82881  0.012946032  0.011638358            6 
 1828000    0.5191353   -8.3120503    283.87442  0.012941029  0.011628969            3 
 1829000   0.51897698   -8.2988236    283.84115  0.012932438  0.011619591            4 
 1830000   0.52712773   -8.3120418    283.99606  0.012932425  0.011610222            4 
 1831000   0.51746802   -8.3121822    283.74375  0.012913879  0.011600866            7 
 1832000   0.52155752   -8.3041389    283.34418  0.012888654   0.01159151            6 
 1833000   0.52006047   -8.3004395    284.35743  0.012927688  0.011582175            6 
 1834000   0.53205215   -8.3244343    284.38887  0.012922068  0.011572855            5 
 1835000   0.52310459   -8.3075028    283.99672  0.012897217  0.011563537            6 
 1836000   0.52863699   -8.3009876    283.65262  0.012874574  0.011554223            6 
 1837000   0.51937901   -8.3186182    283.61442  0.012865833  0.011544921            5 
 1838000   0.51271559   -8.3109653    284.07131  0.012879548  0.011535623            5 
 1839000   0.52059524   -8.2954308    283.59857  0.012851122  0.011526339            7 
 1840000   0.51990971   -8.3098591    284.05646  0.012864876  0.011517067            8 
 1841000   0.51985962   -8.2929957    284.13205   0.01286131  0.011507809            6 
 1842000   0.51618567   -8.3168524    284.01638  0.012849094  0.011498564           14 
 1843000   0.51942152   -8.3173742    284.00542  0.012841627  0.011489328            4 
 1844000   0.52492544   -8.2972168    284.30783  0.012848329  0.011480103            5 
 1845000   0.51084435   -8.3160385    283.85437  0.012820884  0.011470873            6 
 1846000    0.5191342   -8.3032261     284.2429  0.012831478  0.011461655            8 
 1847000   0.50224727    -8.319432    283.92169  0.012810038  0.011452454            6 
 1848000   0.51246569   -8.3147401    283.80125  0.012797675  0.011443239            9 
 1849000   0.51629199   -8.3287959    283.30574  0.012768422   0.01143404            9 
 1850000   0.49729071   -8.3142021    283.50511  0.012770501  0.011424836            6 
 1851000   0.50440508   -8.3205231    284.39009  0.012803444  0.011415653            6 
 1852000   0.51210298   -8.3164858    283.31087  0.012747969  0.011406473            9 
 1853000   0.50678624   -8.3287445    283.95283   0.01276996    0.0113973            9 
 1854000   0.50703463   -8.3247218    283.90116   0.01276075  0.011388137            4 
 1855000   0.51263975   -8.2983155    283.96988  0.012756958   0.01137899            6 
 1856000   0.51863323   -8.3098613    284.03625  0.012753064  0.011369853            6 
 1857000   0.51083337   -8.3018919    283.95997  0.012742774  0.011360728            5 
 1858000   0.50718048   -8.3078165    283.75712  0.012726817  0.011351598            6 
 1859000   0.50744927   -8.3231243    283.69872  0.012717353  0.011342486            5 
 1860000   0.50583685   -8.3006093    283.53695  0.012703268  0.011333381            5 
 1861000   0.51019486   -8.3189791    283.60659  0.012699561  0.011324277            5 
 1862000   0.51322006   -8.3149809    284.07225  0.012713581  0.011315178            8 
 1863000   0.51706882   -8.3211329    283.75671  0.012692642  0.011306096            5 
 1864000   0.51799228   -8.3144222    283.79197  0.012687409  0.011297023            5 
 1865000   0.49956428   -8.3230682    283.62464   0.01267313  0.011287973            6 
 1866000   0.50601898   -8.3099713     284.2096  0.012692462   0.01127892            7 
 1867000   0.51154388   -8.3127101    284.38056  0.012693294  0.011269866            6 
 1868000    0.5118598   -8.3120183    283.82752  0.012661827  0.011260836            4 
 1869000   0.50590284   -8.3232916    284.09782  0.012667104  0.011251812            4 
 1870000   0.49946665   -8.3253054    283.97388  0.012654807  0.011242787            8 
 1871000   0.51442058   -8.3223709    284.31762  0.012663354  0.011233786            6 
 1872000   0.51377758   -8.3187525    283.97338  0.012641265  0.011224782            6 
 1873000   0.51262609   -8.3250462    284.01249  0.012636256  0.011215776            5 
 1874000   0.50245655   -8.3298222    284.08502  0.012632738  0.011206792            4 
 1875000    0.5085859   -8.3270245    283.37941  0.012594641  0.011197823           10 
 1876000   0.51829379   -8.3412086    283.52372  0.012594337  0.011188849            7 
 1877000   0.49818713   -8.3248624    283.83084  0.012601262  0.011179898            7 
 1878000   0.50628521   -8.3198774    283.99405  0.012601795  0.011170947            8 
 1879000   0.51402169   -8.3330139    283.74231  0.012583924  0.011161998            9 
 1880000    0.5048393   -8.3421079    283.65519  0.012573368  0.011153069            4 
 1881000   0.50395203   -8.3296247    283.75768  0.012571224  0.011144148           11 
 1882000   0.52144616   -8.3330657    283.57857  0.012556614   0.01113524            5 
 1883000   0.50837229   -8.3323763    283.71959  0.012556186  0.011126331            7 
 1884000   0.49100299   -8.3180022     283.5966  0.012544082  0.011117438            6 
 1885000   0.50952735   -8.3336132    283.72604  0.012543149  0.011108544            6 
 1886000   0.50512012   -8.3381285    284.17162  0.012556187  0.011099652            5 
 1887000    0.5032763   -8.3212299    283.92053  0.012538444   0.01109077            6 
 1888000   0.50218119   -8.3298627    283.43682  0.012510453  0.011081899            6 
 1889000   0.49711722   -8.3419341    283.54462  0.012508586   0.01107305            6 
 1890000   0.49645733   -8.3287915    283.64145  0.012506237  0.011064202            5 
 1891000   0.49753993   -8.3262264    283.66159  0.012500511  0.011055359            7 
 1892000   0.49398638   -8.3421919    283.60272  0.012491311  0.011046522           15 
 1893000    0.4966961    -8.339355    283.61023  0.012485042  0.011037695            8 
 1894000    0.5043909   -8.3163947    283.68111   0.01248157  0.011028877            6 
 1895000   0.49929273   -8.3366298    283.81948  0.012481068  0.011020061            7 
 1896000   0.50690649   -8.3256694    283.35854  0.012454226  0.011011248            7 
 1897000   0.49559415   -8.3240779    283.40097  0.012449524   0.01100244            4 
 1898000   0.48874802   -8.3411797    283.34512  0.012440513   0.01099364            9 
 1899000   0.49011026   -8.3513729    283.19991  0.012427589  0.010984852            9 
 1900000   0.49321412   -8.3348364    283.85427  0.012449749  0.010976074            5 
 1901000   0.48094986   -8.3258995    283.61453   0.01243269  0.010967297            6 
 1902000    0.4971366   -8.3435144    283.88244  0.012437892  0.010958532            5 
 1903000   0.50232822   -8.3349472    282.86721  0.012386898  0.010949775           13 
 1904000   0.49316265   -8.3538561    283.19364   0.01239468  0.010941029            5 
 1905000   0.49260657   -8.3420188    282.95762  0.012377849  0.010932291            6 
 1906000   0.50012181   -8.3411708    283.32226  0.012387297  0.010923558           14 
 1907000    0.4959369   -8.3540924    283.40166  0.012384271  0.010914837            7 
 1908000   0.49562963     -8.33438    283.59421   0.01238619  0.010906116            6 
 1909000   0.48043731   -8.3576617      283.536  0.012377161  0.010897416            5 
 1910000   0.49545882   -8.3435948    283.12257  0.012352643  0.010888726            6 
 1911000   0.49266243   -8.3502263    283.57096  0.012365732  0.010880041            7 
 1912000   0.49798988   -8.3455199     283.6671  0.012363454  0.010871376            6 
 1913000   0.48716677    -8.336932    283.59285  0.012353757  0.010862716            6 
 1914000   0.48232945   -8.3502846    283.43975  0.012340637  0.010854063            9 
 1915000   0.47782757   -8.3545861    283.01527  0.012315721  0.010845417            7 
 1916000   0.47982994   -8.3623987    283.10264  0.012313093  0.010836773            9 
 1917000   0.49211921    -8.342866    283.07492  0.012305465  0.010828133           10 
 1918000   0.48829412   -8.3312048    283.32893  0.012310085  0.010819511            7 
 1919000   0.49399445   -8.3561828    283.10562  0.012293973  0.010810893           12 
 1920000   0.48075438   -8.3480837    283.51681  0.012305417  0.010802282            5 
 1921000   0.48334617   -8.3444909    283.55375  0.012300614   0.01079368            7 
 1922000   0.49568725   -8.3428571    283.44927  0.012289684  0.010785091            7 
 1923000   0.49866251   -8.3572864    283.06883  0.012266807  0.010776499            6 
 1924000   0.48341468   -8.3521007    283.10942  0.012262189  0.010767914            6 
 1925000   0.47431242   -8.3521817    283.33821  0.012265724  0.010759335            9 
 1926000    0.4925113   -8.3640857    283.28683  0.012257132   0.01075077            7 
 1927000   0.48546861   -8.3605716    283.47332  0.012258836   0.01074222            7 
 1928000   0.47620839   -8.3625367    282.72805  0.012220265  0.010733668            7 
 1929000   0.47731479   -8.3515299    282.82202  0.012217989  0.010725134            9 
 1930000   0.47586403    -8.367099    282.93838  0.012216683  0.010716603            8 
 1931000   0.48875323   -8.3558788    283.15062  0.012219516  0.010708083            8 
 1932000   0.48089926   -8.3412597    283.02764  0.012207887  0.010699577            7 
 1933000   0.47721782   -8.3599821    283.17488  0.012207919  0.010691075           10 
 1934000   0.47516253   -8.3572055    283.22881   0.01220393  0.010682589            9 
 1935000    0.4764208    -8.350223    282.76274  0.012177551   0.01067411            8 
 1936000   0.47717882   -8.3533083    283.27719  0.012193405  0.010665635            9 
 1937000    0.4801924   -8.3606242    283.33444  0.012189573  0.010657161            8 
 1938000   0.47355816   -8.3701885    283.23283  0.012178914  0.010648695            7 
 1939000   0.48207078   -8.3807192    283.23489  0.012172722  0.010640234            7 
 1940000   0.47428134    -8.365115    283.30434   0.01216943  0.010631784            7 
 1941000   0.46793245   -8.3536424    283.32496  0.012164046  0.010623345           10 
 1942000   0.47062965   -8.3605012    283.20147  0.012152483  0.010614909            7 
 1943000   0.48164414   -8.3786374    283.21929  0.012146993  0.010606477            4 
 1944000   0.48294125   -8.3737047    283.04164  0.012133129  0.010598053            5 
 1945000   0.49011814   -8.3622977    283.00255  0.012125216  0.010589648            8 
 1946000   0.47538306   -8.3618351    282.62625  0.012102871  0.010581238            5 
 1947000   0.47533741   -8.3689528    283.17525  0.012120153  0.010572844            5 
 1948000   0.48102213   -8.3660761    283.12164  0.012111638  0.010564463            7 
 1949000   0.48536434   -8.3679249    282.79073  0.012091275  0.010556082            8 
 1950000     0.481952   -8.3757766    282.94601   0.01209171  0.010547703            9 
 1951000   0.47971625   -8.3689128    282.90093  0.012083587  0.010539329            9 
 1952000    0.4760662   -8.3685196    283.05647  0.012084037  0.010530974            7 
 1953000   0.47924266    -8.377567    283.46062  0.012095094  0.010522629            8 
 1954000   0.46853641   -8.3732525    282.74826  0.012058523  0.010514291            8 
 1955000   0.47271546   -8.3787893    283.32234  0.012076826  0.010505956            8 
 1956000   0.47146703   -8.3795939    282.62262  0.012040841  0.010497624            6 
 1957000   0.47197456   -8.3865803    282.94442  0.012048391  0.010489295            6 
 1958000   0.48443177   -8.3822355      282.942  0.012042135  0.010480983            5 
 1959000   0.46483124   -8.3787176    283.23303  0.012048368  0.010472682            6 
 1960000   0.47218595   -8.3808155    283.32026  0.012045929  0.010464391            7 
 1961000   0.46767043   -8.3811495    283.36747  0.012041793  0.010456096            8 
 1962000   0.46924843   -8.3665631    283.08741   0.01202376  0.010447819            6 
 1963000   0.46000822   -8.3782933    283.12506  0.012019233  0.010439545            5 
 1964000   0.47064844   -8.3640342    282.97946  0.012006936  0.010431285            5 
 1965000   0.45773347   -8.3872808     282.9119   0.01199796  0.010423025            6 
 1966000    0.4792255   -8.3890541     283.0629  0.011998258  0.010414779            7 
 1967000   0.47602263   -8.3813541    282.85004   0.01198314   0.01040653            8 
 1968000   0.47119692   -8.3659509     283.2076  0.011992192    0.0103983            6 
 1969000   0.47107778    -8.384573    282.49302  0.011955858  0.010390072            3 
 1970000    0.4702755   -8.3788724    283.04353  0.011973076  0.010381841            6 
 1971000   0.46562443   -8.3872443    282.90443  0.011961121  0.010373629            8 
 1972000   0.45850238   -8.3833697    282.71076  0.011946871   0.01036542           10 
 1973000   0.47556108    -8.387542    282.59809  0.011936057  0.010357225            4 
 1974000   0.45823172   -8.3775833    282.97332  0.011945851  0.010349038            5 
 1975000    0.4603151   -8.3823317    282.77543  0.011931453  0.010340857            9 
 1976000    0.4597202   -8.3872175    282.84355  0.011928287  0.010332681            4 
 1977000   0.46654893   -8.3775733    282.93192  0.011925979  0.010324509            8 
 1978000   0.46159663   -8.3789569    282.78486  0.011913754  0.010316349            9 
 1979000   0.44287916   -8.3992847    282.45787  0.011893964  0.010308194            6 
 1980000    0.4716881   -8.3920811    282.64761  0.011895943  0.010300045            7 
 1981000   0.46728619   -8.3856071    282.69553  0.011891954  0.010291908           10 
 1982000   0.45420594   -8.3914932    282.41446  0.011874137  0.010283777            8 
 1983000   0.45638868   -8.3991822    282.86665  0.011887151  0.010275657            6 
 1984000   0.45489697   -8.4034662    282.75365  0.011876414  0.010267544            9 
 1985000   0.45161096   -8.3854995    283.02209    0.0118817  0.010259436            8 
 1986000   0.46831137   -8.3811783    282.76343  0.011864864  0.010251336            9 
 1987000   0.45897515   -8.4002167    282.72147  0.011857133  0.010243247            7 
 1988000   0.45964278   -8.4050044    282.65683  0.011848459  0.010235165            8 
 1989000   0.45278844   -8.4033259    282.72205  0.011845234  0.010227099            6 
 1990000   0.46104921   -8.3903591    282.60477   0.01183437  0.010219034            7 
 1991000   0.45501269   -8.3996769    282.61603  0.011828898   0.01021098            9 
 1992000   0.45938487   -8.4143483    282.63759  0.011823861  0.010202928            4 
 1993000   0.46061183   -8.3946707    282.86711  0.011827526  0.010194886            4 
 1994000   0.46580852   -8.4021278    282.48981  0.011805826   0.01018686            5 
 1995000   0.45507196   -8.4032509    282.79258  0.011812555  0.010178843            6 
 1996000   0.45426138   -8.4142323    282.61718  0.011799315  0.010170825           13 
 1997000   0.45259948   -8.4017178    282.70097  0.011796902  0.010162811            3 
 1998000   0.45408775   -8.4027401    282.65792  0.011789203  0.010154805            4 
 1999000   0.46402055   -8.4131581    282.79491  0.011789016  0.010146807            4 
 2000000   0.46286204   -8.3930957    282.35406  0.011764752  0.010138814            4 
 2001000    0.4454388   -8.3991291    282.62873  0.011770312   0.01013083            8 
 2002000    0.4438117    -8.395177    282.46859  0.011757767  0.010122852            6 
 2003000   0.45822072   -8.3895383    282.19793  0.011740636  0.010114882            7 
 2004000   0.45886365    -8.406545    282.35556  0.011741332  0.010106922            6 
 2005000   0.45802324    -8.409986    282.74168  0.011751525  0.010098964            3 
 2006000   0.44763273   -8.3999546    282.33208  0.011728651  0.010091018            9 
 2007000   0.44904869   -8.3954727    282.83016  0.011743488  0.010083074            3 
 2008000    0.4500629   -8.4008888    282.45388  0.011722024  0.010075138            7 
 2009000   0.44756798   -8.4235054     282.4781  0.011717193  0.010067217            5 
 2010000   0.45371162   -8.4147935     282.3197  0.011704797  0.010059293            5 
 2011000   0.45113806   -8.4161314    281.91887  0.011682367  0.010051386            5 
 2012000    0.4456092    -8.400133    282.60883  0.011705137  0.010043481            9 
Loop time of 4711.72 on 48 procs for 2000000 steps with 4000 atoms

Performance: 73348.943 tau/day, 424.473 timesteps/s
99.4% CPU use with 48 MPI tasks x no OpenMP threads

MPI task timing breakdown:
Section |  min time  |  avg time  |  max time  |%varavg| %total
---------------------------------------------------------------
Pair    | 288.71     | 305.64     | 323.29     |  51.1 |  6.49
Neigh   | 30.128     | 31.884     | 33.672     |  13.4 |  0.68
Comm    | 297.21     | 316.57     | 337.64     |  55.1 |  6.72
Output  | 5.1671     | 5.1692     | 5.2234     |   0.3 |  0.11
Modify  | 4002.5     | 4008.9     | 4016.4     |   5.6 | 85.08
Other   |            | 43.57      |            |       |  0.92

Nlocal:        83.3333 ave          93 max          74 min
Histogram: 2 0 3 12 6 10 10 3 1 1
Nghost:        1975.52 ave        2000 max        1936 min
Histogram: 1 1 1 4 7 4 12 11 4 3
Neighs:        12677.3 ave       14978 max       11571 min
Histogram: 8 7 8 9 7 3 4 1 0 1
FullNghs:      25353.9 ave       28635 max       22441 min
Histogram: 2 1 7 7 9 10 7 3 1 1

Total # of neighbors = 1216988
Ave neighs/atom = 304.24700
Neighbor list builds = 107287
Dangerous builds = 2

#clear
#
#next RN
#
#jump SELF
Total wall time: 1:18:35
