
units lj                  # Use reduced LJ style units
atom_style atomic         # Uncharged point particles
atom_modify map hash      # Needed for indexing of clusters etc
                          # Used to be able to find where atoms are in relation to each other.

lattice fcc 1.0 spacing 1 1 1
Lattice spacing in x,y,z = 1.5874011 1.5874011 1.5874011
region box block 0 10 0 10 0 10 units lattice
create_box 2 box
Created orthogonal box = (0.0000000 0.0000000 0.0000000) to (15.874011 15.874011 15.874011)
  3 by 4 by 4 MPI processor grid
create_atoms 1 box
Created 4000 atoms
  using lattice units in orthogonal box = (0.0000000 0.0000000 0.0000000) to (15.874011 15.874011 15.874011)
  create_atoms CPU = 0.003 seconds
set type 1 type/fraction 2 0.57 78393
Setting atom values ...
  2292 settings made for type/fraction
mass 1 1.0
mass 2 1.0
pair_style lj/cut  3.5
pair_modify tail  yes
pair_coeff 1  1  1.0  1.0   # Intearaction between 1 and 1 set with epsilon = 1 and sigma = 1
pair_coeff 1  2  1.5  0.8
pair_coeff 2  2  0.5  0.88

write_data data.0
System init for write_data ...
Neighbor list info ...
  update every 1 steps, delay 10 steps, check yes
  max neighbors/atom: 2000, page size: 100000
  master list distance cutoff = 3.8
  ghost atom cutoff = 3.8
  binsize = 1.9, bins = 9 9 9
  1 neighbor lists, perpetual/occasional/extra = 1 0 0
  (1) pair lj/cut, perpetual
      attributes: half, newton on
      pair build: half/bin/atomonly/newton
      stencil: half/bin/3d
      bin: standard
WARNING: Not all mixed pair coeffs generated from mixing. Use write_data with 'pair ij' option to store all pair coeffs. (../write_data.cpp:312)


#############################
#   M E L T   S Y S T E M   #
#############################

velocity all create 2.4 3143649 mom yes dist gaussian # Assign velocities
                                                    # Temperature 2.4, random number seed, zero linear momentum
                                                                                # Gaussian distribution

timestep 0.002   # simulation timestep
thermo 1000       # output thermodynamic data every 1000 steps bf 100

# Define a fix  in this case with index 1 applied to all
# particles in the simulation. This fix is for simulations
# in the anisotropic NPT ensemble. Note that we use the MTK
# correction.
fix 1 all npt temp 2.4 2.4 0.1 iso 5.68 5.68 0.5 mtk yes tchain 5 pchain 5 # Use NPT ensemble
                                                                         # Set temperature and pressure and damping
                                                                         # Numbers of thermostats in chain and in barostat
run 10000          # run for 10000 steps
Per MPI rank memory allocation (min/avg/max) = 3.642 | 3.644 | 3.648 Mbytes
Step Temp E_pair E_mol TotEng Press Volume 
       0          2.4   -4.8904957            0   -1.2913957   -4.1230707         4000 
    1000     2.352867   -4.6173154            0   -1.0888973    5.7864688    3613.9692 
    2000    2.4281258   -4.6448324            0   -1.0035542     5.755064    3620.2619 
    3000    2.4386393   -4.6167423            0  -0.95969782    5.6012268    3634.2161 
    4000      2.40363    -4.648446            0   -1.0439024    5.8198715    3600.2134 
    5000    2.3851018   -4.6214277            0   -1.0446694    5.6234858    3619.8744 
    6000    2.4180339   -4.5993383            0  -0.97319416    5.8043743    3636.7619 
    7000    2.3701782   -4.6418318            0   -1.0874533    5.6389201    3621.1918 
    8000    2.3875298   -4.5979826            0   -1.0175832    5.8097642     3622.899 
    9000    2.3935365   -4.5392336            0  -0.94982649    5.8867105    3644.3336 
   10000    2.4132698   -4.6068013            0  -0.98780158    5.7400425    3626.8021 
Loop time of 2.65989 on 48 procs for 10000 steps with 4000 atoms

Performance: 649651.037 tau/day, 3759.555 timesteps/s
99.6% CPU use with 48 MPI tasks x no OpenMP threads

MPI task timing breakdown:
Section |  min time  |  avg time  |  max time  |%varavg| %total
---------------------------------------------------------------
Pair    | 1.1677     | 1.2744     | 1.3488     |   2.7 | 47.91
Neigh   | 0.21476    | 0.22349    | 0.23603    |   0.8 |  8.40
Comm    | 0.80308    | 0.90311    | 1.007      |   3.5 | 33.95
Output  | 0.00024976 | 0.00025551 | 0.000322   |   0.0 |  0.01
Modify  | 0.22101    | 0.24256    | 0.2727     |   2.5 |  9.12
Other   |            | 0.01604    |            |       |  0.60

Nlocal:        83.3333 ave          92 max          75 min
Histogram: 3 3 6 4 9 7 5 7 3 1
Nghost:        1755.58 ave        1784 max        1725 min
Histogram: 3 4 4 7 3 9 6 3 4 5
Neighs:        10531.9 ave       11732 max        9392 min
Histogram: 2 6 1 10 7 6 8 2 3 3

Total # of neighbors = 505529
Ave neighs/atom = 126.38225
Neighbor list builds = 899
Dangerous builds = 168

# Equilibrate just above the melting temperature to avoid step fn in T

fix 1 all npt temp 1.25 1.25 0.1 iso 5.68 5.68 0.5 mtk yes tchain 5 pchain 5
run 2000
Per MPI rank memory allocation (min/avg/max) = 3.644 | 3.646 | 3.650 Mbytes
Step Temp E_pair E_mol TotEng Press Volume 
   10000    2.4132698   -4.6068013            0  -0.98780158    5.7400425    3626.8021 
   11000    1.2389879   -6.6832587            0   -4.8252415    5.5562277    2803.1558 
   12000    1.2708897   -6.7711305            0   -4.8652725    5.7707264    2778.3859 
Loop time of 0.662284 on 48 procs for 2000 steps with 4000 atoms

Performance: 521830.281 tau/day, 3019.851 timesteps/s
99.6% CPU use with 48 MPI tasks x no OpenMP threads

MPI task timing breakdown:
Section |  min time  |  avg time  |  max time  |%varavg| %total
---------------------------------------------------------------
Pair    | 0.30676    | 0.32703    | 0.35597    |   1.9 | 49.38
Neigh   | 0.041545   | 0.043981   | 0.046777   |   0.5 |  6.64
Comm    | 0.20837    | 0.24066    | 0.26457    |   2.6 | 36.34
Output  | 5.2511e-05 | 5.5126e-05 | 6.9234e-05 |   0.0 |  0.01
Modify  | 0.041803   | 0.045539   | 0.049188   |   1.0 |  6.88
Other   |            | 0.005016   |            |       |  0.76

Nlocal:        83.3333 ave          91 max          78 min
Histogram: 5 2 9 11 6 1 9 2 0 3
Nghost:        2103.94 ave        2129 max        2076 min
Histogram: 1 2 2 7 8 11 9 5 1 2
Neighs:        13760.1 ave       15678 max       12122 min
Histogram: 2 3 7 8 8 8 5 3 2 2

Total # of neighbors = 660485
Ave neighs/atom = 165.12125
Neighbor list builds = 142
Dangerous builds = 11

#############################
# L I N E A R  Q U E N C H  #
#############################

# Define solid atoms. This closely follows ten Wolde  Ruiz-Montero and Frenkel  Faraday Discuss  1996  104  93-110
# Compute components of the per-atom q6 vector
compute q6 all orientorder/atom degrees 1 6 components 6 nnn NULL cutoff 1.3 # compute the Q6 parameter.
                                                                             # Use all neighbours within 1.3 unit cell.

# get number of connections
compute coord_number all coord/atom orientorder q6 0.5

# An atom is solid if it has 8 or more connections (of a possible 14)
variable is_solid atom c_coord_number>=8
group solid dynamic all var is_solid    # Must be dynamic to update
dynamic group solid defined

# do clustering
compute cluster solid cluster/atom 1.3 # Create a cluster where all atoms within are solid and max 1.3 units from another member

# define chunks one chunk per cluster
compute clus_chunks solid chunk/atom c_cluster nchunk every compress yes  # Says which atoms are in which chunk

# count the size of each chunk
compute size_chunks solid property/chunk clus_chunks count


# Find the maximum entry in the vector of chunk sizes
variable max_n equal max(c_size_chunks)


# Thermo style which includes this variable
# thermo_style custom step temp pe vol v_max_n

thermo ${N}  # Print the thermo information every 100 steps
thermo 1000  

# Reset the npt fix at a lower temperature (below freezing)
fix 1  all npt temp  ${temp} ${temp}  0.1  iso  5.68  5.68  0.5  mtk yes tchain  5  pchain  5
fix 1  all npt temp  0.45 ${temp}  0.1  iso  5.68  5.68  0.5  mtk yes tchain  5  pchain  5
fix 1  all npt temp  0.45 0.45  0.1  iso  5.68  5.68  0.5  mtk yes tchain  5  pchain  5

dump dmp2 all dcd ${N} traj.dcd
dump dmp2 all dcd 1000 traj.dcd


compute msd all msd com yes
variable twopoint equal c_msd[4]/6/(step*dt+1.0e-6)
fix 9 all vector 10 c_msd[4]
variable fit equal slope(f_9)/6/(10*dt)
thermo_style custom step temp pe c_msd[4] v_twopoint v_fit v_max_n

fix 1 all npt temp 1.25 ${temp} 0.1 iso 5.68 5.68 0.5 mtk yes tchain 5 pchain 5
fix 1 all npt temp 1.25 0.45 0.1 iso 5.68 5.68 0.5 mtk yes tchain 5 pchain 5
run 5000000 # 5000000  # Run for this many steps
Neighbor list info ...
  update every 1 steps, delay 10 steps, check yes
  max neighbors/atom: 2000, page size: 100000
  master list distance cutoff = 3.8
  ghost atom cutoff = 3.8
  binsize = 1.9, bins = 8 8 8
  4 neighbor lists, perpetual/occasional/extra = 1 3 0
  (1) pair lj/cut, perpetual
      attributes: half, newton on
      pair build: half/bin/atomonly/newton
      stencil: half/bin/3d
      bin: standard
  (2) compute orientorder/atom, occasional
      attributes: full, newton on
      pair build: full/bin/atomonly
      stencil: full/bin/3d
      bin: standard
  (3) compute coord/atom, occasional
      attributes: full, newton on
      pair build: full/bin/atomonly
      stencil: full/bin/3d
      bin: standard
  (4) compute cluster/atom, occasional
      attributes: full, newton on
      pair build: full/bin/atomonly
      stencil: full/bin/3d
      bin: standard
Per MPI rank memory allocation (min/avg/max) = 9.845 | 9.850 | 9.854 Mbytes
Step Temp PotEng c_msd[4] v_twopoint v_fit v_max_n 
   12000    1.2708897   -6.7711305 2.6312455e-30 1.8272538e-32 8.3333333e+20            2 
   13000    1.2574386   -6.8292563   0.49788272 0.0031915557  0.040618326            1 
   14000     1.231568   -6.8416851   0.93727266 0.0055790037  0.038244922            3 
   15000    1.2468381   -6.8379563    1.3559404 0.0075330022  0.036952428            1 
   16000    1.2108861   -6.8740823    1.7215902 0.0089666153  0.035431645            4 
   17000    1.2689774    -6.860032    2.1031776  0.010309694  0.034426684            2 
   18000    1.2564397   -6.8448459     2.508634  0.011614046  0.033912851            2 
   19000    1.2506072   -6.7864012    2.9720881  0.013035474  0.034073064            3 
   20000    1.2668302   -6.8262902    3.3147511  0.013811463  0.033992616            5 
   21000    1.2337646    -6.849899    3.7743663  0.014977644  0.034000076            3 
   22000    1.2689903   -6.8821431    4.2029095  0.015920112   0.03416741            2 
   23000    1.2493495   -6.7993716    4.6658647  0.016905307  0.034362979            2 
   24000    1.2385149   -6.8524273    5.0468002  0.017523611  0.034381166            1 
   25000    1.2463083   -6.8493315     5.498305  0.018327683  0.034489027            2 
   26000    1.2271827   -6.8361167    5.8802376  0.018846915  0.034573568            2 
   27000    1.2203029   -6.8845427    6.2604799  0.019322468  0.034546051            6 
   28000    1.2507698   -6.8841369    6.7063618   0.01995941  0.034557272            2 
   29000    1.2499964   -6.8059917    7.1185551  0.020455618  0.034532195            1 
   30000    1.2290314   -6.8230033    7.4714415  0.020754004  0.034509731            3 
   31000    1.2101709   -6.8269635    7.8784301  0.021178575  0.034429955            2 
   32000    1.2531275   -6.8467968    8.2584283  0.021506323  0.034358328            2 
   33000    1.2391569   -6.8510854    8.6500015  0.021843438  0.034278684            1 
   34000    1.2531818   -6.8858795    9.0654715  0.022219293  0.034187356            3 
   35000    1.2409509   -6.8629669    9.4649191  0.022535521  0.034134396            2 
   36000    1.2418582   -6.8435477    9.8823407  0.022875788  0.034099669            3 
   37000    1.2474565   -6.8304859     10.33507  0.023277184  0.034072776            6 
   38000    1.2353235   -6.8622573    10.703279  0.023472103  0.034061892            5 
   39000    1.2324964   -6.8814674     11.23472  0.024005811   0.03410709            3 
   40000    1.2543017   -6.8737891    11.592383  0.024150798  0.034161978            1 
   41000     1.250643   -6.8343547    11.899296  0.024185562  0.034142777            1 
   42000    1.2265024   -6.8419478    12.317548  0.024439578  0.034099937            2 
   43000    1.2535983   -6.8279033    12.741913   0.02469363    0.0340625            2 
   44000     1.288684   -6.8722239    13.043847  0.024704256   0.03400526            1 
   45000    1.2443412     -6.78558    13.494534  0.024989878  0.033959946            3 
   46000    1.2265907   -6.8067057    13.930288  0.025236028  0.033930174            5 
   47000    1.2483845   -6.8804595    14.483411  0.025679806  0.033936925            2 
   48000    1.2516868   -6.8647052    14.884675   0.02584145  0.033971486            2 
   49000    1.2501577   -6.8317735    15.192971  0.025838385  0.033972697            2 
   50000    1.2451861   -6.8539404    15.579363  0.025965604  0.033970165            4 
   51000    1.2547936   -6.8782195    15.921252  0.026015117  0.033954489            2 
   52000    1.2134696   -6.8545772    16.306086  0.026131547  0.033937059            3 
   53000    1.2530832   -6.8349392    16.709943  0.026273495  0.033916103            5 
   54000    1.2589238   -6.8508822    17.128864  0.026433432  0.033894144            3 
   55000    1.2417154   -6.8562394    17.605389  0.026674832  0.033879975            2 
   56000    1.2741617   -6.8289717     18.20617  0.027092515  0.033905644            1 
   57000    1.2272983   -6.8571143    18.621994  0.027225137  0.033952203            2 
   58000    1.2243267   -6.8412247    19.149935  0.027514274  0.034002744            2 
   59000    1.2233388   -6.8575313    19.442954  0.027461799  0.034054463            6 
   60000    1.2375738   -6.8640934    19.756838  0.027440052  0.034079211            4 
   61000    1.2838882   -6.9048759    20.196217  0.027590461  0.034114961            1 
   62000    1.2333069   -6.8482217     20.74508  0.027883171   0.03413888            2 
   63000    1.2548905   -6.8149273    21.204317  0.028048038  0.034169623            1 
   64000     1.272272   -6.8209518    21.657952  0.028200459  0.034205256            2 
   65000    1.2663314   -6.8316965    22.304338  0.028595304  0.034258834            3 
   66000    1.2394154   -6.9065813    22.749901  0.028724622  0.034340025            2 
   67000    1.2401769   -6.8231402    23.315396  0.028999248  0.034428215            2 
   68000    1.2482592   -6.8799392    23.763512   0.02912195   0.03452099            2 
   69000    1.2208695    -6.842831     24.16284  0.029182174  0.034605112            3 
   70000     1.228876   -6.8349782    24.783314  0.029503945  0.034687361            3 
   71000     1.243942    -6.826688    25.263623  0.029652139  0.034782286            1 
   72000      1.24823   -6.8397758    25.677078   0.02971884   0.03487962            7 
   73000    1.2410698   -6.8936631    26.154428  0.029856653  0.034968105            1 
   74000    1.2502156   -6.8373676    26.540097  0.029887497  0.035051115            2 
   75000    1.2399261   -6.8617754    27.017053  0.030018947  0.035124297            2 
   76000    1.2334309   -6.7836833    27.483725  0.030135663  0.035201059            2 
   77000    1.2281573   -6.8536111    27.698547  0.029976783  0.035262465            5 
   78000    1.2453774   -6.8481932     28.22783  0.030157937  0.035313257            3 
   79000    1.2542624   -6.8565688    28.811875  0.030392273  0.035373698            2 
   80000    1.2168428   -6.8572427    29.087392  0.030299366  0.035420557            2 
   81000     1.256077   -6.8312457    29.598934  0.030451578  0.035459864            5 
   82000    1.2341264   -6.8684847    29.955148  0.030442223  0.035501125            3 
   83000    1.2246581   -6.8393882    30.692686   0.03081595  0.035557767            1 
   84000    1.2317475   -6.8710196    30.869497  0.030624501  0.035608823            1 
   85000    1.2379549   -6.8890979    31.300006   0.03068628   0.03565595            3 
   86000    1.2501229   -6.8330324    31.969278  0.030977982  0.035700157           10 
   87000    1.2544121   -6.8508513    32.087817  0.030735457  0.035727461            1 
   88000    1.2674754   -6.8325768     32.32588  0.030611628  0.035741729            1 
   89000    1.2306375   -6.8778577    32.836119   0.03074543   0.03574576            2 
   90000    1.2208461   -6.8213198    33.397372  0.030923492  0.035762824            1 
   91000    1.2003236   -6.8933552    33.743254  0.030900416   0.03577606            4 
   92000    1.2274087   -6.8738835    34.131693  0.030916388  0.035781366            2 
   93000    1.2112393   -6.8758873    34.579019  0.030984784  0.035786377            2 
   94000    1.2243788   -6.8759553    34.914103  0.030952219  0.035789801            5 
   95000    1.2434173   -6.8116083    35.636302  0.031259914  0.035797651            1 
   96000    1.2359673   -6.8128079     36.09384  0.031331459  0.035819123            1 
   97000    1.2551882   -6.8544174    36.553278  0.031403159  0.035836041            5 
   98000     1.224655   -6.8755997    36.951414   0.03142127  0.035851473            2 
   99000    1.2474945   -6.8974346    37.309786  0.031405543  0.035871517            2 
  100000    1.2231918   -6.8932874    37.744667  0.031453889  0.035887648            1 
  101000     1.215149   -6.8619107    37.961466  0.031321341  0.035892872            3 
  102000    1.2489555   -6.8319288    38.478168  0.031436412  0.035896839            2 
  103000    1.1928607   -6.8502995    38.989192  0.031544653  0.035899846            1 
  104000    1.2209375   -6.8479147    39.457454  0.031616549  0.035901248            3 
  105000    1.2289005   -6.8519916    39.739344  0.031539162  0.035903616            1 
  106000    1.2236746   -6.8821941    40.160342  0.031572596  0.035902225            4 
  107000    1.2354714   -6.8705907    40.477648  0.031524647  0.035898685            3 
  108000    1.2231076     -6.90677    40.872784  0.031537642  0.035895329            5 
  109000    1.2207246    -6.837448    41.293551  0.031569993  0.035882441            2 
  110000    1.2461533   -6.8416097    41.628572  0.031536797    0.0358729            2 
  111000    1.2388213    -6.865497    42.143616  0.031639351  0.035857906            2 
  112000     1.228539   -6.8874426    42.561879  0.031668065  0.035849986            3 
  113000    1.2369433   -6.8979928    42.948513  0.031672945  0.035844321            1 
  114000    1.2630876   -6.8790366    43.695634  0.031941253  0.035851206            4 
  115000    1.2528169   -6.8421442    44.432942  0.032197784  0.035863379            3 
  116000    1.2260182   -6.8773152    44.805631  0.032187953  0.035883534            1 
  117000    1.2439569   -6.9083094    45.252386  0.032231044  0.035901645            2 
  118000    1.2493432   -6.8593094    45.641121   0.03223243  0.035916904            1 
  119000    1.2263907   -6.8738096    45.998357  0.032211734  0.035929934            5 
  120000    1.2086704   -6.8872227    46.482609  0.032279589  0.035941701            1 
  121000    1.2408734   -6.8799016    46.678364  0.032147633   0.03594671            2 
  122000    1.2205282   -6.8411012    46.991342  0.032097911  0.035948288            3 
  123000    1.2291827   -6.8576035    47.389776  0.032106894  0.035939849            2 
  124000    1.2338429   -6.8343197    47.751443  0.032091023  0.035931356            2 
  125000     1.249531   -6.8365403    48.415929  0.032277286  0.035925872            3 
  126000     1.235295   -6.9020311    48.597889  0.032141461   0.03592122            2 
  127000    1.2588679   -6.8305462    49.209691  0.032289824  0.035917817            4 
  128000    1.2309934   -6.8208518    49.744387  0.032385668  0.035916316            2 
  129000    1.2265402   -6.8710366    50.042115  0.032326947  0.035912937            2 
  130000    1.2261749   -6.9292112     50.22233  0.032193801  0.035908157            2 
  131000    1.2160821    -6.885179    50.759608  0.032289827  0.035902662            1 
  132000    1.2262432   -6.8471553    51.306214  0.032390287  0.035897612            1 
  133000    1.2076618   -6.8569355    51.202428  0.032081722  0.035887396            2 
  134000    1.2410287   -6.8799057    51.456593  0.032000369  0.035870995            2 
  135000    1.2074736   -6.8656818    52.274437  0.032268171  0.035854259            4 
  136000    1.2283935   -6.8806344    52.639796  0.032254777  0.035842429            3 
  137000    1.2127477   -6.9185381    52.824335  0.032131591  0.035828966            2 
  138000    1.2523309   -6.9136909    53.444183  0.032273057  0.035816518            3 
  139000    1.2336262   -6.8824596    53.732036  0.032213451  0.035804073            3 
  140000     1.236504   -6.8870583    54.015025  0.032151801  0.035786675            6 
  141000    1.2235589   -6.8876863    54.790962  0.032382365  0.035772681            1 
  142000    1.2389186   -6.8406256    55.002164  0.032278265  0.035758321            2 
  143000    1.2213339   -6.8781515     55.04247  0.032076031  0.035737812            2 
  144000    1.2532684   -6.9089232     55.42586  0.032075151   0.03571261            2 
  145000    1.2314127   -6.8784581    55.965447   0.03216405   0.03568897            3 
  146000    1.2175381   -6.9247755    56.185935  0.032069597  0.035669115            4 
  147000     1.214482   -6.9112991    56.638622  0.032108062   0.03564551            2 
  148000    1.2208078   -6.8592634    57.004048  0.032096874  0.035620252            2 
  149000    1.2501136    -6.875082    57.480996  0.032148208  0.035597708            3 
  150000    1.2236168   -6.8578445    57.874026  0.032152237  0.035573353            1 
  151000     1.223246   -6.8919182    58.258893  0.032151707  0.035544873            2 
  152000      1.22523   -6.8685882    58.309132  0.031967726   0.03551674            4 
  153000    1.2026728   -6.9169855    58.689284  0.031965841  0.035488299            3 
  154000    1.2408244   -6.9481666    59.200187  0.032034733  0.035459843            2 
  155000    1.2012776   -6.8543171      59.6345  0.032061559   0.03543229            2 
  156000    1.2332154    -6.908416    59.832615  0.031961867  0.035406137            2 
  157000    1.2066577   -6.8668275    60.331352   0.03202301  0.035380215            1 
  158000     1.213193   -6.8772907    60.751834  0.032042106  0.035352679            2 
  159000    1.2035438   -6.8335144    61.516922  0.032241573  0.035329229            1 
  160000    1.2225797   -6.8566499    61.741466  0.032157013  0.035310155            2 
  161000    1.2295725   -6.8584627    62.422055  0.032309552  0.035290894            2 
  162000    1.2111105   -6.8977228    62.629979  0.032217068  0.035272027            2 
  163000    1.2498255    -6.901033    62.976067  0.032196353  0.035252795            2 
  164000    1.2296155   -6.9042613    63.515141  0.032273954  0.035233359            3 
  165000    1.2368989   -6.9082467    63.749731  0.032196834  0.035216599            1 
  166000    1.2178673   -6.8615993    64.360089  0.032309282  0.035197259            5 
  167000    1.2256107   -6.8982621     64.36824   0.03211988  0.035177156            5 
  168000    1.2187335   -6.9119704    64.485333  0.031986772  0.035151464            3 
  169000    1.2157594    -6.891614    64.771836  0.031938775  0.035122387            3 
  170000    1.2502905   -6.9312787    65.126894  0.031924948  0.035091053            2 
  171000    1.2230887   -6.8634841    65.544877  0.031941948  0.035058915            2 
  172000    1.2323974    -6.940984    65.654194  0.031809203  0.035028318            3 
  173000    1.2150482   -6.9280872    66.283788  0.031928607  0.034998999            1 
  174000    1.1997095   -6.8593258    66.911243  0.032045614  0.034968971            2 
  175000    1.2280775   -6.8989286     66.97095  0.031890928  0.034938914            2 
  176000     1.217842   -6.9108143    67.214783  0.031825181  0.034909157            4 
  177000    1.2167919   -6.8558346    67.748021  0.031896432  0.034879103            4 
  178000    1.2321609   -6.9085216    67.732427  0.031709938   0.03484792            2 
  179000    1.2322599   -6.8730891    68.258992  0.031777929   0.03481337            5 
  180000    1.2291805    -6.903455    68.759721  0.031833204  0.034781079            1 
  181000     1.246622   -6.9113616    68.897596  0.031720808  0.034749149            2 
  182000    1.2128647    -6.938493    69.315587  0.031737906  0.034718928            1 
  183000    1.2246228   -6.9006867    69.887089  0.031824722  0.034686808            3 
  184000    1.2480804   -6.8856036    70.328004  0.031851451  0.034659227            8 
  185000    1.2178113   -6.9246053    70.447207  0.031732976   0.03463009            2 
  186000    1.2085053   -6.9093007    70.823284  0.031730862  0.034601865            6 
  187000    1.2391734   -6.8792084    71.372781  0.031806052  0.034574661            2 
  188000    1.2317991     -6.92665    71.682603  0.031774203  0.034547257            4 
  189000    1.2250353   -6.8773392    71.883665  0.031694738  0.034517556            1 
  190000    1.2002389   -6.8629856    72.735374   0.03190148  0.034489079            2 
  191000    1.2221926   -6.9141987     72.86595  0.031791427  0.034463071            2 
  192000    1.2206321   -6.9023375     73.19818  0.031770043  0.034436897            2 
  193000    1.2129518   -6.9130397    73.502813  0.031736966  0.034411961            4 
  194000    1.2332923   -6.8688546    74.500445  0.032001909  0.034390799            1 
  195000    1.2188053   -6.9016066     74.71228  0.031928325  0.034370451            3 
  196000     1.204149   -6.8582984    75.483414  0.032093288  0.034353155            3 
  197000    1.2347227   -6.8967026    75.733161  0.032036024   0.03433475            1 
  198000    1.2142475   -6.9401962    76.041422  0.032003965   0.03431944            2 
  199000    1.2257813   -6.9432778    76.444768  0.032012047  0.034303527            3 
  200000    1.2157987   -6.8940285    77.147202  0.032144667  0.034288272            2 
  201000    1.2205466   -6.8700112    77.620255  0.032180869  0.034276972            3 
  202000    1.2154137   -6.8814892    77.882116  0.032129586  0.034264368            4 
  203000    1.2317692   -6.8873322    78.294551   0.03214062  0.034251114            2 
  204000    1.2243089   -6.8581302    78.531647  0.032079921  0.034237609            3 
  205000    1.2411544   -6.9110047    78.698597    0.0319913  0.034223598            3 
  206000    1.2112959    -6.882566     79.31599  0.032085756  0.034207709            3 
  207000    1.2218551   -6.8856577    79.904752  0.032167775  0.034193432            2 
  208000    1.2094846    -6.908174    80.315995  0.032177882  0.034180958            4 
  209000    1.2217694   -6.9434464     80.33701  0.032032301  0.034168891            3 
  210000    1.2104111   -6.9239292    80.421564  0.031913319  0.034155749            3 
  211000    1.2229292   -6.9363364    81.466613  0.032174808  0.034143117            1 
  212000    1.2215471   -6.9140621    81.628255  0.032086578  0.034130894            2 
  213000    1.2123032   -6.9289738    81.618497  0.031932119  0.034117004            1 
  214000    1.2354217   -6.9314996    81.972329  0.031920689  0.034101562            1 
  215000    1.2492639   -6.9093571    82.564307  0.032001669  0.034086468            2 
  216000    1.2130257   -6.9109195    83.048774  0.032040422  0.034070143            3 
  217000    1.2180212   -6.8875853    83.635245   0.03211799  0.034057242            2 
  218000    1.2102061   -6.9225672    83.901356  0.032072384   0.03404613            4 
  219000    1.2006872   -6.9164889    84.414261  0.032121104  0.034034721            3 
  220000    1.2156561   -6.9381801    84.195553  0.031892255  0.034022245            3 
  221000    1.2009443   -6.8796685    85.403678  0.032203498  0.034009264            2 
  222000    1.1936001   -6.8962768    85.425535  0.032066642  0.033996171            1 
  223000    1.2062258   -6.9111606    85.960127  0.032122618  0.033982625            2 
  224000    1.1830029   -6.8715047    85.792306   0.03191678  0.033967544            2 
  225000    1.2041964    -6.926785    86.341332  0.031978271  0.033952423            3 
  226000    1.1904401   -6.9541509    86.220139  0.031792087  0.033934609           10 
  227000    1.2060094    -6.945494    86.916517  0.031907679  0.033918294            2 
  228000    1.2081873   -6.9424591    87.414509  0.031949747  0.033903228            3 
  229000    1.2032014   -6.8894105    87.884064    0.0319811  0.033888508            3 
  230000     1.228323   -6.8882228    88.431007   0.03204022  0.033874035            1 
  231000    1.2260311   -6.8877072    88.585348  0.031957196  0.033858059            1 
  232000    1.1994631   -6.8986983    88.854399  0.031916092  0.033839349            3 
  233000    1.2086552   -6.9076742    89.208642  0.031905809  0.033821349            3 
  234000    1.2140258   -6.8949928    89.520138  0.031880391  0.033804183            2 
  235000    1.2147002     -6.94696    89.900071  0.031879458  0.033787767            1 
  236000    1.2078997   -6.9287041    90.159238  0.031835889  0.033772058            3 
  237000    1.2209414   -6.9405346    90.811886  0.031931043  0.033756139            3 
  238000    1.1998288   -6.9284139    91.148372  0.031914696  0.033741495            2 
  239000    1.2360111   -6.9382304    91.485182  0.031898599   0.03372762            1 
  240000    1.2037848   -6.9129135    91.791614  0.031872088  0.033713512            2 
  241000    1.2234029   -6.9096714    92.616978  0.032025234  0.033697279            1 
  242000    1.2146331   -6.9102374      92.6215  0.031894456  0.033684202            1 
  243000    1.2312605   -6.9355073    93.353321   0.03201417   0.03367087            2 
  244000    1.2129402   -6.9335856    93.518359   0.03193933  0.033658987            3 
  245000    1.1886162   -6.8669082     94.22351  0.032048813  0.033646042            4 
  246000    1.2200261   -6.9118768    94.442324  0.031992657  0.033635311            4 
  247000    1.2297734   -6.8573243     94.70323  0.031951157  0.033621764            4 
  248000    1.2246511   -6.9088363    95.132516  0.031966571  0.033608361            2 
  249000    1.2061209   -6.9237707    95.304207  0.031895651  0.033596365            2 
  250000    1.2094517   -6.9315599    95.653978  0.031884659  0.033583553            4 
  251000    1.2050471   -6.9515714     95.90914  0.031842344  0.033571196            2 
  252000     1.187027   -6.9745268    96.114494  0.031783894  0.033557145            4 
  253000    1.2017578   -6.9432601    96.146721   0.03166888  0.033542497            2 
  254000    1.2208159   -6.9525551    96.830922  0.031768675   0.03352627            2 
  255000    1.1768377   -6.9636917    97.330129  0.031807232  0.033510076            3 
  256000    1.2246045   -6.9193646     97.41515  0.031710661  0.033493353            3 
  257000    1.2091691   -6.9607337    97.957561  0.031763152   0.03347679            4 
  258000    1.2340853   -6.9724495    97.435992  0.031471574  0.033458039            4 
  259000    1.2314976   -6.9548742    98.034955  0.031542778   0.03343944            4 
  260000    1.2107425   -6.8840295    99.180381  0.031788584  0.033421855            4 
  261000    1.2020941   -6.9391524    99.173699  0.031664655  0.033406177            1 
  262000    1.2180584   -6.9535216    99.527177  0.031656227  0.033388957            5 
  263000    1.2318788   -6.9601315    99.668575  0.031580664  0.033371671            3 
  264000    1.2087545   -6.9498876    99.796639  0.031501464  0.033353222            4 
  265000    1.1892321   -6.9209143     100.4294  0.031581571  0.033335238            4 
  266000    1.2071227   -6.9333492    100.50834  0.031487574  0.033316431            3 
  267000    1.1993789    -6.919162    100.63932  0.031410523  0.033297984            3 
  268000    1.2132886    -6.881299     101.7556  0.031640423   0.03328054            3 
  269000    1.2051196   -6.9069502    101.61365  0.031478825  0.033263228            1 
  270000    1.2142233   -6.9950156    101.79608  0.031418545  0.033245196            3 
  271000    1.2214812   -6.9705739    102.51494  0.031523659  0.033225749            3 
  272000    1.2272312   -6.9546977    102.39234  0.031370203  0.033204877            1 
  273000     1.208561   -6.9231659    102.87662  0.031403119  0.033185882            2 
  274000    1.2297181      -6.9144    103.15656   0.03137365  0.033165724            2 
  275000    1.1875403   -6.9117002    104.05166  0.031530807  0.033146164            1 
  276000     1.219721   -6.8985444    104.33136  0.031501016  0.033127351            1 
  277000    1.2056782   -6.8862421     104.7187   0.03150382  0.033108785            4 
  278000     1.189564   -6.9267472     104.7061  0.031386719  0.033090746            5 
  279000    1.1983452   -6.8853535    105.52511  0.031518851  0.033073005            2 
  280000    1.1955193   -6.9735644    105.49351  0.031396879  0.033055628            3 
  281000    1.2129552   -6.9908473    105.89553  0.031404369  0.033037869            2 
  282000     1.206885   -6.9667187    106.21341  0.031386942  0.033019216            3 
  283000    1.2158406   -6.9511996    106.46031  0.031348736  0.033000811            4 
  284000     1.213088   -6.8976636    107.74362  0.031614912   0.03298402            3 
  285000    1.1856531   -6.9181003     107.8225  0.031527046  0.032968596            2 
  286000    1.2209643   -6.9845015    107.90797  0.031441716  0.032953594            3 
  287000    1.2021723   -6.9784839    108.38458  0.031470552  0.032938976            2 
  288000      1.21886   -6.9616116    108.66145  0.031441393   0.03292429            2 
  289000    1.2239286   -6.9323165    108.95319   0.03141672  0.032910773            1 
  290000    1.2028559   -6.9849385    109.47894  0.031459466  0.032895603            3 
  291000    1.2172454   -6.9473079    109.89458  0.031470384   0.03288049            4 
  292000    1.2294924   -6.9498344    109.84038  0.031347139  0.032865687            5 
  293000    1.1829782   -6.9549419    110.45793  0.031415793   0.03285113            2 
  294000     1.188351   -6.9072871    111.07274  0.031483202  0.032837235            3 
  295000     1.204377   -6.9423685    111.12187  0.031390359  0.032823068            2 
  296000    1.2230933   -6.9649879    111.52491  0.031397779  0.032808574            3 
  297000    1.1652372   -7.0056596    111.55131  0.031299469  0.032792822            5 
  298000    1.1997588   -6.9328328    112.37414  0.031424537  0.032778671            4 
  299000    1.2234507   -6.9818498    112.72277  0.031416603  0.032765383            3 
  300000    1.2249754   -6.9662879    113.43375  0.031509374  0.032754251            2 
  301000    1.1939523   -6.9680853    113.53274  0.031432099  0.032742014            2 
  302000    1.1979105   -6.9507502    113.91407  0.031433242  0.032729001            2 
  303000    1.1860327   -6.9339589    114.26464  0.031425918  0.032717359            2 
  304000    1.1846786   -6.9786665    114.69187  0.031439657  0.032706647            3 
  305000    1.1794771   -6.9316772    115.33977  0.031513599  0.032695171            1 
  306000     1.213579   -6.9667528     115.5913  0.031479113  0.032683237            1 
  307000    1.2220942   -6.9137502    115.88133  0.031455302  0.032672218            5 
  308000    1.2139676   -7.0256908    115.73671  0.031314045  0.032659555            1 
  309000    1.2113308   -6.9701519     116.0096  0.031286299  0.032644708            3 
  310000    1.2153761   -6.9095798    116.62045  0.031349583  0.032631833            3 
  311000    1.1931213   -6.9196989    117.51072  0.031487332  0.032620374            4 
  312000    1.2056248   -6.9506419    117.33428  0.031339285  0.032606929            2 
  313000    1.2198731   -6.9831415    117.60248  0.031310563  0.032594713            1 
  314000    1.2328271   -6.9632882    117.92016  0.031295158  0.032582273            2 
  315000    1.1865098   -6.9459375    118.68252  0.031397493  0.032568854            1 
  316000    1.2076417   -6.9597435    119.06267  0.031398384   0.03255672            3 
  317000    1.2010128   -6.9540532    119.39041  0.031385491   0.03254453            2 
  318000    1.1853454   -6.9581821    120.21085  0.031501795  0.032533283            2 
  319000     1.202418   -6.9943449    120.06137  0.031363995   0.03252123            3 
  320000    1.1968506   -7.0098177    120.15138  0.031289422  0.032509883            4 
  321000    1.2361711   -6.9476845    120.80612  0.031361922  0.032498349            4 
  322000    1.1925971   -6.9619136    121.01357  0.031318211  0.032487291            1 
  323000    1.2076275   -6.9020611    121.94067   0.03146044  0.032476599            3 
  324000    1.2048033   -6.9525991    121.94322  0.031363997   0.03246725            2 
  325000    1.1886084   -6.9651028    122.05629  0.031296486  0.032456631            2 
  326000    1.2146807   -6.9415178    122.65288  0.031352985   0.03244478            4 
  327000     1.195657   -6.9445876    123.18655  0.031393106  0.032434088            2 
  328000    1.1807673    -6.943526    123.37964  0.031346454     0.032422            3 
  329000    1.2065732   -6.9405318    123.48959  0.031279025  0.032411078            1 
  330000    1.1769224   -6.9741757    124.16677  0.031355244  0.032400799            2 
  331000    1.2241069   -6.9518666    124.88468  0.031441258  0.032390901            2 
  332000    1.1794173   -6.9506539    124.94131  0.031360772  0.032381345            3 
  333000      1.21243   -6.9921229    125.05567  0.031295213  0.032370457            2 
  334000    1.2066972   -6.9772591     125.9026  0.031412825  0.032362258            2 
  335000    1.2149321   -7.0155735    126.19314  0.031391328  0.032354077            2 
  336000    1.2096867   -7.0241472    126.30128  0.031324723   0.03234388            4 
  337000    1.1827545   -6.9447035    126.96363  0.031395557  0.032334437            3 
  338000     1.227123   -6.9382127    127.70369   0.03148513  0.032326832            3 
  339000    1.2024015   -6.9809361    127.53723  0.031351334  0.032319827            3 
  340000    1.1897791   -6.9842926    127.79352  0.031321941  0.032312318            4 
  341000    1.2107022   -6.9719708    128.19885  0.031329143  0.032302728            4 
  342000     1.220328   -7.0213704     128.1994  0.031237671  0.032292865            3 
  343000     1.206202   -6.9648774     129.1044  0.031366473  0.032283512            2 
  344000    1.1674588   -7.0161332    129.09201  0.031272288  0.032274006            5 
  345000    1.1900824    -6.964242    129.75055  0.031340713  0.032264324            5 
  346000    1.1873328   -7.0008836    129.51562  0.031193551   0.03225474            4 
  347000    1.2100577   -6.9494571    130.44822  0.031327622  0.032245297            4 
  348000     1.225021   -6.9400912    130.39964  0.031225967  0.032235894            3 
  349000       1.1909   -6.9749898    131.08065  0.031299106   0.03222616            1 
  350000    1.1815366   -6.9900867    131.52801  0.031316192  0.032217185            2 
  351000    1.1990171   -6.9636434    132.35846  0.031424136  0.032209941            3 
  352000    1.2071022   -6.9867525    132.60861  0.031394084  0.032202711            2 
  353000    1.1841879   -6.9610662    132.74297  0.031336868  0.032195609            3 
  354000    1.1727878    -6.972809    133.26355  0.031370891  0.032188104            2 
  355000    1.2039591   -6.9977845    133.55431  0.031350776  0.032180759            6 
  356000    1.2090504   -6.9797495    133.43484  0.031234748  0.032172824            4 
  357000     1.214054   -6.9732401    134.39327  0.031370978  0.032165928            2 
  358000    1.1815376   -6.9989456     134.2159  0.031242063  0.032158293            5 
  359000     1.175279   -6.9824806    134.76432   0.03128234   0.03215127            1 
  360000    1.1901868   -6.9841887    135.64632  0.031399611  0.032143971            5 
  361000    1.1667751   -6.9820186    135.66299   0.03131648  0.032136803            5 
  362000    1.1679308   -6.9787516    135.72467  0.031244169  0.032128823            1 
  363000    1.1892901   -6.9950125    135.85674  0.031188415  0.032120511            3 
  364000    1.1921326      -6.9493     136.6167  0.031276716  0.032112522            2 
  365000    1.1945869   -6.9980423    136.69546  0.031209008  0.032105374            5 
  366000    1.1949394   -7.0080633    137.16995  0.031231774  0.032097761            2 
  367000    1.2015811   -7.0249661    137.69295  0.031265429  0.032090206            2 
  368000    1.1995852   -6.9700139    138.68543  0.031405216   0.03208305            1 
  369000    1.2026681   -7.0353579    138.18398  0.031206862  0.032076112            5 
  370000    1.1817798   -6.9349551    139.06724   0.03132145  0.032068373            1 
  371000    1.1980161   -6.9844848    139.13085  0.031251314  0.032060089            3 
  372000    1.2056496   -6.9790733    139.35407   0.03121731  0.032051422            3 
  373000    1.1989274    -6.956901    140.30101  0.031345175  0.032043781            1 
  374000    1.1807945    -6.983007    140.45235  0.031295087  0.032036419            3 
  375000    1.1893336   -7.0350592    140.44475  0.031209943  0.032028751            4 
  376000    1.1787855   -6.9583292    140.79273  0.031204063  0.032022041            3 
  377000    1.2077019   -6.9866843    141.33403  0.031240944  0.032014192            1 
  378000    1.1649793    -7.002263    141.54533  0.031204879  0.032006677            2 
  379000    1.1779592   -7.0028609    142.08048  0.031240212  0.031998852            6 
  380000    1.1906636    -7.018906    142.44249  0.031237387  0.031991576            3 
  381000    1.2032512   -6.9662752    142.88029  0.031251156  0.031984263            2 
  382000    1.1767992   -6.9640046    143.12777  0.031223335  0.031976655            2 
  383000    1.1683767   -6.9570591    142.70235   0.03104925  0.031967785            2 
  384000    1.2085821   -6.9822635    143.89391  0.031226978   0.03195886            2 
  385000    1.1957001    -6.923441     144.0412   0.03117775  0.031950838            2 
  386000    1.1886574   -7.0014701    144.07811  0.031104947  0.031942681            2 
  387000    1.2040941   -6.9930423    145.14907  0.031255183  0.031934842            3 
  388000    1.1834275    -7.031136    144.28782  0.030989653  0.031926956            1 
  389000    1.1855605   -7.0071748    144.77937  0.031015289   0.03191848            3 
  390000    1.1678188   -6.9668876    145.07932  0.030999855  0.031910159            2 
  391000    1.1932245   -7.0249521    145.67833  0.031048237  0.031901578            2 
  392000    1.1975939   -7.0365514    145.24885  0.030877731  0.031891635            2 
  393000    1.1761154    -7.007108    145.56648  0.030866514  0.031881514            3 
  394000    1.1683608   -7.0350918    146.26795  0.030936537  0.031871458            8 
  395000    1.2134167   -7.0384857    145.96211  0.030793695  0.031861126            1 
  396000    1.1644892   -6.9841409    146.61751  0.030853852  0.031851092            1 
  397000    1.1690261   -6.9874223    147.16361  0.030890766  0.031840496            2 
  398000    1.2139317    -7.027192    147.21545  0.030824005  0.031829666            2 
  399000    1.2266741   -6.9905951    147.97997  0.030906425  0.031818486            3 
  400000    1.2033359   -6.9719113    148.41246  0.030919263  0.031806796            2 
  401000    1.1843361   -6.9802944    148.38238  0.030835907    0.0317959            6 
  402000    1.1638199   -6.9791932    148.96098  0.030879142  0.031785283            2 
  403000     1.201483   -7.0276305    148.83821  0.030777132  0.031774592            5 
  404000     1.173358   -6.9437421    150.22696   0.03098741  0.031763522            2 
  405000    1.1885077    -7.023254    149.72906  0.030808449  0.031753036            2 
  406000    1.1628112   -6.9726322    150.68033  0.030927818  0.031742267            6 
  407000     1.182598   -6.9980407    150.22693  0.030758995   0.03173204            3 
  408000    1.1758818   -6.9685758    151.12673  0.030867388  0.031721155            2 
  409000    1.1900253   -6.9551416    151.36717  0.030840907  0.031710307            4 
  410000    1.1926346   -6.9820944    151.32246  0.030756598  0.031699496            2 
  411000    1.1753588   -6.9910811    152.24954  0.030869736  0.031689794            4 
  412000    1.1885615   -7.0365568    152.00722  0.030745798  0.031679214            4 
  413000    1.1838537   -7.0167696     152.4626  0.030763237  0.031668379            3 
  414000    1.1951762   -6.9816167    152.47464  0.030691352  0.031657276            3 
  415000    1.1650759   -6.9573205    153.81486  0.030886517  0.031646738            2 
  416000      1.18362   -6.9978351    153.83648  0.030816602   0.03163641            3 
  417000    1.2161018   -7.0135161    153.30272  0.030636035  0.031624126            8 
  418000    1.1766644   -7.0104433    153.99427  0.030700612  0.031612302            3 
  419000    1.2007916   -6.9897455    154.12942  0.030654221  0.031600243            2 
  420000    1.2059853   -6.9703656    154.09115  0.030573641  0.031588027            4 
  421000    1.1902363   -7.0606789    154.06515  0.030495873  0.031575568            2 
  422000    1.1914597   -7.0108492     154.4516   0.03049992  0.031562869            4 
  423000    1.2098941   -6.9980079    154.88305  0.030512815  0.031549672            3 
  424000    1.1714196   -7.0271368    155.47606  0.030557402  0.031536297            4 
  425000    1.2024522   -7.0175532    155.75556  0.030540306  0.031523375            2 
  426000    1.1746562   -7.0450865    155.69401  0.030456574  0.031509587            2 
  427000    1.2153633   -7.0346556    155.46275  0.030340115  0.031495176            4 
  428000    1.1931122   -6.9777655    156.29195  0.030430677  0.031480823            3 
  429000    1.1611844   -6.9908771    156.29563  0.030360456  0.031466056            3 
  430000    1.1801837   -7.0178231    156.27605  0.030286055  0.031450317            3 
  431000    1.1667969   -7.0188642    156.16751    0.0301948   0.03143392            2 
  432000    1.1644767   -7.0255705    156.45759  0.030180863  0.031417859            2 
  433000    1.1711638   -7.0129795     156.5917   0.03013697  0.031400595            1 
  434000    1.1918236   -6.9966436    157.15451  0.030175598  0.031383342            1 
  435000    1.2148663   -6.9620536    157.32605  0.030139091  0.031366599            3 
  436000     1.209562    -7.059557    157.51145    0.0301054  0.031350646            5 
  437000    1.1638757   -7.0287425    158.38269  0.030202649  0.031333909            5 
  438000    1.1615756   -7.0638078    157.51662  0.029968916  0.031316977            3 
  439000     1.171915   -7.0298323    158.31923  0.030053005  0.031300179            4 
  440000    1.1827229   -6.9822515    159.42063    0.0301933  0.031284001            2 
  441000    1.1762015   -6.9921074    158.96519  0.030038773  0.031268343            4 
  442000    1.1706569   -7.0158098    159.76997  0.030122544  0.031253564            4 
  443000     1.188203   -6.9751967    160.26996    0.0301486  0.031237681            2 
  444000     1.178422   -6.9995046    160.07626  0.030044343  0.031221286            4 
  445000    1.1729162   -6.9996987    161.09858  0.030168272  0.031205936            2 
  446000    1.1695678   -7.0058003    161.40352  0.030157607  0.031190589            4 
  447000    1.1690876   -6.9740479    162.03952  0.030208709  0.031175818            2 
  448000    1.1497699    -7.034578    162.32959  0.030195236   0.03116159            2 
  449000    1.1681818   -7.0024284    162.59928  0.030178041   0.03114736            3 
  450000    1.1658365   -7.0078264    163.28243  0.030237488  0.031133113            2 
  451000    1.1918302   -6.9842619    162.85113  0.030090749   0.03111874            3 
  452000    1.1742848   -7.0357756    163.10243  0.030070507  0.031104666            3 
  453000    1.1900627   -7.0033601    163.66166  0.030107001  0.031090176            2 
  454000    1.1899883   -7.0128045    163.73922  0.030054923  0.031075629            3 
  455000    1.1922985   -7.0049582    163.55909  0.029955877  0.031059999            2 
  456000    1.1858254   -6.9632685    165.49691  0.030244319  0.031045423            3 
  457000    1.1685222   -7.0080693    164.64662   0.03002309  0.031030996            2 
  458000    1.1701263   -7.0590404    164.27784  0.029890436  0.031015691            4 
  459000    1.1593553   -7.0507181    164.33538  0.029835763  0.030999656            3 
  460000    1.1930081   -7.0567873    165.01577  0.029894162  0.030984013            2 
  461000    1.1738425   -7.0088495    165.94759  0.029997758  0.030969548            2 
  462000    1.1465985    -7.014744    166.30764  0.029997771  0.030954649            4 
  463000    1.1671561   -7.0350823     166.7219  0.030007541  0.030940654            4 
  464000    1.1762077   -7.0152945    166.91837  0.029978156  0.030926579            5 
  465000     1.166694   -7.0207647    167.29959  0.029982005  0.030912244            2 
  466000    1.1860825   -7.0124671    167.63502   0.02997765  0.030897862            2 
  467000    1.1822961   -7.0007634    168.21167  0.030016357   0.03088402            2 
  468000    1.1547915   -7.0182051    168.15851  0.029942755   0.03087012            1 
  469000    1.1842651   -7.0208202    168.36787   0.02991611  0.030856811            2 
  470000    1.1740993   -6.9619267    168.85462  0.029938762  0.030843705            3 
  471000    1.1722902   -7.0181465    169.15546  0.029928425   0.03083024            2 
  472000    1.1731654    -7.007831    169.32402  0.029894777  0.030817029            3 
  473000    1.1792832   -7.0192513    170.17205  0.029980981  0.030804333            5 
  474000     1.167583   -7.0444606    169.91377  0.029872323  0.030791324            3 
  475000    1.1482018   -7.0380071    170.47722  0.029908284  0.030778174            2 
  476000    1.1470668   -7.0369651    171.45379  0.030016421  0.030765102            3 
  477000    1.1627546    -7.021581    170.82195  0.029843107  0.030751993            4 
  478000    1.1755048   -7.0183133    171.35777  0.029874088  0.030738825            6 
  479000     1.168512   -7.0189112    171.84074  0.029895744  0.030726248            2 
  480000    1.1731453   -6.9669257    172.78336   0.02999711  0.030714133            3 
  481000    1.1727547   -7.0071578    172.96851  0.029966824  0.030700702            3 
  482000     1.169357   -7.0106224    172.26193  0.029782491  0.030688209            4 
  483000    1.1962182   -7.0270249    172.93375  0.029836742  0.030675241            5 
  484000    1.1751481   -7.0079242    172.83985  0.029758927  0.030661711            3 
  485000    1.1905838   -6.9590346    173.24554  0.029767275    0.0306483            4 
  486000    1.1704549   -7.0592967    173.49237  0.029748349  0.030635191            3 
  487000    1.1984334   -6.9754499    174.10686  0.029792413  0.030621076            3 
  488000    1.1950735   -7.0201424    174.25623   0.02975687  0.030607727            7 
  489000    1.1742721   -6.9887336    175.08641  0.029837493  0.030594813            2 
  490000    1.1522496   -7.0844438    174.70159  0.029711155  0.030581355            6 
  491000    1.1582102   -7.0374297    174.99845  0.029701026   0.03056761            3 
  492000    1.1560667   -7.0176722    176.17216  0.029839458  0.030554454            2 
  493000    1.1822516   -7.0242876    175.54427  0.029672797  0.030541618            3 
  494000    1.1755262    -6.998213    176.63727   0.02979711  0.030528375            1 
  495000    1.1782533   -7.0146756    176.17145  0.029658494  0.030515068            1 
  496000    1.1763743   -7.0043846    175.99898  0.029569721  0.030501348            3 
  497000    1.1585641    -7.066061    176.14551  0.029534793  0.030486938            3 
  498000    1.1922833   -7.0002688    176.89251  0.029600488  0.030473378            4 
  499000    1.1557742    -7.068463    177.40952  0.029627508  0.030459946            2 
  500000    1.1770068    -7.051117    177.78095  0.029630159  0.030447009            2 
  501000     1.173255   -7.0212658    178.45221   0.02968267  0.030433622            3 
  502000     1.199344   -7.0051596    178.54446  0.029638855  0.030420285            3 
  503000    1.1819494   -7.0326519    178.41555  0.029558574  0.030407263            4 
  504000    1.1678294    -7.003266    179.72361  0.029716206  0.030394684            3 
  505000    1.1934324   -7.0610129    178.91696  0.029524252  0.030382057            2 
  506000    1.1820623   -7.1108204    179.31671  0.029531737  0.030369162            2 
  507000    1.1599948   -7.0329803    180.35806  0.029644651   0.03035633            3 
  508000    1.1828604   -7.0435756    180.74303  0.029649447  0.030343214            2 
  509000     1.190103   -7.0389683    180.54311  0.029558465  0.030330908            5 
  510000    1.1898554   -7.0721313    180.75339  0.029534868  0.030319168            2 
  511000    1.1481717   -7.0720139    181.58815  0.029613201  0.030307259            4 
  512000    1.1670317   -7.0409791    182.01991  0.029625637  0.030295241            5 
  513000    1.1622632   -7.0277532     182.3913  0.029628216  0.030284349            3 
  514000    1.1878946   -7.0547967    182.72018  0.029623895  0.030272773            1 
  515000    1.1964101   -7.0615109     183.2515  0.029652347  0.030261683            3 
  516000    1.1494921    -7.025586    184.03046  0.029720681  0.030251108            5 
  517000    1.1796687   -7.0312336    183.90051  0.029642249   0.03024067            5 
  518000    1.1804021   -7.0647356    183.33634  0.029494263  0.030229921            4 
  519000    1.1801865   -7.0233315    185.03228  0.029709744  0.030219201            3 
  520000    1.1512173   -7.0020771    184.49209  0.029566041  0.030208502            3 
  521000    1.1792321   -7.0287133    185.27077   0.02963384  0.030197816            3 
  522000      1.15817   -7.0366097    185.60916  0.029631092  0.030187385            4 
  523000    1.1658861   -7.0598727    185.51687  0.029559731  0.030176487            4 
  524000    1.1708432   -7.0490638    186.46484  0.029654078  0.030165393            2 
  525000    1.1693656    -7.041831    186.38276  0.029584566   0.03015449            1 
  526000     1.174296   -7.0659465    186.36874    0.0295261  0.030143968            1 
  527000    1.1523211   -7.0575197    187.74354  0.029687467  0.030133654            5 
  528000    1.1863314   -7.0137787    187.61801  0.029611428  0.030123838            1 
  529000    1.1746751   -7.0385205    187.18591  0.029487384  0.030113449            3 
  530000    1.1372263   -7.0396928    188.60271  0.029654514  0.030103322            3 
  531000     1.153509   -7.0493206    188.72543  0.029617927  0.030093084            9 
  532000    1.1604458   -7.0559039     188.7737  0.029569815   0.03008311            2 
  533000    1.1698218   -7.0568028    188.55829  0.029480658  0.030073112            3 
  534000    1.1878138   -7.0316009    189.35422   0.02954966   0.03006297            3 
  535000    1.1506507   -7.0146364      190.048  0.029602492  0.030053026            3 
  536000    1.1585088   -7.0372743    190.26197   0.02958053   0.03004318            3 
  537000    1.1684008   -7.0456855    190.25511  0.029524381   0.03003356            3 
  538000    1.1615244   -7.0018607    191.00121  0.029585069   0.03002363            3 
  539000     1.140233    -7.052043    191.66052  0.029632115  0.030014402            2 
  540000    1.1938208   -7.0171603    191.90188  0.029614488  0.030005498            2 
  541000     1.177666   -7.0728935     191.9914  0.029573536  0.029996824            4 
  542000    1.1551674   -7.0554092    192.46259  0.029591419  0.029987775            2 
  543000    1.1830406   -7.0564165    192.47264  0.029538465  0.029978365            1 
  544000     1.139674   -7.0390502    193.49036  0.029640068  0.029970067            5 
  545000    1.1452101   -7.0223493    193.46741  0.029582173  0.029961719            6 
  546000    1.1618641   -7.0123259     193.7589  0.029572481  0.029953182            2 
  547000    1.1438495   -7.0460726    193.84157  0.029531014  0.029943978            2 
  548000    1.1576054   -7.0176776    194.34503  0.029553684  0.029935084            3 
  549000    1.1859484   -7.0394134    194.67894  0.029550537  0.029925718            2 
  550000    1.1679833   -7.0528577    194.18819  0.029422453  0.029915688            5 
  551000    1.1792639    -7.071092    194.09603  0.029355117  0.029905872            5 
  552000    1.1728255    -7.071043     195.1532  0.029461534  0.029896455            1 
  553000    1.1502184   -7.0165055    195.72786  0.029494855  0.029887847            2 
  554000    1.1706024   -7.0825093    195.66041  0.029431469  0.029878238            2 
  555000     1.188052    -7.066013    195.64941  0.029376788  0.029868138            3 
  556000    1.1598938   -7.0699485    196.51727  0.029454027  0.029858636            3 
  557000    1.1821632   -7.0471555    197.12054  0.029491403  0.029849335            3 
  558000    1.1761098   -7.0640935    197.35485  0.029473543  0.029839895            2 
  559000    1.1703917   -7.0535475    197.49081  0.029441087   0.02983015            3 
  560000    1.1360004   -7.0836572    196.70096  0.029270977  0.029819827            2 
  561000     1.157687   -7.0599741    197.06809  0.029273335  0.029809303            3 
  562000    1.1502567   -7.0342405    197.92636  0.029348511  0.029799196            3 
  563000    1.1816196    -7.057516    197.85466  0.029285769  0.029788965            4 
  564000     1.161273   -7.0892316    197.48957  0.029179901  0.029778685            7 
  565000    1.1529082   -7.0550507    198.60883  0.029293338  0.029768395            3 
  566000    1.1593409   -7.1131892    198.57317  0.029236333  0.029758075            2 
  567000    1.1666544   -7.0585375    199.55718  0.029329391  0.029748228            2 
  568000    1.1515753   -7.0692868     199.4769  0.029265977  0.029738298            3 
  569000    1.1446071    -7.075778    200.90878  0.029424251  0.029728565            3 
  570000    1.1701913   -7.0687304    200.46882  0.029308308  0.029718923            3 
  571000    1.2150328   -7.0559818    200.38707  0.029245048  0.029709935            2 
  572000    1.1599267   -7.0909919    200.40086   0.02919593   0.02970072            2 
  573000    1.1603482   -7.0914037    201.03381  0.029237029  0.029691162            2 
  574000    1.1471619   -7.0844061    201.88442  0.029309585  0.029681418            3 
  575000    1.1435279   -7.0869648    201.73233  0.029236569   0.02967215            3 
  576000    1.1475959   -7.0365291    203.02961  0.029373497  0.029662667            2 
  577000    1.1381001   -7.0655395    201.95279   0.02916707  0.029652861            5 
  578000    1.1575742   -7.0957108    202.21105  0.029153842   0.02964307            5 
  579000     1.148219   -7.1178634    202.46105  0.029139472  0.029633103            2 
  580000    1.1338397   -7.1231166    202.78874  0.029136313  0.029623013            4 
  581000     1.168129   -7.0236946     203.5574  0.029196415  0.029613355            2 
  582000    1.1366865   -7.0600233    204.26888  0.029248122  0.029604207            1 
  583000    1.1460374   -7.0921706     203.9934  0.029158576  0.029595275            3 
  584000    1.1446576   -7.0379402    205.19819  0.029280563  0.029585612            5 
  585000    1.1480868   -7.0530302    205.02968  0.029206507  0.029576282            4 
  586000    1.1411271    -7.073366    205.13929  0.029172255  0.029567093            3 
  587000    1.1764502   -7.0822692    206.02116  0.029247751  0.029558414            9 
  588000    1.1361771   -7.0822367    205.57954  0.029135423  0.029549644            2 
  589000    1.1231191   -7.0947623     206.4168  0.029204415  0.029540606            4 
  590000    1.1704157   -7.0856976    206.56065  0.029175233  0.029531211            2 
  591000    1.1612976   -7.1094734    206.95421  0.029181361  0.029522737            3 
  592000    1.1479751    -7.044035    207.58491  0.029220849  0.029513765            1 
  593000    1.1353715   -7.1081129    207.69796  0.029187459  0.029504982            2 
  594000    1.1574544   -7.1081831    208.25038  0.029215822  0.029497071            4 
  595000    1.1688918   -7.0769531    208.68115  0.029227051  0.029488591            4 
  596000    1.1264835     -7.08593     208.9009  0.029208739  0.029480216            1 
  597000    1.1736986   -7.1048412    209.53953  0.029248957  0.029472455            3 
  598000    1.1625371   -7.0662659    209.68657  0.029220537  0.029464779            3 
  599000    1.1281737   -7.0924626    209.53042   0.02915003   0.02945672            4 
  600000    1.1819037   -7.0315112    210.77823  0.029274754  0.029449233            1 
  601000    1.1619039   -7.0842662    210.72374  0.029218489  0.029441697            2 
  602000    1.1325835   -7.0849065    210.99248  0.029207153   0.02943411            3 
  603000    1.1419043   -7.0798226    211.32213  0.029204275  0.029426523            2 
  604000    1.1544156   -7.0931899     211.4922  0.029179387  0.029419023            2 
  605000    1.1760794   -7.0927139    211.37771  0.029115387  0.029411129            2 
  606000    1.1447689   -7.0724955    212.07447  0.029163156  0.029402517            1 
  607000    1.1636172   -7.0904489    212.20133  0.029132528  0.029394176            1 
  608000    1.1583003   -7.0839888    212.72696  0.029156655  0.029385757            4 
  609000     1.157925   -7.0628976    213.01036  0.029147558  0.029377179            3 
  610000    1.1529921   -7.0687256    213.03517  0.029103166  0.029368755            3 
  611000    1.1509111    -7.112483    213.18855  0.029076452  0.029360556            3 
  612000    1.1545953   -7.0665618    214.59019  0.029219797  0.029352807            2 
  613000    1.1628345   -7.0624828      214.018  0.029094345  0.029345055            3 
  614000    1.1648609    -7.043756     214.4931  0.029111441  0.029336507            6 
  615000    1.1420915   -7.0551115    214.07728  0.029007761  0.029328175            1 
  616000    1.1584277   -7.1309576    213.84699  0.028929516  0.029319644            5 
  617000    1.1626422    -7.061378    214.64864  0.028990902   0.02931082            2 
  618000    1.1542881   -7.1169935    214.65298  0.028944577  0.029302337            4 
  619000    1.1343514    -7.119792    215.50458  0.029012464   0.02929363            2 
  620000    1.1504809   -7.0793816    214.98082  0.028895271  0.029284875            2 
  621000    1.1559131   -7.0763217    216.07153  0.028995106  0.029276034            4 
  622000    1.1476994   -7.0620344    217.16251  0.029094655  0.029267308            3 
  623000    1.1815069   -7.1043729    217.36488  0.029075024  0.029258816            1 
  624000    1.1339678   -7.0524902    217.74759  0.029079539  0.029250935            2 
  625000    1.1278007   -7.1019967    217.43132  0.028990843  0.029242715            4 
  626000    1.1505178   -7.1069177    218.04305  0.029025965  0.029234523            4 
  627000    1.1611387   -7.1035861    217.76192  0.028942308  0.029225957            3 
  628000    1.1620722   -7.1197214    218.79063  0.029032727  0.029218143            9 
  629000    1.1386934   -7.1004754    218.91157  0.029002592  0.029210667            3 
  630000    1.1515847   -7.0719098     219.1772  0.028991693  0.029202688            4 
  631000    1.1553106    -7.038979    219.78632  0.029026191   0.02919475            3 
  632000    1.1700207   -7.0841728    219.83334  0.028986463   0.02918695            8 
  633000    1.1455817   -7.0896372    219.83713   0.02894117  0.029179233            2 
  634000    1.1405281   -7.0618185    220.48476  0.028980647  0.029171376            2 
  635000    1.1438384    -7.085629    220.86283  0.028984623  0.029163983            3 
  636000    1.1588105   -7.0791235    221.08913  0.028968701  0.029156595            1 
  637000    1.1519051   -7.1033767    221.52842  0.028980694  0.029149267            4 
  638000    1.1427516   -7.1228805    221.78434  0.028968697  0.029142029            4 
  639000    1.1517305   -7.0564253    223.00373  0.029082385  0.029134243            2 
  640000    1.1520491   -7.0919871     222.6642  0.028992734  0.029127045            2 
  641000    1.1470645   -7.1196792    222.22633  0.028890578  0.029120042            5 
  642000    1.1800601   -7.0992271    223.97603  0.029072694  0.029112799            1 
  643000     1.169866   -7.0918285    223.04879  0.028907308   0.02910547            3 
  644000    1.1236471   -7.0801203    223.93145  0.028976637  0.029098167            1 
  645000    1.1472235   -7.0582117    224.70476  0.029031623  0.029091394            3 
  646000      1.13655    -7.065717    224.38242  0.028945101  0.029084719            2 
  647000    1.1456373   -7.1045558    224.85858  0.028961692    0.0290783            1 
  648000    1.1214523   -7.0764488    225.85181  0.029044729  0.029072204            5 
  649000    1.1828706   -7.0882426    226.44928  0.029076692  0.029065995            3 
  650000    1.0965072   -7.0901602    227.02564  0.029105851  0.029059364            3 
  651000    1.1613518   -7.0638733    227.53291  0.029126077  0.029053347            4 
  652000    1.1472156   -7.0486522    227.20305  0.029039245  0.029047347            3 
  653000    1.1495605   -7.0863435    227.51401  0.029034458  0.029041205            3 
  654000    1.1611154   -7.0711459    227.76462  0.029021995  0.029035497            2 
  655000    1.1536342   -7.0836397     228.2659  0.029041463  0.029030106            2 
  656000    1.1668406   -7.1157285    227.91528  0.028952652   0.02902371            2 
  657000    1.1286383   -7.1549038    227.20475  0.028818461  0.029016939            7 
  658000    1.1371982   -7.1103242    227.78808  0.028848541  0.029010151            9 
  659000    1.1457053   -7.1237738    228.01898  0.028833963  0.029003455            2 
  660000    1.1666539   -7.0869288     228.7402  0.028881338  0.028996719            2 
  661000    1.1656434   -7.1045077    228.06524  0.028752552  0.028989648            1 
  662000    1.1673339    -7.081314    229.31911  0.028866958  0.028982586            4 
  663000    1.1678453   -7.1119413    230.30001  0.028946708  0.028975904            3 
  664000    1.1379881   -7.1005636    230.26528  0.028898755  0.028969126            4 
  665000    1.1570883   -7.1510652    229.53195  0.028763402  0.028962147            4 
  666000    1.1564378   -7.1008927    231.45467  0.028960794  0.028955214            3 
  667000    1.1387071   -7.1147714    231.04606  0.028866324  0.028948177            2 
  668000    1.1328312   -7.0844842    230.91806  0.028807144  0.028940928            2 
  669000    1.1542435   -7.1337318    230.76924  0.028745546  0.028933288            5 
  670000    1.1250351   -7.1406656    230.42192  0.028659442  0.028925935            6 
  671000    1.1699899   -7.0503026    232.00829  0.028813747  0.028918676            6 
  672000     1.140164   -7.0690536    232.16696  0.028790545  0.028911394            4 
  673000    1.1404076   -7.0773473    232.33653  0.028768763    0.0289037            2 
  674000    1.1474829   -7.1514852    231.14574   0.02857885  0.028895717            6 
  675000    1.1643708   -7.1240055    232.41896  0.028693699  0.028888268            4 
  676000    1.1351854   -7.0938895    233.01602  0.028724854  0.028880691            4 
  677000    1.1562649   -7.1077787    233.25372  0.028711684   0.02887317            3 
  678000     1.148303   -7.0663105    234.14862  0.028779329  0.028865938            4 
  679000    1.1500659   -7.1306061     233.4412  0.028650123  0.028858891            3 
  680000    1.1439883   -7.1333375    233.50088  0.028615304  0.028851697            6 
  681000     1.157397   -7.0578327    235.69339  0.028841579  0.028844758            2 
  682000    1.1298331   -7.0927453    235.32938  0.028754812  0.028838242            3 
  683000    1.1739492   -7.0576031    235.64537  0.028751266  0.028832321            3 
  684000    1.1651908   -7.1081213    235.49512  0.028690925  0.028825654            4 
  685000    1.1317463   -7.1148984    235.71054  0.028675248  0.028818405            6 
  686000    1.1477831    -7.075618    236.74258  0.028758817  0.028811507            4 
  687000    1.1149265   -7.1486772    236.31573  0.028665179  0.028804504            7 
  688000    1.1424012   -7.1207909    236.49857   0.02864566  0.028797611            2 
  689000    1.1628321   -7.1421162    237.18987  0.028687696  0.028790699            2 
  690000    1.1585701   -7.1530297    236.99824  0.028622976  0.028783554            2 
  691000    1.1462967    -7.155124    237.63632  0.028658504  0.028776422            3 
  692000    1.1591186   -7.1091594    237.87755  0.028646141  0.028769312            4 
  693000    1.1418972   -7.0902633    239.01536  0.028741626  0.028762403            4 
  694000    1.1674315   -7.0963534    239.13207  0.028714225  0.028755876            3 
  695000     1.146797   -7.0607906    240.14482  0.028794343  0.028749543            4 
  696000    1.1457113   -7.0916216    239.25824   0.02864682   0.02874303            3 
  697000    1.1622152     -7.10128     240.1526   0.02871265  0.028736365            5 
  698000    1.1598533   -7.0856967    239.94812  0.028647101  0.028729907            1 
  699000    1.1241236   -7.0752507    241.00505  0.028732123  0.028723351            4 
  700000    1.1329897   -7.1541358    240.20036  0.028595281  0.028716832            7 
  701000    1.1415176   -7.1095553    241.04004  0.028654308  0.028710305            3 
  702000    1.1191699   -7.1701453    240.55368  0.028555755  0.028702912            3 
  703000    1.1550924   -7.1098464    241.33097  0.028607275  0.028695715            2 
  704000    1.1401895   -7.1180521    241.48909  0.028585356  0.028688666            4 
  705000    1.1325332   -7.1152063    241.11799  0.028500945  0.028681538            3 
  706000    1.1258359   -7.1482664    241.49942  0.028505597    0.0286745            3 
  707000    1.1716216   -7.1353325    242.31263   0.02856113   0.02866737            1 
  708000    1.1588615   -7.1589226    241.81237  0.028461908  0.028659918            4 
  709000    1.1380428   -7.1291314    241.96862  0.028440129  0.028652525            2 
  710000    1.1524095    -7.090564    243.32649  0.028559447  0.028645164            2 
  711000    1.1253456   -7.1217351    242.61647   0.02843606  0.028637871            2 
  712000    1.1257991   -7.1330079    243.45328  0.028494064   0.02863054            5 
  713000    1.1330248   -7.0857601    244.31303  0.028554585  0.028623305            1 
  714000    1.1242492    -7.151125    243.72298  0.028445726   0.02861625            2 
  715000    1.1272831   -7.0888523    245.30402  0.028590212  0.028608843            6 
  716000    1.1520061   -7.1154921    244.31807  0.028435529  0.028601614            3 
  717000    1.1283967   -7.1731311    244.47806  0.028414466  0.028594289            1 
  718000    1.1228345   -7.1279446    244.34088  0.028358969   0.02858676            2 
  719000    1.1461058   -7.1727153     245.4892  0.028452619  0.028579821            5 
  720000    1.1599823   -7.1205189    246.13107  0.028487392  0.028572774            3 
  721000     1.131409   -7.1208189    246.55961  0.028497413  0.028565386            2 
  722000    1.1495947   -7.1354402    246.76123  0.028481213  0.028558571            2 
  723000    1.0987113   -7.1458602    247.43254  0.028519196  0.028551869            2 
  724000    1.1161444    -7.128291    247.29478  0.028463948  0.028545342            4 
  725000    1.1129074   -7.1520802    247.22477  0.028416641  0.028538823            2 
  726000    1.1443549   -7.0972905    248.36292  0.028508141  0.028532205            4 
  727000    1.0972214    -7.128418    248.89045  0.028529396  0.028525744            3 
  728000    1.1187068   -7.1460937    248.27363  0.028419601  0.028519138            2 
  729000    1.1458741   -7.1570385     249.6025  0.028532521  0.028512952            2 
  730000    1.1244037   -7.1402222    249.99864  0.028538658  0.028506903            2 
  731000    1.1552919     -7.12195    249.81823   0.02847905  0.028500612            6 
  732000    1.1293136   -7.1084225    250.82469  0.028554723   0.02849427            3 
  733000     1.147522   -7.1060308    251.06435  0.028543014  0.028488247            2 
  734000    1.1302804   -7.1257415    250.74558  0.028467936  0.028482193            3 
  735000    1.1126859   -7.1435089    251.53811   0.02851906   0.02847605            7 
  736000    1.1435334   -7.1524245    250.87018  0.028404685  0.028469854            4 
  737000    1.1204761   -7.0974381    251.41306  0.028427528  0.028463367            2 
  738000    1.1265531   -7.1289148    251.90132  0.028444142  0.028456733            4 
  739000    1.1196073   -7.1233436    251.41813  0.028351165  0.028450291            3 
  740000     1.114843   -7.1202956    251.77872   0.02835346  0.028443587            2 
  741000     1.153852   -7.1412505    252.39693   0.02838472  0.028436896            2 
  742000    1.1436192   -7.1826479    250.96935  0.028186135  0.028430016            4 
  743000    1.0950401   -7.0974307    252.72016  0.028344567  0.028422957            1 
  744000    1.1512719   -7.1231786     252.5318  0.028285372  0.028415972            2 
  745000    1.1357508   -7.0866334    253.74238  0.028382816   0.02840893            2 
  746000    1.1023825     -7.13472    253.50638  0.028318407  0.028401926            2 
  747000    1.1326241    -7.147312    252.93265  0.028216493  0.028394782            2 
  748000    1.1460761   -7.1747308    252.75059  0.028158488  0.028387345            4 
  749000    1.1378786   -7.1800193    253.54392  0.028209158  0.028379934            2 
  750000    1.1330721   -7.1302757    253.68521  0.028187245  0.028372821            2 
  751000    1.1382024     -7.13543    254.82766  0.028276482  0.028365996            2 
  752000    1.1393074   -7.1873498    254.19567  0.028168847  0.028359202            4 
  753000    1.1404003   -7.0907209    255.68458  0.028296213  0.028352047            4 
  754000    1.1519998   -7.1288825    255.88503  0.028280839  0.028344969            8 
  755000    1.1125944   -7.1556465    255.79223  0.028233138  0.028338239            3 
  756000    1.1205835   -7.0846063    257.11855  0.028341992  0.028331681            4 
  757000    1.1581787   -7.1607931    256.59177  0.028246563  0.028325184            3 
  758000    1.1248437     -7.12229    257.54657  0.028314267  0.028318684            2 
  759000    1.1318135   -7.1101579    258.37515  0.028367934  0.028312663            5 
  760000    1.1292778   -7.0934176    258.00058  0.028289538  0.028307255            2 
  761000    1.1226107   -7.1431294    258.10684  0.028263999  0.028301363            3 
  762000     1.109473   -7.1375437    259.26173  0.028353208  0.028295257            3 
  763000    1.1061079     -7.12585    258.85428  0.028271547  0.028288824            2 
  764000    1.1056073   -7.1723986    258.33479  0.028177878  0.028282124            2 
  765000     1.119494   -7.1810811    258.66561  0.028177081  0.028275403            4 
  766000    1.1584518   -7.1465293    259.27683  0.028206792  0.028268792            4 
  767000    1.1198582   -7.1631484    259.82395   0.02822946  0.028261774            4 
  768000    1.1285263   -7.1422399    259.90267  0.028201245  0.028255092            2 
  769000    1.1511912   -7.1357748    259.56742  0.028128242  0.028248353            2 
  770000    1.1322616   -7.1382556     260.3782  0.028179459  0.028241186            4 
  771000    1.1028165   -7.1135788    260.16064  0.028119395  0.028234354            5 
  772000    1.1332226   -7.1489008    260.50883  0.028120556  0.028227605            4 
  773000    1.1403221   -7.1678576     260.8842  0.028124644  0.028220604            6 
  774000    1.1482162    -7.146956    260.87563  0.028087385  0.028214036            4 
  775000    1.1334555   -7.1422183    260.88873  0.028052552  0.028207201            2 
  776000    1.1207131   -7.1728064    261.63308  0.028096336  0.028200498            3 
  777000    1.1591044    -7.159139    261.99575  0.028099072  0.028194061            3 
  778000    1.1147419   -7.1633085    262.01838  0.028065379  0.028187383            2 
  779000    1.1402444    -7.170985    262.52281  0.028083313  0.028180348            2 
  780000    1.1332059   -7.1697551    261.94166   0.02798522  0.028173364            4 
  781000    1.1286575   -7.1812897    262.84636   0.02804592  0.028166539            4 
  782000     1.103256   -7.1171075    263.07144   0.02803404  0.028159809            3 
  783000    1.1125419   -7.1730557    263.91239  0.028087739  0.028152695            3 
  784000    1.1238292   -7.1687854    263.70869   0.02803026  0.028145677            4 
  785000    1.1580466    -7.158472    263.74571  0.027998483  0.028138996            4 
  786000    1.1205747   -7.1524208     263.4885  0.027935591  0.028131916            2 
  787000    1.1253635   -7.1542496    265.03214  0.028063547  0.028124984            3 
  788000     1.118834    -7.178565    264.12853  0.027932374  0.028118021            6 
  789000    1.1332759   -7.1951403    264.67053  0.027954218   0.02811125            2 
  790000    1.1441888   -7.1436578    265.67018   0.02802428  0.028103913            8 
  791000    1.1392542   -7.1316728    265.92998  0.028016222  0.028096936            4 
  792000    1.1220042    -7.167157    265.80483   0.02796768  0.028090187            2 
  793000    1.1256917   -7.1382358    266.46863  0.028002168  0.028083025            2 
  794000    1.1512035   -7.1400503    266.90468  0.028012666  0.028075965           10 
  795000    1.1056335   -7.1754915    266.93907  0.027981034  0.028068936            4 
  796000    1.1020646   -7.1762003    265.74809  0.027821199  0.028061618            4 
  797000    1.1319822   -7.1594816    266.88997  0.027905685  0.028054023            2 
  798000    1.1296565   -7.1608863    267.13884  0.027896704  0.028046493            3 
  799000    1.1249258   -7.1699414    267.27866  0.027876373  0.028038995            2 
  800000    1.1193756   -7.1880455    266.92276  0.027804454   0.02803112            3 
  801000     1.115417   -7.1584533    268.35477  0.027918723  0.028023631            2 
  802000     1.126891   -7.1423552    269.09808  0.027961147  0.028016737            3 
  803000    1.1338409   -7.1533681    268.72919  0.027888044   0.02800969            3 
  804000    1.1208932   -7.1788478    268.78612  0.027859258  0.028002498            3 
  805000    1.1116384   -7.1784682    268.54249   0.02779943  0.027995105            1 
  806000    1.1107647    -7.185065    268.19983  0.027729511   0.02798765            2 
  807000    1.1186749   -7.1255116    269.34297  0.027813194  0.027980172            7 
  808000    1.1638306   -7.1665675    270.93209  0.027942666   0.02797266            3 
  809000    1.1174372   -7.1362113    271.09442  0.027924847  0.027965595            9 
  810000    1.1267679   -7.1971191    269.88194  0.027765632   0.02795824            6 
  811000    1.1124716   -7.1379897    270.67799  0.027813193   0.02795069            4 
  812000    1.1311467   -7.2361552    269.23577  0.027630929  0.027942794            5 
  813000    1.0897675   -7.2062283    269.99319  0.027674579   0.02793444            3 
  814000    1.1267215   -7.1992688    270.30277  0.027672273  0.027926172            2 
  815000    1.1234827   -7.1965881    269.75055  0.027581856  0.027917745            4 
  816000    1.1153059   -7.1757237    270.54369  0.027629053  0.027909366            8 
  817000    1.1226444   -7.1665357    272.25823  0.027770118  0.027901256            4 
  818000    1.1322636   -7.2065224    271.30218  0.027638772  0.027893184            3 
  819000    1.1240096   -7.1195461     272.2099  0.027697385  0.027885414            5 
  820000    1.1114439   -7.1964073    271.93489   0.02763566  0.027877694            1 
  821000    1.1175945   -7.1382572    272.38434  0.027647619  0.027869701            6 
  822000    1.1086624   -7.1664806    272.74989  0.027651043   0.02786152            3 
  823000    1.1130358   -7.1262162    273.14735   0.02765769  0.027853311            2 
  824000     1.127438   -7.0965862    273.61123  0.027671039  0.027845136            4 
  825000    1.1383504   -7.1649573    273.22348  0.027598332  0.027836867            2 
  826000     1.089624   -7.1699361    274.62296   0.02770611  0.027828502            3 
  827000    1.1244381    -7.198987    273.52393  0.027561863  0.027819993            3 
  828000    1.1156943   -7.1877603    273.53487  0.027529676  0.027811647            2 
  829000    1.1227265   -7.1496778    273.96699  0.027539907  0.027803113            1 
  830000    1.1093387   -7.1758709    273.92797  0.027502808  0.027794461            4 
  831000    1.1162579   -7.1858309    274.11064   0.02748803  0.027785962            2 
  832000    1.1221389   -7.1425395     274.2439   0.02746834  0.027777341           10 
  833000    1.1129665   -7.1996677    273.90173  0.027401134  0.027768745            3 
  834000     1.132102     -7.18016      274.917  0.027469724  0.027759795            5 
  835000    1.1141919   -7.1875942    275.13176  0.027458259  0.027751054            2 
  836000    1.1076178    -7.163495      275.685  0.027480563  0.027742281            3 
  837000    1.1264709     -7.17648    275.32578  0.027411966  0.027733631            2 
  838000    1.0953004   -7.1708742     275.2592  0.027372633  0.027724812            3 
  839000    1.1136398   -7.1712511    276.48341  0.027461602  0.027716081            3 
  840000    1.1221066    -7.150415    277.28174  0.027508109  0.027707422            3 
  841000    1.0934067    -7.164485    276.31332  0.027379441  0.027698533            2 
  842000    1.1321884   -7.1916139    276.82436  0.027397502  0.027689569            3 
  843000    1.1277568   -7.1425531    276.66599  0.027349346  0.027680415            5 
  844000    1.1233954   -7.1573423    276.23559  0.027274446  0.027671247            3 
  845000     1.121888   -7.2020825    276.26624  0.027245191   0.02766207            7 
  846000    1.1071557   -7.1596007    277.71484  0.027355678  0.027653116            2 
  847000    1.1132211    -7.150285    277.73878  0.027325736  0.027644092            4 
  848000    1.1272736   -7.1705258    277.81913  0.027301408  0.027635306            4 
  849000    1.0891209   -7.1497172    279.29425  0.027414041  0.027626528            6 
  850000    1.1061067   -7.1449568    278.63833  0.027317484  0.027617745            6 
  851000    1.1221719   -7.1583104    279.17675  0.027338107   0.02760925            2 
  852000    1.1447726   -7.1994151    279.53434  0.027340996  0.027600558            2 
  853000    1.1011152   -7.1834866    279.73887  0.027328925  0.027591592            5 
  854000    1.1389398   -7.1521997    280.04532  0.027326827  0.027582934            3 
  855000    1.1093886   -7.1860131    279.20085  0.027212559  0.027574195            2 
  856000    1.0943603   -7.1382666    281.06807  0.027362546  0.027565835            3 
  857000    1.1117068   -7.1644132     280.4657  0.027272044  0.027557349            1 
  858000    1.1129471   -7.1924875    280.61947  0.027255193  0.027548534            2 
  859000    1.1232769   -7.1486291    281.36353  0.027295647  0.027539596            1 
  860000    1.1276578   -7.2325359    279.37708  0.027071422   0.02753039            3 
  861000    1.1013638   -7.2098283    280.24673  0.027124151  0.027521372            5 
  862000    1.1218553   -7.2065945    280.81045  0.027147182  0.027512388            3 
  863000    1.0898812   -7.1786056    281.38494    0.0271712  0.027503249            4 
  864000    1.1119592   -7.1914723    281.19618  0.027121545  0.027494273            4 
  865000    1.1239236   -7.1720348    282.28911  0.027195482  0.027485454            3 
  866000    1.1089788   -7.1615924     282.4526  0.027179811  0.027476551            2 
  867000    1.1192935   -7.1818216    283.28084   0.02722807  0.027468045           10 
  868000    1.0967519    -7.183378    283.04165  0.027173737  0.027459423            5 
  869000    1.1191363   -7.1691051    282.49015  0.027089581  0.027450793            3 
  870000    1.1212439   -7.1459535    284.58234  0.027258845  0.027442317            3 
  871000    1.0981495   -7.2108049    282.73309  0.027050621  0.027433671            3 
  872000    1.1027162   -7.1627635    284.33643  0.027172824  0.027424888            4 
  873000    1.1012742   -7.2000413    283.66535  0.027077639  0.027416269            3 
  874000    1.0910396   -7.1760803    285.79228  0.027249455  0.027407814            3 
  875000    1.1162672   -7.1872294    285.25363  0.027167013  0.027399379            1 
  876000    1.0952672   -7.1678882    285.89741  0.027197243  0.027390998            4 
  877000    1.1535723   -7.2821835    284.67248  0.027049837  0.027382448            4 
  878000    1.1107511   -7.2121874    285.65958  0.027112716  0.027373536            3 
  879000    1.1160583   -7.1997378    285.22852  0.027041004  0.027364773            7 
  880000    1.1140814    -7.178041    286.80655  0.027159712  0.027356361            8 
  881000    1.1145799    -7.192781    286.41184  0.027091548  0.027347948            2 
  882000    1.0817056   -7.2372877    285.86082  0.027008769  0.027339378            2 
  883000    1.1080687   -7.2161905    287.04445  0.027089887  0.027331087            2 
  884000    1.1016574    -7.161726    288.15735  0.027164154  0.027323024            5 
  885000      1.12462   -7.1712844     289.0254  0.027215198   0.02731526            7 
  886000    1.1227217   -7.1710047     287.8531   0.02707422  0.027307427            4 
  887000    1.1116481   -7.1952112    289.96453  0.027242064  0.027299525            3 
  888000    1.0988401    -7.197883    289.66218  0.027183013  0.027291583            2 
  889000    1.1093146   -7.2020787    288.53451  0.027046729  0.027283598            5 
  890000    1.0841885   -7.1777327    289.25796  0.027084078  0.027275475            4 
  891000     1.114408   -7.1738975    290.83981  0.027201628  0.027267795            2 
  892000    1.0998273   -7.1698432    290.51938  0.027141197  0.027260199            2 
  893000    1.1194556   -7.1484045    290.41992  0.027101523  0.027252763            6 
  894000    1.1445911   -7.1978657    291.29406   0.02715269   0.02724496            4 
  895000    1.1044455   -7.2000192    290.76623  0.027073206  0.027237215            2 
  896000    1.0975749   -7.2400279    290.27597  0.026997393  0.027229154            3 
  897000    1.0955964   -7.1973017    292.06844  0.027133821  0.027221055            3 
  898000    1.1211632   -7.1837062    291.76762  0.027075688  0.027213246            3 
  899000    1.1007894   -7.2191305    291.68024  0.027037471  0.027205431            5 
  900000    1.1086045   -7.2131049    291.09157  0.026952923  0.027197379            5 
  901000    1.1403954   -7.1915368    293.01926    0.0271013   0.02718941            2 
  902000    1.0913154   -7.2566422    292.48847  0.027022216  0.027181392            3 
  903000    1.1008016   -7.2343374     292.0194  0.026949004  0.027173312            4 
  904000    1.0916262   -7.2055436    292.84972  0.026995733  0.027165241            9 
  905000    1.1226407   -7.2161374      293.366  0.027013444  0.027157138            1 
  906000    1.1059125   -7.2401163    293.54314  0.026999921  0.027149371            3 
  907000    1.1312474   -7.1771735    294.61431   0.02706857  0.027141583            4 
  908000    1.0865417   -7.2208102    293.50993  0.026937401  0.027133604            6 
  909000    1.1062685   -7.1818679    293.91171  0.026944601  0.027125535            4 
  910000    1.1120612   -7.1712633    294.62207  0.026980043  0.027117561            7 
  911000    1.1144281   -7.1738174    295.00777  0.026985709  0.027109454            1 
  912000    1.0992627   -7.2150337    294.72497  0.026930279  0.027101199            3 
  913000    1.1226805   -7.2018589    295.48912  0.026970529  0.027092925            3 
  914000    1.1235153    -7.224683     294.7021  0.026869265  0.027084662            2 
  915000    1.1201842   -7.2180563    295.12528  0.026878441  0.027076494            2 
  916000    1.1016928   -7.2153154    295.66273  0.026897992  0.027067993            2 
  917000     1.129621   -7.2156876    296.18674   0.02691628  0.027059786            2 
  918000    1.1053276   -7.1786088    296.03804   0.02687346  0.027051702            3 
  919000      1.11243   -7.2188128    295.01909  0.026751821  0.027043446            3 
  920000    1.1094634   -7.2185407    295.57484  0.026773083  0.027035205            5 
  921000    1.0939782   -7.1923803     296.8563  0.026859962  0.027026895            4 
  922000     1.082144   -7.2389786    296.57519  0.026805422  0.027018769            2 
  923000    1.1079826   -7.2319259    297.44639  0.026855037  0.027010609            2 
  924000    1.0998407   -7.2435663    297.72555   0.02685115  0.027002557            6 
  925000    1.1242366   -7.2246124    297.99069  0.026846008  0.026994401            3 
  926000    1.1022039   -7.2543694    297.24487  0.026749898  0.026986135            4 
  927000    1.0857901   -7.2205011    298.34556  0.026819989  0.026977767            3 
  928000    1.1129828    -7.238692    297.87719  0.026749029  0.026969586            4 
  929000    1.1129139   -7.2399487    296.97985  0.026639742  0.026961158            2 
  930000    1.1143787   -7.2303766    297.91487   0.02669488  0.026952608            2 
  931000    1.1104319   -7.1896423     298.5539  0.026723407  0.026944121            4 
  932000    1.1038042   -7.1826612     299.0502  0.026739109  0.026936051            3 
  933000    1.1111383   -7.2416512    298.56592  0.026667196   0.02692763            3 
  934000    1.0792217   -7.2442445    297.98424  0.026586745  0.026919016            5 
  935000    1.0959454   -7.2023921    298.38158  0.026593724  0.026910171            4 
  936000    1.1384425   -7.2095596    299.46694  0.026661942  0.026901365            3 
  937000    1.1074961   -7.2209487    298.36245  0.026535259  0.026892563            3 
  938000     1.111983    -7.246164    299.48285  0.026606508  0.026883723            5 
  939000    1.1042097   -7.2252966    300.13181  0.026635766  0.026874855            4 
  940000    1.1267233   -7.2203141    299.56989  0.026557615  0.026866087            5 
  941000    1.1143044   -7.2052973    300.15613  0.026581308  0.026857045            3 
  942000    1.1301623   -7.1808064    300.57746  0.026590363  0.026848505            3 
  943000    1.0960037   -7.3021626    300.59003  0.026563276  0.026839878            5 
  944000    1.0790712   -7.2397541    300.72216  0.026546801  0.026831145            4 
  945000     1.113148   -7.2415788    300.73975   0.02652026  0.026822209            7 
  946000    1.1603332    -7.230165    301.52806  0.026561669   0.02681355            4 
  947000    1.0719055   -7.2437008    301.42731  0.026524755  0.026804973            2 
  948000    1.1004204   -7.2779577    301.74928  0.026525077  0.026796205            5 
  949000    1.0894602   -7.2026447    302.55498  0.026567877  0.026787659            4 
  950000    1.0960482   -7.2358774    302.23168  0.026511551  0.026779307            4 
  951000    1.0753894   -7.2327507    303.73115  0.026615067  0.026770783            6 
  952000    1.0913618   -7.2330099    303.40039  0.026558157  0.026762239            6 
  953000    1.0720581    -7.233215    302.54611  0.026455589  0.026753414            4 
  954000    1.0852607   -7.2340247     304.0791  0.026561766  0.026744886            3 
  955000    1.0947392   -7.2023122    303.72987  0.026503479  0.026736458            2 
  956000    1.0881559   -7.2306391    303.34017  0.026441786  0.026728024            5 
  957000    1.1063033   -7.2483808    302.81531  0.026368452  0.026719574            5 
  958000    1.1071474   -7.2572415    303.70215  0.026418071  0.026711075            2 
  959000    1.1217723   -7.2134725    304.36423  0.026448056  0.026702849            2 
  960000    1.1312447   -7.1856866     305.2852  0.026500452  0.026694562            5 
  961000    1.1059073   -7.2428433    304.26047  0.026384016  0.026685982            2 
  962000    1.1029794   -7.2126168    305.58548  0.026471368  0.026677566            2 
  963000     1.090797   -7.2479199    304.74789  0.026371399  0.026668935            5 
  964000    1.0926043   -7.2505967    306.32332  0.026480231  0.026660338            4 
  965000    1.1036186   -7.2272466    306.36763  0.026456617  0.026651948            2 
  966000    1.1171375   -7.2065223    306.37107  0.026429527  0.026643613            3 
  967000     1.094988    -7.256337    306.15958  0.026383969  0.026635136            2 
  968000    1.0896287   -7.2428444    305.98111  0.026341349  0.026626632            4 
  969000    1.0997295    -7.261079    306.86273  0.026389984  0.026617914            4 
  970000    1.0877248   -7.2538335    305.90944   0.02628088  0.026608966            8 
  971000    1.1045158   -7.1920948    307.74676  0.026411497  0.026600155            1 
  972000    1.0979593   -7.2082418    306.93582    0.0263148  0.026591374            3 
  973000    1.1012876   -7.2312897    306.59158  0.026258271  0.026582494            5 
  974000    1.1003284   -7.2168736    308.08546  0.026359125  0.026573608            2 
  975000    1.0742284   -7.2329674    307.54126  0.026285577  0.026564905            2 
  976000    1.0967655   -7.2808073     306.3463  0.026156617  0.026556044            5 
  977000    1.0670652    -7.243263    306.74659  0.026163987  0.026547009            2 
  978000    1.1004271   -7.2307367    308.26557  0.026266664  0.026538102            6 
  979000    1.1188783   -7.2358534    308.39013  0.026250436   0.02652939            3 
  980000    1.0530109   -7.2111656    309.32815  0.026303414  0.026520598            4 
  981000    1.0858789   -7.2588014    308.95848  0.026245199  0.026511801            2 
  982000    1.1027227   -7.2689607    309.09696  0.026230224  0.026503022            4 
  983000    1.0904834   -7.2352982    309.55522  0.026242389  0.026494135            4 
  984000    1.0910969   -7.2786144    309.18035  0.026183973  0.026485296            3 
  985000    1.1069396   -7.2221472     310.0279  0.026229095  0.026476374            5 
  986000     1.083766   -7.2244097    310.07855  0.026206774   0.02646771            7 
  987000    1.1093477   -7.2820616    310.17496  0.026188362  0.026458989            3 
  988000    1.0899895   -7.2105826    311.01559  0.026232759  0.026450161            5 
  989000    1.0739494    -7.230891    311.39141  0.026237901  0.026441563            2 
  990000    1.1047056   -7.2388628    312.07362  0.026268823   0.02643307            3 
  991000    1.0750888   -7.2288694    310.77937  0.026133482  0.026424608            3 
  992000    1.1012868   -7.2358744    312.53593  0.026254699  0.026416475            6 
  993000    1.0767956   -7.2470657    312.16498  0.026197128  0.026407947            3 
  994000    1.1052327   -7.2322964    311.86938  0.026145991  0.026399589            3 
  995000    1.0861822   -7.2588259    311.94052  0.026125671  0.026391208            3 
  996000    1.0865173   -7.2575859    313.12647  0.026198667  0.026382816            1 
  997000    1.1065378   -7.2708469    312.70178  0.026136892  0.026374335           15 
  998000    1.1042432   -7.3033772    312.63505  0.026105131  0.026365761            2 
  999000      1.10226   -7.2228801    314.11717  0.026202634  0.026357561            2 
 1000000    1.0930602    -7.249743    314.56223  0.026213519  0.026349376            8 
 1001000    1.1083502   -7.2452657    314.78157  0.026205592   0.02634124            5 
 1002000    1.0958693   -7.2636201     314.5082  0.026156703  0.026332961            4 
 1003000    1.1059621    -7.187207    315.75241  0.026233999  0.026325277            5 
 1004000    1.0871432    -7.232306     314.7631  0.026125755   0.02631732            5 
 1005000    1.0870278    -7.252733    314.75858  0.026099385   0.02630946            2 
 1006000    1.1148312   -7.2420176    316.53279   0.02622041  0.026301303            6 
 1007000    1.0910078   -7.2737056    316.68084  0.026206624  0.026293419            2 
 1008000    1.0908537   -7.2761707    316.96406  0.026204039  0.026285437            5 
 1009000    1.0684192   -7.2289716    317.81662  0.026248482   0.02627784            9 
 1010000    1.0928981   -7.2408329    317.37785  0.026186291  0.026270223            4 
 1011000    1.0638495   -7.2870253    316.62898  0.026098663   0.02626269            1 
 1012000    1.0919602   -7.2815775    318.00096   0.02618585  0.026255167            3 
 1013000    1.0874471   -7.2741935    318.91994  0.026235598  0.026247616            2 
 1014000    1.0778015   -7.2750658    318.38978  0.026166155  0.026240047            4 
 1015000    1.0906432   -7.2850592    318.55178  0.026153676   0.02623233            8 
 1016000    1.1103303   -7.2941012    318.71182  0.026141061  0.026224667            4 
 1017000    1.0862648   -7.2843309    319.23378  0.026158127  0.026217302            6 
 1018000    1.0867984    -7.271736    319.66092  0.026167397  0.026209897            5 
 1019000     1.084298   -7.2734778    320.03966   0.02617269  0.026202581            4 
 1020000     1.096863   -7.2634738    321.03728  0.026228536  0.026195307            3 
 1021000    1.0788486   -7.2675811    320.09272  0.026125753  0.026188201            4 
 1022000    1.0644286    -7.234428    321.54017  0.026218213  0.026180893            3 
 1023000    1.0858546   -7.2207874    321.74562   0.02620932  0.026173574            3 
 1024000    1.0710779   -7.2638014    320.26245  0.026063025  0.026166123            6 
 1025000    1.0852626   -7.2713094    320.74586  0.026076899  0.026158565            6 
 1026000     1.086863   -7.2987149    320.88788  0.026063018  0.026150848            2 
 1027000    1.0792584   -7.2813454    321.33305  0.026073762  0.026142957            2 
 1028000    1.0877201   -7.3138513    320.97173  0.026019109  0.026135273            3 
 1029000    1.0758395     -7.25699    321.83361  0.026063622   0.02612753            8 
 1030000     1.080727   -7.2956539    321.94127  0.026047028  0.026119819            5 
 1031000    1.1059187   -7.2492335    323.22751  0.026125728  0.026112245            3 
 1032000    1.0852749   -7.2607025    323.54417  0.026125983  0.026104957            9 
 1033000    1.0688886   -7.3064687    322.33445  0.026003102  0.026097298            6 
 1034000    1.0976393   -7.2895599    322.26599  0.025972436  0.026089726            8 
 1035000    1.0693343   -7.3025004    322.59514  0.025973844  0.026082242            8 
 1036000     1.072629   -7.2637397    323.48491  0.026020344  0.026074884            5 
 1037000    1.0733751   -7.2672137    325.04437   0.02612057  0.026067469            3 
 1038000    1.0852599   -7.2771335    324.90983  0.026084605  0.026060232            2 
 1039000     1.104964   -7.2427557    325.24893  0.026086696  0.026052936            1 
 1040000    1.0918923   -7.2615072    324.90447  0.026034012  0.026045707            3 
 1041000    1.0910602   -7.2808619    324.56076  0.025981489  0.026038266            3 
 1042000    1.0935637   -7.2991025    325.71597  0.026048942  0.026030892            5 
 1043000    1.0820617   -7.3092554    324.87616  0.025956868  0.026023291            3 
 1044000    1.0692045   -7.2606795    325.38702  0.025972783  0.026015945            2 
 1045000    1.0949165   -7.2680224    325.64142  0.025968215  0.026008687            6 
 1046000    1.0920176   -7.3344595    325.28954  0.025915355    0.0260012            3 
 1047000    1.1221909   -7.3026768    325.84898   0.02593513  0.025993741            3 
 1048000    1.0947291   -7.2158686    326.96756  0.025999329  0.025986298            2 
 1049000      1.08937    -7.259989    325.33823  0.025845109  0.025979169            5 
 1050000    1.0820026   -7.3100745    326.48959  0.025911872  0.025971798            5 
 1051000    1.0929382   -7.2692666    327.43639  0.025962289  0.025964303            5 
 1052000     1.063638    -7.273215    327.24279  0.025922274  0.025956924            4 
 1053000    1.0869264   -7.3024487    326.92683  0.025872652  0.025949273            3 
 1054000    1.0835522   -7.3302933     326.3564  0.025803004   0.02594156            3 
 1055000    1.0612124   -7.2767565    326.93964  0.025824616  0.025933956            2 
 1056000    1.0828222   -7.2633683    328.25358  0.025903849  0.025926437            2 
 1057000    1.0527811   -7.2714016     327.7498  0.025839625  0.025918886            4 
 1058000    1.0518661   -7.2566245    328.45815  0.025870994  0.025911156            3 
 1059000    1.0809182   -7.2309675    328.83356  0.025876106  0.025903694            2 
 1060000    1.0762078   -7.2777394    327.83082  0.025772863  0.025896091            4 
 1061000     1.082651   -7.2288778    330.89882   0.02598954  0.025888582            2 
 1062000    1.0874989   -7.2717097    328.19296  0.025752743   0.02588102            3 
 1063000     1.107022    -7.289512    328.82747  0.025778259  0.025873286            2 
 1064000    1.0780805   -7.2891596    329.14071  0.025778564  0.025865595            6 
 1065000    1.0922995   -7.2819421    330.27138  0.025842831   0.02585778            3 
 1066000    1.0737443   -7.2886255    329.33142  0.025745107  0.025849981            4 
 1067000    1.0802625   -7.3219788    329.62687  0.025744054  0.025842359            2 
 1068000    1.0768508   -7.2513415    331.30456  0.025850855  0.025834813            5 
 1069000    1.0791418   -7.2633175    331.88441  0.025871874  0.025827332            3 
 1070000    1.1085363   -7.2817346    331.46836  0.025815293  0.025820034            3 
 1071000    1.0787431   -7.2939524    331.14399   0.02576595  0.025812775            2 
 1072000    1.0827613   -7.2828609    331.62281  0.025779136  0.025805388            2 
 1073000    1.0445616   -7.2806128    332.08603  0.025791086  0.025797908            2 
 1074000    1.0825681   -7.2895792    331.86095  0.025749608   0.02579031            2 
 1075000    1.1035123     -7.27093    331.59157  0.025704773  0.025782958            6 
 1076000    1.0617562   -7.2571565     332.7995  0.025774435  0.025775891            9 
 1077000    1.0842864   -7.2774943    333.44315  0.025800305   0.02576865            3 
 1078000    1.0642425   -7.2972512    332.83639  0.025729467  0.025761271            5 
 1079000    1.0632614   -7.2768125    334.65062  0.025845738  0.025754076            4 
 1080000    1.0739442   -7.2326875    335.52799  0.025889505  0.025746951            7 
 1081000    1.0853984   -7.2866335     334.6362  0.025796809  0.025740037            3 
 1082000    1.0710485    -7.278078    334.49503  0.025762094  0.025732859            4 
 1083000    1.0683975   -7.3211435    334.56424  0.025743632  0.025725611            4 
 1084000    1.0701352   -7.2633328    333.14362  0.025610672  0.025718519            2 
 1085000    1.0660073   -7.2612584    335.12456  0.025739213   0.02571155            2 
 1086000    1.0870456   -7.2957101    335.09205  0.025713018   0.02570461            3 
 1087000    1.0500678   -7.2511252    335.39311  0.025712443  0.025697536            6 
 1088000     1.099861   -7.2793638    335.50289  0.025697219  0.025690388            5 
 1089000    1.0874387   -7.2854081    335.69512  0.025688331  0.025683219            9 
 1090000    1.0950491   -7.2776314    335.31157  0.025635441  0.025676102            3 
 1091000    1.1091996   -7.2936852    336.83822  0.025728553  0.025669051            4 
 1092000    1.1038663   -7.2996589    335.79917  0.025625699   0.02566193            2 
 1093000    1.0849713   -7.2710506    337.40287  0.025724525  0.025654744            4 
 1094000    1.0783554   -7.2934242    337.19191  0.025684941  0.025647516            2 
 1095000    1.0773801   -7.2814953    337.09833  0.025654363  0.025640195            2 
 1096000    1.0745198   -7.2504669    337.33211  0.025648731  0.025632984            4 
 1097000    1.0614557   -7.2887213    337.14395  0.025611057  0.025625684            6 
 1098000    1.0522978   -7.3003096    337.63901  0.025625304  0.025618422            3 
 1099000    1.0790031   -7.2838559    337.61049  0.025599825  0.025611272            2 
 1100000    1.0615509   -7.3145867    338.27337   0.02562677  0.025604068            5 
 1101000    1.0644692   -7.2643389     338.9122  0.025651847  0.025596888            4 
 1102000    1.1023066   -7.3272613    338.79906  0.025620014  0.025589684            5 
 1103000    1.0674126   -7.2831366    338.25504  0.025555684  0.025582589            4 
 1104000    1.0701899   -7.3314487     338.4652    0.0255484  0.025575399            2 
 1105000    1.0718526     -7.30487    338.21835  0.025506663  0.025568235            3 
 1106000    1.0772593    -7.267669    339.42287  0.025574357   0.02556105            4 
 1107000    1.0774107   -7.3297698    338.93644  0.025514637  0.025553801            2 
 1108000    1.0948304   -7.2779715    339.48162  0.025532613  0.025546615            5 
 1109000    1.0772202   -7.3136974    340.22972  0.025565804  0.025539401            3 
 1110000    1.0714732   -7.3137319    340.33192  0.025550444  0.025532239            2 
 1111000    1.0890239   -7.3503641    340.21898  0.025518975  0.025525059            3 
 1112000    1.0625854   -7.2947966    339.71915  0.025458569  0.025517893            5 
 1113000    1.0520749   -7.2796186    341.23328  0.025549063  0.025510838            3 
 1114000    1.0565896    -7.326134    341.50866  0.025546728  0.025503912            4 
 1115000    1.0830242   -7.3381501    341.11308  0.025494251  0.025496889            5 
 1116000    1.0860075   -7.2973557    341.37697  0.025491112   0.02548982            3 
 1117000    1.0690187   -7.3333992    341.26393  0.025459858   0.02548277            3 
 1118000    1.0777822   -7.3196864    341.70696  0.025470107  0.025475559            4 
 1119000    1.0736708   -7.3087895    343.45776   0.02557773  0.025468571            2 
 1120000    1.0730917   -7.3007195      342.879   0.02551183  0.025461738            2 
 1121000    1.0701256   -7.3360896    342.47586  0.025459103  0.025454654            3 
 1122000    1.0682232   -7.3666758    342.25089  0.025419704  0.025447357            5 
 1123000    1.0876547   -7.3399654    341.88139  0.025369649  0.025439935            4 
 1124000    1.0735496   -7.3509391    342.71367  0.025408783  0.025432492            5 
 1125000    1.0684031   -7.2850454    344.39964  0.025511084  0.025425175            2 
 1126000    1.0873297   -7.3427907    343.63066  0.025431517  0.025417933            6 
 1127000    1.0774778    -7.326076    343.48843  0.025398435  0.025410809            4 
 1128000    1.0678544   -7.2953539    344.45378  0.025447236  0.025403884            5 
 1129000    1.0754566   -7.2848502    345.08423   0.02547123  0.025396998            4 
 1130000    1.0712711   -7.3356971    344.85647  0.025431893  0.025390051            7 
 1131000    1.0456644   -7.3126224    344.44061  0.025378766  0.025383128            2 
 1132000    1.0748355    -7.284389    346.15734  0.025482725  0.025376305            2 
 1133000    1.0812997   -7.3261522    345.61389  0.025420263  0.025369298            3 
 1134000    1.0647316   -7.3309928    346.09053  0.025432872  0.025362289            3 
 1135000     1.059026   -7.2983977    346.59297  0.025447354  0.025355513            3 
 1136000    1.0649226   -7.3465822    345.85373  0.025370725  0.025348572            4 
 1137000     1.070724   -7.2942917    346.01516  0.025360244  0.025341717            2 
 1138000    1.0600276    -7.329291    346.04844  0.025340395  0.025334872            6 
 1139000    1.0596844   -7.3304834     346.7958  0.025372827  0.025328125            5 
 1140000    1.0757787   -7.3134635    347.49498   0.02540168  0.025321087            6 
 1141000    1.0688246   -7.3397574    346.05444  0.025274207  0.025314116            3 
 1142000    1.0458835   -7.3377212    347.32612  0.025344872  0.025307028            4 
 1143000    1.0419248   -7.3039288    348.73421  0.025425358  0.025299993            4 
 1144000    1.0771993   -7.3162775    348.44002  0.025381703  0.025293299            3 
 1145000     1.061846   -7.3102742    348.87229  0.025390996  0.025286599            4 
 1146000    1.0695182   -7.2940312    349.27413  0.025398061  0.025280047            3 
 1147000    1.0689818   -7.2901753    349.12192  0.025364859  0.025273513            4 
 1148000    1.0622282   -7.3099351    350.24475   0.02542427  0.025267075            2 
 1149000    1.0936343   -7.3105029    350.31213   0.02540703  0.025260673            7 
 1150000    1.0814802   -7.3474684     350.3492  0.025387623  0.025254219            5 
 1151000    1.0629242   -7.3261142     349.7166  0.025319766  0.025247793            5 
 1152000    1.0815901   -7.3261327    351.09134  0.025397232  0.025241377            4 
 1153000    1.0692777   -7.3418368    351.44216  0.025400561  0.025234946            2 
 1154000     1.066813   -7.3422833    350.94036  0.025342313  0.025228303            2 
 1155000    1.0808838   -7.3464656    350.57367  0.025293916  0.025221732            4 
 1156000    1.0677393   -7.3034338    352.47307  0.025408958  0.025215204            7 
 1157000    1.0724974   -7.3200255    352.66838  0.025401064  0.025208881            2 
 1158000    1.0523479   -7.2979591    352.65811   0.02537839  0.025202577            4 
 1159000    1.0806389   -7.3036556    352.98353  0.025379892  0.025196148            4 
 1160000    1.0524944   -7.2737873    352.65679  0.025334539  0.025189902            3 
 1161000    1.0814514   -7.3458113    351.93695   0.02526105  0.025183468            8 
 1162000    1.0752615   -7.3384799    352.47821  0.025278128  0.025177049            2 
 1163000    1.0497488   -7.3292544    352.73018  0.025274447  0.025170511            9 
 1164000    1.0862364   -7.3262803    353.10112   0.02527929  0.025164005            7 
 1165000    1.0522136   -7.3854086    353.02189  0.025251924  0.025157543            2 
 1166000    1.0514566   -7.3338759    354.73472  0.025352681  0.025150823            4 
 1167000    1.0801512     -7.32828    354.18298  0.025291558  0.025144242            3 
 1168000    1.0827389   -7.3373494    354.66066  0.025303985  0.025137663            2 
 1169000    1.0405846     -7.30137    354.38745  0.025262863  0.025131185            2 
 1170000    1.0947444   -7.3510752    354.71658  0.025264714  0.025124726            3 
 1171000    1.0714915   -7.3301142    355.60489  0.025306354  0.025118267            4 
 1172000    1.0597869   -7.3161777    356.25339  0.025330873  0.025111863            4 
 1173000    1.0574391   -7.3286301    355.84086   0.02527997  0.025105605            6 
 1174000    1.0663138   -7.3039816    356.13752  0.025279495  0.025099332            4 
 1175000    1.0708082   -7.3599426    356.44742  0.025279959  0.025092987           10 
 1176000    1.0728029   -7.3595635    356.52398  0.025263887  0.025086664            3 
 1177000    1.0748489   -7.3316345    356.60602  0.025248232  0.025080387           10 
 1178000     1.062538   -7.3502221    355.77626    0.0251681  0.025074225            2 
 1179000    1.0573453   -7.3171278    358.40017  0.025332214  0.025068082            3 
 1180000    1.0669583   -7.3627615    356.73087  0.025192858  0.025061659            3 
 1181000    1.0506902    -7.347241    357.96987  0.025258952  0.025055354            3 
 1182000    1.0611596   -7.3544073    357.73413  0.025220962  0.025049135            3 
 1183000    1.0781494   -7.3303135    358.16481  0.025229981  0.025042893            6 
 1184000    1.0619855   -7.3473722    357.97802  0.025195525  0.025036537            5 
 1185000    1.0491039   -7.3336783    359.00886  0.025246756  0.025030272            2 
 1186000    1.0771492   -7.3111936    359.88228  0.025286838  0.025024089            2 
 1187000    1.0663734   -7.3202814    359.12272   0.02521221   0.02501785            4 
 1188000     1.060687   -7.3515308    358.35002  0.025136786  0.025011584            6 
 1189000    1.0662937   -7.3312783    358.89388  0.025153762  0.025005414            5 
 1190000    1.0661436    -7.328344     358.3591  0.025095175  0.024999282            3 
 1191000    1.0509414   -7.3159181      359.471  0.025151903  0.024993045            3 
 1192000     1.082801   -7.3025559    361.12578  0.025246489  0.024986891            4 
 1193000    1.0792115   -7.3099455    358.47771  0.025040354  0.024980683            1 
 1194000     1.049175   -7.2715444    361.52895  0.025232339  0.024974391            1 
 1195000    1.0608767   -7.3214172    361.31571  0.025196354  0.024968389            3 
 1196000    1.0593024   -7.3462468    360.62359  0.025127061  0.024962085            4 
 1197000    1.0647175   -7.4060456    359.69498  0.025041422  0.024955524            3 
 1198000    1.0695153   -7.3112211    360.95027  0.025107837  0.024948889            4 
 1199000    1.0603807   -7.3572386    360.40744  0.025049168  0.024942302            1 
 1200000    1.0598929   -7.3146225    362.50804  0.025174169  0.024935722            4 
 1201000    1.0513019   -7.3352195    360.32149  0.025001491  0.024929413            3 
 1202000    1.0650581   -7.3367184    361.99628  0.025096803  0.024922952            8 
 1203000    1.0484804    -7.353301    361.73546  0.025057873  0.024916666            5 
 1204000    1.0457292   -7.3713812    361.27468  0.025005169  0.024910233            3 
 1205000    1.0780808   -7.3867505    362.34099   0.02505816  0.024903861            5 
 1206000    1.0580595   -7.3795448    362.01441  0.025014816  0.024897277            3 
 1207000    1.0503253   -7.2809068    363.81587  0.025118467  0.024891045            6 
 1208000    1.0520782   -7.3185575    363.84367  0.025099591  0.024884932            2 
 1209000    1.0335414   -7.3447366    363.54953  0.025058556  0.024878636            2 
 1210000    1.0544441   -7.2546394    365.88237   0.02519851  0.024872547            3 
 1211000    1.0745982   -7.3434833    364.29448  0.025068434  0.024866374            4 
 1212000    1.0673737   -7.3407781    363.96383  0.025025016  0.024860159            4 
 1213000      1.07202   -7.3176044    365.08808  0.025081622  0.024853833            6 
 1214000    1.0702698   -7.3591484    364.14898  0.024996498  0.024847481            3 
 1215000    1.0657146    -7.284949    364.54088  0.025002804  0.024841095            2 
 1216000    1.1006061   -7.3203713    365.13764  0.025023139  0.024834748            2 
 1217000    1.0636762   -7.3300481    365.16708  0.025004593  0.024828412            1 
 1218000    1.0474117   -7.3625838    365.58851  0.025012897  0.024822108            5 
 1219000    1.0286688   -7.3445689    366.18619  0.025033237  0.024815819            4 
 1220000    1.0653811   -7.3476077    366.17972  0.025012276  0.024809457            3 
 1221000    1.0742918   -7.3324345    364.40678  0.024870788  0.024803013            3 
 1222000    1.0597571   -7.3215819    365.54739  0.024928218  0.024796532            4 
 1223000     1.046469   -7.3525012    365.96223  0.024936102  0.024789782            2 
 1224000    1.0611125   -7.3352733    365.26406  0.024868196  0.024783221            2 
 1225000    1.0590975   -7.3092126    367.67348  0.025011801  0.024776669            3 
 1226000    1.0733284   -7.3133816    366.25903  0.024895257  0.024770253            6 
 1227000    1.0631322   -7.3215315    366.89394  0.024918089  0.024763762            2 
 1228000    1.0541589   -7.3132675     366.5077  0.024871587  0.024757252            4 
 1229000    1.0671872   -7.3798361    366.88859  0.024877176  0.024750608            2 
 1230000    1.0580946    -7.369637    367.26439  0.024882411  0.024743889            7 
 1231000     1.045452   -7.3611336    367.98564  0.024911024   0.02473741            4 
 1232000    1.0388246   -7.3710741    368.18836  0.024904516  0.024730885            2 
 1233000    1.0650206   -7.3284038    367.93714  0.024867338  0.024724241            4 
 1234000    1.0578431   -7.3566952    366.91177  0.024777942  0.024717723            2 
 1235000    1.0500564   -7.3424597    368.63727   0.02487431  0.024711273            2 
 1236000    1.0750053   -7.3884383    367.76594  0.024795438  0.024704806            6 
 1237000    1.0501808   -7.3258033     369.5868   0.02489806   0.02469849            2 
 1238000    1.0458184   -7.3467061    370.10227  0.024912646  0.024692259            5 
 1239000    1.0293635   -7.3179552    370.80303  0.024939671  0.024685913            2 
 1240000    1.0687141   -7.3792128    369.54846  0.024835246  0.024679578            3 
 1241000    1.0310322   -7.3546335    369.90255  0.024839011  0.024673177            3 
 1242000    1.0562759    -7.379962    370.26772  0.024843513  0.024666798            4 
 1243000    1.0504058    -7.325459    371.62736  0.024914679  0.024660581            2 
 1244000    1.0774262   -7.4062043    369.89998  0.024778937  0.024654374            3 
 1245000    1.0557405   -7.3956025    370.96027  0.024830004  0.024648195            5 
 1246000    1.0434303   -7.3644408    371.58654  0.024851962  0.024642051            2 
 1247000    1.0588665   -7.3187293    372.30525  0.024880062  0.024635869            6 
 1248000    1.0732754   -7.3696489    371.63132  0.024815126  0.024629731            3 
 1249000    1.0779504   -7.3071075    373.61348  0.024927507  0.024623481            2 
 1250000    1.0484049   -7.3654134    372.68134  0.024845423  0.024617439            5 
 1251000    1.0572361    -7.355417    372.43214  0.024808962  0.024611413            4 
 1252000    1.0456664   -7.3503196    373.03151  0.024829041  0.024605258            2 
 1253000      1.06453   -7.3443258      373.145  0.024816773  0.024599173            4 
 1254000    1.0486848   -7.3763639    372.26846  0.024738734  0.024592924            4 
 1255000    1.0531824   -7.3594985    373.25915  0.024784804  0.024586878            3 
 1256000    1.0443678    -7.379924    373.48009   0.02477973  0.024580776            4 
 1257000    1.0454109   -7.3732173    373.77365  0.024779478   0.02457479            3 
 1258000    1.0648565   -7.3397026    374.46264  0.024805421  0.024568961            2 
 1259000     1.078381   -7.3672505    375.00306  0.024821489   0.02456295            3 
 1260000    1.0384966   -7.4030386    373.50723  0.024702859  0.024556837            4 
 1261000    1.0442896   -7.3199077    375.87282  0.024839599  0.024550748            3 
 1262000    1.0693614   -7.3295443    375.88937   0.02482101  0.024544661            4 
 1263000    1.0293047   -7.3755444    374.48067  0.024708411   0.02453851            4 
 1264000    1.0621804   -7.3459118     375.6777  0.024767781  0.024532511            3 
 1265000     1.054992   -7.3761552    375.25931   0.02472064  0.024526317            5 
 1266000    1.0610713   -7.3519531    375.65537  0.024727183  0.024520219            6 
 1267000    1.0399339   -7.3726106    375.86133  0.024721214   0.02451408            3 
 1268000    1.0471174   -7.3754566    376.77801  0.024761962  0.024507926            4 
 1269000    1.0482058   -7.3079576    377.12087  0.024764964  0.024502031            3 
 1270000    1.0569945   -7.3475842    377.73115  0.024785508  0.024496142            3 
 1271000    1.0354444   -7.4023505    376.25976  0.024669536  0.024490036            5 
 1272000    1.0486729   -7.3708736    376.94539  0.024695059  0.024483881            3 
 1273000    1.0514831   -7.3739816    377.35146  0.024702243    0.0244778            3 
 1274000    1.0711995   -7.4082489    377.07311  0.024664646  0.024471718            2 
 1275000    1.0315689    -7.375379    377.70305  0.024686474  0.024465697            2 
 1276000    1.0344427   -7.4137664    377.12577  0.024629426  0.024459597            2 
 1277000    1.0459364   -7.3939217    377.39026  0.024627399  0.024453555            4 
 1278000    1.0567153   -7.3990918    377.32207  0.024603682  0.024447554            3 
 1279000    1.0639806   -7.3657988    378.87852  0.024685856   0.02444149            5 
 1280000    1.0367455   -7.3939741     378.3899  0.024634759  0.024435445            2 
 1281000    1.0545975   -7.3725105    377.89731  0.024583484  0.024429362            5 
 1282000    1.0475258   -7.3787321    378.96117  0.024633461   0.02442328            9 
 1283000    1.0576448   -7.3853781    378.57147   0.02458895  0.024417117            3 
 1284000    1.0370325   -7.3719376    379.56902  0.024634542  0.024411072            3 
 1285000    1.0503967   -7.3608152    380.09457  0.024649454  0.024405098            2 
 1286000     1.027498   -7.3599087    379.48609  0.024590856  0.024399021            6 
 1287000    1.0225772   -7.3962439    379.62353  0.024580648  0.024392982            4 
 1288000     1.027352   -7.3987327    379.66355  0.024564153  0.024386831            1 
 1289000    1.0892328   -7.3618256    379.54986  0.024537746  0.024380809            3 
 1290000    1.0414255   -7.3512568    380.18046  0.024559461  0.024374736            4 
 1291000    1.0433867   -7.3583333    381.01086   0.02459404  0.024368672            3 
 1292000    1.0442012   -7.3671784    381.27126  0.024591799   0.02436247            6 
 1293000    1.0597217   -7.4079891    380.01292  0.024491681  0.024356193            5 
 1294000    1.0509789   -7.3800235    380.21833  0.024485982  0.024349758            8 
 1295000    1.0650681   -7.4108667     381.3112    0.0245374  0.024343477            4 
 1296000    1.0286783   -7.3937193    380.93867  0.024494513  0.024337026            4 
 1297000    1.0309917   -7.3844608    380.98086  0.024478338  0.024330722           10 
 1298000    1.0602565   -7.3921965    380.86378  0.024451963  0.024324314            2 
 1299000    1.0459553   -7.3879639    381.19734  0.024454538  0.024318022            4 
 1300000    1.0406424   -7.3047997    383.97204  0.024613593  0.024311755            3 
 1301000    1.0358253   -7.3580352    382.87502  0.024524406  0.024305535            2 
 1302000    1.0612724   -7.4201747    381.95908  0.024446946  0.024299147            3 
 1303000    1.0379682   -7.4191478    381.50873  0.024399382  0.024292695            4 
 1304000    1.0386577    -7.387231    382.79606  0.024462939  0.024286345            2 
 1305000    1.0345823   -7.3920686    382.01936  0.024394595  0.024279974            7 
 1306000    1.0602289   -7.3503401    383.28031  0.024456375  0.024273725            2 
 1307000    1.0260318   -7.3968964    382.88027  0.024412157  0.024267501            2 
 1308000    1.0527634   -7.3754937    383.67959  0.024444418  0.024261307            2 
 1309000    1.0430035   -7.4154111    383.48315  0.024413238  0.024255021            3 
 1310000    1.0548623    -7.395076    383.72903  0.024410243  0.024248724            6 
 1311000     1.057493   -7.3622717    384.83626  0.024462005   0.02424252            5 
 1312000    1.0701147   -7.3932485    384.67735  0.024433267  0.024236292            3 
 1313000    1.0520741   -7.3606142    384.68116    0.0244149  0.024230036            3 
 1314000    1.0523232   -7.3727601    384.42052  0.024379789  0.024223947            2 
 1315000    1.0395211   -7.3785498    385.16379  0.024408352  0.024217697            5 
 1316000    1.0618595   -7.3835354    385.79132  0.024429541  0.024211617            3 
 1317000    1.0392731   -7.3919611    384.84217  0.024350934  0.024205466            5 
 1318000    1.0339537   -7.3769051    385.72955  0.024388566   0.02419926            3 
 1319000     1.063031   -7.3957533    385.25858   0.02434032  0.024193043            3 
 1320000    1.0186424   -7.3779138      386.763  0.024416856  0.024186808            4 
 1321000    1.0361932    -7.356946    387.32867  0.024434057  0.024180649            4 
 1322000    1.0318058   -7.4038111    386.02095  0.024333141  0.024174515            4 
 1323000    1.0267568    -7.414157    387.79001  0.024426178  0.024168503            5 
 1324000    1.0283872   -7.3504308    388.22808  0.024435302  0.024162435            6 
 1325000    1.0173854   -7.3688553     388.8754  0.024457572  0.024156433            9 
 1326000      1.02659   -7.4270608     388.8308  0.024436325  0.024150542            9 
 1327000    1.0438523   -7.4000555    388.46021  0.024394638  0.024144518            2 
 1328000    1.0392691   -7.4092555    389.58677  0.024446961  0.024138475            4 
 1329000    1.0307377   -7.3955683     389.9977  0.024454333  0.024132636            7 
 1330000    1.0394705    -7.397146    389.76336  0.024421263  0.024126926            8 
 1331000    1.0266989   -7.4043307    390.05572   0.02442122   0.02412118            8 
 1332000    1.0241803   -7.3747004    390.52503  0.024432247  0.024115421            4 
 1333000    1.0457121   -7.4324529    388.61479  0.024294498  0.024109585           12 
 1334000    1.0468238   -7.3737322    391.24755  0.024440751  0.024103787            3 
 1335000     1.058918   -7.4065895    390.51081  0.024376455  0.024098113            5 
 1336000    1.0137925   -7.4112603     390.2718  0.024343301  0.024092364            4 
 1337000    1.0528389   -7.4327229     390.5295  0.024341156  0.024086701            4 
 1338000    1.0312715   -7.4166091    390.14676  0.024299125  0.024080816            7 
 1339000    1.0497854   -7.3956014    391.70925   0.02437822  0.024075026            7 
 1340000     1.030893   -7.4085113    391.35881  0.024338234  0.024069311            5 
 1341000    1.0590987   -7.3667471    392.45932  0.024388474  0.024063689            4 
 1342000    1.0483702   -7.3951441    391.67477  0.024321583   0.02405799            4 
 1343000    1.0337371   -7.4267616    392.84885  0.024376325  0.024052284            4 
 1344000    1.0345084   -7.4035077    392.86898  0.024359435  0.024046574            4 
 1345000     1.031169   -7.3770508    393.01268  0.024350228   0.02404101            4 
 1346000     1.030072   -7.3606692    393.79153  0.024380357  0.024035291            9 
 1347000    1.0366777   -7.3897717    394.27627  0.024392246  0.024029766            6 
 1348000    1.0360493   -7.3661003    394.63782  0.024396502  0.024024338            2 
 1349000    1.0133755   -7.4537199    392.55529  0.024249771  0.024018768            7 
 1350000      1.03984   -7.4423786    392.93479  0.024255234  0.024013129            5 
 1351000    1.0405997   -7.4287492    393.02575  0.024242891  0.024007279            3 
 1352000    1.0724709    -7.378758     394.5733  0.024320346  0.024001508            5 
 1353000    1.0619394   -7.4289377    393.93958   0.02426334  0.023995833            3 
 1354000    1.0340428   -7.3943468    394.01315  0.024249948  0.023990237            6 
 1355000    1.0457489   -7.3803438    394.64688  0.024271026  0.023984267            5 
 1356000    1.0475435   -7.4257068    393.90904  0.024207783  0.023978337            5 
 1357000    1.0307187   -7.4402736    394.23519  0.024209972  0.023972375            6 
 1358000    1.0336908   -7.4551782    392.16556  0.024065142  0.023966517            4 
 1359000    1.0333931   -7.4328639    394.83199  0.024210939  0.023960503           14 
 1360000    1.0252912   -7.4214471    395.13696  0.024211824  0.023954644            5 
 1361000    1.0617739   -7.4119468    395.73229  0.024230486  0.023948639            6 
 1362000    1.0315284   -7.4125172    395.15129  0.024177147  0.023942735            5 
 1363000    1.0406346   -7.4386831     394.9134  0.024144864  0.023936793            3 
 1364000    1.0286242   -7.4167307    395.72777  0.024176917  0.023930843            4 
 1365000    1.0472023   -7.4331406    394.69452  0.024096124   0.02392487            5 
 1366000    1.0176833   -7.4185583    396.14348  0.024166879  0.023918893            3 
 1367000    1.0134632   -7.3737848    396.48592  0.024170075  0.023912973            2 
 1368000    1.0290184   -7.3967048    397.81911   0.02423362  0.023907096            4 
 1369000    1.0326005   -7.4565534    395.09449  0.024050067  0.023901203            7 
 1370000     1.043456    -7.381389    397.38301  0.024171716  0.023895281            3 
 1371000    1.0161478   -7.4322073    396.39865  0.024094253   0.02388939            3 
 1372000    1.0494142   -7.4100297    395.76725  0.024038341  0.023883444            2 
 1373000    1.0441126   -7.3940693    397.65719  0.024135542  0.023877483            7 
 1374000    1.0483083    -7.437532    395.93381  0.024013453  0.023871479            4 
 1375000    1.0391254   -7.4508021      396.385  0.024023333  0.023865405            7 
 1376000     1.036598   -7.4100203    398.72247  0.024147437  0.023859268            3 
 1377000    1.0387693   -7.3817237    399.38551  0.024170026   0.02385331            4 
 1378000    1.0246451   -7.4282577     398.0478  0.024071589  0.023847432            3 
 1379000    1.0391688   -7.4223984    397.18636  0.024002077   0.02384126            3 
 1380000    1.0567033   -7.3996427    396.77657  0.023959938   0.02383529            6 
 1381000    1.0269318   -7.4332445    398.65042  0.024055661   0.02382935            5 
 1382000    1.0372966   -7.4180652      398.427  0.024024783  0.023823254            7 
 1383000    1.0152282    -7.416707    398.66341  0.024021657  0.023817286            6 
 1384000    1.0453622   -7.4418352    398.90065  0.024018584  0.023811302            3 
 1385000    1.0318353   -7.3852583    399.82484   0.02405685  0.023805229            6 
 1386000    1.0485383   -7.4157617    399.92526   0.02404553  0.023799361            3 
 1387000    1.0445952   -7.4116369    399.07302   0.02397699  0.023793372            3 
 1388000    1.0393304   -7.4021196    400.36651  0.024037375  0.023787196            4 
 1389000    1.0318768   -7.4158067    398.82069  0.023927327  0.023780999            3 
 1390000    1.0514242   -7.4191137    399.48299  0.023949819  0.023774898            6 
 1391000    1.0524832   -7.4105608     400.2253  0.023977073  0.023768879            3 
 1392000    1.0264593   -7.3988683    401.29536  0.024023908  0.023762763            5 
 1393000    1.0232703   -7.4386162    400.75745  0.023974483  0.023756557            4 
 1394000    1.0453467   -7.3946552    400.91322  0.023966596  0.023750341            7 
 1395000    1.0091878   -7.4115296    401.03738  0.023956833  0.023744088            6 
 1396000    1.0204287   -7.4275705    400.37627  0.023900207  0.023737691            3 
 1397000     1.018223   -7.4496578    399.43376  0.023826877  0.023731167            5 
 1398000    1.0529309   -7.3885423    401.86861  0.023954972   0.02372485            2 
 1399000    1.0446586   -7.4014467    401.52527  0.023917398  0.023718664            1 
 1400000    1.0048377   -7.4007802    400.93048   0.02386491  0.023712489            3 
 1401000    1.0334914   -7.4319583    400.22801  0.023806092  0.023706184            6 
 1402000    1.0212226   -7.4006139    400.93268  0.023830996  0.023699938            7 
 1403000    1.0538092   -7.4444238    402.71694  0.023919989  0.023693653            3 
 1404000     1.007328   -7.4448414    400.91966  0.023796276  0.023687315            4 
 1405000    1.0224657    -7.352566    403.42704  0.023928057  0.023681089            4 
 1406000    1.0721284   -7.4153936    401.94196  0.023823018  0.023674969            4 
 1407000      1.01329   -7.3882481    402.57119  0.023843354  0.023668626            3 
 1408000    1.0181145   -7.4139291    401.70309  0.023775041  0.023662209            6 
 1409000    1.0510249   -7.3959242     401.5741  0.023750538  0.023655707            4 
 1410000    1.0406548   -7.4436745    401.91064  0.023753584  0.023649127            4 
 1411000    1.0229486    -7.470144    401.13164  0.023690741  0.023642508            8 
 1412000   0.99572516   -7.4307109    400.70394  0.023648722   0.02363575            3 
 1413000    1.0406157   -7.4383191    402.26994  0.023724342  0.023629013            6 
 1414000    1.0253709     -7.43381    402.96962  0.023748799  0.023622394            4 
 1415000    1.0481065   -7.4294086    403.13116  0.023741529  0.023615765            6 
 1416000    1.0366043   -7.4182349    404.06097  0.023779482  0.023609388            2 
 1417000    1.0316359   -7.4207579    404.19396  0.023770522  0.023603029            4 
 1418000    1.0073661   -7.4204553    402.04489  0.023627462  0.023596544            2 
 1419000    1.0393283   -7.4816042     403.1279  0.023674413  0.023590022            6 
 1420000    1.0220681   -7.4205984    404.88203  0.023760683  0.023583574            4 
 1421000    1.0265971   -7.4517004    404.75772  0.023736671  0.023577165            1 
 1422000    1.0340142   -7.4221446    404.99577  0.023733929  0.023570754            5 
 1423000    1.0041053   -7.4438516    405.14174  0.023725799  0.023564393            3 
 1424000    1.0254141   -7.5146426    403.71269  0.023625508  0.023557925            4 
 1425000    1.0065088    -7.461718    404.54907   0.02365784  0.023551397            4 
 1426000    1.0244769   -7.4160329    406.56206  0.023758886  0.023544871            4 
 1427000    1.0143419   -7.3991386    404.58685  0.023626889   0.02353842            4 
 1428000    1.0260254   -7.4248678    405.58297  0.023668474  0.023532049            4 
 1429000    1.0220243   -7.4610876    405.11643  0.023624704  0.023525563            3 
 1430000    1.0309857   -7.5068968     404.8116   0.02359042  0.023519004            1 
 1431000    1.0270618   -7.4496695    405.56271  0.023617674  0.023512373            4 
 1432000    1.0436467   -7.4755961    404.91279  0.023563361   0.02350565            2 
 1433000    1.0349963   -7.4583592    404.02793   0.02349546  0.023498925            5 
 1434000    1.0066338   -7.4698951    404.79041  0.023523385  0.023492215            8 
 1435000    1.0270327   -7.4162842     405.5502  0.023551115   0.02348542            2 
 1436000    1.0261841   -7.4182504    406.75483  0.023604621  0.023478803            3 
 1437000    1.0161123   -7.4410105    405.72631   0.02352855  0.023472025            2 
 1438000    1.0299621   -7.4607898    406.44626   0.02355391  0.023465245            4 
 1439000    1.0232558   -7.4451784    406.57747  0.023545139  0.023458483            5 
 1440000    1.0184921    -7.465725    405.97448  0.023493893  0.023451844           10 
 1441000    1.0489515   -7.4785003    406.16476  0.023488594  0.023445217            6 
 1442000    1.0145756   -7.4883065    405.09013  0.023410202  0.023438514            3 
 1443000    1.0122515   -7.4370348    406.69239  0.023486509  0.023431842            4 
 1444000   0.99796943   -7.4379401    406.82906  0.023478131  0.023425082            2 
 1445000     1.009984   -7.4745933    406.97532  0.023470318  0.023418288            8 
 1446000    1.0377707   -7.4103007    408.10208  0.023519023  0.023411547            2 
 1447000    1.0124865    -7.457709    406.08718   0.02338673  0.023404835            2 
 1448000    1.0423378   -7.4452196    407.69982  0.023463387  0.023398149            3 
 1449000    1.0127194   -7.4296322     408.0996  0.023470186   0.02339146            7 
 1450000    1.0475877   -7.4604517    407.63677  0.023427401  0.023384692            6 
 1451000    1.0106103    -7.475126    407.46932  0.023401638  0.023377897            2 
 1452000    1.0057618    -7.479632    407.29881  0.023375735  0.023371076            2 
 1453000    1.0002152   -7.5255513    407.97885  0.023398649  0.023364198            3 
 1454000    1.0154281   -7.4959881     407.6496  0.023363687  0.023357233            6 
 1455000   0.99964462   -7.4954357    407.51109  0.023339696  0.023350365            4 
 1456000    1.0141765   -7.4559706     407.9907  0.023351116  0.023343462            3 
 1457000    1.0362565   -7.4999959    408.32819  0.023354392  0.023336657            3 
 1458000    1.0114227   -7.4538917    410.23216  0.023447197  0.023329836            6 
 1459000    1.0326605    -7.458869    409.88128  0.023411085  0.023323193            3 
 1460000    1.0385046   -7.4312562    411.54349  0.023489925  0.023316584            5 
 1461000    1.0435716   -7.4417423    409.94715  0.023382794  0.023309974            3 
 1462000    1.0043166   -7.4589491    408.58754  0.023289303  0.023303337            5 
 1463000    1.0041527    -7.475408    410.06697  0.023357654  0.023296555            5 
 1464000    1.0158679   -7.4900879    408.70728  0.023264303  0.023289801            4 
 1465000    1.0101718   -7.4775412    409.46986  0.023291801  0.023282997            2 
 1466000    1.0203563   -7.4556178    410.92361   0.02335855   0.02327624            4 
 1467000    1.0284446    -7.477496    410.59258  0.023323823  0.023269585            6 
 1468000    1.0088851   -7.4189028    410.12174  0.023281207  0.023262977            4 
 1469000    1.0062321    -7.484603    411.19613  0.023326306  0.023256291            6 
 1470000   0.99824275   -7.4450291    410.42462  0.023266702  0.023249524            4 
 1471000    1.0103229   -7.4567104    411.77436  0.023327349   0.02324294            7 
 1472000   0.99525735   -7.4295519    412.05871  0.023327599  0.023236234            3 
 1473000   0.99212612    -7.441235    411.48835  0.023279495  0.023229571            3 
 1474000    1.0069075   -7.4958065    411.18651  0.023246637  0.023222847            7 
 1475000    1.0078229    -7.480097    411.90448   0.02327144  0.023216158            7 
 1476000    1.0231325   -7.5189985    411.60968  0.023239029  0.023209382            5 
 1477000    1.0155489   -7.4630484    411.56684  0.023220878   0.02320265            2 
 1478000   0.99677792   -7.4742871    413.14393  0.023294087  0.023196061            5 
 1479000     1.035585   -7.4926092    412.81513  0.023259811  0.023189422           11 
 1480000    1.0266117   -7.4438941    412.86635  0.023246979  0.023182758            7 
 1481000    1.0070457   -7.4481657    412.41196  0.023205715  0.023176202            4 
 1482000     1.025829   -7.4735556    413.61924  0.023257942  0.023169531            3 
 1483000    1.0123445   -7.4352964    412.67317  0.023189097  0.023162855            3 
 1484000    1.0372379   -7.4474057    412.66299  0.023172899  0.023156167            4 
 1485000    1.0388878    -7.490109    413.13114  0.023183566  0.023149417            3 
 1486000    1.0214531   -7.4345209    413.66447  0.023197873  0.023142633            4 
 1487000     1.033725   -7.5369801    412.38585  0.023110617  0.023135784           11 
 1488000    1.0277328   -7.4801957    413.27054  0.023144632  0.023128999            4 
 1489000    1.0044975   -7.4913126    413.41249  0.023137032  0.023122163            6 
 1490000     1.029684   -7.4870206    414.36546  0.023174802  0.023115384           15 
 1491000    1.0053084   -7.5000739    412.79479  0.023071473  0.023108643            4 
 1492000    1.0288529      -7.4935    413.60748  0.023101401  0.023101827            5 
 1493000    1.0037465   -7.4957753    414.16682  0.023117148  0.023094903            5 
 1494000    1.0056704   -7.4886362    413.08082  0.023041099  0.023088138            8 
 1495000    1.0291542   -7.4137233    415.46395  0.023158525   0.02308142            3 
 1496000     1.016386   -7.4763027    414.97554  0.023115839  0.023074592            4 
 1497000    1.0101556   -7.4219637    416.68984  0.023195827   0.02306786            4 
 1498000    1.0187083   -7.3961047    416.33311  0.023160498  0.023061339            6 
 1499000    1.0312031   -7.4846841    414.25933   0.02302976  0.023054517            5 
 1500000     1.011463   -7.4890915    414.76692  0.023042607  0.023047627            4 
 1501000     1.004786   -7.4487827    415.54592  0.023070504  0.023040846            5 
 1502000    1.0031062   -7.4887837    415.60689  0.023058527  0.023034008            4 
 1503000    1.0306507    -7.431388    416.72304   0.02310507  0.023027151            4 
 1504000    1.0031665   -7.4697643    417.00299  0.023105219  0.023020383            5 
 1505000     1.002504   -7.4515764      416.576  0.023066224  0.023013554            4 
 1506000    1.0072846   -7.4760365    415.90302  0.023013669  0.023006672            5 
 1507000    1.0068169   -7.4794571    415.45392  0.022973564  0.022999829            6 
 1508000       1.0085   -7.5051099    416.69076  0.023026678  0.022992974           10 
 1509000    1.0159802   -7.4868643    415.92538  0.022969151  0.022986138            4 
 1510000    1.0114838    -7.458667    416.57717   0.02298991  0.022979396            3 
 1511000   0.97759467   -7.4795769    417.21989  0.023010142  0.022972553            2 
 1512000    1.0023848   -7.5267285    415.61531  0.022906487   0.02296561            8 
 1513000    1.0115914   -7.4785884    416.51453  0.022940875  0.022958617            2 
 1514000    1.0071447   -7.4767022     417.3943  0.022974147  0.022951576            3 
 1515000   0.99598043   -7.4793008    417.93883  0.022988934  0.022944632            7 
 1516000    1.0138112   -7.5134512    417.06352  0.022925655  0.022937812            7 
 1517000    1.0091357   -7.5027393    416.69267  0.022890171  0.022930856            6 
 1518000    0.9904651   -7.5012497    417.57944  0.022923772  0.022924005            2 
 1519000    1.0055796   -7.4282816     418.7739   0.02297421  0.022917125            6 
 1520000    1.0242563   -7.4772657    419.41636  0.022994318  0.022910367            3 
 1521000    1.0262887   -7.5221748     417.6363  0.022881673  0.022903517            4 
 1522000    1.0297468   -7.5126865      418.021  0.022887703  0.022896681            6 
 1523000    1.0126789    -7.478934    419.10975  0.022932247  0.022889943            6 
 1524000    1.0253136   -7.4529865    420.10689  0.022971724  0.022883315            3 
 1525000   0.99784969   -7.5024091    420.67918  0.022987933  0.022876548            5 
 1526000    1.0089941   -7.4891869    419.98041   0.02293471  0.022869789           11 
 1527000     1.011235   -7.5024871     418.8141  0.022856041  0.022862956            8 
 1528000    1.0206425   -7.4790541    419.13813  0.022858755  0.022856181            8 
 1529000    1.0071671   -7.4717005    419.74397  0.022876824   0.02284932            4 
 1530000    1.0119167   -7.4443754     420.1027   0.02288141  0.022842489           11 
 1531000    1.0144396   -7.4644019    418.92242  0.022802222  0.022835699            4 
 1532000    1.0079994   -7.4261865     420.7442  0.022886434  0.022828819            3 
 1533000    0.9972452   -7.4867442    419.54064   0.02280608  0.022821987            6 
 1534000    1.0169644   -7.5058278    420.63622  0.022850729  0.022815141            5 
 1535000    1.0179301   -7.5070691    421.39419  0.022876992  0.022808438            3 
 1536000    0.9947183   -7.4640629    421.29784  0.022856871  0.022801639            4 
 1537000     1.002043   -7.4616122    422.39999  0.022901756  0.022794907            9 
 1538000   0.97302942   -7.4793764     421.1876  0.022821175  0.022788111            4 
 1539000    1.0293415   -7.4949913    422.05285  0.022853198  0.022781234            3 
 1540000    1.0038811   -7.4487804    421.95347   0.02283298  0.022774352            6 
 1541000    1.0061784   -7.4467242    422.51264  0.022848402  0.022767648            2 
 1542000    1.0084992    -7.501318    420.01185  0.022698436  0.022760889            5 
 1543000    1.0119309   -7.4538593     422.0279  0.022792606  0.022753997            3 
 1544000   0.98887603   -7.4842513    422.89246  0.022824507  0.022747109            2 
 1545000    1.0094888   -7.4605159    422.13152  0.022768691  0.022740257            4 
 1546000    1.0047915   -7.5086337    422.02855  0.022748413   0.02273345           11 
 1547000    1.0094911   -7.4880281    422.07989  0.022736473  0.022726586            5 
 1548000    1.0021969   -7.5153691    421.15768   0.02267214  0.022719664            9 
 1549000   0.98853017   -7.5185818    421.71813  0.022687655   0.02271263            4 
 1550000   0.99622231   -7.5567292    421.17311  0.022643716  0.022705592            4 
 1551000    1.0309033   -7.4686362    423.78073  0.022769221  0.022698685            3 
 1552000   0.98203401   -7.4768449    424.13984  0.022773832  0.022691823            1 
 1553000    1.0103222   -7.5436941    422.18167  0.022654092  0.022684792            3 
 1554000   0.99027385    -7.513951    423.55988  0.022713421  0.022677733            2 
 1555000    1.0070102   -7.4824084    423.72623   0.02270773   0.02267087            4 
 1556000    1.0310849   -7.5480811    423.25278   0.02266778  0.022663944            5 
 1557000    1.0040825   -7.4901147    423.45144  0.022663853  0.022656983            3 
 1558000     1.013684   -7.4915898    422.81292  0.022615154   0.02265001            4 
 1559000   0.99188481   -7.5085836    422.69809   0.02259451  0.022642996            2 
 1560000    1.0021361   -7.4726689    423.87238  0.022642755  0.022636033            2 
 1561000    1.0004493   -7.4979056    423.45192  0.022605804  0.022629058            6 
 1562000    1.0105232   -7.4904019    422.59572  0.022545653  0.022622015            6 
 1563000   0.99827346   -7.4983883    423.89648   0.02260058  0.022615005            4 
 1564000    1.0153468   -7.4769966    423.39878  0.022559611  0.022607979            5 
 1565000    1.0189921   -7.5098915    423.83473  0.022568409  0.022600903            3 
 1566000   0.98771795   -7.5015794    424.49177  0.022588962  0.022593821            4 
 1567000   0.99971557   -7.5219115    424.01617  0.022549254  0.022586879            5 
 1568000   0.98694795    -7.539908     423.1308  0.022487819  0.022579841            3 
 1569000   0.99491993   -7.5384724    424.02913  0.022521199  0.022572709            3 
 1570000    1.0016961   -7.5001403    424.96347  0.022556447  0.022565773            2 
 1571000    1.0131556   -7.4986984     425.2657  0.022558121  0.022558747            4 
 1572000    1.0021779   -7.4823574    425.65889  0.022564615  0.022551774            5 
 1573000   0.99230655     -7.52169    424.18727  0.022472307  0.022544822            6 
 1574000   0.99223331   -7.5191011    425.01038  0.022501608  0.022537832            3 
 1575000   0.98071564   -7.4965627    426.35605  0.022558521  0.022530842            3 
 1576000   0.99422338   -7.4933712    425.24687  0.022485558  0.022523918            6 
 1577000    1.0034216   -7.5201663    425.69629  0.022495048  0.022516887            3 
 1578000    1.0074697   -7.5126982    427.33409  0.022567284  0.022510014            5 
 1579000    1.0090873   -7.5480099    425.52811  0.022457679  0.022503156            5 
 1580000     1.013248   -7.5102177    426.53077  0.022496348  0.022496208            8 
 1581000    0.9903921   -7.5417917    426.54486  0.022482862  0.022489296            5 
 1582000   0.98746143   -7.5039176    427.23305  0.022504902  0.022482415            8 
 1583000   0.98739313   -7.5049149     427.3854  0.022498705  0.022475587            7 
 1584000   0.98191973   -7.5173968     427.2058  0.022475053  0.022468689            2 
 1585000    1.0237611   -7.5366256    427.01678  0.022450935  0.022461751            4 
 1586000     1.015146   -7.5162123    427.48511  0.022461387  0.022454924            6 
 1587000    1.0002184   -7.5439762    427.36774   0.02244107  0.022448083            4 
 1588000   0.98458248    -7.566981    428.44063  0.022483241  0.022441161            6 
 1589000    1.0197808   -7.5618036    427.50649  0.022420101  0.022434217            8 
 1590000    1.0031355   -7.5104001    428.69731  0.022468413  0.022427364            8 
 1591000    1.0115472   -7.5240349    428.16945  0.022426642   0.02242063            2 
 1592000    1.0073379   -7.5291778    429.29561  0.022471504  0.022413875            7 
 1593000    1.0029083   -7.5071742    430.21461  0.022505472  0.022407123            4 
 1594000   0.97705516   -7.5501788    429.35806  0.022446573  0.022400339            5 
 1595000    1.0179431   -7.5186181     430.2582   0.02247953  0.022393502            4 
 1596000    1.0013296   -7.4803357    430.74859   0.02249105  0.022386698            4 
 1597000    1.0361073   -7.5325415    429.00408  0.022385936  0.022379945            8 
 1598000     1.004454   -7.5158504    428.97894  0.022370617   0.02237313            4 
 1599000   0.99615969   -7.5388099    428.51317  0.022332352  0.022366181            3 
 1600000   0.99113441   -7.5250896     429.4388  0.022366604  0.022359375            4 
 1601000   0.99853286   -7.4616089    431.06116  0.022437079   0.02235258            6 
 1602000    1.0014309   -7.5088051    430.80559  0.022409779  0.022345865            3 
 1603000   0.99570288   -7.5214848    429.69732  0.022338185  0.022339096            4 
 1604000   0.99094106    -7.561018    429.42721  0.022310225  0.022332286            3 
 1605000    1.0057109   -7.4953652    431.61154  0.022409737  0.022325479            7 
 1606000    1.0381084   -7.5323839    430.68849  0.022347888  0.022318701            3 
 1607000    1.0021896   -7.4919746    430.48965   0.02232367  0.022311939            4 
 1608000    1.0037345   -7.4821921    431.00196  0.022336337  0.022305084            2 
 1609000    1.0068583   -7.4963473     430.9677   0.02232068  0.022298428            6 
 1610000    1.0096377   -7.5101509    430.61476  0.022288549  0.022291644            2 
 1611000   0.98646823   -7.5312464    431.29942  0.022310129  0.022284757            4 
 1612000    1.0115547   -7.5108299    431.12185   0.02228711   0.02227778            3 
 1613000   0.99211258   -7.5323085    432.16191  0.022327026  0.022270862           11 
 1614000    1.0146564    -7.536281    432.55912  0.022333701  0.022264107            7 
 1615000    0.9935298   -7.5340909    431.89047   0.02228537  0.022257323           12 
 1616000   0.97523553    -7.523412    432.10238  0.022282507   0.02225054            6 
 1617000   0.97457136   -7.5095942    432.62362  0.022295589   0.02224381            3 
 1618000   0.99211448   -7.5470919     433.0109  0.022301756  0.022236998            2 
 1619000    1.0054013   -7.5432014    432.88844  0.022281678  0.022230159            3 
 1620000   0.99652815   -7.5213158    432.57888     0.022252  0.022223333            5 
 1621000   0.97130962   -7.5467174    433.63304  0.022292466  0.022216564            3 
 1622000   0.99491275   -7.5160366    434.00451  0.022297807  0.022209766            3 
 1623000   0.99450394   -7.5221219    432.78157  0.022221276  0.022202997            5 
 1624000   0.99053313   -7.5421323    432.71723  0.022204292  0.022196093            6 
 1625000    0.9930982   -7.5583922    432.44768  0.022176804   0.02218913            6 
 1626000   0.97709854   -7.5556373    432.31748  0.022156492  0.022182279            2 
 1627000   0.99945201   -7.5686976    433.29814  0.022193103  0.022175278            5 
 1628000   0.99354899    -7.541078    433.03005  0.022165748  0.022168345            6 
 1629000    1.0186919   -7.5245434    433.22018  0.022161867  0.022161493            2 
 1630000   0.99702294   -7.5572125     433.9771  0.022186968  0.022154618            4 
 1631000   0.99596619   -7.5293943    434.18089  0.022183777  0.022147834            4 
 1632000   0.98669844   -7.5593551    435.45614  0.022235301   0.02214108            4 
 1633000   0.99625953   -7.5305608    434.25323    0.0221603  0.022134285            5 
 1634000    1.0046962   -7.5535575    434.82912  0.022176108  0.022127526            3 
 1635000   0.98470856   -7.5052838    435.02193  0.022172372  0.022120752            2 
 1636000   0.99373787   -7.5282116    436.08229  0.022212831  0.022114004            3 
 1637000   0.97360205   -7.5030102    435.60541  0.022174985   0.02210721            6 
 1638000    1.0008695   -7.5251992    435.51747  0.022156973  0.022100388            9 
 1639000     1.010397   -7.5489793    434.41017  0.022087155  0.022093583            5 
 1640000   0.97950777   -7.5487145      435.584  0.022133333  0.022086719            6 
 1641000   0.98720529   -7.5390013    435.98205   0.02214006  0.022079852            5 
 1642000   0.98716234   -7.5772243    433.89719  0.022020767  0.022073059            7 
 1643000   0.98802442   -7.5633135     434.8663  0.022056518  0.022066255            3 
 1644000   0.97793726   -7.5622176    435.51444  0.022075955  0.022059375            5 
 1645000   0.99982098   -7.5438502    435.14812  0.022043978  0.022052487            4 
 1646000   0.97426707   -7.5563859    436.99026  0.022123849  0.022045652            5 
 1647000   0.99461852   -7.5539479    435.92571  0.022056553  0.022038795           19 
 1648000   0.98463182   -7.5771012    435.94233  0.022044009  0.022031937            5 
 1649000   0.99143211   -7.5453172    436.91949  0.022080022  0.022025109            2 
 1650000     0.981247   -7.5377355    438.43926  0.022143397  0.022018343            4 
 1651000   0.97386617   -7.5357934     436.5807  0.022036175  0.022011692            5 
 1652000   0.99211612   -7.5059726    438.50037  0.022119671  0.022005039            3 
 1653000   0.99507474   -7.5610015    437.79908  0.022070935  0.021998305            4 
 1654000      0.98235   -7.5111813    439.23883  0.022130131  0.021991599            2 
 1655000   0.98550396   -7.5793184    437.92484  0.022050596  0.021984956            5 
 1656000    1.0005415   -7.5242325    438.46833   0.02206463  0.021978186            2 
 1657000    1.0040052   -7.5518862    437.57585   0.02200643  0.021971374            6 
 1658000   0.99384079   -7.5500464    437.63606  0.021996183   0.02196458            9 
 1659000   0.97853431   -7.5779754    438.13364  0.022007918  0.021957819            6 
 1660000   0.95050873    -7.531773    438.75579  0.022025893  0.021951069            7 
 1661000    0.9764221   -7.5422736    438.21183  0.021985342  0.021944422            3 
 1662000   0.99484828   -7.5929103    437.64911  0.021943898  0.021937685            5 
 1663000   0.99248679   -7.5664322    438.92923   0.02199485  0.021930937            3 
 1664000   0.95602566   -7.5835507    438.81922  0.021976123  0.021924147            2 
 1665000   0.97696524   -7.5487834    439.52044   0.02199802  0.021917465           18 
 1666000   0.97767998   -7.5535904    440.43322  0.022030473  0.021910751            9 
 1667000   0.97918158   -7.5769269    440.26201  0.022008699   0.02190407            4 
 1668000   0.98537308   -7.5921624    438.77771  0.021921349  0.021897419            6 
 1669000   0.98292124   -7.5809405    440.37031  0.021987733  0.021890735            5 
 1670000   0.99102996   -7.6051167    439.45798  0.021929041  0.021883942           10 
 1671000   0.96691057   -7.5575148    441.40924  0.022013227  0.021877241            5 
 1672000   0.99265433   -7.5324462     440.9733  0.021978334  0.021870641            8 
 1673000   0.97254618   -7.5527574    440.86973  0.021960039   0.02186406            7 
 1674000   0.99355493   -7.5341999    442.00763  0.022003566  0.021857485            3 
 1675000   0.95982901   -7.4904338    441.94221  0.021987175   0.02185099            4 
 1676000   0.97444891   -7.5625825    441.54887  0.021954498  0.021844463            7 
 1677000    1.0030122   -7.5578411     441.5778  0.021942844  0.021837925            3 
 1678000   0.97409479   -7.5627758    441.40656  0.021921263  0.021831396            3 
 1679000   0.99646843   -7.5669005    441.49606  0.021912649  0.021824826            3 
 1680000   0.97059381   -7.5638628    442.44515  0.021946684  0.021818263            2 
 1681000   0.98218473   -7.5362414    443.98855   0.02201014   0.02181159            2 
 1682000   0.98311449   -7.5792067    440.99912  0.021848946  0.021805012            5 
 1683000   0.97097351   -7.5587685    441.69278   0.02187031  0.021798355            8 
 1684000   0.97642995   -7.5563581    442.34691  0.021889693  0.021791729            8 
 1685000   0.97894675   -7.5417243    443.17491  0.021917651  0.021785057            5 
 1686000   0.98779238   -7.5667973    442.41193   0.02186694  0.021778369            4 
 1687000   0.99498404   -7.5364112    443.03729  0.021884869   0.02177164            5 
 1688000   0.98547485   -7.5281061    444.49958  0.021944095   0.02176503            7 
 1689000   0.99084299   -7.5340107    443.07124   0.02186063  0.021758502            5 
 1690000   0.97176104   -7.5423284    444.03449  0.021895192  0.021751958            5 
 1691000   0.98832884    -7.589229    442.73955  0.021818428   0.02174541            9 
 1692000    1.0088454   -7.5453156    443.04909  0.021820779  0.021738852           11 
 1693000   0.97936813   -7.5019323    444.16458  0.021862797  0.021732238            4 
 1694000    1.0012495   -7.5607308    442.62942  0.021774371  0.021725673           13 
 1695000   0.98792812   -7.5868324     442.2315  0.021741962  0.021718996            6 
 1696000   0.96333074    -7.568415    442.38176  0.021736525    0.0217123           21 
 1697000   0.97756631   -7.5628306    444.63249  0.021834241  0.021705649            4 
 1698000    0.9806612   -7.5431191    444.91966  0.021835476  0.021698938            3 
 1699000   0.99160723    -7.547049    444.67969  0.021810854  0.021692243            5 
 1700000   0.99411164   -7.5449987    443.51745  0.021741051  0.021685638           10 
 1701000   0.97536107   -7.5657422    443.53807   0.02172928  0.021679021            6 
 1702000   0.99281195   -7.5711561    443.28103  0.021703928  0.021672412            2 
 1703000   0.97620766   -7.5400686    445.53686  0.021801569  0.021665804            3 
 1704000   0.96577957   -7.4950815    444.65296  0.021745548  0.021659361            8 
 1705000   0.94694306   -7.5555662    444.60471  0.021730435  0.021652833            3 
 1706000   0.96870999   -7.5662912    445.46156  0.021759553  0.021646308            4 
 1707000   0.98099891   -7.5739389    445.80064  0.021763359  0.021639636            5 
 1708000   0.97409312   -7.5768943    444.96077  0.021709639  0.021632992            4 
 1709000   0.98101002   -7.5784892    444.97499  0.021697629  0.021626281            5 
 1710000   0.99463041   -7.5999298    444.71385  0.021672215  0.021619577            3 
 1711000   0.96555715   -7.5953466    445.89959  0.021717299  0.021612895            5 
 1712000   0.99167955   -7.5564605    446.22871  0.021720634  0.021606298            2 
 1713000   0.98193389   -7.5626927    445.42523  0.021668867   0.02159976            7 
 1714000   0.96628392   -7.5612335    446.62744  0.021714675   0.02159324            7 
 1715000   0.97805491   -7.5420152    447.84673   0.02176126  0.021586761            4 
 1716000   0.97704029   -7.5688954     447.3042  0.021722232  0.021580381            3 
 1717000    0.9993203   -7.5879076    445.78062  0.021635635  0.021573884            7 
 1718000   0.96454436   -7.5526534    447.36119  0.021699709  0.021567424            4 
 1719000   0.97456855   -7.5687005    447.90995  0.021713688  0.021561016            5 
 1720000   0.99131611   -7.5401455    447.91686  0.021701398   0.02155448            3 
 1721000   0.95880007   -7.5745506     445.6345  0.021578273  0.021547934            9 
 1722000   0.98753615   -7.6136882    446.09628  0.021588089  0.021541233            4 
 1723000   0.97367588   -7.5651457    447.28752  0.021633174  0.021534531            5 
 1724000   0.98846451   -7.5961004    446.17518  0.021566859  0.021527793            4 
 1725000   0.96817543   -7.6098062    446.37511  0.021564015  0.021521034            5 
 1726000   0.97897901    -7.569493    447.19211  0.021590967  0.021514397            4 
 1727000   0.97609954   -7.5785232    447.31929  0.021584602    0.0215077            3 
 1728000   0.98162572    -7.599468    447.66686  0.021588872  0.021500969            7 
 1729000    0.9549317   -7.5977119    447.37473  0.021562306  0.021494256            9 
 1730000    1.0009151   -7.6072195    446.07121  0.021487053  0.021487513            5 
 1731000   0.98100061   -7.6054133    447.76401  0.021556134  0.021480717            3 
 1732000   0.96776204   -7.5631652    448.61669  0.021584714   0.02147398            4 
 1733000   0.97058976   -7.5759426    448.61515  0.021572185  0.021467344           17 
 1734000   0.98080112   -7.5625357    448.72689  0.021565114  0.021460715           10 
 1735000    1.0002894   -7.5607871    448.13706  0.021524354  0.021454205            8 
 1736000   0.96546985   -7.5689737    449.44932  0.021574948  0.021447634            4 
 1737000   0.95611552   -7.5851644    448.76451  0.021529673  0.021441118            5 
 1738000   0.96797315   -7.5925085    449.00937  0.021529026  0.021434362            7 
 1739000   0.99703731   -7.6075781    447.99356  0.021467968  0.021427717            3 
 1740000   0.97333302   -7.5832833    449.40349  0.021523156   0.02142106            5 
 1741000   0.95854463   -7.5817777     448.6026  0.021472458  0.021414478            3 
 1742000   0.99192881   -7.6468654    448.11783  0.021436942  0.021407884            6 
 1743000    0.9608463   -7.5820551    451.37414  0.021580328  0.021401311            3 
 1744000   0.96592173   -7.5761329    450.19612  0.021511665  0.021394762            4 
 1745000   0.97091547   -7.6148677    450.11441  0.021495435  0.021388201            6 
 1746000   0.96404294   -7.5239152    450.40206  0.021496853  0.021381797            6 
 1747000   0.97177276   -7.5517146    452.38109  0.021578949  0.021375382            4 
 1748000   0.99047931   -7.6096616    450.34213    0.0214694  0.021368864            4 
 1749000   0.97017376   -7.5633735    451.84404  0.021528685  0.021362401            9 
 1750000   0.96063586    -7.614138     451.4124  0.021495829  0.021355905            3 
 1751000    0.9810097   -7.5705474     450.7193  0.021450566  0.021349412            4 
 1752000   0.97479291    -7.576487    450.73119  0.021438889  0.021342988            4 
 1753000   0.95520703   -7.5933074    451.47667  0.021462097  0.021336454            6 
 1754000   0.97087731   -7.6164613    451.33485  0.021443123  0.021329913            4 
 1755000   0.97268256   -7.5566832    452.58308  0.021490175  0.021323429            4 
 1756000   0.97914756   -7.5338488    452.77218  0.021486911  0.021316978            8 
 1757000   0.97631374   -7.5438748    452.37891  0.021456029  0.021310469            4 
 1758000   0.97798687   -7.5755371    451.79011  0.021415913  0.021303895            5 
 1759000   0.97810468   -7.6068147    451.34389  0.021382599   0.02129738            9 
 1760000   0.96713218   -7.6228853    452.40809  0.021420838  0.021290747            5 
 1761000   0.96660104   -7.5870615     451.5181  0.021366558  0.021284141            3 
 1762000   0.98052838   -7.6248587     450.9481  0.021327473  0.021277545            6 
 1763000   0.95149495   -7.6086959     451.9466  0.021362573  0.021271073            3 
 1764000   0.93963476   -7.5991651    452.27658  0.021366052  0.021264521            3 
 1765000   0.95316187   -7.5645469     454.3633  0.021452469  0.021258033            4 
 1766000   0.95574731   -7.5708061     453.8383  0.021415548  0.021251559            9 
 1767000    0.9698922   -7.6249605    451.77334  0.021306043  0.021244946           10 
 1768000   0.96937082   -7.6071694    453.70737  0.021385151  0.021238339            6 
 1769000   0.96622176   -7.5891683    452.04364  0.021294688  0.021231736            8 
 1770000   0.98360233   -7.6149011    451.75101   0.02126888  0.021225069           10 
 1771000   0.95285373   -7.6097489    451.96886  0.021267121  0.021218363            5 
 1772000   0.98076182    -7.600767     452.7116  0.021290049  0.021211658            3 
 1773000    0.9782648   -7.6032841    452.23397  0.021255592  0.021204955            5 
 1774000   0.97748102   -7.5846093    453.38832  0.021297836  0.021198305            5 
 1775000   0.98733323   -7.6282115    452.32405  0.021235871  0.021191678            8 
 1776000    0.9549203   -7.6407572    452.95696  0.021253611  0.021185089           10 
 1777000    1.0023647   -7.5815632      454.762  0.021326299  0.021178523            7 
 1778000   0.97848258   -7.5901477    454.03829  0.021280385  0.021171992            8 
 1779000   0.98779471   -7.6248702    454.14212  0.021273286  0.021165384            3 
 1780000    0.9568025   -7.6301141    453.51007  0.021231745  0.021158776            8 
 1781000   0.96445538   -7.6086243    453.75361  0.021231219  0.021152077            3 
 1782000   0.96291863   -7.6140991    454.39032   0.02124908  0.021145453            4 
 1783000   0.95082462   -7.6094843    453.61318  0.021200841  0.021138799            6 
 1784000   0.97066741    -7.628254    454.51273  0.021230976  0.021132124            6 
 1785000    0.9651891   -7.6545685     453.7959  0.021185616    0.0211254            3 
 1786000   0.97108563   -7.6323469    454.37356  0.021200707  0.021118674            4 
 1787000   0.96449039   -7.6294521    453.91597  0.021167505  0.021112063            9 
 1788000   0.95929878    -7.600218    456.12375  0.021258564  0.021105397            5 
 1789000   0.94955813   -7.6248825    455.40292  0.021213104  0.021098819            3 
 1790000   0.95784907   -7.5668052    455.46295  0.021204048  0.021092187            6 
 1791000   0.96997704    -7.645283    455.05314   0.02117314  0.021085566            5 
 1792000   0.95657326   -7.6255517    455.06691  0.021161966  0.021078913            6 
 1793000    0.9680711   -7.6204518    454.53785  0.021125574  0.021072162            3 
 1794000   0.94193406   -7.6497318    454.85792  0.021128666  0.021065462            5 
 1795000    0.9558065   -7.6464194    453.72257  0.021064186  0.021058683            5 
 1796000   0.94763756   -7.6239656    454.63423  0.021094758  0.021052045            4 
 1797000   0.96725471   -7.6112826     456.6342  0.021175765  0.021045488            5 
 1798000   0.95862099   -7.6148953    455.87526  0.021128813  0.021038914            8 
 1799000   0.97591172   -7.5878925    457.42959  0.021189068  0.021032378            8 
 1800000   0.98123696   -7.6041199    457.06599  0.021160463  0.021025837            4 
 1801000   0.97088478   -7.6368379    456.25429  0.021111155  0.021019285            9 
 1802000   0.95152737   -7.5940179     457.2288  0.021144506  0.021012751           10 
 1803000   0.93026786   -7.5764345    456.02044  0.021076929  0.021006105            6 
 1804000   0.97650848   -7.5824641    456.24286   0.02107552  0.020999568            4 
 1805000   0.96760776   -7.6446022    456.75992  0.021087715  0.020993053            3 
 1806000   0.95903961    -7.656188    456.89658  0.021082345  0.020986436            4 
 1807000   0.96938507   -7.6038687    456.35842   0.02104586  0.020979832            6 
 1808000   0.98079464   -7.6208994    457.71829  0.021096897  0.020973285            3 
 1809000    0.9567416    -7.600894    457.14995  0.021059054   0.02096676            5 
 1810000   0.95407884   -7.6476955    456.15166  0.021001458  0.020960221            4 
 1811000   0.97246667   -7.6020914    457.50915  0.021052326  0.020953585            7 
 1812000   0.96736238   -7.6494324    457.05949  0.021020028  0.020946956            2 
 1813000   0.97412797    -7.613992    457.92977  0.021048436   0.02094033            9 
 1814000   0.97545458   -7.6629045    455.99347  0.020947881  0.020933723            2 
 1815000   0.94685236   -7.6812679    457.97516  0.021027326  0.020927016            6 
 1816000   0.94287374   -7.6183097    458.38731   0.02103466  0.020920374            4 
 1817000    0.9644588   -7.6487936    456.99243   0.02095911  0.020913828            5 
 1818000   0.94149622   -7.6025455    459.08454  0.021043479  0.020907293            3 
 1819000   0.95231268   -7.6364541    457.64093  0.020965775  0.020900646            5 
 1820000   0.96545757    -7.582759     458.5607  0.020996369   0.02089404            3 
 1821000   0.96783748   -7.6518147    457.95379  0.020957065  0.020887393            3 
 1822000   0.95294795   -7.6651857    458.48526  0.020969871   0.02088068            6 
 1823000   0.95828683   -7.6406669    457.67011  0.020921106  0.020874018            7 
 1824000   0.95019561   -7.6543966    458.38957  0.020942506  0.020867277            4 
 1825000   0.95946364   -7.6353985    459.20722  0.020968366  0.020860649            3 
 1826000   0.95738767    -7.623156    457.25204  0.020867654  0.020854002            7 
 1827000   0.96099866   -7.6149719    459.04431  0.020937982   0.02084735            6 
 1828000   0.96798633   -7.6566217    459.03611  0.020926154   0.02084061            3 
 1829000   0.97224725   -7.6585965    459.06974  0.020916245  0.020833839            6 
 1830000   0.96539275   -7.6424293    457.80617  0.020847276  0.020827061            9 
 1831000   0.96276541    -7.662619    456.98505  0.020798519  0.020820309            7 
 1832000   0.96801111    -7.632165    458.87231  0.020873013  0.020813588            3 
 1833000   0.97095002   -7.6962479    457.98147  0.020821125  0.020806827            7 
 1834000   0.96410932   -7.6447754     459.1633  0.020863472  0.020800053            8 
 1835000   0.96561485   -7.6745232    458.84937  0.020837846  0.020793284            3 
 1836000   0.97489295   -7.6831381    456.69745  0.020728824  0.020786365            3 
 1837000    0.9583997   -7.6413815    458.87663  0.020816396  0.020779582            4 
 1838000   0.96324078   -7.6299868    458.45866   0.02078612   0.02077277            5 
 1839000    0.9573619   -7.6263437    459.54754  0.020824159  0.020765917            6 
 1840000   0.96703608   -7.6278899    458.11097  0.020747779  0.020759063            3 
 1841000   0.96281238   -7.6353761    459.31351  0.020790943  0.020752221            3 
 1842000     0.956116   -7.6591204    458.33575  0.020735421  0.020745373            4 
 1843000   0.96801153   -7.6646881    459.34792  0.020769937  0.020738543            6 
 1844000   0.97480583    -7.616198    459.73769  0.020776287  0.020731727            3 
 1845000   0.92920774   -7.6600761    459.18133  0.020739897  0.020724972            3 
 1846000   0.97156149   -7.6509827    459.66905  0.020750679  0.020718255            5 
 1847000   0.96425155   -7.6535596    459.76202  0.020743639   0.02071153            5 
 1848000   0.97242159   -7.6077956    461.90568   0.02082908  0.020704797            6 
 1849000    0.9642405   -7.6182174    460.88186  0.020771672  0.020698129            3 
 1850000   0.95071981   -7.6312931    460.46089  0.020741482  0.020691442            7 
 1851000   0.98157355   -7.6265799    461.14836  0.020761226    0.0206848            3 
 1852000   0.94676298   -7.6848176    460.22836  0.020708619  0.020678075            4 
 1853000   0.96244926   -7.6582446    461.71086  0.020764115  0.020671373            2 
 1854000   0.93846087   -7.6690739    460.99192  0.020720601  0.020664628            4 
 1855000   0.97558776   -7.6487066    462.35403  0.020770621  0.020657896            8 
 1856000   0.96474827   -7.5809525    463.28445  0.020801206  0.020651297            5 
 1857000   0.96470895   -7.6372275     462.1297  0.020738184  0.020644679            8 
 1858000   0.94712747   -7.7024382    460.37072   0.02064813  0.020637982            5 
 1859000   0.93255453   -7.6298298    462.45114  0.020730282   0.02063122            7 
 1860000   0.95246977   -7.6671112    460.65974  0.020638877  0.020624492            2 
 1861000    0.9470316   -7.6629214     462.7332  0.020720634  0.020617739            6 
 1862000   0.94357482   -7.6709273    462.14166  0.020683032   0.02061096            4 
 1863000    0.9596807   -7.6798527    461.71686  0.020652928   0.02060424            4 
 1864000   0.95902938   -7.6880247    460.15345  0.020571953  0.020597435            3 
 1865000   0.95670084   -7.6692127    461.43456  0.020618166   0.02059051            8 
 1866000   0.96301465   -7.7053204    462.09003  0.020636389    0.0205837            6 
 1867000   0.95507863   -7.6417883    461.25257  0.020587956  0.020576849           11 
 1868000   0.93346571   -7.6596163    462.54437  0.020634563  0.020570009           24 
 1869000   0.95040001   -7.6875702    462.38943  0.020616614  0.020563213            7 
 1870000   0.94514567   -7.7183437    461.35976  0.020559704  0.020556387           10 
 1871000   0.94072365   -7.6633588    462.28997  0.020590147  0.020549609           11 
 1872000   0.95178237   -7.6666617    463.04119  0.020612589  0.020542848            6 
 1873000   0.96395844   -7.6600818    462.12943  0.020561018  0.020536125            5 
 1874000   0.95399693   -7.6566541    462.85772  0.020582431  0.020529369            4 
 1875000   0.95861858   -7.6727131    462.49209  0.020555204   0.02052266            4 
 1876000   0.94353923   -7.6166469    466.00151  0.020700138  0.020515994            8 
 1877000   0.96949981    -7.670878     463.8399  0.020593141  0.020509337            5 
 1878000    0.9635819   -7.6753093    461.92934  0.020497397  0.020502705            3 
 1879000   0.94550364   -7.6649865    462.56085  0.020514496  0.020495924            5 
 1880000   0.95388686   -7.6739573    462.79512  0.020513968  0.020489169            5 
 1881000   0.94741522   -7.6756304    462.73033  0.020500192  0.020482399            7 
 1882000   0.94846118   -7.6693161    463.15241  0.020507988   0.02047563           12 
 1883000   0.93698826   -7.6489568    462.93477  0.020487466  0.020468878           16 
 1884000   0.94622576   -7.6587234    464.49118  0.020545434  0.020462138            6 
 1885000   0.94112427   -7.6880916    462.26442  0.020436093  0.020455325            6 
 1886000   0.93748624   -7.6957663    463.01947  0.020458619  0.020448463           15 
 1887000   0.95380485   -7.7031973    462.69705  0.020433539  0.020441582            8 
 1888000   0.94471666    -7.659735     463.7333  0.020468454   0.02043474           11 
 1889000    0.9539581   -7.6780136    464.10662  0.020474088  0.020427993            7 
 1890000   0.96690022   -7.6388098    463.56644  0.020439437  0.020421246           10 
 1891000   0.96356348   -7.6897113     464.0285  0.020448991  0.020414471            5 
 1892000   0.96675928   -7.6425124    465.08383  0.020484665  0.020407705            5 
 1893000   0.95348834   -7.7118897    463.34077  0.020397111  0.020400935            5 
 1894000   0.93277136   -7.6938444    464.12659  0.020420917  0.020394105            4 
 1895000   0.96170903   -7.6670939    464.44496  0.020424141  0.020387227            6 
 1896000    0.9716009   -7.6896369    463.73922   0.02038235  0.020380376            6 
 1897000   0.95462071   -7.6451868    464.74193  0.020415653  0.020373516            5 
 1898000   0.92844071   -7.7173118    462.69871  0.020315188  0.020366599            7 
 1899000   0.95929788   -7.6656029    463.51629  0.020340367  0.020359717            4 
 1900000   0.95373172   -7.6765465    464.81816  0.020386761  0.020352806            4 
 1901000    0.9412523   -7.6857137    462.93888  0.020293656  0.020345905            4 
 1902000   0.93973441    -7.657202    465.30802  0.020386787  0.020338997            3 
 1903000   0.94362686   -7.6790758     465.5976  0.020388754  0.020332111            5 
 1904000   0.95997798   -7.6905511    463.48296  0.020285494  0.020325206            6 
 1905000   0.91345647   -7.6777787    464.50956  0.020319753   0.02031827           15 
 1906000   0.94075581   -7.6787045    464.77428  0.020320666  0.020311389           11 
 1907000    0.9341676   -7.7017537    463.10991   0.02023728  0.020304454           19 
 1908000   0.93348207    -7.654504    464.53827  0.020289058   0.02029753           12 
 1909000   0.95207797   -7.6939185    464.02387  0.020255975  0.020290566           10 
 1910000   0.94305823   -7.6829674    465.06975  0.020291001  0.020283677            7 
 1911000   0.94485277   -7.6507073    466.39197  0.020338042  0.020276754            9 
 1912000   0.93666604   -7.6582548    465.38489  0.020283512   0.02026982            7 
 1913000   0.93223722    -7.668485    464.55065  0.020236568  0.020262865           14 
 1914000   0.93118299   -7.6762384    464.83772  0.020238494  0.020255858            4 
 1915000   0.93345028   -7.6893168    465.46698  0.020255308  0.020248917            5 
 1916000   0.93929332   -7.6473868    466.23038  0.020277939  0.020241996           15 
 1917000   0.92020118   -7.6532521    466.19554  0.020265847  0.020235126           10 
 1918000   0.93827053   -7.6754262    466.53528  0.020270042  0.020228305            6 
 1919000   0.94928113   -7.6699215    465.97231  0.020235032  0.020221341            3 
 1920000   0.94885083   -7.6711488    465.22651  0.020192123  0.020214419            4 
 1921000    0.9342162    -7.673407    466.25618  0.020226279  0.020207525            4 
 1922000   0.93051518   -7.6627604    466.50663  0.020226614  0.020200651            4 
 1923000   0.95136599   -7.6944327    465.37192  0.020166923  0.020193802            5 
 1924000   0.93619928   -7.6750183    466.10906  0.020188369  0.020186859            4 
 1925000   0.93560203   -7.7156025    467.12606  0.020221908  0.020179953            5 
 1926000    0.9450125   -7.7079489    465.40049  0.020136747  0.020173001            7 
 1927000    0.9495039   -7.7027424    465.13427  0.020114784  0.020166105            6 
 1928000   0.93134627   -7.7088807    466.43437  0.020160545  0.020159217            6 
 1929000    0.9332402   -7.6818817    465.99867  0.020131271  0.020152254            4 
 1930000   0.94985241   -7.6587776    467.38383  0.020180649  0.020145412            4 
 1931000   0.92553336   -7.6747886    466.83697  0.020146598  0.020138561            4 
 1932000    0.9468817   -7.7162327    466.84563  0.020136544  0.020131696            9 
 1933000    0.9484531   -7.6749282      467.018  0.020133558  0.020124832            6 
 1934000   0.94577216   -7.7172492    467.06606  0.020125218  0.020117984            6 
 1935000   0.93116997   -7.6889908    468.50872  0.020176948  0.020111168            8 
 1936000   0.95813347   -7.6901229    467.88904  0.020139852  0.020104405            4 
 1937000   0.93167259   -7.6695914    468.49767  0.020155639  0.020097614            5 
 1938000   0.91789419   -7.6792945    468.62788  0.020150837  0.020090856            6 
 1939000   0.95378823   -7.6921248    468.09293  0.020117454  0.020084161           10 
 1940000   0.94359223    -7.682209    470.12474  0.020194362  0.020077455            6 
 1941000   0.92910436   -7.7102091    467.74569  0.020081818  0.020070692            6 
 1942000   0.94227063   -7.6886595    467.62889  0.020066465  0.020063871            6 
 1943000   0.93863393   -7.7292894     468.0266  0.020073194  0.020057076           14 
 1944000   0.94806821   -7.7333027    467.94664  0.020059441  0.020050228            7 
 1945000   0.95217056    -7.706834     468.2017  0.020060056  0.020043439            6 
 1946000   0.94823141   -7.7143754    468.67282  0.020069922  0.020036682            5 
 1947000   0.91832563   -7.7101127    470.42788  0.020134732  0.020029967            4 
 1948000   0.95287172     -7.71898    469.54756  0.020086737  0.020023229            4 
 1949000   0.96160659   -7.7323391    469.14731  0.020059317  0.020016478            8 
 1950000   0.92674253   -7.7241577    469.40092  0.020059869  0.020009764           10 
 1951000   0.92077036   -7.6855636    470.77222  0.020108159   0.02000311            3 
 1952000   0.94614457    -7.693091     469.9064  0.020060895  0.019996469            4 
 1953000   0.95195349   -7.6840769    470.23578  0.020064678  0.019989774            7 
 1954000   0.95519198   -7.6841904    470.77316  0.020077327  0.019983074            3 
 1955000   0.92927885   -7.7076622    470.16552  0.020041156  0.019976421            7 
 1956000   0.93602091   -7.7001805    469.95708   0.02002203  0.019969733            5 
 1957000   0.92660969   -7.7223492    470.13028  0.020019174  0.019962938            4 
 1958000   0.93770931   -7.7594093     468.2517  0.019928996  0.019956132           10 
 1959000   0.93791985   -7.7735049    469.57745  0.019975219  0.019949269           18 
 1960000   0.93866213   -7.7481375    470.23473  0.019992973  0.019942385           18 
 1961000   0.93992693   -7.7437474    470.40562   0.01999004  0.019935576           23 
 1962000   0.92551906   -7.6585541    472.20501  0.020056278  0.019928848           24 
 1963000   0.94100459   -7.7350954    470.76859  0.019985082  0.019922092            9 
 1964000    0.9293485   -7.6938042    472.46206  0.020046761  0.019915375            6 
 1965000   0.94368926    -7.667829     471.6184   0.02000078    0.0199087            8 
 1966000   0.93502814   -7.6566755    472.20024   0.02001527  0.019902092            4 
 1967000   0.94071008    -7.697279    472.57237   0.02002086   0.01989543            4 
 1968000   0.93304903   -7.7172915    472.24325   0.01999675  0.019888779            6 
 1969000   0.92732859   -7.7044132     472.2047  0.019984963  0.019882133            8 
 1970000   0.93971822   -7.6987192    473.06426  0.020011179  0.019875514            5 
 1971000   0.92414424   -7.6873132    471.38884  0.019930189  0.019868841            5 
 1972000   0.90234056   -7.6885024    472.78452  0.019979062  0.019862164            5 
 1973000   0.95361854   -7.7158973    472.16985  0.019942974  0.019855526           24 
 1974000   0.94541776   -7.6931625    472.97392  0.019966815  0.019848892            8 
 1975000   0.94182622   -7.7227678    472.43733  0.019934065  0.019842228            8 
 1976000   0.93301882   -7.7225281    472.05197  0.019907725  0.019835517            9 
 1977000   0.91247021   -7.6993485     473.3733  0.019953351  0.019828837            6 
 1978000   0.92958544   -7.6697758    474.25992  0.019980617  0.019822171           10 
 1979000   0.94261001   -7.7053067     473.4481  0.019936336  0.019815576            2 
 1980000   0.95223772   -7.6839109    473.83282  0.019942459  0.019808942            8 
 1981000   0.93962237   -7.7072444    473.04031  0.019899054  0.019802312            7 
 1982000   0.94026593   -7.7113001    472.79164  0.019878559  0.019795746            3 
 1983000   0.93777352   -7.6628122    473.37958  0.019893242  0.019789152            6 
 1984000   0.92666843   -7.6682616    474.92676  0.019948201  0.019782625            5 
 1985000   0.92239267   -7.6863974    472.97708  0.019856301  0.019776015           12 
 1986000   0.93215481   -7.7021792    472.39091  0.019821707   0.01976933            7 
 1987000   0.93055764   -7.7128905    472.52874  0.019817512  0.019762681            8 
 1988000   0.93684056   -7.7150623    473.30456  0.019840064  0.019756009           12 
 1989000   0.93013448    -7.725143    474.39013  0.019875571    0.0197494           10 
 1990000   0.93328354   -7.7174482    474.79362   0.01988248  0.019742761            5 
 1991000   0.94016614   -7.7352188    473.01404  0.019798009  0.019736102            6 
 1992000   0.90655363    -7.733433    474.62459  0.019855446  0.019729432            7 
 1993000   0.92764945   -7.7108944    473.92701  0.019816316  0.019722787            5 
 1994000   0.94348193   -7.7202298    474.39334  0.019825867  0.019716083           12 
 1995000   0.93095867    -7.700196    472.88947  0.019753111  0.019709339            7 
 1996000   0.92031933   -7.7178114    474.42741  0.019807424   0.01970262            6 
 1997000   0.92763845   -7.6899453    474.19989  0.019788011  0.019695958            5 
 1998000   0.92572397   -7.7130083    474.37588  0.019785447  0.019689312            6 
 1999000   0.92433951   -7.6942398    474.14252  0.019765821   0.01968265            6 
 2000000   0.94262097   -7.7157438    473.17978  0.019715824  0.019676002            3 
 2001000   0.92432058   -7.6910477    474.85025  0.019775539  0.019669374            3 
 2002000   0.92553675   -7.7250405    472.68148  0.019675386  0.019662751            3 
 2003000   0.91159052   -7.7183261    474.60863  0.019745741  0.019656037            6 
 2004000   0.94611731    -7.747185    472.60928  0.019652748  0.019649349           14 
 2005000   0.93240786   -7.6833873    475.73667  0.019772929   0.01964274            7 
 2006000   0.94352245   -7.7290965    475.55607   0.01975557  0.019636125           11 
 2007000   0.95515923     -7.72446    474.71904  0.019710971  0.019629427            8 
 2008000   0.92487505   -7.7162768    475.35071   0.01972737  0.019622777           15 
 2009000   0.93986379   -7.7415114    474.82733  0.019695841  0.019616054           17 
 2010000   0.93818178   -7.7321188    474.75273  0.019682949  0.019609351            4 
 2011000   0.92136722   -7.7517785    473.64655  0.019627322  0.019602655           16 
 2012000   0.92947116   -7.7144905    475.25929  0.019684364  0.019595946            8 
 2013000   0.94474921   -7.7270044     476.4835  0.019725265  0.019589329            7 
 2014000   0.92480486   -7.6974824    475.55313  0.019676975  0.019582688            4 
 2015000   0.91316045   -7.7098946    476.36837  0.019700925  0.019576066            7 
 2016000   0.93448932   -7.7226237    474.63384  0.019619454  0.019569345            5 
 2017000   0.94392535   -7.7251935     475.5003  0.019645525  0.019562694            7 
 2018000     0.931061   -7.7177427    474.68167  0.019601985  0.019556035           10 
 2019000   0.92379539   -7.6969893    475.79629  0.019638282  0.019549337            6 
 2020000    0.9296854   -7.7335243    474.40559  0.019571188  0.019542634            4 
 2021000   0.92675655   -7.7036234    475.12784  0.019591285   0.01953591            9 
 2022000   0.91596872     -7.71927    475.82066  0.019610149  0.019529255           11 
 2023000   0.90138565   -7.7278775    475.43719  0.019584659  0.019522539            6 
 2024000   0.94082192   -7.7231621    475.48395  0.019576908  0.019515787            5 
 2025000   0.91858202   -7.7362834    474.98566  0.019546735   0.01950906            9 
 2026000   0.93646083   -7.7426746    475.04964  0.019539719   0.01950231            6 
 2027000   0.93009177   -7.7275924    475.16196  0.019534696  0.019495544            5 
 2028000   0.94060342   -7.6947418    477.36265  0.019615494  0.019488882            4 
 2029000   0.92747583   -7.7098654    476.84212  0.019584447  0.019482132           17 
 2030000    0.9105456   -7.7371488    474.55548  0.019480931  0.019475392            5 
 2031000   0.93018423   -7.7430583    474.08151  0.019451892  0.019468638            5 
 2032000   0.94577778   -7.7511457    475.41209  0.019496887  0.019461802            6 
 2033000   0.93247574   -7.7216193    476.50628  0.019532148  0.019454988            4 
 2034000   0.92854323     -7.75432    474.65655  0.019446761  0.019448189            6 
 2035000    0.9180773    -7.690028    476.68556  0.019520293  0.019441418            5 
 2036000   0.92390369   -7.7450053    476.08341  0.019486059  0.019434675            4 
 2037000   0.90437248   -7.7487611    474.43796  0.019409179  0.019427889            5 
 2038000   0.92575649   -7.6957005    476.52123  0.019484839  0.019421138            9 
 2039000   0.94178298   -7.6830551     476.5426  0.019476157  0.019414392            6 
 2040000   0.91241508   -7.7034034    476.77891  0.019476263  0.019407637            9 
 2041000   0.92326921   -7.7093341     477.5439  0.019497955  0.019400841            9 
 2042000   0.92761125   -7.7325137    476.24686  0.019435474  0.019394024            6 
 2043000   0.92479129   -7.7353698    476.14274  0.019421714  0.019387224           15 
 2044000   0.92021615   -7.7483566    476.04287   0.01940814  0.019380402            4 
 2045000   0.92002464   -7.7592285    475.43426  0.019373849   0.01937358            9 
 2046000   0.90310723    -7.753482    476.62464  0.019412864  0.019366738            5 
 2047000   0.92143598   -7.7636518    477.00213  0.019418748  0.019359952            4 
 2048000    0.9252565   -7.7363169    476.82386  0.019402012  0.019353136            5 
 2049000   0.93518676   -7.7531497    476.07887  0.019362245  0.019346256            6 
 2050000   0.91101087   -7.7480267    475.16912  0.019315818  0.019339431           10 
 2051000     0.923945   -7.7535556    476.40717  0.019356703  0.019332604            5 
 2052000   0.91789771   -7.7463173    477.01636  0.019372009  0.019325795            8 
 2053000   0.90816772   -7.7497501     477.3438  0.019375865   0.01931905            6 
 2054000   0.94059472   -7.7112982    477.16768  0.019359286   0.01931227            7 
 2055000   0.94221145   -7.7550021    478.27091  0.019394603  0.019305522            8 
 2056000   0.94092174   -7.7764923    476.99748  0.019333556  0.019298787            5 
 2057000   0.92669331   -7.7279473    477.77963  0.019355843  0.019292048            3 
 2058000   0.91486257   -7.7169839    477.61697  0.019339851  0.019285355            9 
 2059000   0.91174255   -7.7656357    476.88795  0.019300953  0.019278614            7 
 2060000   0.90953802    -7.755244    478.12761  0.019341732  0.019271864            5 
 2061000   0.92841727   -7.7592449    477.53576  0.019308417  0.019265118           18 
 2062000   0.92524506    -7.755407     477.5097     0.019298  0.019258295            4 
 2063000   0.90885514   -7.7853766    477.74849  0.019298291  0.019251547            5 
 2064000   0.93474196   -7.7310548    478.77505  0.019330388  0.019244809            7 
 2065000   0.92986338    -7.755196    477.89584  0.019285546   0.01923808            5 
 2066000   0.92634197   -7.7598718    478.35287  0.019294646  0.019231392            6 
 2067000   0.92535461   -7.7694537    478.15087  0.019277168  0.019224655            9 
 2068000   0.91907309   -7.7552995     478.9241  0.019299005   0.01921799            4 
 2069000   0.91801634   -7.7368396    478.68089  0.019279881  0.019211305            6 
 2070000   0.92431898   -7.7462796    478.38093  0.019258491   0.01920463            5 
 2071000   0.92923055   -7.7479833    478.21315  0.019242441  0.019197954            4 
 2072000   0.92707996   -7.7434026    479.69198  0.019292631  0.019191282            5 
 2073000   0.91683769   -7.7392902    478.65498  0.019241638  0.019184563            7 
 2074000   0.91522952   -7.7468555    478.39199  0.019221793  0.019177824            6 
 2075000   0.91536332   -7.7807217    478.31335  0.019209371   0.01917105            4 
 2076000   0.93410518   -7.7536425    479.33358  0.019241072  0.019164348            3 
 2077000    0.9082426   -7.7235353    479.66697  0.019245184  0.019157637            4 
 2078000   0.92780919   -7.7821481    478.87963  0.019204348  0.019150938            6 
 2079000   0.93201718   -7.7752594     478.9527   0.01919804  0.019144185            7 
 2080000    0.9211798   -7.7720617    479.55389  0.019212896  0.019137474            6 
 2081000   0.90448755   -7.7658841    479.66025  0.019207923  0.019130746            9 
 2082000   0.91414166   -7.7632045    478.57559  0.019155283  0.019124012            9 
 2083000   0.93114069   -7.7271044    480.42589  0.019220111  0.019117311            3 
 2084000   0.92997786   -7.7214964    481.25878  0.019244193  0.019110707            9 
 2085000   0.93467385   -7.7604272    480.13136  0.019189903  0.019104084            9 
 2086000   0.90699462   -7.7448187    481.16369  0.019221943    0.0190975            5 
 2087000   0.91691834   -7.7177044    481.68756  0.019233651   0.01909091            5 
 2088000   0.90615112   -7.7609222    479.59872  0.019141073  0.019084317           10 
 2089000   0.92596551   -7.7656693    480.16537  0.019154514  0.019077603            3 
 2090000   0.90423229   -7.7558144    479.10116  0.019102917  0.019070959            4 
 2091000   0.92555283   -7.7666132    479.44852  0.019107625  0.019064267            7 
 2092000   0.93123075   -7.7780925     481.0412  0.019161934  0.019057577            4 
 2093000   0.91223578   -7.7377637    480.66052  0.019137622  0.019050899            5 
 2094000   0.92138433   -7.7683868    479.99268  0.019101905  0.019044163            6 
 2095000   0.93294094   -7.7751036    479.62442  0.019078139  0.019037406            5 
 2096000   0.92712931   -7.7978798    480.40983  0.019100264  0.019030606            8 
 2097000   0.91319557   -7.7906145     481.0421  0.019116281   0.01902388            4 
 2098000   0.92100755   -7.7527005    479.84916  0.019059786  0.019017178            7 
 2099000   0.92609472   -7.7909036    479.71202   0.01904526  0.019010462            5 
 2100000   0.91400026   -7.7807004    480.49289  0.019067178  0.019003721            9 
 2101000   0.92899885   -7.7621763    480.49802  0.019058306  0.018996983            8 
 2102000   0.91841218   -7.7627696    481.30138  0.019081089  0.018990265            5 
 2103000   0.90321195    -7.772956    479.02477  0.018981803  0.018983575            6 
 2104000   0.89176423   -7.7542021    480.58715  0.019034662  0.018976858            3 
 2105000   0.90968723   -7.7740704    479.81348  0.018994991  0.018970104            7 
 2106000   0.91946655   -7.7472627    480.71904  0.019021804  0.018963334            4 
 2107000   0.91530384    -7.747392    480.55733  0.019006381  0.018956598            7 
 2108000   0.91340478   -7.7993067    479.86008  0.018969801  0.018949783            4 
 2109000    0.9267514   -7.7934199    479.95695  0.018964634  0.018942928            8 
 2110000   0.91939907   -7.8020525    480.27425  0.018968177  0.018936113            7 
 2111000   0.91911122   -7.7781465    481.47108  0.019006438  0.018929324            5 
 2112000   0.92871042   -7.7813894    481.46566  0.018997225  0.018922495           11 
 2113000   0.89684702   -7.7797197    479.26551  0.018901464  0.018915662           17 
 2114000   0.91031685   -7.7707409    480.83371   0.01895434  0.018908871           23 
 2115000   0.90206685   -7.8387053    479.72675  0.018901763  0.018902011           12 
 2116000   0.91699211    -7.779575    480.75094  0.018933166  0.018895133            4 
 2117000   0.92831894   -7.7890148    480.72305  0.018923124  0.018888327            7 
 2118000   0.91614222   -7.7824162    481.50916  0.018945119  0.018881507            5 
 2119000   0.92005333   -7.7451247    481.57025  0.018938582  0.018874698           12 
 2120000    0.9091736   -7.8275916    480.71705   0.01889611  0.018867919           13 
 2121000   0.92862783   -7.7419048    482.26386  0.018947975  0.018861182           10 
 2122000   0.91978475   -7.7658869    481.47368  0.018908014  0.018854464            5 
 2123000   0.92484194   -7.7712917    482.49256  0.018939102  0.018847769            8 
 2124000   0.91628841   -7.8156702    481.44487   0.01888908  0.018841039            4 
 2125000   0.91205361   -7.7813467    482.46494  0.018920194  0.018834294            5 
 2126000   0.90754088   -7.7759492    481.69258   0.01888102   0.01882757            4 
 2127000    0.9026088   -7.7822832    481.39725  0.018860572  0.018820819            8 
 2128000   0.90390766   -7.7981881    482.47538  0.018893929  0.018814029            4 
 2129000   0.89648066   -7.8042774    481.42463  0.018843926  0.018807312           12 
 2130000    0.9141451   -7.8004257    480.54697  0.018800742  0.018800574            4 
 2131000   0.90433179   -7.7884823    481.10625   0.01881379  0.018793844            5 
 2132000   0.92784488     -7.76047    482.11462   0.01884438  0.018787072           19 
 2133000   0.91702866    -7.780776    482.67389  0.018857395  0.018780359            9 
 2134000   0.91777615   -7.7982396    481.74801  0.018812403   0.01877366            4 
 2135000   0.90762663    -7.784664    483.22482  0.018861234  0.018766937            7 
 2136000   0.90018275   -7.7867636    481.60127  0.018789063  0.018760218           11 
 2137000   0.89327362   -7.7868847    480.81256  0.018749515  0.018753439            6 
 2138000   0.90870031   -7.8227449    482.26162  0.018797226  0.018746648            9 
 2139000   0.90638271   -7.7775031    482.93874  0.018814818  0.018739925           13 
 2140000   0.90788434   -7.7760705    483.38408  0.018823367  0.018733264            4 
 2141000   0.91394678   -7.7745951     483.0649  0.018802152  0.018726585            4 
 2142000   0.91278401   -7.7789761    483.29294  0.018802246  0.018719921            6 
 2143000   0.91943542   -7.8305917      483.075  0.018784998  0.018713201            6 
 2144000   0.90308264   -7.8015066    482.91869  0.018770161   0.01870653            6 
 2145000   0.90662783   -7.7474145     484.3846   0.01881836  0.018699897            4 
 2146000    0.8950139    -7.794111    483.37319  0.018770316  0.018693228            6 
 2147000    0.9063554   -7.7984321    483.36203  0.018761141  0.018686572           10 
 2148000   0.89113495   -7.8075834    484.29117  0.018788453  0.018679937            5 
 2149000   0.92645704   -7.7984996    483.81339  0.018761183  0.018673256            9 
 2150000    0.9029077   -7.7635591    484.90499  0.018794767  0.018666585            6 
 2151000   0.91091081   -7.7647122    484.12502  0.018755812  0.018659927            4 
 2152000   0.92760069    -7.779139    484.80472  0.018773417  0.018653325           15 
 2153000   0.88817955   -7.7968022    483.40322  0.018710451  0.018646685            4 
 2154000   0.91362752   -7.8168735    485.02848  0.018764643  0.018640039           10 
 2155000   0.91335984    -7.777164    484.88597  0.018750424  0.018633389            5 
 2156000   0.93861043   -7.7972167    485.56161  0.018767842  0.018626734            9 
 2157000   0.91033982   -7.8067614    484.75264  0.018727888  0.018620107            8 
 2158000   0.90500435   -7.7869876    485.85602  0.018761817  0.018613499            7 
 2159000   0.91359707   -7.8146878    484.45364  0.018698998  0.018606903            5 
 2160000   0.91160849   -7.8124579    484.45184  0.018690272   0.01860026            7 
 2161000   0.89673341    -7.793759    485.31445  0.018714887  0.018593594            8 
 2162000    0.8866043   -7.7997116    484.54933  0.018676739   0.01858689            4 
 2163000   0.90197119   -7.7740659    485.47616  0.018703813  0.018580237            6 
 2164000   0.92396099   -7.8072934    484.35691  0.018652068  0.018573612            8 
 2165000   0.90156144   -7.8138859    483.54082  0.018612041  0.018566935            5 
 2166000   0.88894775   -7.7822275    485.78835  0.018689918  0.018560224            7 
 2167000   0.90521891    -7.800582    484.50151  0.018631807  0.018553601            3 
 2168000   0.92069144   -7.7708765    485.04712  0.018644185  0.018546953            5 
 2169000   0.90863443   -7.8241541     485.9965  0.018672065  0.018540325            5 
 2170000   0.90224696   -7.8131617    485.67286  0.018651031  0.018533729            8 
 2171000   0.88783345   -7.8176596    485.66715  0.018642221  0.018527107            3 
 2172000   0.90041954   -7.8078705    485.82041  0.018639519  0.018520478            6 
 2173000   0.91448187   -7.7840524    486.03459  0.018639154   0.01851384           20 
 2174000   0.91213144   -7.8019184    485.92178  0.018626256  0.018507267           10 
 2175000   0.89688991   -7.7959461    487.26564  0.018669182  0.018500764            5 
 2176000   0.88800494    -7.802691    486.82491  0.018643723  0.018494296            6 
 2177000   0.87898143   -7.8203167    485.95531  0.018601872  0.018487783            5 
 2178000   0.89792192   -7.7819474    488.05193  0.018673551  0.018481264           18 
 2179000   0.91313531   -7.7996137    487.59425  0.018647478  0.018474788            5 
 2180000   0.91864688   -7.8225043    485.99921  0.018577951  0.018468237           29 
 2181000   0.91175069   -7.8505195    485.92693  0.018566672  0.018461647           18 
 2182000   0.89213509   -7.8430114    486.37404  0.018575238  0.018455085            8 
 2183000   0.90122658   -7.8296646    486.06807  0.018555049  0.018448481           12 
 2184000   0.90531636   -7.8428352    485.90523   0.01854034  0.018441943           10 
 2185000   0.88528383    -7.829037    486.57393  0.018557358   0.01843542           10 
 2186000   0.91280199   -7.8154612    486.84943  0.018559372  0.018428922            9 
 2187000   0.90051841   -7.8286883    487.18679   0.01856374  0.018422389            5 
 2188000   0.88910905   -7.8040783    487.12332  0.018552838  0.018415881           14 
 2189000    0.9147506   -7.8360386    486.17284  0.018508179  0.018409391            5 
 2190000   0.88903775   -7.8660249    486.68801  0.018519331  0.018402872            8 
 2191000   0.90373658   -7.8416806    487.26641  0.018532877  0.018396274            8 
 2192000   0.89995065   -7.8419974    486.32165  0.018488506  0.018389643            8 
 2193000   0.89732182   -7.8472217    486.38235  0.018482381  0.018383003            5 
 2194000   0.89620853   -7.7881272    487.39584  0.018512452   0.01837641            3 
 2195000   0.88565895   -7.8347305    486.22402   0.01845953  0.018369849            7 
 2196000   0.91463981   -7.8334558    487.34731   0.01849375  0.018363269            8 
 2197000   0.89936822   -7.8345626    487.65788  0.018497113   0.01835671            6 
 2198000    0.8987889   -7.8095054    487.24958  0.018473217  0.018350223            4 
 2199000   0.88641587   -7.8584134    487.39327  0.018470262  0.018343699            8 
 2200000    0.9033646   -7.8440911     489.6785  0.018548428    0.0183372           12 
 2201000   0.89957905   -7.8141821     488.5327  0.018496619  0.018330715            5 
 2202000   0.91802649   -7.8250083     488.3001  0.018479417  0.018324229            8 
 2203000   0.89221102   -7.8351054    488.57192   0.01848131  0.018317737            5 
 2204000   0.89153218   -7.8478331    487.67921  0.018439172  0.018311258            3 
 2205000   0.89548656   -7.8489284     488.5642  0.018464255  0.018304779            8 
 2206000    0.9104834   -7.8312154     489.8639  0.018504983   0.01829832            5 
 2207000   0.88770426    -7.806889    489.15394  0.018469791    0.0182919           16 
 2208000   0.90211973   -7.8098357    489.76949  0.018484658  0.018285417            4 
 2209000   0.91780275    -7.788688    488.74936  0.018437806  0.018278927           13 
 2210000   0.91844354   -7.7837288    489.08565  0.018442144  0.018272417           10 
 2211000   0.89849471   -7.8287948    488.27035  0.018403074  0.018265886            5 
 2212000    0.9019759   -7.8253201     489.0299  0.018423369  0.018259333           12 
 2213000    0.8957226   -7.8105004    488.02574  0.018377231  0.018252834            6 
 2214000   0.89715312   -7.8129473    490.07736  0.018446152  0.018246339            4 
 2215000   0.88839417   -7.8182964    488.45986   0.01837697   0.01823984            5 
 2216000    0.9165798   -7.8865315    487.40761  0.018329107  0.018233287           10 
 2217000   0.89138262   -7.8354814    488.66581  0.018368133  0.018226725           12 
 2218000   0.88284832   -7.8641847    487.87608   0.01833018  0.018220184           11 
 2219000   0.88298246   -7.8698644    488.00074  0.018326601  0.018213626           12 
 2220000   0.89225084   -7.8408051    488.83273  0.018349577  0.018207071            6 
 2221000   0.90340682    -7.839258    490.10888  0.018389197  0.018200557            7 
 2222000   0.89887422   -7.8270845    488.24184    0.0183109  0.018194041            8 
 2223000   0.88900848   -7.8132695    488.98654   0.01833058  0.018187523            7 
 2224000   0.88955011   -7.7952197    488.78924  0.018314945  0.018181039           10 
 2225000   0.89167774   -7.8673245    487.31539  0.018251513  0.018174518            9 
 2226000   0.90001572   -7.8091477    488.83452  0.018300184  0.018167973           10 
 2227000   0.89285895   -7.8179239    487.99333   0.01826049  0.018161492            5 
 2228000   0.88554458   -7.8582064    489.20188  0.018297497  0.018154996            6 
 2229000   0.89664245    -7.827811    489.18589   0.01828869  0.018148463            2 
 2230000   0.87159928   -7.8075342    488.97227  0.018272506  0.018141973            5 
 2231000   0.89321945   -7.8173617    489.27418  0.018275593  0.018135444            5 
 2232000    0.8789964   -7.8050311    489.09661  0.018260775  0.018128897            5 
 2233000   0.88657816   -7.8092381    489.54953    0.0182695  0.018122413            4 
 2234000   0.89279968   -7.8518455    490.39543  0.018292877  0.018115872           10 
 2235000   0.89580504    -7.830061     489.9703  0.018268841  0.018109371            5 
 2236000   0.89853922   -7.8254661    489.36317  0.018238043  0.018102839           10 
 2237000   0.90586545   -7.8564614    489.62081  0.018239488  0.018096313            5 
 2238000   0.89496262   -7.8610703    489.82217  0.018238836  0.018089802            7 
 2239000   0.89244574   -7.8075497    489.70705  0.018226405  0.018083298           11 
 2240000   0.89574135   -7.8148747     490.0914  0.018232567  0.018076834            7 
 2241000   0.87073608   -7.8359349    489.91926   0.01821803  0.018070297           14 
 2242000   0.91143193   -7.8380126    489.56246  0.018196642  0.018063716           14 
 2243000   0.88654817   -7.8403686    489.36368  0.018181144  0.018057179           27 
 2244000   0.89102283   -7.8559701    489.45989  0.018176615  0.018050653           12 
 2245000   0.89232427   -7.8272118    490.60233  0.018210925  0.018044149           29 
 2246000   0.88424579   -7.9129648    489.29919  0.018154467  0.018037637            6 
 2247000   0.86546964    -7.838222    489.82878  0.018166028  0.018031142            5 
 2248000   0.87033403   -7.8649061    491.38308  0.018215565  0.018024699            6 
 2249000   0.88307756   -7.8218901     491.0598  0.018195487  0.018018259           21 
 2250000   0.88518991   -7.8424417    490.40772  0.018163249   0.01801179            5 
 2251000   0.89859321   -7.8406862    490.65873  0.018164473  0.018005325            4 
 2252000   0.90965492   -7.8135026    491.44773  0.018185603  0.017998883            5 
 2253000   0.88789612   -7.8262736    492.05809  0.018200107  0.017992436            7 
 2254000   0.90955773   -7.8481323    491.90439   0.01818635  0.017986008            8 
 2255000   0.87966236   -7.8640378    491.84121   0.01817595   0.01797956            9 
 2256000   0.90273561   -7.8744436    490.16221  0.018105874  0.017973107            8 
 2257000   0.85825824   -7.8494006    490.79768  0.018121314  0.017966644            6 
 2258000   0.88656188   -7.8428005    491.87485  0.018153043  0.017960228            9 
 2259000   0.88496272   -7.8451421    491.11079  0.018116821  0.017953779            4 
 2260000   0.88777392   -7.8753762    489.37542  0.018044816  0.017947298           17 
 2261000   0.88396092   -7.8504069    490.98421  0.018096131  0.017940789            3 
 2262000   0.89133238   -7.8479162    490.33832  0.018064336  0.017934297            8 
 2263000   0.88727917   -7.8221128     492.3663  0.018131032  0.017927815           15 
 2264000    0.8879635   -7.8211385    490.61683  0.018058629  0.017921303            9 
 2265000   0.88996848   -7.8506792    492.10905  0.018105557  0.017914858           15 
 2266000   0.89395624   -7.8272361    491.52481  0.018076081  0.017908428           16 
 2267000   0.90604633    -7.830209     491.8901  0.018081536  0.017902004            6 
 2268000   0.88879944    -7.862003    492.34053  0.018090114   0.01789554            4 
 2269000   0.87362448    -7.810222    492.44893  0.018086122  0.017889144            5 
 2270000   0.91121227   -7.8315176    491.37442  0.018038709  0.017882729            9 
 2271000   0.89912742   -7.8678537    489.39727  0.017958215  0.017876267            4 
 2272000   0.89180119   -7.8845925    490.91131  0.018005843  0.017869746           13 
 2273000     0.875973   -7.8546077    490.32926  0.017976582  0.017863235            4 
 2274000   0.88136694   -7.8597688    491.04414  0.017994875  0.017856727            8 
 2275000   0.88625665   -7.8675369     490.6798  0.017973619   0.01785025            8 
 2276000   0.88640827   -7.8417174    491.29891   0.01798839  0.017843748            7 
 2277000    0.8877675    -7.879948    490.93047  0.017967006  0.017837231           11 
 2278000   0.88329891   -7.8539676    491.09825  0.017965257  0.017830716            6 
 2279000   0.88289132    -7.855411    491.84702  0.017984753   0.01782419            9 
 2280000   0.86771792   -7.9096806    491.12886  0.017950616  0.017817655           18 
 2281000   0.89030639   -7.8956979    490.61912  0.017924124   0.01781108           15 
 2282000    0.8893321   -7.8931037    490.53313  0.017913129  0.017804493           11 
 2283000   0.87546241   -7.9024636    491.21568  0.017930197  0.017797882           17 
 2284000   0.89629213   -7.8702409    489.27948  0.017851703  0.017791299            9 
 2285000   0.90252861   -7.8714374    492.10923  0.017947091  0.017784722            8 
 2286000   0.87781734    -7.845873    491.85629  0.017930019  0.017778235            6 
 2287000   0.87119771   -7.8665796    491.85747  0.017922222   0.01777176            6 
 2288000   0.87986789    -7.849894    492.33079  0.017931628  0.017765276            6 
 2289000   0.87994941   -7.8760981    491.28363  0.017885672  0.017758757           13 
 2290000   0.88399757   -7.8652823    490.80852  0.017860572  0.017752292            7 
 2291000   0.86925244   -7.8594695    491.37225  0.017873281  0.017745812            6 
 2292000   0.86797834   -7.8524217     492.1951    0.0178954  0.017739349            8 
 2293000   0.88874702   -7.8407235    492.97557   0.01791596  0.017732895            4 
 2294000   0.88491672   -7.8728763      492.155  0.017878342   0.01772645            9 
 2295000   0.89210351    -7.861228    492.07503  0.017867648  0.017719997            5 
 2296000   0.89092373   -7.8481651    492.70227  0.017882632  0.017713556            6 
 2297000   0.87378035   -7.8909243    492.36915  0.017862761  0.017707122            8 
 2298000   0.91504887   -7.8512642    492.87903  0.017873478  0.017700709            6 
 2299000    0.8764834    -7.837569    492.10516  0.017837652  0.017694308           11 
 2300000   0.88206146   -7.8477723     493.2861  0.017872685  0.017687892           10 
 2301000   0.87998701   -7.8664795    493.64942  0.017878075  0.017681497            4 
 2302000   0.89326537   -7.8348573    492.34621  0.017823132  0.017675067            7 
 2303000   0.88328872   -7.8347302    493.48397  0.017856563  0.017668619            9 
 2304000   0.88664012   -7.8666015    492.00417   0.01779529  0.017662186           11 
 2305000   0.87113347   -7.8655448    493.04537  0.017825212   0.01765576            9 
 2306000   0.88807362   -7.8504663    492.64772  0.017803112  0.017649291           11 
 2307000   0.87418861   -7.8781037    492.08377  0.017775024  0.017642892           11 
 2308000   0.87690165   -7.9154479    493.11502  0.017804557  0.017636485           12 
 2309000   0.87526677   -7.9114049    492.44004  0.017772486  0.017630012           15 
 2310000   0.88908062   -7.9375351    491.61369  0.017734981  0.017623533           12 
 2311000   0.88937301    -7.920308    490.94673  0.017703257  0.017617018           15 
 2312000   0.87612669   -7.8846308    492.79617  0.017762261  0.017610544            4 
 2313000   0.84808561   -7.8979081    491.84227  0.017720214  0.017604016            6 
 2314000   0.86780803   -7.8642778    493.59374  0.017775632  0.017597499            7 
 2315000   0.87662387   -7.8884543    492.42458  0.017725867  0.017591028           14 
 2316000   0.86903216   -7.8567861    492.21299    0.0177106    0.0175846           19 
 2317000   0.88029979   -7.8582436    493.18448  0.017737897  0.017578195            9 
 2318000   0.88419187   -7.8252322    495.06813  0.017797963  0.017571811            7 
 2319000    0.8662708   -7.8868263    492.95554  0.017714372  0.017565449           11 
 2320000   0.87814525   -7.8634664    493.97763  0.017743449  0.017559056            7 
 2321000   0.87868909   -7.8863527    493.57605  0.017721386  0.017552687            3 
 2322000   0.89198178   -7.8555629    493.24706  0.017701947  0.017546256            6 
 2323000   0.90805311   -7.8560607    494.13781  0.017726281  0.017539866            8 
 2324000    0.8818559   -7.8667828    493.75083  0.017704777  0.017533448           13 
 2325000    0.8778695   -7.8605763    494.03854  0.017707475  0.017527016            8 
 2326000   0.88047265    -7.901186    492.29087  0.017637248  0.017520562           11 
 2327000   0.89227978   -7.8497404    495.07835  0.017729492  0.017514116            5 
 2328000   0.88878282   -7.8160268    494.59302  0.017704504  0.017507755            4 
 2329000   0.86365486   -7.8413124    494.72654   0.01770168   0.01750141           11 
 2330000   0.87903289   -7.8469323    493.97649  0.017667256  0.017495023            3 
 2331000   0.89020805   -7.8596165    494.61265   0.01768242  0.017488669            3 
 2332000   0.88502206   -7.8861637    493.03126  0.017618327  0.017482229            9 
 2333000   0.88166398   -7.9062889    492.84698  0.017604193   0.01747572            6 
 2334000   0.88424845   -7.8827279    492.54037  0.017585703  0.017469183            4 
 2335000   0.86855289    -7.906639    492.30614  0.017569812  0.017462657            9 
 2336000   0.88009668   -7.8915252    493.97125  0.017621691  0.017456174            7 
 2337000    0.8811918   -7.8648284    493.52283  0.017598161  0.017449671            9 
 2338000   0.88105515    -7.878116    492.95889  0.017570534  0.017443166            5 
 2339000   0.86848818    -7.879632    494.01897   0.01760079  0.017436671           10 
 2340000   0.87432161   -7.9080884    493.48455  0.017574236   0.01743014            8 
 2341000   0.90287195   -7.9139395    493.37711  0.017562905  0.017423626           10 
 2342000     0.875872   -7.8972282    494.17638  0.017583845  0.017417089            9 
 2343000    0.8889328   -7.9178956    492.96037   0.01753309  0.017410558            9 
 2344000   0.88279029   -7.9157172    492.79442   0.01751971  0.017404031            9 
 2345000   0.90330856   -7.8847302    492.85641  0.017514442  0.017397529            7 
 2346000   0.87865271   -7.8918274    493.31619  0.017523309  0.017391029            8 
 2347000   0.88828636   -7.8917705    493.28656   0.01751479  0.017384554           11 
 2348000   0.90351908   -7.8992461    493.32469  0.017508684  0.017378068            8 
 2349000   0.88102766   -7.8681334    494.03003  0.017526253  0.017371558            8 
 2350000   0.88446739   -7.9067555    493.98975  0.017517367  0.017365097            9 
 2351000   0.85919572   -7.8814882    494.29101  0.017520594   0.01735863            7 
 2352000   0.87569004   -7.9044644    492.90529  0.017464048  0.017352128            7 
 2353000   0.87860743   -7.8703001    494.82631   0.01752466  0.017345679            8 
 2354000   0.88022192   -7.9055213    494.24059  0.017496481  0.017339226            9 
 2355000   0.88303843   -7.9289133    494.02296   0.01748135  0.017332752           14 
 2356000   0.86011645   -7.9005674      494.545  0.017492395  0.017326306           14 
 2357000   0.87784061   -7.8771067    495.24347  0.017509669  0.017319883           12 
 2358000   0.87140628   -7.8926485    494.10795  0.017462113  0.017313496           10 
 2359000   0.86839089   -7.9183708    495.03672   0.01748752  0.017307065            8 
 2360000   0.87039587   -7.8859167    495.19734  0.017485782  0.017300654           16 
 2361000    0.8892125   -7.9081628    493.02296  0.017401629  0.017294212            8 
 2362000    0.8773724    -7.920245     493.8497   0.01742343  0.017287794            4 
 2363000   0.86834624   -7.9265264    494.53481  0.017440218  0.017281366            6 
 2364000   0.86524747    -7.914382    495.36453  0.017462089  0.017274936           10 
 2365000    0.8845914   -7.8819963    494.82781  0.017435793  0.017268508            9 
 2366000   0.86484986   -7.9128199    494.71306  0.017424382  0.017262104           17 
 2367000   0.87833002   -7.9388535    494.54948  0.017411262  0.017255696           12 
 2368000   0.89167182   -7.8995372    496.46872   0.01747145  0.017249299            9 
 2369000   0.86482054   -7.9030998    494.66473  0.017400617  0.017242874            5 
 2370000   0.88715577    -7.948986    494.66603   0.01739332  0.017236444           14 
 2371000   0.88577412   -7.9017271    495.11517   0.01740177  0.017230014           12 
 2372000    0.8871324   -7.9185445    494.74595  0.017381463   0.01722363           16 
 2373000   0.87373355   -7.9043468    494.75506  0.017374458  0.017217228           10 
 2374000    0.8773586   -7.9411472    495.50936  0.017393617  0.017210824            8 
 2375000   0.87862543   -7.9133316    495.85721  0.017398499  0.017204412            5 
 2376000   0.86465205   -7.9273171    496.06735  0.017398546  0.017197969           11 
 2377000   0.86986331   -7.9370957     494.4248  0.017333642  0.017191542           10 
 2378000   0.87338073   -7.9082787    495.39099  0.017360211  0.017185189            8 
 2379000   0.85890204   -7.9276758    496.07464  0.017376862  0.017178799           10 
 2380000   0.87475104   -7.9423586    495.44069  0.017347363   0.01717241            9 
 2381000   0.87934625   -7.9232219     495.0482   0.01732634  0.017165986           18 
 2382000   0.86713079   -7.9548101    493.93542  0.017280136  0.017159571            9 
 2383000    0.8671632   -7.9134963    496.00775  0.017345354  0.017153087            7 
 2384000   0.85787201   -7.9145087    495.39803  0.017316765  0.017146647           19 
 2385000   0.86374214   -7.9207568    495.91241  0.017327478   0.01714024            4 
 2386000   0.85092367   -7.9354153    494.85114   0.01728315  0.017133839           13 
 2387000   0.87495889   -7.9513324    495.20522  0.017288271  0.017127422            8 
 2388000   0.87466845   -7.8842774    495.53249  0.017292451  0.017121017           10 
 2389000   0.86591765   -7.9415117    495.32592  0.017278007   0.01711467           20 
 2390000   0.88441138   -7.9217578    494.82422  0.017253285  0.017108271            9 
 2391000   0.86655648   -7.9094451    496.56147  0.017306617   0.01710192            5 
 2392000   0.86139338   -7.9268089    495.39979  0.017258911   0.01709551            7 
 2393000   0.86090988   -7.9067134    495.54643  0.017256806  0.017089144           13 
 2394000   0.87488384   -7.9004572    495.02105  0.017231309  0.017082745            5 
 2395000   0.86750258    -7.923559    496.33247  0.017269745  0.017076353           10 
 2396000   0.86319528   -7.9171677    496.27273  0.017260459  0.017069966            7 
 2397000   0.85723521   -7.8813305    496.56317  0.017263356  0.017063608            7 
 2398000   0.86303637   -7.8930464    495.45347  0.017217593  0.017057263           10 
 2399000   0.86367632   -7.9068657    496.24162  0.017237794    0.0170509           14 
 2400000   0.87448234   -7.9252831     495.2023  0.017194524  0.017044554            9 
 2401000   0.87130803   -7.9132014    495.87584   0.01721074  0.017038221           21 
 2402000   0.85914996   -7.8762628    498.28551  0.017287174  0.017031899            8 
 2403000   0.86242398   -7.9386724    495.25335  0.017174828  0.017025618            8 
 2404000   0.85997839   -7.9547152    495.91026  0.017190455  0.017019289           13 
 2405000   0.85122683   -7.9312007    495.39135  0.017165327  0.017012927            9 
 2406000   0.87444979   -7.9305538    496.67189  0.017202545   0.01700655           14 
 2407000   0.85915858   -7.9663014    495.49678  0.017154715  0.017000188           15 
 2408000   0.88372929   -7.9415081      496.637   0.01718705  0.016993807           10 
 2409000    0.8731338   -7.9295354    496.74024  0.017183487   0.01698742            4 
 2410000   0.85076937   -7.9324037    497.04872  0.017187024  0.016981021            5 
 2411000    0.8609867   -7.9192832    496.33524  0.017155234  0.016974676            5 
 2412000   0.85471092   -7.9290637     496.0809  0.017139335  0.016968311           11 
 2413000   0.87358499   -7.9646107    495.15524  0.017100264  0.016961978            6 
 2414000   0.86947583   -7.9098054    496.75305  0.017148338  0.016955639            9 
 2415000   0.84884385   -7.9336286     497.0888  0.017152823   0.01694932            3 
 2416000   0.87630933   -7.9262124    497.04194  0.017144107  0.016942976            6 
 2417000   0.84769815   -7.9336172    497.38107  0.017148706  0.016936639            2 
 2418000   0.85942218   -7.9218552    498.49307  0.017179938  0.016930321            6 
 2419000    0.8724065   -7.9180869    496.76587  0.017113334  0.016924042           20 
 2420000   0.87204055   -7.8863212    497.91945  0.017145986  0.016917763           11 
 2421000   0.86709587   -7.9419558    496.71123  0.017097316  0.016911453            7 
 2422000   0.85654384    -7.940186    496.90038  0.017096765  0.016905112            6 
 2423000   0.85517472   -7.9065137    497.11344  0.017097037  0.016898793           20 
 2424000   0.87204427   -7.9370987     497.7337  0.017111307   0.01689249            4 
 2425000   0.86677763   -7.9131232    496.68551  0.017068231  0.016886168            4 
 2426000   0.87013407   -7.9290458    498.02314  0.017107143  0.016879878           18 
 2427000   0.87327689    -7.918196    497.78256  0.017091833  0.016873596           10 
 2428000   0.86743503   -7.9266252    498.02264  0.017093034  0.016867326            5 
 2429000   0.86813368   -7.9017945    498.88529  0.017115592  0.016861021            7 
 2430000   0.85657157   -7.9557823      498.128  0.017082579  0.016854752            6 
 2431000   0.87173408   -7.8749181     498.5603  0.017090371  0.016848505           12 
 2432000   0.86793631   -7.9029104     498.1548  0.017069449  0.016842278           26 
 2433000   0.85102891   -7.9369737    497.77729  0.017049503  0.016836028           44 
 2434000   0.85521706   -7.9503573     497.1107  0.017019676  0.016829729           20 
 2435000    0.8745862   -7.9654919    498.20034  0.017049978  0.016823422           10 
 2436000   0.86670252   -7.9458845    496.96619  0.017000759   0.01681714           11 
 2437000   0.85519959   -7.9672166    497.56003  0.017014089   0.01681082            8 
 2438000   0.83823955     -7.94028    497.76134  0.017013992  0.016804494           12 
 2439000   0.86646645   -7.9532786    497.66127  0.017003597  0.016798161           15 
 2440000   0.88241309   -7.9699762    497.27431  0.016983412  0.016791831           10 
 2441000   0.85365096   -7.9302582     498.4646   0.01701709  0.016785536            7 
 2442000   0.85992755   -7.9297564    498.32809  0.017005463  0.016779291           11 
 2443000   0.86930669   -7.9465179    498.06193  0.016989423  0.016773013           10 
 2444000   0.85835234   -7.9563389     498.2103  0.016987531  0.016766758           14 
 2445000   0.86679322   -7.9246239    498.14355  0.016978308  0.016760486           18 
 2446000   0.86264308   -7.9616129    498.37609  0.016979289  0.016754221           11 
 2447000   0.87581126   -7.9290141    499.42802  0.017008174  0.016747938            8 
 2448000   0.87504917   -7.9556811    497.51364  0.016936058  0.016741659            5 
 2449000   0.87266471   -7.9682628    497.95284  0.016944087   0.01673533            7 
 2450000    0.8610025   -7.9927174    496.54699  0.016889353  0.016728987           35 
 2451000   0.86134765   -7.9880391    498.02431  0.016932691   0.01672266           22 
 2452000   0.84911152   -7.9736956    497.85218  0.016919935  0.016716318           13 
 2453000   0.88138585   -7.9616032    498.15509  0.016923328  0.016709965           16 
 2454000   0.84000629   -7.9601088    498.12324   0.01691535  0.016703643           16 
 2455000   0.85242204   -7.9588176    497.74456  0.016895606   0.01669733           31 
 2456000   0.84137624   -7.9704516    497.80947  0.016890929  0.016690994           23 
 2457000   0.85589988   -8.0085787    496.70147  0.016846475  0.016684632           25 
 2458000   0.84716595   -7.9798208    497.93112   0.01688131  0.016678255           16 
 2459000   0.84646372   -7.9919093    496.52076  0.016826649  0.016671862           24 
 2460000   0.85675233   -7.9597149    497.72562  0.016860624  0.016665516           73 
 2461000   0.87407696   -7.9835951    497.26621  0.016838216  0.016659219           34 
 2462000   0.85385408   -7.9450741    499.19996   0.01689683  0.016652924           51 
 2463000   0.86515167   -7.9583433    498.20851  0.016856425   0.01664661           17 
 2464000   0.84887432   -7.9718879    498.21747  0.016849887   0.01664033           23 
 2465000   0.86319591   -7.9323409    499.03394  0.016870654  0.016634053           13 
 2466000   0.84743523   -7.9839011    499.13071  0.016867083  0.016627795           12 
 2467000   0.86499987   -7.9842971    497.93545  0.016819871   0.01662152            5 
 2468000    0.8666953   -7.9866948    498.12508  0.016819459  0.016615232            3 
 2469000   0.86498691   -7.9461235    499.39417   0.01685548  0.016608955            7 
 2470000    0.8522274    -7.980016    497.54783  0.016786364  0.016602661            5 
 2471000   0.86035506    -7.956503     498.2307    0.0168026  0.016596423            4 
 2472000   0.86246326    -7.947266    499.63138  0.016843021  0.016590199            9 
 2473000   0.85209298   -7.9814237    498.92263  0.016812328  0.016583966           11 
 2474000   0.88229461   -7.9577252    499.37058  0.016820621  0.016577695            3 
 2475000   0.85473609   -7.9721769    498.81092   0.01679498  0.016571404           10 
 2476000   0.87032039   -7.9530973    498.58652  0.016780645  0.016565112            7 
 2477000   0.84211644   -7.9793719    499.04448  0.016789277    0.0165588            7 
 2478000   0.85862283   -7.9637294    498.53306  0.016765303  0.016552501           34 
 2479000   0.84581013   -7.9345158    499.14972   0.01677927  0.016546242            6 
 2480000   0.86447752   -7.9924967    497.87193  0.016729568  0.016539961           12 
 2481000   0.86908371   -8.0241159    497.52592  0.016711203  0.016533681            5 
 2482000   0.85480026   -7.9616969    499.36685  0.016766279  0.016527414            6 
 2483000   0.85829451   -7.9571624    498.19593  0.016720229   0.01652116            6 
 2484000   0.86064763   -7.9511399    500.46622  0.016789661  0.016514914           10 
 2485000   0.84496605   -7.9897817    499.74797  0.016758819  0.016508652           10 
 2486000   0.85979072   -8.0144868    498.17619   0.01669939  0.016502379            6 
 2487000   0.85535341   -7.9703593    499.57196  0.016739444  0.016496096            9 
 2488000   0.84319096   -7.9530122    499.01836  0.016714173  0.016489859           13 
 2489000   0.83186798   -7.9923375    497.93278  0.016671112  0.016483596           10 
 2490000   0.85019252   -7.9376302    500.56848  0.016752626  0.016477345            5 
 2491000   0.86624701   -7.9832954    497.99875  0.016659934  0.016471087           10 
 2492000   0.85791825   -7.9592208    499.39764  0.016700028  0.016464814            7 
 2493000   0.83455879   -7.9869691    499.17604  0.016685922  0.016458578           10 
 2494000   0.87045584   -7.9908474    499.88665  0.016702975  0.016452338           14 
 2495000   0.86343381   -7.9707299    499.72094  0.016690746  0.016446136            9 
 2496000   0.86656532   -7.9821613    500.21611  0.016700591  0.016439916           13 
 2497000   0.83778966   -7.9432525    499.88686  0.016682915  0.016433696           23 
 2498000   0.85465954   -7.9737039    499.42582  0.016660856  0.016427451           23 
 2499000    0.8488963   -7.9830471    497.90542  0.016603489  0.016421179           38 
 2500000   0.84745833   -7.9810063    499.08168  0.016636056  0.016414925           24 
 2501000   0.85738771   -7.9619309    500.80532  0.016686836    0.0164087           20 
 2502000   0.84958455   -8.0112986    499.62663  0.016640908  0.016402465            7 
 2503000   0.83768006   -8.0235032    499.08337  0.016616173  0.016396226           22 
 2504000    0.8447879   -7.9967091    499.24324  0.016614858  0.016389979            9 
 2505000    0.8753996   -8.0053683     499.7065  0.016623636  0.016383714            9 
 2506000   0.86510512   -7.9971695    500.33917  0.016638041  0.016377492            6 
 2507000   0.85715016   -7.9881634    498.88272  0.016582992   0.01637127            5 
 2508000   0.85798555   -7.9971367    499.97948  0.016612822  0.016365016            3 
 2509000   0.84169166   -8.0174251    500.13718  0.016611438  0.016358765            9 
 2510000   0.86389848   -8.0011084    498.99281  0.016566826  0.016352521           16 
 2511000   0.85799846   -7.9815603    499.75171  0.016585415   0.01634628            9 
 2512000   0.85650265   -7.9910586    499.29605  0.016563696  0.016340046           25 
 2513000   0.84687998   -8.0010183    499.52541   0.01656471  0.016333833           15 
 2514000   0.84009727   -7.9744061     501.0438  0.016608453  0.016327639            9 
 2515000   0.82306763   -7.9724328    502.32517  0.016644307  0.016321486           11 
 2516000   0.84080166    -8.000764    500.20818  0.016567573  0.016315322           29 
 2517000   0.85628548   -7.9866218    500.30124  0.016564072   0.01630916           10 
 2518000    0.8551198   -7.9620381     500.3042  0.016557592  0.016303005           15 
 2519000   0.85321359    -7.974898    500.24567  0.016549083  0.016296849           11 
 2520000   0.83897297   -7.9854809    501.73681  0.016591826  0.016290713           10 
 2521000   0.82930772    -7.985543    501.34814  0.016572397   0.01628455           13 
 2522000   0.85198448   -7.9808051     500.7149  0.016544902  0.016278382           18 
 2523000   0.83458194   -7.9970816    501.15684  0.016552941  0.016272231           13 
 2524000   0.83936959   -8.0389049    499.67469  0.016497447  0.016266113           10 
 2525000   0.83635648   -7.9804731    502.28877  0.016577187  0.016259995            7 
 2526000   0.86273429   -8.0037257    500.01338  0.016495559  0.016253864           16 
 2527000   0.85174526   -8.0075628    501.38873  0.016534386  0.016247755           17 
 2528000   0.84062453   -8.0132342    501.56713  0.016533726  0.016241639            5 
 2529000   0.85213246   -7.9847444    500.99322  0.016508278  0.016235517           10 
 2530000   0.84843941   -8.0199884    500.12787   0.01647325  0.016229396           20 
 2531000   0.85205904   -7.9932744    500.84958  0.016490504  0.016223261           20 
 2532000   0.85679288   -8.0455382    501.61976  0.016509339  0.016217128           12 
 2533000    0.8622742   -8.0175439    501.61329  0.016502609  0.016210992           18 
 2534000   0.84493763   -8.0395439    500.39862   0.01645615  0.016204867            6 
 2535000   0.87066016   -8.0133196    500.70333  0.016459675  0.016198697           10 
 2536000   0.84075543   -8.0336218    501.62812  0.016483574  0.016192547            8 
 2537000   0.87513838   -8.0116633    500.30908   0.01643375  0.016186398           23 
 2538000   0.82653653   -7.9839537    501.33778  0.016461051  0.016180237            8 
 2539000   0.83737855   -8.0191755    501.17722  0.016449298  0.016174078           13 
 2540000   0.85845897   -7.9995278     499.9708  0.016403242  0.016167919           12 
 2541000   0.86087138   -8.0173243    500.27393  0.016406727  0.016161775           12 
 2542000   0.84427547   -8.0140908    500.17668  0.016397085  0.016155612           17 
 2543000   0.84106974   -8.0241231    501.77591  0.016443043  0.016149434           20 
 2544000   0.83888522    -7.978604    500.75382  0.016403099  0.016143266            5 
 2545000   0.84394456   -7.9987848    501.22239  0.016411997  0.016137144            6 
 2546000   0.83137382   -8.0070728    501.56841  0.016416877  0.016131017            8 
 2547000   0.84196097   -8.0212299    499.53871  0.016344023  0.016124862            7 
 2548000   0.84357386   -8.0017231    501.44667  0.016400009  0.016118721            5 
 2549000   0.84893704   -7.9701795    501.33364   0.01638988   0.01611263            6 
 2550000   0.84433757   -8.0242112    501.94849  0.016403545  0.016106517            9 
 2551000   0.85303346   -7.9863026    501.92222  0.016396257  0.016100372            7 
 2552000   0.84055975   -8.0045094     501.0746  0.016362154   0.01609425            4 
 2553000   0.85205716   -7.9636622    502.70977  0.016409119  0.016088145           15 
 2554000   0.85413733   -7.9372008    503.29564   0.01642181  0.016082081           14 
 2555000   0.84435135   -7.9919796    501.46223  0.016355585  0.016076021            9 
 2556000   0.84874596   -7.9904679    501.37909  0.016346475   0.01606991           11 
 2557000    0.8499167   -7.9592269    503.28493  0.016402194  0.016063827           19 
 2558000   0.83848555   -8.0112388    501.68148  0.016343546  0.016057747           17 
 2559000   0.85398536   -7.9828765     501.9855  0.016347059  0.016051655           16 
 2560000    0.8650712   -7.9583328    504.12153  0.016410206  0.016045611            9 
 2561000   0.85100807   -8.0007663    502.33543   0.01634568  0.016039553            6 
 2562000   0.84023727    -8.006149    502.21338   0.01633533  0.016033514            6 
 2563000   0.85316568   -7.9983703    501.21701   0.01629656  0.016027468           32 
 2564000     0.843675   -7.9858222     502.5099  0.016332225   0.01602143           10 
 2565000   0.84310615   -8.0020432    501.85676  0.016304638  0.016015417           12 
 2566000   0.83747618     -7.99171    501.99369  0.016302731  0.016009402           14 
 2567000   0.85109758   -7.9934168    503.15206  0.016333984  0.016003403           19 
 2568000   0.85357197   -7.9858784    504.09435  0.016358202  0.015997409            5 
 2569000   0.83930968   -8.0071816    503.05336  0.016318067  0.015991381           11 
 2570000   0.85232769   -7.9940697    503.95519   0.01634096  0.015985365            8 
 2571000   0.83974206   -8.0104764    502.15537  0.016276266  0.015979366            9 
 2572000   0.83880084   -8.0189214    502.12347  0.016268905  0.015973385           12 
 2573000   0.84957867   -8.0345739    503.86984  0.016319142  0.015967368           13 
 2574000   0.83352689   -8.0399034      502.259  0.016260651  0.015961356            9 
 2575000   0.83958993   -8.0569715    502.24495  0.016253882  0.015955302           15 
 2576000   0.84431101   -8.0303922    502.49283  0.016255591  0.015949248            7 
 2577000   0.83409979   -8.0597114    502.77626  0.016258448  0.015943181           13 
 2578000   0.83279569   -8.0048132    503.76636  0.016284147  0.015937145           13 
 2579000   0.82522614   -8.0255481    502.20937  0.016227523  0.015931125           12 
 2580000   0.84086851   -7.9972942    503.56805  0.016265118  0.015925087           16 
 2581000   0.81991578   -8.0285645    502.57532  0.016226763   0.01591906            7 
 2582000   0.84191696   -7.9773229    503.80448   0.01626015  0.015913064            7 
 2583000   0.84554196   -8.0361311    503.96809  0.016259133  0.015907099            9 
 2584000   0.84970923   -7.9609965    505.29993  0.016295792  0.015901162            7 
 2585000   0.83979897   -7.9562722     505.6093  0.016299462  0.015895231           10 
 2586000   0.86218921   -8.0338408    501.92197  0.016174335  0.015889279           22 
 2587000   0.82540749   -7.9880131    503.32896  0.016213406  0.015883295           15 
 2588000    0.8437511   -7.9977855     503.0202  0.016197199  0.015877318           14 
 2589000   0.82672456   -7.9995224    504.57301  0.016240923  0.015871338            7 
 2590000   0.83770359    -7.987248    504.28587  0.016225414  0.015865353           16 
 2591000    0.8329303    -8.010304    503.78963  0.016203191  0.015859387           10 
 2592000   0.82686513   -8.0039168    503.21599  0.016178497  0.015853404            5 
 2593000   0.84027388   -7.9966499    503.40407  0.016178303  0.015847436           13 
 2594000   0.82649882   -8.0191161     503.4315  0.016172947  0.015841436           13 
 2595000   0.82988649   -8.0309828    502.67267  0.016142347   0.01583542           18 
 2596000   0.83194752   -8.0502056    501.15357  0.016087364  0.015829406           13 
 2597000   0.84587637   -8.0059923    503.47374   0.01615562  0.015823427           13 
 2598000   0.81981801   -8.0316992     502.6213  0.016122058  0.015817438           16 
 2599000   0.84031572   -8.0045956    502.83198  0.016122611   0.01581145           23 
 2600000   0.82058961   -8.0288733    503.18626  0.016127765  0.015805462           16 
 2601000   0.84080834   -8.0178322    503.28289   0.01612466  0.015799457            9 
 2602000   0.82341505   -8.0503224     502.1903  0.016083471  0.015793439           17 
 2603000   0.84150786   -8.0411829    500.38795  0.016019591  0.015787395           20 
 2604000   0.82045924   -8.0354126    503.17997   0.01610279  0.015781371           14 
 2605000   0.83480106   -7.9931731    503.69846  0.016113194  0.015775377            8 
 2606000   0.83879643   -8.0166512    504.27545  0.016125462   0.01576937           14 
 2607000   0.82618952    -8.029424    502.01474  0.016047012  0.015763394           16 
 2608000   0.83689767   -8.0365784    503.78525  0.016097433  0.015757389            5 
 2609000   0.83982367    -8.021195    503.90045  0.016094942  0.015751418            5 
 2610000   0.82868886   -8.0239448     504.0036  0.016092069  0.015745453           23 
 2611000   0.84444914   -8.0204448    504.08328  0.016088449  0.015739475           15 
 2612000   0.84485486   -8.0355631    504.42523  0.016093199  0.015733485           25 
 2613000   0.83016569   -8.0284889    503.10438  0.016044916  0.015727503           10 
 2614000   0.84649666   -8.0494609    502.59352  0.016022492  0.015721493           17 
 2615000   0.81626549   -7.9902281    503.26322  0.016037706  0.015715517           16 
 2616000   0.82688236   -8.0532869     503.1623  0.016028361  0.015709544           46 
 2617000   0.82991362   -8.0314355    503.76211  0.016041336  0.015703566           36 
 2618000   0.82915239   -8.0204683    504.88324  0.016070895  0.015697626           69 
 2619000   0.82608787   -8.0723621    503.13293  0.016009066  0.015691665           15 
 2620000   0.82545983    -8.075005     503.0467  0.016000213  0.015685684           17 
 2621000   0.83611276   -8.0299285    503.74311   0.01601625  0.015679689           58 
 2622000   0.83235855   -8.0527328    504.05187  0.016019955  0.015673691           64 
 2623000   0.83866096   -8.0921956    504.17313    0.0160177   0.01566766           91 
 2624000   0.82749479   -8.0873364    502.88156  0.015970578  0.015661642           44 
 2625000   0.83537944   -8.0687786    504.07571  0.016002403  0.015655629           71 
 2626000    0.8488891   -8.0864376    504.12824  0.015997977  0.015649631           81 
 2627000   0.84230356   -8.0862946     502.7094  0.015946878  0.015643639           70 
 2628000   0.82986793   -8.0591631    503.74502   0.01597365  0.015637659           62 
 2629000   0.81997375   -8.0389901    503.79104  0.015969033  0.015631686           74 
 2630000   0.83077352   -8.0398137    504.99304  0.016001047  0.015625712           82 
 2631000   0.81340359    -8.074153    502.71655   0.01592286  0.015619746          114 
 2632000   0.84204475   -8.0788404    502.57111  0.015912206   0.01561378           92 
 2633000   0.82252764   -8.0532574    503.66599  0.015940815  0.015607821          100 
 2634000   0.84661903    -8.064334    504.66568  0.015966391   0.01560185          102 
 2635000   0.82493763   -8.0604084    505.25526  0.015978977  0.015595903          122 
 2636000   0.83929693   -8.0931186    503.25742  0.015909756  0.015589945          133 
 2637000   0.82543579    -8.054773    503.82255  0.015921582  0.015583973          113 
 2638000   0.84424374    -8.068276    504.35196  0.015932271  0.015578008          198 
 2639000   0.83662688   -8.0690905    504.07955  0.015917631  0.015572036          177 
 2640000   0.84061827   -8.0702498    503.46344  0.015892154  0.015566075          185 
 2641000   0.83541522   -8.0589961    504.09176  0.015905962  0.015560122          179 
 2642000   0.81905051   -8.0898684     503.0477   0.01586701   0.01555415          232 
 2643000   0.84512764   -8.0961534    503.35278  0.015870626  0.015548161          201 
 2644000   0.82439792   -8.0727895    503.47633  0.015868518  0.015542158          248 
 2645000   0.83652999   -8.1360732    501.79719  0.015809615  0.015536152          261 
 2646000   0.81741784   -8.1008155    503.33019  0.015851921  0.015530169          288 
 2647000   0.84101553   -8.1085547    503.42432  0.015848896  0.015524172          290 
 2648000   0.83732798   -8.1277553    503.92504  0.015858668  0.015518155          252 
 2649000   0.83081285   -8.1472942    502.67284  0.015813289  0.015512138          286 
 2650000   0.82852475   -8.1104987    503.63526  0.015837587  0.015506113          304 
 2651000   0.82283811   -8.1601997    502.15494  0.015785079  0.015500082          258 
 2652000   0.84896108   -8.1407541    502.83115  0.015800375  0.015494056          302 
 2653000   0.83549932   -8.1199243     501.4791  0.015751951  0.015488044          265 
 2654000   0.82645691   -8.1527656    502.45547  0.015776673   0.01548201          297 
 2655000    0.8277262   -8.1498519     503.7704  0.015812003  0.015475977          309 
 2656000   0.83783465   -8.1430576    502.90032   0.01577875  0.015469939          270 
 2657000   0.80224759   -8.1414228     501.8029  0.015738392  0.015463908          279 
 2658000   0.82628816   -8.1316292    502.56987  0.015756517  0.015457875          310 
 2659000   0.81080738   -8.1429319    502.37346  0.015744436  0.015451833          308 
 2660000   0.83183591   -8.1464666    501.99845  0.015726769  0.015445806          311 
 2661000   0.84360979   -8.1350712    502.12861  0.015724934  0.015439772          365 
 2662000   0.82060584   -8.1542092    503.08967  0.015749113  0.015433748          402 
 2663000   0.82612733   -8.1393914    503.09336  0.015743314  0.015427701          413 
 2664000   0.84748382   -8.1296381    501.76643  0.015695897  0.015421677          380 
 2665000   0.82645431   -8.1583344    501.31823  0.015675992  0.015415649          399 
 2666000    0.8270526   -8.1364912     503.6779   0.01574387  0.015409588          409 
 2667000   0.81632837   -8.1502275    503.37956  0.015728645  0.015403546          470 
 2668000    0.8296627   -8.1287357    502.82032  0.015705282  0.015397519          383 
 2669000   0.82054656   -8.1407032     502.7366  0.015696784  0.015391462          381 
 2670000    0.8336498    -8.171161    502.26876  0.015676303  0.015385448          454 
 2671000   0.82238404   -8.1518844    503.08574  0.015695923  0.015379409          473 
 2672000   0.84717276   -8.1790188    502.51394  0.015672216  0.015373345          525 
 2673000   0.84022424   -8.1596695    502.94437  0.015679772  0.015367276          557 
 2674000   0.83093539   -8.1778406    502.00354  0.015644588  0.015361227          494 
 2675000   0.81386641   -8.1444671     503.1263  0.015673717  0.015355195          595 
 2676000   0.83945932   -8.1650931    502.76551  0.015656624  0.015349192          599 
 2677000   0.83067159   -8.1816085    501.88116  0.015623246  0.015343137          674 
 2678000   0.83072525    -8.182798    501.17081  0.015595308  0.015337071          739 
 2679000   0.83492045   -8.1878519    502.17692  0.015620783     0.015331          723 
 2680000   0.84180593   -8.1888324    502.37447  0.015621097  0.015324934          691 
 2681000   0.83447409   -8.1792131    502.96495  0.015633624  0.015318835          750 
 2682000   0.82681459   -8.2229819    503.30716  0.015638428  0.015312735          768 
 2683000   0.82792034   -8.2201288    500.36592  0.015541245  0.015306611          698 
 2684000   0.82034027   -8.2042529    501.06859  0.015557271   0.01530049          782 
 2685000   0.82894008   -8.1930124    502.31324  0.015590107  0.015294369          773 
 2686000   0.81747731   -8.2371896    501.03119  0.015544527  0.015288263          812 
 2687000     0.819147   -8.2230871    501.11749  0.015541418  0.015282149          828 
 2688000    0.8144895   -8.2141816     500.7707  0.015524885  0.015276026          818 
 2689000   0.82043346   -8.2392891    501.04419  0.015527587  0.015269888          837 
 2690000   0.82731167   -8.2299578     501.5467  0.015537382  0.015263751          898 
 2691000   0.81921849   -8.2589141    500.32571  0.015493797  0.015257593          957 
 2692000   0.81801687    -8.224701    502.52466  0.015556112  0.015251427          890 
 2693000   0.82142999   -8.2622105     500.4567  0.015486344  0.015245256         1006 
 2694000   0.85607935   -8.2788762    499.69892  0.015457155   0.01523908         1016 
 2695000   0.83179553   -8.2982619     499.2595  0.015437832  0.015232884         1062 
 2696000   0.82212809    -8.259719    500.11047   0.01545841  0.015226699         1033 
 2697000   0.79978352   -8.2760468    498.91755  0.015415819  0.015220499         1060 
 2698000   0.81425489   -8.2616891    500.69785  0.015465093  0.015214286         1018 
 2699000   0.80815054   -8.2687162    499.80242  0.015431716  0.015208069         1042 
 2700000   0.82962887   -8.3054186    499.81109  0.015426268  0.015201867         1093 
 2701000   0.81919973    -8.291223    500.77517  0.015450301  0.015195661         1175 
 2702000   0.81147093   -8.2822338    499.33097  0.015400042  0.015189443         1186 
 2703000   0.81442684   -8.3158476    499.93295  0.015412904  0.015183234         1262 
 2704000   0.81622881   -8.3002083    498.48982  0.015362729  0.015176968         1386 
 2705000   0.82365596   -8.3214361    499.01648  0.015373274  0.015170704         1344 
 2706000   0.82393186   -8.3327812    498.30354  0.015345638  0.015164433         1379 
 2707000   0.82638337   -8.3316546    497.56906  0.015317358  0.015158141         1406 
 2708000   0.82987649    -8.340661    498.66586  0.015345454  0.015151833         1466 
 2709000   0.81119161    -8.319002    499.84116  0.015375943  0.015145525         1405 
 2710000    0.8187871   -8.3728351    497.49283  0.015298057  0.015139207         1571 
 2711000   0.81766939   -8.3509687    497.93476  0.015305999  0.015132863         1555 
 2712000   0.81575453   -8.3705251      496.902  0.015268621  0.015126511         1547 
 2713000   0.83062462   -8.3871728    497.07089  0.015268181  0.015120149         1631 
 2714000   0.80957397   -8.3787829    497.23383  0.015267558  0.015113817         1653 
 2715000   0.81291289   -8.3920828    496.91866  0.015252261  0.015107468         1721 
 2716000   0.83275663   -8.3892428    497.24408   0.01525663  0.015101097         1709 
 2717000   0.83662603    -8.414253    496.59359  0.015231063  0.015094724         1796 
 2718000   0.81882447   -8.3985944     495.9075  0.015204424  0.015088321         1852 
 2719000   0.81471907   -8.4128804    496.74638  0.015224543  0.015081927         1959 
 2720000   0.79635247   -8.4374609    495.73406  0.015187931  0.015075528         2056 
 2721000   0.81953696   -8.4282524    496.88912  0.015217724  0.015069071         2058 
 2722000   0.80138655   -8.4435291    496.21497  0.015191494  0.015062601         2188 
 2723000    0.8222403   -8.4932319    494.05816  0.015119909  0.015056112         2194 
 2724000   0.81505138   -8.4773473    494.94911  0.015141615  0.015049611         2169 
 2725000   0.82002113   -8.4758452    494.52114  0.015122971    0.0150431         2262 
 2726000    0.8028319   -8.4839919    493.42887  0.015084032  0.015036578         2246 
 2727000   0.82305408   -8.4820576     494.3456  0.015106515  0.015030049         2302 
 2728000   0.82225017   -8.5002018    494.48304  0.015105176  0.015023531         2328 
 2729000   0.84007716   -8.5072763     493.0637    0.0150563  0.015016993         2341 
 2730000   0.81324736   -8.5221691    495.05539  0.015111581  0.015010425         2474 
 2731000   0.81389008   -8.5090318    493.29379  0.015052294  0.015003854         2536 
 2732000   0.81380455   -8.5479716     492.3184  0.015017033  0.014997272         2640 
 2733000    0.8113538   -8.5489873     492.8475  0.015027671  0.014990677         2595 
 2734000   0.80221914   -8.5670912    492.56605  0.015013596  0.014984087         2689 
 2735000   0.81330475   -8.5581085    491.25975  0.014968304  0.014977438         2743 
 2736000    0.8088149   -8.5831271    492.60418  0.015003782  0.014970794         2804 
 2737000   0.80448923   -8.5792587    492.20208  0.014986058  0.014964124         2895 
 2738000   0.81552656   -8.5873088    491.71827  0.014965859  0.014957444         3002 
 2739000   0.82666781   -8.6033026    491.83509  0.014963949  0.014950751         2893 
 2740000   0.80155143   -8.6077704    490.78061  0.014926418  0.014944047         2964 
 2741000    0.8034903   -8.6343089    490.39221  0.014909164  0.014937353         2914 
 2742000   0.82535378    -8.616701    490.85906  0.014917914  0.014930634         2986 
 2743000    0.8050834   -8.6314007    490.92732   0.01491455  0.014923908         3056 
 2744000   0.81520079     -8.62646    491.36077  0.014922278  0.014917176         3074 
 2745000   0.82264102   -8.6309617    490.73231  0.014897763  0.014910447         3075 
 2746000   0.81644894   -8.6394546     490.3795  0.014881631  0.014903711         3155 
 2747000   0.82755795    -8.628501    489.89775  0.014861599   0.01489698         3073 
 2748000   0.81478523   -8.6230527    490.50092  0.014874482   0.01489025         3126 
 2749000   0.82362397   -8.6470323    489.73076  0.014845725  0.014883505         3178 
 2750000   0.82376423   -8.6641851    490.14394  0.014852847  0.014876752         3244 
 2751000   0.82579859   -8.6608141    489.64671  0.014832385  0.014870006         3211 
 2752000   0.82055518   -8.6921289    489.71644  0.014829107  0.014863261         3220 
 2753000   0.83791034   -8.6519713    489.92658  0.014830082   0.01485651         3297 
 2754000   0.80846765   -8.6809675      489.851   0.01482241  0.014849761         3236 
 2755000   0.80966218   -8.6760986    490.35232  0.014832193  0.014843019         3174 
 2756000   0.80764237   -8.6799156    490.22331  0.014822911  0.014836267         3314 
 2757000   0.79630665   -8.6836044    490.49519  0.014825752  0.014829512         3240 
 2758000   0.81603218   -8.6822915    490.05672  0.014807128  0.014822746         3250 
 2759000   0.80542124   -8.6559207    489.38301  0.014781413  0.014815994         3229 
 2760000   0.81141259   -8.6814611     490.2193  0.014801307  0.014809236         3239 
 2761000   0.82967892   -8.6735001    489.73636   0.01478137   0.01480249         3226 
 2762000   0.80346332   -8.6769225    490.23094  0.014790941  0.014795753         3209 
 2763000   0.80678958   -8.6999934    489.08006  0.014750877  0.014789012         3311 
 2764000   0.81100244   -8.6531832    489.17891   0.01474852  0.014782257         3246 
 2765000   0.81877465   -8.6893884    489.67483  0.014758132  0.014775518         3259 
 2766000   0.79624129   -8.6995047    489.57828  0.014749888  0.014768774         3277 
 2767000   0.80841213   -8.7104826    489.20186  0.014733221  0.014762018         3328 
 2768000   0.80743068   -8.7183834    489.20826  0.014728091  0.014755275         3341 
 2769000   0.82130757   -8.7040547    489.04324  0.014717806  0.014748512         3284 
 2770000   0.79037343   -8.6912537    489.09922  0.014714176  0.014741766         3331 
 2771000   0.80752964   -8.7046248    490.18431  0.014741499  0.014735027         3300 
 2772000   0.81819794   -8.7170185    488.57328  0.014687749  0.014728284         3380 
 2773000   0.81526342   -8.7039348    489.90489  0.014722469  0.014721539         3341 
 2774000   0.80524561   -8.7405538    488.24175    0.0146672  0.014714784         3351 
 2775000   0.82955131   -8.7351096    488.44718  0.014668083   0.01470804         3321 
 2776000   0.81421239   -8.7144648    488.59091  0.014667114  0.014701298         3330 
 2777000   0.80348368   -8.7115934    489.71997  0.014695714  0.014694537         3371 
 2778000   0.80570067   -8.6898343    489.59084   0.01468655  0.014687808         3356 
 2779000   0.81031139   -8.7298025    489.15387  0.014668162  0.014681062         3350 
 2780000   0.79729215   -8.7317768     488.7923  0.014652047  0.014674311         3395 
 2781000   0.82381257   -8.7564351    488.66647  0.014643008  0.014667574         3420 
 2782000   0.79705508   -8.7163036    488.53818  0.014633902  0.014660832         3403 
 2783000   0.80035246   -8.7281928    489.57568   0.01465971  0.014654098         3338 
 2784000   0.80036566   -8.7328898    489.20624  0.014643386  0.014647364         3409 
 2785000   0.79459596   -8.7317777    489.50505  0.014647069  0.014640633         3378 
 2786000   0.81457354   -8.7353746    487.80652  0.014591006  0.014633899         3385 
 2787000   0.81879176   -8.7470867    488.55086  0.014608027  0.014627163         3366 
 2788000   0.82222001     -8.75146    488.65155  0.014605797  0.014620437         3415 
 2789000   0.82085122   -8.7492873    489.02144  0.014611612  0.014613706         3419 
 2790000   0.82013509   -8.7364171    488.19535  0.014581701  0.014606981         3424 
 2791000   0.80684793   -8.7638768    488.51316  0.014585966  0.014600252         3494 
 2792000   0.80396047   -8.7474279    488.67769  0.014585652  0.014593515         3543 
 2793000   0.82978222   -8.7415729     489.1181   0.01459357  0.014586784         3473 
 2794000    0.8046533   -8.7702968    488.06805  0.014557028  0.014580067         3471 
 2795000   0.81875937   -8.7381239    489.20564  0.014585738  0.014573361         3527 
 2796000     0.815258    -8.733748     489.0354  0.014575447  0.014566646         3459 
 2797000   0.81223877   -8.7578054    488.11188  0.014542721  0.014559938         3554 
 2798000    0.8049369   -8.7516668    489.46092  0.014577702  0.014553226         3476 
 2799000   0.80821806   -8.7499007    488.47938  0.014543271  0.014546512         3520 
 2800000   0.79240997    -8.767896    488.16215  0.014528635    0.0145398         3500 
 2801000   0.81294576   -8.7488374    488.91216  0.014545762  0.014533086         3533 
 2802000   0.78838028   -8.7785603    487.35486  0.014494256   0.01452637         3577 
 2803000   0.81110664   -8.7620868    488.26207  0.014516056  0.014519645         3512 
 2804000   0.80740315    -8.787085     487.6069  0.014491408  0.014512929         3577 
 2805000   0.78937039   -8.7758092    487.70622  0.014489192  0.014506208         3532 
 2806000   0.79681912   -8.7637258    488.70929  0.014513818  0.014499491         3466 
 2807000   0.82410263   -8.7868626     488.5256  0.014503194  0.014492776         3590 
 2808000   0.82264818   -8.7840749    488.82631  0.014506954   0.01448606         3535 
 2809000    0.7868565   -8.7899856    488.35672  0.014487858  0.014479343         3564 
 2810000   0.78782549   -8.7761611     488.3015  0.014481065  0.014472637         3586 
 2811000   0.81107562    -8.788554    487.97779  0.014466317  0.014465919         3569 
 2812000   0.81247551   -8.7714741    487.42686  0.014444845  0.014459197         3601 
 2813000   0.79615605   -8.7983765    487.24646  0.014434366  0.014452486         3631 
 2814000   0.82188604   -8.7808509    488.33561   0.01446149  0.014445764         3663 
 2815000   0.79107506   -8.7628717    488.71604  0.014467615  0.014439037         3605 
 2816000   0.80824622   -8.7966939     487.8006  0.014435387  0.014432325         3628 
 2817000   0.80558164   -8.7842048    488.74089  0.014458079  0.014425611         3661 
 2818000   0.80951805   -8.7999415    486.97186  0.014400635  0.014418902         3623 
 2819000   0.79911879   -8.8240498    487.30433  0.014405355  0.014412179         3636 
 2820000   0.81097052   -8.8030635    487.04808  0.014392674  0.014405469         3618 
 2821000   0.78787558   -8.7972441    486.46153  0.014370245  0.014398765         3608 
 2822000   0.80559691   -8.8085297    487.02504  0.014381793  0.014392063         3666 
 2823000    0.8145398   -8.7781189    487.72035  0.014397224  0.014385369         3629 
 2824000   0.77788247    -8.776191    487.75016  0.014393005  0.014378666         3573 
 2825000   0.79628961   -8.7895458    488.55778  0.014411734   0.01437198         3578 
 2826000   0.80445639   -8.7924572    487.00548   0.01436086  0.014365294         3585 
 2827000   0.79548619    -8.794827    487.49552  0.014370225  0.014358603         3581 
 2828000   0.79098514   -8.8250417    486.53007  0.014336695  0.014351913         3645 
 2829000    0.7974399   -8.8074087    487.03869  0.014346609  0.014345216         3658 
 2830000   0.80777168    -8.808828    487.93514  0.014367937  0.014338521         3680 
 2831000   0.80130357   -8.8306005    487.53097  0.014350965  0.014331824         3665 
 2832000   0.80326532   -8.8150407    488.33092  0.014369436  0.014325141         3672 
 2833000   0.80113497   -8.8203411    486.27031  0.014303751  0.014318449         3639 
 2834000   0.79084961   -8.8137899    486.21398  0.014297047  0.014311761         3685 
 2835000   0.80145061   -8.8260181    487.23468  0.014322007  0.014305069         3734 
 2836000   0.80705114   -8.8192063    487.20691  0.014316141  0.014298387         3643 
 2837000   0.79875169   -8.8322959    485.70809  0.014267069  0.014291706         3668 
 2838000   0.79306873   -8.8209822    486.93953  0.014298201  0.014285018         3697 
 2839000   0.80820984   -8.8101655    487.24668   0.01430218  0.014278339         3706 
 2840000   0.79368194   -8.8158286    487.02697  0.014290698  0.014271663         3695 
 2841000   0.77740204   -8.8112763    486.96006  0.014283705  0.014264984         3689 
 2842000   0.79484606   -8.8463261    487.00833  0.014280094  0.014258304         3652 
 2843000   0.79036251   -8.8263714    486.18188  0.014250847  0.014251632         3668 
 2844000   0.81324651   -8.8001773    487.52021  0.014285051  0.014244958         3694 
 2845000   0.78939822   -8.8607028    486.78307  0.014258438  0.014238289         3693 
 2846000   0.81770587   -8.8453731    486.96095  0.014258636  0.014231618         3716 
 2847000   0.80015643   -8.8342187    485.02831  0.014197058  0.014224959         3726 
 2848000    0.7880679   -8.8003902    487.80212  0.014273236  0.014218298         3707 
 2849000   0.81455192   -8.8625965    485.12639  0.014189961  0.014211634         3744 
 2850000   0.78806652   -8.8220169    486.80162  0.014233966  0.014204974         3707 
 2851000   0.79468896   -8.8426976    487.24923  0.014242056  0.014198316         3669 
 2852000     0.808926   -8.8312285    487.79951  0.014253141  0.014191663         3758 
 2853000   0.79422471   -8.8176342    487.01186  0.014225139   0.01418502         3735 
 2854000   0.80012515   -8.8426612    486.82614  0.014214732  0.014178381         3752 
 2855000   0.79618932   -8.8075904    487.98033  0.014243442  0.014171733         3728 
 2856000   0.78656236   -8.8283243    487.75688  0.014231935  0.014165104         3751 
 2857000   0.79921973   -8.8635518    486.46056  0.014189142   0.01415847         3761 
 2858000   0.81251323   -8.7900472    487.13062  0.014203715  0.014151837         3694 
 2859000   0.80350647   -8.8368058    486.85217  0.014190631  0.014145206         3685 
 2860000   0.78013198   -8.8130628    486.88458  0.014186613  0.014138582         3701 
 2861000    0.8101729   -8.8648739    485.55548  0.014142942  0.014131953         3760 
 2862000   0.79705382   -8.8563595    486.76533  0.014173228  0.014125328         3756 
 2863000   0.79621116   -8.8543138    487.27515  0.014183117  0.014118694         3768 
 2864000   0.78859044   -8.8157222    486.42734  0.014153496  0.014112087         3747 
 2865000   0.79640092   -8.8510768    486.44498  0.014149069  0.014105464         3749 
 2866000   0.78000074    -8.833269    486.71126  0.014151874  0.014098855         3718 
 2867000   0.78483499   -8.8382002    486.76947   0.01414863  0.014092246         3757 
 2868000   0.78820733   -8.8252704    486.00895  0.014121599  0.014085633         3764 
 2869000   0.78696249   -8.8496172    486.80299  0.014139741  0.014079026         3779 
 2870000   0.79221347   -8.8797591     485.5062   0.01409716  0.014072418         3780 
 2871000   0.81023074   -8.8659959    486.26342  0.014114229  0.014065816         3773 
 2872000   0.79345869   -8.8477032    486.72544   0.01412272  0.014059212         3784 
 2873000   0.79555766   -8.8553337    486.60301  0.014114254  0.014052612         3784 
 2874000   0.78525363   -8.8450032    486.00162  0.014091905  0.014046029         3760 
 2875000   0.78029606   -8.8601377     485.9185  0.014084594  0.014039437         3760 
 2876000   0.80596537   -8.8507671    486.10491  0.014085098  0.014032851         3730 
 2877000   0.78898057   -8.8637039    485.82537  0.014072105  0.014026273         3792 
 2878000   0.80473534   -8.8336901    487.19452   0.01410686  0.014019691         3809 
 2879000   0.79634522   -8.8335213    485.70998   0.01405899   0.01401311         3757 
 2880000   0.79773534     -8.88243    485.47613  0.014047342  0.014006526         3785 
 2881000   0.78734824   -8.8591997    487.14707  0.014090798  0.013999947         3782 
 2882000   0.77771998   -8.8805242    485.34649  0.014033845  0.013993369         3768 
 2883000   0.79098888   -8.8294847     486.8638  0.014072835  0.013986807         3760 
 2884000   0.78995597   -8.8237073    485.65493  0.014033025  0.013980245         3766 
 2885000   0.78163286   -8.8497921    486.04105  0.014039314  0.013973695         3773 
 2886000   0.77641558   -8.8640276    485.58255   0.01402121  0.013967148         3771 
 2887000   0.77138613   -8.8569692     486.2571  0.014035824  0.013960599         3762 
 2888000   0.79128563   -8.8467575    486.37643  0.014034408   0.01395405         3763 
 2889000    0.7616011   -8.8544091    486.58673  0.014035616  0.013947511         3738 
 2890000   0.79772578   -8.8420461    486.47402  0.014027509  0.013940972         3762 
 2891000   0.75873089   -8.9027199    485.25317  0.013987466  0.013934437         3746 
 2892000   0.78284538    -8.858824    485.49914  0.013989717  0.013927884         3755 
 2893000   0.78420638   -8.8969895    485.08267  0.013972885  0.013921345         3829 
 2894000   0.76884238   -8.8285419    486.42398   0.01400668  0.013914813         3772 
 2895000   0.79739968   -8.8424187    487.03584  0.014019454  0.013908278         3831 
 2896000   0.79041417   -8.8728387    485.73573  0.013977202  0.013901756         3810 
 2897000   0.78944362   -8.8781027    486.67447  0.013999381  0.013895238         3734 
 2898000     0.788592   -8.8452138       486.07  0.013977168   0.01388872         3739 
 2899000   0.76827559   -8.8335938      485.813  0.013964959  0.013882199         3761 
 2900000   0.78602659   -8.8756429    485.42698  0.013949051  0.013875675         3764 
 2901000   0.78813596   -8.8645573    486.32597  0.013970067  0.013869161         3763 
 2902000   0.78784826    -8.860472    485.93436  0.013954007  0.013862643         3795 
 2903000   0.78753088   -8.8358345     487.3358   0.01398943  0.013856139         3725 
 2904000   0.79098266   -8.8809552    485.84357  0.013941792  0.013849629         3822 
 2905000    0.7889767   -8.8758897    485.97613  0.013940795  0.013843121         3741 
 2906000   0.81499395   -8.8555936    485.71784  0.013928591  0.013836605         3778 
 2907000   0.77227159   -8.8660107    485.68457  0.013922846    0.0138301         3776 
 2908000   0.78967022   -8.8514864     484.9685  0.013897538  0.013823592         3817 
 2909000   0.80368444   -8.8368305    487.27917  0.013958954  0.013817087         3762 
 2910000    0.7969006   -8.8800716     486.7213  0.013938182  0.013810587         3831 
 2911000   0.78598088   -8.8569701     486.2326  0.013919404  0.013804092         3821 
 2912000    0.7869777   -8.8560767    486.22905  0.013914522  0.013797596         3775 
 2913000   0.77704585   -8.8610264    485.48301  0.013888403  0.013791103         3770 
 2914000   0.78906172   -8.8521578    484.95765  0.013868613  0.013784611         3794 
 2915000   0.77940099    -8.887659    486.13723  0.013897577  0.013778127         3801 
 2916000   0.78702596    -8.882251     486.6359  0.013907062  0.013771642         3750 
 2917000   0.79677678   -8.8514746    485.22638  0.013862027  0.013765163         3756 
 2918000   0.79001111   -8.8862318    485.26141  0.013858276  0.013758679         3790 
 2919000   0.79484759   -8.8490483    485.96003  0.013873474  0.013752208         3763 
 2920000   0.79669938    -8.876149    486.21361  0.013875959  0.013745735         3771 
 2921000     0.790791   -8.8870481    485.56477  0.013852698  0.013739274         3818 
 2922000   0.80007545    -8.878175    486.53805  0.013875714  0.013732811         3806 
 2923000   0.78780923   -8.8613444    485.68481  0.013846642  0.013726344         3785 
 2924000   0.76984705    -8.845719    486.79913  0.013873664   0.01371988         3796 
 2925000   0.78148129   -8.8806148    485.06221  0.013819436  0.013713423         3803 
 2926000   0.78714259    -8.898818    484.80427  0.013807367  0.013706987         3770 
 2927000   0.78305314   -8.8718134    485.13747  0.013812136  0.013700549         3799 
 2928000   0.77829491   -8.8747378    485.39412  0.013814723  0.013694117         3770 
 2929000   0.79539031   -8.8819604    484.90892  0.013796202  0.013687679         3784 
 2930000   0.77583505   -8.8812717     485.6098  0.013811428  0.013681256         3771 
 2931000   0.80237626   -8.8606572    486.57456  0.013834145  0.013674832         3756 
 2932000   0.77573275    -8.891422     485.5146  0.013799301  0.013668411         3822 
 2933000   0.79221715   -8.8697265     485.7828  0.013802216  0.013661988         3815 
 2934000   0.78509053   -8.8700168    486.37645  0.013814373  0.013655567         3791 
 2935000   0.77370803   -8.8705087    486.63354  0.013816966   0.01364915         3759 
 2936000   0.79025858   -8.8567867    485.73954  0.013786885  0.013642751         3785 
 2937000   0.77807837   -8.8527631    485.74382  0.013782313   0.01363634         3804 
 2938000   0.78044755   -8.8939552    485.40816  0.013768101  0.013629939         3822 
 2939000   0.77366908   -8.8903236    485.99424  0.013780034  0.013623539         3807 
 2940000    0.7941317   -8.8678692    486.00851  0.013775751  0.013617145         3783 
 2941000    0.7988602   -8.8675621    486.30427  0.013779448  0.013610759         3786 
 2942000   0.78927554   -8.8927685    485.45923  0.013750828  0.013604377         3804 
 2943000   0.80219243   -8.9009559    486.41753   0.01377329  0.013597986         3822 
 2944000    0.7785355   -8.8978855    484.30414   0.01370879  0.013591588         3714 
 2945000   0.78549516   -8.8746762    485.70578  0.013743797  0.013585212         3801 
 2946000   0.77751121   -8.8955914    485.09178  0.013721763  0.013578835         3796 
 2947000   0.77732152   -8.8762711    485.91242  0.013740313  0.013572461         3807 
 2948000   0.76453059   -8.8917114    485.10601  0.013712856  0.013566092         3805 
 2949000   0.78721725   -8.8699725    485.61982  0.013722726  0.013559715         3763 
 2950000   0.78235786   -8.8795036    486.56343   0.01374473  0.013553344         3778 
 2951000   0.78037783   -8.8597043    485.60426  0.013712986   0.01354699         3789 
 2952000   0.77317766   -8.9048205     485.7708  0.013713042  0.013540628         3800 
 2953000   0.77768444   -8.9022662    484.89237  0.013683609  0.013534265         3777 
 2954000    0.7815443   -8.8634792    485.71904  0.013702297  0.013527917         3798 
 2955000   0.78070801   -8.8792848    486.21755  0.013711719   0.01352156         3789 
 2956000    0.7739697   -8.8832016    485.35971  0.013682897  0.013515216         3758 
 2957000   0.79125627   -8.9160027    483.73989   0.01363262  0.013508872         3792 
 2958000    0.7853365   -8.8748382    486.31868  0.013700661  0.013502526         3789 
 2959000   0.77537716   -8.8850519    485.67296  0.013677846  0.013496175         3777 
 2960000   0.78212776   -8.8862117    485.82133  0.013677402  0.013489842         3798 
 2961000   0.78651538   -8.8787673     485.8692   0.01367413  0.013483514         3788 
 2962000   0.78647021   -8.9024105    484.99779  0.013644997  0.013477181         3778 
 2963000   0.77063825   -8.8858563    485.82492  0.013663655  0.013470857         3817 
 2964000   0.78319049   -8.8596468    485.45514  0.013648649  0.013464539         3810 
 2965000   0.77645765   -8.8942309    486.82482  0.013682541  0.013458224         3789 
 2966000   0.78346535   -8.8880282    485.64088  0.013644664  0.013451914         3795 
 2967000   0.78015815   -8.8836475    485.03131  0.013622944  0.013445597         3836 
 2968000   0.77976556   -8.8838799    485.49408  0.013631348   0.01343929         3806 
 2969000   0.76614501   -8.9131983    485.24753  0.013619836  0.013432987         3774 
 2970000   0.77309727   -8.8778814    485.31714  0.013617204  0.013426676         3761 
 2971000   0.77348875   -8.8845076    484.68489  0.013594886  0.013420374         3778 
 2972000   0.77503493   -8.8852573    486.30715    0.0136358  0.013414081         3794 
 2973000   0.76074937   -8.8952725    485.64697  0.013612708   0.01340779         3801 
 2974000   0.78711432   -8.9253992    485.01526   0.01359043  0.013401492         3814 
 2975000    0.7898142   -8.8895781    485.63998  0.013603361  0.013395203         3777 
 2976000   0.77392251   -8.9121246    485.45819  0.013593699  0.013388917         3771 
 2977000   0.77866289   -8.8727643    485.54613  0.013591595  0.013382644         3783 
 2978000   0.77610509   -8.9024554    484.93625  0.013569965  0.013376363         3807 
 2979000   0.77504511   -8.8799834    485.69144  0.013586535  0.013370093         3797 
 2980000   0.76652717   -8.8997085    485.55059  0.013578037  0.013363819         3779 
 2981000   0.76666907   -8.8869431    485.94426  0.013584487  0.013357563         3814 
 2982000   0.77743644   -8.8922925    485.46934  0.013566659  0.013351307         3750 
 2983000   0.79121944   -8.9027218    484.10862  0.013524098  0.013345048         3804 
 2984000   0.77161343   -8.8930799    485.83137  0.013567677  0.013338793         3754 
 2985000   0.76694079   -8.8841124    485.89064  0.013564786   0.01333254         3795 
 2986000   0.77007724   -8.8803702    486.32803   0.01357245  0.013326291         3779 
 2987000   0.77382961   -8.9010489    484.61475  0.013520108  0.013320045         3814 
 2988000   0.76722706   -8.9167085    484.77348   0.01352001  0.013313799         3801 
 2989000   0.80915429   -8.8966462    485.90547  0.013547047  0.013307555         3820 
 2990000   0.79675303   -8.8820129    485.29231  0.013525427  0.013301312         3780 
 2991000   0.77711202   -8.8827606    484.42513  0.013496744  0.013295076         3805 
 2992000   0.76787871   -8.8934882    486.40232  0.013547302   0.01328884         3789 
 2993000   0.75922953   -8.8846442    485.30489   0.01351222  0.013282609         3790 
 2994000   0.79246963   -8.8745954    485.65868  0.013517554  0.013276386         3734 
 2995000    0.7966939   -8.8983147    485.99205  0.013522316  0.013270176         3797 
 2996000   0.75425215   -8.8749523    484.36201  0.013472463  0.013263954         3788 
 2997000   0.78708479   -8.8780856    485.98967  0.013513226  0.013257738         3776 
 2998000   0.77122742   -8.8906093    486.76687  0.013530322  0.013251527         3817 
 2999000   0.77800218   -8.9017122    484.57141  0.013464805  0.013245312         3786 
 3000000   0.77023121   -8.9152153    485.65353  0.013490376    0.0132391         3819 
 3001000   0.76479718   -8.9118652    484.77352  0.013461444  0.013232883         3839 
 3002000   0.75012112   -8.9256213    485.24389  0.013470017  0.013226671         3813 
 3003000    0.7638407   -8.8806662    485.62473    0.0134761  0.013220467         3766 
 3004000    0.7709794   -8.9244566    483.97429  0.013425829  0.013214263         3826 
 3005000   0.78077638   -8.8952235    485.75433  0.013470724  0.013208064         3835 
 3006000   0.75816876   -8.9212439     485.0256  0.013446041   0.01320187         3798 
 3007000   0.75830072    -8.895351    485.42173  0.013452548  0.013195674         3780 
 3008000   0.76301362   -8.9128444    485.39395  0.013447306  0.013189489         3810 
 3009000   0.77317165    -8.898714    485.51706  0.013446246  0.013183299         3799 
 3010000   0.78459173   -8.8997373    485.32865  0.013436563  0.013177118         3797 
 3011000    0.7520845   -8.9342532    485.61445   0.01344001  0.013170941         3826 
 3012000   0.76728382   -8.8901049    485.57902  0.013434568  0.013164758         3794 
 3013000   0.77977496   -8.8905595      485.722  0.013434064  0.013158591         3776 
 3014000   0.75084397   -8.9148293    484.65129  0.013400002  0.013152414         3821 
 3015000   0.77650422   -8.9322398    485.44961  0.013417623  0.013146253         3793 
 3016000   0.78185556   -8.9099403    485.67077  0.013419285  0.013140089         3805 
 3017000    0.7531344   -8.9032406    484.90396  0.013393657  0.013133934         3805 
 3018000   0.76183758   -8.9119043    484.36226  0.013374262  0.013127775         3797 
 3019000   0.78383226   -8.9011683    484.94539  0.013385928  0.013121622         3814 
 3020000   0.75777255   -8.9023652    484.51824  0.013369709  0.013115481         3798 
 3021000   0.77039071    -8.925401    484.71439  0.013370694  0.013109341         3827 
 3022000   0.73731588   -8.9040869    483.87583  0.013343145  0.013103204         3763 
 3023000   0.75787898   -8.9041299    484.95773  0.013368556   0.01309706         3781 
 3024000    0.7655027   -8.9143214    485.82241  0.013387963  0.013090921         3756 
 3025000   0.77339119   -8.8968013    485.05358  0.013362357  0.013084786         3798 
 3026000   0.75907948   -8.9202432    484.46769  0.013341807  0.013078655         3820 
 3027000   0.75823749   -8.9077923    485.01734  0.013352531  0.013072521         3790 
 3028000   0.78199545   -8.9398554    483.91709  0.013317842  0.013066401         3755 
 3029000   0.75322252   -8.8987788    485.77575   0.01336458  0.013060281         3790 
 3030000   0.76026127   -8.8938145    486.06695  0.013368178  0.013054159         3785 
 3031000   0.76228385    -8.923434     485.1474  0.013338486  0.013048046         3780 
 3032000   0.77999494   -8.8902762    485.58133  0.013346013  0.013041937         3803 
 3033000   0.77668083   -8.9120006    484.65482  0.013316156   0.01303583         3809 
 3034000   0.78391066   -8.9413405    484.56286  0.013309241  0.013029715         3791 
 3035000   0.76642539   -8.9009392    484.53785  0.013304169  0.013023614         3819 
 3036000   0.76864586   -8.9311607    484.12181  0.013288368  0.013017512         3833 
 3037000   0.76787163   -8.9213172     484.1175  0.013283874  0.013011418         3813 
 3038000   0.77329028   -8.8907338    484.88478  0.013300548  0.013005333         3799 
 3039000    0.7574669   -8.9242423    485.44226  0.013311458  0.012999239         3833 
 3040000   0.77800206   -8.9161323     483.8231  0.013262695  0.012993159         3814 
 3041000   0.75698478   -8.8861735    484.97309  0.013289847  0.012987078         3751 
 3042000   0.75859451    -8.925979    485.10617  0.013289124  0.012980992         3789 
 3043000   0.76235839   -8.9061743    483.56259  0.013242485  0.012974906         3796 
 3044000   0.76950783   -8.9431361    484.50766  0.013264007  0.012968829         3807 
 3045000   0.77202846   -8.9315304    484.95419  0.013271872  0.012962756         3811 
 3046000   0.75492415   -8.9139809    485.48344  0.013281994  0.012956683         3760 
 3047000   0.77473419   -8.9264482     485.1861  0.013269503  0.012950623         3783 
 3048000   0.75345492   -8.9110996    484.67531  0.013251184  0.012944562         3759 
 3049000   0.76622689   -8.9336951    484.51352  0.013242416  0.012938503         3773 
 3050000   0.76969666    -8.939845    485.63796  0.013268797  0.012932445         3819 
 3051000   0.76147339   -8.8976637    484.87975  0.013243738  0.012926392         3797 
 3052000   0.77454467   -8.9378687    483.82615  0.013210631  0.012920347         3803 
 3053000   0.75945075   -8.9161358    484.94328  0.013236797  0.012914308         3807 
 3054000   0.76441496   -8.9110228    485.08384  0.013236298  0.012908265         3804 
 3055000    0.7779618   -8.9281285    483.90667  0.013199855  0.012902226         3803 
 3056000   0.76083944   -8.9342467    484.53252  0.013212601  0.012896193         3837 
 3057000   0.76800732   -8.9208859    484.71018  0.013213122  0.012890155         3829 
 3058000   0.74714064   -8.8958552    484.96067  0.013215628  0.012884128         3787 
 3059000   0.74801257    -8.929486    484.70752  0.013204411  0.012878099         3808 
 3060000   0.76393162   -8.9219144    485.20267   0.01321358  0.012872068         3805 
 3061000    0.7663955   -8.9241096    485.45014  0.013216001  0.012866038         3777 
 3062000   0.76633438   -8.9206563    484.31062  0.013180672  0.012860023         3810 
 3063000   0.75863255   -8.9194367    484.28839  0.013175764  0.012854001         3763 
 3064000   0.76323918   -8.9043116     484.1682  0.013168195  0.012847983         3792 
 3065000   0.76944065   -8.8955965    484.78483  0.013180664  0.012841973         3776 
 3066000   0.76825912   -8.9047776    484.22888  0.013161255  0.012835964         3799 
 3067000   0.75913133   -8.9502015    483.94458  0.013149239  0.012829947         3778 
 3068000   0.78477009   -8.9116046    483.98182  0.013145964  0.012823947         3812 
 3069000   0.76574226   -8.9158858    485.15741  0.013173602  0.012817955         3812 
 3070000   0.75844086   -8.9117104    484.90026  0.013162331  0.012811961         3800 
 3071000   0.76584844   -8.9368939    484.88885  0.013157735  0.012805972         3802 
 3072000   0.74076977   -8.9098564     485.5401  0.013171118  0.012799978         3811 
 3073000   0.74628429   -8.9251081    484.10266  0.013127852  0.012793992         3803 
 3074000    0.7582353    -8.903062    484.67689  0.013139148  0.012788008         3783 
 3075000   0.76574103    -8.913093    483.49965  0.013102971  0.012782027         3807 
 3076000   0.75348531   -8.9399951    484.46144  0.013124768  0.012776049         3792 
 3077000   0.74738801   -8.9343999      485.042  0.013136226  0.012770069         3812 
 3078000   0.77532542   -8.9400038    484.94073  0.013129216  0.012764091         3808 
 3079000   0.77177563   -8.9290595    483.76817  0.013093217  0.012758118         3830 
 3080000   0.76131356   -8.9370672    484.07258  0.013097202  0.012752146         3766 
 3081000   0.74615622   -8.9345538    484.36302  0.013100807  0.012746186         3837 
 3082000   0.76011873   -8.9417226    484.00245  0.013086807   0.01274023         3818 
 3083000   0.73956922   -8.9488307    483.24584   0.01306211  0.012734273         3801 
 3084000   0.76890974   -8.9401908    484.25903  0.013085253  0.012728318         3846 
 3085000   0.75772957   -8.9187309    485.01665  0.013101476  0.012722369         3836 
 3086000   0.77556094    -8.953476    483.98834  0.013069463  0.012716417         3818 
 3087000   0.73844649   -8.9529765    483.92964  0.013063644  0.012710472         3819 
 3088000   0.76683073   -8.9066977    484.98961  0.013088019  0.012704522         3830 
 3089000   0.74401142   -8.9392662    483.85153  0.013053079   0.01269858         3824 
 3090000   0.76258657   -8.9495489    484.11128   0.01305586  0.012692645         3780 
 3091000   0.76738455   -8.9457328    484.45243  0.013060833  0.012686706         3809 
 3092000   0.76528571   -8.9231809    483.99472  0.013044273  0.012680764         3816 
 3093000   0.76830034   -8.9171694    484.15313  0.013044324  0.012674833         3796 
 3094000   0.74502545   -8.9103126    484.88481  0.013059815   0.01266891         3810 
 3095000   0.76432267   -8.9331072    484.12494  0.013035136  0.012662989         3850 
 3096000   0.77834419   -8.9262808    484.64001  0.013044789  0.012657078         3822 
 3097000   0.75255581   -8.9461542    484.20921  0.013028985  0.012651165         3811 
 3098000   0.75959739    -8.920344    485.09194  0.013048524   0.01264526         3861 
 3099000     0.750237   -8.9451166    485.10458  0.013044654  0.012639352         3830 
 3100000   0.78073459   -8.9386081    483.90762  0.013008269  0.012633448         3849 
 3101000   0.75384047   -8.9226069    484.18858  0.013011625  0.012627549         3841 
 3102000   0.76762069   -8.9426199    484.05234   0.01300377  0.012621651         3845 
 3103000   0.74134231   -8.9379607    484.52293  0.013012217  0.012615755         3804 
 3104000   0.75351071   -8.9228807     484.2164  0.012999796  0.012609864         3782 
 3105000   0.75411723   -8.9172828    483.38962   0.01297342  0.012603974         3784 
 3106000   0.75348752   -8.9538808    484.34312  0.012994825  0.012598085         3855 
 3107000   0.76318158   -8.9514031    484.33565  0.012990442  0.012592198         3822 
 3108000   0.75120085   -8.9814401    483.07129  0.012952362  0.012586311         3851 
 3109000   0.76285001   -8.9232227    483.42998   0.01295781  0.012580432         3813 
 3110000   0.75002895   -8.9441533    484.64517  0.012986205  0.012574545         3766 
 3111000   0.76450499   -8.9552726    484.01306  0.012965099  0.012568655         3821 
 3112000   0.74139652   -8.9479989    484.43268  0.012972169   0.01256278         3843 
 3113000     0.769032    -8.940995     484.7515  0.012976537  0.012556909         3805 
 3114000   0.75404888   -8.9693541    484.02346  0.012952886   0.01255104         3834 
 3115000   0.72501074   -8.9394246    484.32934  0.012956911  0.012545176         3806 
 3116000   0.74891343   -8.9807856    484.60123  0.012960024   0.01253932         3815 
 3117000   0.73722684   -8.9393931     484.0498  0.012941124  0.012533462         3832 
 3118000   0.74316548   -8.9666804    484.15449  0.012939771  0.012527608         3866 
 3119000   0.75756068   -8.9281446    483.50823  0.012918356  0.012521754         3793 
 3120000    0.7553986   -8.9608385    484.11587  0.012930445  0.012515912         3832 
 3121000    0.7627387   -8.9293742    483.81155  0.012918177  0.012510074         3821 
 3122000   0.76926023   -8.9586844    483.36467   0.01290211  0.012504236         3817 
 3123000   0.74885879   -8.9640322    483.63676   0.01290524  0.012498403         3849 
 3124000   0.74061588   -8.9514588    484.68485  0.012929067   0.01249258         3793 
 3125000   0.75244884   -8.9727937    484.38747  0.012916999  0.012486749         3818 
 3126000   0.75847307   -8.9502117    483.48072  0.012888695  0.012480922         3788 
 3127000   0.75022895   -8.9594589    483.27722   0.01287915  0.012475096         3817 
 3128000   0.75163533   -8.9480754    483.95979  0.012893217  0.012469272         3824 
 3129000   0.74518473   -8.9642907    483.11928  0.012866711  0.012463459         3822 
 3130000   0.76042885   -8.9475832     484.0419  0.012887164  0.012457645         3827 
 3131000     0.743058   -8.9569323    484.30716  0.012890109  0.012451829         3836 
 3132000   0.75011956   -8.9391756    483.45738  0.012863383  0.012446025         3811 
 3133000   0.74208034   -8.9763921    484.11886  0.012876871  0.012440216         3830 
 3134000   0.75326924   -8.9599867    483.40551  0.012853795  0.012434412         3808 
 3135000   0.75358229   -8.9348273    484.65013  0.012882779   0.01242861         3850 
 3136000   0.75156574   -8.9695791    483.93307  0.012859616  0.012422806         3812 
 3137000   0.72457285   -8.9434494    484.16333  0.012861633  0.012417012         3834 
 3138000   0.75822596   -8.9195113    485.10488  0.012882539  0.012411219         3786 
 3139000   0.74028716   -8.9499119    484.08783  0.012851434  0.012405434         3829 
 3140000   0.76242436   -8.9755347    483.63696  0.012835376  0.012399642         3797 
 3141000   0.76008311   -8.9483492    483.53658  0.012828626  0.012393861         3803 
 3142000   0.74889376   -8.9789866    484.43279  0.012848313  0.012388082         3826 
 3143000   0.75215633   -8.9620525    484.22408  0.012838691  0.012382304         3796 
 3144000   0.76983469    -8.938301     483.3801  0.012812238   0.01237653         3832 
 3145000   0.73021898   -8.9697539    483.56144  0.012812969  0.012370762         3814 
 3146000   0.75459015   -8.9171076    484.44175  0.012832214  0.012364997         3798 
 3147000   0.76959842   -8.9384487    483.47458  0.012802526  0.012359234         3828 
 3148000   0.76347603   -8.9306426    484.48539  0.012825217  0.012353482         3812 
 3149000   0.74609598   -8.9636806    482.66437  0.012772953  0.012347722         3849 
 3150000   0.75991013   -8.9403606    484.73412  0.012823654  0.012341974         3805 
 3151000   0.75113746   -8.9814238    483.52359   0.01278757  0.012336226         3813 
 3152000   0.75307195   -8.9461207    483.59107  0.012785297  0.012330476         3807 
 3153000   0.75298966   -8.9513042    483.42264   0.01277679  0.012324735         3840 
 3154000   0.75018576   -8.9565234    483.41373  0.012772504  0.012318996         3787 
 3155000    0.7588434   -8.9582335    483.84421  0.012779826  0.012313252         3844 
 3156000   0.76649201   -8.9676584    484.15478  0.012783977  0.012307517         3840 
 3157000   0.73454764   -8.9608784    483.64329  0.012766426  0.012301786         3813 
 3158000   0.74813594   -8.9839629     484.2094  0.012777322  0.012296064         3818 
 3159000   0.75524702   -8.9582832    483.19965  0.012746641   0.01229034         3809 
 3160000   0.73495625   -8.9714608    483.89572  0.012760963   0.01228462         3831 
 3161000   0.74653064   -8.9537897    483.28865  0.012740922  0.012278904         3808 
 3162000   0.74269208   -8.9552763    483.52391  0.012743093  0.012273187         3841 
 3163000   0.75170186   -8.9446916    482.94477  0.012723806  0.012267479         3816 
 3164000   0.74799135   -8.9876759     483.3379  0.012730138  0.012261767         3828 
 3165000   0.75782292   -8.9590238     484.5646  0.012758415  0.012256066         3795 
 3166000   0.74256942   -9.0155982    483.58438  0.012728584  0.012250359         3845 
 3167000    0.7524501   -8.9469689    484.14803  0.012739397   0.01224467         3801 
 3168000   0.74637666   -8.9491182    484.40212  0.012742059  0.012238978         3773 
 3169000   0.73636278    -8.959069    483.80544  0.012722348  0.012233292         3813 
 3170000    0.7299075   -8.9490406    482.84028  0.012692962  0.012227607         3828 
 3171000   0.74133336   -8.9620571    483.77095  0.012713417   0.01222192         3826 
 3172000    0.7425958   -8.9630615    483.20869  0.012694638  0.012216233         3838 
 3173000   0.76078512   -8.9627551    484.44611  0.012723135   0.01221055         3827 
 3174000   0.73763117   -8.9414975    483.68268  0.012699083  0.012204868         3816 
 3175000   0.72778841   -8.9781459    483.37992  0.012687137   0.01219919         3840 
 3176000    0.7264609   -8.9590209    483.07211  0.012675066  0.012193514         3831 
 3177000   0.75498753   -8.9499183    483.23426  0.012675329  0.012187837         3815 
 3178000   0.74521049   -8.9635864     484.3556  0.012700745  0.012182167         3828 
 3179000   0.75322678   -8.9783947    484.22536  0.012693335  0.012176498         3825 
 3180000   0.73528537   -8.9567959    483.67136  0.012674826  0.012170842         3869 
 3181000    0.7446658   -8.9675663    483.88258  0.012676375  0.012165185         3809 
 3182000   0.74291452   -8.9509799    484.38574  0.012685568  0.012159527         3833 
 3183000   0.74012811   -8.9521395    484.15048  0.012675423  0.012153875         3825 
 3184000   0.75724405   -8.9745156    483.14376  0.012645094   0.01214822         3818 
 3185000   0.74969287   -8.9769347    482.87528  0.012634099  0.012142567         3802 
 3186000   0.74863018   -8.9840816    484.01405   0.01265992  0.012136925         3808 
 3187000   0.74022628    -9.005797    483.25198  0.012636021  0.012131281         3846 
 3188000   0.75434182   -8.9570744     483.2675  0.012632463  0.012125636         3815 
 3189000   0.74684041    -8.960641    483.99696  0.012647563  0.012120006         3835 
 3190000   0.73435964   -8.9807757    483.47793   0.01263004  0.012114368         3813 
 3191000   0.74262608   -8.9844907    482.42551  0.012598598  0.012108735         3820 
 3192000   0.73471622   -8.9867456     483.5374  0.012623679   0.01210311         3838 
 3193000   0.74232892   -8.9679769    483.53738  0.012619725  0.012097486         3819 
 3194000   0.73377128   -8.9694146    483.37734  0.012611598  0.012091868         3836 
 3195000   0.77128094   -8.9637495    483.25505  0.012604461  0.012086245         3837 
 3196000    0.7470687   -8.9740519    483.86268  0.012616361   0.01208064         3824 
 3197000   0.72824807   -8.9534419    484.28824  0.012623507   0.01207503         3805 
 3198000   0.75031745   -8.9649606    483.39872  0.012596381  0.012069427         3836 
 3199000   0.74732712   -8.9660016    481.92067   0.01255394  0.012063823         3836 
 3200000   0.73345917   -8.9932773    483.34429  0.012587091  0.012058228         3873 
 3201000   0.73058245   -8.9539491    484.53495  0.012614156  0.012052625         3805 
 3202000   0.72589274   -8.9528878     483.4387  0.012581686  0.012047028         3826 
 3203000   0.73772077   -8.9747014    482.93595  0.012564678  0.012041439         3792 
 3204000   0.74702437    -8.969676    482.82755  0.012557937  0.012035853         3840 
 3205000   0.73732727   -8.9661847    483.77631  0.012578687  0.012030264         3816 
 3206000   0.72980878   -8.9820963    482.38835  0.012538687  0.012024677         3834 
 3207000   0.75137592   -8.9630734    482.67597  0.012542251  0.012019103         3818 
 3208000   0.72369493    -8.977027    483.19393  0.012551796  0.012013522         3821 
 3209000   0.73398841   -8.9592234    483.75245  0.012562388  0.012007949         3818 
 3210000   0.71416764   -8.9936871    483.78475  0.012559313  0.012002377         3829 
 3211000   0.73935707   -8.9829242     483.6834  0.012552772  0.011996809         3820 
 3212000   0.75292677   -8.9783097    484.02897  0.012557829  0.011991242         3866 
 3213000   0.73880233   -8.9721066    484.05006  0.012554468  0.011985686         3795 
 3214000    0.7418018   -8.9785359    483.53727  0.012537266   0.01198013         3819 
 3215000   0.71609827   -8.9709806    483.43662  0.012530757  0.011974575         3831 
 3216000   0.74766246   -8.9745499    483.66054  0.012532663   0.01196902         3852 
 3217000   0.71986637   -8.9939514    482.98615  0.012511298  0.011963477         3821 
 3218000   0.73644561   -8.9511084    482.81742  0.012503041  0.011957929         3824 
 3219000   0.72702419   -8.9700293    482.97014   0.01250311  0.011952386         3834 
 3220000   0.75062066   -8.9671151    483.45556   0.01251179  0.011946849         3821 
 3221000   0.73986828   -8.9921675    484.16914  0.012526367  0.011941321         3808 
 3222000   0.72949698   -8.9911635    483.68408  0.012509934  0.011935792         3852 
 3223000   0.72908198   -8.9833815    483.29957   0.01249611  0.011930268         3844 
 3224000   0.73031942   -8.9567874    484.03794   0.01251132  0.011924746         3841 
 3225000   0.73913977   -8.9803725    483.67817  0.012498144  0.011919225         3840 
 3226000   0.73821877   -8.9570652    483.47437  0.012489005  0.011913708         3822 
 3227000   0.74264365    -8.985311    483.23455  0.012478942  0.011908201         3814 
 3228000   0.75110131   -8.9715429    483.60101  0.012484537  0.011902685         3802 
 3229000   0.75256588   -8.9736502    483.40604  0.012475639  0.011897172         3805 
 3230000   0.72742454   -8.9572632    484.02145  0.012487653  0.011891665         3803 
 3231000   0.75220286   -8.9813599    482.66715  0.012448859  0.011886161         3802 
 3232000   0.72824462   -8.9778573    483.10272  0.012456238  0.011880664         3857 
 3233000   0.74265898   -8.9820256     483.3269  0.012458163  0.011875161         3850 
 3234000   0.73819727   -8.9679755    483.53547  0.012459685   0.01186966         3818 
 3235000   0.76187553   -8.9976619    482.44065  0.012427631  0.011864165         3840 
 3236000   0.74683799   -8.9883878     482.9754  0.012437562  0.011858679         3829 
 3237000   0.73643386    -8.971089    483.19393  0.012439345  0.011853194         3842 
 3238000   0.73596022   -8.9912382     481.8539  0.012401017  0.011847708         3850 
 3239000    0.7395897   -8.9802325    483.33208  0.012435219  0.011842221         3793 
 3240000   0.72813642   -8.9937688    483.52347  0.012436303  0.011836741         3823 
 3241000   0.74011662   -8.9848015    482.88777  0.012416121  0.011831262         3843 
 3242000   0.72877827   -8.9842478     483.5694  0.012429812  0.011825786         3802 
 3243000   0.72918768   -8.9747998    483.63135  0.012427571   0.01182032         3818 
 3244000   0.73912032   -8.9993814    482.69925  0.012399796   0.01181485         3795 
 3245000   0.73264672   -8.9938948    484.19094  0.012434282  0.011809382         3844 
 3246000    0.7219243   -8.9676032    483.33007  0.012408351  0.011803917         3847 
 3247000    0.7397468   -8.9855167    482.36944  0.012379875  0.011798455         3857 
 3248000   0.72658985   -8.9925933    483.68075  0.012409707     0.011793         3827 
 3249000   0.74781462   -9.0051955    482.50229  0.012375662  0.011787546         3849 
 3250000   0.73547246   -8.9841518    483.36184  0.012393893  0.011782094         3812 
 3251000   0.74563694   -8.9923425    482.86518   0.01237735  0.011776642         3853 
 3252000   0.72244122   -8.9800032    483.28969  0.012384422  0.011771194         3855 
 3253000   0.74991351   -8.9930275    483.05913  0.012374709   0.01176575         3848 
 3254000   0.73178312   -8.9750897    483.09544  0.012371836  0.011760312         3847 
 3255000   0.73309965   -8.9796173    483.80951  0.012386316   0.01175488         3824 
 3256000   0.72847032   -8.9741885    482.19366  0.012341156  0.011749453         3827 
 3257000   0.73455883   -8.9616254    484.10305  0.012386221   0.01174403         3824 
 3258000   0.74017895   -8.9862515    483.05499  0.012355612  0.011738606         3831 
 3259000   0.72759141   -8.9813854    483.09079  0.012352736  0.011733187         3830 
 3260000   0.73761503   -8.9741287     484.1222  0.012375312  0.011727772         3803 
 3261000   0.70713412   -8.9878034    482.34196  0.012326024  0.011722354         3831 
 3262000   0.74248632   -8.9703651    482.52923  0.012327029  0.011716943         3803 
 3263000   0.71853005   -8.9738201    484.07864  0.012362822   0.01171153         3830 
 3264000   0.72593395   -9.0067463    483.44315  0.012342809  0.011706121         3799 
 3265000   0.72131672     -8.99509    483.21481  0.012333201  0.011700721         3836 
 3266000   0.73740345   -8.9937767    482.81638  0.012319258  0.011695325         3826 
 3267000   0.71424589   -8.9893448     483.5761  0.012334866  0.011689928         3833 
 3268000   0.73693885   -8.9817822    484.10758  0.012344644  0.011684535         3833 
 3269000   0.72977225   -8.9908891    481.94748  0.012285803  0.011679143         3833 
 3270000   0.72520271   -9.0109968    482.03903  0.012284379  0.011673755         3821 
 3271000   0.72403932   -9.0017311    482.29476  0.012287138  0.011668373         3863 
 3272000   0.71969495   -8.9902288    483.85299  0.012323069  0.011662993         3829 
 3273000   0.69785961   -8.9652498    483.41361  0.012308117  0.011657619         3786 
 3274000   0.72371815   -8.9895007    482.51257  0.012281424  0.011652246         3831 
 3275000   0.74287856   -9.0017858    481.83631  0.012260466  0.011646875         3822 
 3276000   0.73913962   -9.0077214    482.92828    0.0122845  0.011641509         3806 
 3277000   0.73872778   -8.9686477    482.53188  0.012270671  0.011636147         3832 
 3278000   0.72373751   -8.9775186    483.03015  0.012279595  0.011630781         3805 
 3279000   0.72614425    -8.981989    482.80264  0.012270068  0.011625424         3831 
 3280000   0.71591197   -8.9965373    483.09245   0.01227369  0.011620067         3806 
 3281000   0.73926706   -8.9858521      483.311    0.0122755  0.011614715         3804 
 3282000   0.73479921   -9.0096715    483.35218  0.012272806   0.01160936         3821 
 3283000   0.72624962   -9.0126609    483.35987  0.012269263  0.011604008         3823 
 3284000   0.71794999   -9.0208618    482.38117  0.012240691  0.011598661         3836 
 3285000   0.73237301   -9.0131006    482.49985  0.012239976  0.011593316         3819 
 3286000   0.71879774   -8.9927526    483.96651  0.012273446  0.011587977         3821 
 3287000   0.71549298   -8.9841177    483.13012  0.012248507  0.011582635         3848 
 3288000   0.71678878   -9.0154532    483.04516  0.012242629  0.011577301         3845 
 3289000   0.73694583   -8.9797639    483.78003  0.012257526   0.01157197         3854 
 3290000   0.72361185   -8.9712323    483.76646  0.012253456   0.01156665         3789 
 3291000   0.72742205   -8.9869311    483.84828  0.012251805  0.011561327         3827 
 3292000   0.73765829   -9.0051626     483.1409  0.012230177  0.011556008         3845 
 3293000   0.73986223   -9.0070396     483.3498  0.012231749   0.01155069         3803 
 3294000   0.72127606     -8.98952    482.92472  0.012217282  0.011545371         3827 
 3295000     0.726668   -9.0183793    482.18778  0.012194936  0.011540058         3836 
 3296000   0.72885904   -9.0135956    480.96379   0.01216029  0.011534743         3837 
 3297000   0.70968576   -8.9963773    481.36346  0.012166704  0.011529427         3849 
 3298000   0.71808246   -8.9965297    482.83669   0.01220024  0.011524119         3825 
 3299000   0.71507675    -8.994137    482.61347  0.012190903  0.011518812         3819 
 3300000   0.72944326   -8.9966258    484.25925  0.012228769  0.011513507         3816 
 3301000   0.72938957   -8.9827497    483.47157  0.012205179  0.011508208         3833 
 3302000   0.72316555   -9.0075515    482.19064  0.012169156  0.011502913         3827 
 3303000   0.72104056   -8.9971188    482.75744  0.012179772  0.011497621         3802 
 3304000    0.7474676    -8.998516     482.7143  0.012174998  0.011492333         3804 
 3305000   0.74107413   -9.0324858    483.06396   0.01218013  0.011487051         3837 
 3306000   0.72735818   -9.0252417    481.89486  0.012146977  0.011481772         3828 
 3307000   0.72937487    -8.992548    483.23548  0.012177086  0.011476499         3824 
 3308000     0.728459   -9.0058493    482.18122  0.012146847  0.011471221         3843 
 3309000    0.7354417   -9.0004275    482.44011  0.012149696   0.01146595         3832 
 3310000   0.71779546   -8.9861715     482.7397  0.012153567  0.011460677         3838 
 3311000   0.73503752   -8.9684704    483.54811  0.012170243  0.011455413         3813 
 3312000   0.72915701   -9.0111506    482.92828  0.012150973  0.011450154         3823 
 3313000   0.71653526   -9.0012344     482.5778   0.01213849   0.01144489         3831 
 3314000   0.72391692   -9.0111577     482.2054  0.012125463  0.011439629         3792 
 3315000   0.72033735   -9.0129946    482.22443  0.012122283  0.011434376         3829 
 3316000   0.70866756   -9.0031652    482.45327  0.012124379  0.011429123         3832 
 3317000   0.72911656   -8.9878829     482.9641  0.012133557  0.011423877         3803 
 3318000   0.71374542   -9.0145889    483.02989  0.012131552   0.01141863         3798 
 3319000   0.72691447    -9.019759    483.41536  0.012137576  0.011413395         3823 
 3320000   0.73184349   -9.0060478     482.0905  0.012100665  0.011408148         3788 
 3321000   0.71228872   -8.9849776    483.22778  0.012125559  0.011402901         3847 
 3322000   0.71596015   -8.9849557    483.29211  0.012123523  0.011397668         3841 
 3323000   0.70998845   -9.0144544    483.00851  0.012112762  0.011392438         3850 
 3324000   0.73750611   -9.0238417    482.05537  0.012085223  0.011387207         3855 
 3325000   0.73194653    -9.005741    482.21543    0.0120856  0.011381987         3812 
 3326000   0.72501736   -9.0059978    481.49626  0.012063947  0.011376766         3839 
 3327000   0.71707817   -8.9935167    482.58726  0.012087648  0.011371542         3862 
 3328000   0.73493208   -9.0102514    482.90829  0.012092055  0.011366328         3870 
 3329000   0.70990893   -9.0179159     482.0564  0.012067097  0.011361112         3859 
 3330000   0.72654632   -9.0123046     482.2566  0.012068483  0.011355892         3837 
 3331000   0.71905635   -8.9926225    483.01311  0.012083787  0.011350684         3854 
 3332000   0.73216707   -9.0028417    482.28857  0.012062039  0.011345478         3832 
 3333000   0.73172619   -9.0131962    482.77891   0.01207068  0.011340273         3825 
 3334000   0.70123284   -8.9795852    483.60532  0.012087716  0.011335073         3804 
 3335000    0.7027299   -8.9909784    483.05061   0.01207023  0.011329879         3799 
 3336000   0.72241454   -9.0067235    483.59009  0.012080088  0.011324687         3803 
 3337000   0.72269554    -9.045391    481.83008  0.012032516  0.011319493         3867 
 3338000    0.6987282    -9.003844    482.99824  0.012058075    0.0113143         3817 
 3339000   0.71184083   -9.0203612    482.26722  0.012036219  0.011309113         3842 
 3340000   0.72614742   -9.0329708    482.14452  0.012029554  0.011303933         3836 
 3341000   0.69776241   -9.0081512    482.39138  0.012032111  0.011298751         3822 
 3342000   0.71832254   -9.0259684    482.33205  0.012027031  0.011293576         3826 
 3343000   0.71300092   -9.0374677    482.55295   0.01202894  0.011288399         3825 
 3344000   0.73045341   -9.0103425    481.68215  0.012003642  0.011283226         3813 
 3345000   0.71155479   -9.0315013     482.0691  0.012009694  0.011278057         3853 
 3346000   0.72662888   -9.0281437    481.73626  0.011997815  0.011272888         3846 
 3347000   0.73231091   -9.0285582     481.4755  0.011987738  0.011267725         3809 
 3348000    0.7168056   -9.0073712    482.62429  0.012012751  0.011262561         3827 
 3349000   0.71649314   -9.0127413    483.00115  0.012018542  0.011257413         3844 
 3350000   0.70303796   -9.0115094    482.08962  0.011992279  0.011252261         3824 
 3351000   0.71219649   -9.0045883    483.04428  0.012012441  0.011247109         3821 
 3352000   0.70398121   -9.0368101    481.45974  0.011969465  0.011241955         3817 
 3353000   0.72455245   -9.0065564    482.36204   0.01198832   0.01123681         3822 
 3354000   0.72106946   -9.0123303    482.35186  0.011984493  0.011231667         3797 
 3355000   0.71343832   -9.0184268     482.7783  0.011991513  0.011226522         3809 
 3356000   0.69872911   -9.0226315    482.50197  0.011981078  0.011221382         3833 
 3357000   0.70486645   -9.0047996    482.43766  0.011975913  0.011216247         3824 
 3358000   0.71056729   -9.0631136    481.24611  0.011942776  0.011211107         3830 
 3359000   0.71632502   -9.0089846    481.23267  0.011938887  0.011205983         3818 
 3360000   0.70782069   -9.0197889    481.31549  0.011937388  0.011200864         3816 
 3361000   0.70256578   -9.0131074     482.3003  0.011958254  0.011195741         3796 
 3362000   0.72267164   -9.0066821    482.33254  0.011955496  0.011190622         3808 
 3363000   0.71291173   -9.0148538    482.45316   0.01195493  0.011185504         3843 
 3364000   0.70180616   -9.0208523    482.59868  0.011954981   0.01118039         3813 
 3365000   0.69228946   -9.0362823    482.85926  0.011957882  0.011175283         3844 
 3366000   0.72225732   -9.0193164    482.70928  0.011950616  0.011170174         3804 
 3367000   0.71616374   -9.0353173    482.38954  0.011939153  0.011165074         3845 
 3368000    0.7273527    -9.011482    481.65168  0.011917352  0.011159974         3853 
 3369000   0.70990656   -9.0317365    482.29248  0.011929665  0.011154875         3847 
 3370000   0.71134558   -9.0302464    482.94309  0.011942213  0.011149781         3843 
 3371000    0.7226049   -8.9937514    482.57536   0.01192958  0.011144687         3804 
 3372000   0.70704202   -9.0182556    482.13971  0.011915276  0.011139601         3828 
 3373000   0.70638434   -8.9931731    481.74307  0.011901944  0.011134514         3812 
 3374000   0.71039967   -9.0246791    481.90022  0.011902297  0.011129427         3829 
 3375000   0.70498235   -9.0254015    481.51835  0.011889342  0.011124347         3812 
 3376000   0.71404892   -9.0174283    482.58413  0.011912128  0.011119265         3829 
 3377000   0.69674959   -9.0152313    482.87209  0.011915706  0.011114185         3852 
 3378000   0.71291755   -9.0164271    482.42194  0.011901074   0.01110911         3845 
 3379000   0.70404139    -9.028668    482.17787  0.011891533  0.011104041         3846 
 3380000   0.70148705   -9.0375328    482.57532  0.011897814   0.01109897         3856 
 3381000   0.70705537   -9.0259425       482.55  0.011893671  0.011093894         3848 
 3382000   0.72360331   -9.0202877    482.59082   0.01189116  0.011088834         3846 
 3383000   0.71925886   -9.0331093     482.4156  0.011883328  0.011083771         3856 
 3384000   0.72141046   -8.9973388    483.16311  0.011898225  0.011078712         3841 
 3385000   0.69578517   -9.0203067    482.24613  0.011872135  0.011073659         3849 
 3386000   0.71631692   -9.0309342    482.32061  0.011870462  0.011068607         3845 
 3387000   0.70380021   -9.0273821    481.79461  0.011854015  0.011063554         3839 
 3388000    0.7243524   -9.0164685    482.16003  0.011859505  0.011058501         3841 
 3389000   0.70867391   -9.0418954    482.62698  0.011867488  0.011053455         3822 
 3390000   0.70381226   -9.0366884    481.39096  0.011833603  0.011048414         3867 
 3391000   0.69637314   -9.0473907    481.85049  0.011841406  0.011043371         3833 
 3392000   0.72292649    -9.015088    482.13359   0.01184487  0.011038331         3828 
 3393000   0.71049384   -9.0357275    480.99273  0.011813359  0.011033301         3860 
 3394000   0.70230396   -9.0075639    481.57303  0.011824127  0.011028268         3843 
 3395000   0.71461709   -9.0429034    482.35415  0.011839817  0.011023236         3829 
 3396000   0.70672088   -9.0462067    482.57002  0.011841628  0.011018212         3859 
 3397000   0.69602617   -9.0374907    481.68957  0.011816543  0.011013191         3847 
 3398000   0.70377065   -9.0523005    481.94402  0.011819306  0.011008168         3843 
 3399000   0.70443915    -9.028656    481.94839  0.011815936  0.011003144         3847 
 3400000   0.70275762    -9.026172    482.97438  0.011837607   0.01099813         3847 
 3401000   0.70924462   -9.0179597    482.15558  0.011814064  0.010993118         3839 
 3402000   0.71251946   -9.0386643    480.89838  0.011779796  0.010988106         3836 
 3403000   0.71095652   -9.0240125    481.87007  0.011800129  0.010983102         3831 
 3404000   0.73119599   -9.0210134    481.80858  0.011795157  0.010978103         3827 
 3405000   0.72572439   -9.0456923    481.29962  0.011779237  0.010973104         3852 
 3406000   0.70271637   -9.0374484    481.82601  0.011788658  0.010968104         3844 
 3407000    0.7021081   -9.0221128    482.83509  0.011809879   0.01096311         3848 
 3408000   0.71893975   -9.0091105    482.07523  0.011787833  0.010958117         3835 
 3409000   0.68655647   -9.0322471    481.81055  0.011777905  0.010953129         3853 
 3410000   0.69911348   -9.0458737    481.57367  0.011768663  0.010948144         3841 
 3411000   0.70292843   -9.0501969    481.40972  0.011761207  0.010943158         3855 
 3412000   0.71015527   -9.0350344    481.70889  0.011765067  0.010938183         3841 
 3413000   0.71329928   -9.0452812    481.58382  0.011758566  0.010933213         3842 
 3414000   0.71106879   -9.0297442    481.95917  0.011764284  0.010928238         3854 
 3415000   0.69302323   -9.0393241    481.93721  0.011760303  0.010923266         3885 
 3416000   0.70376191   -9.0246613    482.15456  0.011762162  0.010918295         3864 
 3417000   0.70541782   -9.0364718    482.04531  0.011756056  0.010913323         3819 
 3418000   0.70178755    -9.043724    482.34653   0.01175996  0.010908363         3845 
 3419000   0.71380151     -9.04707     481.6886  0.011740485  0.010903396         3864 
 3420000   0.71515633   -9.0157154    482.14996  0.011748293  0.010898442         3843 
 3421000   0.70488656    -9.048399    481.33608  0.011725034  0.010893493         3836 
 3422000   0.68712599   -9.0364491     481.7654  0.011732062  0.010888538         3845 
 3423000   0.70724622   -9.0237725    482.13138  0.011737545  0.010883593         3818 
 3424000   0.69838855   -9.0329051    482.29676  0.011738141   0.01087865         3843 
 3425000   0.69536241   -9.0379397    482.70151  0.011744562  0.010873706         3829 
 3426000   0.69861811   -9.0232497    481.87237  0.011720966  0.010868765         3838 
 3427000    0.6996334   -9.0265699    481.70664  0.011713516  0.010863823         3846 
 3428000   0.68891596   -9.0523239    481.70592  0.011710082  0.010858887         3828 
 3429000   0.71422072   -9.0107163    483.25061  0.011744207  0.010853957         3801 
 3430000   0.70124095   -9.0399172     482.8054  0.011729966  0.010849032         3842 
 3431000   0.71771782    -9.056063    480.83628  0.011678721  0.010844107         3838 
 3432000   0.69374568   -9.0483367    481.67464  0.011695674  0.010839179         3852 
 3433000    0.7025399   -9.0274976    481.03744    0.0116768  0.010834256         3838 
 3434000   0.69346559   -9.0424895     480.9208  0.011670569  0.010829333         3868 
 3435000   0.70185387   -9.0390822    481.36686  0.011677993  0.010824411         3871 
 3436000   0.72386977   -9.0360823    482.14818  0.011693543  0.010819497         3836 
 3437000   0.69157251   -9.0373699    482.06883  0.011688217  0.010814582         3810 
 3438000   0.68538392   -9.0358382    480.72356   0.01165221  0.010809675         3830 
 3439000   0.69749185   -9.0300328    480.74157  0.011649258  0.010804768         3831 
 3440000   0.69462349   -9.0435366    481.82414  0.011672097  0.010799867         3860 
 3441000   0.69312316   -9.0295593    482.87933  0.011694259  0.010794967         3824 
 3442000   0.71072024   -9.0320101     481.4576   0.01165644  0.010790071         3859 
 3443000   0.69583541   -9.0395016    481.66295  0.011658025  0.010785176         3852 
 3444000    0.7232891   -9.0676106    481.80709  0.011658127  0.010780285         3802 
 3445000   0.70479453   -9.0305045    481.97799  0.011658877  0.010775398         3834 
 3446000   0.69088039   -9.0555916    481.44125  0.011642514  0.010770508         3822 
 3447000    0.7124591   -9.0341141    481.64741  0.011644121  0.010765628         3858 
 3448000   0.70151022   -9.0521659    481.50106  0.011637207  0.010760751         3825 
 3449000   0.70209455   -9.0434432    481.14533  0.011625238   0.01075588         3818 
 3450000   0.67458682   -9.0324256    481.82668  0.011638326  0.010751008         3851 
 3451000   0.69938765   -9.0564356    481.03012  0.011615718  0.010746136         3872 
 3452000   0.68884239   -9.0596177    481.87567  0.011632765  0.010741268         3833 
 3453000   0.70883596   -9.0648856    482.59455  0.011646746  0.010736401         3866 
 3454000   0.70272411   -9.0576332    481.79389  0.011624057  0.010731539         3835 
 3455000   0.70084419   -9.0602562    482.29882  0.011632871  0.010726679         3832 
 3456000    0.6926027   -9.0159079    482.02799  0.011622974  0.010721819         3817 
 3457000   0.69325657   -9.0339954    481.18914  0.011599391  0.010716966         3827 
 3458000   0.70861788   -9.0415372    480.48217     0.011579  0.010712114         3872 
 3459000   0.69899922   -9.0453069    481.68245  0.011604569  0.010707266         3847 
 3460000    0.6849454   -9.0537657     480.7325  0.011578336  0.010702419         3841 
 3461000   0.69306796   -9.0424684    481.46051  0.011592519  0.010697578         3827 
 3462000   0.69894114   -9.0038819    481.69395   0.01159479  0.010692744         3844 
 3463000   0.70055681    -9.035377     481.2287  0.011580246  0.010687903         3880 
 3464000   0.69343984   -9.0215367    481.14456  0.011574879  0.010683071         3833 
 3465000   0.70193027    -9.044466    482.05153  0.011593351   0.01067824         3819 
 3466000   0.68846464   -9.0454602    481.52397  0.011577322  0.010673412         3814 
 3467000   0.68157242   -9.0373341    482.69631  0.011602161  0.010668585         3831 
 3468000   0.69892335   -9.0425424    482.20323  0.011586967  0.010663756         3851 
 3469000   0.70559772   -9.0680168    482.02753  0.011579406  0.010658933         3853 
 3470000    0.6926113   -9.0435772    481.78262  0.011570188  0.010654113         3812 
 3471000   0.69955314   -9.0407627    481.09872  0.011550435  0.010649295         3876 
 3472000   0.68867858   -9.0445715    482.38525  0.011577987  0.010644479         3860 
 3473000   0.69377647   -9.0358912    481.38894  0.011550747  0.010639663         3829 
 3474000   0.69422355   -9.0538575    482.06004   0.01156352  0.010634853         3845 
 3475000   0.68928781   -9.0503171    480.99948   0.01153476  0.010630046         3831 
 3476000   0.68909358   -9.0534385    481.38547  0.011540695  0.010625242         3841 
 3477000    0.7006678   -9.0708626    480.98021  0.011527663  0.010620443         3858 
 3478000   0.69648543   -9.0385158    481.07688  0.011526665  0.010615647         3827 
 3479000   0.70902494    -9.034188     481.9718  0.011544788  0.010610852         3811 
 3480000    0.6948686   -9.0353401    481.20537  0.011523117  0.010606057         3830 
 3481000   0.70252555    -9.043902    480.72968  0.011508419  0.010601267         3876 
 3482000    0.6908978   -9.0521081    481.46774  0.011522778  0.010596476         3824 
 3483000   0.70752274    -9.066952    481.25977  0.011514494  0.010591693         3872 
 3484000   0.71988515   -9.0617328    481.80762  0.011524292   0.01058691         3812 
 3485000   0.70857294   -9.0844793    481.82392  0.011521375  0.010582132         3823 
 3486000    0.7020944    -9.063734    481.39789  0.011507886  0.010577351         3834 
 3487000   0.69847271   -9.0402246    482.08059  0.011520901  0.010572582         3846 
 3488000    0.6929421   -9.0674618    482.03474  0.011516503  0.010567808         3823 
 3489000   0.69919914   -9.0392069    481.41819  0.011498476  0.010563037         3799 
 3490000   0.69728639   -9.0680038    481.18663  0.011489652  0.010558273         3863 
 3491000   0.69900004   -9.0629559    481.77325  0.011500364  0.010553509         3823 
 3492000   0.68411257   -9.0583702    480.96628  0.011477813  0.010548746         3810 
 3493000    0.6866761   -9.0700473    481.34442  0.011483549  0.010543989         3842 
 3494000   0.69848771   -9.0778326    480.82906   0.01146797  0.010539235         3857 
 3495000   0.68465074   -9.0683656    480.74956  0.011462793  0.010534485         3842 
 3496000   0.68829113    -9.044051    481.36461  0.011474176  0.010529738         3860 
 3497000   0.70401723   -9.0538657    481.40621  0.011471886  0.010524995         3827 
 3498000   0.69786024   -9.0603408    481.03751  0.011459823  0.010520247         3827 
 3499000    0.7052789   -9.0369955    482.17672  0.011483679  0.010515509         3817 
 3500000   0.68292102   -9.0822659    481.38175   0.01146147  0.010510766         3866 
 3501000   0.69179586   -9.0694263    481.74739    0.0114669  0.010506027         3851 
 3502000   0.69184606   -9.0716737    481.17233  0.011449941  0.010501295         3835 
 3503000   0.67442492   -9.0759625    481.62441  0.011457427  0.010496563         3856 
 3504000   0.70631422   -9.0757426    481.13879  0.011442608  0.010491833         3853 
 3505000   0.69906381   -9.0555844    481.95648  0.011458785  0.010487111         3848 
 3506000   0.69271207   -9.0403333    481.44514  0.011443362  0.010482392         3824 
 3507000   0.68150178   -9.0576554    481.42305  0.011439574  0.010477677         3858 
 3508000   0.68171232   -9.0455352    480.62011  0.011417239  0.010472964         3834 
 3509000   0.69465733   -9.0499177    481.69652  0.011439549  0.010468248         3831 
 3510000   0.69750128   -9.0587101    481.39439  0.011429117  0.010463539         3866 
 3511000   0.70251348   -9.0686747     481.7838  0.011435104  0.010458829         3841 
 3512000   0.69483348     -9.07439     481.4078  0.011422926  0.010454126         3841 
 3513000   0.69151735   -9.0331045    481.79171  0.011428781  0.010449426         3816 
 3514000   0.67192199    -9.085886    480.62465  0.011397853  0.010444723         3874 
 3515000   0.68457066   -9.0841091    481.06846  0.011405132  0.010440024         3853 
 3516000   0.69240234   -9.0571123    481.23109  0.011405743  0.010435328         3848 
 3517000    0.6879807   -9.0593413    480.87703   0.01139411  0.010430639         3860 
 3518000    0.6840746   -9.0250553    482.07521  0.011419254  0.010425948         3848 
 3519000   0.69185179   -9.0514914    480.83679  0.011386682  0.010421261         3827 
 3520000   0.68042289   -9.0721409     480.5892  0.011377585  0.010416576         3835 
 3521000   0.68525456   -9.0646071    481.49792  0.011395861  0.010411892         3828 
 3522000   0.67962304   -9.0488703    481.16711  0.011384798  0.010407217         3834 
 3523000   0.67940077   -9.0473073    481.82092  0.011397032  0.010402541         3822 
 3524000   0.69396108   -9.0560397    481.24077  0.011380079  0.010397864         3844 
 3525000   0.70441923   -9.0498347     480.8106  0.011366681  0.010393198         3857 
 3526000   0.70218098   -9.0621116    481.61866  0.011382555  0.010388534         3795 
 3527000   0.69202268    -9.053078    480.95122  0.011363558   0.01038387         3839 
 3528000   0.68181423   -9.0564662    481.61816   0.01137609  0.010379206         3859 
 3529000   0.68341902   -9.0796804    480.68918   0.01135093  0.010374543         3854 
 3530000   0.69340406   -9.0857314    481.05258  0.011356293  0.010369886         3823 
 3531000   0.69124173   -9.0815249    479.86235  0.011324987  0.010365227         3821 
 3532000   0.69554726   -9.0490467    481.15511  0.011352282  0.010360576         3845 
 3533000   0.68106698   -9.0694227     481.0425  0.011346412  0.010355927         3856 
 3534000   0.69659274    -9.036069     480.9685  0.011341457  0.010351283         3830 
 3535000   0.68720711   -9.0597543    481.58085  0.011352684  0.010346639         3864 
 3536000   0.67502298   -9.0639405    482.48691  0.011370826  0.010341994         3841 
 3537000   0.68656818   -9.0434333    481.28121  0.011339205  0.010337355         3828 
 3538000    0.6757682   -9.0902521    480.38121  0.011314801  0.010332715         3838 
 3539000   0.68521868    -9.034731    481.43636   0.01133645  0.010328078         3809 
 3540000   0.67718074   -9.0837159     481.2249   0.01132827  0.010323449         3851 
 3541000   0.68817735   -9.0989174    481.25666  0.011325818  0.010318822         3856 
 3542000   0.69141126   -9.0637579     481.7416   0.01133403  0.010314197         3848 
 3543000   0.67690044   -9.0840254    480.44702  0.011300381  0.010309576         3869 
 3544000   0.69029321    -9.064609    480.82009  0.011305965  0.010304957         3868 
 3545000   0.69360607   -9.0854701    480.42719   0.01129354  0.010300337         3860 
 3546000   0.67996008   -9.0488299    481.21665  0.011308908  0.010295722         3816 
 3547000   0.69292071    -9.066164    481.25867  0.011306707   0.01029111         3838 
 3548000    0.6843163   -9.0839488    480.30012  0.011281006  0.010286503         3843 
 3549000    0.6860462   -9.0784423    480.31873  0.011278265  0.010281897         3863 
 3550000   0.70401775   -9.0827456    481.47394  0.011302205  0.010277297         3826 
 3551000   0.70068654   -9.0568474    481.03069   0.01128862  0.010272698         3866 
 3552000   0.68781582   -9.0747501    480.94548  0.011283443  0.010268101         3832 
 3553000     0.667081   -9.0585625    481.49993  0.011293272  0.010263506         3826 
 3554000   0.67956514     -9.07828    481.21831  0.011283491  0.010258916         3829 
 3555000   0.68708148   -9.0697444    481.10409  0.011277639  0.010254329         3832 
 3556000   0.68469622   -9.0820031    481.09291  0.011274206   0.01024974         3848 
 3557000   0.67918133   -9.0583372    481.16157  0.011272645  0.010245152         3840 
 3558000   0.69444548   -9.0717389    481.07883  0.011267539  0.010240571         3854 
 3559000   0.66889068   -9.0711916    481.77538  0.011280682  0.010235992         3859 
 3560000   0.69582456   -9.0641756    480.66127  0.011251434   0.01023142         3842 
 3561000   0.70406889   -9.0749799     481.4385  0.011266463  0.010226847         3867 
 3562000   0.68505883   -9.0455343    481.94647  0.011275184  0.010222278         3858 
 3563000   0.68794305   -9.0632697    481.00276  0.011249948  0.010217711         3857 
 3564000   0.68642168    -9.073436    480.93378  0.011245178  0.010213143         3854 
 3565000   0.66919041   -9.0579354    480.75145  0.011237762  0.010208575         3852 
 3566000   0.68762953   -9.0713416    481.59051  0.011254218  0.010204018         3863 
 3567000   0.67827359   -9.0684669    480.78969  0.011232354  0.010199461         3840 
 3568000   0.68362992   -9.0776898    479.32846  0.011195078  0.010194905         3854 
 3569000   0.66371812   -9.0831558    480.70682  0.011224125  0.010190352         3855 
 3570000   0.66986661   -9.0902482    480.47948  0.011215674  0.010185799         3838 
 3571000   0.67798489   -9.0667036    481.36899  0.011233291  0.010181247         3863 
 3572000   0.67858328   -9.0711375    481.36035  0.011229945  0.010176695         3819 
 3573000   0.69654348   -9.0607665    480.16217  0.011198857  0.010172151         3832 
 3574000   0.69219369   -9.0600124    480.21237  0.011196894  0.010167611         3875 
 3575000   0.68160569   -9.0799469    480.78492  0.011207108   0.01016307         3854 
 3576000   0.68301483   -9.0841339    481.48064  0.011220186  0.010158527         3837 
 3577000   0.69408617    -9.065279    481.76149  0.011223593  0.010153993         3850 
 3578000   0.67933959    -9.084469    480.82656  0.011198681  0.010149463         3828 
 3579000   0.68392687   -9.0728395    481.14212  0.011202899  0.010144934         3848 
 3580000   0.66956878    -9.070016    481.76284  0.011214219  0.010140412         3835 
 3581000   0.65991449   -9.0730984    481.10381  0.011195751  0.010135892         3856 
 3582000   0.67942492   -9.0674683    480.96844  0.011189476  0.010131373         3822 
 3583000     0.686721   -9.0659891    482.06418  0.011211838   0.01012686         3839 
 3584000   0.67927788    -9.098532    480.48626  0.011172021  0.010122342         3851 
 3585000   0.67214398   -9.0819676    481.02484  0.011181423  0.010117833         3840 
 3586000    0.6667477   -9.0701967     481.2889  0.011184442  0.010113323         3860 
 3587000   0.65768589   -9.0892258    480.50469  0.011163105  0.010108807         3863 
 3588000    0.6809907   -9.0553255    479.85555  0.011144917    0.0101043         3845 
 3589000    0.6903082    -9.105109    480.86516  0.011165254  0.010099794         3852 
 3590000   0.69233223   -9.0731473    481.54495  0.011177924  0.010095298         3850 
 3591000   0.67332005   -9.0736762      480.712  0.011155481  0.010090801         3871 
 3592000     0.678969   -9.0750169    481.47095  0.011169983  0.010086307         3843 
 3593000   0.65554686   -9.0746886    480.64069  0.011147618  0.010081813         3883 
 3594000   0.68751803   -9.1029986    480.21698  0.011134692  0.010077325         3857 
 3595000   0.65683696   -9.0935339    480.40008  0.011135839  0.010072837         3853 
 3596000   0.68087712   -9.0656581    481.13792  0.011149841  0.010068353         3840 
 3597000   0.67859536   -9.0980014    480.49354  0.011131812   0.01006387         3846 
 3598000     0.677802   -9.0837638    479.98652  0.011116975  0.010059386         3874 
 3599000   0.69711841   -9.0827448    480.01959  0.011114652   0.01005491         3834 
 3600000   0.67533332   -9.0645747    480.06264  0.011112561  0.010050435         3864 
 3601000   0.67905458   -9.0849226    480.32709  0.011115595  0.010045964         3845 
 3602000   0.67481061   -9.0886649    480.56467  0.011118006  0.010041495         3868 
 3603000   0.66236565   -9.0828055    479.98077  0.011101415  0.010037029         3848 
 3604000   0.69221201   -9.0775926     481.0566   0.01112321  0.010032567         3828 
 3605000   0.66357602    -9.066664    480.74918  0.011113018  0.010028105         3845 
 3606000   0.67238163   -9.0819306    480.54985   0.01110533  0.010023647         3860 
 3607000   0.66514006   -9.0578026    480.73772  0.011106592  0.010019192         3867 
 3608000   0.67503548    -9.079672    479.93791   0.01108504  0.010014736         3856 
 3609000    0.6691616   -9.1032565    479.90363  0.011081177  0.010010285         3848 
 3610000   0.68603723   -9.0740736    480.59575  0.011094085   0.01000583         3871 
 3611000    0.6897148   -9.0942537    480.54392  0.011089816  0.010001383         3891 
 3612000   0.66940073   -9.0609896    481.34092  0.011105134 0.0099969436         3858 
 3613000   0.67510491   -9.0682772    480.91515   0.01109224  0.009992504         3850 
 3614000   0.68445913   -9.0720983    480.34083  0.011075928 0.0099880661         3848 
 3615000   0.68270242   -9.0733755    480.78128  0.011083017 0.0099836279         3888 
 3616000   0.66360539   -9.0711485    480.87254  0.011082055 0.0099791983         3860 
 3617000   0.67371692   -9.0827013    480.66159  0.011074131 0.0099747664         3844 
 3618000   0.66809129   -9.0919023    480.13654  0.011058977 0.0099703339         3882 
 3619000    0.6739715   -9.0565019    480.30865  0.011059884 0.0099659054         3834 
 3620000   0.68052527   -9.0988845    480.43684   0.01105978 0.0099614823         3877 
 3621000   0.65402919   -9.0875492    480.63342   0.01106125 0.0099570586         3867 
 3622000   0.67850428   -9.0946599    481.22365  0.011071775 0.0099526373         3850 
 3623000   0.68065871   -9.0953035    480.50595  0.011052212 0.0099482151         3822 
 3624000   0.67105152   -9.0990059     480.2397  0.011043039 0.0099437967         3869 
 3625000    0.6780929   -9.0847419    480.23771  0.011039947 0.0099393805         3856 
 3626000   0.67468192   -9.0876758    481.14365  0.011057723 0.0099349722         3835 
 3627000   0.67233982   -9.1215089    480.54099  0.011040828 0.0099305651         3850 
 3628000   0.67334339   -9.1204341    480.96265   0.01104747 0.0099261605         3863 
 3629000   0.66934705   -9.0747704    480.73714  0.011039247 0.0099217605         3855 
 3630000   0.67151665   -9.1073589    480.18339  0.011023494 0.0099173574         3851 
 3631000   0.68214567   -9.0977063    480.33528  0.011023944 0.0099129631         3862 
 3632000   0.66238762   -9.0862017    480.73334  0.011030042 0.0099085723         3881 
 3633000   0.65972405   -9.0600805    481.24523  0.011038747 0.0099041822         3869 
 3634000   0.68448655      -9.1073    480.27039  0.011013355 0.0098997929         3868 
 3635000   0.65949033   -9.0746252     479.7104  0.010997487 0.0098954053         3856 
 3636000   0.67408647   -9.1006388    480.65226  0.011016049 0.0098910173         3846 
 3637000    0.6706454   -9.0758793    480.82741  0.011017033 0.0098866357         3867 
 3638000   0.67224401    -9.102837    480.72718  0.011011709 0.0098822571         3868 
 3639000   0.66875151   -9.0714352     480.6179  0.011006181 0.0098778818         3847 
 3640000   0.68213798   -9.0648223    480.51483  0.011000797 0.0098735157         3877 
 3641000   0.67906027   -9.0828144    480.85827  0.011005636 0.0098691518         3858 
 3642000   0.66086231   -9.1018147    481.23768  0.011011296  0.009864787         3856 
 3643000   0.66974812   -9.0873673    480.72788  0.010996612 0.0098604193         3845 
 3644000   0.66364074   -9.0957211    480.53007   0.01098907 0.0098560539         3839 
 3645000   0.66306373   -9.1051288    480.73222  0.010990677 0.0098516914         3849 
 3646000   0.66197378   -9.0888121    481.51493  0.011005552 0.0098473322         3818 
 3647000   0.66521396   -9.1012743    479.59177  0.010958591 0.0098429752         3879 
 3648000   0.67657229   -9.0866318    480.43755  0.010974907 0.0098386199         3866 
 3649000   0.66912288   -9.0640225    481.12688  0.010987642 0.0098342707         3879 
 3650000   0.65898744   -9.1154514    480.57321  0.010971991 0.0098299248         3880 
 3651000   0.66609434   -9.1023786    480.15347  0.010959405 0.0098255776         3878 
 3652000   0.66570545   -9.0909905    481.14055  0.010978928  0.009821235         3860 
 3653000   0.67395729   -9.0912254    481.11026  0.010975232 0.0098168961         3862 
 3654000   0.65495985   -9.0948991    480.73676   0.01096371 0.0098125607         3849 
 3655000   0.67218587   -9.0872704    480.61646  0.010957968 0.0098082239         3866 
 3656000    0.6610811   -9.1078524    479.88511    0.0109383 0.0098038953         3867 
 3657000   0.67388107   -9.0801725     480.8751  0.010957868 0.0097995672         3851 
 3658000   0.66721118   -9.0950456    480.25582  0.010940765 0.0097952368         3843 
 3659000   0.66365075   -9.1074765    480.53881   0.01094422 0.0097909122         3822 
 3660000   0.64965602   -9.0737473    481.89154   0.01097203 0.0097865871         3823 
 3661000   0.66213887   -9.1077974    479.99344  0.010925827  0.009782262         3850 
 3662000   0.66911336   -9.0907267    480.11357  0.010925577 0.0097779427         3850 
 3663000   0.66861188   -9.0980077    480.76939  0.010937515 0.0097736241         3856 
 3664000    0.6719651   -9.0878932    480.44189  0.010927081 0.0097693118         3855 
 3665000    0.6557173   -9.1196758    480.32704  0.010921488 0.0097650006         3854 
 3666000   0.66029381    -9.098226    479.50557  0.010899836 0.0097606922         3857 
 3667000   0.67228607   -9.0957362    480.69241  0.010923835 0.0097563842         3854 
 3668000   0.67546558   -9.1165109      479.116  0.010885042 0.0097520823         3854 
 3669000    0.6536759   -9.1056226    479.95628   0.01090116 0.0097477821         3860 
 3670000   0.66816188   -9.0955338    479.33288  0.010884034 0.0097434819         3842 
 3671000   0.66230923   -9.0870551    480.02735  0.010896835 0.0097391796         3845 
 3672000   0.65623836   -9.0979473    480.37102  0.010901666 0.0097348856         3842 
 3673000   0.65641044   -9.0953165    479.73027  0.010884161 0.0097305946         3825 
 3674000   0.65645193   -9.0994544     479.7263  0.010881108 0.0097263099         3862 
 3675000   0.65217868   -9.0939273    480.84683  0.010903556 0.0097220245         3860 
 3676000   0.66030511   -9.0806927    480.51833  0.010893143 0.0097177427         3840 
 3677000   0.67362728   -9.1107622    480.43975    0.0108884  0.009713464         3855 
 3678000    0.6638726   -9.0963647    480.24315  0.010880985 0.0097091865         3853 
 3679000    0.6517677    -9.083571    480.06098  0.010873901 0.0097049084         3847 
 3680000   0.65545293   -9.0893191    480.05277   0.01087076 0.0097006336         3872 
 3681000   0.65396998   -9.0831188    481.20153  0.010893813 0.0096963621         3856 
 3682000   0.66347991   -9.0894815    480.66115  0.010878625 0.0096920923         3870 
 3683000   0.65314516    -9.122857    480.10428  0.010863071 0.0096878221         3848 
 3684000   0.67709984    -9.089171    479.83915  0.010854125 0.0096835605         3828 
 3685000   0.64555485   -9.1126921    480.27626  0.010861064 0.0096792961         3842 
 3686000   0.64627154    -9.103631    480.13002  0.010854811 0.0096750344         3868 
 3687000   0.65927069   -9.0820564    480.66906  0.010864051 0.0096707788         3874 
 3688000   0.67339506   -9.1095514    480.57426  0.010858963 0.0096665249         3827 
 3689000   0.67316017   -9.0908536    479.41865  0.010829914 0.0096622692         3857 
 3690000   0.65741331   -9.1002323    479.62931  0.010831737 0.0096580187         3856 
 3691000   0.65886009   -9.0936206    479.58108  0.010827713 0.0096537696         3846 
 3692000   0.66936679   -9.1006316    480.30992  0.010841232 0.0096495221         3857 
 3693000   0.65824564   -9.0882077     480.0181  0.010831711 0.0096452765         3854 
 3694000   0.66066047   -9.1198591    480.50983  0.010839872 0.0096410392         3854 
 3695000   0.66587766   -9.1142098     479.7593  0.010820011 0.0096368018         3858 
 3696000   0.67119161   -9.1032547    480.61353  0.010836344 0.0096325645         3850 
 3697000   0.65347529   -9.1151412    479.46974  0.010807631 0.0096283304         3857 
 3698000   0.66046029   -9.1121109    480.10099  0.010818933 0.0096240937         3846 
 3699000   0.66574103   -9.1078962    479.78428  0.010808873  0.009619862         3846 
 3700000   0.66955769   -9.1317769    479.08824  0.010790276 0.0096156336         3867 
 3701000   0.66575209   -9.1033283    479.79448  0.010803262 0.0096114076         3839 
 3702000   0.64856333   -9.1086103    479.62264  0.010796476 0.0096071842         3865 
 3703000   0.65245653   -9.1142888    480.36049  0.010810165  0.009602958         3867 
 3704000   0.65105179   -9.1243776    479.53018  0.010788566 0.0095987392         3884 
 3705000   0.66223331   -9.0918418    480.99094   0.01081851 0.0095945258         3856 
 3706000   0.65687019   -9.1337667    479.87312  0.010790455 0.0095903109         3846 
 3707000   0.66048829   -9.1135395    480.11877  0.010793067 0.0095861023         3860 
 3708000   0.65157968   -9.1263367    480.39845  0.010796441 0.0095818928         3869 
 3709000   0.65172297   -9.1343026    480.38609  0.010793253 0.0095776852         3878 
 3710000   0.66396775   -9.1142923    480.05754  0.010782964 0.0095734797         3870 
 3711000   0.67606858    -9.110978    479.94166  0.010777456  0.009569278         3868 
 3712000   0.65328422   -9.1210848    480.12686   0.01077871 0.0095650767         3851 
 3713000   0.66180065   -9.1199882    480.46966  0.010783501 0.0095608752         3856 
 3714000   0.65097213   -9.1212561    480.19642  0.010774466 0.0095566826         3855 
 3715000   0.66115724   -9.1100504    480.20846  0.010771836 0.0095524929         3840 
 3716000   0.64814877   -9.1165884    480.03547  0.010765058 0.0095483032         3860 
 3717000   0.65051932   -9.1133321    479.69096  0.010754438 0.0095441161         3868 
 3718000   0.66315168   -9.0965868    480.21631  0.010763321  0.009539929         3845 
 3719000   0.64756716   -9.1098077    479.02658  0.010733768 0.0095357457         3843 
 3720000   0.65998812   -9.1085893    480.53487   0.01076467 0.0095315628         3819 
 3721000    0.6534691   -9.1162842    480.01425  0.010750118 0.0095273823         3858 
 3722000   0.64282354   -9.1175286    479.94402  0.010745657 0.0095232055         3863 
 3723000   0.64554394   -9.1187177    479.42685  0.010731195 0.0095190303         3875 
 3724000   0.65371096   -9.1258523    479.53395   0.01073071 0.0095148608         3875 
 3725000   0.64948327   -9.1154524    479.78882  0.010733531 0.0095106931         3867 
 3726000   0.64361448   -9.1005177     480.2849  0.010741745 0.0095065248         3854 
 3727000   0.65425809   -9.1075451    479.67113  0.010725139 0.0095023668         3851 
 3728000   0.64898905   -9.1098736    479.35919  0.010715289 0.0094982087         3858 
 3729000   0.64778878   -9.1403681    480.86977  0.010746173 0.0094940515         3879 
 3730000    0.6505499   -9.0969172    480.80453  0.010741835 0.0094898979         3862 
 3731000   0.65817923   -9.1144294    479.26739  0.010704623 0.0094857471         3851 
 3732000   0.67013961   -9.1007179    479.78925  0.010713408 0.0094816017         3862 
 3733000   0.65147961   -9.0906122    480.07924  0.010717011 0.0094774544         3837 
 3734000   0.66182017   -9.1243258    479.37642  0.010698456 0.0094733087         3843 
 3735000   0.64733441   -9.1065374    480.38218  0.010718032 0.0094691679         3853 
 3736000   0.65461794   -9.1328291    478.96375  0.010683524 0.0094650276         3845 
 3737000    0.6515757   -9.1078987    479.32064  0.010688624 0.0094608904         3844 
 3738000   0.66245487   -9.0908081    480.02595  0.010701488 0.0094567535         3832 
 3739000   0.64469815   -9.1177228    480.43848   0.01070782 0.0094526246         3850 
 3740000   0.66207122   -9.1484038    479.60032  0.010686282  0.009448497         3881 
 3741000   0.65258872   -9.1311507    479.21227  0.010674781 0.0094443675         3855 
 3742000   0.65886173   -9.1409224    479.52043  0.010678791 0.0094402431         3880 
 3743000   0.64903389   -9.1234304    479.52504  0.010676041 0.0094361201         3847 
 3744000   0.64214218   -9.1183377    479.26791  0.010667466 0.0094319981         3849 
 3745000    0.6568804   -9.1251676    480.05062  0.010682034 0.0094278813         3853 
 3746000   0.65300768   -9.1040877    480.11513  0.010680618  0.009423764         3885 
 3747000    0.6558129   -9.1368502    479.96132  0.010674347  0.009419647         3848 
 3748000   0.63557635   -9.1190003    479.82147  0.010668389 0.0094155348         3869 
 3749000   0.64202705   -9.1251501    479.54454  0.010659388 0.0094114241         3877 
 3750000     0.649609   -9.1140856    479.91008  0.010664668 0.0094073185         3876 
 3751000   0.65726235   -9.1272785    479.96829  0.010663118 0.0094032133         3843 
 3752000   0.64927182   -9.1155994    480.71334  0.010676824 0.0093991078         3828 
 3753000   0.63945873   -9.1230739    479.81454  0.010654022 0.0093950074         3823 
 3754000   0.65189464   -9.1032169    480.84425  0.010674042  0.009390914         3849 
 3755000   0.65042989    -9.140072    480.04003  0.010653352 0.0093868184         3877 
 3756000   0.65223404   -9.1133983    479.72347  0.010643492  0.009382724         3850 
 3757000   0.64776655   -9.1301928    479.74801  0.010641203 0.0093786304         3864 
 3758000   0.64479505   -9.1304051    480.59113  0.010657068 0.0093745441         3832 
 3759000   0.65379251   -9.1212016    479.75336   0.01063566  0.009370459         3865 
 3760000   0.65557086   -9.1016906     479.8293  0.010634515 0.0093663781         3857 
 3761000   0.64593209   -9.1186829    478.92097  0.010611561 0.0093623005         3864 
 3762000   0.65545217   -9.1202599    479.26259  0.010616308 0.0093582186         3871 
 3763000    0.6406437   -9.1195187    480.02138   0.01063029  0.009354143         3876 
 3764000   0.65167796   -9.1217324    480.00752  0.010627159 0.0093500654         3859 
 3765000   0.66715297    -9.127441    479.45491  0.010612105 0.0093459901         3871 
 3766000   0.65330833   -9.1174182    479.79752  0.010616869 0.0093419206         3856 
 3767000   0.63753895   -9.1305327    479.10058  0.010598632 0.0093378525         3858 
 3768000   0.64465043   -9.1255097    479.34543  0.010601235 0.0093337851         3860 
 3769000   0.65601656   -9.1215467    479.30705  0.010597573 0.0093297223         3867 
 3770000   0.65668447   -9.1322533    479.20101  0.010592418 0.0093256624         3860 
 3771000   0.64231051   -9.1252774    479.56772  0.010597713 0.0093216022         3857 
 3772000   0.63534033   -9.1146677    478.77225   0.01057733 0.0093175452         3831 
 3773000   0.65222445   -9.1343044    479.78837  0.010596969 0.0093134879         3876 
 3774000   0.64005296   -9.1132266    479.40498  0.010585696 0.0093094357         3852 
 3775000   0.63946246   -9.1327787    480.39238  0.010604688 0.0093053852         3864 
 3776000   0.64247212   -9.1362685     479.8646  0.010590232 0.0093013345         3874 
 3777000   0.65234213   -9.1342019    480.22909   0.01059547 0.0092972869         3862 
 3778000   0.65225919   -9.1516676    480.13782  0.010590653  0.009293241         3845 
 3779000   0.67863263   -9.1166297     479.9334  0.010583342 0.0092891967         3842 
 3780000   0.65492798   -9.1260465    479.74144   0.01057631 0.0092851581         3872 
 3781000   0.64044594   -9.1258082    480.17229  0.010583009 0.0092811196         3851 
 3782000   0.63692568   -9.1188596    479.30185  0.010561031 0.0092770875         3851 
 3783000    0.6454799   -9.1287084    479.56019   0.01056393 0.0092730586         3866 
 3784000      0.64814   -9.1514719    479.19979  0.010553202 0.0092690293         3859 
 3785000   0.62725676   -9.1392852    479.84987  0.010564726 0.0092650021         3842 
 3786000   0.64543193   -9.1134321    479.85108  0.010561962 0.0092609749         3830 
 3787000   0.64941474   -9.1405002    479.89515  0.010560143 0.0092569506         3887 
 3788000   0.64745476    -9.115285    480.42403   0.01056899 0.0092529329         3865 
 3789000   0.63521847    -9.131698    479.60091  0.010548098 0.0092489135         3839 
 3790000   0.63954223    -9.137166    479.74741  0.010548536 0.0092448949         3840 
 3791000   0.64692963   -9.1362292    480.31373  0.010558202 0.0092408807         3825 
 3792000   0.64462459   -9.1350175    479.36545  0.010534578 0.0092368685         3857 
 3793000   0.65054639   -9.1340699     479.0405  0.010524662 0.0092328609         3846 
 3794000    0.6477297   -9.1349524    479.15761   0.01052446 0.0092288532         3836 
 3795000    0.6466265   -9.1299979    478.36797  0.010504347 0.0092248511         3864 
 3796000   0.65310967   -9.1183235    479.60403  0.010528715  0.009220851         3861 
 3797000   0.64144499   -9.1296382    479.22152  0.010517547 0.0092168503         3871 
 3798000   0.63658733   -9.1309479    479.16327    0.0105135 0.0092128518         3838 
 3799000   0.63676728   -9.1167183     480.2765  0.010535152  0.009208857         3816 
 3800000   0.64786167   -9.1327174    479.48873  0.010515104 0.0092048649         3874 
 3801000   0.63874302    -9.140214    479.77125  0.010518531  0.009200873         3868 
 3802000   0.63673385   -9.1288958    479.93177  0.010519283 0.0091968848         3865 
 3803000   0.65136712   -9.1180418    479.31348  0.010502969 0.0091929013         3859 
 3804000   0.65334868   -9.1162376    479.94202  0.010513977 0.0091889214         3846 
 3805000   0.64099941   -9.1342854    479.72442  0.010506448 0.0091849348         3853 
 3806000   0.63623619   -9.1380877    478.94412  0.010486603 0.0091809556         3871 
 3807000    0.6484438   -9.1418669    479.65356  0.010499377 0.0091769824         3885 
 3808000   0.63391783   -9.1295979     480.1123  0.010506659  0.009173007         3867 
 3809000   0.63491381   -9.1364995    478.76554  0.010474436 0.0091690372         3890 
 3810000   0.63956428   -9.1230764    478.93863  0.010475473  0.009165066         3881 
 3811000   0.64006267    -9.127044    478.90342  0.010471954 0.0091610958         3834 
 3812000   0.63786305   -9.1425618    478.49904  0.010460367 0.0091571298         3905 
 3813000   0.63860092   -9.1465479    479.76068  0.010485197 0.0091531654         3842 
 3814000   0.63573471   -9.1171057    479.80971  0.010483519 0.0091492067         3854 
 3815000   0.64446064   -9.1494418    478.37521  0.010449437 0.0091452452         3878 
 3816000   0.64744829   -9.1426161    478.84186  0.010456889 0.0091412884         3867 
 3817000   0.63308346   -9.1376703    478.95805  0.010456686 0.0091373307         3839 
 3818000   0.62856271   -9.1379297    479.25158  0.010460354 0.0091333782         3868 
 3819000   0.64364641   -9.1135589    480.28588  0.010480184  0.009129428         3882 
 3820000   0.64628039   -9.1487993    478.78262  0.010444647 0.0091254808         3870 
 3821000   0.62497244   -9.1389554    478.69216  0.010439941 0.0091215324         3870 
 3822000   0.63528594   -9.1422028    479.81174   0.01046162 0.0091175895         3852 
 3823000   0.64052972   -9.1279785    479.14804  0.010444416 0.0091136478         3874 
 3824000   0.65290693   -9.1347308     479.7048  0.010453818 0.0091097075         3853 
 3825000   0.64936025   -9.1254142    479.02963  0.010436375 0.0091057692         3868 
 3826000   0.64198441   -9.1378337    479.82078  0.010450879 0.0091018379         3852 
 3827000   0.64083461   -9.1480315    479.55084  0.010442271 0.0090979048         3864 
 3828000   0.64291343    -9.143058    479.58822  0.010440357 0.0090939735         3840 
 3829000   0.64505312   -9.1414815     479.1478  0.010428045 0.0090900482         3862 
 3830000   0.64106676   -9.1289263    478.79994  0.010417753 0.0090861202         3868 
 3831000   0.63534349   -9.1221445    479.36307  0.010427283 0.0090821966         3865 
 3832000   0.63215938   -9.1601605    478.46898  0.010405119  0.009078276         3858 
 3833000   0.62894287   -9.1305553    479.33536   0.01042124 0.0090743567         3850 
 3834000   0.63312198    -9.166305    478.31359  0.010396313 0.0090704402         3894 
 3835000   0.62704839   -9.1493354    478.39031   0.01039527  0.009066524         3873 
 3836000   0.63065135   -9.1379062    479.48982  0.010416445 0.0090626143         3850 
 3837000   0.63081192   -9.1374721    479.54183   0.01041486 0.0090587062         3843 
 3838000   0.62615648   -9.1419477    479.51077  0.010411472 0.0090547967         3860 
 3839000   0.64361355   -9.1476538    479.57806  0.010410221 0.0090508886         3865 
 3840000    0.6282572   -9.1564597    478.63473  0.010387038 0.0090469825         3882 
 3841000   0.63619633   -9.1610431      480.148  0.010417166 0.0090430809         3865 
 3842000   0.62909124   -9.1347172    478.83819  0.010386044 0.0090391822         3880 
 3843000    0.6458087   -9.1498528    478.83741  0.010383325 0.0090352856         3853 
 3844000   0.63825886   -9.1373002    479.38176  0.010392425 0.0090313912         3871 
 3845000   0.62908433   -9.1302692    480.00229  0.010403171 0.0090274965         3863 
 3846000   0.62833544   -9.1335406    479.40239  0.010387467 0.0090236071         3854 
 3847000   0.64941438   -9.1288509    479.18548  0.010380068 0.0090197232         3859 
 3848000    0.6423977   -9.1259156    479.71323    0.0103888 0.0090158446         3860 
 3849000   0.64382116   -9.1492928    478.81454  0.010366644 0.0090119624         3835 
 3850000   0.64088713   -9.1324598    479.17697  0.010371796 0.0090080834         3865 
 3851000   0.62912946   -9.1344926    479.36087  0.010373082 0.0090042059         3873 
 3852000   0.63540146   -9.1418589    479.13366  0.010365474 0.0090003318         3848 
 3853000   0.62969016   -9.1480053    478.77173  0.010354956 0.0089964577         3868 
 3854000   0.62186136   -9.1398994    479.39256  0.010365693 0.0089925892         3862 
 3855000   0.62762711   -9.1492669    478.97774  0.010354037   0.00898872         3879 
 3856000   0.61727504   -9.1425352    479.29094   0.01035812 0.0089848533         3841 
 3857000   0.63117332    -9.155436    479.34444  0.010356591 0.0089809883         3864 
 3858000   0.62901864   -9.1253817    479.52944  0.010357902 0.0089771289         3891 
 3859000    0.6393164   -9.1146698    479.82384  0.010361575 0.0089732727         3847 
 3860000   0.62828676    -9.148363    479.09529  0.010343163 0.0089694154         3875 
 3861000   0.64538999   -9.1441297    480.04683  0.010361021 0.0089655611         3861 
 3862000   0.64730426   -9.1292875    479.77989  0.010352578 0.0089617074         3853 
 3863000   0.63297955   -9.1569838    479.41792   0.01034209 0.0089578573         3849 
 3864000     0.632814   -9.1575508    479.17919  0.010334265 0.0089540076         3857 
 3865000   0.62982489   -9.1370661    480.02237  0.010349771 0.0089501619         3854 
 3866000   0.62733131   -9.1792688    478.76776   0.01032005 0.0089463161         3844 
 3867000   0.63987119   -9.1651563    479.04743  0.010323408 0.0089424686         3875 
 3868000    0.6311328   -9.1590045    479.34498   0.01032715 0.0089386282         3875 
 3869000   0.63758206   -9.1637965    478.98809  0.010316794 0.0089347924         3857 
 3870000   0.65174962   -9.1433661    479.19023   0.01031848 0.0089309548         3839 
 3871000     0.633527    -9.150089    479.82203  0.010329416  0.008927123         3859 
 3872000    0.6249792   -9.1441105    479.06306  0.010310414 0.0089232889         3871 
 3873000   0.63906759   -9.1588942    478.77789  0.010301616 0.0089194599         3886 
 3874000   0.63468215   -9.1437041    478.52236   0.01029346 0.0089156327         3851 
 3875000   0.62645845   -9.1451486    478.98034  0.010300653 0.0089118078         3863 
 3876000   0.63348682   -9.1364002     479.7223  0.010313947 0.0089079843         3887 
 3877000   0.62807514   -9.1496818    478.73386  0.010290041 0.0089041633         3857 
 3878000   0.62410669   -9.1505721    478.45159  0.010281322 0.0089003485         3858 
 3879000   0.63610123   -9.1482077    478.74638  0.010285004 0.0088965325         3855 
 3880000   0.63600173   -9.1617271    479.19323  0.010291951 0.0088927211         3873 
 3881000   0.61992474   -9.1419951    479.17491  0.010288906 0.0088889092         3862 
 3882000   0.62179039   -9.1577844    479.00792   0.01028267 0.0088850968         3883 
 3883000    0.6286522   -9.1587379    479.00586  0.010279978 0.0088812905         3875 
 3884000   0.62988745   -9.1474938     478.8367  0.010273702 0.0088774878         3865 
 3885000   0.62779969   -9.1425228    479.21629    0.0102792 0.0088736841         3860 
 3886000   0.62541214   -9.1437443    478.71559  0.010265817 0.0088698774         3865 
 3887000    0.6424377   -9.1804467    478.88318  0.010266769 0.0088660802         3878 
 3888000   0.62031433   -9.1566825    478.72261  0.010260687 0.0088622826         3853 
 3889000   0.61933524   -9.1477962     479.1066  0.010266277 0.0088584867         3901 
 3890000   0.62144011   -9.1434216    478.58794  0.010252526  0.008854695         3887 
 3891000   0.63917059   -9.1474329    478.87553  0.010256051  0.008850903         3850 
 3892000   0.62196286   -9.1477478    479.47539   0.01026626 0.0088471115         3863 
 3893000   0.62192459   -9.1714554    478.67163  0.010246417  0.008843323         3868 
 3894000   0.61562378   -9.1578002    478.87678  0.010248176  0.008839537         3849 
 3895000   0.62675706    -9.162837    477.74289  0.010221286 0.0088357529         3861 
 3896000   0.64291533   -9.1540545    479.49695  0.010256181 0.0088319711         3853 
 3897000   0.62822484    -9.158802    478.79991  0.010238643 0.0088281935         3853 
 3898000   0.62769535   -9.1700451    478.24837  0.010224226 0.0088244173         3874 
 3899000   0.62536606   -9.1508361    479.16963  0.010241293  0.008820643         3842 
 3900000   0.62248089   -9.1451671     479.2692  0.010240795 0.0088168661         3866 
 3901000   0.62116384   -9.1886118    478.66372  0.010225236  0.008813095         3895 
 3902000   0.64716866    -9.143042    479.34218  0.010237105 0.0088093262         3854 
 3903000   0.62541761   -9.1625159    478.17275  0.010209513 0.0088055599         3868 
 3904000    0.6138181   -9.1545144    479.84376  0.010242567 0.0088017981         3867 
 3905000   0.63672487   -9.1683534    479.57251  0.010234155 0.0087980368         3887 
 3906000   0.63494807   -9.1518647    479.22985  0.010224225 0.0087942753         3864 
 3907000   0.61653576   -9.1603364    478.87139  0.010213962 0.0087905159         3867 
 3908000   0.62104256   -9.1532095     478.6395  0.010206403  0.008786762         3881 
 3909000   0.62461435   -9.1656499    478.90926  0.010209543 0.0087830074         3886 
 3910000   0.62480291     -9.16592    478.65277  0.010201466 0.0087792594         3878 
 3911000   0.62807658   -9.1634295    478.36403  0.010192705 0.0087755098         3890 
 3912000   0.62493781   -9.1749319    478.55737  0.010194218 0.0087717655         3901 
 3913000   0.61897889   -9.1488416    478.67984  0.010194221 0.0087680191         3856 
 3914000   0.61162512   -9.1726036    478.05716  0.010178359 0.0087642762         3887 
 3915000   0.62057877   -9.1356989    478.33101  0.010181588 0.0087605366         3869 
 3916000   0.62333647   -9.1522975    479.04479  0.010194178 0.0087567992         3898 
 3917000   0.62460026   -9.1384538    479.36001  0.010198281 0.0087530648         3900 
 3918000   0.62715552   -9.1611634    478.96245  0.010187222 0.0087493299         3870 
 3919000   0.62674481   -9.1532179    479.08858  0.010187305 0.0087455994         3852 
 3920000   0.61771896     -9.14252    478.84379  0.010179502 0.0087418689         3871 
 3921000   0.62749784   -9.1625324    478.17793  0.010162755  0.008738143         3866 
 3922000   0.62992707   -9.1531209    478.61112  0.010169368 0.0087344174         3875 
 3923000    0.6302549   -9.1515678    478.80442  0.010170882 0.0087306958         3913 
 3924000   0.61646381   -9.1727929    478.68081  0.010165664 0.0087269716         3878 
 3925000   0.64278893    -9.162306    478.29306  0.010154842 0.0087232513         3905 
 3926000   0.62359957   -9.1690334    478.29653  0.010152329 0.0087195348         3853 
 3927000    0.6209279   -9.1582205    478.48459  0.010153735 0.0087158193         3880 
 3928000   0.62931127   -9.1884336    478.90833  0.010160139 0.0087121066         3880 
 3929000   0.62318501   -9.1762137    478.32957  0.010145278 0.0087083952         3863 
 3930000   0.63274435    -9.154956    479.70751  0.010171915 0.0087046854         3862 
 3931000   0.62702012   -9.1628362    478.42976   0.01014224 0.0087009777         3887 
 3932000   0.61764167   -9.1429462    479.69024  0.010166375 0.0086972737         3893 
 3933000   0.62679467   -9.1380579    479.11534  0.010151609 0.0086935701         3895 
 3934000    0.6276476   -9.1731481    478.10181  0.010127559 0.0086898676         3891 
 3935000    0.6314983   -9.1494477    478.85546  0.010140946 0.0086861682         3873 
 3936000   0.62084951   -9.1543428    478.47293   0.01013027 0.0086824713         3878 
 3937000   0.63517788   -9.1832703    478.11769  0.010120178 0.0086787762         3889 
 3938000   0.60205722   -9.1712365    478.65769  0.010129035 0.0086750801         3898 
 3939000   0.62803649   -9.1640165    478.74678  0.010128349 0.0086713902         3878 
 3940000   0.61145255   -9.1735154    479.44162  0.010140474  0.008667698         3859 
 3941000   0.61858891   -9.1476903    478.34099  0.010114628 0.0086640084         3877 
 3942000    0.6203366   -9.1528996    478.22366  0.010109582 0.0086603213         3901 
 3943000   0.61336136   -9.1749968    478.69681  0.010117018 0.0086566411         3889 
 3944000   0.61780512   -9.1806197    478.42883   0.01010879 0.0086529555         3870 
 3945000   0.62026517   -9.1666738    478.70261  0.010112011 0.0086492768         3888 
 3946000   0.64091609   -9.1698799    477.85852  0.010091623 0.0086456042         3877 
 3947000   0.62986702   -9.1802733    478.35454  0.010099539 0.0086419265         3877 
 3948000   0.62680423   -9.1762283      478.345  0.010096779 0.0086382527         3845 
 3949000   0.62581808   -9.1920889    478.78649  0.010103539 0.0086345829         3888 
 3950000   0.62230244   -9.1765425    478.96429  0.010104732 0.0086309142         3893 
 3951000   0.62615212       -9.181    478.17074  0.010085437 0.0086272485         3875 
 3952000   0.61826707   -9.1510412    478.78306  0.010095797 0.0086235836         3872 
 3953000   0.61885482   -9.1769795    478.17381  0.010080399 0.0086199197         3881 
 3954000   0.62284904   -9.1673252    479.38775  0.010103434 0.0086162602         3875 
 3955000    0.6172362    -9.157215    479.32353  0.010099527 0.0086126062         3869 
 3956000   0.62633429   -9.1472285     478.4753  0.010079106 0.0086089502         3901 
 3957000   0.61021958   -9.1878123    477.69699  0.010060167 0.0086052965         3881 
 3958000   0.61663659   -9.1851632    478.12034  0.010066539 0.0086016445         3910 
 3959000   0.61902365   -9.1715311    478.67512  0.010075674 0.0085979944         3903 
 3960000   0.62149242    -9.164123    479.26293  0.010085499 0.0085943447         3885 
 3961000    0.6146668   -9.1676463    479.63048  0.010090686  0.008590701         3866 
 3962000   0.63167036   -9.1581757    478.98232  0.010074506 0.0085870599         3861 
 3963000   0.61480765   -9.1836268    478.14243  0.010054303 0.0085834224         3883 
 3964000   0.61865523   -9.1836696    479.24819  0.010075012 0.0085797834         3871 
 3965000    0.6233771   -9.1545463    477.82391  0.010042537 0.0085761466         3841 
 3966000   0.61829535   -9.1734003    477.50025  0.010033204 0.0085725128         3867 
 3967000    0.6119761   -9.1834834    477.79631  0.010036894 0.0085688773         3894 
 3968000   0.61711137   -9.1743341    477.51923  0.010028546 0.0085652415         3861 
 3969000   0.62390302   -9.1399137    478.50023  0.010046616 0.0085616148         3875 
 3970000   0.63847068   -9.1632169    478.37581  0.010041474 0.0085579892         3889 
 3971000   0.60635836   -9.1774969    478.02141  0.010031508 0.0085543637         3858 
 3972000   0.61894727   -9.1719715    479.15406  0.010052745 0.0085507384         3857 
 3973000   0.62046726    -9.185205    478.61183  0.010038842 0.0085471151         3856 
 3974000   0.61911968   -9.1677781    478.70793  0.010038331 0.0085434942         3866 
 3975000   0.61080529   -9.1772243    478.76443   0.01003699 0.0085398756         3881 
 3976000   0.61415814   -9.1759125    478.45863  0.010028056 0.0085362607         3879 
 3977000    0.6142816   -9.1777823     478.0771   0.01001754 0.0085326466         3881 
 3978000   0.60835393    -9.176929    478.21978  0.010018011 0.0085290341         3877 
 3979000   0.61536761   -9.1537883    478.38969  0.010019052 0.0085254271         3868 
 3980000   0.61309803   -9.1749208    478.43113  0.010017402 0.0085218192         3878 
 3981000   0.60255312   -9.1841197    478.20017  0.010010051 0.0085182125         3878 
 3982000   0.59703085   -9.1686575    478.47655  0.010013322  0.008514608         3868 
 3983000   0.61678565   -9.1900765    477.67582 0.0099940542 0.0085110042         3878 
 3984000   0.62187711   -9.1932778    478.12106  0.010000859 0.0085074051         3886 
 3985000   0.61963589   -9.1741556     478.5985  0.010008333  0.008503808         3884 
 3986000   0.60887448   -9.1665118    477.98993 0.0099930993 0.0085002128         3881 
 3987000   0.62107793   -9.1547942     478.1236 0.0099933869 0.0084966211         3898 
 3988000   0.61201404   -9.1682751    478.23629 0.0099932357 0.0084930287         3875 
 3989000   0.60510195   -9.1792092     478.0948 0.0099877746 0.0084894397         3882 
 3990000   0.62447174   -9.1771539    478.14369 0.0099862926 0.0084858537         3878 
 3991000   0.61336624   -9.1721164     478.4388 0.0099899525 0.0084822664         3851 
 3992000   0.61524013   -9.1586089    478.78087 0.0099945906 0.0084786853         3858 
 3993000   0.61109232   -9.1849828    478.72904 0.0099910059 0.0084751037         3903 
 3994000   0.61371417   -9.1881631    477.85481  0.009970264 0.0084715219         3872 
 3995000   0.61225116   -9.1665534    478.61029 0.0099835271  0.008467943         3858 
 3996000   0.60654364   -9.1693302    478.88858 0.0099868323 0.0084643678         3908 
 3997000   0.59247043   -9.1688707    478.56486 0.0099775845 0.0084607937         3847 
 3998000   0.60085752   -9.1883307    478.24576 0.0099684375 0.0084572194         3872 
 3999000   0.62929013   -9.1884582    477.69017 0.0099543671 0.0084536471         3863 
 4000000    0.6113908   -9.1843129    479.07092 0.0099806442 0.0084500788         3853 
 4001000   0.60303114   -9.1812815    478.36129 0.0099633693 0.0084465114         3866 
 4002000   0.61775276   -9.1726393    478.81073 0.0099702384 0.0084429438         3855 
 4003000   0.61385753   -9.1706834    477.78889 0.0099464753 0.0084393819         3874 
 4004000   0.62003109   -9.1956146    478.13163 0.0099511246 0.0084358172         3886 
 4005000   0.61067024   -9.1735438    478.02615 0.0099464451 0.0084322609         3856 
 4006000   0.60912776   -9.1913683    478.62374 0.0099563933 0.0084287075         3857 
 4007000   0.60319444   -9.1788509    478.36869 0.0099486044 0.0084251573         3851 
 4008000   0.59110406   -9.1689003    478.46425 0.0099481091 0.0084216062         3862 
 4009000   0.61283045   -9.1882646    478.61586 0.0099487791 0.0084180549         3867 
 4010000   0.61416136   -9.1915565    478.52268 0.0099443616 0.0084145063         3865 
 4011000   0.59609989   -9.1855526    478.18338 0.0099348329 0.0084109639         3911 
 4012000   0.61692405   -9.1656731    478.43865 0.0099376589 0.0084074222         3860 
 4013000   0.61195047    -9.185644    478.53553 0.0099371944 0.0084038801         3875 
 4014000   0.60826627   -9.1877029    478.72158 0.0099385812 0.0084003389         3878 
 4015000   0.61091587   -9.1758204    478.05568 0.0099222848 0.0083967998         3860 
 4016000   0.61252253   -9.1911426    477.96008 0.0099178304 0.0083932633         3881 
 4017000   0.60789708   -9.1930557    477.94814 0.0099151137 0.0083897292         3870 
 4018000   0.59838805   -9.2060067    477.42964 0.0099018923 0.0083861943         3886 
 4019000   0.60118747   -9.1899861    478.40788 0.0099197122 0.0083826618         3867 
 4020000   0.59618943   -9.1793999    478.52765 0.0099197273 0.0083791362         3878 
 4021000   0.60786999    -9.175521    477.01456 0.0098859023 0.0083756074         3860 
 4022000   0.61239538   -9.2077979    477.70317  0.009897712 0.0083720825         3864 
 4023000   0.59429957   -9.1859713    478.42462  0.009910196 0.0083685599         3864 
 4024000   0.59928027   -9.1852139    478.13389 0.0099017124 0.0083650382         3856 
 4025000   0.60705625   -9.1875128    477.43365 0.0098847547 0.0083615162         3874 
 4026000   0.62122394   -9.2180538    477.27392 0.0098789933 0.0083580005         3890 
 4027000   0.59833839   -9.1769026    478.11016 0.0098938449  0.008354481         3892 
 4028000   0.61190507   -9.1900057    478.13942 0.0098919939 0.0083509681         3864 
 4029000   0.60479494   -9.1758367    478.95294 0.0099063651 0.0083474587         3864 
 4030000   0.61326149   -9.1948571    478.09881  0.009886245 0.0083439497         3851 
 4031000   0.60731831   -9.1900847    477.93021 0.0098803071 0.0083404428         3870 
 4032000   0.59357279   -9.1963036    478.08693 0.0098810956  0.008336941         3881 
 4033000   0.61257598   -9.1729776    478.15435 0.0098800387 0.0083334392         3890 
 4034000   0.60295822   -9.1831609    478.54766 0.0098857144 0.0083299406         3864 
 4035000   0.60075689   -9.1867058    478.48776 0.0098820274  0.008326442         3893 
 4036000   0.61935514   -9.2083471    478.15818 0.0098727737 0.0083229447         3883 
 4037000   0.59879519   -9.1814719    477.78994 0.0098627269 0.0083194499         3852 
 4038000   0.59672845   -9.1887897    478.16429 0.0098680099 0.0083159627         3880 
 4039000   0.59837912   -9.1840651    478.22224 0.0098667623 0.0083124694         3898 
 4040000   0.60143514   -9.1748611    478.29127 0.0098657439 0.0083089819         3843 
 4041000   0.61988789   -9.2009992    477.85849 0.0098543778 0.0083054928         3883 
 4042000    0.6190562    -9.207627     478.1047 0.0098570159 0.0083020056         3902 
 4043000   0.61095853     -9.20145    477.99869 0.0098523929 0.0082985213         3873 
 4044000   0.61352115   -9.1985939    478.56861 0.0098617006 0.0082950352         3884 
 4045000   0.60908053   -9.1624331    478.93918  0.009866897 0.0082915545         3860 
 4046000   0.58822131     -9.18958    478.25274 0.0098503201  0.008288078         3896 
 4047000   0.61756589   -9.1743901    478.17942 0.0098463762 0.0082846038         3883 
 4048000   0.61083703   -9.2180249    477.72823 0.0098346555 0.0082811299         3885 
 4049000   0.61021527   -9.1768057    478.26049 0.0098431813 0.0082776579         3892 
 4050000   0.60758266   -9.1984022    477.21725 0.0098192849  0.008274184         3859 
 4051000   0.60548267   -9.1829996    477.57751  0.009824272 0.0082707139         3881 
 4052000   0.59804044   -9.1925456    477.77376 0.0098258836 0.0082672444         3857 
 4053000   0.59197906   -9.1864363    477.71588  0.009822269 0.0082637771         3852 
 4054000    0.5996927   -9.1828169    477.25764 0.0098104268 0.0082603122         3856 
 4055000   0.59586627   -9.1955703    477.46472  0.009812263 0.0082568496         3858 
 4056000   0.60031686   -9.1799455    477.98252 0.0098204824 0.0082533905         3877 
 4057000   0.59955837   -9.1947859    477.44283 0.0098069763  0.008249932         3863 
 4058000    0.6072577   -9.2095889    478.65137 0.0098293776 0.0082464772         3884 
 4059000   0.59498934   -9.2235033    477.42432  0.009801764  0.008243024         3854 
 4060000   0.60675508   -9.1907715    478.02987  0.009811779 0.0082395717         3870 
 4061000   0.60254466   -9.1979668    478.20188 0.0098128926 0.0082361193         3844 
 4062000   0.61114255   -9.1842758    478.37371 0.0098140019 0.0082326705         3842 
 4063000   0.61439155     -9.20999    476.95384 0.0097824645 0.0082292267         3865 
 4064000   0.60003247   -9.1838476    478.05268 0.0098025894 0.0082257827         3882 
 4065000   0.61128262   -9.2009855     477.4996 0.0097888396 0.0082223377         3879 
 4066000   0.61450524   -9.2088314    477.22599 0.0097808245 0.0082188984         3873 
 4067000   0.61178438   -9.1961523    478.41525 0.0098027877 0.0082154622         3875 
 4068000   0.59570862   -9.1882225     478.0487 0.0097928692 0.0082120249         3886 
 4069000   0.59768668   -9.2071501    478.08649 0.0097912363  0.008208591         3872 
 4070000   0.60364424   -9.2047933    477.43787 0.0097755502  0.008205159         3879 
 4071000   0.62072479   -9.1866525     477.1686 0.0097676369 0.0082017298         3875 
 4072000   0.58985988   -9.2072211    477.33107 0.0097685632 0.0081983004         3894 
 4073000   0.60060004   -9.2085177    477.40948 0.0097677691 0.0081948714         3882 
 4074000    0.6003998    -9.209656    476.05985 0.0097377649 0.0081914446         3890 
 4075000   0.60598978   -9.2129068    477.82944 0.0097715633 0.0081880197         3902 
 4076000   0.58696973   -9.2048346    477.69653 0.0097664485 0.0081845986         3854 
 4077000   0.59144628   -9.1946753     477.6701 0.0097635128 0.0081811799         3891 
 4078000   0.59192676   -9.2141555    478.21383 0.0097722297 0.0081777655         3900 
 4079000   0.60886433   -9.1852688    478.71332 0.0097800383 0.0081743505         3873 
 4080000   0.58999527   -9.2014583    478.04303 0.0097639509 0.0081709359         3870 
 4081000   0.59673389   -9.2274132    477.49956 0.0097504606 0.0081675237         3853 
 4082000   0.58846055   -9.2146396    477.35353 0.0097450909 0.0081641091         3888 
 4083000   0.60668923   -9.2069898    477.42529 0.0097441688 0.0081607007         3893 
 4084000   0.59088117   -9.1964218    477.63027 0.0097459653 0.0081572936         3881 
 4085000   0.60277537   -9.2219494    478.38136 0.0097589016 0.0081538877         3859 
 4086000   0.58834349   -9.2061455    477.78577 0.0097443663 0.0081504817         3901 
 4087000    0.6005027   -9.2127915    477.42741 0.0097346753 0.0081470798         3855 
 4088000   0.61303655    -9.208052    477.34738 0.0097306624 0.0081436784         3880 
 4089000   0.60051621   -9.1979977     477.0854 0.0097229437 0.0081402778         3871 
 4090000   0.59404151   -9.1961869     477.3387 0.0097257274 0.0081368827         3884 
 4091000   0.59308258   -9.2222105    477.02675 0.0097169956 0.0081334901         3864 
 4092000   0.60599526   -9.2168757    477.59703 0.0097262347 0.0081300981         3884 
 4093000   0.59570442   -9.1869698    478.61439 0.0097445718 0.0081267068         3886 
 4094000   0.60408301   -9.2024263    477.43956 0.0097182779  0.008123319         3886 
 4095000   0.60270022   -9.2215402    477.50165 0.0097171683 0.0081199319         3875 
 4096000    0.6013766    -9.200479     478.2165 0.0097293396 0.0081165469         3892 
 4097000   0.58835818   -9.2140034    477.61971 0.0097148262 0.0081131626         3885 
 4098000    0.6055419   -9.2265305    477.93772 0.0097189223 0.0081097824         3887 
 4099000   0.60288158   -9.2129441    477.79603 0.0097136707  0.008106403         3881 
 4100000   0.59844734   -9.2300403    477.72519 0.0097098617 0.0081030257         3883 
 4101000   0.59996643   -9.1974831    477.57293 0.0097043999 0.0080996529         3867 
 4102000   0.59973912    -9.192449    477.94316 0.0097095555 0.0080962805         3887 
 4103000   0.59780977   -9.2080275    477.74524 0.0097031692 0.0080929095         3899 
 4104000   0.59964807   -9.1979207    477.40239 0.0096938433  0.008089542         3893 
 4105000   0.58759101    -9.201672    477.83588 0.0097002818 0.0080861733         3888 
 4106000   0.59407572   -9.1872783     478.9131  0.009719782 0.0080828092         3884 
 4107000   0.58382017   -9.2106808    477.52857 0.0096893225 0.0080794458         3899 
 4108000    0.5852288   -9.2020151    477.76719 0.0096918044 0.0080760836         3869 
 4109000   0.60706054   -9.2112967    477.44589 0.0096829295 0.0080727235         3873 
 4110000   0.59521035   -9.2292888    477.40277 0.0096796993 0.0080693642         3885 
 4111000   0.58617718   -9.2285087    476.88021 0.0096667521 0.0080660068         3884 
 4112000   0.60429208   -9.2247354    477.08106 0.0096684716 0.0080626519         3904 
 4113000   0.58032415   -9.2239551    477.15307 0.0096675798 0.0080592962         3888 
 4114000   0.60454759   -9.2071885    478.54569 0.0096934389 0.0080559465         3859 
 4115000   0.59919903   -9.2165233    477.55651 0.0096710512 0.0080525981         3874 
 4116000   0.58840567   -9.2127214    477.36039 0.0096647309 0.0080492524         3878 
 4117000   0.60197316   -9.2013616    477.47641 0.0096647318 0.0080459074         3890 
 4118000   0.58898797   -9.2050827    477.53831 0.0096636374 0.0080425637         3846 
 4119000    0.5848883   -9.2060669    477.64303   0.00966341 0.0080392234         3901 
 4120000   0.58011655    -9.203743    477.89769 0.0096662155 0.0080358835         3872 
 4121000   0.59441916   -9.2170852    477.29431 0.0096516686 0.0080325445         3874 
 4122000   0.60049099   -9.2178851     477.0405 0.0096441958 0.0080292077         3872 
 4123000   0.61115918   -9.2142131    477.17908 0.0096446577 0.0080258746         3886 
 4124000   0.59734292   -9.2130536    477.82503 0.0096553715 0.0080225441         3874 
 4125000    0.5962985   -9.2069676    477.78838 0.0096522906 0.0080192143         3867 
 4126000   0.59268344    -9.202364    478.99681 0.0096743579 0.0080158877         3880 
 4127000   0.57979116   -9.1924438     477.6508 0.0096448347 0.0080125621         3857 
 4128000   0.58686476   -9.2179305    476.87325 0.0096268017 0.0080092353         3844 
 4129000   0.58861387   -9.2225959    477.28514 0.0096327832 0.0080059138         3890 
 4130000   0.58946891   -9.1970243    477.19093 0.0096285498 0.0080025912         3891 
 4131000   0.58578327   -9.2159999    477.29517 0.0096283218   0.00799927         3889 
 4132000   0.58550533   -9.2112323    476.94141  0.009618857  0.007995953         3883 
 4133000   0.59100044   -9.2289554    477.70241 0.0096318738  0.007992638         3868 
 4134000   0.58597911   -9.2118213    478.14219 0.0096384089 0.0079893267         3868 
 4135000   0.57728472   -9.2200339    477.78156 0.0096288103 0.0079860144         3876 
 4136000   0.58137538   -9.2048658    476.89679 0.0096086555 0.0079827049         3907 
 4137000   0.58758502   -9.2232779    476.94531 0.0096073102 0.0079793957         3912 
 4138000   0.60927723   -9.2119011    477.09596 0.0096080224 0.0079760884         3874 
 4139000   0.59193699   -9.2142995    476.98559  0.009603479 0.0079727836         3901 
 4140000   0.60191215   -9.2147208    477.37138 0.0096089248 0.0079694798         3882 
 4141000   0.58083286   -9.2087149    477.93449 0.0096179363 0.0079661805         3893 
 4142000   0.58125443   -9.1997932    477.90581 0.0096150372 0.0079628804         3910 
 4143000   0.58505101   -9.2046507    478.15601 0.0096177491 0.0079595813         3894 
 4144000    0.5908896   -9.2262577    477.84469 0.0096091677 0.0079562849         3894 
 4145000   0.59236258   -9.2070803     478.2942 0.0096158866 0.0079529915         3890 
 4146000   0.58985372   -9.2138169    477.61694 0.0095999546 0.0079497007         3899 
 4147000   0.57459605   -9.2190993     477.5338 0.0095959689 0.0079464085         3860 
 4148000   0.59065146   -9.2208947    477.56208 0.0095942237 0.0079431212         3890 
 4149000   0.59021725   -9.2017096    477.65759 0.0095938297  0.007939836         3881 
 4150000   0.58250608   -9.2290162    477.81596 0.0095946981 0.0079365515         3878 
 4151000   0.58420777    -9.226619    476.86806 0.0095733569 0.0079332689         3885 
 4152000   0.59055965   -9.2388256     477.6562 0.0095868698  0.007929987         3872 
 4153000   0.58658173   -9.2242689    477.10169 0.0095734346  0.007926708         3871 
 4154000   0.59131769   -9.2060825    477.53799 0.0095798826 0.0079234313         3875 
 4155000   0.58510388   -9.2264013    477.75698 0.0095819692 0.0079201555         3910 
 4156000   0.60182489   -9.1990228    477.27862 0.0095700717 0.0079168833         3884 
 4157000   0.57966462   -9.2194082    477.40856 0.0095703744 0.0079136113         3889 
 4158000   0.58067034   -9.2096341    477.31865 0.0095662709 0.0079103382         3898 
 4159000    0.5758362   -9.2144196    477.49163 0.0095674366 0.0079070705         3889 
 4160000   0.58998338    -9.230289    477.24394 0.0095601752 0.0079038027         3893 
 4161000    0.5834307   -9.1990265    476.69351  0.009546854 0.0079005409         3885 
 4162000   0.57608803     -9.22219    476.92179 0.0095491309 0.0078972771         3862 
 4163000   0.58278459   -9.2372225    477.55892 0.0095595909  0.007894016         3872 
 4164000   0.58143837   -9.2339616    477.28277 0.0095517685 0.0078907573         3900 
 4165000   0.58953531   -9.2462515     476.7313 0.0095384414 0.0078874961         3862 
 4166000   0.57731255   -9.2187974    476.43545 0.0095302337   0.00788424         3884 
 4167000   0.58848416   -9.2306154    477.58032 0.0095508423  0.007880986         3866 
 4168000   0.57350402   -9.2191848     477.0428 0.0095378039 0.0078777359         3883 
 4169000   0.59177907   -9.2355151    477.27621 0.0095401816 0.0078744835         3887 
 4170000   0.58889789   -9.2230327    477.17722 0.0095359156 0.0078712341         3883 
 4171000   0.58464692   -9.2244953    477.05854 0.0095312582 0.0078679869         3855 
 4172000    0.5893389   -9.2283178    477.44431 0.0095366792 0.0078647415         3898 
 4173000   0.58408948   -9.2337442    476.92249 0.0095239734  0.007861497         3901 
 4174000    0.6034781   -9.2256603    477.43758 0.0095319754 0.0078582546         3890 
 4175000   0.58531016   -9.1973444    477.12375 0.0095234281 0.0078550154         3868 
 4176000   0.57941268   -9.2332218    476.77861 0.0095142603  0.007851779         3867 
 4177000   0.59479886   -9.2240704    478.13765  0.009539096 0.0078485434         3867 
 4178000   0.58185346   -9.2227371    477.27199 0.0095195466 0.0078453089         3888 
 4179000    0.5902848   -9.2440493    476.26868 0.0094972618  0.007842077         3872 
 4180000   0.59419354   -9.2328758    476.86727 0.0095069233 0.0078388461         3871 
 4181000   0.58401207      -9.2117    477.06897 0.0095086696 0.0078356154         3874 
 4182000    0.5928367   -9.2342278    477.28809 0.0095107623 0.0078323856         3880 
 4183000   0.58619015   -9.2299391    478.09363 0.0095245364 0.0078291599         3871 
 4184000   0.57281878   -9.2447429    477.23024 0.0095050638  0.007825933         3872 
 4185000   0.58528471   -9.2230925    477.68178 0.0095117838 0.0078227107         3897 
 4186000   0.57398887   -9.2292345    476.76958 0.0094913516 0.0078194881         3887 
 4187000   0.56359128   -9.2362499    476.72471 0.0094881917 0.0078162681         3868 
 4188000   0.58253916   -9.2218768    476.77606 0.0094869481 0.0078130508         3885 
 4189000   0.57681213   -9.2410712    476.72408 0.0094836493 0.0078098338         3895 
 4190000   0.58573975   -9.2209531    477.98825 0.0095065285 0.0078066183         3865 
 4191000   0.58246004    -9.242741    476.04217 0.0094655646 0.0078034064         3879 
 4192000   0.58693337    -9.247179    476.39268 0.0094702744 0.0078001935         3881 
 4193000   0.59777748   -9.2327076    476.49601 0.0094700694 0.0077969874         3856 
 4194000   0.59627378   -9.2287805    476.81392 0.0094741282 0.0077937788         3880 
 4195000   0.58145642   -9.2377302    477.46721 0.0094848472  0.007790574         3871 
 4196000   0.57718042   -9.2241603    477.23383 0.0094779518  0.007787371         3898 
 4197000   0.58463356   -9.2358413    476.65331  0.009464167 0.0077841716         3866 
 4198000   0.57377487   -9.2295672    477.17945 0.0094723568 0.0077809732         3838 
 4199000   0.58189686   -9.2219726    476.95689 0.0094656841 0.0077777756         3895 
 4200000   0.57447063   -9.2331769    477.48307 0.0094738705 0.0077745802         3892 
 4201000   0.57465732    -9.237271     477.6202 0.0094743355 0.0077713872         3891 
 4202000   0.57446378    -9.236811    476.75652 0.0094549525 0.0077681957         3911 
 4203000   0.58483945    -9.230417    476.60332 0.0094496654 0.0077650069         3883 
 4204000   0.58408851   -9.2273564     477.1208 0.0094576753 0.0077618171         3889 
 4205000   0.58528765   -9.2474095    476.41547 0.0094414481 0.0077586292         3907 
 4206000   0.56797404   -9.2300401    476.08722 0.0094326998 0.0077554445         3895 
 4207000   0.57955047   -9.2331262    477.54618 0.0094593571 0.0077522598         3887 
 4208000   0.57208932   -9.2342664    476.81787 0.0094426859 0.0077490783         3878 
 4209000   0.56982366    -9.241759    477.06198 0.0094452756 0.0077458998         3883 
 4210000   0.56733251   -9.2162096    476.91764 0.0094401749  0.007742722         3889 
 4211000   0.58020224   -9.2127901    476.36734 0.0094270431 0.0077395436         3902 
 4212000   0.56888665   -9.2303963    476.37307 0.0094249183 0.0077363695         3888 
 4213000   0.57990169   -9.2405617    476.86102 0.0094323329 0.0077331969         3904 
 4214000   0.58506198   -9.2277737    477.23213 0.0094374333 0.0077300267         3896 
 4215000   0.58097682    -9.225729    476.45662 0.0094198619 0.0077268622         3892 
 4216000   0.58139761   -9.2386869    477.30492 0.0094343952  0.007723696         3886 
 4217000    0.5884457   -9.2573295    477.43437 0.0094347161 0.0077205338         3885 
 4218000   0.57734119   -9.2456188    476.95249  0.009422959 0.0077173703         3915 
 4219000   0.57737577   -9.2464191    476.72504 0.0094162329 0.0077142075         3891 
 4220000   0.58359743   -9.2382249    477.26075 0.0094245803 0.0077110471         3877 
 4221000   0.56654795   -9.2219518    476.76027 0.0094124668 0.0077078889         3871 
 4222000   0.57321752   -9.2464162    477.31115 0.0094211107 0.0077047318         3902 
 4223000   0.57894207   -9.2581059    476.95486 0.0094118491  0.007701577         3876 
 4224000   0.58348316   -9.2196058    478.04803 0.0094311874 0.0076984261         3885 
 4225000   0.58655191   -9.2415988    476.62826 0.0094009519 0.0076952783         3877 
 4226000   0.56495237   -9.2381742     477.9171 0.0094241422 0.0076921277         3889 
 4227000   0.58541457   -9.2341792    476.16871  0.009387444 0.0076889803         3896 
 4228000    0.5662105   -9.2481613    476.16253 0.0093851018 0.0076858341         3889 
 4229000   0.57261599   -9.2401388    476.34304 0.0093864397 0.0076826877         3901 
 4230000   0.57561941   -9.2266099    476.92125 0.0093956116 0.0076795417         3884 
 4231000   0.58996954   -9.2545488    477.02652 0.0093954645 0.0076764024         3870 
 4232000   0.57611728   -9.2394712    477.26089 0.0093978594 0.0076732623         3881 
 4233000   0.58465581   -9.2257266    476.00783 0.0093709708 0.0076701223         3885 
 4234000   0.58307965   -9.2351428    477.00318 0.0093883478  0.007666987         3870 
 4235000   0.55910501   -9.2430061     476.9157 0.0093844098 0.0076638536         3862 
 4236000   0.56184537    -9.258467    476.60607 0.0093761031 0.0076607207         3891 
 4237000   0.56820544    -9.239373    477.28879 0.0093873179 0.0076575884         3883 
 4238000    0.5764809   -9.2417698    476.96821 0.0093787992 0.0076544582         3907 
 4239000   0.58258767   -9.2481541    476.63591 0.0093700541 0.0076513303         3914 
 4240000   0.57916995   -9.2392749    476.38022 0.0093628187  0.007648204         3899 
 4241000   0.57119577   -9.2388031    475.79499 0.0093491117 0.0076450805         3915 
 4242000     0.583066   -9.2500046    477.04776 0.0093715181 0.0076419571         3861 
 4243000   0.57036478   -9.2252172    477.40656 0.0093763563 0.0076388391         3867 
 4244000   0.58364756   -9.2371171    477.13067 0.0093687298 0.0076357232         3874 
 4245000   0.56770632   -9.2258931    476.73212 0.0093586989 0.0076326093         3894 
 4246000     0.580054   -9.2458286    476.88427 0.0093594808 0.0076294987         3905 
 4247000   0.57130754   -9.2408449     476.4561 0.0093488757 0.0076263859         3891 
 4248000   0.57230011   -9.2420842    476.54171 0.0093483544 0.0076232751         3873 
 4249000   0.57252104   -9.2608068    476.06655 0.0093368351 0.0076201655         3879 
 4250000   0.57148224   -9.2306132    477.95592 0.0093716846  0.007617058         3877 
 4251000   0.56811871   -9.2401274    476.32966 0.0093376001 0.0076139519         3888 
 4252000   0.56863077   -9.2361875    476.50018 0.0093387461 0.0076108439         3903 
 4253000   0.57497053   -9.2330434    475.96085 0.0093259827 0.0076077383         3892 
 4254000   0.57191834   -9.2146389    476.79002 0.0093400333 0.0076046362         3884 
 4255000   0.57285953   -9.2479068    476.46824 0.0093315362 0.0076015379         3877 
 4256000   0.56751557   -9.2586108    476.71727 0.0093342196 0.0075984382         3869 
 4257000   0.56712712   -9.2318693    476.98658 0.0093372989 0.0075953422         3906 
 4258000   0.56506281   -9.2645655    476.17103 0.0093191449  0.007592249         3882 
 4259000   0.57014249   -9.2473006    475.89726 0.0093116001 0.0075891542         3898 
 4260000    0.5756868   -9.2499729    476.28987 0.0093170945 0.0075860656         3907 
 4261000   0.56876049   -9.2463778    476.96478 0.0093281072 0.0075829759         3892 
 4262000   0.57325236   -9.2387654     476.7838   0.00932238 0.0075798854         3889 
 4263000   0.58625219   -9.2646709    476.11799 0.0093071779 0.0075767981         3871 
 4264000    0.5601967   -9.2499995    476.97959 0.0093218338  0.007573715         3901 
 4265000   0.57745505   -9.2414667    477.09387  0.009321881  0.007570634         3883 
 4266000   0.56930669   -9.2406781    476.27065 0.0093036147 0.0075675535         3896 
 4267000   0.57146783   -9.2403326    476.01967 0.0092965329 0.0075644731         3872 
 4268000   0.58410889   -9.2474354    477.06708 0.0093148056 0.0075613954         3888 
 4269000   0.56691355   -9.2495663    476.28759 0.0092974074   0.00755832         3906 
 4270000   0.56860707   -9.2481443    476.07233 0.0092910291 0.0075552452         3899 
 4271000    0.5685964   -9.2576979     477.0804 0.0093085226  0.007552173         3896 
 4272000   0.57271266    -9.243193    476.82208 0.0093013045  0.007549102         3912 
 4273000   0.57159537   -9.2410939    476.84093 0.0092994956 0.0075460313         3882 
 4274000   0.57018937   -9.2448325    477.43421 0.0093088873 0.0075429637         3915 
 4275000   0.56266961   -9.2485513    476.43933 0.0092873163 0.0075398979         3917 
 4276000   0.57048674   -9.2600159    476.45245    0.0092854 0.0075368364         3881 
 4277000   0.57458048   -9.2574119    476.55453 0.0092852181 0.0075337732         3891 
 4278000   0.56878626   -9.2546971    475.19379 0.0092565409 0.0075307118         3877 
 4279000    0.5646769   -9.2675214    476.91409 0.0092878806 0.0075276504         3905 
 4280000   0.57370751   -9.2425756    477.63988 0.0092998419 0.0075245938         3891 
 4281000    0.5643556   -9.2550187     476.5264 0.0092759946 0.0075215381         3911 
 4282000   0.56844907   -9.2499143     476.2446 0.0092683442  0.007518483         3914 
 4283000   0.56738901    -9.271539    475.60609 0.0092537569 0.0075154283         3900 
 4284000   0.56057164    -9.250464    477.07199 0.0092801118 0.0075123747         3888 
 4285000    0.5613984   -9.2733559    476.73121 0.0092713188 0.0075093267         3900 
 4286000    0.5672445   -9.2548336     476.4117 0.0092629433 0.0075062774         3903 
 4287000   0.57237643   -9.2596237    476.55273 0.0092635241 0.0075032306         3909 
 4288000   0.57237957   -9.2591331    476.45777 0.0092595183  0.007500182         3906 
 4289000   0.55683544   -9.2533495    476.06729 0.0092497725 0.0074971399         3903 
 4290000   0.56855074   -9.2598533    476.27321 0.0092516163 0.0074940964         3911 
 4291000   0.56387966   -9.2661382    476.98986  0.009263378 0.0074910578         3896 
 4292000   0.57082227   -9.2674718    476.61702 0.0092539807 0.0074880215         3908 
 4293000   0.57419948   -9.2510695    476.00192  0.009239885 0.0074849831         3901 
 4294000    0.5706166    -9.248636    476.60604 0.0092494575 0.0074819466         3888 
 4295000    0.5701484   -9.2531974    476.13977  0.009238257 0.0074789124         3910 
 4296000   0.57591305   -9.2563867    476.12229 0.0092357676 0.0074758816         3918 
 4297000   0.57270672    -9.256705    475.92594 0.0092298103 0.0074728482         3904 
 4298000   0.55418586    -9.271914     476.6197 0.0092411141 0.0074698187         3902 
 4299000   0.56679052   -9.2614654     475.9767 0.0092265004 0.0074667911         3896 
 4300000   0.54484082   -9.2761512    476.53403 0.0092351556 0.0074637662         3898 
 4301000   0.55504586   -9.2509407    476.86212 0.0092393653  0.007460741         3910 
 4302000   0.56672285   -9.2619298    476.92902 0.0092385136 0.0074577178         3903 
 4303000   0.57246218   -9.2564195    476.42818 0.0092266671 0.0074546951         3897 
 4304000    0.5596299   -9.2578416    476.34684 0.0092229483  0.007451676         3896 
 4305000   0.57050219   -9.2486969    477.03612 0.0092341487  0.007448659         3894 
 4306000   0.56099013   -9.2749337    476.22802 0.0092163652 0.0074456438         3918 
 4307000   0.55879321   -9.2481787    476.58253 0.0092210845 0.0074426283         3877 
 4308000   0.57056475   -9.2633186    476.35172 0.0092144793 0.0074396151         3910 
 4309000    0.5686566   -9.2462964    476.16177 0.0092086673 0.0074366061         3900 
 4310000   0.55701205     -9.25434    476.56737 0.0092143729 0.0074335967         3891 
 4311000   0.56067876   -9.2646913    476.80303 0.0092167909 0.0074305884         3894 
 4312000   0.56122378   -9.2520637    476.22879 0.0092035557 0.0074275827         3899 
 4313000   0.58019611   -9.2540876    476.34246 0.0092036182 0.0074245759         3904 
 4314000   0.55429685   -9.2730734    476.22557 0.0091992268 0.0074215733         3922 
 4315000   0.57085977   -9.2467651    476.55163 0.0092033918 0.0074185722         3879 
 4316000   0.56051866    -9.275682     476.1667 0.0091938272 0.0074155704         3904 
 4317000    0.5653126   -9.2708479    475.99766 0.0091884344 0.0074125732         3891 
 4318000   0.57125595   -9.2367943    476.98435 0.0092053488  0.007409576         3893 
 4319000   0.56626109   -9.2606914    476.05664 0.0091853175 0.0074065801         3897 
 4320000   0.56355799   -9.2570986    476.57848 0.0091932578  0.007403587         3905 
 4321000   0.57017432   -9.2633531    477.45792 0.0092080907  0.007400597         3904 
 4322000      0.57352   -9.2501087    477.08004 0.0091986743 0.0073976069         3904 
 4323000   0.55299003   -9.2938246    475.59925 0.0091680017 0.0073946197         3907 
 4324000    0.5714579   -9.2699726    476.38001 0.0091809283 0.0073916317         3899 
 4325000   0.55417508   -9.2557612    476.27557 0.0091767933 0.0073886442         3906 
 4326000   0.56003342   -9.2506024    477.19824 0.0091924457 0.0073856602         3890 
 4327000   0.55357868   -9.2460249    476.72132 0.0091811363 0.0073826767         3926 
 4328000   0.55777352   -9.2594401    476.96327 0.0091836736 0.0073796938         3919 
 4329000   0.56476816   -9.2459683    476.17672 0.0091664111 0.0073767158         3892 
 4330000   0.54814854   -9.2487435    476.52053 0.0091709109  0.007373737         3884 
 4331000   0.56030358   -9.2644486    476.66484 0.0091715701 0.0073707612         3880 
 4332000   0.56272964   -9.2685546    475.78246 0.0091524788 0.0073677887         3898 
 4333000   0.56596505   -9.2653805    476.22774 0.0091589304 0.0073648163         3888 
 4334000   0.54460813   -9.2580047    476.00299 0.0091524955 0.0073618433         3918 
 4335000   0.54534874   -9.2753667    476.43763 0.0091587396 0.0073588751         3894 
 4336000   0.55588199    -9.266985    475.97811 0.0091477958 0.0073559084         3903 
 4337000   0.56210348   -9.2526251    476.53223 0.0091563337 0.0073529425         3875 
 4338000   0.55201366   -9.2495049    477.00001  0.009163209 0.0073499787         3899 
 4339000    0.5590687   -9.2796889    476.29058 0.0091474722 0.0073470166         3916 
 4340000   0.55355256   -9.2735892     475.9647 0.0091391072 0.0073440564         3896 
 4341000   0.55884262   -9.2570001    476.55304  0.009148296 0.0073410958         3885 
 4342000   0.55934552   -9.2673777    476.77715 0.0091504904 0.0073381363         3893 
 4343000   0.56873195   -9.2661671    476.53079 0.0091436562   0.00733518         3928 
 4344000   0.55519666   -9.2655719    475.99789 0.0091313285 0.0073322254         3896 
 4345000   0.55343559   -9.2788514    476.24787 0.0091340212 0.0073292733         3882 
 4346000   0.56067498   -9.2547741    475.85001 0.0091242906 0.0073263217         3902 
 4347000   0.55177918   -9.2852159    476.41171 0.0091329597 0.0073233726         3885 
 4348000     0.547863   -9.2565029    476.13083 0.0091254758 0.0073204228         3899 
 4349000   0.54863985   -9.2788654    477.03117 0.0091406295 0.0073174766         3876 
 4350000   0.54793466   -9.2679752    475.67906 0.0091126256 0.0073145308         3875 
 4351000   0.55376383   -9.2777611     476.0301 0.0091172547 0.0073115867         3903 
 4352000   0.55929101   -9.2615489    476.47709 0.0091237188 0.0073086452         3882 
 4353000   0.55574123   -9.2757978    476.35748  0.009119333 0.0073057049         3893 
 4354000   0.55829559    -9.263883    476.46328 0.0091192635  0.007302766         3866 
 4355000   0.55271825   -9.2838869    476.13583 0.0091109037 0.0072998284         3890 
 4356000   0.55408466   -9.2721644    476.12584  0.009108621  0.007296893         3878 
 4357000   0.56989185   -9.2798883    476.56561 0.0091149417 0.0072939581         3891 
 4358000   0.54824738   -9.2723373    475.96936 0.0091014487 0.0072910222         3897 
 4359000   0.56260733   -9.2644034    476.29073 0.0091055044 0.0072880895         3893 
 4360000   0.56208753   -9.2712935    475.77762  0.009093609 0.0072851586         3919 
 4361000    0.5578018   -9.2649495    475.54834 0.0090871426 0.0072822282         3871 
 4362000   0.55868598   -9.2692202    476.02178 0.0090941041  0.007279301         3901 
 4363000   0.55954944   -9.2729618    476.43294 0.0090998729  0.007276374         3882 
 4364000   0.56085132   -9.2743197    475.40125 0.0090780869 0.0072734501         3901 
 4365000   0.55868013   -9.2701885    475.68511 0.0090814262 0.0072705246         3911 
 4366000   0.56488049   -9.2698973    476.00757 0.0090855011 0.0072675999         3899 
 4367000   0.54506876   -9.2681216    475.97076 0.0090827181 0.0072646802         3875 
 4368000   0.55485149   -9.2660476     476.0828 0.0090827762 0.0072617612         3869 
 4369000    0.5479376   -9.2569345    475.38194 0.0090673292 0.0072588459         3860 
 4370000   0.57242899   -9.2828239    476.10973 0.0090791329 0.0072559293         3895 
 4371000   0.54049216   -9.2824136    475.71837 0.0090695946 0.0072530144         3877 
 4372000   0.55163451   -9.2685136    475.94286 0.0090717989  0.007250102         3888 
 4373000   0.56962958   -9.2739566    476.28106 0.0090761692 0.0072471923         3907 
 4374000   0.55569439   -9.2711933    477.08811 0.0090894702 0.0072442852         3886 
 4375000   0.55246911    -9.261901    476.02809 0.0090672016 0.0072413765         3900 
 4376000     0.560271   -9.2806488    475.36135 0.0090524328 0.0072384684         3896 
 4377000   0.54544377    -9.275559    475.71302 0.0090570599 0.0072355642         3894 
 4378000   0.55198992   -9.2639748    475.99512  0.009060361  0.007232662         3868 
 4379000   0.54869626   -9.2756953      475.876  0.009056025 0.0072297597         3872 
 4380000   0.54701087   -9.2625442    475.79046 0.0090523299   0.00722686         3869 
 4381000   0.55368739    -9.298278    475.03414 0.0090358772 0.0072239632         3911 
 4382000   0.55130673   -9.2857148    475.94453 0.0090511284 0.0072210667         3910 
 4383000   0.54183909   -9.2841798    475.60286 0.0090425672 0.0072181708         3877 
 4384000   0.56098933   -9.2785218     476.5558 0.0090586184 0.0072152755         3860 
 4385000   0.55455841   -9.2653346    476.35321 0.0090527025 0.0072123833         3876 
 4386000   0.54015586   -9.2808869    475.87952 0.0090416385 0.0072094925         3912 
 4387000   0.54570166   -9.2698566    476.07208 0.0090432353 0.0072066043         3911 
 4388000   0.53888337   -9.3017225    474.85915 0.0090181395 0.0072037161         3895 
 4389000   0.54186898   -9.2698962    476.24551 0.0090424074 0.0072008296         3898 
 4390000   0.54905673   -9.2462086    475.67117 0.0090294451  0.007197946         3899 
 4391000   0.55582309    -9.269942      476.143 0.0090363433  0.007195063         3890 
 4392000   0.55399246   -9.2818888    476.38163 0.0090388135 0.0071921825         3893 
 4393000   0.55428878   -9.2884421    475.91422 0.0090278894 0.0071893058         3920 
 4394000   0.55046658   -9.2902911    475.73521 0.0090224399 0.0071864277         3903 
 4395000   0.53817841   -9.3056698    475.91354 0.0090237684 0.0071835521         3889 
 4396000   0.54551044   -9.2839174    475.46037 0.0090131251 0.0071806773         3873 
 4397000   0.55209776   -9.2914209    475.02256 0.0090027776 0.0071778041         3906 
 4398000   0.55152964   -9.2759339    475.81197 0.0090156883   0.00717493         3877 
 4399000   0.53736575   -9.2845429    475.57294 0.0090091107 0.0071720579         3892 
 4400000   0.55328075   -9.2930137    476.10139 0.0090170717  0.007169189         3865 
 4401000   0.54456594   -9.2693358     475.6138 0.0090057903 0.0071663222         3892 
 4402000   0.54507334   -9.2823693    475.57366 0.0090029846 0.0071634553         3864 
 4403000   0.53798519   -9.2813824    475.89437 0.0090070098 0.0071605919         3883 
 4404000   0.55410887   -9.2866978    475.70881 0.0090014534 0.0071577278         3901 
 4405000   0.54203802    -9.280481    475.29074 0.0089915009 0.0071548668         3878 
 4406000   0.55622174   -9.2788396    475.75762 0.0089982906  0.007152008         3882 
 4407000   0.54767284   -9.2911615    475.56755 0.0089926547 0.0071491516         3912 
 4408000   0.55049175   -9.2936572    475.25153 0.0089846402  0.007146295         3898 
 4409000   0.55118444    -9.286599    475.81007 0.0089931592 0.0071434403         3910 
 4410000   0.55084413   -9.2848188    475.93265 0.0089934363 0.0071405844         3929 
 4411000   0.55154704   -9.2861291    475.43552 0.0089820056 0.0071377313         3909 
 4412000   0.55297504   -9.2865853     475.9481 0.0089896513 0.0071348817         3909 
 4413000   0.54704163   -9.2990007    475.54605 0.0089800221 0.0071320316         3902 
 4414000   0.54568099   -9.2899677    475.82038 0.0089831668 0.0071291833         3911 
 4415000   0.54683338   -9.2837975    475.17436 0.0089689385 0.0071263358         3895 
 4416000   0.55278854   -9.2986532    475.31392 0.0089695411 0.0071234923         3916 
 4417000   0.53645017   -9.3116899    475.61345 0.0089731614 0.0071206482         3915 
 4418000   0.54273982   -9.2816717    475.84384 0.0089754762 0.0071178056         3890 
 4419000   0.54384922    -9.280872    475.77672 0.0089721793 0.0071149648         3896 
 4420000   0.53928232   -9.2847761     476.0186 0.0089747097 0.0071121266         3891 
 4421000   0.53793132   -9.3002818    475.40513  0.008961116 0.0071092891         3903 
 4422000   0.53168849   -9.2801658    474.86042 0.0089488244 0.0071064526         3896 
 4423000   0.53859647    -9.299107    475.47663 0.0089584111 0.0071036195         3895 
 4424000   0.53581555   -9.2869558    475.30131 0.0089530838  0.007100786         3880 
 4425000   0.52884145    -9.290184    475.45923 0.0089540345 0.0070979537         3890 
 4426000   0.53854502    -9.296758    475.93882 0.0089610412 0.0070951236         3899 
 4427000   0.54588736   -9.3076867      475.849 0.0089573263 0.0070922977         3901 
 4428000   0.55309649   -9.2976642    475.84877  0.008955299 0.0070894703         3907 
 4429000   0.54725522   -9.2881841    475.02079 0.0089376982 0.0070866431         3893 
 4430000   0.53808184   -9.3016201    475.35064 0.0089418856 0.0070838188         3905 
 4431000   0.55427762   -9.3049378    475.15491 0.0089361865 0.0070809963         3897 
 4432000   0.54184162   -9.2872168    474.75087 0.0089265732 0.0070781775         3911 
 4433000   0.56034504   -9.2911283    475.46683 0.0089380185 0.0070753585         3898 
 4434000   0.54567218   -9.2835615    475.68826 0.0089401642 0.0070725405         3913 
 4435000   0.54194839   -9.2927848    475.43722 0.0089334313  0.007069722         3894 
 4436000   0.55273062   -9.2961821    475.07913 0.0089246906 0.0070669052         3911 
 4437000   0.54318161   -9.3035343    475.17565  0.008924492 0.0070640907         3897 
 4438000   0.53927912   -9.2740584    476.21923 0.0089420765 0.0070612813         3909 
 4439000   0.53563067   -9.2907613    475.19236 0.0089207847 0.0070584713         3875 
 4440000   0.53357511   -9.2754738    475.41973  0.008923043 0.0070556635         3865 
 4441000   0.54102958   -9.2967696    475.80329 0.0089282311 0.0070528546         3852 
 4442000   0.53693572   -9.2906548    475.66717 0.0089236674 0.0070500484         3897 
 4443000   0.53897444   -9.2944481    474.99581 0.0089090669 0.0070472445         3901 
 4444000   0.54842211   -9.2968852    475.30589 0.0089128766 0.0070444413         3882 
 4445000   0.53084956   -9.2971044    475.14868 0.0089079242 0.0070416399         3891 
 4446000   0.52896957   -9.3217629    475.99582 0.0089217989  0.007038839         3894 
 4447000   0.54080078   -9.2872999    475.25933 0.0089059915 0.0070360385         3895 
 4448000   0.54031106   -9.3031289    475.43752 0.0089073276 0.0070332422         3904 
 4449000   0.53421204   -9.2846758    474.82366 0.0088938274 0.0070304476         3915 
 4450000   0.54690351   -9.2861333    474.99252  0.008894991 0.0070276545         3924 
 4451000   0.53912778   -9.3005447    475.24915 0.0088977974 0.0070248618         3904 
 4452000   0.54149545   -9.2839181      475.289 0.0088965446  0.007022071         3913 
 4453000   0.53736586   -9.2955106    475.26393 0.0088940776 0.0070192818         3876 
 4454000   0.53946655   -9.2913106    475.07131 0.0088884768 0.0070164949         3890 
 4455000   0.53797103   -9.2849187    475.55886 0.0088956016 0.0070137098         3893 
 4456000   0.54345645   -9.2956338    475.61613 0.0088946762 0.0070109259         3909 
 4457000   0.54757781    -9.291821    475.10194 0.0088830668 0.0070081423         3904 
 4458000   0.54175911   -9.2825954    475.09103 0.0088808702 0.0070053586         3913 
 4459000   0.54613614    -9.277778    475.74732 0.0088911437 0.0070025788         3914 
 4460000   0.53694109   -9.2972872    475.79487 0.0088900386    0.0069998         3895 
 4461000    0.5392038     -9.30507    475.54641 0.0088834045 0.0069970218         3890 
 4462000   0.54136911   -9.2922609    476.25662 0.0088946777 0.0069942455         3886 
 4463000   0.52561555   -9.2937983    475.35801 0.0088759058  0.006991469         3911 
 4464000    0.5228509   -9.3119248    474.98804  0.008867011 0.0069886933         3893 
 4465000   0.53230963   -9.3004953    475.18919 0.0088687791 0.0069859223         3902 
 4466000   0.53723308   -9.2966436    474.97899 0.0088628712 0.0069831522         3916 
 4467000   0.53454236   -9.3025835    475.32389 0.0088673213  0.006980383         3889 
 4468000   0.53680343   -9.2898798    475.54139 0.0088693933  0.006977616         3890 
 4469000   0.54152224   -9.2875941    475.75021 0.0088713024 0.0069748512         3885 
 4470000    0.5302127   -9.3052335    475.37272 0.0088622805 0.0069720911         3908 
 4471000   0.53525852     -9.30282    474.88669 0.0088512393 0.0069693285         3897 
 4472000   0.52706107   -9.3052606    474.87671 0.0088490741  0.006966566         3908 
 4473000   0.52680614   -9.3111133    475.47221 0.0088581901 0.0069638057         3910 
 4474000   0.53453247   -9.3050403    475.70797 0.0088606014 0.0069610492         3899 
 4475000   0.54552185   -9.3026232    475.25418  0.008850171 0.0069582912         3887 
 4476000   0.53220487   -9.3143258    475.06795 0.0088447265 0.0069555349         3918 
 4477000   0.53493519   -9.2910431    475.25354 0.0088462055 0.0069527822         3886 
 4478000   0.54227809   -9.3035106    476.01118 0.0088583293 0.0069500291         3896 
 4479000   0.53340132   -9.3024176    475.77409 0.0088519404 0.0069472803         3890 
 4480000   0.53780018   -9.3260842    474.90469 0.0088337926 0.0069445306         3920 
 4481000   0.53288343   -9.2948899    475.15193 0.0088364191 0.0069417816         3896 
 4482000   0.53854174   -9.2967756    475.61844 0.0088431214 0.0069390351         3899 
 4483000   0.54264104   -9.3023148    475.03773 0.0088303541 0.0069362888         3909 
 4484000    0.5371625   -9.3087459    475.02984 0.0088282381 0.0069335455         3922 
 4485000   0.53388452   -9.3177704    475.51493  0.008835283  0.006930805         3910 
 4486000   0.52542098   -9.3087634    475.02172 0.0088241515 0.0069280639         3911 
 4487000   0.53789933   -9.3031107    475.11617  0.008823939 0.0069253223         3907 
 4488000   0.54232965   -9.2941586    475.50723  0.008829234 0.0069225842         3892 
 4489000   0.53048021   -9.3265949    475.17687 0.0088211345 0.0069198457         3907 
 4490000    0.5258345    -9.315753      474.732 0.0088109131 0.0069171112         3923 
 4491000   0.53542829    -9.305454    474.86068 0.0088113389 0.0069143763         3904 
 4492000   0.53419744   -9.3106998    474.75939 0.0088074983  0.006911644         3889 
 4493000   0.53613878   -9.3044851    475.57512 0.0088206677 0.0069089135         3892 
 4494000   0.54498058   -9.3077122    474.97554 0.0088075867 0.0069061836         3900 
 4495000    0.5339811   -9.2804421    475.11693 0.0088082486 0.0069034565         3893 
 4496000   0.54123846    -9.298462    475.24037 0.0088085774 0.0069007307         3897 
 4497000   0.51915355   -9.3060033    475.65568 0.0088143148 0.0068980062         3895 
 4498000   0.51922401   -9.2810529    475.29565  0.008805685 0.0068952842         3880 
 4499000   0.53684557   -9.3143227     475.5927 0.0088092299  0.006892563         3889 
 4500000   0.54127987   -9.3085021    475.46246 0.0088048603 0.0068898413         3916 
 4501000   0.53151424    -9.320376    476.20001 0.0088165596 0.0068871235         3926 
 4502000   0.53461514   -9.2981386    475.72323 0.0088057758 0.0068844073         3896 
 4503000   0.52318977   -9.2946455    475.59006 0.0088013557 0.0068816913         3909 
 4504000   0.52557391   -9.3095487    475.04382 0.0087892951 0.0068789771         3895 
 4505000   0.52844259   -9.3233866    475.07021 0.0087878323 0.0068762651         3890 
 4506000   0.53206855   -9.2889232    474.96802 0.0087839922 0.0068735518         3904 
 4507000   0.53097065   -9.3119119    474.83515 0.0087795864 0.0068708431         3923 
 4508000   0.52479485   -9.3068953    475.33341 0.0087868495 0.0068681349         3903 
 4509000   0.53037631   -9.3073296    474.88569 0.0087766263 0.0068654289         3891 
 4510000   0.52790988   -9.2981798     475.2005  0.008780497  0.006862726         3888 
 4511000   0.53055374   -9.3148031    474.72477 0.0087697623 0.0068600218         3908 
 4512000   0.53473041   -9.3094884     475.0301 0.0087734579 0.0068573185         3930 
 4513000   0.53730469   -9.3087071    474.57062 0.0087630293  0.006854616         3912 
 4514000   0.53342131   -9.2902917      475.795 0.0087836914 0.0068519184         3893 
 4515000   0.52370045    -9.299667    475.74551 0.0087808325 0.0068492186         3903 
 4516000    0.5171264   -9.3096536    475.09401 0.0087668662 0.0068465223         3915 
 4517000    0.5244957   -9.3100441    474.99304 0.0087630625 0.0068438256         3905 
 4518000   0.52679578   -9.3142447    475.46437 0.0087698165 0.0068411302         3897 
 4519000   0.52551173   -9.2906534    475.53323 0.0087691456 0.0068384365         3914 
 4520000   0.53454077   -9.3107004    475.24878 0.0087619612 0.0068357453         3907 
 4521000   0.52153064   -9.3089926    475.04744 0.0087563119 0.0068330559         3885 
 4522000   0.53064956   -9.3074154    474.82583 0.0087502918 0.0068303676         3888 
 4523000   0.52048928   -9.3165937    475.10431 0.0087534879  0.006827679         3881 
 4524000    0.5221782   -9.3044595    475.01459 0.0087499004 0.0068249928         3913 
 4525000   0.52575939   -9.3003374    473.93986 0.0087281741 0.0068223061         3906 
 4526000    0.5207779   -9.3019267    475.85683 0.0087615413 0.0068196229         3892 
 4527000   0.52769916   -9.3109155      475.281 0.0087490059 0.0068169395         3871 
 4528000   0.53035396   -9.3334552    475.26738 0.0087468232 0.0068142594         3899 
 4529000   0.52756844    -9.312477    474.89826    0.0087381 0.0068115819         3876 
 4530000   0.52314961   -9.3022013    474.89719 0.0087361514  0.006808903         3890 
 4531000   0.52590667   -9.3033617    475.53195 0.0087458977 0.0068062284         3887 
 4532000   0.53061378   -9.3160002    475.79616 0.0087488261 0.0068035545         3884 
 4533000   0.53302531   -9.3300975    474.82915 0.0087291189 0.0068008816         3900 
 4534000   0.52891528   -9.3057071    474.64873 0.0087238776 0.0067982096         3897 
 4535000   0.51960981    -9.307391    475.60573 0.0087395394 0.0067955398         3883 
 4536000    0.5280856   -9.3152987    474.68821 0.0087207564 0.0067928713         3912 
 4537000   0.52758155   -9.3036497    474.77039 0.0087203437 0.0067902034         3916 
 4538000   0.52182244   -9.3318236    474.91163 0.0087210157 0.0067875378         3881 
 4539000   0.51908948   -9.3243928    474.80091 0.0087170616 0.0067848738         3896 
 4540000     0.534207   -9.3061431    474.86012 0.0087162284 0.0067822102         3911 
 4541000   0.52671725    -9.313658    474.68469 0.0087110896 0.0067795484         3899 
 4542000   0.52264251   -9.3065072    474.98874   0.00871475 0.0067768862         3909 
 4543000   0.51852741   -9.3153826    474.53738 0.0087045524 0.0067742284         3923 
 4544000   0.51659597   -9.3273394    474.37802 0.0086997142 0.0067715709         3894 
 4545000   0.51919403   -9.3056748    474.73062 0.0087042651 0.0067689148         3916 
 4546000   0.52989056   -9.3340929    474.16045 0.0086918985 0.0067662602         3888 
 4547000   0.52559866    -9.328521    475.44032 0.0087134434 0.0067636069         3885 
 4548000   0.53068866     -9.32003     475.2736 0.0087084726  0.006760954         3908 
 4549000   0.52438628   -9.3010323    475.06315  0.008702703 0.0067583022         3906 
 4550000   0.52911349   -9.3198112     475.7325 0.0087130495 0.0067556541         3895 
 4551000    0.5231517   -9.3209702    475.21812 0.0087017161 0.0067530056         3905 
 4552000   0.51590949   -9.3325574    474.69145 0.0086901628   0.00675036         3907 
 4553000   0.53747951   -9.3205322    474.29128 0.0086809297 0.0067477147         3892 
 4554000   0.51595264    -9.326578    474.77198 0.0086878198 0.0067450716         3904 
 4555000   0.52753539   -9.3069192     474.8313 0.0086869978 0.0067424301         3900 
 4556000   0.53032334   -9.3155092    475.74164  0.008701742 0.0067397906         3893 
 4557000      0.52499   -9.3249993    475.19048 0.0086897535 0.0067371516         3901 
 4558000   0.51306663   -9.3147655    475.91395 0.0087010741 0.0067345131         3913 
 4559000   0.53162644   -9.3165434    474.57947 0.0086747727 0.0067318765         3901 
 4560000    0.5155949   -9.2997375    474.66358 0.0086744076 0.0067292421         3884 
 4561000   0.51775807   -9.3212874    475.97861 0.0086965323 0.0067266088         3875 
 4562000   0.51575364    -9.325199    475.44117 0.0086848087 0.0067239773         3903 
 4563000   0.52821516   -9.3196594    474.90925 0.0086731911 0.0067213456         3902 
 4564000    0.5390649   -9.3226452    474.91459 0.0086713881  0.006718715         3911 
 4565000   0.52302302   -9.3270903    475.01437 0.0086713101 0.0067160851         3903 
 4566000   0.53271792   -9.3272138    474.42708 0.0086586926 0.0067134568         3892 
 4567000   0.52574165   -9.3352469    475.20107 0.0086709195   0.00671083         3907 
 4568000   0.51818483   -9.3313121    474.98658 0.0086651083 0.0067082062         3907 
 4569000   0.53144199   -9.3195759    474.75427 0.0086589748  0.006705583         3910 
 4570000   0.53000847   -9.3230028    474.28459 0.0086485154 0.0067029612         3915 
 4571000   0.52763341    -9.325117    474.94215 0.0086586113 0.0067003425         3892 
 4572000    0.5169793   -9.3108797    475.29355 0.0086631224 0.0066977238         3907 
 4573000   0.53218517   -9.3043263    474.98272 0.0086555639 0.0066951057         3890 
 4574000   0.52071574   -9.3275717     474.5989 0.0086466786 0.0066924913         3896 
 4575000   0.51178799   -9.3318489    474.31235 0.0086395693 0.0066898777         3899 
 4576000   0.51412598   -9.3355196    474.21363 0.0086358833 0.0066872637         3911 
 4577000   0.51353607   -9.3227853    473.81283 0.0086266992 0.0066846516         3908 
 4578000   0.51017303   -9.3262891    475.03098 0.0086469889 0.0066820407         3900 
 4579000   0.52091526   -9.3301912    474.66924 0.0086385172 0.0066794317         3885 
 4580000    0.5278688   -9.3223473    474.34489 0.0086307295 0.0066768251         3913 
 4581000   0.52346542   -9.3188958    474.60158 0.0086335149 0.0066742174         3901 
 4582000   0.52275629     -9.31727    474.70786 0.0086335636 0.0066716133         3890 
 4583000   0.51520928   -9.3342134    475.25737 0.0086416717 0.0066690099         3885 
 4584000   0.51346741   -9.3331964    475.10548 0.0086370252  0.006666407         3899 
 4585000   0.51189324   -9.3248247    474.76148 0.0086288891 0.0066638059         3908 
 4586000   0.51373903   -9.3206296    474.05335   0.00861414 0.0066612052         3911 
 4587000      0.51711   -9.3337689    475.16603 0.0086324764 0.0066586081         3889 
 4588000   0.51241514   -9.3201122    474.94679 0.0086266128 0.0066560107         3898 
 4589000    0.5140026    -9.331525    475.06993 0.0086269691 0.0066534154         3910 
 4590000   0.50945294   -9.3405298    474.68137 0.0086180351 0.0066508219         3914 
 4591000   0.52802652    -9.338065    474.30554 0.0086093361 0.0066482265         3898 
 4592000   0.52333237   -9.3236928    474.42097  0.008609556 0.0066456363         3901 
 4593000   0.51817753   -9.3188505    474.78939 0.0086143658 0.0066430479         3883 
 4594000   0.52633365   -9.3450399    474.93358 0.0086151064  0.006640462         3914 
 4595000   0.51689721   -9.3258824    475.13009 0.0086167953 0.0066378761         3916 
 4596000    0.5199164   -9.3191744    474.89132 0.0086105911 0.0066352905         3891 
 4597000   0.51422631   -9.3330144    474.18201 0.0085958598 0.0066327071         3874 
 4598000   0.52657471   -9.3462166    474.85433 0.0086061754 0.0066301259         3903 
 4599000   0.51525303   -9.3313938    475.41505 0.0086144642 0.0066275427         3911 
 4600000   0.51857473    -9.319996    475.23983 0.0086094172 0.0066249611         3895 
 4601000   0.51581157   -9.3138217    474.72117 0.0085981521 0.0066223824         3902 
 4602000   0.51191128   -9.3216102    475.01333 0.0086015742 0.0066198041         3875 
 4603000   0.51444017   -9.3246672    475.04779 0.0086003293 0.0066172274         3890 
 4604000     0.517162   -9.3337607    473.95599 0.0085786994 0.0066146526         3902 
 4605000   0.50645068   -9.3156955    475.21888 0.0085996901 0.0066120788         3908 
 4606000   0.50084109   -9.3344112    474.52456 0.0085852612 0.0066095046         3892 
 4607000   0.51726759   -9.3552301    473.76027  0.008569573 0.0066069305         3907 
 4608000   0.52012852   -9.3448358     474.5875 0.0085826733   0.00660436         3901 
 4609000   0.51425446   -9.3316114    474.21878 0.0085741445 0.0066017904         3909 
 4610000   0.52242037   -9.3273477    475.18955 0.0085898327 0.0065992253         3893 
 4611000   0.51499894   -9.3300641    474.94371 0.0085835269 0.0065966597         3909 
 4612000   0.52134007   -9.3538715    473.96519 0.0085639851 0.0065940948         3883 
 4613000    0.5158955   -9.3495279    474.71866   0.00857574 0.0065915318         3909 
 4614000   0.50952348   -9.3363767     474.6944 0.0085734432 0.0065889699         3890 
 4615000   0.51316274    -9.352107    474.15542 0.0085618531   0.00658641         3906 
 4616000    0.5139389   -9.3422909      474.583 0.0085677173 0.0065838492         3888 
 4617000   0.51573943   -9.3410778    474.80569  0.008569881 0.0065812926         3909 
 4618000   0.51723177   -9.3317227       474.99 0.0085713512 0.0065787365         3891 
 4619000   0.50563038   -9.3352183    475.29377 0.0085749761 0.0065761826         3895 
 4620000   0.51582063   -9.3386444    474.35422 0.0085561728 0.0065736306         3922 
 4621000    0.5223114   -9.3203671    474.89299 0.0085640372 0.0065710795         3881 
 4622000    0.5032293   -9.3280006    474.59666 0.0085568415 0.0065685306         3891 
 4623000   0.50772467   -9.3327978    474.64335 0.0085558323 0.0065659828         3903 
 4624000   0.51046452   -9.3403464    474.93956 0.0085593202 0.0065634346         3892 
 4625000   0.51160385   -9.3498686    474.82808 0.0085554609 0.0065608885         3917 
 4626000   0.51772632   -9.3229334    474.43958 0.0085466131 0.0065583443         3865 
 4627000   0.51080756   -9.3379345    475.21982 0.0085588181 0.0065558001         3902 
 4628000   0.51243748   -9.3624349    474.14319 0.0085375826 0.0065532573         3905 
 4629000   0.52840412   -9.3258176    474.43357 0.0085409659  0.006550716         3919 
 4630000   0.51980674   -9.3458894    474.74499 0.0085447262 0.0065481765         3905 
 4631000   0.51018328   -9.3466481    474.81997 0.0085442304 0.0065456411         3903 
 4632000   0.50874698   -9.3318407    474.39061 0.0085346612 0.0065431033         3926 
 4633000   0.51074689   -9.3362691    474.33043 0.0085317367 0.0065405683         3916 
 4634000   0.52278925   -9.3317554    474.83733 0.0085390112 0.0065380348         3909 
 4635000   0.51377324   -9.3317826    474.96438 0.0085394531 0.0065355014         3908 
 4636000   0.50463526    -9.350467    474.27203 0.0085251658 0.0065329693         3910 
 4637000    0.5142043   -9.3473279    474.56091  0.008528519 0.0065304385         3895 
 4638000   0.50803459   -9.3434515    474.37748 0.0085233843 0.0065279088         3912 
 4639000   0.50447627   -9.3206662    474.68832 0.0085271309 0.0065253822         3890 
 4640000   0.51023293   -9.3290216    474.62104 0.0085240847 0.0065228561         3899 
 4641000   0.51888549   -9.3503086    474.47509 0.0085196275 0.0065203306         3904 
 4642000    0.5089911   -9.3472611    474.63458 0.0085206552  0.006517807         3885 
 4643000   0.51669995    -9.357763    474.34156  0.008513561 0.0065152839         3887 
 4644000   0.49932905   -9.3516286    474.47381 0.0085141007 0.0065127622         3900 
 4645000   0.51277274   -9.3446105    474.90901 0.0085200756 0.0065102409         3890 
 4646000     0.507415   -9.3270697    474.23482  0.008506149  0.006507722         3895 
 4647000   0.50318971   -9.3464312     473.6084 0.0084930852 0.0065052041         3911 
 4648000   0.49433106   -9.3226306    474.41572 0.0085057322  0.006502688         3917 
 4649000   0.51060473   -9.3537853    474.10775 0.0084983823 0.0065001726         3895 
 4650000   0.51105961   -9.3390755    473.67559 0.0084888098  0.006497659         3880 
 4651000   0.52030696   -9.3420876    474.94153 0.0085096669 0.0064951461         3909 
 4652000   0.51477083   -9.3455813    473.65914 0.0084848657 0.0064926335         3909 
 4653000   0.50358874   -9.3360241    474.40106 0.0084963296 0.0064901244         3885 
 4654000   0.51867371   -9.3353465     473.5682 0.0084795911 0.0064876152         3870 
 4655000   0.51346237   -9.3336552    475.13651 0.0085058451 0.0064851071         3898 
 4656000   0.50519924   -9.3582918    473.66446 0.0084776715 0.0064826011         3896 
 4657000   0.50501383   -9.3345137    474.40094 0.0084890299 0.0064800956         3874 
 4658000   0.51913228   -9.3518438    474.25153 0.0084845344 0.0064775926         3898 
 4659000   0.50249304   -9.3615631    473.51967 0.0084696228   0.00647509         3907 
 4660000   0.49806288   -9.3394474    474.06141 0.0084774931 0.0064725896         3913 
 4661000   0.50294346   -9.3386219    474.33578 0.0084805797 0.0064700903         3910 
 4662000    0.4991555   -9.3613141    474.10794  0.008474688 0.0064675919         3879 
 4663000   0.51483275   -9.3494136    474.41377  0.008478336 0.0064650948         3892 
 4664000   0.51326638   -9.3411085    474.73922  0.008482333 0.0064625979         3898 
 4665000   0.50134649   -9.3359868    474.38189 0.0084741317 0.0064601028         3903 
 4666000   0.50194761   -9.3528935    474.27239 0.0084703599 0.0064576103         3887 
 4667000   0.50248222   -9.3523648    474.39757 0.0084707801 0.0064551196         3924 
 4668000   0.50688803   -9.3357433    474.12687  0.008464133 0.0064526292         3910 
 4669000   0.51187762   -9.3348351    474.59104 0.0084706047 0.0064501406         3894 
 4670000   0.49125104   -9.3328701    474.65533 0.0084699381 0.0064476522         3907 
 4671000    0.5072493   -9.3526403    474.52617 0.0084658206 0.0064451652         3894 
 4672000   0.50046097   -9.3481421    474.22001 0.0084585475 0.0064426816         3912 
 4673000   0.51358543     -9.35406    474.39072 0.0084597817 0.0064401956         3893 
 4674000   0.50317585    -9.326852    474.71081 0.0084636787 0.0064377132         3908 
 4675000   0.50624505    -9.349661    474.33057 0.0084550904 0.0064352332         3921 
 4676000   0.50207312   -9.3583579    473.86393 0.0084449659 0.0064327532         3894 
 4677000   0.50079156   -9.3516022    474.00841 0.0084457347 0.0064302747         3898 
 4678000   0.50052868   -9.3531422    474.84935 0.0084589096 0.0064277963         3909 
 4679000   0.50402437   -9.3603871    474.05357 0.0084429288 0.0064253199         3892 
 4680000   0.50140429   -9.3493315    474.80494 0.0084545039  0.006422846         3914 
 4681000   0.51696723    -9.355415    474.38282 0.0084451831 0.0064203725         3914 
 4682000   0.48627297   -9.3541876    474.16792 0.0084395543    0.0064179         3912 
 4683000   0.49014723   -9.3578221    474.11658 0.0084368385 0.0064154295         3879 
 4684000   0.49897477   -9.3585541    474.62631  0.008444106 0.0064129576         3901 
 4685000   0.49648573   -9.3538757    474.60756 0.0084419701 0.0064104903         3908 
 4686000   0.49090973   -9.3730874    474.23976 0.0084336278 0.0064080231         3926 
 4687000    0.5092568   -9.3452409    473.98915 0.0084273726 0.0064055574         3888 
 4688000   0.50702541   -9.3436426    473.73234 0.0084210101  0.006403093         3889 
 4689000   0.50793247   -9.3441879    474.69699 0.0084363579 0.0064006299         3915 
 4690000   0.49543001     -9.34226    474.62135 0.0084332152 0.0063981689         3906 
 4691000   0.50740783   -9.3406344    474.11575 0.0084224356 0.0063957082         3899 
 4692000   0.49576887   -9.3587568    473.65423 0.0084124437 0.0063932496         3893 
 4693000   0.49877511   -9.3478262    474.22443 0.0084207762 0.0063907921         3884 
 4694000   0.48986192     -9.34445    474.09772 0.0084167328 0.0063883341         3901 
 4695000   0.49227557   -9.3456769    473.87387 0.0084109667 0.0063858773         3904 
 4696000    0.5076259   -9.3602941    473.72832 0.0084065928 0.0063834232         3920 
 4697000   0.49938312   -9.3519799    474.29529 0.0084148622 0.0063809732         3895 
 4698000   0.49416556   -9.3625902    474.48062 0.0084163584 0.0063785216         3918 
 4699000   0.50257444   -9.3542684    474.22898 0.0084101046 0.0063760699         3907 
 4700000   0.50038059   -9.3501306    474.57652 0.0084144773 0.0063736193         3908 
 4701000   0.50174524   -9.3452407    474.41241 0.0084097782 0.0063711719         3879 
 4702000   0.48638204   -9.3564284    474.43334 0.0084083605 0.0063687264         3905 
 4703000   0.49700079   -9.3434703     473.5033 0.0083900932 0.0063662811         3911 
 4704000   0.49277047   -9.3575829    473.86702 0.0083947531 0.0063638371         3888 
 4705000   0.49946875   -9.3599364    474.85138 0.0084104035 0.0063613935         3910 
 4706000   0.51506739   -9.3481397    474.51676 0.0084026909 0.0063589526         3922 
 4707000   0.49983459   -9.3589741    474.83451 0.0084065312 0.0063565128         3906 
 4708000   0.48843246   -9.3577741    474.86251 0.0084052412 0.0063540751         3906 
 4709000   0.49803717   -9.3454972    474.20936 0.0083918978 0.0063516384         3920 
 4710000   0.49932591   -9.3655488    474.45679 0.0083944939 0.0063492027         3883 
 4711000   0.50120625   -9.3706794    473.95293  0.008383799 0.0063467676         3902 
 4712000   0.49982025   -9.3411946    474.25399 0.0083873442 0.0063443358         3894 
 4713000   0.50364577   -9.3571837    474.52294   0.00839032 0.0063419031         3906 
 4714000   0.49068875   -9.3567969    474.57659 0.0083894885 0.0063394725         3920 
 4715000   0.48858588   -9.3483215    473.98455 0.0083772456 0.0063370432         3872 
 4716000   0.49444653   -9.3672201    474.25502 0.0083802485  0.006334615         3906 
 4717000   0.50028924   -9.3809872    473.93569 0.0083728303 0.0063321882         3919 
 4718000   0.50029962   -9.3583335    473.84531 0.0083694594  0.006329762         3893 
 4719000    0.4905023   -9.3470072    474.29274  0.008375587 0.0063273373         3907 
 4720000   0.49421222   -9.3501461    473.69809 0.0083633137 0.0063249143         3900 
 4721000   0.51205621    -9.346041    474.37787 0.0083735414 0.0063224929         3907 
 4722000   0.49960418   -9.3532398     474.6663 0.0083768584 0.0063200725         3902 
 4723000   0.49947721    -9.362039    474.05082 0.0083642251 0.0063176536         3921 
 4724000   0.49424967    -9.361613    473.95739 0.0083608064 0.0063152342         3909 
 4725000   0.50370427   -9.3556691    474.35305  0.008366015 0.0063128155         3916 
 4726000   0.50392006   -9.3588073    473.34915 0.0083465431 0.0063103988         3914 
 4727000   0.48875223   -9.3626114    474.07531 0.0083575791 0.0063079847         3909 
 4728000   0.47698476   -9.3769627     474.4219 0.0083619201 0.0063055706         3903 
 4729000   0.49569073   -9.3471873    474.13523 0.0083551002 0.0063031578         3893 
 4730000   0.49683752   -9.3614721    474.15435 0.0083536707 0.0063007463         3913 
 4731000   0.48499996   -9.3528074    474.00002 0.0083491867 0.0062983371         3903 
 4732000   0.49240843   -9.3595662    474.25629 0.0083519352 0.0062959298         3891 
 4733000   0.49623428   -9.3463174    474.26195 0.0083502702 0.0062935224         3889 
 4734000   0.49359632   -9.3462815    474.37222 0.0083504474 0.0062911154         3895 
 4735000   0.49295285   -9.3523233    474.30234 0.0083474541  0.006288711         3898 
 4736000   0.48853823   -9.3670346    474.51018 0.0083493486  0.006286308         3924 
 4737000   0.50408604   -9.3575794    473.73861 0.0083340126 0.0062839068         3893 
 4738000   0.49472262   -9.3645934     474.5265 0.0083461112 0.0062815065         3909 
 4739000   0.48924476   -9.3563762    474.25734 0.0083396171 0.0062791069         3908 
 4740000    0.4951339   -9.3666627    474.51771 0.0083424351 0.0062767083         3922 
 4741000   0.49598832   -9.3676392    473.46354 0.0083221462 0.0062743122         3890 
 4742000   0.48215701   -9.3574671      473.515 0.0083212955 0.0062719169         3913 
 4743000   0.48635952   -9.3669823     474.2642 0.0083327043 0.0062695227         3908 
 4744000   0.50016423   -9.3683952     473.9158 0.0083248278 0.0062671289         3917 
 4745000   0.50604576   -9.3739588    473.45156 0.0083149203 0.0062647347         3908 
 4746000   0.49294594   -9.3557261    474.00056  0.008322808 0.0062623454         3888 
 4747000   0.48614012    -9.363273    473.90433 0.0083193654 0.0062599564         3918 
 4748000   0.49035127   -9.3485568     473.5498 0.0083113907 0.0062575669         3901 
 4749000     0.486706   -9.3731966    474.87217  0.008332845  0.006255179         3917 
 4750000    0.4911787   -9.3623986    473.89369 0.0083139245 0.0062527937         3919 
 4751000   0.50712246   -9.3603539    474.11458 0.0083160488 0.0062504106         3917 
 4752000   0.50299497   -9.3760109    474.00453  0.008312369 0.0062480273         3906 
 4753000   0.48222944   -9.3729975    474.56384 0.0083204264 0.0062456455         3910 
 4754000   0.50001547   -9.3831321    473.89362 0.0083069279 0.0062432642         3914 
 4755000   0.49163903   -9.3684254    474.24344 0.0083113116 0.0062408844         3884 
 4756000   0.49487585   -9.3612311     473.9036 0.0083036095 0.0062385045         3906 
 4757000   0.48791416   -9.3557081    473.66826 0.0082977411 0.0062361279         3902 
 4758000   0.49663628   -9.3515119    472.95379 0.0082834837 0.0062337502         3906 
 4759000   0.48946096   -9.3740606    473.88111 0.0082979811  0.006231376         3909 
 4760000   0.48976915   -9.3683509    473.44124 0.0082885371 0.0062290021         3913 
 4761000   0.49419883   -9.3681327    473.45868 0.0082871014 0.0062266303         3928 
 4762000   0.49722296   -9.3658052    473.93705 0.0082937326 0.0062242581         3915 
 4763000   0.49046717   -9.3759889    473.93655 0.0082919825 0.0062218878         3904 
 4764000   0.48174919   -9.3720956    474.28446 0.0082963277 0.0062195205         3904 
 4765000   0.49464627   -9.3703836    473.91448 0.0082881161  0.006217152         3920 
 4766000   0.48541817   -9.3695008    473.79406 0.0082842715 0.0062147841         3902 
 4767000   0.48804103   -9.3863322    473.71132 0.0082810873 0.0062124191         3917 
 4768000   0.48092867    -9.371819     473.3997 0.0082739042 0.0062100549         3922 
 4769000   0.48984453   -9.3778998     474.2843 0.0082876268 0.0062076935         3905 
 4770000   0.49698429   -9.3675013    473.92352 0.0082795863 0.0062053322         3896 
 4771000   0.49794218   -9.3737037    473.04684 0.0082625383 0.0062029722         3896 
 4772000   0.48853588   -9.3747134    473.38869 0.0082667765 0.0062006137         3899 
 4773000   0.49397481   -9.3642365    473.54797 0.0082678254 0.0061982557         3901 
 4774000   0.47892962   -9.3624743    474.96855 0.0082908908 0.0061958987         3916 
 4775000    0.4935469   -9.3685981    473.25083 0.0082591767 0.0061935439         3904 
 4776000   0.48793391   -9.3630234    473.00973 0.0082532407 0.0061911869         3909 
 4777000   0.48523673   -9.3705685    473.98719 0.0082685645 0.0061888344         3911 
 4778000   0.50088682   -9.3712028    474.06702 0.0082682262 0.0061864815         3916 
 4779000   0.49432455   -9.3628704    474.70099  0.008277551 0.0061841307         3909 
 4780000   0.48341989   -9.3678417     474.2571 0.0082680805  0.006181781         3885 
 4781000   0.48162699   -9.3771065    474.23559 0.0082659762  0.006179433         3912 
 4782000   0.48963708   -9.3692778     473.0458 0.0082435138 0.0061770861         3899 
 4783000   0.48375977   -9.3706611    474.41589 0.0082656612 0.0061747407         3908 
 4784000   0.49209895   -9.3746849    473.79102 0.0082530487 0.0061723957         3903 
 4785000   0.48284722   -9.3567733    473.82891 0.0082519838 0.0061700539         3904 
 4786000   0.49780865    -9.372767    473.61711 0.0082465717 0.0061677108         3916 
 4787000   0.49588023   -9.3688034    473.78066 0.0082476962 0.0061653699         3909 
 4788000   0.47448662   -9.3762315    473.98119 0.0082494638 0.0061630285         3916 
 4789000   0.48095016    -9.359083    473.64504 0.0082418918 0.0061606889         3925 
 4790000   0.49726243   -9.3639088    473.86569   0.00824401 0.0061583512         3896 
 4791000   0.48060643   -9.3717286    473.16161 0.0082300427 0.0061560159         3908 
 4792000      0.49266   -9.3654801     473.6272 0.0082364218 0.0061536817         3915 
 4793000   0.48754401   -9.3619633    473.39882 0.0082307327 0.0061513472         3916 
 4794000   0.49573154   -9.3858686    473.68608 0.0082340092 0.0061490161         3919 
 4795000   0.49689794   -9.3836187    473.75166 0.0082334316  0.006146684         3912 
 4796000   0.48559503   -9.3903578    473.53864 0.0082280137 0.0061443516         3929 
 4797000   0.48080185   -9.3689112    473.40126 0.0082239118  0.006142023         3931 
 4798000   0.48314852   -9.3852563    473.30382 0.0082205054 0.0061396943         3931 
 4799000    0.4875222   -9.3699838      473.327  0.008219195 0.0061373664         3887 
 4800000   0.48869996    -9.375268    473.80103 0.0082257124 0.0061350394         3896 
 4801000   0.49116772   -9.3746733    473.49095 0.0082186168 0.0061327136         3915 
 4802000   0.49232097   -9.3722294     474.1007 0.0082274868 0.0061303898         3909 
 4803000   0.47702339   -9.3725915    473.61026 0.0082172645 0.0061280685         3902 
 4804000   0.48532717   -9.3814014    474.03572 0.0082229343 0.0061257483         3903 
 4805000   0.48807351   -9.3772905    473.30129 0.0082084857 0.0061234295         3916 
 4806000   0.47891019    -9.380458    473.72584 0.0082141392 0.0061211098         3914 
 4807000   0.49258635   -9.3769832    473.60575 0.0082103487 0.0061187914         3910 
 4808000   0.49502303   -9.3813593    472.96543 0.0081975428 0.0061164746         3911 
 4809000   0.49191312   -9.3749346    472.93745 0.0081953533   0.00611416         3906 
 4810000   0.48466552   -9.3677814    473.97255 0.0082115826 0.0061118452         3911 
 4811000   0.48146917   -9.3713316    474.71914 0.0082228078 0.0061095336         3901 
 4812000   0.48379486   -9.3826304    473.38901 0.0081980641 0.0061072222         3919 
 4813000   0.47510401    -9.376165    473.65222 0.0082009179 0.0061049124         3912 
 4814000   0.47571017    -9.381192    473.80328 0.0082018294 0.0061026017         3902 
 4815000   0.46978684   -9.3816885    473.73326 0.0081989142 0.0061002949         3893 
 4816000   0.47741842   -9.3854247    473.24289 0.0081887266 0.0060979885         3906 
 4817000   0.48103076   -9.3897955    473.77568 0.0081962438 0.0060956848         3917 
 4818000   0.48295244   -9.3890751      473.284 0.0081860384 0.0060933799         3918 
 4819000    0.4806797   -9.3758628    473.08335   0.00818087  0.006091076         3902 
 4820000    0.4772465   -9.3744922    473.22806 0.0081816746  0.006088773         3908 
 4821000    0.4748663   -9.3718395    473.61164  0.008186608 0.0060864725         3902 
 4822000   0.47653934   -9.3843652    473.67545 0.0081860129 0.0060841731         3909 
 4823000   0.48088524   -9.3772366    473.39192 0.0081794168 0.0060818752         3901 
 4824000   0.47445127   -9.3839678    473.72312 0.0081834425 0.0060795777         3905 
 4825000   0.48569847   -9.3780226    472.91561 0.0081677999 0.0060772827         3908 
 4826000   0.47491058   -9.3951694    473.64677 0.0081787328  0.006074988         3907 
 4827000   0.48083969   -9.3812106    473.57396 0.0081757813 0.0060726951         3918 
 4828000   0.49144056   -9.4039467    473.23322 0.0081682067 0.0060704029         3886 
 4829000   0.48125638   -9.3904714    472.98316 0.0081621998 0.0060681102         3902 
 4830000   0.48145475   -9.3867111     473.6661 0.0081722929 0.0060658212         3906 
 4831000   0.48018921   -9.3735783    473.64521  0.008170241 0.0060635327         3911 
 4832000   0.48515056   -9.3788812    473.60298 0.0081678219 0.0060612444         3928 
 4833000   0.47575003   -9.3655311    473.40765 0.0081627638 0.0060589562         3884 
 4834000   0.47447629   -9.3660273    473.13966 0.0081564554  0.006056669         3912 
 4835000   0.47815317   -9.3803071    473.17486 0.0081553751 0.0060543825         3912 
 4836000   0.46870742   -9.3944496    473.94255 0.0081669174 0.0060521007         3913 
 4837000   0.47968619   -9.3897777    473.55715 0.0081585892 0.0060498202         3906 
 4838000   0.48657909   -9.3783881    473.26368 0.0081518478 0.0060475392         3897 
 4839000   0.48202557    -9.370626    473.39786  0.008152474 0.0060452605         3883 
 4840000   0.47850504   -9.3747632    473.56615 0.0081536871 0.0060429809         3900 
 4841000   0.46678433   -9.3777969    473.04971 0.0081431129 0.0060407026         3910 
 4842000   0.46647473   -9.3856846    473.78734  0.008154126 0.0060384265         3918 
 4843000   0.47773332   -9.3929979    473.85698 0.0081536407 0.0060361503         3895 
 4844000   0.47704897   -9.3813846    473.33556 0.0081429872 0.0060338762         3906 
 4845000   0.47545397   -9.3768711    473.85371 0.0081502185 0.0060316023         3908 
 4846000   0.48083488   -9.3863835    472.89337 0.0081320224 0.0060293297         3899 
 4847000   0.46594731   -9.3738964    473.94299 0.0081483905 0.0060270587         3893 
 4848000   0.48460237   -9.3762811    474.14319 0.0081501511 0.0060247887         3932 
 4849000   0.47189289   -9.3633808    473.37718 0.0081353059 0.0060225195         3895 
 4850000   0.46572031    -9.402616    472.98076 0.0081268172 0.0060202515         3922 
 4851000   0.47584463   -9.3715002    472.98675 0.0081252448 0.0060179846         3908 
 4852000   0.47855529   -9.3728198    473.58483 0.0081338423  0.006015719         3892 
 4853000   0.48201583   -9.3786243     473.1377 0.0081244882 0.0060134569         3905 
 4854000   0.48074889   -9.3922535    473.34345 0.0081263468 0.0060111946         3899 
 4855000   0.47350716   -9.4099761    472.93804 0.0081177144  0.006008933         3906 
 4856000   0.47253862   -9.3639363    473.37355 0.0081235164  0.006006672         3908 
 4857000   0.47469107   -9.3951403    473.05785 0.0081164273  0.006004413         3904 
 4858000   0.46938967   -9.3854099    472.90345 0.0081121081 0.0060021553         3918 
 4859000   0.47485387   -9.3944708    472.72068 0.0081073039 0.0059998984         3921 
 4860000   0.46547464   -9.3998369    473.68166 0.0081221135  0.005997643         3907 
 4861000   0.46364149   -9.3833055    473.65914 0.0081200566 0.0059953875         3906 
 4862000   0.46254129   -9.3791917    474.01217 0.0081244373 0.0059931336         3887 
 4863000   0.46707607   -9.3965737      473.204 0.0081089177 0.0059908813         3914 
 4864000   0.46403736   -9.3782212    473.39965 0.0081106026 0.0059886303         3888 
 4865000   0.46332281    -9.394635    472.60658 0.0080953508 0.0059863784         3895 
 4866000   0.47090944   -9.3841043    473.14676 0.0081029381 0.0059841285         3906 
 4867000   0.48141698   -9.3952473    473.33785  0.008104545 0.0059818811         3916 
 4868000   0.47693243   -9.3869335    472.48349 0.0080882548 0.0059796346         3919 
 4869000   0.47346233   -9.3862656    473.95812 0.0081118321 0.0059773896         3898 
 4870000   0.46867362   -9.3951599    473.66348 0.0081051246 0.0059751443         3914 
 4871000   0.47333121   -9.3964467    473.02676 0.0080925675 0.0059729004         3931 
 4872000   0.47656917   -9.4063856    473.28944 0.0080953995 0.0059706573         3916 
 4873000   0.46262808    -9.408527    473.70607 0.0081008632  0.005968415         3899 
 4874000   0.46906271   -9.3953444    472.84003 0.0080843939 0.0059661744         3921 
 4875000   0.48231657   -9.4003544    473.05926  0.008086483 0.0059639352         3920 
 4876000   0.47790309    -9.415593    473.29187 0.0080888001 0.0059616958         3892 
 4877000   0.46565945   -9.4088277     473.8569 0.0080967962  0.005959459         3912 
 4878000   0.46215658    -9.390283    473.61562 0.0080910143 0.0059572225         3913 
 4879000   0.47298053    -9.381768    472.82105 0.0080757848 0.0059549886         3913 
 4880000   0.47820765   -9.3999508     473.2484 0.0080814275 0.0059527544         3907 
 4881000   0.46812722   -9.4070659    472.85938 0.0080731302 0.0059505202         3917 
 4882000   0.46762568    -9.400216     473.5166  0.008082695 0.0059482894         3908 
 4883000   0.46395914   -9.4077233    472.97474 0.0080717922 0.0059460592         3926 
 4884000    0.4678099    -9.406903    473.08908 0.0080720905 0.0059438287         3902 
 4885000   0.45777073   -9.3897145    474.26636 0.0080905213 0.0059416019         3912 
 4886000   0.46952701   -9.3998864    472.89491 0.0080654746 0.0059393761         3901 
 4887000   0.47086401   -9.3962479    473.09458  0.008067229 0.0059371508         3922 
 4888000   0.47551385   -9.4108357    472.73901 0.0080595166 0.0059349261         3908 
 4889000   0.45861062   -9.3922005    472.79505 0.0080588234 0.0059327027         3901 
 4890000   0.46811991   -9.3957283     472.5604 0.0080531765   0.00593048         3908 
 4891000   0.46906783   -9.3853327    473.46221 0.0080668951 0.0059282595         3915 
 4892000   0.48705681   -9.4008812    472.89344 0.0080555574 0.0059260403         3928 
 4893000   0.46928842   -9.3860394    472.83221 0.0080528683 0.0059238209         3922 
 4894000   0.46965378   -9.3973836    473.25295  0.008058387 0.0059216038         3918 
 4895000   0.46902691   -9.4060595    472.40595 0.0080423213 0.0059193862         3922 
 4896000   0.47115584   -9.3882957    472.91533 0.0080493487 0.0059171703         3906 
 4897000   0.47836456   -9.3926749    473.22097  0.008052906 0.0059149556         3878 
 4898000   0.46339463   -9.4001203    473.40182 0.0080543389 0.0059127432         3912 
 4899000   0.45702781   -9.4152478    472.88526 0.0080439079 0.0059105313         3913 
 4900000   0.47373335   -9.3903436    472.40469 0.0080340933 0.0059083204         3914 
 4901000   0.46636528   -9.3828179    473.23226 0.0080465256 0.0059061101         3901 
 4902000   0.46381505   -9.3864033    473.56741 0.0080505815 0.0059039016         3919 
 4903000    0.4675365   -9.3922428    473.43796 0.0080467394 0.0059016932         3907 
 4904000   0.46323728   -9.4078835    472.84155 0.0080349638 0.0058994862         3895 
 4905000    0.4690824   -9.3923924    472.15331 0.0080216328 0.0058972797         3893 
 4906000   0.46021965    -9.392187    473.54899 0.0080437049 0.0058950735         3885 
 4907000   0.47837359   -9.3911934    473.02742 0.0080332081 0.0058928716         3905 
 4908000   0.47332043   -9.4116764    472.53811 0.0080232632 0.0058906698         3924 
 4909000   0.46030523   -9.4034509    473.25192 0.0080337461  0.005888469         3914 
 4910000    0.4585046   -9.4084685    472.70112 0.0080227617 0.0058862693         3912 
 4911000   0.45863224   -9.3942417    472.82254 0.0080231885 0.0058840702         3913 
 4912000   0.46037978   -9.4091536    472.70893 0.0080196276 0.0058818719         3893 
 4913000   0.46861945   -9.4149411    473.04301  0.008023662 0.0058796766         3892 
 4914000   0.47463009   -9.4163968    472.47722 0.0080124342 0.0058774818         3907 
 4915000   0.45972539   -9.3905296    472.83858 0.0080169308 0.0058752872         3910 
 4916000   0.46299687   -9.3977631    473.30272 0.0080231679 0.0058730962         3925 
 4917000   0.46506037   -9.3984185    472.56646 0.0080090581 0.0058709039         3907 
 4918000   0.47103484     -9.39163    473.36095 0.0080208918 0.0058687132         3906 
 4919000   0.46018448   -9.3982405    472.69999 0.0080080638 0.0058665245         3905 
 4920000   0.46293194   -9.4084972    473.74374 0.0080241149 0.0058643372         3903 
 4921000    0.4509951   -9.4098205    472.55544 0.0080023614 0.0058621506         3904 
 4922000   0.44647578   -9.4060345    472.80576 0.0080049736 0.0058599639         3925 
 4923000   0.47386326   -9.4089296    473.31301  0.008011934 0.0058577773         3909 
 4924000   0.46305263   -9.4014677    473.47575  0.008013061 0.0058555935         3889 
 4925000   0.46309114   -9.3967084    473.15614  0.008006026 0.0058534084         3929 
 4926000    0.4620754   -9.4143267     472.3705   0.00799111  0.005851226         3918 
 4927000   0.47211396   -9.3978967     472.7093 0.0079952186 0.0058490442         3896 
 4928000   0.47264456   -9.3972849    472.67232 0.0079929708 0.0058468642         3898 
 4929000   0.45552187   -9.4057165    472.35168 0.0079859283 0.0058446868         3920 
 4930000   0.46478949   -9.4010607    472.55044  0.007987668 0.0058425082         3907 
 4931000   0.45542941   -9.4131626    473.03795  0.007994287 0.0058403332         3903 
 4932000   0.46629956    -9.408328    472.61998 0.0079856039  0.005838158         3910 
 4933000   0.46748321   -9.4173617    472.86195 0.0079880728 0.0058359845         3900 
 4934000   0.46302046   -9.4124262    472.77198 0.0079849342 0.0058338118         3891 
 4935000   0.46504146   -9.4138359    472.33317 0.0079759063 0.0058316415         3915 
 4936000    0.4548506   -9.3928014    472.93448 0.0079844421 0.0058294691         3914 
 4937000   0.47083824   -9.4075275    473.20001 0.0079873069 0.0058272987         3898 
 4938000   0.47097072   -9.4029376    473.03871 0.0079829673 0.0058251307         3909 
 4939000   0.46533495   -9.4264547    472.79786 0.0079772872 0.0058229638         3916 
 4940000     0.461421   -9.3967631    472.64539 0.0079731003 0.0058207968         3902 
 4941000   0.44909505    -9.404194    473.33035  0.007983039 0.0058186304         3905 
 4942000   0.46331473   -9.4044141    473.00333 0.0079759093 0.0058164648         3916 
 4943000   0.46173208   -9.4142021    473.27393 0.0079788579 0.0058143012         3900 
 4944000   0.45296937    -9.414333    472.55005 0.0079650426 0.0058121399         3892 
 4945000   0.46181379      -9.4081    472.20589 0.0079576321 0.0058099786         3900 
 4946000   0.45747418   -9.4106892    472.48172 0.0079606705 0.0058078182         3908 
 4947000   0.45741781   -9.4077732    472.39893 0.0079576668 0.0058056577         3908 
 4948000   0.46278099   -9.4102522    472.97684 0.0079657916 0.0058034987         3917 
 4949000   0.46566473   -9.4116199    472.93638 0.0079635007 0.0058013419         3905 
 4950000   0.46406492   -9.4188719    473.28728 0.0079677993 0.0057991871         3917 
 4951000   0.45661934   -9.3944129    472.53772 0.0079535736 0.0057970321         3913 
 4952000   0.46217125   -9.4022072    473.12751 0.0079618927 0.0057948782         3899 
 4953000    0.4586792   -9.4073218    472.41036 0.0079482192 0.0057927258         3917 
 4954000   0.44979777   -9.4067348    473.01933 0.0079568585 0.0057905743         3921 
 4955000    0.4587817   -9.3992933    473.26388 0.0079593656 0.0057884236         3910 
 4956000   0.45865421   -9.4141086     472.6385 0.0079472442 0.0057862746         3910 
 4957000    0.4506856   -9.3988764    472.74967 0.0079475097  0.005784126         3903 
 4958000   0.45745116    -9.400372    472.32232 0.0079387239 0.0057819779         3923 
 4959000   0.44653173   -9.4258512    472.44586 0.0079391991 0.0057798303         3921 
 4960000   0.44213349   -9.4003095    473.34497 0.0079527044  0.005777685         3917 
 4961000   0.46207558   -9.4145345    472.81094  0.007942131 0.0057755381         3916 
 4962000   0.45437286   -9.4132045    472.32245 0.0079323265 0.0057733949         3928 
 4963000   0.46300127   -9.4078862    472.95014 0.0079412678 0.0057712524         3915 
 4964000   0.45591159   -9.4268699    472.68156 0.0079351592 0.0057691116         3917 
 4965000   0.45705411   -9.4119681    472.93484  0.007937812 0.0057669712         3896 
 4966000   0.46013788   -9.4041562    472.61686 0.0079308776 0.0057648329         3915 
 4967000    0.4652477   -9.4287836    472.54445 0.0079280661  0.005762695         3920 
 4968000   0.46114541   -9.4013342    473.70748 0.0079459789 0.0057605605         3909 
 4969000   0.45790324   -9.4132006    472.78213  0.007928861 0.0057584262         3893 
 4970000   0.46056772   -9.4099622    472.25219 0.0079183802 0.0057562919         3922 
 4971000   0.45820098   -9.4344102    472.17694 0.0079155258 0.0057541594         3926 
 4972000   0.46773988   -9.4238699     473.0319 0.0079282633 0.0057520274         3907 
 4973000   0.44826975   -9.4172228    472.07177   0.00791058 0.0057498961         3900 
 4974000   0.45556121   -9.4211412    471.98939 0.0079076093  0.005747765         3919 
 4975000   0.45880864   -9.4154441    472.72929 0.0079184136 0.0057456353         3911 
 4976000   0.45443243   -9.4134101    473.28448   0.00792612 0.0057435068         3918 
 4977000   0.45362041   -9.4130112    471.99179 0.0079028832 0.0057413794         3921 
 4978000   0.44852065   -9.3885452    472.89114  0.007916351  0.005739256         3916 
 4979000   0.45241196   -9.4180453    472.73263  0.007912108 0.0057371302         3909 
 4980000   0.44366667   -9.4196636    472.87264 0.0079128621 0.0057350057         3893 
 4981000   0.45244015   -9.4163725    472.57247 0.0079062515 0.0057328841         3909 
 4982000   0.46109816   -9.4245065    472.69241 0.0079066709 0.0057307631         3921 
 4983000   0.45428271   -9.4100066    472.32664 0.0078989672 0.0057286408         3917 
 4984000   0.45713702   -9.4241037    472.81689 0.0079055793 0.0057265189         3911 
 4985000     0.452032   -9.4141713     471.9902 0.0078901738  0.005724401         3919 
 4986000   0.45167248    -9.417729    471.60158 0.0078820962 0.0057222829         3907 
 4987000   0.44616381    -9.415263    472.52009 0.0078958642  0.005720166         3919 
 4988000    0.4602677   -9.4221534    473.41639 0.0079092553 0.0057180523         3907 
 4989000    0.4447071   -9.4248355    472.91883 0.0078993592 0.0057159388         3927 
 4990000   0.44530471   -9.4128168    472.38563 0.0078888715 0.0057138251         3902 
 4991000    0.4536383   -9.4341299    473.07512 0.0078988032 0.0057117138         3923 
 4992000   0.45683655   -9.4302437    472.47894 0.0078872686 0.0057096037         3918 
 4993000   0.44781436   -9.4218562     472.9061 0.0078928183 0.0057074942         3893 
 4994000   0.45476829   -9.4244582    472.93235 0.0078916759 0.0057053862         3907 
 4995000   0.45090186   -9.4165142    472.01348 0.0078747661 0.0057032773         3913 
 4996000   0.45201262   -9.4239275    472.60585 0.0078830705 0.0057011702         3900 
 4997000   0.44949817   -9.4309678    472.56102 0.0078807455  0.005699064         3930 
 4998000   0.45217546    -9.407418    472.49768 0.0078781125 0.0056969599         3907 
 4999000   0.45470642   -9.4066598    472.50155 0.0078766011  0.005694858         3914 
 5000000   0.45456946   -9.4205355    472.60806 0.0078768009 0.0056927568         3918 
 5001000   0.44328068   -9.4072815     472.4068 0.0078718723  0.005690655         3893 
 5002000   0.44819366   -9.4077923    473.27123    0.0078847  0.005688554         3903 
 5003000   0.46787695   -9.4192859    472.41272  0.007868824 0.0056864556         3928 
 5004000   0.46405548   -9.4270494     473.3816 0.0078833866 0.0056843575         3910 
 5005000   0.44663646    -9.427398    472.81386 0.0078723587 0.0056822608         3912 
 5006000   0.46000551   -9.4369245    472.45684 0.0078648429  0.005680165         3913 
 5007000   0.43698712    -9.410394    472.37941 0.0078619834 0.0056780708         3907 
 5008000   0.46087339    -9.407697     472.0937 0.0078556594 0.0056759757         3917 
 5009000    0.4423005   -9.4343822    472.09262 0.0078540729 0.0056738824         3897 
 5010000   0.45633912   -9.4164113     472.0609 0.0078519777 0.0056717904         3914 
 5011000   0.44477795   -9.4273869    472.57951 0.0078590353    0.0056697         3935 
 5012000   0.44894135   -9.4338055     472.4096 0.0078546421 0.0056676114         3914 
Loop time of 13340.2 on 48 procs for 5000000 steps with 4000 atoms

Performance: 64766.700 tau/day, 374.807 timesteps/s
99.4% CPU use with 48 MPI tasks x no OpenMP threads

MPI task timing breakdown:
Section |  min time  |  avg time  |  max time  |%varavg| %total
---------------------------------------------------------------
Pair    | 994.34     | 1091.8     | 1214       | 168.6 |  8.18
Neigh   | 93.322     | 98.247     | 103.02     |  21.0 |  0.74
Comm    | 819.75     | 942.61     | 1049.8     | 187.6 |  7.07
Output  | 31.801     | 31.806     | 31.906     |   0.3 |  0.24
Modify  | 11015      | 11051      | 11096      |  19.1 | 82.84
Other   |            | 125        |            |       |  0.94

Nlocal:        83.3333 ave          88 max          73 min
Histogram: 1 0 2 0 5 7 7 7 9 10
Nghost:        2452.35 ave        2481 max        2433 min
Histogram: 1 5 8 10 11 6 3 3 0 1
Neighs:        17046.8 ave       19593 max       13967 min
Histogram: 1 2 2 12 5 6 5 3 8 4
FullNghs:      34093.2 ave       36438 max       29048 min
Histogram: 1 0 2 1 5 5 10 8 7 9

Total # of neighbors = 1636474
Ave neighs/atom = 409.11850
Neighbor list builds = 265908
Dangerous builds = 0

#clear
#
#next RN
#
#jump SELF
Total wall time: 3:42:23
