
units lj                  # Use reduced LJ style units
atom_style atomic         # Uncharged point particles
atom_modify map hash      # Needed for indexing of clusters etc
                          # Used to be able to find where atoms are in relation to each other.

lattice fcc 1.0 spacing 1 1 1
Lattice spacing in x,y,z = 1.5874011 1.5874011 1.5874011
region box block 0 10 0 10 0 10 units lattice
create_box 2 box
Created orthogonal box = (0.0000000 0.0000000 0.0000000) to (15.874011 15.874011 15.874011)
  3 by 4 by 4 MPI processor grid
create_atoms 1 box
Created 4000 atoms
  using lattice units in orthogonal box = (0.0000000 0.0000000 0.0000000) to (15.874011 15.874011 15.874011)
  create_atoms CPU = 0.002 seconds
set type 1 type/fraction 2 0.11 78393
Setting atom values ...
  470 settings made for type/fraction
mass 1 1.0
mass 2 1.0
pair_style lj/cut  3.5
pair_modify tail  yes
pair_coeff 1  1  1.0  1.0   # Intearaction between 1 and 1 set with epsilon = 1 and sigma = 1
pair_coeff 1  2  1.5  0.8
pair_coeff 2  2  0.5  0.88

write_data data.0
System init for write_data ...
Neighbor list info ...
  update every 1 steps, delay 10 steps, check yes
  max neighbors/atom: 2000, page size: 100000
  master list distance cutoff = 3.8
  ghost atom cutoff = 3.8
  binsize = 1.9, bins = 9 9 9
  1 neighbor lists, perpetual/occasional/extra = 1 0 0
  (1) pair lj/cut, perpetual
      attributes: half, newton on
      pair build: half/bin/atomonly/newton
      stencil: half/bin/3d
      bin: standard
WARNING: Not all mixed pair coeffs generated from mixing. Use write_data with 'pair ij' option to store all pair coeffs. (../write_data.cpp:312)


#############################
#   M E L T   S Y S T E M   #
#############################

velocity all create 2.4 5300450 mom yes dist gaussian # Assign velocities
                                                    # Temperature 2.4, random number seed, zero linear momentum
                                                                                # Gaussian distribution

timestep 0.002   # simulation timestep
thermo 1000       # output thermodynamic data every 1000 steps bf 100

# Define a fix  in this case with index 1 applied to all
# particles in the simulation. This fix is for simulations
# in the anisotropic NPT ensemble. Note that we use the MTK
# correction.
fix 1 all npt temp 2.4 2.4 0.1 iso 5.68 5.68 0.5 mtk yes tchain 5 pchain 5 # Use NPT ensemble
                                                                         # Set temperature and pressure and damping
                                                                         # Numbers of thermostats in chain and in barostat
run 10000          # run for 10000 steps
Per MPI rank memory allocation (min/avg/max) = 3.642 | 3.644 | 3.648 Mbytes
Step Temp E_pair E_mol TotEng Press Volume 
       0          2.4   -7.6169122            0   -4.0178122   -3.1065461         4000 
    1000    2.3958123   -4.6818558            0   -1.0890358    5.5624862    4775.9512 
    2000    2.4301957   -4.6536962            0   -1.0093139    5.4235068    4821.4503 
    3000     2.425889   -4.7188023            0   -1.0808785    5.5868337    4764.2997 
    4000    2.4175092   -4.6462462            0   -1.0208889     5.645967    4800.2798 
    5000    2.3700895   -4.6466932            0   -1.0924478    5.8597595    4763.0004 
    6000    2.4096983   -4.7164429            0   -1.1027991    5.3800908    4793.7538 
    7000    2.3926793   -4.6288118            0   -1.0406902    5.7231064     4788.311 
    8000     2.456967   -4.6454092            0  -0.96088004    5.6896365    4798.1475 
    9000    2.4056427   -4.6917406            0   -1.0841786    6.0614799    4717.3017 
   10000    2.3637683   -4.6587926            0   -1.1140266    5.4207478    4811.0521 
Loop time of 2.58836 on 48 procs for 10000 steps with 4000 atoms

Performance: 667603.846 tau/day, 3863.448 timesteps/s
99.3% CPU use with 48 MPI tasks x no OpenMP threads

MPI task timing breakdown:
Section |  min time  |  avg time  |  max time  |%varavg| %total
---------------------------------------------------------------
Pair    | 0.91152    | 0.97389    | 1.0855     |   3.5 | 37.63
Neigh   | 0.19025    | 0.20011    | 0.2231     |   1.3 |  7.73
Comm    | 0.76245    | 0.89787    | 1.0013     |   6.4 | 34.69
Output  | 0.00024536 | 0.000255   | 0.00042383 |   0.0 |  0.01
Modify  | 0.41681    | 0.50197    | 0.58687    |   5.9 | 19.39
Other   |            | 0.01426    |            |       |  0.55

Nlocal:        83.3333 ave          91 max          75 min
Histogram: 2 3 1 9 3 14 4 6 5 1
Nghost:        1446.06 ave        1469 max        1420 min
Histogram: 1 3 4 7 4 9 7 9 2 2
Neighs:        7903.75 ave        8815 max        6601 min
Histogram: 1 1 4 2 9 8 8 7 5 3

Total # of neighbors = 379380
Ave neighs/atom = 94.845000
Neighbor list builds = 911
Dangerous builds = 252

# Equilibrate just above the melting temperature to avoid step fn in T

fix 1 all npt temp 1.25 1.25 0.1 iso 5.68 5.68 0.5 mtk yes tchain 5 pchain 5
run 2000
Per MPI rank memory allocation (min/avg/max) = 3.642 | 3.644 | 3.648 Mbytes
Step Temp E_pair E_mol TotEng Press Volume 
   10000    2.3637683   -4.6587926            0   -1.1140266    5.4207478    4811.0521 
   11000    1.2436775   -6.2312211            0   -4.3661712    5.8913238    3933.0569 
   12000     1.240018   -6.2716109            0   -4.4120489    5.6482201    3933.5963 
Loop time of 0.481274 on 48 procs for 2000 steps with 4000 atoms

Performance: 718094.111 tau/day, 4155.637 timesteps/s
99.6% CPU use with 48 MPI tasks x no OpenMP threads

MPI task timing breakdown:
Section |  min time  |  avg time  |  max time  |%varavg| %total
---------------------------------------------------------------
Pair    | 0.20253    | 0.22563    | 0.25844    |   2.1 | 46.88
Neigh   | 0.030062   | 0.032749   | 0.037918   |   0.6 |  6.80
Comm    | 0.14084    | 0.16554    | 0.19739    |   2.9 | 34.40
Output  | 4.9197e-05 | 5.2219e-05 | 0.00014811 |   0.0 |  0.01
Modify  | 0.039522   | 0.052743   | 0.065627   |   3.4 | 10.96
Other   |            | 0.004562   |            |       |  0.95

Nlocal:        83.3333 ave          90 max          73 min
Histogram: 1 2 2 2 5 13 5 6 8 4
Nghost:        1660.46 ave        1688 max        1631 min
Histogram: 3 1 4 6 8 7 10 4 3 2
Neighs:        9686.19 ave       10978 max        8185 min
Histogram: 1 2 2 6 11 7 8 7 3 1

Total # of neighbors = 464937
Ave neighs/atom = 116.23425
Neighbor list builds = 141
Dangerous builds = 11

#############################
# L I N E A R  Q U E N C H  #
#############################

# Define solid atoms. This closely follows ten Wolde  Ruiz-Montero and Frenkel  Faraday Discuss  1996  104  93-110
# Compute components of the per-atom q6 vector
compute q6 all orientorder/atom degrees 1 6 components 6 nnn NULL cutoff 1.3 # compute the Q6 parameter.
                                                                             # Use all neighbours within 1.3 unit cell.

# get number of connections
compute coord_number all coord/atom orientorder q6 0.5

# An atom is solid if it has 8 or more connections (of a possible 14)
variable is_solid atom c_coord_number>=8
group solid dynamic all var is_solid    # Must be dynamic to update
dynamic group solid defined

# do clustering
compute cluster solid cluster/atom 1.3 # Create a cluster where all atoms within are solid and max 1.3 units from another member

# define chunks one chunk per cluster
compute clus_chunks solid chunk/atom c_cluster nchunk every compress yes  # Says which atoms are in which chunk

# count the size of each chunk
compute size_chunks solid property/chunk clus_chunks count


# Find the maximum entry in the vector of chunk sizes
variable max_n equal max(c_size_chunks)


# Thermo style which includes this variable
# thermo_style custom step temp pe vol v_max_n

thermo ${N}  # Print the thermo information every 100 steps
thermo 1000  

# Reset the npt fix at a lower temperature (below freezing)
fix 1  all npt temp  ${temp} ${temp}  0.1  iso  5.68  5.68  0.5  mtk yes tchain  5  pchain  5
fix 1  all npt temp  0.45 ${temp}  0.1  iso  5.68  5.68  0.5  mtk yes tchain  5  pchain  5
fix 1  all npt temp  0.45 0.45  0.1  iso  5.68  5.68  0.5  mtk yes tchain  5  pchain  5

dump dmp2 all dcd ${N} traj.dcd
dump dmp2 all dcd 1000 traj.dcd


compute msd all msd com yes
variable twopoint equal c_msd[4]/6/(step*dt+1.0e-6)
fix 9 all vector 10 c_msd[4]
variable fit equal slope(f_9)/6/(10*dt)
thermo_style custom step temp pe c_msd[4] v_twopoint v_fit v_max_n

fix 1 all npt temp 1.25 ${temp} 0.1 iso 5.68 5.68 0.5 mtk yes tchain 5 pchain 5
fix 1 all npt temp 1.25 0.45 0.1 iso 5.68 5.68 0.5 mtk yes tchain 5 pchain 5
run 5000000 # 5000000  # Run for this many steps
Neighbor list info ...
  update every 1 steps, delay 10 steps, check yes
  max neighbors/atom: 2000, page size: 100000
  master list distance cutoff = 3.8
  ghost atom cutoff = 3.8
  binsize = 1.9, bins = 9 9 9
  4 neighbor lists, perpetual/occasional/extra = 1 3 0
  (1) pair lj/cut, perpetual
      attributes: half, newton on
      pair build: half/bin/atomonly/newton
      stencil: half/bin/3d
      bin: standard
  (2) compute orientorder/atom, occasional
      attributes: full, newton on
      pair build: full/bin/atomonly
      stencil: full/bin/3d
      bin: standard
  (3) compute coord/atom, occasional
      attributes: full, newton on
      pair build: full/bin/atomonly
      stencil: full/bin/3d
      bin: standard
  (4) compute cluster/atom, occasional
      attributes: full, newton on
      pair build: full/bin/atomonly
      stencil: full/bin/3d
      bin: standard
Per MPI rank memory allocation (min/avg/max) = 9.751 | 9.759 | 9.763 Mbytes
Step Temp PotEng c_msd[4] v_twopoint v_fit v_max_n 
   12000     1.240018   -6.2716109 5.196424e-30 3.6086276e-32 8.3333333e+20            3 
   13000    1.2704861    -6.299365   0.54796028 0.0035125658  0.045094828            3 
   14000    1.2381761   -6.2821907    1.0971078 0.0065304035  0.044438669            2 
   15000    1.2413994   -6.2550756    1.6416084 0.0091200464  0.045228322            2 
   16000    1.2540697   -6.2739739    2.1867665  0.011389408  0.045658364            5 
   17000    1.2631085    -6.271186    2.7063026  0.013266189  0.045163698            3 
   18000     1.243542   -6.2545124    3.2177138  0.014896823  0.044818312            2 
   19000    1.2425767   -6.2632102    3.6697862  0.016095553  0.043924328            2 
   20000    1.2320249   -6.2828081    4.1983998  0.017493332  0.043463568            2 
   21000    1.2358846   -6.2324842    4.7864142  0.018993707  0.043517618            2 
   22000    1.2193534   -6.2333907    5.3488903  0.020260948  0.043785762            4 
   23000    1.2347688   -6.2522366    5.8782667  0.021298067   0.04403672            1 
   24000    1.2436344     -6.29688    6.4011519  0.022226222   0.04413659            2 
   25000    1.2626421   -6.2387086    6.9902684  0.023300894  0.044282014            1 
   26000    1.2616199   -6.2990054    7.6611377  0.024554928  0.044616774            2 
   27000    1.2719025   -6.2223464    8.2808226  0.025558094  0.045094433            2 
   28000    1.2927711   -6.2699953    8.7136461   0.02593347  0.045363543            3 
   29000    1.2618983   -6.2628672    9.2832253  0.026675934  0.045461125            4 
   30000    1.2693568   -6.2236307    9.8106987   0.02725194  0.045521014            8 
   31000    1.2311899   -6.2455503    10.338666  0.027792114  0.045541362            1 
   32000    1.2461108   -6.2773484    10.953403  0.028524486  0.045630868            2 
   33000    1.2903452   -6.2458015    11.538901  0.029138638  0.045715201            2 
   34000    1.2637985   -6.2742874    12.084847  0.029619722  0.045785989            3 
   35000    1.2697575   -6.2850043    12.565297  0.029917373  0.045828292            2 
   36000    1.2348544   -6.2425141    13.017315  0.030132674  0.045805967            4 
   37000    1.2400477   -6.2687512    13.517274   0.03044431  0.045773801            4 
   38000    1.2378306   -6.2391356    14.100821  0.030922853  0.045686705            4 
   39000    1.2330054   -6.2600166     14.60164  0.031200085  0.045594139            1 
   40000    1.2785225   -6.2275717    15.268336  0.031809033  0.045533627            2 
   41000    1.2406435   -6.2193058    15.660073  0.031829416  0.045487707            5 
   42000    1.2186985   -6.2305017    16.213464  0.032169572  0.045408415            1 
   43000       1.2554   -6.2254425    16.714497  0.032392436  0.045341143            1 
   44000    1.2288205   -6.2512456    17.317224  0.032797773  0.045290595            1 
   45000    1.2372134   -6.2274088    17.901703  0.033151301  0.045266951            3 
   46000    1.2752295   -6.2918871    18.454597   0.03343224  0.045282745            2 
   47000    1.2471345   -6.2436791    19.094108  0.033854801  0.045315772            3 
   48000     1.220235   -6.2392142    19.711787  0.034221852    0.0453658            3 
   49000    1.2451416   -6.2474815    20.437248  0.034757224  0.045443231            2 
   50000     1.245151   -6.2436504    20.885105  0.034808509  0.045545886            2 
   51000     1.267486   -6.2805197    21.529981  0.035179708  0.045637951            2 
   52000    1.2373773   -6.2389651    21.941571  0.035162774  0.045680631            2 
   53000    1.2440736   -6.2881011    22.257055  0.034995369  0.045663517            1 
   54000    1.2333262   -6.2533637    22.898174  0.035336687  0.045655399            1 
   55000    1.2019393   -6.2800092    23.568974  0.035710566  0.045679605            2 
   56000    1.2630041   -6.2536265     24.19315  0.036001711  0.045707201            2 
   57000    1.2235416   -6.2256481    24.837567  0.036312232  0.045731822            2 
   58000    1.2352122   -6.2629165    25.166273  0.036158438  0.045753776            2 
   59000     1.269429   -6.2411222    25.753659  0.036375224  0.045762143            2 
   60000    1.2705272    -6.304334    26.401299   0.03666847  0.045798968            2 
   61000    1.2487761    -6.257692    27.021753  0.036914963  0.045848659            7 
   62000    1.2271029   -6.2606371    27.422908  0.036858748  0.045876122            3 
   63000    1.2415778    -6.256019    28.174449   0.03726779  0.045891827            4 
   64000    1.2392441   -6.2717755    28.655219  0.037311483  0.045921159            2 
   65000    1.2648089   -6.2572686    29.416313  0.037713222  0.045964797            3 
   66000    1.2265134   -6.3152255    29.972368  0.037843898  0.046020983            4 
   67000     1.256809   -6.2245382    30.445178  0.037867137  0.046056631            2 
   68000    1.2288046   -6.2734847    30.852531  0.037809474  0.046065958            3 
   69000    1.2421939   -6.2713048    31.364805  0.037880199  0.046064718            5 
   70000    1.2034421   -6.2627248    31.602807  0.037622389  0.046044042            5 
   71000    1.2491498   -6.2522166    32.193934  0.037786307  0.046004112            3 
   72000    1.2388939   -6.2611119    32.715156  0.037864764  0.045963956            1 
   73000    1.2510914   -6.2605516    33.144111  0.037835742  0.045921686            2 
   74000    1.2346915   -6.2800709    33.446052  0.037664473  0.045873384            3 
   75000    1.2424366    -6.294348    33.920682  0.037689647  0.045802855            2 
   76000    1.2655318   -6.2152667    34.633497  0.037975325  0.045733033            5 
   77000    1.2614867   -6.2708839    35.115471  0.038003756  0.045678138            2 
   78000    1.2370189   -6.2221161    35.759487  0.038204579  0.045628453            2 
   79000    1.2311412   -6.2527628    36.218852   0.03820554   0.04558053            2 
   80000    1.2465509   -6.2254544    36.749467  0.038280695  0.045533796            2 
   81000    1.2386546   -6.2794786    37.024834  0.038091392  0.045479388            3 
   82000    1.2048969   -6.2466658    37.572995  0.038183937  0.045415094            4 
   83000    1.2510787   -6.2571016    37.877438  0.038029556  0.045352261            1 
   84000    1.2574855   -6.2939706    38.620018   0.03831351  0.045282916            2 
   85000    1.2339474    -6.259046    39.121993  0.038354895  0.045230488            3 
   86000      1.23811   -6.2495376      39.5524  0.038325969  0.045178338            2 
   87000    1.2426055   -6.2894485    40.161261  0.038468641  0.045126766            2 
   88000    1.2666508   -6.2802255    40.556416  0.038405697  0.045077091            2 
   89000    1.2306391   -6.3079539    41.114765  0.038496971  0.045029537            4 
   90000    1.2261408   -6.2898271    41.519138  0.038443646  0.044980242            2 
   91000     1.220306   -6.2615482    42.419606  0.038845792  0.044936695            2 
   92000    1.2198327   -6.2653708    42.847028  0.038810714  0.044902073            1 
   93000    1.2120406   -6.2712003    43.305911   0.03880458  0.044866668            1 
   94000    1.2169781   -6.2636331    43.584413  0.038638664  0.044827179            2 
   95000    1.2492468   -6.3077528    44.175055  0.038750048  0.044789092            3 
   96000     1.263226   -6.3268514    44.876816  0.038955569  0.044761986            3 
   97000     1.236277   -6.2313572    45.601726   0.03917674  0.044738868            3 
   98000    1.2363252   -6.2922732    46.239398  0.039319215  0.044721384            2 
   99000    1.2417983   -6.3113802    46.406139  0.039062406  0.044695578            2 
  100000    1.2442936   -6.2527228    47.080997  0.039234164  0.044669648            2 
  101000    1.1934333   -6.2810989    47.400004  0.039108914  0.044634527            2 
  102000    1.1999901   -6.2127776    48.227921  0.039401896  0.044604844            1 
  103000    1.2454609   -6.2800865    48.727609  0.039423632   0.04458648            4 
  104000    1.2514562   -6.2590095    49.457916   0.03962974  0.044580482            1 
  105000    1.2386215   -6.2648013    49.834587  0.039551259   0.04457919            2 
  106000    1.2411545    -6.305493    50.536115   0.03972965  0.044575027            4 
  107000    1.2241787   -6.2391438    51.091722  0.039791061  0.044570196            2 
  108000    1.2625117   -6.2605416    51.772526  0.039947937  0.044573514            1 
  109000    1.2363828   -6.2526774    51.864934   0.03965209  0.044568526            3 
  110000     1.245027   -6.2563296    52.642104  0.039880381  0.044560458            2 
  111000    1.2418987   -6.2800202    53.363777  0.040062896   0.04456107            4 
  112000    1.2363981   -6.2870231    53.294894  0.039653939  0.044554101            2 
  113000    1.2386291   -6.2563023     53.97418  0.039803967   0.04453859            2 
  114000    1.2169594   -6.2523726    54.506385  0.039843849  0.044530738            2 
  115000    1.2520759   -6.2631353    54.967668  0.039831644   0.04451551            3 
  116000    1.2700198   -6.2844312    55.329344  0.039748092  0.044496192            2 
  117000    1.2399756   -6.2863226    55.967196  0.039862675  0.044477538            2 
  118000    1.2474224   -6.2437111    56.594045  0.039967546   0.04446102            2 
  119000    1.2158272   -6.2411394    57.269009  0.040104348    0.0444489            2 
  120000     1.226244   -6.2710435    57.692427  0.040064185  0.044440976            2 
  121000    1.2441252   -6.2700867       58.289  0.040143939  0.044432209            3 
  122000    1.2314043   -6.3308212    58.463953  0.039934394  0.044415116            3 
  123000    1.2346997   -6.2643758    58.900163   0.03990526  0.044395646            3 
  124000    1.2184358   -6.3062717    59.300006  0.039852154  0.044369426            1 
  125000    1.2023272   -6.2776409    59.915757  0.039943838  0.044345926            2 
  126000      1.22425   -6.2056507    60.627869  0.040097797  0.044326948            2 
  127000    1.2474009   -6.3032193     60.88859  0.039953143  0.044306698            3 
  128000    1.2504798   -6.3068189     61.43061  0.039993887  0.044280695            2 
  129000    1.2480384   -6.2990135    61.893596  0.039982943  0.044253953            7 
  130000    1.2352696   -6.2886745    62.429846  0.040019132  0.044228136            2 
  131000    1.2204626   -6.2691443      62.6755  0.039869911  0.044200852            2 
  132000    1.2389121   -6.3122329    63.514518  0.040097549  0.044174508            2 
  133000    1.2559526   -6.2903298    63.943608  0.040064917  0.044153553            4 
  134000    1.2236037   -6.2568407      64.6552  0.040208458  0.044135296            3 
  135000    1.2058739   -6.2501947    65.174374  0.040231095  0.044116561            2 
  136000    1.2273155    -6.304903    65.777834  0.040305045  0.044103102            2 
  137000    1.2186556   -6.2889191    66.193502  0.040263687  0.044092531            2 
  138000    1.2659959   -6.3018381      67.1864  0.040571498  0.044083457            3 
  139000     1.252618   -6.2722898    67.582799  0.040517266  0.044083643            4 
  140000    1.2256841   -6.2928616     67.98029  0.040464458  0.044076569            2 
  141000    1.2383304   -6.2981823    68.498464  0.040483726  0.044070818            6 
  142000     1.198509   -6.3046256    68.947851  0.040462354  0.044062956            2 
  143000    1.2252155   -6.3033878    69.809281  0.040681399  0.044064609            2 
  144000    1.2452438   -6.3097136    70.335478  0.040703401  0.044068423            3 
  145000     1.218135   -6.2844798    71.003139  0.040806401  0.044072716            3 
  146000    1.2139867   -6.3018551    71.387654  0.040746378  0.044077073            2 
  147000    1.2201909   -6.3039092    71.947001  0.040786282   0.04408405            1 
  148000    1.2324895   -6.2845281    72.428236  0.040781664  0.044085373            8 
  149000    1.2452435   -6.2936518    72.632671  0.040622299  0.044076742            2 
  150000    1.2046219   -6.3048672    73.370873  0.040761596  0.044065847            2 
  151000    1.2102399   -6.3049233    73.582922  0.040608677   0.04405486            2 
  152000    1.2207934   -6.3196763    74.224478  0.040693244  0.044045862            1 
  153000    1.2278052    -6.292912    74.640068  0.040653632  0.044037658            3 
  154000    1.2316152   -6.3075446    75.112811  0.040645461  0.044029388            2 
  155000    1.2399148   -6.2526352    75.807812  0.040756888  0.044021243            2 
  156000    1.2159994   -6.2616583    76.217967  0.040714726  0.044013727            3 
  157000    1.2337464   -6.2710732    76.655045  0.040687391  0.044005253            2 
  158000    1.2295786   -6.2924212    76.852466  0.040534001  0.043990772            1 
  159000     1.227539   -6.2824148    77.288757  0.040507734  0.043975368            2 
  160000    1.2317581    -6.320648    77.778738  0.040509759  0.043958602            2 
  161000    1.2301065   -6.2707238    78.655707  0.040712064  0.043945841            2 
  162000    1.2243587   -6.2873152    78.963684  0.040619179  0.043935463            2 
  163000    1.2340465   -6.3004083    79.747347  0.040770627  0.043927345            4 
  164000    1.2163153   -6.2926981    80.696864  0.041004504  0.043924423            1 
  165000    1.1962094    -6.273629    81.388977  0.041105544  0.043924174            2 
  166000    1.2363347   -6.2639602    81.788826  0.041058648  0.043925931            3 
  167000    1.1977118   -6.3006536    82.104494  0.040970306  0.043925768            2 
  168000    1.2240563   -6.3013588    83.314068  0.041326422  0.043927221            2 
  169000     1.229765   -6.2829098    83.932643  0.041386905  0.043934666            1 
  170000    1.2094166   -6.3075547    84.303703  0.041325344  0.043942485            2 
  171000    1.2213164   -6.2817506    84.777272   0.04131446   0.04395084            2 
  172000     1.217114   -6.3247528    85.182531  0.041270606  0.043958395            5 
  173000    1.2057167   -6.3017162     85.38424   0.04112921  0.043963672            2 
  174000     1.225881   -6.2761562    86.542731  0.041447668   0.04396877            1 
  175000    1.2442772   -6.2914806    87.094827  0.041473727  0.043975427            2 
  176000    1.2125958   -6.2824504     87.38313  0.041374588  0.043982059            1 
  177000     1.257145   -6.2443832    87.994621  0.041428729  0.043986682            4 
  178000    1.2478291   -6.2750927    88.828981  0.041586601  0.043995639            3 
  179000    1.2130588   -6.3265377    89.242576  0.041546823  0.044007731            3 
  180000    1.2125416   -6.2670872    90.030387  0.041680734  0.044019431            4 
  181000    1.2205941    -6.297467    90.337568  0.041591882  0.044032675            1 
  182000    1.2149069    -6.276194    90.893674  0.041617983   0.04404408            2 
  183000    1.2081605   -6.3000848    91.522667  0.041676988  0.044051863            4 
  184000    1.2084906   -6.3079952    91.953081  0.041645417   0.04406129            4 
  185000    1.2259992   -6.3534848    92.320285  0.041585714  0.044069881            2 
  186000    1.2406397    -6.302797    93.145398  0.041731809  0.044079159            3 
  187000    1.2558086   -6.2715622    94.054604  0.041913816  0.044091364            1 
  188000    1.2100521   -6.2957319    94.171918  0.041742871  0.044102245            3 
  189000    1.2105133   -6.2893645    94.531265  0.041680452  0.044107734            3 
  190000    1.2299806   -6.3313452    94.974475  0.041655472  0.044111566            3 
  191000    1.1977384   -6.3028823    95.183018  0.041528367  0.044111636            2 
  192000    1.2165189   -6.2914666    95.364875  0.041391005  0.044110419            2 
  193000    1.2544509   -6.3091762    95.945304   0.04142716  0.044106973            4 
  194000      1.21148    -6.335714    96.264252  0.041350624  0.044101743            3 
  195000    1.2322022   -6.3349784    96.358072  0.041178663  0.044095562            2 
  196000    1.2130584   -6.2854885     96.79059  0.041152461  0.044083501            2 
  197000    1.2303098   -6.2669454    97.548268  0.041264073  0.044071036            1 
  198000      1.19604   -6.3007172    98.056986  0.041269775  0.044060351            1 
  199000    1.2248139   -6.2812234    98.463654  0.041232686  0.044050391            1 
  200000     1.205196   -6.3413211    99.008829  0.041253679  0.044041109            6 
  201000    1.2232444   -6.2901621     100.1745  0.041531718  0.044033209            2 
  202000    1.2085924   -6.3124384    100.18425  0.041330135  0.044024119            1 
  203000    1.1994872   -6.2962088    100.58046  0.041289187  0.044014425            1 
  204000      1.20072   -6.3032146    101.19751  0.041338851  0.044001953            2 
  205000    1.2035382   -6.3395245    101.20779  0.041141379  0.043988614            3 
  206000    1.1982551   -6.2748429    101.62324  0.041109724  0.043973463            2 
  207000    1.2255805    -6.301404    102.05256  0.041083962  0.043955791            1 
  208000    1.2150492   -6.3136525    102.47221   0.04105457  0.043935896            2 
  209000    1.2276048   -6.3222982    102.78057  0.040981087  0.043916585            3 
  210000    1.1932681   -6.3130119    103.23354  0.040965689  0.043896495            2 
  211000    1.2199385   -6.3345176    103.55332  0.040897834  0.043875299            8 
  212000    1.2011689   -6.2786833    104.20228  0.040960017  0.043853638            1 
  213000     1.206863    -6.305188    104.26107  0.040790717   0.04382996            2 
  214000    1.2229658    -6.302203    104.81856  0.040817198  0.043804604            1 
  215000    1.2297293   -6.3005898    105.36762  0.040840162  0.043777833            4 
  216000    1.2436887    -6.285884    105.61235  0.040745505  0.043751145            2 
  217000    1.2363765   -6.2948237    105.99289  0.040703873  0.043724456            4 
  218000    1.1975212   -6.3331881    105.94884  0.040500321  0.043697948            2 
  219000    1.2669511   -6.2879812     106.9523  0.040697222  0.043669536            2 
  220000    1.2199876   -6.3122191    107.33162  0.040655916  0.043641785            2 
  221000     1.205593   -6.3440259    107.83464  0.040661631  0.043613803            3 
  222000     1.228909   -6.3415519     108.1043  0.040579694   0.04358465            2 
  223000    1.2347417   -6.3289026    109.03481  0.040745443  0.043558715            4 
  224000    1.2309863   -6.3250552    109.11106  0.040591911  0.043534644            1 
  225000    1.2262368   -6.2884851    109.59241  0.040589783  0.043509373            1 
  226000    1.2197893   -6.2890161    110.04574  0.040577337  0.043484316            1 
  227000    1.2343265   -6.3153423    110.86969  0.040701059  0.043459858            2 
  228000    1.2139469   -6.3069133    111.22283  0.040651619  0.043434994            3 
  229000    1.2389741    -6.330394    111.62643  0.040620973  0.043409561            3 
  230000    1.2241917   -6.2912923    112.17287  0.040642345  0.043384778            2 
  231000    1.2030834   -6.2874182    113.23355  0.040849043  0.043364358            2 
  232000    1.2329626   -6.2714969    114.12697  0.040993884  0.043348116            2 
  233000    1.1831483   -6.3132274    114.71924   0.04102977  0.043333482            1 
  234000     1.194703   -6.3024598    114.84903  0.040900653  0.043319988            1 
  235000    1.2383769     -6.29917    115.77179  0.041053826  0.043307369            3 
  236000    1.2323562   -6.2950655     116.5449  0.041152862  0.043296519            3 
  237000    1.2358555   -6.3152557    117.00866  0.041142287  0.043285209            3 
  238000    1.2058943   -6.3086209    117.29303  0.041068989  0.043272618            2 
  239000    1.2194736   -6.2888037    117.82098  0.041081233  0.043260397            2 
  240000    1.2106493   -6.2952509    118.38254   0.04110505  0.043249312            3 
  241000    1.2043539   -6.3217984    118.82109  0.041086132   0.04323816            3 
  242000    1.2433283   -6.2851628    119.42745  0.041125154  0.043225694            2 
  243000    1.2311345   -6.2948302    119.68082  0.041042807  0.043213394            2 
  244000    1.2113623    -6.319717     120.3352  0.041098087  0.043200789            1 
  245000    1.2110431    -6.327903    120.15913  0.040870452  0.043188695            4 
  246000    1.1788577    -6.320172    120.84574  0.040936902  0.043174888            1 
  247000     1.195457   -6.3212661    121.03782  0.040835973  0.043158484            3 
  248000    1.2328502   -6.2399276    121.24437  0.040740715  0.043141271            2 
  249000    1.2300542   -6.2694881    122.38982  0.040960447  0.043123945            2 
  250000    1.1915455    -6.311807    122.54217  0.040847392  0.043107268            3 
  251000    1.1920883   -6.3217233    122.60045  0.040703999  0.043090915            2 
  252000    1.2121317   -6.3303786    123.40866  0.040809741  0.043073729            2 
  253000    1.2211856   -6.3096901    123.76781  0.040766736  0.043056276            2 
  254000    1.2019351   -6.3214862    124.63774  0.040891646  0.043040598            2 
  255000    1.2196579   -6.3244382    124.59414  0.040717039   0.04302334            3 
  256000    1.2079507   -6.3036754    125.76893  0.040940408  0.043005485            3 
  257000    1.2094607   -6.3015298    126.13475  0.040899724  0.042988027            1 
  258000    1.2028891   -6.3213921    126.15056  0.040746304  0.042973064            2 
  259000    1.2231561   -6.3270718    126.74949   0.04078169  0.042956856            3 
  260000    1.2096282   -6.2814368    127.38129  0.040827337  0.042941397            1 
  261000    1.1922367   -6.3328885    127.62549  0.040748879  0.042926656            3 
  262000    1.2191787   -6.3391918    128.14144  0.040757456  0.042911678            3 
  263000    1.2020877   -6.3383996    129.23526  0.040949067  0.042896499            3 
  264000    1.2193654   -6.3518741    129.37611  0.040838419  0.042881724            1 
  265000    1.2045582   -6.3049291    129.82999   0.04082704  0.042868128            2 
  266000     1.213282   -6.2929125    130.18498  0.040784769  0.042852446            3 
  267000    1.2148471   -6.3232238    130.65548  0.040778864  0.042837366            2 
  268000    1.2098972   -6.2810799    131.21504  0.040800697  0.042821245            3 
  269000    1.1622753   -6.2991493    131.29556  0.040673966  0.042804971            4 
  270000    1.1962289   -6.3705006    131.46683  0.040576183  0.042787082            2 
  271000    1.1968733    -6.325598    132.06756  0.040611181  0.042768721            2 
  272000    1.2058736   -6.3296548    132.60922  0.040627826  0.042751357            3 
  273000    1.2005898   -6.3181835    133.17459  0.040651585  0.042733304            4 
  274000    1.2047149   -6.2968166    133.25212  0.040526801  0.042713198            4 
  275000    1.1810195   -6.3143127    133.73117  0.040524597  0.042692271            1 
  276000    1.2174288   -6.3343356    134.14754  0.040503484  0.042672989            3 
  277000    1.2311907   -6.2922303    135.42948  0.040742924  0.042654183            3 
  278000    1.2186389   -6.3227697    134.61487  0.040352178  0.042635208            2 
  279000    1.2141371    -6.343944    136.12139  0.040657525  0.042616372            5 
  280000    1.2206214   -6.3316314    136.32583  0.040573162  0.042597707            3 
  281000    1.1763946   -6.3233109    136.63384   0.04052012  0.042579282            3 
  282000    1.2005474   -6.3309119    137.36009  0.040591042  0.042560616            6 
  283000    1.2224956   -6.3278666    137.63956  0.040529905  0.042542086            2 
  284000     1.186309    -6.347537    138.69252  0.040696161  0.042525927            3 
  285000    1.1987934   -6.3375832     138.9449  0.040627164  0.042511909            1 
  286000    1.2059738   -6.3552586    139.66461  0.040694816  0.042497409            2 
  287000    1.2148213   -6.3325902    140.02878  0.040658764  0.042483617            2 
  288000     1.211576   -6.3455638    140.51342  0.040657818  0.042468834            2 
  289000    1.2041737   -6.3292685    140.18777  0.040423233  0.042452686            2 
  290000    1.1698423   -6.2782357    141.17967   0.04056887  0.042434936            1 
  291000    1.2076075   -6.3787392    141.03631  0.040388405   0.04241758            3 
  292000      1.20678   -6.3307652    141.50338  0.040383385  0.042400076            3 
  293000    1.1932015   -6.2741834    141.98973  0.040383883  0.042381615            4 
  294000    1.2253025   -6.3675825    142.43025  0.040371385  0.042362884            1 
  295000    1.1963749   -6.3470404    142.41378  0.040229881   0.04234415            3 
  296000    1.1830278   -6.3245986    143.11696  0.040291937  0.042324543            2 
  297000    1.2082552      -6.3666    143.45619  0.040251457   0.04230473            2 
  298000    1.2071207   -6.3630746    144.11293  0.040300036  0.042285036            1 
  299000    1.2183059   -6.3489799    144.51459  0.040277199  0.042266867            1 
  300000    1.1836151   -6.3562499    145.40859  0.040391275  0.042246636            2 
  301000    1.2214434   -6.3565213    146.06747    0.0404395  0.042228363            5 
  302000    1.2022042   -6.3796404    145.95164  0.040273632   0.04221087            2 
  303000    1.1931843   -6.3474901    147.03129  0.040437649  0.042192419            2 
  304000    1.1973983   -6.3363459    147.17573  0.040344225  0.042174768            3 
  305000     1.216682   -6.3325551    147.78075  0.040377255   0.04215746            3 
  306000     1.182921   -6.3351283    147.99235  0.040302927   0.04214061            3 
  307000    1.2230924    -6.320619    148.62487  0.040343342  0.042124535            5 
  308000    1.1870201   -6.3157031    149.12137   0.04034669  0.042107313            1 
  309000    1.1743212   -6.3423681    149.21761  0.040242074  0.042089934            3 
  310000    1.1883404    -6.362769    150.24476  0.040388376  0.042074063            2 
  311000      1.20496   -6.3261715    151.21524  0.040518554  0.042058652            1 
  312000    1.1849648   -6.3544456    151.00682  0.040333019  0.042044647            3 
  313000    1.1911219   -6.3694061    151.59672  0.040361213  0.042030596            2 
  314000    1.1973549    -6.347222    152.31504  0.040423311   0.04201603            3 
  315000    1.1985794   -6.3361128    152.73588  0.040406316   0.04200248            3 
  316000    1.1973602   -6.3194324    153.06982  0.040366514  0.041988394            3 
  317000    1.2006493   -6.3465554    153.53005   0.04036016  0.041974059            3 
  318000     1.190567   -6.3568066    153.51542  0.040229407  0.041958493            2 
  319000    1.1953215   -6.3653411    153.97914  0.040224435  0.041942328            3 
  320000     1.210183   -6.3503567    154.64459   0.04027203  0.041925916            2 
  321000    1.1758692   -6.3328468    154.77576  0.040180622  0.041910615            3 
  322000    1.1910851   -6.3595651    155.93804  0.040356635  0.041895218            3 
  323000    1.2168192   -6.3393364    156.00223  0.040248253  0.041881449            3 
  324000     1.190303   -6.3108592    156.65489  0.040291897  0.041867591            1 
  325000    1.1930244   -6.3540546    157.34367  0.040344531  0.041854113            2 
  326000    1.1899692   -6.3993922    157.80938  0.040339821  0.041842198            2 
  327000    1.2059397   -6.3059841    158.56187  0.040408223  0.041830254            1 
  328000     1.204924   -6.3410852    158.87188  0.040363791  0.041818857            2 
  329000    1.1929855   -6.3046987    159.71519  0.040454708   0.04180648            5 
  330000    1.2079215   -6.3355984    160.47127  0.040523049  0.041795143            2 
  331000    1.2257719   -6.3355847    160.48431  0.040403905   0.04178485            2 
  332000     1.218928    -6.377717    160.10869  0.040187925  0.041772536            2 
  333000     1.175766   -6.3507739    160.83922  0.040250054  0.041759601            4 
  334000    1.1878727   -6.3614847    161.53709  0.040303665  0.041747307            4 
  335000    1.2148514   -6.3155823    162.08899  0.040320645  0.041735371            3 
  336000      1.19878   -6.3470251    162.22503  0.040234383  0.041722968            2 
  337000    1.2117255   -6.3525145    163.37014  0.040398154  0.041710651            3 
  338000    1.1777869   -6.3127001    163.54836  0.040322574  0.041697745            2 
  339000    1.2065178   -6.3432777    164.83334  0.040519503  0.041687084            4 
  340000    1.2179636   -6.3295408    164.59317  0.040341462   0.04167629            2 
  341000    1.1673341   -6.3432764     164.9929  0.040320845  0.041665782            2 
  342000    1.1946505   -6.3736269    165.79661  0.040398784  0.041655722            3 
  343000    1.1954872   -6.2973074    166.50994  0.040454311  0.041645649            3 
  344000    1.2062469   -6.3123707    167.11078  0.040482262  0.041636706            3 
  345000    1.1858637   -6.3679165    167.23375  0.040394627  0.041629393            3 
  346000    1.1938339   -6.3266152     168.4091  0.040560959  0.041622328            2 
  347000    1.1834387   -6.3638855    168.51827  0.040470285  0.041616085            1 
  348000    1.1901212   -6.3271229    169.59075  0.040610812  0.041608686            2 
  349000    1.1983748   -6.3304387    170.33536  0.040672244  0.041602768            4 
  350000     1.168733   -6.3434419     169.9073  0.040454119  0.041596055            2 
  351000    1.1849879   -6.3756298    169.96708  0.040353059  0.041587356            1 
  352000    1.2101875    -6.325237    170.96981  0.040475807  0.041578035            4 
  353000    1.1935212   -6.3335396    171.09887  0.040391612  0.041567377            4 
  354000    1.1977497   -6.3421827    171.22703   0.04030768  0.041557347            5 
  355000    1.1960833   -6.3593716     171.6351  0.040289928  0.041548638            2 
  356000    1.1970641   -6.3370462    172.77586  0.040443787  0.041541689            3 
  357000    1.2066624   -6.3172416     173.9728  0.040609898  0.041535094            2 
  358000    1.1856771   -6.3383059    174.19655  0.040548545  0.041528182            3 
  359000    1.2036148   -6.3298363    174.03005  0.040396948  0.041520755            1 
  360000    1.1916034   -6.3577086    174.57108  0.040409972  0.041512405            4 
  361000    1.2001931   -6.3366673     175.3556  0.040479133  0.041503914            3 
  362000    1.1894687    -6.304825    175.00452  0.040286493  0.041495772            5 
  363000    1.2060742   -6.3249872    176.14324  0.040436923  0.041487641            1 
  364000    1.2040614   -6.3221675    176.48467  0.040403999  0.041478987            2 
  365000    1.1931128   -6.3394202    176.74155  0.040351951   0.04147113            5 
  366000    1.1677548   -6.3510744    177.59541  0.040436114  0.041463069            4 
  367000    1.1988417   -6.3379116    177.51958  0.040308714  0.041454701            2 
  368000    1.1924276   -6.3481093    178.34308  0.040385661  0.041446797            4 
  369000      1.17269   -6.3787255    178.71232  0.040359603  0.041438118            4 
  370000    1.2139948   -6.3946366    178.79881  0.040270002  0.041430233            5 
  371000    1.1965123   -6.3662286    179.91884  0.040413037  0.041423016            3 
  372000    1.1957647   -6.3726258    180.09497  0.040343855  0.041415717            5 
  373000     1.202234   -6.3301204    180.57427  0.040342776  0.041408763            3 
  374000    1.2102215   -6.3510376    181.29702  0.040395948   0.04140243            2 
  375000    1.1898577    -6.339479    182.15824   0.04047961    0.0413963            4 
  376000    1.1806906    -6.349719    182.43572  0.040433449  0.041389236            2 
  377000    1.1846784   -6.3570708    183.31695  0.040520989  0.041382569            3 
  378000    1.2048318   -6.3607339    183.31242  0.040412791  0.041376588            3 
  379000    1.1800677   -6.3659417    183.62654  0.040375228   0.04137116            2 
  380000    1.2084665   -6.3596023    184.00491  0.040351953  0.041365287            2 
  381000    1.1952614   -6.4060126    184.31267  0.040313357   0.04135927            2 
  382000    1.2010791   -6.3477345    185.60387    0.0404895  0.041354274            3 
  383000    1.1822562   -6.3423907    187.17081   0.04072472   0.04135103            3 
  384000     1.214005   -6.3983607    186.56884  0.040488029  0.041348552            3 
  385000    1.1983343   -6.3346716     187.5712  0.040599828  0.041345543            2 
  386000    1.2155651   -6.3467889    188.79252  0.040758316  0.041343593            2 
  387000    1.1665132   -6.3547197    189.20189  0.040741148  0.041342321            2 
  388000    1.1800516   -6.3467618    189.96462  0.040799961  0.041341835            2 
  389000    1.1877255    -6.355234    190.47603  0.040804633  0.041341094            4 
  390000     1.188602   -6.3686949    190.95208  0.040801725  0.041341226            3 
  391000    1.1765149   -6.3556982    191.52066  0.040818555  0.041341269            2 
  392000    1.1880947   -6.3584591    191.77477  0.040768445  0.041340402            6 
  393000    1.2229023   -6.3633726    191.92989  0.040697602  0.041339519            2 
  394000    1.1816687   -6.3659627    192.49959  0.040714802  0.041337699            1 
  395000    1.2129834    -6.365696    192.98084  0.040713257  0.041335947            3 
  396000    1.1793361   -6.3613707     193.0069  0.040615929    0.0413346            2 
  397000    1.1892977   -6.3199302    193.10764   0.04053477  0.041331673            1 
  398000    1.2231924   -6.3237457    194.10969  0.040642731  0.041329824            2 
  399000    1.1622628   -6.3356359    194.96617  0.040719752  0.041327649            3 
  400000    1.1735053   -6.3576159    194.87058  0.040598037  0.041326309            1 
  401000    1.2032474   -6.3527907    196.07125  0.040746311  0.041323544            3 
  402000    1.1658859   -6.3656814    196.45913  0.040725359  0.041322171            3 
  403000    1.1765426   -6.3666681    196.88417  0.040712193  0.041320049            3 
  404000    1.1621717   -6.3784443    196.91465  0.040617708  0.041318711            2 
  405000    1.1899842   -6.3543706    197.49817  0.040637483  0.041316485            7 
  406000    1.1780077   -6.3443542     198.4417  0.040731054  0.041314561            3 
  407000    1.1799193   -6.3528009    197.99298  0.040539103  0.041312249            2 
  408000    1.2036308   -6.3263663    198.48495  0.040540227  0.041308918            1 
  409000    1.1693733   -6.3241554    198.70764  0.040486479  0.041304797            6 
  410000    1.2085628   -6.3299572    199.05494   0.04045832  0.041299928            2 
  411000    1.1773599   -6.3872038    200.05557  0.040562767   0.04129538            5 
  412000    1.1894077   -6.3674343      200.632  0.040580907  0.041290729            2 
  413000    1.1782141   -6.4032698    200.92699   0.04054217   0.04128841            3 
  414000    1.2051232   -6.3664953     202.8081  0.040822887  0.041286584            5 
  415000    1.2096938   -6.3944355    202.42916  0.040648425   0.04128496            3 
  416000      1.20134   -6.3567237    202.70828  0.040606627  0.041283742            3 
  417000    1.1802143   -6.3723768    203.74594  0.040716614  0.041281995            6 
  418000    1.1840289   -6.3864155     203.2162  0.040513596  0.041279204            1 
  419000    1.1699335   -6.3370449    204.70019   0.04071205  0.041276603            2 
  420000    1.1898722   -6.3659042    204.36483  0.040548578  0.041272427            2 
  421000    1.1814627   -6.3348882    205.20574  0.040618714  0.041269043            2 
  422000    1.1699553   -6.3883345     205.3671  0.040554325  0.041265685            3 
  423000    1.2073278   -6.3700821    205.57672  0.040499747  0.041261617            2 
  424000     1.217067   -6.4023612    204.92831   0.04027679  0.041257111            3 
  425000     1.177663    -6.373091    206.17997  0.040427446  0.041252182            2 
  426000    1.1872361   -6.3721101     207.2486  0.040541589  0.041247879            3 
  427000    1.1653721   -6.3207387    208.44308  0.040679757  0.041244091            2 
  428000    1.1939816   -6.3837036    207.96018   0.04049069  0.041240632            2 
  429000    1.1712321   -6.3608755    209.18572  0.040634368  0.041237393            5 
  430000    1.1754797   -6.4180914     208.3777  0.040383276  0.041233807            3 
  431000    1.1812198   -6.3494043    209.97677  0.040598757  0.041229406            2 
  432000    1.1609452   -6.3574995    209.97331   0.04050411  0.041225065            3 
  433000    1.1995835    -6.359533     210.3489  0.040482851  0.041221206            1 
  434000     1.194642   -6.3638424    211.41798  0.040594851  0.041217862            3 
  435000    1.1808725   -6.3412033    211.54764  0.040526368  0.041214868            9 
  436000    1.1794667    -6.356458    212.02159  0.040524005  0.041211781            4 
  437000    1.1945572   -6.3889905    212.18995  0.040463377    0.0412089            5 
  438000    1.1464017   -6.3945135    212.57775  0.040444777  0.041205325            2 
  439000     1.190819   -6.4239665    213.60988  0.040548572  0.041201852            2 
  440000    1.1653847   -6.3666686    213.67187  0.040468157  0.041199748            2 
  441000    1.1916935   -6.3651592    215.01663  0.040630505  0.041197251            2 
  442000    1.1928028   -6.3879759    215.02175  0.040539546  0.041193888            2 
  443000    1.1933778   -6.3850556    216.20658  0.040670914  0.041190624            2 
  444000    1.1774256   -6.3563519    215.26814   0.04040318  0.041187982            4 
  445000    1.1967999   -6.3511244     216.1058   0.04046925  0.041184978            4 
  446000    1.1745698   -6.3557371    216.37375  0.040428578   0.04118065            3 
  447000    1.1760737   -6.3666135    216.65151  0.040389915  0.041176397            3 
  448000    1.1843233    -6.337525    217.33647   0.04042717   0.04117154            1 
  449000    1.1844232    -6.373993    217.80887  0.040424809  0.041166736            2 
  450000    1.1974425   -6.3521098     217.3852  0.040256518  0.041161992            4 
  451000    1.1507727   -6.3960226    218.61004  0.040393578  0.041156827            6 
  452000    1.1466514   -6.3820347    219.17568  0.040408495  0.041152325            2 
  453000    1.1715296   -6.3666026    219.63299   0.04040342  0.041147613            2 
  454000    1.1818992   -6.3659514    220.53679  0.040480322  0.041143443            1 
  455000    1.1903843    -6.381884    219.98739  0.040290731   0.04113797            4 
  456000    1.1971242   -6.3517643    220.71371  0.040335107   0.04113301            3 
  457000    1.1810072   -6.3749257    220.64756  0.040234784    0.0411273            2 
  458000    1.1629089   -6.3597656    221.70607  0.040339532  0.041121486            4 
  459000    1.1751889   -6.3764909    222.40683  0.040378873  0.041115948            2 
  460000    1.1793965   -6.3737768    222.68564  0.040341601  0.041111069            4 
  461000    1.1760362   -6.3647918    223.24013  0.040354326  0.041106177            4 
  462000    1.1922744   -6.3943928    222.95086  0.040214801  0.041100341            2 
  463000    1.1749884   -6.4025675    224.53249  0.040412615  0.041095131            1 
  464000    1.2054375   -6.3639053    224.73778  0.040362389  0.041089943            2 
  465000      1.16154   -6.3730621    225.27668  0.040372165  0.041084819            4 
  466000    1.2012498   -6.3601963    226.04335  0.040422631  0.041079611            3 
  467000     1.192078    -6.422137    226.31508  0.040384561  0.041074582            4 
  468000    1.1788165   -6.4200552    226.38256  0.040310284  0.041069735            3 
  469000    1.1619486   -6.3682764    227.73597  0.040464813  0.041065616            3 
  470000    1.1742129   -6.3561286    228.87014  0.040579812  0.041062502            5 
  471000    1.1911678   -6.3496329    228.38843  0.040408428  0.041059495            4 
  472000    1.1540011    -6.387554    228.27593  0.040302953  0.041055611            4 
  473000    1.1707117    -6.410518    228.75593  0.040302314  0.041051327            1 
  474000    1.1593423   -6.4115394    229.86886   0.04041295  0.041047368            3 
  475000    1.1759094   -6.4203913    229.50118  0.040263365  0.041043704            2 
  476000    1.1639677   -6.3797269    231.07341  0.040454029  0.041039017            4 
  477000     1.174438   -6.3420504    231.64175   0.04046851  0.041035571            4 
  478000    1.1790222   -6.3971907    231.09192  0.040287992  0.041031361            3 
  479000    1.1550796   -6.3735021    232.22036  0.040400202  0.041026927            2 
  480000    1.1678503   -6.4064286    232.19148  0.040311021  0.041022994            2 
  481000    1.1927415   -6.3699158    233.26852  0.040413811   0.04101942            2 
  482000    1.1691018   -6.3784795    233.03236  0.040289136  0.041015563            1 
  483000    1.1754488   -6.3555565    233.81391  0.040340565  0.041010947            1 
  484000    1.1756282   -6.3830312    234.75831  0.040419819  0.041006719            2 
  485000    1.1611009   -6.4050556    234.77239  0.040338899  0.041001877            2 
  486000    1.1809365   -6.3694113    235.19083  0.040327646  0.040997199            2 
  487000    1.1601817   -6.3585899    235.53014  0.040302899  0.040992227            3 
  488000    1.1794652   -6.3655339    235.60291  0.040232738  0.040986764            5 
  489000    1.1654326   -6.4053571    236.64584  0.040328194  0.040981597            3 
  490000    1.1821197   -6.3646991    236.88897   0.04028724   0.04097683            1 
  491000    1.1498165   -6.4158224    236.89094  0.040205522  0.040972476            3 
  492000    1.1761904   -6.4145774    237.07632  0.040155202  0.040967712            3 
  493000    1.1792993   -6.3877831    238.15851  0.040256678  0.040963116            3 
  494000    1.1896227   -6.4061506    238.56337  0.040243484  0.040958649            2 
  495000    1.1425936   -6.4190217    239.10611  0.040253554  0.040954071            3 
  496000    1.1731878   -6.3454309    240.13961  0.040346036  0.040949831            2 
  497000     1.162775   -6.3844511    241.03209  0.040414502  0.040945602            1 
  498000    1.1675015   -6.4048318    240.98736  0.040325864  0.040941054            2 
  499000    1.1929496   -6.3831075      241.568  0.040342017  0.040936736            3 
  500000    1.1633192   -6.3907182    242.13467  0.040355779  0.040932938            1 
  501000    1.1706051   -6.3838023    242.22865  0.040290861  0.040929609            1 
  502000    1.1698036    -6.375173     242.7697  0.040300414  0.040926237            2 
  503000    1.1794517   -6.3778837    243.96461  0.040418259  0.040922748            6 
  504000    1.1513127   -6.4158647    243.64072   0.04028451  0.040919053            3 
  505000    1.1618003   -6.3992849    244.25722  0.040306471  0.040915188            2 
  506000    1.1582599   -6.4301717    243.76325  0.040145463  0.040910753            2 
  507000    1.1674057   -6.3896719    243.90411  0.040089433  0.040905158            2 
  508000    1.1941021   -6.4097926    244.38825  0.040089935  0.040899821            4 
  509000    1.1610791   -6.4039017    245.76389  0.040236393  0.040893985            4 
  510000    1.1448311    -6.374222    245.94865  0.040187688  0.040888684            3 
  511000     1.179351   -6.3718997    246.41815  0.040185608  0.040883162            2 
  512000    1.1764028   -6.4165232    247.10562  0.040219014  0.040877205            2 
  513000    1.1914174   -6.3959932    247.29988   0.04017217  0.040871252            3 
  514000    1.1835525   -6.3628086    247.19793  0.040077485  0.040865316            2 
  515000    1.1643962   -6.4127376    247.69935    0.0400808  0.040859265            2 
  516000     1.173641   -6.3739799    248.90303  0.040197518  0.040853938            1 
  517000    1.1877518   -6.3996778    248.86942  0.040114349  0.040847733            5 
  518000     1.156134   -6.3675388    248.59557  0.039992852  0.040841106            1 
  519000    1.1743186   -6.4263903    249.67785  0.040089571  0.040834138            4 
  520000    1.1926216   -6.4113775    249.55037  0.039992046  0.040827218            2 
  521000    1.1716774   -6.3936836    249.86232  0.039965182  0.040820071            3 
  522000    1.1476079   -6.3827782    250.32683  0.039962776  0.040813346            4 
  523000    1.1718843   -6.3762135    251.63363  0.040094587  0.040806165            3 
  524000    1.1726453   -6.4428608     249.6675  0.039705391  0.040798977            5 
  525000    1.1768124   -6.3890129    253.40092  0.040222368  0.040792025            2 
  526000     1.156799   -6.3909872    252.97895  0.040079048  0.040786081            6 
  527000    1.1891926   -6.4023891    252.71623  0.039961453   0.04077931            2 
  528000    1.1658675   -6.4139023    253.71824  0.040043915  0.040773203            6 
  529000    1.1782774   -6.3903592    254.56153   0.04010106  0.040766895            3 
  530000    1.1614492   -6.3747475    254.05175  0.039945244   0.04075944            3 
  531000    1.1853108   -6.3962993    254.38082   0.03992166  0.040752293            3 
  532000    1.1752143   -6.3911001    255.85044  0.040076824  0.040745469            2 
  533000     1.173856    -6.433959    255.67561  0.039974299  0.040738405            3 
  534000    1.1541026   -6.3628926    255.79179  0.039917571  0.040731184            5 
  535000     1.168645   -6.3829411    257.18086  0.040059323  0.040724228            6 
  536000    1.1453426   -6.4199333    256.55863  0.039887847  0.040717288            3 
  537000    1.1562412   -6.3875617    257.08057  0.039894565  0.040710122            1 
  538000    1.1659188   -6.3543176    257.92485  0.039951185  0.040703413            2 
  539000    1.1649888   -6.4258773    257.02453  0.039737868  0.040695907            7 
  540000      1.16218   -6.3898225    258.39524  0.039875808  0.040687624            2 
  541000    1.1734009   -6.4253308    258.02271  0.039744718  0.040679961            3 
  542000    1.1679093   -6.3951124    259.17472  0.039848511  0.040671698            2 
  543000    1.1679688   -6.4253984    258.82166  0.039720943  0.040663689            1 
  544000    1.1759053   -6.3973298    259.05194  0.039683201  0.040654642            3 
  545000    1.1586684   -6.3991265    258.90276  0.039587578  0.040645415            4 
  546000     1.188847   -6.3979372    259.62799  0.039625761  0.040635574            2 
  547000    1.1453811   -6.3968635    260.00981  0.039611488   0.04062601            4 
  548000    1.1505249   -6.3888355    261.14263   0.03971147  0.040617022            5 
  549000    1.1772578    -6.401316    260.54516  0.039548446  0.040607436            1 
  550000    1.1393428   -6.3984827    261.82073  0.039669807  0.040597378            2 
  551000    1.1691726   -6.3791081    261.62432  0.039568106  0.040587655            3 
  552000    1.1750194   -6.4039223    262.25399  0.039591485  0.040578234            2 
  553000    1.1740767   -6.4364867    262.47881  0.039553769  0.040569081            5 
  554000    1.1565203   -6.4234333    262.83153  0.039535428  0.040559713            3 
  555000    1.1891771   -6.3884291    263.56357  0.039574109  0.040550458            1 
  556000    1.1637964   -6.4154848    263.99941  0.039568257  0.040540753            5 
  557000     1.156237   -6.4310194    264.09781  0.039511941  0.040530755            2 
  558000    1.1634005   -6.3788791    264.42941  0.039490653  0.040520569            2 
  559000    1.1429824    -6.403002     265.6789  0.039606276  0.040510488            4 
  560000    1.1789513   -6.4071742     265.2913  0.039477872  0.040500543            6 
  561000    1.1701124   -6.4205597    264.85242  0.039342308   0.04049045            8 
  562000    1.1732986   -6.4189877    266.51308  0.039518547  0.040480555            2 
  563000    1.1911109   -6.3960458    266.73525   0.03948124  0.040470772            1 
  564000    1.1552604   -6.4180956    267.11462   0.03946729  0.040460589            5 
  565000    1.1712132   -6.3765923    267.24461   0.03941661  0.040450323            5 
  566000    1.1555135   -6.3812794    267.74567  0.039420741  0.040439712            3 
  567000     1.153198   -6.3889468    268.32022  0.039435658  0.040429157            3 
  568000    1.1492069   -6.4198759    268.56027  0.039401448  0.040418925            3 
  569000    1.1791429   -6.4153657    269.55211  0.039477461  0.040409319            2 
  570000    1.1531531   -6.4014168     269.9777  0.039470425  0.040400453            1 
  571000    1.1890899   -6.4312712     271.1333  0.039569951  0.040391561            3 
  572000    1.1349243   -6.3913259    271.40811  0.039540808  0.040382519            2 
  573000    1.1411422   -6.4220473    271.02298  0.039415791  0.040373549            3 
  574000    1.1446387   -6.4246942    271.41544  0.039404101  0.040364116            5 
  575000    1.1493942   -6.4143723    272.07223  0.039430758  0.040354361            3 
  576000    1.1337641   -6.4168975    272.25521  0.039388774  0.040345042            2 
  577000    1.1518791   -6.3985055      273.513  0.039502167  0.040336271            6 
  578000    1.1506911   -6.4459851    273.50537  0.039432723  0.040327527            5 
  579000    1.1304245     -6.41757    273.13357  0.039311106   0.04031842            3 
  580000    1.1769345   -6.4074873    274.93173  0.039501685  0.040309857            3 
  581000    1.1397342    -6.399678    274.94926   0.03943621  0.040300572            1 
  582000    1.1396038   -6.4129619    275.49422  0.039446481  0.040291574            1 
  583000    1.1955985   -6.4228575    276.12504  0.039468988  0.040283077            3 
  584000    1.1454743   -6.3800992    276.04244  0.039389617  0.040274979            2 
  585000     1.155613   -6.4021045    276.86054  0.039438824  0.040266678            3 
  586000    1.1234545   -6.4472633    276.93844    0.0393826  0.040258524            5 
  587000    1.1631218   -6.4224978    277.49763  0.039394894  0.040249676            3 
  588000    1.1487434   -6.4642626     276.5028  0.039186904  0.040240409            4 
  589000    1.1623321   -6.3831147    277.80616  0.039304777   0.04023109            3 
  590000    1.1725742   -6.3980674    278.01083  0.039267066  0.040221244            2 
  591000    1.1378237   -6.4258438    279.05622  0.039348029  0.040211582            4 
  592000    1.1899724   -6.4114013    279.69103  0.039370922  0.040201627            3 
  593000    1.1611753   -6.3992281    279.16233  0.039230233  0.040192639            1 
  594000    1.1344742   -6.4272984    278.57412  0.039081666  0.040183112            2 
  595000    1.1531795    -6.433882    279.74115  0.039179433  0.040173135            6 
  596000    1.1699056    -6.403323    280.35895  0.039200078  0.040162632            3 
  597000    1.1665009   -6.4137423    281.26264  0.039260559  0.040152891            1 
  598000    1.1556053    -6.401244    282.01385  0.039299588  0.040143524            4 
  599000    1.1291338   -6.4145208    282.74186  0.039335262  0.040133938            4 
  600000     1.162347   -6.4008798    283.39904  0.039360977  0.040125014            4 
  601000     1.152856   -6.4274382    282.99015   0.03923879  0.040116423            6 
  602000    1.1612296   -6.4176927    283.90172  0.039299796   0.04010824            3 
  603000    1.1293168   -6.4539858    283.18159  0.039135101  0.040099565            2 
  604000    1.1575052   -6.4185741    284.38114  0.039235808  0.040090682            4 
  605000    1.1353737   -6.4407757     284.5101   0.03918872  0.040081744            2 
  606000    1.1640754   -6.3988451    286.15512  0.039350265  0.040073172            3 
  607000    1.1424105   -6.3749223    286.63502   0.03935132  0.040065005            3 
  608000    1.1345638   -6.4326505    287.35616  0.039385439  0.040057251            5 
  609000    1.1433211   -6.4189624    286.90494  0.039259023  0.040049278            2 
  610000    1.1487902   -6.4408405    287.63928  0.039294983  0.040041606            1 
  611000    1.1202302   -6.4278289    287.87136  0.039262324  0.040033524            3 
  612000    1.1647825   -6.4111777    287.89013  0.039200726  0.040025861            3 
  613000    1.1869039   -6.4341293    288.57583  0.039229993  0.040018045            2 
  614000    1.1644471   -6.4362784    290.49503  0.039426578  0.040010265            3 
  615000    1.1387983    -6.395099    290.51054  0.039364572  0.040002823            4 
  616000    1.1553682    -6.464499    289.66918  0.039186847  0.039995403            2 
  617000    1.1533618    -6.427988    289.98965   0.03916662  0.039987444            2 
  618000    1.1354409   -6.4511263    290.90811  0.039227091    0.0399798            3 
  619000    1.1581516    -6.434581    291.62655   0.03926044  0.039972139            3 
  620000    1.1471311    -6.475073    292.64567  0.039334096  0.039964561            3 
  621000    1.1229596    -6.417848    292.35901  0.039232288  0.039956898            5 
  622000    1.1726112    -6.424156     292.1633  0.039142994  0.039949471            4 
  623000    1.1494171   -6.4255846    293.42907  0.039249474  0.039941609            5 
  624000    1.1778083   -6.4153139    294.14966  0.039282807  0.039933724            5 
  625000    1.1543656   -6.4598683    293.10696  0.039080928  0.039925428            4 
  626000    1.1527871   -6.4529711    293.55568  0.039078232  0.039916944            3 
  627000    1.1234793   -6.4406361    294.70872  0.039169154  0.039908565            3 
  628000    1.1366249   -6.4434967     295.5829  0.039222784  0.039901051            6 
  629000    1.1609462   -6.4260989    295.65777  0.039170346  0.039893601            3 
  630000    1.1621035   -6.4188668    295.83728  0.039131916  0.039885677            5 
  631000    1.1787237   -6.4069385    296.61882  0.039173114  0.039877851            2 
  632000    1.1371404   -6.4131037    296.70456  0.039122436  0.039870202            2 
  633000    1.1575838   -6.4218736    297.65403  0.039185628  0.039862078            2 
  634000    1.1536254   -6.4035302    299.06374  0.039309114  0.039854198            1 
  635000    1.1736941   -6.4437106    298.72706  0.039203026  0.039846661            1 
  636000    1.1614771   -6.4518439    298.60195  0.039124994  0.039839008            4 
  637000    1.1208858    -6.429904    298.94138  0.039107978  0.039831084            3 
  638000    1.1434716   -6.4058165    299.65571  0.039139983  0.039822957            3 
  639000    1.1493486   -6.3914615    299.48708  0.039056739  0.039815055            2 
  640000    1.1771456   -6.4132247    300.45516  0.039121766   0.03980724            4 
  641000    1.1434313   -6.4500112    300.66684  0.039088253  0.039799449            3 
  642000    1.1596458   -6.3789852    301.32887    0.0391133  0.039791989            4 
  643000    1.1559549    -6.470068    301.64983  0.039094068   0.03978441            2 
  644000    1.1547199   -6.4309385    302.05459  0.039085739  0.039776969            2 
  645000    1.1228633   -6.4439389    303.03883  0.039152304  0.039768758            2 
  646000    1.1599571   -6.3897009    303.55228  0.039157931  0.039761071            2 
  647000    1.1465278   -6.4037303    304.61834  0.039234717  0.039753202            4 
  648000    1.1374607   -6.4707351     303.5611  0.039038207  0.039745391            4 
  649000    1.1306643   -6.4581739    303.93459  0.039026013  0.039737299            4 
  650000    1.1292414     -6.41196    304.62294  0.039054223   0.03972943            5 
  651000    1.1488682   -6.4199578    305.07979  0.039052712  0.039721571            2 
  652000    1.1595759    -6.484994    305.07655  0.038992402   0.03971311            5 
  653000    1.1221378   -6.4334652    304.91076  0.038911531   0.03970449            2 
  654000    1.1342996   -6.4311547    306.03364  0.038995112  0.039696247            3 
  655000    1.1420876   -6.4263899     306.6438  0.039013206  0.039687896            4 
  656000     1.128345   -6.4569243    307.74093  0.039093105  0.039679945            3 
  657000    1.1101804   -6.4447527    306.73253  0.038905699  0.039672047            4 
  658000    1.1551802   -6.4110301    308.32274  0.039047966  0.039664175            1 
  659000    1.1188856    -6.452427    307.33985  0.038864422  0.039656746            3 
  660000    1.1366935   -6.4348319    308.54227  0.038957357   0.03964868            5 
  661000    1.1345764   -6.4179841    308.91517  0.038945432  0.039640759            2 
  662000    1.1431968   -6.4308201    309.23179  0.038926459  0.039632329            2 
  663000    1.1426443   -6.4167623    309.11833  0.038853486  0.039624536            2 
  664000    1.1732229   -6.4647223     310.0149  0.038907492  0.039616639            3 
  665000    1.1323668   -6.4237889    311.20849  0.038998558  0.039608578            1 
  666000    1.1487701   -6.4176846    311.19609   0.03893845  0.039601166            7 
  667000    1.1085238   -6.4861565    310.86452  0.038838646  0.039593647            4 
  668000    1.1506282   -6.4424356    312.20989   0.03894834  0.039585572            2 
  669000    1.1625701   -6.4175586    312.48624  0.038924544  0.039578107            1 
  670000    1.1249445   -6.4591635    312.53283  0.038872243   0.03957056            2 
  671000    1.1484554   -6.4363471    313.42223  0.038924768  0.039563127            3 
  672000    1.1534728   -6.4346688    313.81212  0.038915194  0.039555389            5 
  673000    1.1584713   -6.4343525     314.8634  0.038987544  0.039548403            2 
  674000    1.1429543   -6.4417316    314.53945  0.038889645  0.039540378            4 
  675000    1.1427057   -6.4752469    315.89275  0.038999105  0.039532986            4 
  676000    1.1581158   -6.4536251    315.56375  0.038900857  0.039525342            3 
  677000    1.1403553   -6.4707872    315.17012  0.038794943  0.039516908            4 
  678000    1.1340911   -6.4078283    316.25497  0.038871063  0.039508881            3 
  679000    1.1318335   -6.4400121    317.32758  0.038945456  0.039501047            1 
  680000    1.1378854   -6.4452941    317.45539  0.038903847  0.039493552            2 
  681000    1.1622043    -6.406507    318.20825  0.038938846  0.039486143            2 
  682000    1.1301979   -6.4523019    318.18751  0.038879216  0.039478854            4 
  683000    1.1400262   -6.4343986    317.86085  0.038782436  0.039471827            4 
  684000    1.1417625   -6.4243641    318.84815  0.038846022  0.039464838            4 
  685000    1.1340712   -6.4234052     319.5229  0.038871399  0.039457736            2 
  686000    1.1460923    -6.411012     321.6912  0.039078134  0.039450885            3 
  687000     1.134927   -6.4120558    321.44989  0.038991981  0.039444055            4 
  688000    1.1590262   -6.4169226    321.71907  0.038967911  0.039437647            3 
  689000    1.1587303   -6.4341178    322.76239  0.039037541  0.039431356            3 
  690000    1.1453405   -6.4232484     321.9907  0.038887765  0.039424522            5 
  691000    1.1438415   -6.4296217    322.61782  0.038907118  0.039418006            3 
  692000    1.1660576   -6.4516218    323.98115  0.039015071  0.039411508            5 
  693000    1.1148307   -6.4328293    322.76277  0.038812262  0.039404982            3 
  694000    1.1353607   -6.4385117    323.46859  0.038841089  0.039398105            3 
  695000    1.1351717   -6.4502399    324.03195  0.038852751   0.03939102            2 
  696000    1.1301055    -6.435831    324.40956   0.03884214  0.039383991            2 
  697000    1.1320093   -6.4376675    324.74206  0.038826167  0.039377098            2 
  698000    1.1416604   -6.4055952    326.05795  0.038927645  0.039370479            1 
  699000    1.1415978   -6.4157669    325.45605  0.038800196  0.039364113            3 
  700000    1.1231754   -6.4597795    325.21509  0.038716083  0.039357547            2 
  701000    1.1401389   -6.4464154    326.91286   0.03886268  0.039350688            2 
  702000    1.1197214   -6.4547301    327.52982  0.038880558  0.039343967            3 
  703000    1.1483069   -6.4604062    327.75535  0.038851986  0.039337619            4 
  704000    1.1478628   -6.4845355    329.43319  0.038995406  0.039331379            4 
  705000     1.147919   -6.4538698    328.73415  0.038857465  0.039325137            3 
  706000    1.1219575    -6.433822    329.68091  0.038914177  0.039319076            5 
  707000    1.1260018   -6.4347438    329.62376  0.038852399  0.039313369            2 
  708000    1.1356786   -6.4600228    329.84845   0.03882397  0.039306838            3 
  709000    1.1404538   -6.4736451    330.24571  0.038815904  0.039300215            6 
  710000    1.1348744   -6.4280524    331.96763  0.038963337  0.039294373            6 
  711000    1.1488933   -6.4619959    331.43662  0.038846299  0.039288462            2 
  712000    1.1321626   -6.4667581    332.06365  0.038865127  0.039282661            3 
  713000    1.1408977   -6.4269957    333.85363  0.039019826  0.039276783            3 
  714000    1.1178471   -6.4791174    333.42386  0.038915016  0.039271102            2 
  715000    1.1202583   -6.4760295    333.42882  0.038861167  0.039265364            2 
  716000    1.1375222   -6.4586427    333.07633  0.038765867  0.039259222            4 
  717000     1.128286   -6.4386024    334.59274  0.038888045  0.039253203            2 
  718000    1.1257953   -6.4582607    333.85002  0.038747681  0.039246981            3 
  719000    1.1508751   -6.4798771    333.89499  0.038699002  0.039240695            3 
  720000    1.1382237   -6.4665104    334.54373  0.038720339  0.039234596            6 
  721000    1.0883279   -6.4689439    335.44859   0.03877122  0.039228814            6 
  722000    1.1414041   -6.4615201    337.33815  0.038935612  0.039223129            1 
  723000    1.1330029   -6.3990248    337.55252  0.038906468  0.039217251            2 
  724000    1.1310939   -6.4463473    337.31126  0.038824961  0.039211423            4 
  725000    1.1363245   -6.4688746    337.55648  0.038799596  0.039205592            2 
  726000    1.1174796   -6.4481469     338.8313  0.038892481  0.039199234            2 
  727000    1.1494612    -6.440951    338.16238  0.038762309  0.039193022            2 
  728000    1.1201585   -6.4787558    338.63531  0.038763199  0.039186656            2 
  729000    1.1530516   -6.4687369    338.28497  0.038669978  0.039180288            2 
  730000    1.1323149   -6.4541265    339.71073  0.038779764  0.039173681            2 
  731000     1.137561   -6.4542521    339.08805  0.038655728  0.039167408            5 
  732000    1.1549228   -6.4418402    339.97152  0.038703498  0.039161024            3 
  733000    1.1337287   -6.4356383    340.53451  0.038714701  0.039154623            2 
  734000    1.1288066    -6.468629    341.11726  0.038728118  0.039148741            2 
  735000    1.1256168    -6.427081    341.73568  0.038745542    0.0391428            4 
  736000    1.1477285   -6.4479483    342.32079  0.038759147  0.039136597            3 
  737000    1.1613266   -6.4723338    341.90717  0.038659789  0.039129922            3 
  738000    1.1192583   -6.4233201    343.55529  0.038793506  0.039123605            3 
  739000    1.0988555   -6.4823921    342.83901   0.03866024  0.039117285            3 
  740000    1.1340138   -6.4810695    342.12435  0.038527517  0.039110509            3 
  741000    1.1248937   -6.4765953    342.12988  0.038476145   0.03910332            3 
  742000    1.1406976   -6.4853623    343.87333  0.038620095   0.03909603            2 
  743000     1.117663   -6.4802807    342.58079  0.038423149  0.039088519            3 
  744000    1.1338184   -6.4820744    345.14619  0.038658847  0.039080987            2 
  745000    1.1356645   -6.4312595    344.63711  0.038550012  0.039073426            4 
  746000    1.1112243   -6.4681042    344.67691  0.038502783  0.039065407            3 
  747000    1.1365516   -6.4634242     344.9246  0.038478871  0.039057365            2 
  748000    1.1328449    -6.450971    344.43568  0.038372959  0.039049611            4 
  749000    1.1280903   -6.5118358     345.1966  0.038406386  0.039041133            3 
  750000    1.0994664   -6.4634921     345.7234  0.038413711  0.039032511            4 
  751000    1.1286002   -6.4763331    346.49998  0.038448733  0.039024263            3 
  752000    1.1276729   -6.4598772    345.92988  0.038334428  0.039016121            2 
  753000    1.1476009   -6.5056921    346.60652  0.038358401  0.039008155            2 
  754000    1.1431836   -6.5066576    346.87081  0.038336739  0.039000161            4 
  755000    1.1247846   -6.4403773    348.03501   0.03841446  0.038992079            4 
  756000    1.1388233     -6.45788    348.42761  0.038406923  0.038984185            4 
  757000     1.126877   -6.4620679     349.8235  0.038509852  0.038976932            2 
  758000    1.1268252   -6.4810584    348.46681  0.038309895   0.03896944            2 
  759000    1.1187298   -6.4340705    350.98488  0.038535889  0.038962226            2 
  760000    1.1519918   -6.3997184    352.53939  0.038655635  0.038955488            3 
  761000    1.1343679   -6.4318372    351.66022  0.038508565  0.038949229            4 
  762000    1.1535705   -6.4422336    351.74858  0.038467693  0.038942496            2 
  763000    1.1174775   -6.5032003    352.11725  0.038457542  0.038935616            4 
  764000    1.1155547   -6.4825279    352.97775  0.038501064  0.038928927            2 
  765000     1.102386   -6.4668807     353.3777  0.038494303  0.038922067            3 
  766000    1.1299049   -6.4692006    352.58779  0.038358115  0.038914873            3 
  767000     1.142842   -6.4424266    352.77548  0.038328497  0.038908082            3 
  768000    1.1167899   -6.4705546    354.87655   0.03850657  0.038901284            3 
  769000    1.1279957   -6.4692821    354.14803   0.03837755  0.038894332            5 
  770000    1.1260072   -6.4535112    355.07075   0.03842757  0.038887456            2 
  771000    1.1186391   -6.4987758    354.86474  0.038355462  0.038880032            4 
  772000     1.122223   -6.4295623    355.51447  0.038375914  0.038872458            3 
  773000    1.1171984   -6.4557166    354.89045  0.038258996  0.038864783            2 
  774000    1.1062068   -6.5049827    354.08091  0.038122407  0.038856709            2 
  775000    1.1145555   -6.4777765    355.96249  0.038275537  0.038848625            3 
  776000    1.1373546   -6.4644381    355.27703  0.038152602  0.038840535            2 
  777000    1.1117055   -6.4759278    356.14429  0.038196513  0.038832522            5 
  778000    1.1355474   -6.4486543    356.78553  0.038216102  0.038824163            2 
  779000    1.1281057   -6.4896026    355.96283  0.038079036  0.038816134            1 
  780000    1.1367155   -6.4638552    357.23244  0.038165858  0.038807721            2 
  781000    1.1150385   -6.4661222    357.48014  0.038143421  0.038799299            5 
  782000    1.1537095     -6.47014    358.23605  0.038175197  0.038790503            3 
  783000    1.1307954   -6.4810948     358.3104  0.038134355  0.038781441            2 
  784000    1.1227968   -6.4700087    358.92974  0.038151546  0.038772676            5 
  785000    1.1254933   -6.4576212    359.82234    0.0381977  0.038764377            5 
  786000    1.1100125   -6.4667197    360.14523  0.038183336  0.038756472            2 
  787000    1.1161069   -6.4559813    358.93533  0.038006706  0.038748401            5 
  788000    1.1340477   -6.4614219    361.27326  0.038205717  0.038739846            2 
  789000    1.1119223    -6.469269    360.17492  0.038041289  0.038731256            2 
  790000    1.1142895    -6.460855    361.44357  0.038126959  0.038722915            2 
  791000    1.1098479   -6.4507825     360.6896  0.037999326    0.0387144            2 
  792000    1.0970542   -6.4979174    360.48899  0.037930239  0.038705756            3 
  793000    1.1147992   -6.4863255    361.80897  0.038021119  0.038696808            3 
  794000    1.1269351   -6.4613635    362.50092  0.038045857  0.038688053            5 
  795000    1.1190055   -6.4817287    361.21787  0.037863508  0.038679505            6 
  796000    1.1368026   -6.4704359    363.86757  0.038093339  0.038670729            2 
  797000    1.1009088   -6.4680105    363.47838  0.038004849  0.038662116            3 
  798000    1.0918852   -6.5130807    364.17067  0.038029519  0.038653587            4 
  799000    1.1145137   -6.4568945    365.22127  0.038091497  0.038645215            4 
  800000    1.1340864   -6.4570434    364.75004  0.037994796  0.038636943            2 
  801000      1.11096   -6.4546937    365.71945  0.038048215  0.038628707            3 
  802000    1.1290768    -6.480811    365.43641  0.037971364  0.038620676            2 
  803000    1.1299302   -6.4820274    366.77896  0.038063404  0.038612526            2 
  804000    1.1408905    -6.442182    367.35585  0.038075855  0.038604479            2 
  805000    1.1395681    -6.471893    366.30677  0.037919956  0.038596021            3 
  806000    1.1410666   -6.4782141    366.94642  0.037939042   0.03858757            7 
  807000    1.1031596   -6.4692061     367.0146   0.03789907  0.038578997            3 
  808000    1.1245053   -6.4440594    367.57148    0.0379096  0.038570564            3 
  809000    1.1453333   -6.4620119    368.52337  0.037960792  0.038562212            3 
  810000    1.1445415   -6.5018818    368.04454  0.037864665    0.0385538            3 
  811000    1.1107045    -6.476075    368.58775  0.037873792  0.038545181            5 
  812000    1.1344556   -6.4764695     369.6858  0.037939839  0.038536412            3 
  813000    1.1150294   -6.4752644    370.56717  0.037983515  0.038528065            3 
  814000    1.1111749   -6.4453636    369.54225  0.037831925  0.038519504            2 
  815000    1.1269805   -6.4540849    371.84935  0.038021406  0.038510828            2 
  816000    1.1250341   -6.4799703      372.084  0.037998775  0.038502669            8 
  817000    1.1020216   -6.4871539    371.39994  0.037882491  0.038493988            3 
  818000    1.1158017   -6.4934599    371.58293  0.037854822  0.038485124            4 
  819000    1.1176975   -6.5064077    372.35267  0.037886922  0.038476867            2 
  820000    1.1141911   -6.5055781    372.58024  0.037863846  0.038468535            5 
  821000    1.1137716   -6.4653202    373.27722  0.037888471  0.038459885            2 
  822000    1.1087125   -6.4727399    373.55245  0.037870281  0.038451404            3 
  823000    1.1419853   -6.5165648    372.75584  0.037743604  0.038442871            2 
  824000    1.1136942   -6.5422369    374.08535  0.037832256  0.038434657            4 
  825000    1.1249268   -6.4762426    374.75295  0.037853833  0.038426526            3 
  826000     1.129604    -6.497028    375.26958  0.037860127  0.038418417            2 
  827000    1.1131957   -6.4900993    375.55443  0.037843051  0.038410141            4 
  828000    1.1088881   -6.4746477    376.09632  0.037851884  0.038402184            3 
  829000    1.1127065   -6.4666715    376.70682  0.037867593  0.038394212            4 
  830000    1.1366682   -6.4789883    377.06628   0.03785806  0.038386396            4 
  831000    1.1243353   -6.4983749    376.46869  0.037752577  0.038378349            2 
  832000    1.1172152   -6.4656392    377.58752  0.037819263  0.038370231            2 
  833000    1.1492809   -6.4846848    378.00512  0.037815639  0.038362623            3 
  834000    1.1170913   -6.4801947     377.5982  0.037729636  0.038354993            2 
  835000     1.109402   -6.4668079    379.40593  0.037864863  0.038347131            3 
  836000    1.1251307   -6.5066907    379.18793   0.03779784  0.038339618            5 
  837000    1.1154929    -6.502255    381.36559  0.037969493  0.038331621            2 
  838000    1.1548253   -6.4969128    380.17259  0.037805548  0.038323622            2 
  839000     1.120301   -6.5186948    381.67396   0.03790961  0.038315878            1 
  840000     1.138648   -6.4688501    380.90799  0.037788491  0.038308392            2 
  841000    1.1033677   -6.4860489    381.49253   0.03780148  0.038300682            4 
  842000    1.1349206   -6.4767696    380.34164   0.03764268  0.038292717            4 
  843000    1.1104177   -6.4857147    380.71794  0.037635225  0.038284704            4 
  844000    1.1343799   -6.4797746    381.74811  0.037692349  0.038276736            3 
  845000    1.1195157   -6.5198465    382.24818  0.037697059  0.038268711           10 
  846000    1.1230006   -6.4948281    381.41329  0.037570261  0.038260237            3 
  847000    1.1001745   -6.4521321    383.98905  0.037779324    0.0382519            6 
  848000    1.0906139   -6.5184127    383.21534   0.03765874  0.038243563            3 
  849000    1.1221498   -6.4861262    382.97936  0.037591221  0.038235138            7 
  850000    1.1272435   -6.4937395    384.45352  0.037691521  0.038226866            3 
  851000    1.1067343   -6.4755531    384.70033  0.037671399  0.038218264            2 
  852000    1.1043759   -6.4810795    384.70209  0.037627356  0.038209536            4 
  853000    1.1193698   -6.5210899    383.83288  0.037498327  0.038201118            3 
  854000    1.1195674   -6.4813354    384.20906  0.037491126  0.038192134            3 
  855000    1.1080625   -6.4947024    384.51209  0.037476812  0.038183533            3 
  856000    1.1272596   -6.5346295    384.97712  0.037478302  0.038174724            2 
  857000    1.1416602   -6.4973782    385.66907  0.037501854  0.038166098            4 
  858000    1.0967925   -6.5034956    385.04073  0.037397119  0.038157119            3 
  859000    1.0947043   -6.4935998    386.98178  0.037541888  0.038147554            2 
  860000     1.114932   -6.5059975     387.0693  0.037506715  0.038138188            3 
  861000    1.1119972   -6.5099619    385.36592  0.037298289  0.038128997            5 
  862000    1.1190281   -6.5061705    386.91812  0.037405077  0.038119663            3 
  863000    1.1279681   -6.5018893     387.2572  0.037394477  0.038110528            2 
  864000    1.1165774   -6.4937093     386.6605  0.037293644  0.038101071            4 
  865000    1.0935095   -6.5272373    387.10054  0.037292922  0.038091103            3 
  866000    1.1287195   -6.5047824    388.06077   0.03734226  0.038081355            2 
  867000    1.1402265   -6.4977442    386.59689  0.037158486  0.038071154            3 
  868000    1.0763937   -6.4854407    388.01326  0.037251657  0.038061073            5 
  869000    1.1169728   -6.5171395    388.45245  0.037250906  0.038051163            4 
  870000     1.106691   -6.5040023    389.28343  0.037287685  0.038041666            3 
  871000    1.1120924   -6.5305361    389.58345  0.037273579  0.038032156            5 
  872000    1.1052808   -6.4936211    390.67841  0.037335475  0.038022239            2 
  873000    1.1022888   -6.5220685    389.20371  0.037151939  0.038012481            3 
  874000    1.1067556   -6.4893369    390.71336  0.037253372   0.03800229            2 
  875000      1.09859   -6.5161514    389.66977  0.037111407  0.037992466            4 
  876000    1.1137236    -6.507192    389.72913  0.037074689  0.037982083            3 
  877000    1.0833125   -6.5051935    390.48022  0.037103784  0.037971753            2 
  878000    1.0915405   -6.4749087    392.17292  0.037222183  0.037961479            2 
  879000    1.0898111   -6.5095085     392.3543  0.037197033  0.037951402            3 
  880000    1.1033446   -6.4769917    392.95466  0.037211615  0.037941228            1 
  881000    1.1272384   -6.5137601    393.28795  0.037200903  0.037931332            3 
  882000    1.1000506   -6.4696916    392.85867  0.037118166  0.037921469            3 
  883000    1.0830918   -6.4728401     394.0359  0.037187231  0.037911963            4 
  884000    1.1187035   -6.5061988    395.36849  0.037270785  0.037902388            3 
  885000    1.1374545   -6.5277211    394.65925  0.037161888  0.037892525            2 
  886000    1.1364156   -6.5288074    394.26921  0.037083259   0.03788279            1 
  887000    1.1018217   -6.5203332    395.03349  0.037113256  0.037873076            6 
  888000    1.1089723   -6.5173448    395.81232  0.037144549  0.037863511            4 
  889000    1.1359019    -6.510695     396.7523  0.037190879  0.037854189            5 
  890000    1.1397332   -6.5293327    396.15498  0.037093163  0.037844854            3 
  891000    1.1206306   -6.5039427     398.2766  0.037249962  0.037835206            4 
  892000    1.1291143   -6.5236272    397.17872  0.037105636  0.037825764            3 
  893000    1.1089831   -6.5285152    398.26277  0.037165246  0.037816632            9 
  894000    1.1178628   -6.4936417    400.22117  0.037306224  0.037807571            3 
  895000    1.1088766   -6.5108565     399.6126  0.037207877  0.037798854            3 
  896000    1.0936411    -6.464922    399.00618   0.03710995   0.03778987            3 
  897000    1.1070808   -6.4877383    400.12808  0.037172805  0.037780606            2 
  898000    1.1090447   -6.5063485    399.52395  0.037075348  0.037771271            6 
  899000    1.0973238   -6.5267282    399.93752  0.037072443  0.037761712            3 
  900000    1.0888217   -6.5043653     400.0398  0.037040722    0.0377523            4 
  901000    1.1279818   -6.5165681    399.20866  0.036922739  0.037742713            1 
  902000     1.113393   -6.5093051    400.38948  0.036990898  0.037732924            6 
  903000    1.1135371   -6.5558556    401.36499  0.037039958  0.037723281            5 
  904000    1.1232442   -6.4695256    402.43548  0.037097666  0.037713776            3 
  905000    1.1311964   -6.5218211     401.2466    0.0369472   0.03770448            4 
  906000    1.0880816   -6.5230357    402.70943   0.03704097  0.037694864            2 
  907000     1.108149   -6.5155167    402.62138  0.036992042  0.037685668            6 
  908000    1.1165913   -6.5334631    403.92358  0.037070813   0.03767599            2 
  909000     1.096929   -6.5022863    404.47539  0.037080619  0.037666544            4 
  910000    1.1092376   -6.5222298    404.06666  0.037002442  0.037657132            2 
  911000    1.1265798   -6.5058334     404.9981  0.037047027  0.037647734            3 
  912000    1.1234416   -6.5240227    404.93822  0.037000934  0.037638573            5 
  913000    1.1197373   -6.5482722    406.48929   0.03710198  0.037629477            2 
  914000    1.0937737   -6.4851868    405.56238  0.036976876  0.037620309            2 
  915000    1.0949547   -6.5434642    404.67805  0.036855924   0.03761113            2 
  916000    1.0859004   -6.5362837    407.21413  0.037046409  0.037601816            6 
  917000    1.1025629   -6.5020362    406.77944  0.036966507  0.037592439            6 
  918000    1.1125613    -6.490277     407.9897  0.037036102  0.037583501            5 
  919000    1.1101445   -6.5135227    407.22604  0.036926554  0.037574588            3 
  920000    1.1197148   -6.5131535    408.39545  0.036992342   0.03756543            3 
  921000    1.1275624    -6.489256    408.72555  0.036982044  0.037556342            3 
  922000    1.0996274   -6.5413252    408.78831  0.036947605   0.03754758            3 
  923000    1.1011561   -6.5411012    409.36434  0.036959583  0.037539049            4 
  924000    1.0902332   -6.5196287    408.46757  0.036838706  0.037530065            2 
  925000    1.0845493   -6.4644584    410.32873  0.036966552  0.037520904            4 
  926000    1.1223736   -6.5794953    409.06855  0.036813224  0.037511845            3 
  927000    1.1278313   -6.5215213    408.85373  0.036754201  0.037502552            6 
  928000    1.1216148    -6.487961    410.27051   0.03684182   0.03749313            1 
  929000    1.0967078   -6.5214264    410.49175  0.036822008  0.037483542            4 
  930000    1.0938785   -6.4735633     413.0347  0.037010277  0.037474337            2 
  931000    1.1099492   -6.5018861    411.12621  0.036799696  0.037465437            3 
  932000    1.1193015   -6.4969695    412.73713   0.03690425  0.037456445            3 
  933000    1.0983695   -6.4970282    412.45866  0.036839824  0.037447679            5 
  934000    1.1140829   -6.5055207    414.32415  0.036966823  0.037438916            4 
  935000    1.1067838   -6.5342636    414.17004  0.036913551   0.03743005            5 
  936000    1.1037125    -6.515807    414.47642   0.03690139  0.037421176            2 
  937000    1.0995717    -6.463274    414.11998  0.036830308  0.037412327            2 
  938000    1.0845581   -6.4949053    414.36023  0.036812387  0.037403383            3 
  939000     1.097108   -6.5273007    413.71093   0.03671556  0.037393979            3 
  940000    1.0863528   -6.5008852    415.05812  0.036795932  0.037384421            9 
  941000    1.1200482   -6.5031829    414.14412  0.036675888  0.037375144            3 
  942000    1.0935091   -6.5010335    414.60798  0.036677989  0.037366038            2 
  943000    1.1287372   -6.5148309    415.36906   0.03670635  0.037356775            4 
  944000    1.1217451   -6.5329873    414.60542  0.036600054   0.03734702            3 
  945000    1.1251956   -6.5312622     414.8598  0.036583756  0.037337249            4 
  946000    1.1018155   -6.5129812    416.81521  0.036717337  0.037327522            2 
  947000    1.1156401   -6.5209061    418.29461  0.036808748  0.037318184            3 
  948000    1.1133161   -6.5850102    415.95261  0.036564048  0.037308965            2 
  949000    1.0970609   -6.5061147    418.08864  0.036713087  0.037299632            3 
  950000    1.1081549    -6.498296    418.83071  0.036739536  0.037290397            3 
  951000     1.083515   -6.5053151    418.10491  0.036637304  0.037281117            3 
  952000    1.1175784    -6.533596    419.11439  0.036687184  0.037272154            3 
  953000    1.1191677   -6.5282721    419.17037  0.036653583  0.037263082            7 
  954000    1.1179454   -6.5316978    421.11822   0.03678531  0.037254038            1 
  955000    1.1007602   -6.5116913    419.58343  0.036612865  0.037244716            4 
  956000    1.1063925   -6.5682433     419.6233  0.036578042  0.037235197            2 
  957000    1.0998502   -6.5398323    419.45962  0.036525568  0.037225886            2 
  958000    1.0942567   -6.5043795    421.65525  0.036678431  0.037216581            5 
  959000    1.1268273    -6.506219    421.72925  0.036646615   0.03720725            4 
  960000    1.0963148   -6.5181364    421.76149  0.036611241  0.037198133            3 
  961000    1.1237539   -6.4816241    422.51015  0.036638064  0.037189213            2 
  962000    1.1011176   -6.5113659     421.9173  0.036548622  0.037180246            3 
  963000     1.093572   -6.5428242    423.55971  0.036652796  0.037171067            1 
  964000    1.1155382   -6.5134622    422.83207  0.036551873  0.037162121            3 
  965000    1.0935058   -6.5420812    423.32149   0.03655626  0.037153009            4 
  966000    1.0937389   -6.5172332    424.50823  0.036620793  0.037143814            2 
  967000    1.0952514   -6.5583414    422.58459  0.036417148  0.037134605            5 
  968000    1.1037329    -6.503513    423.78127  0.036482548  0.037125347            4 
  969000    1.0775096   -6.5610802    424.64865  0.036519491   0.03711608            2 
  970000    1.0840338   -6.5396906    425.00627  0.036512567  0.037106945            2 
  971000    1.0968979    -6.524348    426.49247  0.036602512  0.037098169            3 
  972000     1.069121    -6.536111    425.95597  0.036518859  0.037089238            1 
  973000    1.0875397   -6.5379262    427.57094  0.036619642  0.037080293            2 
  974000    1.0815411   -6.5601979    427.32454  0.036560963  0.037071431            5 
  975000    1.1289811   -6.5160205    427.44892  0.036534096  0.037062389            3 
  976000    1.0849781   -6.5294174    427.84855  0.036530785  0.037053504            3 
  977000    1.1054239   -6.5445643    428.32606  0.036534124  0.037044877            4 
  978000    1.0941213   -6.5177066    426.71349  0.036359363  0.037035794            3 
  979000    1.1030107   -6.5113669    429.57772   0.03656603  0.037026858            3 
  980000    1.0884143   -6.5101358    429.89859  0.036556002  0.037017849            3 
  981000    1.1302128   -6.5236108    429.53968   0.03648825  0.037008819            2 
  982000    1.0748443    -6.563828    428.52277  0.036364797  0.036999822            3 
  983000    1.1070263   -6.4993379    430.26209  0.036475253  0.036990753            2 
  984000    1.1191531   -6.5613034    428.54216  0.036292527  0.036981518            2 
  985000    1.0725563     -6.55114    429.53554  0.036339724  0.036972327            4 
  986000     1.082144   -6.5799377    429.19938  0.036274457  0.036963364            4 
  987000    1.1006588   -6.5286114    430.87271  0.036378986  0.036954149            2 
  988000    1.0975011   -6.5694632    431.68119  0.036410356  0.036944995            6 
  989000    1.1165542   -6.5553288    430.38079   0.03626397  0.036935892            2 
  990000    1.1250834   -6.5192585     431.9489  0.036359335  0.036927235            6 
  991000    1.1055232   -6.5418505    433.20721  0.036428457  0.036918417            3 
  992000    1.0826239   -6.5313953    433.08866  0.036381776  0.036909295            2 
  993000    1.0791295   -6.5544403    433.65741  0.036392867  0.036900465            8 
  994000    1.0991382   -6.5210986    433.90925  0.036377369   0.03689146            3 
  995000    1.0988905    -6.542891    434.76579  0.036412545   0.03688263            2 
  996000    1.0987649   -6.5167317    435.09282  0.036403348  0.036873865            4 
  997000    1.0837862   -6.5543484    434.26841  0.036297928  0.036864851            4 
  998000     1.090948   -6.5442302    434.58081  0.036287643  0.036856093            3 
  999000    1.0936577   -6.5103444    436.23135  0.036389002  0.036847412            2 
 1000000    1.0869757   -6.5078719    437.20096  0.036433414  0.036839007            7 
 1001000    1.1118306   -6.5323667    437.76062  0.036443608  0.036830604            3 
 1002000    1.0734772    -6.564018    437.24306  0.036364193  0.036822169            5 
 1003000    1.0978671   -6.5483679    437.50588  0.036349774  0.036813682            2 
 1004000    1.0724279   -6.5676011     438.3882  0.036386803  0.036805546            2 
 1005000    1.0847121   -6.5294606    439.93798  0.036479103  0.036797573            5 
 1006000    1.0844787   -6.5338531    438.90374  0.036357168  0.036789546            1 
 1007000    1.0849338   -6.5505882    440.87896  0.036484522  0.036781685            3 
 1008000    1.1130835   -6.5661742    440.74892  0.036437576  0.036773839            6 
 1009000    1.0814669   -6.5723207    440.87243  0.036411664  0.036765724            3 
 1010000     1.101931   -6.5502783    442.26148  0.036490221  0.036757978            4 
 1011000    1.0750456   -6.5689143    441.89798  0.036424166  0.036750395            3 
 1012000    1.0845658    -6.533531    442.33939  0.036424522  0.036742799            2 
 1013000    1.0909696   -6.5226361      443.346  0.036471372  0.036735345            2 
 1014000    1.1124667   -6.5260941    443.87159  0.036478599  0.036727915            2 
 1015000    1.0816524   -6.5625438    445.25507  0.036556246  0.036720549            3 
 1016000    1.0761859   -6.5333288    445.61285   0.03654961  0.036713306            2 
 1017000    1.1188098   -6.5548881    445.18957  0.036478988  0.036706024            4 
 1018000    1.1172196   -6.5743136    444.85467   0.03641574  0.036698834            6 
 1019000    1.0814301     -6.54809    445.42353  0.036426523  0.036691546            4 
 1020000    1.1002182   -6.5189112    446.68515  0.036493885  0.036684074            4 
 1021000    1.0925641   -6.5182788    446.50561  0.036443488   0.03667686            1 
 1022000    1.0938953   -6.5504965    447.75923  0.036510048   0.03666972            3 
 1023000    1.0810733   -6.5963633    446.65334  0.036384273  0.036662713            2 
 1024000    1.0997042   -6.5676809    447.95813  0.036454926  0.036655758            4 
 1025000    1.1006787   -6.5655336    448.14938  0.036434909  0.036648888            2 
 1026000    1.0952171   -6.5757326    448.43279  0.036422416  0.036642062            3 
 1027000    1.0752831   -6.5511196    449.92009  0.036507635  0.036635305            3 
 1028000    1.0817127   -6.5339381    449.71069  0.036455146  0.036628482            2 
 1029000    1.0853235   -6.5408474    451.92684  0.036599193  0.036621756            3 
 1030000    1.0948999    -6.530641    450.58642  0.036455212   0.03661534            2 
 1031000    1.0709919   -6.5212758    451.27205   0.03647527  0.036608483            4 
 1032000    1.0879147   -6.4965468    453.02769  0.036581693  0.036602013            2 
 1033000    1.1087469   -6.5467228     452.0672  0.036468796  0.036595301            5 
 1034000    1.0823774   -6.5508637    452.31215  0.036453268   0.03658867            3 
 1035000    1.0733453   -6.5315176    453.02231  0.036475226  0.036582085            3 
 1036000    1.0811661   -6.5319771    454.19579  0.036534411  0.036575713            2 
 1037000    1.0608961   -6.5169614     453.1364  0.036414047  0.036569341            2 
 1038000    1.0823844    -6.571431    453.16956  0.036381628  0.036563012            4 
 1039000     1.094259   -6.5567876    453.42202  0.036366861    0.0365564            4 
 1040000    1.0824324   -6.5637849    453.85454   0.03636655  0.036549578            6 
 1041000    1.1140958   -6.5288597    455.27625  0.036445425   0.03654293            1 
 1042000    1.0931655    -6.518195     456.1528   0.03648055  0.036536353            3 
 1043000      1.05901   -6.5183335    456.09784  0.036441182  0.036529875            3 
 1044000    1.0668536   -6.5435435    455.70265  0.036374732  0.036523424            3 
 1045000    1.0721265   -6.5537675    456.45627  0.036400022  0.036517068            5 
 1046000    1.0901303   -6.5585221    455.48494  0.036287838   0.03651064            3 
 1047000    1.0619031    -6.555544    457.18707  0.036388655  0.036504241            7 
 1048000    1.0968483   -6.5525459    458.37838  0.036448663  0.036497994            4 
 1049000    1.0757289   -6.5862961    457.49605  0.036343824  0.036491756            3 
 1050000    1.0597651   -6.5601972    457.24177   0.03628903  0.036485322            2 
 1051000    1.0920024   -6.5465892    460.62415  0.036522689  0.036478803            4 
 1052000    1.0808929   -6.4964442    459.28145   0.03638161  0.036472508            5 
 1053000    1.0842717   -6.5890413    459.25393  0.036344882   0.03646609            1 
 1054000    1.0767028   -6.5308407    459.52849  0.036332107  0.036459594            3 
 1055000    1.0679531   -6.5706205    459.27509  0.036277654  0.036453304            4 
 1056000    1.0866746   -6.5497595    460.30195  0.036324333  0.036446952            2 
 1057000    1.0902212     -6.54159    460.22065  0.036283558  0.036440445            3 
 1058000    1.0580699   -6.5478771    460.92414  0.036304674  0.036434006            2 
 1059000    1.0875565   -6.5826247    460.06428  0.036202729   0.03642742            2 
 1060000    1.0772462   -6.5522395    463.08659  0.036406178  0.036420563            4 
 1061000      1.09392   -6.5405042    460.85648  0.036196708  0.036413848            2 
 1062000    1.1013975   -6.5293886    462.55284  0.036295734  0.036407254            6 
 1063000    1.0781675   -6.6063454    461.02109  0.036141509  0.036400357            3 
 1064000    1.0580909   -6.5526406    461.60409  0.036153202  0.036393534            2 
 1065000    1.0712952   -6.5540904    463.02901  0.036230752  0.036386917            2 
 1066000    1.0991759   -6.5536048    462.67357  0.036168978   0.03637992            3 
 1067000    1.0857957   -6.5438585    463.73168   0.03621772  0.036373074            6 
 1068000     1.088811   -6.5798105    462.35476   0.03607637  0.036366022            6 
 1069000    1.1072188   -6.5352604    464.49814  0.036209708  0.036359098            3 
 1070000    1.0783948   -6.5377823     463.8097  0.036122251  0.036352327            7 
 1071000    1.0761409   -6.5806011    463.89201  0.036094928  0.036345171            8 
 1072000    1.0764784   -6.5388497    465.23665  0.036165784  0.036337934            2 
 1073000    1.0711452   -6.5717228    465.19595  0.036128918  0.036330928            4 
 1074000    1.0790537   -6.5482865    466.86395  0.036224701  0.036323746            2 
 1075000     1.078437   -6.5415636    466.90966  0.036194547  0.036316735            3 
 1076000    1.0742831   -6.5355284    465.19404  0.036028039  0.036309605            4 
 1077000    1.0962084   -6.5216204    464.98582  0.035978476  0.036302045            3 
 1078000    1.0715128    -6.538254    466.36422  0.036051655  0.036294576            4 
 1079000    1.0851514   -6.5598909    464.46262  0.035871379  0.036286712            3 
 1080000    1.0848825   -6.5449171    465.45632  0.035914839  0.036278848            3 
 1081000    1.0684089   -6.5426418     467.2142  0.036017129  0.036271127            2 
 1082000     1.075961   -6.5503091    466.84211  0.035955184  0.036263441            2 
 1083000    1.0923131   -6.5746095    467.79184  0.035995063   0.03625562            2 
 1084000    1.0712866   -6.5724804    468.26235  0.035998028  0.036247914            2 
 1085000    1.0849412   -6.5590606     468.3053  0.035968149  0.036240159            8 
 1086000    1.0684464   -6.5169628    468.25021  0.035930802  0.036232379            1 
 1087000    1.0689699   -6.5766679    467.37321  0.035830513  0.036224746            3 
 1088000    1.0944326   -6.5489226    468.89768  0.035914345  0.036216966            3 
 1089000    1.0707758   -6.5375404    469.18931  0.035903681  0.036209165            3 
 1090000    1.0746315   -6.5573417    468.35549  0.035806994  0.036201348            4 
 1091000    1.0736151   -6.5717674    469.52201  0.035863276  0.036193524            4 
 1092000    1.0759855   -6.5860068     470.0622  0.035871657  0.036185894            4 
 1093000    1.1018249   -6.5462505    470.45927  0.035869112   0.03617818            3 
 1094000    1.0874427   -6.5843624    469.97655  0.035799555  0.036170435            4 
 1095000    1.0512882   -6.5373082    472.89038  0.035988614  0.036162876            5 
 1096000    1.0850482   -6.5766513    470.61877  0.035783057  0.036155323            1 
 1097000    1.0567567   -6.5757841    471.38403  0.035808571  0.036147715            2 
 1098000    1.0876588   -6.5637609    471.49463  0.035784352  0.036139987            2 
 1099000    1.0849301   -6.5987422      470.117  0.035647331  0.036132107            3 
 1100000    1.0794212   -6.5654436    472.37881  0.035786274  0.036124173            2 
 1101000    1.0820403   -6.5635045     473.1065  0.035808848  0.036116612            4 
 1102000    1.0579755      -6.5863    472.49807  0.035730344  0.036109124            2 
 1103000    1.0660963   -6.5694666    474.55166  0.035853102  0.036101521            7 
 1104000    1.0716547   -6.5641695    473.31993  0.035727652  0.036093937            3 
 1105000    1.0630928   -6.5622569    472.71403  0.035649625  0.036086186            5 
 1106000    1.0852451   -6.5729277    475.76036  0.035846923  0.036078647            2 
 1107000    1.0571394   -6.5594068    476.36912  0.035860367  0.036071085            5 
 1108000     1.040416   -6.5795291    474.45774  0.035684246  0.036063688            4 
 1109000    1.0927754   -6.5609485    476.52743  0.035807592  0.036056227            2 
 1110000    1.1144664   -6.5603664    477.24304  0.035829057  0.036048709            4 
 1111000    1.0753725    -6.566634    476.37914  0.035732009  0.036041141            3 
 1112000    1.0592096   -6.5802083    476.73814  0.035726779  0.036033588            4 
 1113000    1.0754334   -6.5817883    477.98688  0.035788176  0.036026059            2 
 1114000    1.0765428    -6.554218    478.96609  0.035829301  0.036018592            2 
 1115000    1.0483742   -6.5579071    478.92956  0.035794436  0.036010979            4 
 1116000    1.0725697   -6.5314843    479.12935  0.035777281  0.036003475            2 
 1117000    1.0719073   -6.5710198    479.60897  0.035781033  0.035996244            5 
 1118000      1.08515   -6.5925341    479.43201  0.035735838  0.035988849            3 
 1119000    1.0760981   -6.5892203    479.92605  0.035740695  0.035981549            1 
 1120000    1.0613212   -6.5690837    481.36369  0.035815751  0.035974373            8 
 1121000    1.0690952   -6.5879025    481.12708  0.035766211  0.035966996            2 
 1122000    1.0846975   -6.5687231    481.72154  0.035778487  0.035959634            5 
 1123000    1.0504387    -6.571538     481.1394  0.035703429  0.035952225            3 
 1124000    1.1062946   -6.5953124    481.89376  0.035727592  0.035944942            3 
 1125000    1.0567444   -6.5584815    482.66744  0.035753143   0.03593768            2 
 1126000    1.0515187    -6.598976    483.01257  0.035746934  0.035930402            1 
 1127000    1.0717468   -6.5546367    482.61866  0.035686088  0.035923196            4 
 1128000    1.0827586   -6.5723532    484.86001  0.035820036  0.035916146            2 
 1129000    1.0576027   -6.6178356    482.98515  0.035649922  0.035908933            3 
 1130000    1.0505378   -6.5746262    484.21717  0.035709231  0.035901719            3 
 1131000    1.0682127   -6.5684146     484.4293  0.035693287  0.035894557            5 
 1132000    1.0612139   -6.5422518    484.34239  0.035655359  0.035887258            3 
 1133000    1.0938438   -6.5684829    484.27672  0.035619059  0.035879865            6 
 1134000    1.0528195    -6.585548    486.16516  0.035726422  0.035872515            4 
 1135000    1.0736117   -6.5938089    484.33757  0.035560762   0.03586505            7 
 1136000    1.0746078   -6.5229645    485.70685  0.035629904  0.035857728            3 
 1137000    1.0740402   -6.6221294    484.69451   0.03552437   0.03585043            5 
 1138000    1.0814017   -6.5562307     486.7651  0.035644779  0.035842986            4 
 1139000    1.0524159   -6.5995171    486.48901  0.035593285  0.035835592            4 
 1140000    1.0801888   -6.5770591    487.64394  0.035646487  0.035828197            4 
 1141000    1.0634052   -6.5667678    487.54605  0.035608096  0.035820879            9 
 1142000    1.0619814   -6.5556554    488.51855   0.03564788  0.035813286            4 
 1143000    1.0690822   -6.6127925    487.30652  0.035528326  0.035805713            4 
 1144000    1.0616357   -6.6162382    487.62374  0.035520377  0.035798173            4 
 1145000    1.0676803   -6.5618397    488.01655  0.035517944   0.03579046            3 
 1146000    1.0630913   -6.5672416    488.07598  0.035491272  0.035782837            2 
 1147000    1.0685676   -6.5798041    490.92941  0.035667641  0.035775453            2 
 1148000    1.0719214    -6.529368    489.07737  0.035502132   0.03576826            4 
 1149000    1.0792506   -6.5410508    490.01577  0.035539293  0.035761101            3 
 1150000    1.0720516   -6.5825055    489.70826  0.035486106   0.03575377            5 
 1151000    1.0963516   -6.5911419    491.64885  0.035595775  0.035746384            2 
 1152000    1.0603867   -6.5374975    491.63261  0.035563702  0.035739149            2 
 1153000     1.074499   -6.6075384      489.948  0.035411102  0.035731704            4 
 1154000    1.0838865   -6.5956435    490.46013  0.035417398  0.035724385            3 
 1155000    1.0572379   -6.5989677    491.12077  0.035434399  0.035716856            4 
 1156000    1.0504794   -6.5864889    490.52301  0.035360655    0.0357094            2 
 1157000    1.0674349   -6.5637167    492.07057  0.035441556  0.035701837            4 
 1158000    1.0789516    -6.558492    492.04413  0.035409048  0.035694386            3 
 1159000    1.0662475   -6.5541791    493.01742  0.035448477  0.035686777            3 
 1160000    1.0802198    -6.559103    492.70987  0.035395824   0.03567925            2 
 1161000    1.0620602   -6.5709226    492.52904  0.035352357  0.035671667            3 
 1162000    1.0440691   -6.5915242    493.17225  0.035368062  0.035664141            3 
 1163000    1.1000892   -6.5675684    492.37643  0.035280627  0.035656477            7 
 1164000    1.0597473    -6.593453    493.79652  0.035351985  0.035648697            4 
 1165000    1.0599612   -6.5787239    493.90259  0.035329226  0.035640908            2 
 1166000    1.0868246    -6.627058    494.31793  0.035328611  0.035633022            2 
 1167000    1.0645824   -6.5282009    496.02351  0.035420131  0.035625492            4 
 1168000    1.0666975   -6.5849981    495.58739  0.035358689  0.035618017            3 
 1169000    1.0863229    -6.594653    494.89271  0.035278921  0.035610177            5 
 1170000    1.0550501   -6.5776596    496.97364  0.035396983  0.035602392            4 
 1171000    1.0526464   -6.5667142    496.65859  0.035344335  0.035594759            2 
 1172000    1.0630989   -6.5977872    495.94067  0.035263131  0.035587267            3 
 1173000    1.0823217   -6.5893146    493.97668  0.035093541  0.035579613            5 
 1174000    1.0532786   -6.5660475    497.18044  0.035291059  0.035571974            5 
 1175000    1.0381215   -6.5828045    496.55527  0.035216685  0.035564415            2 
 1176000    1.0709328   -6.5761292    497.45749  0.035250672   0.03555681            6 
 1177000    1.0630364   -6.5618424    497.24597  0.035205747  0.035549006            2 
 1178000    1.0407356   -6.6024274    499.06862  0.035304798  0.035540941            4 
 1179000    1.0692281   -6.5960252    498.05642  0.035203309   0.03553293            3 
 1180000    1.0616297    -6.572491    498.41395  0.035198726  0.035525068            4 
 1181000    1.0692225   -6.6263583    497.70501  0.035118897  0.035517145            4 
 1182000     1.070626   -6.5990439    500.09489  0.035257677   0.03550915            2 
 1183000    1.0593635   -6.5474825    500.29314  0.035241838  0.035501447            2 
 1184000    1.0559165   -6.6483802    499.11695   0.03512929  0.035493648            4 
 1185000    1.0438902   -6.5764402    499.97167  0.035159752  0.035485843            2 
 1186000    1.0563445   -6.5879961    502.10957  0.035280324  0.035478257            5 
 1187000    1.0560242    -6.590866    501.39172  0.035200205  0.035470813            4 
 1188000    1.0599495   -6.6149649    502.30014  0.035234297  0.035463464            3 
 1189000    1.0591221   -6.5893269    502.61086  0.035226441  0.035456189            4 
 1190000    1.0418374   -6.5907852    502.90057  0.035217127  0.035448735            5 
 1191000    1.0617439   -6.5906375    502.42409  0.035154219  0.035440788            2 
 1192000    1.0695045   -6.6049497    500.92624  0.035020011  0.035432889            2 
 1193000    1.0411641   -6.5992857    502.70668  0.035115023  0.035425163            3 
 1194000    1.0693353   -6.5509862    502.98693  0.035105174  0.035417435            3 
 1195000    1.0682453   -6.5923458     502.4808  0.035040502  0.035409595            4 
 1196000    1.0578533   -6.5620128    504.24092  0.035133843  0.035401871            3 
 1197000    1.0761215   -6.6274131    505.03175  0.035159548  0.035394013            3 
 1198000    1.0598307   -6.6262849    503.54995  0.035027125  0.035386058            8 
 1199000    1.0584218   -6.5924339    504.07951  0.035034717  0.035378154            3 
 1200000    1.0650062   -6.5660964    504.62112  0.035043134  0.035370322            3 
 1201000    1.0427928   -6.5882911    505.72278  0.035090396  0.035362493            2 
 1202000    1.0412529   -6.5911198    507.31635  0.035171683  0.035354647            2 
 1203000    1.0449571   -6.6086947    505.97569  0.035049577  0.035346806            3 
 1204000    1.0407509   -6.6253374    507.23333  0.035107512  0.035339117            4 
 1205000    1.0624021   -6.5965637    506.14805  0.035003323    0.0353315            2 
 1206000    1.0434345   -6.5949336    508.85019  0.035161014  0.035323833            4 
 1207000    1.0613867   -6.6243524    508.15508  0.035083891  0.035316191            3 
 1208000    1.0491221   -6.5637333     509.0116  0.035113935  0.035308477            5 
 1209000    1.0569628   -6.6200951    507.58628  0.034986647  0.035300922            4 
 1210000    1.0671589   -6.6132961    507.50795  0.034952338  0.035293206            2 
 1211000     1.039598   -6.6571475    508.80422  0.035012677  0.035285329            8 
 1212000    1.0588272   -6.6308579    507.62232  0.034902525  0.035277367            2 
 1213000    1.0546234   -6.5846105     507.3437   0.03485461  0.035269456            3 
 1214000    1.0650755   -6.6139702     507.0277  0.034804208  0.035261516            4 
 1215000    1.0612122   -6.5709146    509.49324  0.034944666  0.035253529            3 
 1216000    1.0435634   -6.6047305    508.15901  0.034824494  0.035245617            3 
 1217000    1.0561498   -6.6007998    507.80076  0.034771348  0.035237439            2 
 1218000    1.0818599   -6.6041787    510.24508  0.034910036  0.035229431            5 
 1219000    1.0583685   -6.6039323    509.35279  0.034820398  0.035221138            4 
 1220000    1.0740103   -6.6438408    510.41619  0.034864494   0.03521297            3 
 1221000     1.056492   -6.6007723    510.53915  0.034844332  0.035204712            2 
 1222000        1.063   -6.5776643    512.65534   0.03496013  0.035196421            3 
 1223000    1.0403456   -6.5874274    510.71181  0.034799115  0.035188458            2 
 1224000    1.0619647   -6.6174028    509.97765  0.034720701  0.035180247            7 
 1225000    1.0203235   -6.6219031     511.6021  0.034802864  0.035172011            4 
 1226000    1.0614192   -6.6113265    512.31376  0.034822849  0.035163707            5 
 1227000    1.0653979   -6.6005475    510.94396  0.034701437  0.035155477            3 
 1228000    1.0657443    -6.582639    513.32587  0.034834817  0.035147425            4 
 1229000    1.0574509   -6.6042965     515.3407   0.03494309  0.035139618            3 
 1230000    1.0487097   -6.6263086    512.87311  0.034747501   0.03513162            4 
 1231000    1.0599746   -6.6456429    512.66223  0.034704998  0.035123622            3 
 1232000    1.0512657   -6.6031096    513.97929  0.034765915  0.035115542            4 
 1233000    1.0414154   -6.6218619    514.94375  0.034802903  0.035107634            3 
 1234000    1.0624697   -6.5879426       515.65  0.034822393  0.035099653            4 
 1235000    1.0664965    -6.623215    514.12618  0.034691375  0.035091507            5 
 1236000    1.0650149   -6.5939748    514.58513  0.034694251  0.035083413            5 
 1237000    1.0276327   -6.5938685    515.90716  0.034755265  0.035075414            3 
 1238000    1.0278757     -6.63576    516.04998  0.034736805  0.035067286            4 
 1239000    1.0584076   -6.5786282     516.8337  0.034761481  0.035058932            6 
 1240000    1.0359696   -6.6576725    516.74594   0.03472755  0.035050628            4 
 1241000    1.0451694   -6.6271413    516.62903  0.034691716  0.035042358            2 
 1242000    1.0581736   -6.6240502    515.91524  0.034615891  0.035034129            4 
 1243000    1.0537259   -6.6338807    515.89418   0.03458663  0.035025652            5 
 1244000    1.0571766   -6.5865734    516.86832  0.034624083    0.0350175            5 
 1245000     1.049862   -6.6072772    517.65721  0.034649077  0.035009479            3 
 1246000    1.0549449    -6.635235    516.86358   0.03456819  0.035001363            4 
 1247000    1.0583945   -6.6125819    517.20695  0.034563415  0.034993106            2 
 1248000    1.0634228   -6.5940602    518.51232  0.034622885  0.034984943            5 
 1249000    1.0597198   -6.5959459    519.78879   0.03468033  0.034976836            4 
 1250000    1.0592831   -6.6239668    520.21611  0.034681074  0.034968694            2 
 1251000     1.040454   -6.6188705     519.3098  0.034592979  0.034960696            3 
 1252000    1.0902368   -6.6281184    519.93331   0.03460685  0.034952473            4 
 1253000    1.0535453   -6.5689254    520.02395  0.034585259  0.034944362            3 
 1254000    1.0769493    -6.596612    521.38971  0.034648439  0.034936194            3 
 1255000    1.0651318   -6.6297904    521.08723  0.034600746  0.034928014            7 
 1256000    1.0424366   -6.6269055    520.77613  0.034552556  0.034919924            5 
 1257000    1.0389583   -6.5761359     523.6517  0.034715706  0.034911875            1 
 1258000     1.042652   -6.6212024    522.42574  0.034606899  0.034903809            6 
 1259000    1.0811664   -6.6113156     522.4001  0.034577714  0.034895855            4 
 1260000    1.0565132    -6.620322    521.71161  0.034504736  0.034887659            7 
 1261000    1.0729561   -6.6308349    519.15159  0.034308194  0.034879275            3 
 1262000    1.0529649   -6.6224599     521.3134  0.034423758  0.034870893            4 
 1263000    1.0448172   -6.6362143    523.38914  0.034533462  0.034862665            2 
 1264000    1.0623052   -6.5927002    523.38405  0.034505805  0.034854542            4 
 1265000    1.0494642   -6.6063253    523.75682  0.034503084  0.034846419            3 
 1266000    1.0847842   -6.6067137    523.84238  0.034481462  0.034838381            5 
 1267000    1.0464768   -6.6281573    524.85485   0.03452084  0.034830265            4 
 1268000    1.0353816   -6.5941061    524.95649  0.034500295  0.034822114            4 
 1269000    1.0492335    -6.616006    525.93487  0.034537357  0.034814096            6 
 1270000    1.0351013   -6.5954769    525.57291  0.034486411  0.034806284            6 
 1271000    1.0527743   -6.6101009     526.2285  0.034502262  0.034798294            2 
 1272000    1.0725348    -6.618973     523.4843  0.034295355  0.034790228            2 
 1273000    1.0314984    -6.610504    525.76085  0.034417442  0.034782245            4 
 1274000    1.0721331   -6.6203788    525.97049   0.03440414    0.0347742            4 
 1275000    1.0453854   -6.5746397     526.2392  0.034394719  0.034766156            7 
 1276000    1.0491271   -6.6320114    526.69531  0.034397552  0.034758169            4 
 1277000    1.0567884   -6.5733591    528.66915  0.034499422  0.034750144            9 
 1278000    1.0397431   -6.5831279    528.12934  0.034437228  0.034742265            2 
 1279000     1.085175     -6.61917    528.36944  0.034425948  0.034734329            4 
 1280000    1.0607353   -6.6395826    527.86374  0.034366129  0.034726196            3 
 1281000    1.0567803   -6.6777475    527.32815  0.034304459  0.034717987            4 
 1282000     1.052364   -6.6211873    528.50078  0.034353925  0.034709707            5 
 1283000    1.0379308    -6.604584    527.07224  0.034234362  0.034701353            4 
 1284000    1.0457581   -6.5931432     527.9468   0.03426446  0.034692929            4 
 1285000    1.0455877   -6.6116645    528.96921  0.034304099  0.034684349            6 
 1286000    1.0433179   -6.6352119    529.14466  0.034288793  0.034675736            6 
 1287000    1.0472062    -6.622857    528.84663  0.034242853  0.034667175            3 
 1288000    1.0440705   -6.6105183    529.62598  0.034266691  0.034658824            2 
 1289000    1.0186754    -6.629948    528.44676  0.034163871  0.034650351            3 
 1290000    1.0410227   -6.6344484    531.23055  0.034317219  0.034641875            2 
 1291000    1.0739478   -6.6101755    530.57983  0.034248634  0.034633392            2 
 1292000    1.0500232   -6.5813889    532.22486  0.034328229  0.034625178            4 
 1293000    1.0651589   -6.6322717    530.82333  0.034211351  0.034616969            4 
 1294000    1.0651705   -6.6143484    531.66807  0.034239314   0.03460866            2 
 1295000    1.0526327   -6.6308986    532.60642  0.034273257  0.034600398            3 
 1296000    1.0424115   -6.6527802    530.86453  0.034134808  0.034592255            4 
 1297000    1.0262587   -6.6190674    534.59932  0.034348453  0.034584053            3 
 1298000    1.0310112   -6.5880376    533.29983  0.034238561  0.034575831            6 
 1299000    1.0350908   -6.6154112    533.84536  0.034247201  0.034567588            5 
 1300000    1.0439151   -6.6519632    532.92204  0.034161669  0.034559449            6 
 1301000    1.0420786   -6.5924556    534.30862  0.034224226  0.034550998            4 
 1302000    1.0469597   -6.6022152    534.76369  0.034227066  0.034542869            4 
 1303000     1.043652   -6.6203034     534.7561  0.034200313  0.034534581            3 
 1304000     1.052369   -6.6089166    534.10652  0.034132574  0.034526441            3 
 1305000    1.0370252    -6.612724    535.75942  0.034211968    0.0345182            3 
 1306000    1.0734082    -6.613003    535.24068  0.034152672  0.034509848            2 
 1307000    1.0272512   -6.6175774    536.67537  0.034218017  0.034501672            7 
 1308000    1.0574266   -6.6246721    534.98991  0.034084474  0.034493485            4 
 1309000    1.0544442   -6.6579753    536.04397  0.034125539   0.03448532            6 
 1310000     1.048852   -6.6536144    536.64534  0.034137744   0.03447705            3 
 1311000    1.0541557   -6.6611938    536.58325  0.034107758  0.034468878            2 
 1312000    1.0388006   -6.6197297      538.229  0.034186293  0.034460689            7 
 1313000     1.021138    -6.619117    538.51782  0.034178587  0.034452593            5 
 1314000    1.0191884   -6.6077679    537.62045  0.034095665  0.034444508            2 
 1315000    1.0530479   -6.6178748    537.57651  0.034066953  0.034436476            3 
 1316000    1.0295868   -6.6364404    539.49747  0.034162707  0.034428361            2 
 1317000    1.0302247   -6.6579295    539.25596  0.034121486  0.034420276            3 
 1318000     1.041817   -6.6285822    538.12038  0.034023797  0.034412142            5 
 1319000    1.0498019    -6.631634    539.08771  0.034059118  0.034404121            3 
 1320000    1.0590709   -6.6308567    539.15832  0.034037773  0.034396014            3 
 1321000    1.0348346   -6.6168922    542.56813  0.034227109  0.034387999            3 
 1322000    1.0509434   -6.6384727    541.91347  0.034159951  0.034380175            2 
 1323000    1.0544253   -6.6569398    541.20236   0.03408934  0.034372136            4 
 1324000    1.0133995     -6.61544    541.26042  0.034067247   0.03436413            3 
 1325000    1.0210387   -6.6680364    540.40837  0.033987948  0.034356119            1 
 1326000     1.054966   -6.6104986    541.02238  0.034000904   0.03434801            8 
 1327000    1.0415769   -6.6445415    541.89329  0.034029973  0.034339725            6 
 1328000    1.0526438   -6.6636795     542.4326   0.03403819   0.03433164            4 
 1329000    1.0461388   -6.6544586    542.85994  0.034039374   0.03432359            5 
 1330000    1.0357017   -6.6702154    543.80398  0.034072931  0.034315644            5 
 1331000    1.0736578   -6.7026808    542.57649  0.033970479  0.034307926            8 
 1332000    1.0324066   -6.6011878    545.30328  0.034115571  0.034299959            4 
 1333000    1.0323853   -6.6979055     544.5867   0.03404518  0.034292212           12 
 1334000    1.0246164   -6.6628782    543.99448  0.033982664   0.03428432            4 
 1335000    1.0581833   -6.6402064    545.55956  0.034054904  0.034276639            5 
 1336000    1.0186593   -6.6265672    546.36792  0.034079835  0.034268951           10 
 1337000    1.0308966   -6.6505102    546.05691  0.034034961  0.034261301            3 
 1338000    1.0243232   -6.6234078    547.59574  0.034105365  0.034253579           12 
 1339000    1.0531337   -6.6552815    547.25976  0.034058984  0.034246017            3 
 1340000     1.039113   -6.6229265    548.87854  0.034134238   0.03423836            5 
 1341000    1.0454253   -6.6075304    546.26986  0.033946673  0.034230521            3 
 1342000    1.0209825   -6.6394367    547.86755  0.034020588  0.034222635            3 
 1343000    1.0240362   -6.6529418    545.79134  0.033866427  0.034214941            3 
 1344000    1.0210601   -6.6390813    547.95344  0.033975288   0.03420718            2 
 1345000    1.0399623   -6.6551406    548.56934  0.033988187  0.034199477            4 
 1346000    1.0125919   -6.6426248    547.91081  0.033922165  0.034191711            3 
 1347000    1.0155646   -6.6557934    548.67473  0.033944242  0.034183948            6 
 1348000    1.0630771   -6.6256224    549.01125  0.033939864  0.034176206            2 
 1349000    1.0307898   -6.6726217    546.84118  0.033780651  0.034168342            6 
 1350000    1.0372201    -6.648411    548.63233  0.033866193   0.03416037            3 
 1351000    1.0341313   -6.6877549    549.76085  0.033910736  0.034152573            4 
 1352000    1.0525747   -6.6599091    550.17932  0.033911447  0.034144826            3 
 1353000    1.0081655   -6.6272835    550.23742  0.033889962  0.034136913            3 
 1354000    1.0263016   -6.6348268    552.02585  0.033975003  0.034129176            6 
 1355000    1.0304999   -6.6425031    552.53949  0.033981518  0.034121435            4 
 1356000    1.0254527   -6.6426969    551.95096   0.03392029  0.034113903            2 
 1357000    1.0333828   -6.6377904    552.46696  0.033926981  0.034106271            4 
 1358000    1.0343095   -6.6285328    550.34341  0.033771687  0.034098535            7 
 1359000     1.018509    -6.604574    552.61209  0.033885951  0.034090775            3 
 1360000     1.030368   -6.6753562    551.37719  0.033785367   0.03408287           10 
 1361000    1.0361388   -6.6413806     552.2951  0.033816746   0.03407481            7 
 1362000    1.0240813   -6.6475497    552.98324  0.033834021  0.034066931            3 
 1363000    1.0347778   -6.6199921    554.63795  0.033910366  0.034059106            3 
 1364000    1.0270873   -6.6363089    553.16957  0.033795795  0.034051345            2 
 1365000    1.0689652   -6.6865453    554.17953  0.033832694  0.034043628            5 
 1366000    1.0258952   -6.6404956    554.04165  0.033799515  0.034036083            4 
 1367000    1.0310977   -6.6358177    555.26277   0.03384923   0.03402832            5 
 1368000    1.0371134   -6.6701783    555.16798  0.033818712  0.034020514            3 
 1369000    1.0373834   -6.6085129    555.91668  0.033839583  0.034012843            7 
 1370000    1.0281901   -6.6429641     554.7279  0.033742573   0.03400535            3 
 1371000    1.0383863   -6.6657586    555.94872  0.033792166  0.033997632            4 
 1372000    1.0418556   -6.6503765    554.84253  0.033700348  0.033989991            4 
 1373000    1.0538231   -6.6775328    555.93159  0.033741902  0.033982132            7 
 1374000      1.00584   -6.6708007    555.27918  0.033677776  0.033974437            8 
 1375000    1.0319512   -6.6402039    557.70005  0.033800003  0.033966527            2 
 1376000    1.0470405   -6.6167283    557.59635  0.033769159  0.033958777            4 
 1377000    1.0406784   -6.6730561    557.78933  0.033756314  0.033951006            6 
 1378000    1.0223069   -6.6442913    557.77063  0.033730687  0.033943315            3 
 1379000    1.0645554   -6.6466468    557.94854  0.033716977  0.033935672            5 
 1380000    1.0423569    -6.658023    560.64256  0.033855227  0.033928135            4 
 1381000    1.0506091   -6.6433195    558.48438  0.033700481  0.033920548            4 
 1382000    1.0243256   -6.6241631     560.1198   0.03377471  0.033913077            3 
 1383000    1.0249674   -6.6064698    561.65374  0.033842718  0.033905591            5 
 1384000    1.0328889   -6.6652928    560.46034  0.033746408   0.03389816            4 
 1385000    1.0328292    -6.666989    560.50392  0.033724664  0.033890764            6 
 1386000    1.0404819   -6.6750156    561.25493  0.033745486  0.033883503            5 
 1387000    1.0345247   -6.6461328     560.7807  0.033692664  0.033876052            3 
 1388000    1.0221352   -6.6350386    561.27411  0.033698013  0.033868754            4 
 1389000    1.0126286   -6.6700886    561.71518  0.033700215  0.033861367            5 
 1390000    1.0184812   -6.5790594     563.8621  0.033804682  0.033854132            3 
 1391000    1.0265512   -6.6533607    562.93593  0.033724894  0.033846818            2 
 1392000    1.0282147   -6.6462165    562.72524  0.033688053  0.033839478            5 
 1393000    1.0307129   -6.6522435    562.83318  0.033670326  0.033832221            2 
 1394000    1.0100634   -6.6587176     563.5856  0.033691153  0.033824946            7 
 1395000    1.0334289   -6.6645716    565.15518  0.033760763   0.03381758            4 
 1396000    1.0136878    -6.693242    564.77587  0.033713937  0.033810186            5 
 1397000    1.0363771   -6.6508033    565.27049  0.033719309  0.033802748            6 
 1398000    1.0285973   -6.6683887    564.63657  0.033657401  0.033795544            3 
 1399000    1.0353562   -6.6643191    565.38361  0.033677842  0.033788131            3 
 1400000   0.99544104    -6.670945    563.28165   0.03352867  0.033780704            4 
 1401000    1.0360586   -6.6576206    564.94031  0.033603397  0.033773332            6 
 1402000    1.0447886   -6.6587138    564.49052  0.033552694  0.033766029            8 
 1403000    1.0192614    -6.669706    565.06676  0.033563005  0.033758724            3 
 1404000   0.99788721   -6.6387774    567.41044  0.033678207  0.033751095            2 
 1405000    1.0426241   -6.6592847    565.47427  0.033539399  0.033743561            5 
 1406000    1.0357658   -6.6587565    567.15688  0.033615273  0.033735901            2 
 1407000    1.0317463   -6.6605473    565.64628  0.033501912   0.03372822            3 
 1408000    1.0545675   -6.6450669    565.90914  0.033493675   0.03372052            4 
 1409000    1.0042935   -6.6781542    566.03842   0.03347755   0.03371284            4 
 1410000    1.0323606   -6.6843593    566.92971  0.033506484  0.033705207            3 
 1411000    1.0382214   -6.6775266    567.92238  0.033541364  0.033697468            2 
 1412000    1.0577045   -6.6974554     567.7921  0.033509921  0.033689753            4 
 1413000    1.0417706   -6.7063004    568.16698  0.033508314   0.03368198            4 
 1414000    1.0490271   -6.6517506    568.35987  0.033495985  0.033674431            7 
 1415000    1.0348152   -6.6315194    570.54923  0.033601251  0.033666927            2 
 1416000   0.99944852   -6.6509333    568.88889  0.033479808  0.033659527            7 
 1417000    1.0127562   -6.6630721    568.81001  0.033451542  0.033651898            6 
 1418000    1.0058438   -6.6765201    569.17152  0.033449196  0.033644322            7 
 1419000    1.0192503   -6.6890457    570.03348  0.033476244  0.033636727            5 
 1420000    1.0499033   -6.6709944    568.68202  0.033373358  0.033629029            3 
 1421000    1.0223486   -6.6685527    567.96351  0.033307736  0.033621238            2 
 1422000    0.9987228   -6.7059275    569.49677  0.033374166  0.033613475            5 
 1423000    1.0176762    -6.670132    570.02532  0.033381665  0.033605754            4 
 1424000    1.0185907   -6.6696047    570.80735  0.033403988  0.033598143            4 
 1425000    1.0198751   -6.6962654    570.51061  0.033363193  0.033590403            3 
 1426000    1.0142401   -6.6576246     573.5792  0.033519121  0.033582649            2 
 1427000    1.0485344   -6.6762665    572.30007  0.033420934  0.033575167            3 
 1428000    1.0226184   -6.6781457    572.91335  0.033433319  0.033567575            2 
 1429000    1.0052818     -6.61672    572.15412  0.033365647  0.033559968            6 
 1430000    1.0139747   -6.6732492    572.28972  0.033350217  0.033552509            4 
 1431000    1.0023609   -6.6532535    573.50754   0.03339783  0.033545065            2 
 1432000    1.0291806   -6.6808309    573.02741  0.033346567  0.033537553            6 
 1433000    1.0338005   -6.7060008    572.66606  0.033302283  0.033530052            4 
 1434000    1.0366354   -6.6418836    572.48611  0.033268602  0.033522356            3 
 1435000    1.0287837   -6.6831679    572.91512  0.033270332  0.033514614            7 
 1436000    1.0166099   -6.6923718    573.22074  0.033264899  0.033506779            2 
 1437000    1.0005525   -6.6491861    574.72918  0.033329226   0.03349908            4 
 1438000    1.0132823   -6.6703585    573.82321  0.033253547  0.033491356           13 
 1439000    1.0373588   -6.6493613    575.29746  0.033315813  0.033483793            4 
 1440000    1.0313387     -6.65561    575.38962   0.03329801  0.033476351            2 
 1441000    1.0350561   -6.6544761    574.29825  0.033211789  0.033468784            2 
 1442000    1.0244419   -6.6292699    576.47509  0.033314557  0.033461382            3 
 1443000    1.0086417   -6.6772484    575.94064  0.033260605  0.033453825            5 
 1444000    1.0327904   -6.6746794    576.32756  0.033259901  0.033446267            5 
 1445000    1.0155281   -6.7070929    574.69891  0.033142959  0.033438441            4 
 1446000   0.99841897   -6.6794094    575.87928  0.033188063   0.03343063            3 
 1447000    1.0319224    -6.633388    577.46174  0.033256263  0.033422948            5 
 1448000    1.0236117   -6.6302676    578.06489  0.033268007  0.033415474            4 
 1449000    1.0145289   -6.6297835    579.28683  0.033315322  0.033407926            4 
 1450000   0.99765435   -6.6720228    576.96457  0.033158883  0.033400407            2 
 1451000    1.0047948   -6.6926549    578.30133  0.033212803  0.033392836            4 
 1452000    1.0190215   -6.7263416    579.07172  0.033234144   0.03338523            4 
 1453000    1.0174103   -6.6467298    580.62575  0.033300399  0.033377627            2 
 1454000    1.0171744   -6.6565031    579.60082  0.033218754  0.033370113            4 
 1455000    1.0325977   -6.6914854    579.35309  0.033181735  0.033362399            4 
 1456000    1.0196453   -6.6703877    576.26183  0.032982019  0.033354748            3 
 1457000    1.0056327   -6.6979102    578.70324  0.033099018  0.033346958            5 
 1458000   0.98634678   -6.6470433    579.93366  0.033146643  0.033339196            5 
 1459000    1.0175131   -6.7237758    577.85193  0.033005022  0.033331357            7 
 1460000   0.99934399   -6.6953333    579.85368  0.033096671  0.033323437            4 
 1461000    1.0312977   -6.6788764    579.86556  0.033074695  0.033315572            4 
 1462000    1.0242739   -6.7148882    580.75303  0.033102658  0.033307641            4 
 1463000    1.0212181   -6.7084727    580.87393  0.033086918  0.033299682            4 
 1464000     1.003696   -6.6858309     579.7345  0.032999459  0.033291788            2 
 1465000    1.0071458   -6.7125727     581.1806  0.033059192   0.03328373            4 
 1466000    1.0127091   -6.6830251    579.68871  0.032951837  0.033275753            5 
 1467000    1.0491367   -6.6439192    580.21417  0.032959224  0.033267657           10 
 1468000    1.0057326   -6.6373604    582.09343  0.033043451  0.033259837            2 
 1469000    1.0357628   -6.6865314    583.49264  0.033100332  0.033251987            5 
 1470000    1.0180678   -6.6904393    582.11211  0.032999552  0.033244162            3 
 1471000    1.0229369   -6.7011024    581.53418  0.032944379  0.033236285            7 
 1472000     1.012127   -6.6284156    583.91447  0.033056752  0.033228348            5 
 1473000    1.0127423   -6.6956528    582.91928  0.032978009  0.033220509            7 
 1474000    1.0294304   -6.6527871    582.38392  0.032925369  0.033212705            7 
 1475000    1.0117222   -6.7075099    583.16246  0.032947031  0.033204855            4 
 1476000    1.0129006   -6.6942509    583.12675  0.032922694  0.033197125            4 
 1477000    1.0137143   -6.6575578    583.93348   0.03294592  0.033189301            3 
 1478000    1.0159965   -6.7036619    585.98116  0.033039082  0.033181489           10 
 1479000      1.00455   -6.6933618    585.54421  0.032992124  0.033173762            5 
 1480000    1.0114413   -6.6876796    585.51408  0.032968135  0.033165897            6 
 1481000    1.0058504   -6.6564697    587.47071   0.03305597  0.033158204            5 
 1482000    1.0120077   -6.6713889    586.42969  0.032975129  0.033150468            5 
 1483000    1.0472992   -6.6763102    585.53935  0.032902863  0.033142723            5 
 1484000     1.015215    -6.696499    584.55566  0.032825453  0.033134812            5 
 1485000    1.0386114   -6.6973282    587.04124  0.032942831  0.033126971            6 
 1486000    1.0166252   -6.6778372    586.38581  0.032883906  0.033119049            3 
 1487000    1.0057148   -6.6606575    586.94868  0.032893335  0.033111147            6 
 1488000    1.0244835   -6.6715676    588.48173  0.032957086  0.033103254            5 
 1489000   0.99480553   -6.7214313    588.28295  0.032923828   0.03309542            3 
 1490000   0.99939776   -6.6464055    587.81751    0.0328757  0.033087744            6 
 1491000    1.0080401   -6.6854201    588.75032  0.032905786  0.033080022           11 
 1492000    1.0067389   -6.6969202    588.91755  0.032893071  0.033072383            4 
 1493000   0.99235326   -6.6848201    590.11299  0.032937765  0.033064593            3 
 1494000   0.99720509    -6.733963    589.36091  0.032873768  0.033056893            3 
 1495000    1.0328824   -6.6381916    588.96736  0.032829842  0.033049282            2 
 1496000    1.0363559     -6.67214     590.0349  0.032867363  0.033041757            4 
 1497000    1.0254413   -6.7040848    590.97232  0.032897591  0.033034075            4 
 1498000    1.0233663   -6.7075115    589.04213  0.032768254  0.033026427            4 
 1499000    1.0366325   -6.6939804    589.54038  0.032774092  0.033018651            6 
 1500000    1.0286448   -6.6996281    590.33363  0.032796313  0.033010893            5 
 1501000    1.0013648   -6.6750619    593.16377  0.032931589  0.033003255            3 
 1502000    1.0341428   -6.6768547     590.9163   0.03278497  0.032995609            7 
 1503000   0.99126596   -6.6626432     590.8116  0.032757352  0.032988019            8 
 1504000    1.0169027   -6.6979257    590.72794  0.032730936  0.032980325            4 
 1505000   0.99431889   -6.6733004    591.27471  0.032739464  0.032972534            3 
 1506000   0.97613765   -6.7198188     592.1207  0.032764537  0.032964654            3 
 1507000    1.0034085   -6.7155985    591.13589  0.032688337  0.032956769            4 
 1508000    1.0282718   -6.6770626    592.20926  0.032725976  0.032948906            4 
 1509000    1.0275335    -6.658744    592.84858  0.032739595  0.032940997            3 
 1510000    1.0169511   -6.6907893    593.25658  0.032740429  0.032933194            5 
 1511000    1.0136773   -6.7186838    592.48796  0.032676371   0.03292541            2 
 1512000    1.0047222   -6.7021028    592.92643  0.032678926  0.032917318            4 
 1513000     1.024124   -6.6990665    594.85185  0.032763376  0.032909334            7 
 1514000   0.99007047   -6.7019712    592.75115  0.032626109  0.032901267            5 
 1515000    1.0104178   -6.6734362    594.24375  0.032686675   0.03289324            3 
 1516000      1.01878   -6.7134447    592.25701  0.032555904  0.032885217            5 
 1517000    1.0194557   -6.7082895    593.43972  0.032599414  0.032877269            4 
 1518000    1.0119515    -6.671522    593.09214  0.032558857  0.032869273            7 
 1519000    1.0017354   -6.6839288     596.3803  0.032717813  0.032861491            3 
 1520000    1.0131441   -6.6775082    595.18687  0.032630859  0.032853666            4 
 1521000    1.0179329   -6.7086762    593.50904   0.03251748  0.032845728            3 
 1522000    1.0075785   -6.7194164    595.02984  0.032579382  0.032837793            9 
 1523000    1.0023335   -6.6859273    595.74263  0.032596992  0.032829819            2 
 1524000   0.99477487   -6.7217531    596.66404  0.032625986  0.032821981            2 
 1525000    1.0077293   -6.6948858    597.40558  0.032645114   0.03281414            3 
 1526000    1.0163826   -6.7060657    596.72614  0.032586617  0.032806213            5 
 1527000    1.0047484   -6.6933102    596.48875  0.032552322   0.03279824            3 
 1528000    1.0156973   -6.6667729    597.49344  0.032585812  0.032790321            2 
 1529000    1.0124884   -6.6938556     597.3952  0.032559145  0.032782647            6 
 1530000   0.98713434   -6.7354328     597.3261  0.032534102  0.032774953            3 
 1531000    1.0030354   -6.6881292    598.50472  0.032577004  0.032767068            3 
 1532000    0.9851651   -6.7163601    598.92199  0.032578437  0.032759288            5 
 1533000    1.0314498   -6.6878993    599.23018  0.032573939    0.0327515            5 
 1534000    1.0059359   -6.6974415    600.34542  0.032613289  0.032743808            2 
 1535000   0.99921314   -6.6800953    599.43151  0.032542427  0.032735976            3 
 1536000    1.0055091   -6.6594173     601.3077  0.032623031  0.032728251            4 
 1537000   0.99820505   -6.7062528    599.91509  0.032526301  0.032720592            4 
 1538000   0.98926214   -6.7044196    599.70869  0.032493969  0.032712905            3 
 1539000    1.0043204   -6.7177481    600.39513  0.032510025  0.032705186            4 
 1540000    1.0108709   -6.6831735    601.45343  0.032546181  0.032697412            2 
 1541000    1.0057889   -6.7028779     600.2358  0.032459215  0.032689615            3 
 1542000    0.9787821   -6.6874579    601.41624  0.032501958  0.032681988            3 
 1543000    1.0138507   -6.6715364     600.9238  0.032454299  0.032674299            4 
 1544000    1.0059444   -6.7066491    601.52905  0.032465946  0.032666695            4 
 1545000   0.98019038   -6.7272034     601.4551  0.032440944  0.032659002            3 
 1546000   0.99316308   -6.6893168     604.7503   0.03259758  0.032651354            3 
 1547000    1.0028444    -6.722673    602.93865  0.032478919  0.032643756            4 
 1548000   0.99617489   -6.7103693    604.93698  0.032565514  0.032636152            4 
 1549000    1.0157863   -6.7109153     603.6081  0.032472999  0.032628595            4 
 1550000    1.0270968   -6.6953774    605.00457  0.032527127  0.032621106            5 
 1551000    1.0169987   -6.7083331    604.38583  0.032472911  0.032613643            4 
 1552000     1.007246    -6.706041    603.96888    0.0324296   0.03260604            8 
 1553000    1.0037689   -6.7145028    604.68909  0.032447365  0.032598365            2 
 1554000   0.99615434   -6.7106506    606.31891  0.032513884  0.032590804            5 
 1555000   0.99427991    -6.723541    604.03563  0.032370613  0.032583038            5 
 1556000   0.96493507   -6.6854892    606.14932   0.03246301  0.032575457            6 
 1557000   0.98870624   -6.7205883    605.56895  0.032411098  0.032567839            4 
 1558000    1.0011291   -6.7076838    605.08664  0.032364497  0.032560087            5 
 1559000    1.0127505   -6.7303945    605.73353  0.032378316  0.032552179            3 
 1560000    1.0052135   -6.7000938    604.57286  0.032295559  0.032544479            5 
 1561000   0.99035089    -6.748251    606.70853  0.032388882   0.03253675            8 
 1562000   0.99399615   -6.6757541    606.76638  0.032371232  0.032529081            2 
 1563000    1.0118681   -6.7226649    606.20374  0.032320523  0.032521403            4 
 1564000    1.0044323    -6.705581    607.65768  0.032377327  0.032513672            7 
 1565000    1.0083114   -6.6921639    609.43545  0.032451302  0.032506021            5 
 1566000    1.0040741   -6.7128059    607.93857  0.032350925  0.032498354            7 
 1567000    0.9937818   -6.7289534    607.98847  0.032332933  0.032490655            4 
 1568000    1.0042872   -6.7364404    606.39959  0.032227869  0.032482858            5 
 1569000   0.98183093   -6.6789935    610.02406  0.032399833  0.032475201            4 
 1570000    1.0135865   -6.7307295     607.2157  0.032230133  0.032467613            4 
 1571000   0.99449228   -6.7017241    607.66698  0.032233555  0.032459649           13 
 1572000    1.0067868   -6.7290925    608.12871  0.032237527  0.032451864            5 
 1573000   0.98278811   -6.7068209     610.5596  0.032345815   0.03244414            5 
 1574000    1.0022596   -6.6928162    609.93739  0.032292323  0.032436338            5 
 1575000    1.0179383   -6.7063537    609.41156  0.032243998  0.032428615            4 
 1576000   0.99767812    -6.718826    610.64932  0.032288987  0.032420921            8 
 1577000      1.02354     -6.68176    612.27288  0.032354306  0.032413226            5 
 1578000    1.0053874   -6.7547235    609.05911  0.032164085  0.032405542            6 
 1579000   0.98815292   -6.7060596     610.7779  0.032234426  0.032397785            8 
 1580000    1.0091487   -6.6939092    611.64223  0.032259611  0.032390151            4 
 1581000    1.0175775   -6.7066904    610.65744  0.032187299  0.032382585            3 
 1582000    1.0054081   -6.7567577    611.20216  0.032195647  0.032374978            2 
 1583000    0.9877468   -6.7522735     610.6762   0.03214762  0.032367286            2 
 1584000   0.99464247   -6.7303748    611.62605  0.032177296  0.032359691            4 
 1585000   0.99351852   -6.7278437    612.54554  0.032205338  0.032351999            8 
 1586000    1.0024957   -6.6940175    614.07154  0.032265214  0.032344398           10 
 1587000     1.013986   -6.7629981    613.31227  0.032205013  0.032336783            5 
 1588000   0.99326643   -6.7000984    612.66789  0.032150918  0.032329253            5 
 1589000   0.99395034   -6.7236913    614.23728  0.032212989  0.032321616            3 
 1590000   0.98391011   -6.7109816    613.31535   0.03214441  0.032314005            4 
 1591000   0.99904549   -6.7452144    614.45252  0.032183769  0.032306454            6 
 1592000   0.99786039   -6.7084934    613.95213   0.03213736  0.032298852            6 
 1593000    1.0129522   -6.7082513    614.25396  0.032132975  0.032291175            6 
 1594000   0.99044191   -6.7384203    614.13461  0.032106577  0.032283413            3 
 1595000    0.9918973   -6.7467932    613.99747  0.032079282  0.032275511            4 
 1596000   0.99893377   -6.7254598    613.78763  0.032048226  0.032267822            3 
 1597000   0.97327094   -6.6807745     615.5502  0.032120132  0.032260152            7 
 1598000   0.98171124   -6.7471586     614.5604  0.032048414  0.032252293            3 
 1599000    1.0017475   -6.7095048    612.97484  0.031945739  0.032244267            1 
 1600000   0.99032337   -6.7693873    614.40505  0.032000263  0.032236527            3 
 1601000   0.99874445    -6.730704    616.20112  0.032073762  0.032228815            5 
 1602000   0.99390663   -6.7233456    615.66049  0.032025619  0.032221168            6 
 1603000    0.9925131   -6.7532044    616.30526  0.032039159  0.032213513            3 
 1604000   0.99534761   -6.7507186    616.33627  0.032020795  0.032205871            6 
 1605000   0.98323645   -6.7053226    616.58562  0.032013791  0.032198141            2 
 1606000   0.99090781   -6.7339303    615.14542  0.031919127  0.032190349            3 
 1607000    1.0006738   -6.7038956    617.98786  0.032046663  0.032182571            5 
 1608000    1.0120618   -6.6871699    617.62203  0.032007775  0.032174919            4 
 1609000   0.99183546   -6.7154799    618.48098  0.032032369   0.03216731            3 
 1610000   0.95512567   -6.7209582    618.49944  0.032013428  0.032159751            3 
 1611000    1.0016383   -6.7251222    618.32108  0.031984331  0.032152057            6 
 1612000    1.0107341   -6.7519236    618.11115  0.031953637  0.032144407            3 
 1613000    1.0060254    -6.712345    619.63783    0.0320127   0.03213685            6 
 1614000   0.99742714   -6.6998837    619.93212   0.03200806  0.032129213            5 
 1615000   0.99253812   -6.6978113    619.48498  0.031965169  0.032121522            4 
 1616000     1.003974    -6.734702    620.56388  0.032001025   0.03211376            7 
 1617000   0.99782062   -6.7256127    619.68157  0.031935764  0.032106075            5 
 1618000   0.98471507   -6.7025133    620.06309  0.031935676  0.032098442            5 
 1619000   0.99804844   -6.6915896    621.74282   0.03200241  0.032090822            3 
 1620000    0.9857621    -6.732589    618.94999  0.031838991  0.032083207            4 
 1621000   0.99086866   -6.7267971    620.39819    0.0318938  0.032075518            3 
 1622000     1.004857   -6.7143964    621.78146  0.031945205  0.032067761            5 
 1623000   0.99371447   -6.7164591    620.55297  0.031862444  0.032060043            7 
 1624000   0.98458348   -6.7100149    621.09404  0.031870589  0.032052364            7 
 1625000   0.99644017   -6.7113704    621.90542  0.031892586   0.03204479            5 
 1626000   0.99268152   -6.7153956    620.80789  0.031816723  0.032037142            4 
 1627000   0.99704528   -6.6993169    621.62242  0.031838887  0.032029531            2 
 1628000    1.0016096   -6.7477537    620.77102  0.031775748  0.032021827            2 
 1629000   0.99488498   -6.7204009    623.52642  0.031897198   0.03201411            5 
 1630000    1.0292435   -6.7531643    623.01494   0.03185148  0.032006375            2 
 1631000   0.98964328   -6.7353823    622.19331  0.031789971  0.031998614            3 
 1632000   0.98626458   -6.7115863    624.06015  0.031865816   0.03199079            4 
 1633000   0.98123863   -6.7144427    622.21014  0.031751895  0.031983081            2 
 1634000     1.003334   -6.7434572    623.19491  0.031782686   0.03197523            8 
 1635000   0.97731352   -6.7002381    623.56638   0.03178218  0.031967495            4 
 1636000   0.98186428   -6.7696003    622.73536  0.031720424  0.031959719            4 
 1637000    1.0092356    -6.720375    623.16177  0.031722753  0.031951901            2 
 1638000   0.97957944   -6.7384485    624.80002  0.031786733  0.031944055            4 
 1639000   0.96999399   -6.7254058    626.01675  0.031829202   0.03193624            4 
 1640000    1.0043387    -6.760567    625.00681  0.031758476  0.031928494            2 
 1641000   0.98929454   -6.6847985    624.98147  0.031737836  0.031920837            6 
 1642000   0.97410547   -6.7533772    625.96708  0.031768528  0.031913237            8 
 1643000   0.99501744   -6.7345723    625.60984  0.031731073  0.031905471            3 
 1644000    1.0000745   -6.7195926    627.61637  0.031813482  0.031897796            3 
 1645000   0.97208775   -6.7414445    625.20691  0.031672083  0.031890105            3 
 1646000   0.97436283   -6.7414954    625.24713  0.031654877  0.031882399            2 
 1647000   0.98339994   -6.7423129    627.30271  0.031739664  0.031874761            5 
 1648000   0.97595858   -6.7646094    627.77254  0.031744161  0.031867094            6 
 1649000    1.0017205   -6.7268259    627.85705  0.031729182  0.031859306            3 
 1650000    1.0115693   -6.7547915    626.35317  0.031633999  0.031851554           17 
 1651000    0.9691178   -6.7409758    626.90587  0.031642735  0.031843812            4 
 1652000   0.98785799   -6.7629714    628.83719  0.031721004  0.031836095            7 
 1653000   0.97593979   -6.7192835    628.93854  0.031706924  0.031828456            3 
 1654000    0.9858625   -6.7235642    628.00585  0.031640762  0.031820715            4 
 1655000   0.99380984   -6.8044244     628.2208  0.031632467  0.031813028           10 
 1656000   0.98128599   -6.7400814     629.4957  0.031677521   0.03180528            3 
 1657000   0.99523587   -6.7356912    629.84409  0.031675925  0.031797498            5 
 1658000   0.98936752   -6.7212402    629.43651  0.031636334   0.03178972            5 
 1659000    1.0083895   -6.7241889    629.86966  0.031639023  0.031782081            4 
 1660000   0.96471806   -6.7522479    628.95176  0.031573883  0.031774356           11 
 1661000   0.98040222   -6.7548289    628.59043  0.031536746   0.03176659            4 
 1662000   0.97959953   -6.7263711    630.79348  0.031628233    0.0317589            9 
 1663000   0.97327033   -6.7130069    630.89553  0.031614328  0.031751285            6 
 1664000    1.0158561   -6.7432463    630.88603  0.031594853  0.031743554            5 
 1665000   0.98516385   -6.7291177    631.97049  0.031630155  0.031735897            4 
 1666000   0.98511632   -6.7192181    632.48448  0.031636879  0.031728345            6 
 1667000   0.98748041   -6.7282788    631.50615  0.031568994  0.031720789            3 
 1668000   0.98508671   -6.7031133    634.11413  0.031680362  0.031713236            6 
 1669000     1.003264   -6.7363826    630.77369  0.031494592  0.031705582            9 
 1670000   0.99072123   -6.7664657    630.54952  0.031464547   0.03169765            4 
 1671000      0.97944   -6.7828626    630.59768  0.031448119  0.031689895            5 
 1672000   0.98495846   -6.7437931    632.24309  0.031511318  0.031682071            5 
 1673000    0.9927903    -6.746753    632.48963  0.031504764  0.031674154            4 
 1674000   0.97805491   -6.7655196    632.79108   0.03150095  0.031666307            5 
 1675000   0.99553451   -6.7093969    632.90476  0.031487799  0.031658504            4 
 1676000   0.98851666   -6.7320556    633.22511   0.03148494  0.031650811            3 
 1677000   0.98674674   -6.7206942    634.32304  0.031520723  0.031643156            6 
 1678000   0.98552307   -6.7226514    633.45387  0.031458774  0.031635492            3 
 1679000   0.99763597   -6.7451673    633.19278  0.031427079  0.031627795            4 
 1680000   0.96828658    -6.725544     633.1248     0.031405  0.031620204            4 
 1681000   0.98529732   -6.7665803    633.36571   0.03139826  0.031612528            7 
 1682000    0.9630458   -6.7719175    636.15188  0.031517632  0.031605009            5 
 1683000   0.98024959   -6.7335516    635.62433  0.031472783  0.031597453            6 
 1684000   0.96151673    -6.752051    636.47801  0.031496339  0.031590004            3 
 1685000   0.98202331   -6.7389346    636.94163  0.031500575  0.031582471            5 
 1686000     1.003863   -6.7408622    637.09569  0.031489506  0.031575124            6 
 1687000   0.98753661   -6.7494016    638.18322  0.031524561  0.031567775            4 
 1688000   0.99607872   -6.7611641    638.34124  0.031513687  0.031560359            8 
 1689000   0.97564892   -6.7700805    637.81868  0.031469246  0.031552952            5 
 1690000   0.96555189   -6.7457674     636.8287   0.03140181  0.031545563            5 
 1691000   0.98616362   -6.7886292    638.39387  0.031460372  0.031538103            5 
 1692000   0.98442319   -6.7495507    637.14504  0.031380272  0.031530604            3 
 1693000   0.97828842   -6.7607271    637.66967   0.03138756  0.031523063            4 
 1694000   0.97542416   -6.7630907    637.65266  0.031368194  0.031515502            6 
 1695000     1.001847   -6.7468193    639.11005   0.03142134  0.031507982            3 
 1696000   0.98739788   -6.7338007    637.94264  0.031345452   0.03150045            3 
 1697000    1.0012199   -6.7643232     638.0755  0.031333505  0.031492882           15 
 1698000   0.97738253   -6.7720534    640.06902  0.031412889  0.031485392            2 
 1699000   0.99289418   -6.7584518    638.97257   0.03134062  0.031477892            3 
 1700000   0.97808557   -6.7902601    637.67001  0.031258334  0.031470325            3 
 1701000    0.9627456   -6.7745571    637.84212  0.031248389   0.03146269            4 
 1702000    1.0079625   -6.7793769    639.98207  0.031334805  0.031455109            4 
 1703000   0.98452972     -6.75375     638.8566  0.031261333  0.031447566            7 
 1704000   0.98488781   -6.7662225    638.71712  0.031236166  0.031439932            8 
 1705000   0.96862316   -6.7374134    642.82566  0.031418654  0.031432332            4 
 1706000   0.98296152   -6.7460873    641.52022   0.03133647   0.03142482            3 
 1707000    0.9786605   -6.7504731    641.68562  0.031326187  0.031417426            3 
 1708000   0.96524817   -6.7358161    643.56653  0.031399616  0.031410105            7 
 1709000   0.98103404   -6.7521804    643.50248   0.03137812  0.031402753            7 
 1710000   0.97196454   -6.7406373    643.41273  0.031355396  0.031395408            8 
 1711000   0.99452485   -6.7459176    642.33439  0.031284551  0.031387922            5 
 1712000    1.0004957    -6.783139    641.48415   0.03122489  0.031380338            6 
 1713000   0.96308896    -6.751066    643.50864  0.031305149  0.031372723            2 
 1714000   0.97876179    -6.729623    641.25555  0.031177341  0.031365087            7 
 1715000   0.97759843    -6.782187    640.45049  0.031120043  0.031357444            4 
 1716000   0.96397797   -6.7558143    641.37422  0.031146767  0.031349686            6 
 1717000   0.96542334   -6.7455735    641.50582  0.031135014   0.03134205            8 
 1718000   0.96156539   -6.7742997    640.19872  0.031053488  0.031334369            3 
 1719000   0.97302119   -6.7299429    644.38616  0.031238422  0.031326686            2 
 1720000   0.97458174   -6.7439431     644.4057  0.031221206  0.031319193            3 
 1721000   0.97369345   -6.7588003    642.59681  0.031115476  0.031311564            4 
 1722000   0.95340605   -6.7770854    643.35499  0.031134098  0.031303892            4 
 1723000   0.97367408   -6.7555892    644.81524  0.031186653  0.031296333            2 
 1724000   0.94543085   -6.7880981    643.03052  0.031082295  0.031288779            3 
 1725000   0.98972965   -6.7750163    644.62101  0.031141112  0.031281111            3 
 1726000   0.97229241   -6.7932844    645.98682  0.031189012  0.031273444            7 
 1727000   0.98498295   -6.7404151    644.41938  0.031095319  0.031265776            3 
 1728000   0.99659235   -6.7334008    645.73489  0.031140764   0.03125823            4 
 1729000   0.94982723   -6.7174199     647.8768  0.031225988  0.031250686            3 
 1730000    0.9638374    -6.739874    644.82429    0.0310609  0.031242984            3 
 1731000   0.96049489   -6.7045299    648.40575  0.031215374  0.031235468            3 
 1732000   0.97907304    -6.758739    646.06859  0.031084901  0.031227998            6 
 1733000   0.96528705   -6.7566898    646.04323  0.031065745  0.031220433            2 
 1734000   0.97667553    -6.767932    645.65073  0.031028966  0.031212835            2 
 1735000   0.96172123   -6.7805031    647.28984   0.03108981    0.0312051            6 
 1736000   0.97622624   -6.7609506     645.9086  0.031005597  0.031197308            7 
 1737000   0.96367483   -6.7597352    645.93961  0.030989235   0.03118961            2 
 1738000    0.9887809   -6.7394782    647.84392  0.031062712  0.031181992            4 
 1739000   0.96069393   -6.7391946    648.57854  0.031080053  0.031174318            2 
 1740000   0.97815055   -6.7482553    648.69606  0.031067819   0.03116679            7 
 1741000   0.95904498   -6.7452061    648.50711   0.03104093  0.031159222            3 
 1742000   0.93985841   -6.7317659    648.29309  0.031012873  0.031151694            3 
 1743000   0.98275432   -6.7660975    647.81052  0.030972008  0.031144086            4 
 1744000   0.96709657     -6.77083    649.54863  0.031037301  0.031136604            3 
 1745000   0.96213813   -6.7531619    649.55957  0.031020037  0.031129088            4 
 1746000   0.94859836   -6.7701552    650.77287  0.031060179  0.031121604            6 
 1747000   0.97398436   -6.7850336    650.71978  0.031039867  0.031114018            4 
 1748000   0.98177436   -6.7340208    650.79414  0.031025655  0.031106532            5 
 1749000   0.98663005   -6.7807531    649.52335  0.030947367  0.031098976            5 
 1750000   0.94626713   -6.7709332    651.49146  0.031023403   0.03109148            4 
 1751000   0.98663644    -6.772851    650.56146  0.030961425  0.031083981            5 
 1752000   0.97044414   -6.7239536    652.11436  0.031017616  0.031076488            5 
 1753000   0.97007553   -6.7920908    649.97357  0.030898154  0.031068979            6 
 1754000   0.96742164   -6.7792295    652.78473  0.031014098  0.031061351            3 
 1755000   0.98017461   -6.7302016    654.73733  0.031089142  0.031053813            6 
 1756000    1.0036486    -6.755274     651.9546  0.030939379   0.03104644            4 
 1757000   0.95416081   -6.7478546    652.18504    0.0309327  0.031038983            7 
 1758000   0.97498594   -6.7708722    652.23827  0.030917627  0.031031485            4 
 1759000   0.95082164   -6.7471294    654.64945  0.031014281   0.03102407           11 
 1760000   0.95615422   -6.7889353    651.25464   0.03083592  0.031016493            3 
 1761000   0.97344537   -6.7640024    653.79041  0.030938407  0.031008962            8 
 1762000   0.95338947   -6.7746558     652.8743  0.030877521  0.031001398            8 
 1763000   0.97975347   -6.7653997    653.19352  0.030875095  0.030993905            3 
 1764000   0.95903164   -6.7748328    653.37462  0.030866148  0.030986468            4 
 1765000   0.95354468   -6.7784087    654.87063  0.030919293  0.030978938            2 
 1766000   0.98350567   -6.7861145    652.71077  0.030799867  0.030971356            8 
 1767000   0.96470166   -6.7684348    653.50604  0.030819941  0.030963805            5 
 1768000   0.95144696   -6.7799525    655.47099  0.030895126  0.030956171           12 
 1769000   0.96634816   -6.7910331    655.16178  0.030863095  0.030948556            6 
 1770000   0.98652872   -6.7653014    654.03428  0.030792574  0.030940919            2 
 1771000   0.94828293   -6.7616738    655.29948   0.03083472  0.030933373            7 
 1772000   0.95650346   -6.7927283     654.7933  0.030793515  0.030925796            3 
 1773000   0.97214931   -6.7904928     655.0971  0.030790426  0.030918269            4 
 1774000   0.97413183   -6.7867895    656.32697  0.030830842  0.030910792            3 
 1775000   0.95255926   -6.7679233    655.09021  0.030755409  0.030903184            4 
 1776000   0.95600033   -6.7999377     654.8102  0.030724953  0.030895613            5 
 1777000   0.95967909   -6.7753062    656.12094  0.030769131  0.030888075            2 
 1778000    0.9478514   -6.7350855    656.56844  0.030772799  0.030880536            4 
 1779000   0.94062026   -6.7691783    658.70072  0.030855383  0.030873014            4 
 1780000   0.97194684   -6.7683703    656.61862  0.030740572  0.030865381            3 
 1781000   0.97035591   -6.7748495    655.88206  0.030688848  0.030857693            5 
 1782000   0.97392568   -6.8331299    656.37431  0.030694646   0.03085016            3 
 1783000   0.97775946   -6.7802079    656.16902  0.030667836  0.030842568           18 
 1784000   0.95092226   -6.7678817    656.19575  0.030651894  0.030834955            5 
 1785000    0.9671661   -6.7535731     657.7238   0.03070606  0.030827417            5 
 1786000   0.96727611   -6.7824233    657.17115  0.030663081  0.030819804            5 
 1787000   0.97854863   -6.7381876    658.59038  0.030712105   0.03081221            2 
 1788000    0.9631349   -6.7748529    656.99102  0.030620387  0.030804603            5 
 1789000   0.95893039   -6.7817584    657.28583  0.030617004  0.030796906            3 
 1790000   0.96690479   -6.7795484    660.77481  0.030762328  0.030789295            5 
 1791000    0.9810448   -6.7491039    659.11213  0.030667789  0.030781719            7 
 1792000     0.952533   -6.7881029    659.77159  0.030681342  0.030774105            4 
 1793000    0.9482736   -6.7863738    660.35873   0.03069152  0.030766607            3 
 1794000     0.948797   -6.7696538     659.5064   0.03063482  0.030759098            6 
 1795000   0.97624628   -6.8218405    660.94512  0.030684546  0.030751531            4 
 1796000   0.96763946   -6.7754374    661.82511  0.030708292  0.030744011           11 
 1797000   0.97399773   -6.7455598    662.02141  0.030700307  0.030736577            4 
 1798000   0.97907001   -6.7643531    660.67702  0.030620922  0.030729116            4 
 1799000   0.95968981   -6.7516281    660.33025  0.030587838  0.030721501            5 
 1800000   0.96012022   -6.7930284    659.71656  0.030542433  0.030714047            3 
 1801000   0.95855016   -6.8044555    662.55606   0.03065686  0.030706476            2 
 1802000    0.9945837   -6.7740275    662.14814  0.030620983  0.030698858            4 
 1803000   0.96298812   -6.8032112    660.43828  0.030524971  0.030691294            3 
 1804000   0.93656943   -6.7900044    661.16312  0.030541534    0.0306837            4 
 1805000   0.97060106   -6.7891629    660.72238  0.030504265  0.030676013            3 
 1806000   0.96607505   -6.7555982    662.08453  0.030550227   0.03066845            3 
 1807000   0.95653491   -6.7748394    664.58017  0.030648412  0.030660891            4 
 1808000   0.95613023   -6.7834106    662.30722  0.030526697  0.030653357            4 
 1809000   0.97521701   -6.8234256    661.02431  0.030450724  0.030645719            4 
 1810000   0.93996724   -6.7838633    661.96595  0.030477254  0.030638046            3 
 1811000   0.95757771   -6.7689144    664.94188  0.030597362  0.030630399            2 
 1812000   0.97146825   -6.7931784    662.70201  0.030477466  0.030622731            3 
 1813000   0.95727362    -6.787723    663.29156  0.030487753  0.030615127            4 
 1814000   0.95353372   -6.7700139    665.77567  0.030585064  0.030607579            5 
 1815000   0.95549855   -6.7755396    664.22579  0.030497052  0.030599965            3 
 1816000   0.95543472   -6.7937449    662.68627  0.030409612   0.03059244            4 
 1817000   0.94835044   -6.8017545    663.83807  0.030445701  0.030584858            4 
 1818000   0.95741116   -6.7849789    665.78765  0.030518319  0.030577218            4 
 1819000   0.97084973   -6.8168843    664.75581   0.03045427  0.030569566            7 
 1820000   0.95654943   -6.8015584    664.42511  0.030422395  0.030561954            3 
 1821000   0.95356234   -6.7900378    664.89364   0.03042713  0.030554447            5 
 1822000   0.97528085   -6.7948746    665.00351  0.030415455  0.030546842            5 
 1823000   0.94832631   -6.7813837    664.95103  0.030396372  0.030539283            6 
 1824000   0.95121162    -6.766707    664.81091  0.030373305  0.030531638            5 
 1825000   0.95472447   -6.7848544    666.85819  0.030450146  0.030524129            6 
 1826000   0.97311063   -6.8126814    665.95071  0.030392055  0.030516634            9 
 1827000   0.95784253   -6.8050951    665.77765  0.030367526  0.030509128            5 
 1828000   0.95022939   -6.8308002    666.14776  0.030367786  0.030501516            6 
 1829000   0.94937493   -6.7722457    669.12526  0.030486844  0.030494001            5 
 1830000   0.96391856   -6.7969603    666.54966  0.030352899  0.030486422           10 
 1831000   0.95280895   -6.7947937     666.2003  0.030320421  0.030478988            9 
 1832000   0.95225241   -6.8042379    667.33787  0.030355616  0.030471487            4 
 1833000   0.96940297   -6.7972374    668.57009  0.030395076  0.030463963            5 
 1834000   0.96310073   -6.7925512    667.38187  0.030324513  0.030456436            7 
 1835000    0.9850868     -6.79573    669.09828  0.030385935  0.030448931            6 
 1836000   0.94281308    -6.792499    668.64629  0.030348869  0.030441455            4 
 1837000   0.93388549   -6.7997203    669.24621  0.030359563  0.030433966            4 
 1838000   0.95489605   -6.7874766     669.5093  0.030354974  0.030426547            4 
 1839000   0.97675893   -6.8085889     668.7593  0.030304482  0.030419044            3 
 1840000   0.95372369   -6.8041623    669.57109  0.030324778  0.030411513            5 
 1841000   0.96539915   -6.8240339    668.52551  0.030260977  0.030404035            6 
 1842000   0.96449623   -6.7778812    671.35072  0.030372363  0.030396551            2 
 1843000   0.95606358   -6.7748531     670.2679  0.030306923  0.030389094            3 
 1844000   0.96727808    -6.809618    669.01962  0.030234075  0.030381539            3 
 1845000   0.94282297   -6.7995984    670.52116  0.030285508  0.030373892            3 
 1846000   0.95088598   -6.8194526    667.99067  0.030154869   0.03036619            5 
 1847000   0.94426344   -6.8030923    669.36435  0.030200521  0.030358479            8 
 1848000   0.95709765   -6.8301738    667.87633  0.030117078  0.030350776            3 
 1849000   0.95468384   -6.7973076    668.36275  0.030122713  0.030343047            4 
 1850000   0.95956422   -6.7835971    671.10181  0.030229811  0.030335442            3 
 1851000   0.93020455   -6.7750748      670.731  0.030196786  0.030327786           10 
 1852000   0.95320695   -6.7923529    671.41193   0.03021112  0.030320075            4 
 1853000   0.95262275   -6.7976162    669.43008  0.030105688    0.0303123            3 
 1854000   0.96305248   -6.8111613    669.63133  0.030098496  0.030304619            4 
 1855000   0.98546305   -6.8093545    670.79474  0.030134534  0.030296792            6 
 1856000   0.95387873   -6.7954857    670.43671  0.030102223   0.03028907            3 
 1857000   0.96587566   -6.7615314    671.74986  0.030144941  0.030281436            3 
 1858000   0.95167651   -6.8106429     670.4694  0.030071286  0.030273684            7 
 1859000   0.96079966   -6.8401491    670.71755  0.030066234  0.030265854            7 
 1860000   0.93823344   -6.8286092     670.1338  0.030023916  0.030258009            6 
 1861000   0.94273472   -6.7954508    670.22727  0.030011968  0.030250227            3 
 1862000   0.95923636   -6.8135148    671.38079  0.030047475  0.030242272            8 
 1863000   0.95896245   -6.8061333      672.586  0.030085257  0.030234341            4 
 1864000   0.95984712   -6.8383925    671.52332  0.030021608   0.03022652            3 
 1865000   0.97114244   -6.8170125    672.38127  0.030043846  0.030218704            2 
 1866000   0.94041807   -6.8343086    671.55946  0.029991044  0.030210909            3 
 1867000   0.97154379   -6.8211443    673.01759  0.030040064  0.030203062            4 
 1868000   0.94184481   -6.8194595    672.97526  0.030022094  0.030195318           10 
 1869000   0.95935626   -6.7966474     675.7872  0.030131407  0.030187599            4 
 1870000   0.95177018   -6.8435377    673.80595  0.030027003  0.030179908            5 
 1871000   0.94908974   -6.8071805    673.43619  0.029994485  0.030172237            5 
 1872000   0.96953577   -6.8190745    674.78711    0.0300386  0.030164547            4 
 1873000   0.94855165   -6.8618527    673.92397   0.02998416  0.030156883            7 
 1874000   0.95518827   -6.7957376     677.6563  0.030134129  0.030149197            7 
 1875000   0.93074228   -6.7952148    674.76916  0.029989741  0.030141563            4 
 1876000   0.95886052   -6.7974456      677.069  0.030075915   0.03013402            2 
 1877000   0.94521206   -6.8402209    674.20099   0.02993256  0.030126298            2 
 1878000   0.94674203   -6.7779467    676.62991  0.030024401  0.030118605            4 
 1879000      0.94723   -6.8005921    672.50879  0.029825651  0.030110754           13 
 1880000   0.96716916   -6.8463794      676.228  0.029974645  0.030102925            4 
 1881000   0.93895008   -6.7876864    676.64154  0.029977031  0.030095174            9 
 1882000   0.96233599   -6.8125844     675.9822  0.029931907   0.03008747            3 
 1883000   0.97271957   -6.7954391    677.42985  0.029980079  0.030079731            4 
 1884000   0.94304926   -6.8005537    675.80003  0.029892075  0.030071984            3 
 1885000   0.97533039   -6.8196834    677.02688  0.029930454  0.030064237            6 
 1886000   0.94291962   -6.8084174    675.98011  0.029868333  0.030056556            3 
 1887000    0.9477589   -6.8297028    676.08668  0.029857211  0.030048806            4 
 1888000   0.97409099   -6.8350282    675.94689  0.029835226  0.030041084            6 
 1889000    0.9449258    -6.811556    677.32759  0.029880342  0.030033324            2 
 1890000   0.92795961    -6.797235    676.16646  0.029813336  0.030025535           11 
 1891000   0.97084191   -6.7725854    677.80448  0.029869755   0.03001777            6 
 1892000   0.95986289   -6.8013457    678.30845  0.029876165   0.03001007            2 
 1893000   0.97036826   -6.8207229    678.14011  0.029852972  0.030002336            7 
 1894000    0.9532625    -6.799103    676.94757   0.02978474  0.029994562            3 
 1895000   0.95573628   -6.8066013    678.40453  0.029833093  0.029986769            4 
 1896000    0.9332743   -6.8067636    678.23479  0.029809898  0.029978982            3 
 1897000   0.95948472   -6.8312161    677.69409  0.029770431  0.029971178            8 
 1898000   0.96347764    -6.819656    678.93307  0.029809144  0.029963315            2 
 1899000   0.93695322   -6.8388253    677.24731  0.029719471  0.029955423            2 
 1900000   0.95216606   -6.8299098    678.02654  0.029738006  0.029947614            5 
 1901000   0.95614328   -6.8346525    679.78333  0.029799374  0.029939869            5 
 1902000   0.94545689   -6.8075221    678.51844  0.029728288   0.02993209            3 
 1903000   0.94291529   -6.8248186    680.25604  0.029788756  0.029924305            6 
 1904000   0.93338819   -6.8091937    679.29385  0.029730998  0.029916395            3 
 1905000   0.96122649   -6.8333701    678.53133  0.029682035  0.029908546            4 
 1906000   0.94193773   -6.8161902    679.28639  0.029699475  0.029900757            3 
 1907000    0.9230496   -6.8329591    678.97614  0.029670344   0.02989291            4 
 1908000   0.93515984   -6.8054819    679.74784  0.029688498  0.029885179            3 
 1909000   0.96413179   -6.8126173    681.89541  0.029766693  0.029877503            5 
 1910000   0.95418878   -6.8345746    682.36118   0.02977143  0.029869832            3 
 1911000   0.93475528   -6.8332021    682.65818  0.029768802  0.029862107            3 
 1912000    0.9689028   -6.8120159    682.18055  0.029732416  0.029854428            3 
 1913000   0.94638612   -6.8236107    682.38918  0.029725962  0.029846708           10 
 1914000   0.95186651   -6.7994716    682.58817  0.029719095  0.029838976            4 
 1915000   0.93424319    -6.833962    681.82999  0.029670583  0.029831197            8 
 1916000   0.94234037   -6.8016979    684.15304  0.029756134  0.029823451            4 
 1917000   0.93803594   -6.8359713    681.38022  0.029620076   0.02981576            4 
 1918000   0.95104841   -6.8146884    682.16416  0.029638693  0.029807935            8 
 1919000   0.92901289   -6.7934613    683.22225  0.029669196  0.029800287            9 
 1920000   0.93228965   -6.8273046    682.13367  0.029606496  0.029792453            6 
 1921000    0.9351585   -6.8422216     681.9092  0.029581346  0.029784597            6 
 1922000   0.92917282   -6.7931495    684.65001   0.02968479  0.029776846           10 
 1923000   0.97925441    -6.830524    682.63128  0.029581872  0.029769029            9 
 1924000   0.96727312   -6.8080759    682.87825  0.029577194    0.0297612            5 
 1925000   0.93543202   -6.8059432    682.57062  0.029548511  0.029753418            5 
 1926000   0.95493816   -6.8235998    684.49451  0.029616412  0.029745657            4 
 1927000   0.94133173   -6.8352981    683.43376   0.02955517   0.02973792            4 
 1928000   0.97339337   -6.8292937    684.61138  0.029590741  0.029730196            3 
 1929000   0.93439032   -6.8057882    685.83636  0.029628321  0.029722518           10 
 1930000   0.92327087   -6.8417076    683.85721  0.029527513  0.029714757            4 
 1931000   0.95971049   -6.8248384    684.42508  0.029536729  0.029706874            6 
 1932000   0.94296691   -6.8320317    682.45928  0.029436649  0.029698947           10 
 1933000   0.93176206   -6.7895668    684.20335  0.029496609  0.029691051           10 
 1934000   0.96693473   -6.8046888    685.82184  0.029551096  0.029683194           10 
 1935000   0.92832552   -6.8413188    684.78644  0.029491234  0.029675357            2 
 1936000     0.934545   -6.8272895    683.94698  0.029439867  0.029667406            3 
 1937000   0.96847369   -6.8200679    684.58858  0.029452271  0.029659444            4 
 1938000    0.9334801   -6.8510884    685.49891  0.029476217  0.029651433            4 
 1939000   0.95690025    -6.802358    684.39359  0.029413512  0.029643495            9 
 1940000   0.94070569   -6.8471326    683.79789  0.029372762  0.029635586            3 
 1941000   0.94566319   -6.8341745    685.53305  0.029432125  0.029627595            4 
 1942000   0.93789822   -6.8319804    684.59922  0.029376897  0.029619527            9 
 1943000   0.95660215    -6.865924    686.98134  0.029463945  0.029611691           13 
 1944000   0.94708932   -6.7989813    686.89319   0.02944501  0.029603813            6 
 1945000   0.95380547   -6.8450007    683.68919  0.029292596  0.029595888            9 
 1946000    0.9361007   -6.8378216     685.1174  0.029338703  0.029587939            2 
 1947000   0.94147695   -6.8286971     685.8406  0.029354588   0.02958008            7 
 1948000   0.95785494   -6.8458907    683.36686  0.029233695  0.029572133            6 
 1949000   0.92329291    -6.862186    685.73726  0.029320047  0.029564108            3 
 1950000   0.93922631   -6.8345768    687.16477  0.029366016  0.029556181            3 
 1951000   0.93707527   -6.8181687    685.58435  0.029283459  0.029548279            5 
 1952000   0.93844767   -6.8644038    685.64391     0.029271  0.029540329            4 
 1953000   0.91518657   -6.8750018    686.75501  0.029303422  0.029532308            3 
 1954000   0.95481543   -6.8321699    688.33407  0.029355769  0.029524293            2 
 1955000   0.93069119   -6.8546332    686.22468  0.029250839  0.029516274            5 
 1956000   0.94706904    -6.829622    687.73519  0.029300238   0.02950829            4 
 1957000   0.93215938   -6.8598895    686.94766  0.029251731  0.029500257            3 
 1958000   0.92784727   -6.8506138    688.66731  0.029309981  0.029492248            9 
 1959000   0.93249942   -6.8202399     688.4832  0.029287187   0.02948427            5 
 1960000   0.93725214   -6.8177074    688.47133   0.02927174  0.029476328            4 
 1961000   0.94100323   -6.8349222    691.07133  0.029367301   0.02946845            6 
 1962000   0.93132953   -6.8074471    689.58832  0.029289344  0.029460607            2 
 1963000   0.94025708   -6.8090294     692.1765  0.029384297  0.029452848            5 
 1964000   0.95878207    -6.803464    690.04504  0.029278897  0.029445104            2 
 1965000   0.93258681   -6.8059529    690.81962  0.029296846  0.029437272            6 
 1966000   0.94040555   -6.8272332    690.97501   0.02928853  0.029429482            4 
 1967000   0.92017583   -6.7896581    689.46298  0.029209582  0.029421705            4 
 1968000   0.92575376    -6.855233    689.73245  0.029206151  0.029413885            3 
 1969000   0.93040389   -6.8622146    690.70614  0.029232526  0.029406072            5 
 1970000   0.92584451   -6.8175596    691.93046  0.029269478  0.029398276            6 
 1971000    0.9512416   -6.8020792    691.82718  0.029250261  0.029390614            4 
 1972000   0.95529198   -6.7906135    692.88522  0.029280139  0.029382917            5 
 1973000   0.92744192   -6.8651055    689.20943  0.029110045  0.029375155           10 
 1974000   0.92855284   -6.8414821    691.94342  0.029210715  0.029367323            4 
 1975000   0.94270014   -6.8739287     691.9436  0.029195933  0.029359515            7 
 1976000   0.95593191   -6.8403684    693.01855  0.029226491  0.029351714            4 
 1977000   0.91964046    -6.870785    691.05789  0.029129063  0.029343945            4 
 1978000   0.93052959   -6.8313893    691.44514  0.029130651  0.029336178            9 
 1979000   0.95433852   -6.8324966    694.12647  0.029228839  0.029328421            3 
 1980000   0.93377432   -6.8379555    692.53348  0.029147032  0.029320626            4 
 1981000   0.94579495   -6.8239256    692.46069  0.029129257  0.029312798           10 
 1982000   0.93935241    -6.850692    695.20728   0.02923004  0.029305014            4 
 1983000   0.92429436   -6.8583798    692.58545  0.029105121  0.029297159            3 
 1984000   0.95108559   -6.8267581    691.69629  0.029053103  0.029289292            9 
 1985000   0.92961011   -6.8507901    693.15184  0.029099573  0.029281453            3 
 1986000   0.93171182   -6.8297615    694.15468  0.029127001  0.029273746            6 
 1987000   0.94195224   -6.8376889    694.43508  0.029124102  0.029265962            5 
 1988000    0.9471254    -6.810428    694.99053  0.029132735  0.029258249            3 
 1989000   0.92194828   -6.8243074    695.13706  0.029124227  0.029250498            5 
 1990000   0.92108804     -6.83185     696.5951  0.029170649  0.029242758            6 
 1991000   0.93518376   -6.8352702    693.93514  0.029044665  0.029235013            7 
 1992000   0.93803956   -6.8718637    695.02941  0.029075862  0.029227165           10 
 1993000   0.94812597   -6.8776363    695.29317  0.029072302  0.029219382            4 
 1994000   0.92232195   -6.8713808    694.81144  0.029037589  0.029211611            4 
 1995000    0.9146351   -6.8435612     694.6038  0.029014361  0.029203866            8 
 1996000    0.9220734   -6.8367383    696.22722  0.029067603   0.02919619            3 
 1997000   0.91700314   -6.8577333    695.53365  0.029024105  0.029188355            6 
 1998000   0.91635456   -6.8651771    693.83577  0.028938763  0.029180528            5 
 1999000   0.93865545   -6.8457246    695.37466  0.028988439  0.029172792            7 
 2000000   0.93764238   -6.8633055    695.58592  0.028982747  0.029165057            6 
 2001000   0.92530277   -6.8431372    697.15731  0.029033704  0.029157361            5 
 2002000   0.92577433   -6.8262554    697.12612  0.029017904  0.029149696           11 
 2003000   0.93458732   -6.8638367    696.65721  0.028983908  0.029141987            7 
 2004000   0.94174148   -6.8322679    698.00576  0.029025522  0.029134254            5 
 2005000   0.94066567   -6.8423341    697.91604  0.029007317  0.029126536            2 
 2006000   0.93908919   -6.8626096    698.22295  0.029005606  0.029118909            3 
 2007000   0.92410895   -6.8491815    697.50267  0.028961247  0.029111161            4 
 2008000   0.92427723   -6.8589341    697.45733  0.028944942  0.029103387            8 
 2009000   0.92137254   -6.8524418    697.87504  0.028947861  0.029095682            5 
 2010000   0.94424191   -6.8639018    697.97241  0.028937496  0.029087904            4 
 2011000   0.94303767    -6.828822    697.16812  0.028889778  0.029080064            5 
 2012000   0.94557295   -6.8692476    698.60529  0.028934944    0.0290722            4 
 2013000   0.92608947   -6.8726646    698.49546  0.028916023  0.029064323            3 
 2014000   0.94580784   -6.8800123    697.53115  0.028861765  0.029056446            5 
 2015000    0.9109119   -6.8760244     697.8276  0.028859702  0.029048494            8 
 2016000   0.92570509   -6.8600736    697.50327   0.02883198  0.029040572            6 
 2017000    0.9341742   -6.8100293    698.77658  0.028870293  0.029032651            5 
 2018000   0.93068099   -6.8465546    697.71937  0.028812329  0.029024675            5 
 2019000   0.91716128   -6.8736205    698.83379  0.028844056   0.02901686            6 
 2020000   0.90721146   -6.8437102    698.89488  0.028832297  0.029008944            4 
 2021000   0.92369235   -6.8289748    699.65481  0.028849365   0.02900107            9 
 2022000   0.92713542   -6.8476292    700.06909  0.028852172  0.028993269            4 
 2023000   0.92065842   -6.8521774     701.4855  0.028896256  0.028985403            5 
 2024000   0.92194786   -6.8368048    699.98052  0.028820015  0.028977533            4 
 2025000   0.93177858    -6.858864    701.02721  0.028848857  0.028969697            3 
 2026000   0.94296041   -6.8667913    700.31842  0.028805463  0.028961931            2 
 2027000   0.93876491    -6.861813     701.4865  0.028839274  0.028954076            9 
 2028000   0.92740329   -6.8588603    700.74223   0.02879447  0.028946235            5 
 2029000   0.94616882   -6.8299544    701.01732  0.028791577  0.028938473            8 
 2030000   0.89826267   -6.8251799    702.09258  0.028821535  0.028930735            5 
 2031000    0.9352759   -6.8748196    700.88762  0.028757903  0.028922959            4 
 2032000   0.92368775   -6.8720892    701.52461  0.028769874  0.028915211            4 
 2033000   0.92939189   -6.8309398    701.57784  0.028757904  0.028907356            6 
 2034000   0.91685681   -6.8451656    701.49525  0.028740382  0.028899586            5 
 2035000   0.93413904   -6.8680656    701.82529  0.028739774  0.028891713            2 
 2036000    0.9185684   -6.8492418    701.07891  0.028695109   0.02888391            5 
 2037000   0.94250703   -6.8617896    701.02356  0.028678758  0.028876007            8 
 2038000   0.92523456    -6.840976    703.09521  0.028749395  0.028868088            5 
 2039000   0.95823107   -6.8656696     702.5261  0.028712036  0.028860269            3 
 2040000   0.92307245   -6.8637154    701.91398  0.028672957  0.028852407            6 
 2041000   0.91631096   -6.8746247    701.20819  0.028630091  0.028844543           10 
 2042000   0.93752499   -6.8479398    702.06671  0.028651106  0.028836754            6 
 2043000   0.94439972   -6.8317185    703.94682  0.028713771  0.028829003            6 
 2044000    0.9270366     -6.86451    701.71407  0.028608695  0.028821229            6 
 2045000     0.909267   -6.8747731    701.92629  0.028603353  0.028813377            9 
 2046000   0.94278664   -6.8622165    702.44525   0.02861051  0.028805475            3 
 2047000   0.92798917    -6.863794    702.56594  0.028601447  0.028797553            4 
 2048000   0.92466514   -6.8661335    702.08745  0.028568012  0.028789662            4 
 2049000   0.93994889   -6.8627435    700.76834  0.028500421  0.028781713            3 
 2050000   0.93541652   -6.8571306    703.16057  0.028583763  0.028773868            8 
 2051000   0.91876763   -6.8516593    703.69569  0.028591569  0.028765989            8 
 2052000   0.91866574   -6.8530416    705.36724  0.028645518  0.028758194            9 
 2053000   0.95410075   -6.8396018    705.84665  0.028651025  0.028750391            7 
 2054000   0.91472829   -6.8583453    704.64213  0.028588207  0.028742549            4 
 2055000   0.92022941   -6.8342704    706.60457  0.028653875  0.028734729            3 
 2056000   0.93441935    -6.842445    705.20562  0.028583237  0.028726875            4 
 2057000   0.91188419   -6.8530798     705.1748  0.028568093  0.028719021            4 
 2058000   0.92428682   -6.8790728    703.15669  0.028472493  0.028711132            5 
 2059000   0.91998711   -6.8848778    704.71908  0.028521899  0.028703244            4 
 2060000   0.90564295   -6.8761297    706.07611   0.02856295  0.028695348            5 
 2061000   0.92761953   -6.8784939    705.85659  0.028540215   0.02868746            5 
 2062000   0.91966881   -6.8822556    705.11538  0.028496418  0.028679602            5 
 2063000    0.9088381   -6.8554085    707.08306  0.028562088  0.028671701            5 
 2064000    0.8949918   -6.8580557    706.64252  0.028530464  0.028663881            4 
 2065000   0.91221668   -6.8742717    706.35284  0.028504957  0.028656019            3 
 2066000   0.91193224   -6.8924373    706.62538  0.028502153  0.028648121            5 
 2067000     0.915195   -6.8707488    706.43225  0.028480578  0.028640226           12 
 2068000   0.93127122   -6.8561765    707.56141  0.028512307  0.028632358            3 
 2069000   0.92429159   -6.8945418     707.0904  0.028479555  0.028624546            2 
 2070000   0.90940076   -6.8764925    706.32346  0.028434922  0.028616638            4 
 2071000   0.92042887   -6.8827905    706.24101  0.028417874  0.028608717            6 
 2072000   0.93864971    -6.871388    706.96422  0.028433246  0.028600823            7 
 2073000   0.92193852   -6.8820537    704.41369     0.028317  0.028592928            7 
 2074000   0.92992825   -6.8463357    704.83304  0.028320196  0.028584945            5 
 2075000   0.90369807   -6.8734562     703.9878  0.028272602  0.028576915            7 
 2076000   0.93075235    -6.870979     705.6337  0.028325052  0.028568847            4 
 2077000   0.93869409    -6.870079    704.27454  0.028256883  0.028560879            6 
 2078000   0.91517364   -6.8311831    705.94415   0.02831024  0.028552878           13 
 2079000   0.91602882    -6.880661    707.36375  0.028353525  0.028544863            9 
 2080000   0.90489669    -6.867049    707.41009   0.02834175    0.0285368            9 
 2081000   0.90961011   -6.8577891    708.43712  0.028369258  0.028528785            6 
 2082000   0.92622378   -6.8631978    706.61497    0.0282827  0.028520805            3 
 2083000   0.89447554   -6.8676631    706.51459  0.028265106  0.028512771            5 
 2084000   0.92104392   -6.8895769    706.95116     0.028269  0.028504734            5 
 2085000   0.90993512   -6.8821576    707.37242  0.028272279  0.028496709            5 
 2086000    0.9025866   -6.8938149    707.88229  0.028279094  0.028488644            4 
 2087000   0.91406258   -6.8719163     709.4759  0.028329177  0.028480608            4 
 2088000    0.9238104   -6.8978587    706.65728  0.028203116  0.028472576            5 
 2089000   0.92142972   -6.8790866     707.8076  0.028235503   0.02846448            6 
 2090000     0.938775   -6.8777508    708.71917   0.02825834  0.028456457            7 
 2091000   0.93619277   -6.8620776    708.46393  0.028234654  0.028448433            3 
 2092000   0.90394611   -6.8706663    707.55066  0.028184778  0.028440324            8 
 2093000   0.93443896   -6.8491013    708.00678  0.028189472  0.028432208            4 
 2094000   0.91628379   -6.8850089    706.34787  0.028109992  0.028424107           21 
 2095000   0.91972461   -6.8625155    708.70267  0.028190241  0.028416011            9 
 2096000   0.91048168   -6.8680789    707.17034  0.028115869  0.028407911            5 
 2097000   0.93888633    -6.914108    709.46151  0.028193511  0.028399802            4 
 2098000   0.91236512   -6.9067736    707.46702  0.028100851  0.028391696            8 
 2099000   0.90179229   -6.8559872    708.47501  0.028127482  0.028383573            4 
 2100000   0.92913792   -6.8855091    709.35876  0.028149157  0.028375449            4 
 2101000   0.87776761    -6.871341    709.16059  0.028127899  0.028367298            4 
 2102000   0.91113828   -6.8478581    707.97537   0.02806753  0.028359218            3 
 2103000   0.90008824   -6.8507642    710.06149  0.028136848  0.028351092            6 
 2104000   0.90182984   -6.8854745     709.0763  0.028084454   0.02834298            5 
 2105000   0.93824669   -6.8701129    711.41676  0.028163767  0.028334869            5 
 2106000   0.92383987   -6.8677127    709.77802   0.02808555  0.028326775           11 
 2107000   0.91689624   -6.8603097    710.76083  0.028111091  0.028318716            5 
 2108000   0.90900908   -6.8707865    710.56722  0.028090102  0.028310584            4 
 2109000   0.91308308   -6.8945094    710.25144  0.028064305  0.028302568            3 
 2110000   0.92452405   -6.8970385    709.99127  0.028040729  0.028294436            3 
 2111000   0.90498454   -6.8895888    710.72605  0.028056452  0.028286394            4 
 2112000   0.91269719   -6.8754874      712.155   0.02809955  0.028278388            3 
 2113000   0.91734066   -6.8883232    710.62574   0.02802594  0.028270346            5 
 2114000   0.89193695   -6.8554534    711.58101  0.028050339  0.028262407            4 
 2115000   0.90753338   -6.8848538    711.80837  0.028046035  0.028254394            4 
 2116000   0.91809134   -6.8814834     711.4943  0.028020412  0.028246462            3 
 2117000   0.92318753   -6.8871792    713.61626  0.028090705  0.028238488            4 
 2118000   0.91039432   -6.8961628    712.85152  0.028047353  0.028230494            4 
 2119000   0.91672977   -6.8815239    712.80409  0.028032251  0.028222448            7 
 2120000   0.89625686   -6.8986004    712.26839  0.027997971  0.028214426            5 
 2121000   0.90233028   -6.8941915     712.6293  0.027998951  0.028206434            3 
 2122000   0.93530603   -6.9183179    712.72278  0.027989427  0.028198427            6 
 2123000   0.90380106   -6.8772998     714.3409  0.028039759  0.028190438            7 
 2124000   0.92560155   -6.8780932     712.2722  0.027945394  0.028182409            7 
 2125000    0.9143367   -6.9020545    714.61467  0.028024105  0.028174376            7 
 2126000   0.90068482   -6.8614416    715.65297  0.028051621  0.028166367            8 
 2127000   0.91013528   -6.8563776    715.78576  0.028043636  0.028158445           13 
 2128000   0.90543368   -6.8945002    713.89266  0.027956323  0.028150532            9 
 2129000   0.90393883   -6.8793182    714.33459   0.02796049  0.028142634            6 
 2130000    0.9163508   -6.8719606    713.91643  0.027931003  0.028134727            5 
 2131000   0.92687547   -6.9231482    713.99673  0.027921036  0.028126866            3 
 2132000   0.90727823   -6.8864677     715.3551  0.027961034  0.028118969            6 
 2133000   0.92094999   -6.8883478    714.88336  0.027929495  0.028111069            5 
 2134000   0.92321491   -6.8632329    714.90795  0.027917368   0.02810315            3 
 2135000   0.92562432   -6.9046494    712.97375  0.027828796  0.028095255            8 
 2136000   0.90895561   -6.9072782    716.44504  0.027951195  0.028087263            4 
 2137000   0.89960989   -6.8723983    715.45564  0.027899533  0.028079423            6 
 2138000   0.91793434   -6.9055291    716.68059  0.027934229  0.028071522            4 
 2139000   0.91059924   -6.8784992    716.67127  0.027920807  0.028063658            5 
 2140000   0.89098044   -6.8765205    717.61788  0.027944622  0.028055793            5 
 2141000   0.91417479   -6.8890785     717.2183  0.027916017  0.028047944            6 
 2142000   0.90123834   -6.8688335    717.38676  0.027909538  0.028040046            4 
 2143000   0.91778989   -6.9096221    717.17515  0.027888286  0.028032133            5 
 2144000    0.8953843   -6.9104986    715.72177  0.027818788  0.028024246           10 
 2145000   0.90985572   -6.8971077    716.43496  0.027833526  0.028016319            6 
 2146000   0.93049632   -6.9192241    717.95311  0.027879509  0.028008453            4 
 2147000    0.9151323   -6.8863386    715.41537  0.027768024  0.028000524           17 
 2148000   0.90840317   -6.8891091    717.65055  0.027841812  0.027992638            3 
 2149000   0.90243449   -6.8755418    716.26865  0.027775269  0.027984759           15 
 2150000   0.92798461   -6.8948832    717.91907   0.02782632  0.027976885            8 
 2151000    0.9154974   -6.8663016    719.65661  0.027880699  0.027969049            7 
 2152000   0.91054737   -6.9113894    716.68044  0.027752495  0.027961185            6 
 2153000   0.91334244   -6.9091151    718.28123  0.027801565  0.027953238            4 
 2154000   0.91937475   -6.9200172    718.85972  0.027811038  0.027945375            4 
 2155000   0.89461312   -6.9274799    718.42884  0.027781471  0.027937401            2 
 2156000   0.91227956   -6.9093696    718.61325  0.027775713  0.027929462            3 
 2157000   0.90431815   -6.9436357    719.36035  0.027791699  0.027921548            7 
 2158000   0.89609181   -6.9459116     718.3208  0.027738678  0.027913608            5 
 2159000   0.90186162   -6.9271566    718.52693  0.027733786  0.027905692            3 
 2160000   0.91194598   -6.8784765    721.13596  0.027821603  0.027897851            4 
 2161000   0.91083123   -6.9197855    718.04028  0.027689352  0.027890027            9 
 2162000   0.90662398   -6.9096989    720.15023  0.027757872  0.027882177            3 
 2163000   0.90539662   -6.9104943     718.7648  0.027691663   0.02787439            4 
 2164000   0.89126112   -6.8908996    721.56748  0.027786795  0.027866556            6 
 2165000   0.91284149   -6.9163404    720.41169  0.027729472  0.027858753            6 
 2166000   0.90127471   -6.9169697     720.7693  0.027730429  0.027850983            7 
 2167000   0.91157749   -6.8664182    721.40493  0.027742076  0.027843159            5 
 2168000   0.90577891   -6.8987317    721.61259  0.027737261  0.027835406            4 
 2169000   0.90574526   -6.9606435    719.46482  0.027641956  0.027827567            4 
 2170000   0.89154684   -6.8894083    719.38341  0.027626091  0.027819689            4 
 2171000   0.88710602   -6.8992191    721.23382  0.027684394  0.027811877            4 
 2172000   0.89000131   -6.8583676    722.99368  0.027739168  0.027804102            5 
 2173000   0.89630788   -6.9156304    719.75201  0.027602087  0.027796323            3 
 2174000   0.90090886   -6.8878023    722.75466  0.027704487  0.027788517            3 
 2175000   0.91119425   -6.8922012     723.0864   0.02770446  0.027780782            4 
 2176000   0.89424564   -6.9115331    721.62908  0.027635918  0.027773032            3 
 2177000   0.91837467   -6.8916736    721.54411   0.02761997  0.027765231            5 
 2178000     0.895242   -6.9106254    720.45949   0.02756579  0.027757372            9 
 2179000   0.90836807   -6.8977704    721.78793  0.027603944  0.027749482            5 
 2180000   0.91368314   -6.8892758    721.28768  0.027572159  0.027741652            9 
 2181000   0.90033901   -6.9116569    722.16929  0.027593202  0.027733858            3 
 2182000   0.88923576   -6.9255122     723.2067  0.027620177  0.027726019            3 
 2183000   0.89291769   -6.9491803    721.47746  0.027541512  0.027718191            5 
 2184000   0.88008613   -6.8977325     723.9826  0.027624489  0.027710436            6 
 2185000   0.91110551   -6.9274652    722.33856  0.027549144  0.027702683            6 
 2186000   0.90201012   -6.9086208     722.4278  0.027539944  0.027694945            5 
 2187000   0.90743779   -6.9332961      722.095   0.02751467  0.027687098            3 
 2188000   0.90034113   -6.9506882    722.14771  0.027504102  0.027679246            7 
 2189000   0.90423081   -6.9100873     723.7034  0.027550761  0.027671316            4 
 2190000   0.88905513   -6.9163489    721.75109  0.027463892  0.027663466            8 
 2191000   0.89374812   -6.9120374    725.10289  0.027578841  0.027655683            4 
 2192000   0.90807133   -6.8936206    725.92249  0.027597418   0.02764794            4 
 2193000   0.91193231   -6.8957979    723.94963  0.027509866  0.027640195            4 
 2194000    0.9023935   -6.9216407    723.08378   0.02746444   0.02763241            3 
 2195000   0.91432263   -6.9253844    724.34808  0.027499927   0.02762467            2 
 2196000   0.89521622   -6.9046913    724.78787  0.027504093   0.02761691            7 
 2197000   0.90427079   -6.9258714    724.90899  0.027496169  0.027609143            9 
 2198000    0.8952821   -6.9211107    726.77284  0.027554324  0.027601356            8 
 2199000   0.90803227   -6.9094497    724.56508  0.027458128  0.027593593            4 
 2200000   0.92060847   -6.8908361    725.11904   0.02746663  0.027585894            4 
 2201000   0.91286961    -6.937348    723.29652  0.027385148  0.027578169            7 
 2202000   0.93039857   -6.9172555    725.49429  0.027455884  0.027570383            6 
 2203000   0.89955866   -6.9115325    725.39975  0.027439845  0.027562652            5 
 2204000   0.91519957   -6.9001286    727.30688  0.027499504  0.027554959            2 
 2205000   0.89677487   -6.9040923    727.49165  0.027494016   0.02754731            6 
 2206000   0.88327033    -6.917788    728.32646  0.027513088   0.02753962            3 
 2207000   0.88548475    -6.922976    726.82287  0.027443848  0.027532032            6 
 2208000   0.92471779   -6.8815718    729.20778  0.027521429  0.027524408            5 
 2209000   0.88619583   -6.9003588    727.09575  0.027429295  0.027516807            4 
 2210000   0.88247005    -6.950898    726.84409  0.027407394  0.027509103            9 
 2211000    0.8773183   -6.8808869    728.09455  0.027442128  0.027501399            6 
 2212000   0.89828136   -6.9263568    728.45177   0.02744318  0.027493747            6 
 2213000   0.88196336   -6.9063106    729.55305  0.027472249  0.027486072            7 
 2214000   0.88116807   -6.9386211    728.05507  0.027403458  0.027478383            7 
 2215000   0.90648672   -6.9187276     727.2131  0.027359409  0.027470736            5 
 2216000    0.9065506   -6.9005442     727.3639  0.027352734   0.02746308            3 
 2217000   0.88820175   -6.9224217    728.30459  0.027375755  0.027455392            5 
 2218000   0.89035021    -6.906848    729.46698  0.027407085  0.027447762            4 
 2219000   0.90245641   -6.9221413    728.63052  0.027363321  0.027440074            8 
 2220000   0.89101232    -6.907726    727.19819  0.027297229  0.027432382            3 
 2221000   0.91479606   -6.9146597    728.34514  0.027327973  0.027424745            4 
 2222000   0.91103367   -6.8835917    729.48913  0.027358578  0.027417096            4 
 2223000   0.90286261   -6.9219423    729.14993  0.027333555  0.027409428            5 
 2224000   0.89901917   -6.9173984    729.40434  0.027330798  0.027401744            6 
 2225000   0.89708982   -6.9273315    730.10506  0.027344759  0.027394021            2 
 2226000   0.88590912   -6.9167581    729.33347  0.027303589  0.027386289            4 
 2227000   0.88737749   -6.9183548    729.82302  0.027309647  0.027378701            4 
 2228000   0.88958288   -6.9355638    730.01635  0.027304621  0.027371055           21 
 2229000   0.88956682    -6.891721     728.6926  0.027242882   0.02736345            6 
 2230000   0.90160955   -6.9271155    730.93829  0.027314585  0.027355862           12 
 2231000    0.8981818   -6.9225023    732.38776  0.027356483  0.027348336            4 
 2232000   0.89256562   -6.9121402    731.41597  0.027307944  0.027340788            3 
 2233000   0.90429215   -6.9474738    729.52159  0.027225018  0.027333201            7 
 2234000   0.87810454   -6.9573278    729.14185  0.027198666   0.02732551            5 
 2235000   0.87901216   -6.9462726    730.94809  0.027253844  0.027317866            3 
 2236000   0.89146615   -6.9371858    729.07854  0.027171979  0.027310185           10 
 2237000   0.89779544   -6.9489079    730.31224   0.02720579  0.027302533            5 
 2238000   0.89359793    -6.931227     732.8626  0.027288599  0.027294831            6 
 2239000   0.88002784   -6.9253912    731.16905  0.027213378  0.027287164            5 
 2240000   0.90038747   -6.8995449    732.33906  0.027244757  0.027279582            6 
 2241000   0.88857541   -6.8875801    732.12685  0.027224708  0.027271994            5 
 2242000   0.89221911   -6.9026376    732.59906  0.027230117  0.027264444            4 
 2243000   0.88385253   -6.9549995    732.35166  0.027208785  0.027256848            5 
 2244000   0.87909393   -6.9205675     732.3253  0.027195681  0.027249243            5 
 2245000   0.86864058    -6.921444    733.63307  0.027232111  0.027241662            4 
 2246000   0.89291821   -6.9451874    730.81545  0.027115444  0.027234073            7 
 2247000   0.91259261   -6.9385834    733.44374  0.027200851  0.027226489            6 
 2248000   0.88228797   -6.9428277    734.14698   0.02721482  0.027218898            5 
 2249000   0.88737864   -6.9624862    733.11431  0.027164455   0.02721132            2 
 2250000   0.87583087   -6.8921358    734.75662  0.027213208  0.027203836            4 
 2251000   0.90710285   -6.9282261     733.5948  0.027158107  0.027196361            6 
 2252000   0.88022334   -6.9413112    733.26402  0.027133808  0.027188849            3 
 2253000   0.88375119   -6.9308328    736.38916  0.027237356  0.027181336            3 
 2254000   0.90473957   -6.9202481    733.60789  0.027122445  0.027173784            5 
 2255000   0.88929552   -6.9279595    736.32072   0.02721067  0.027166302            2 
 2256000   0.88727376   -6.9337296    735.15734  0.027155635  0.027158832            4 
 2257000   0.89503919   -6.9132864    734.92542   0.02713504  0.027151323            4 
 2258000   0.88572028   -6.9095195    736.82219  0.027193024  0.027143921           10 
 2259000   0.87315706   -6.9683398    734.66559  0.027101431  0.027136433            6 
 2260000   0.89209229   -6.9594722    735.84504  0.027132929  0.027128919            7 
 2261000   0.88902153   -6.9145703    735.17404  0.027096198  0.027121491            3 
 2262000   0.88576024    -6.913877    737.45939  0.027168412  0.027114055            8 
 2263000   0.89227045    -6.935279    735.72132  0.027092404  0.027106662            3 
 2264000   0.90373504   -6.9277748    737.19665  0.027134741  0.027099272            3 
 2265000   0.88614446   -6.9101241     737.0524  0.027117454  0.027091978            6 
 2266000   0.88589186   -6.9248197    738.26523   0.02715009  0.027084646            5 
 2267000   0.88830379    -6.921148    738.92805  0.027162478  0.027077336            5 
 2268000   0.87099394   -6.9340571    738.01077  0.027116798  0.027069977            7 
 2269000   0.88946074   -6.9593939    736.65324  0.027054989  0.027062571            3 
 2270000   0.89933093   -6.9743898    738.86465  0.027124253  0.027055206            6 
 2271000   0.89755646   -6.9410717    739.23126  0.027125762  0.027047913            8 
 2272000   0.88943333   -6.9347433    738.27518  0.027078755  0.027040562            6 
 2273000   0.88221924   -6.9274434    737.54215  0.027039967  0.027033187            5 
 2274000   0.89203181   -6.9618868     738.8656  0.027076576  0.027025815            6 
 2275000   0.90053858   -6.9526616    739.42913  0.027085316  0.027018435            3 
 2276000   0.88083755   -6.9359954    739.79174  0.027086692  0.027011123            3 
 2277000   0.90175726    -6.920743    739.10226  0.027049563  0.027003764            5 
 2278000   0.87407479   -6.9423654    741.05882  0.027109263  0.026996424            4 
 2279000   0.88205547   -6.9497678    739.41288  0.027037183  0.026989142           14 
 2280000   0.89384646    -6.925252    740.13579  0.027051747   0.02698186            3 
 2281000   0.89562348   -6.9071032    739.48477  0.027016103  0.026974588            5 
 2282000   0.87325346   -6.9484292    739.61064  0.027008861  0.026967245            5 
 2283000   0.88341712   -6.9329991    740.42466  0.027026743  0.026959954           16 
 2284000   0.89356583   -6.9401037    739.52023  0.026981911  0.026952663            5 
 2285000   0.88364491   -6.9574867    738.05746  0.026916757  0.026945309            6 
 2286000   0.88637852   -6.9184874    740.85588  0.027006995  0.026937982            4 
 2287000   0.88808518   -6.9023637    741.80813  0.027029884  0.026930685            6 
 2288000   0.90196011   -6.9310163    741.47492  0.027005934  0.026923423            7 
 2289000   0.87939388   -6.9377438    740.14074  0.026945564  0.026916117            4 
 2290000   0.87942941   -6.9533768    740.17562  0.026935066  0.026908731           10 
 2291000   0.90688773   -6.9242615    741.56383  0.026973804  0.026901431            5 
 2292000   0.88261871   -6.9443752     740.6801  0.026929905  0.026894114           12 
 2293000   0.88713434   -6.9574048     741.1363   0.02693474  0.026886813            4 
 2294000   0.88320339   -6.9305335    742.38579  0.026968388   0.02687949           10 
 2295000   0.86430215   -6.9230986    741.61619  0.026928692  0.026872204            3 
 2296000   0.88274615   -6.9569505    743.29484   0.02697789  0.026864924            9 
 2297000   0.90551874    -6.939309    742.85895  0.026950332  0.026857637            8 
 2298000   0.90204314     -6.96542    741.68919  0.026896185  0.026850377            4 
 2299000   0.88247774   -6.9561707    741.06611    0.0268619  0.026843064            4 
 2300000   0.87740262   -6.9351278     742.6262  0.026906746  0.026835758            6 
 2301000    0.8870759   -6.9332743    742.27863  0.026882465  0.026828522            3 
 2302000    0.8850185   -6.9385338    742.27783  0.026870758  0.026821294            5 
 2303000    0.8692437   -6.8984432     744.0857  0.026924508  0.026814052            6 
 2304000   0.87272078   -6.9388197    743.56734  0.026894073  0.026806838            4 
 2305000   0.87762066   -6.9421344    742.36609  0.026838976  0.026799593            5 
 2306000   0.88898544   -6.9606554     744.4487  0.026902598  0.026792363            6 
 2307000   0.87775235   -6.9405649    743.32925    0.0268505   0.02678503            5 
 2308000   0.89627428   -6.9572043    742.65708  0.026814597  0.026777725            3 
 2309000   0.88781038   -6.9619077    742.34806  0.026791831  0.026770378            5 
 2310000   0.89679739   -6.9684737    743.40313  0.026818295  0.026762965            8 
 2311000   0.88995257   -6.9510517    740.36994  0.026697315  0.026755591            3 
 2312000   0.86591046   -6.9787045    743.97354  0.026815655  0.026748226            6 
 2313000     0.895955   -6.9493878    743.43123  0.026784523  0.026740843           11 
 2314000   0.88088798    -6.944349    744.18654  0.026800149  0.026733514            9 
 2315000   0.88270681   -6.9199865    744.00314   0.02678197  0.026726149           12 
 2316000   0.88795794   -6.9616167    743.45167  0.026750564  0.026718814           15 
 2317000   0.89369985   -6.9521907    744.64442  0.026781917   0.02671146            8 
 2318000   0.87309209     -6.91489    744.24302  0.026755932  0.026704196            5 
 2319000   0.89030243   -6.9310376    744.40899  0.026750359  0.026696941            7 
 2320000    0.8888815   -6.9719355    745.78277  0.026788174  0.026689718            6 
 2321000   0.87950251   -6.9322571    745.71323  0.026774136  0.026682474           16 
 2322000   0.90098248   -6.9604035    745.63812   0.02675991  0.026675191            5 
 2323000   0.87335819   -6.9758259    744.45845  0.026706071  0.026667978            5 
 2324000   0.87559074   -6.9587839    747.40973  0.026800406  0.026660708            3 
 2325000   0.87777194   -6.9528751    744.35769  0.026679487  0.026653452            7 
 2326000    0.8641921   -6.9428517    745.35865  0.026703878  0.026646214            5 
 2327000   0.87747245   -6.9264238    746.70581  0.026740646  0.026638986            9 
 2328000    0.8782366   -6.9540646    745.59193  0.026689287  0.026631759            6 
 2329000   0.87485428     -6.99174    747.50264  0.026746194  0.026624538            9 
 2330000   0.86897598     -6.95664    746.35918  0.026693819  0.026617294            8 
 2331000   0.88881117   -6.9545113    747.85407   0.02673581  0.026610013            3 
 2332000   0.89158976   -6.9374393    747.66306  0.026717519  0.026602782            3 
 2333000   0.86314166   -6.9814574    746.17905  0.026653059  0.026595587            5 
 2334000   0.85024697   -6.9494256    747.80286  0.026699617  0.026588379            4 
 2335000   0.88070462   -6.9601254    747.19501  0.026666489  0.026581193            3 
 2336000   0.88280005   -6.9869411    746.93708  0.026645872  0.026573954            6 
 2337000   0.86995132   -6.9742165    745.73383  0.026591564  0.026566769            5 
 2338000   0.87391844    -6.949171    748.91617  0.026693619  0.026559582            5 
 2339000   0.89218427   -6.9652679    750.24825  0.026729665  0.026552387            8 
 2340000   0.87308734   -6.9553844    748.57425  0.026658627  0.026545207            6 
 2341000   0.86174846   -6.9876908    747.92302  0.026624058  0.026537966            6 
 2342000   0.88156438   -6.9655031    747.20552  0.026587159   0.02653074            7 
 2343000   0.87524033   -6.9535088    748.82596  0.026633446  0.026523492            9 
 2344000   0.88104572    -6.930419    748.67221  0.026616617  0.026516267            6 
 2345000   0.86896449   -6.9342037    750.16789  0.026658418  0.026509036            5 
 2346000   0.87874172   -6.9712544    745.99977  0.026498997  0.026501798            6 
 2347000   0.87953059   -6.9806224     748.4718  0.026575479  0.026494481            2 
 2348000   0.86490945   -6.9670869    747.80551  0.026540514  0.026487154            6 
 2349000   0.87332088   -6.9483773    750.07432  0.026609704  0.026479867            8 
 2350000   0.87826848   -6.9866998    747.04606  0.026490995  0.026472642            9 
 2351000   0.88723851   -6.9675032    750.56925   0.02660461  0.026465364            9 
 2352000   0.88373034   -6.9766767     749.6593  0.026561058  0.026458145            5 
 2353000   0.86873045   -6.9598352    750.08889  0.026564984  0.026450889            3 
 2354000   0.87976449   -6.9477265    750.24097  0.026559083  0.026443668            6 
 2355000   0.88488079   -6.9727907    748.94927  0.026502097  0.026436473           10 
 2356000   0.87030764     -6.95163    750.72967  0.026553823   0.02642923            7 
 2357000   0.88010387   -6.9472674    749.84244  0.026511188  0.026422033            6 
 2358000   0.87883322   -6.9727293    750.32109  0.026516861  0.026414871            5 
 2359000    0.8610538    -6.955051    750.37532  0.026507536  0.026407745            3 
 2360000   0.86500773   -6.9510104    751.92719  0.026551101  0.026400593            6 
 2361000   0.87531169   -6.9838951    750.54418  0.026491041  0.026393464            8 
 2362000   0.88009188   -6.9477985    753.04285  0.026567981  0.026386318            6 
 2363000   0.87468872   -6.9923369       751.33  0.026496332  0.026379205            3 
 2364000   0.88248322   -6.9558349    750.49294  0.026455617  0.026372064            7 
 2365000   0.88008314   -6.9688344    751.43172   0.02647751  0.026364908            7 
 2366000   0.86325578   -6.9487276    752.05798  0.026488376  0.026357817            6 
 2367000   0.87050509   -6.9521614    752.28283  0.026485102  0.026350704            2 
 2368000   0.88225972   -6.9891784     751.0138  0.026429258   0.02634357            5 
 2369000   0.86340675   -6.9725499    751.28869  0.026427771  0.026336435            4 
 2370000   0.88536932   -6.9791217    749.86945  0.026366717  0.026329278            7 
 2371000   0.89185754    -6.978522    752.61658   0.02645215  0.026322119            5 
 2372000   0.87520456   -6.9562874    752.32893  0.026430893  0.026314988            4 
 2373000   0.87379567   -6.9348279    753.71023  0.026468262  0.026307877            4 
 2374000   0.86784521   -6.9834149    752.15448  0.026402502  0.026300806            9 
 2375000    0.8902851   -6.9679346    754.16938  0.026462083  0.026293731            6 
 2376000   0.85324165   -6.9826013    754.11229  0.026448944  0.026286644            6 
 2377000    0.8672771    -6.969912    754.01192  0.026434298  0.026279542            7 
 2378000    0.8797003   -6.9630954    753.81523  0.026416289  0.026272445            3 
 2379000   0.87631536   -7.0077745     754.9503  0.026444945  0.026265355            6 
 2380000   0.87000153   -6.9567936    754.76819  0.026427458   0.02625828            7 
 2381000   0.85632069   -6.9661966    753.32253  0.026365761  0.026251249            5 
 2382000   0.85768477   -6.9693276    753.94894  0.026376607  0.026244151            3 
 2383000   0.87600484    -6.960035    753.64817   0.02635502  0.026237045            3 
 2384000   0.86670172   -6.9705623    753.91097  0.026353152  0.026229924            6 
 2385000   0.88774297   -6.9718105     755.8735  0.026410674  0.026222849            4 
 2386000   0.87265674   -6.9926479     753.1106  0.026303109  0.026215765           12 
 2387000   0.86966799   -6.9774243    754.37241  0.026336141  0.026208665            8 
 2388000   0.85978179    -6.963591    757.16846  0.026422685  0.026201547            5 
 2389000    0.8736516   -6.9700913     755.7161  0.026360964  0.026194446            5 
 2390000   0.89029334   -6.9830503    754.99163  0.026324673  0.026187351            2 
 2391000   0.85974067   -6.9760374    754.28381  0.026288994  0.026180298            4 
 2392000   0.85107515   -6.9887131    754.08909   0.02627122  0.026173171           14 
 2393000   0.87905985    -6.975219    756.71974  0.026351851  0.026166105            6 
 2394000   0.88095475   -6.9708402    756.14148  0.026320714  0.026158991            5 
 2395000   0.87075507   -6.9957146    755.04433  0.026271549  0.026151876            6 
 2396000   0.88593052   -6.9775641    755.01794  0.026259667  0.026144724            7 
 2397000   0.85095783   -6.9544324    756.93645   0.02631541   0.02613757            8 
 2398000   0.87137468   -6.9890347    753.15498  0.026173025  0.026130386           12 
 2399000   0.86860699   -7.0017999    755.74817  0.026252194  0.026123212            5 
 2400000   0.86301921   -6.9648891    755.58195  0.026235485  0.026116037            9 
 2401000   0.88412526   -6.9854136    755.14535  0.026209404  0.026108906            6 
 2402000   0.87813587   -6.9661382    756.23955  0.026236454  0.026101815            5 
 2403000   0.88237285   -6.9822128    756.38684  0.026230644   0.02609472           10 
 2404000   0.88984809   -6.9821222    756.75546   0.02623251  0.026087639           13 
 2405000   0.85015119   -6.9842364    756.33947  0.026207189  0.026080564           21 
 2406000   0.86397789   -6.9688346    757.18922  0.026225728   0.02607352            5 
 2407000   0.88237663   -6.9660743    755.34236  0.026150892  0.026066485            4 
 2408000   0.87098268   -6.9831799    756.87803  0.026193176  0.026059329            3 
 2409000   0.85821679   -6.9841675    757.08896    0.0261896  0.026052229            5 
 2410000   0.86891857   -6.9549507    758.23711  0.026218434  0.026045145            5 
 2411000   0.87565485   -6.9900809    756.17429   0.02613626  0.026038103            5 
 2412000    0.8693306   -6.9468999    761.09797  0.026295535  0.026031107            6 
 2413000   0.86786684   -6.9635847    759.51349  0.026229917  0.026024166            7 
 2414000   0.88092709   -6.9649402     760.3594  0.026248253  0.026017237            5 
 2415000    0.8628765   -6.9826855    757.78551  0.026148568  0.026010241            7 
 2416000   0.86817597   -6.9843269     758.4657  0.026161207  0.026003261            6 
 2417000   0.86932965   -6.9964714    758.19482  0.026141043  0.025996286           16 
 2418000    0.8833317   -6.9697687    759.21232  0.026165299  0.025989274            8 
 2419000   0.85056934   -7.0058314    759.92387  0.026178995   0.02598234            2 
 2420000   0.85504094   -6.9751549    760.39942  0.026184553  0.025975407           12 
 2421000   0.86216768   -7.0094866    761.08139  0.026197211  0.025968492            7 
 2422000   0.85917468   -6.9870012    761.24639  0.026192072  0.025961605            4 
 2423000   0.88557463   -6.9804596    761.76142  0.026198976  0.025954773           10 
 2424000   0.87953828   -6.9791337    761.05713  0.026163955  0.025947981            4 
 2425000   0.85951528   -6.9593513    763.54951  0.026238815   0.02594112            7 
 2426000   0.84264233   -6.9906127    760.62441  0.026127522  0.025934304            4 
 2427000   0.85119811   -6.9892336    762.32603  0.026175183  0.025927448            7 
 2428000   0.88470426   -6.9873672    763.53309  0.026205831  0.025920621            6 
 2429000   0.84454977   -7.0097858    760.65389  0.026096264  0.025913792            7 
 2430000    0.8516183   -6.9814333     762.7364  0.026156941  0.025906932            6 
 2431000     0.868099   -6.9974587    761.54109  0.026105207  0.025900076            9 
 2432000   0.89813678   -6.9996935    761.23545     0.026084   0.02589321            5 
 2433000   0.84598575   -6.9675928    762.79248  0.026126609  0.025886331           10 
 2434000    0.8562582   -6.9772761    761.88313  0.026084742  0.025879497           13 
 2435000   0.85937894   -7.0186718    763.17284  0.026118167  0.025872637            9 
 2436000        0.886   -6.9916882    764.32174  0.026146748  0.025865778            2 
 2437000   0.88362432   -6.9539044    764.76533  0.026151188   0.02585899            6 
 2438000   0.84232091   -6.9901317    763.44494  0.026095329   0.02585218            5 
 2439000   0.89437038   -6.9899577    762.75038  0.026060899  0.025845395            7 
 2440000   0.87650317   -7.0009982    764.83482  0.026121408  0.025838586            6 
 2441000   0.87886401   -6.9845171     765.2392  0.026124512  0.025831745            3 
 2442000   0.86604288   -6.9838769    763.75161   0.02606305  0.025824967            6 
 2443000   0.86655662   -6.9837594    763.68132  0.026049983  0.025818107            7 
 2444000   0.85364763   -7.0030869     765.2956  0.026094367  0.025811292            6 
 2445000    0.8490824   -6.9324571    766.87369  0.026137481  0.025804559            3 
 2446000   0.84400695   -7.0034758    764.48196  0.026045311  0.025797829            7 
 2447000   0.87455448   -6.9974515    764.33542  0.026029676  0.025791023           13 
 2448000   0.87338473   -6.9949533    765.25029  0.026050187  0.025784245            8 
 2449000   0.87202111   -7.0084503    765.93125  0.026062721  0.025777469            5 
 2450000   0.83897713   -6.9974707    764.73152  0.026011276  0.025770743            7 
 2451000   0.83772505   -7.0217476    764.81974  0.026003663  0.025763992           12 
 2452000   0.83009553   -7.0330471    765.69882  0.026022934  0.025757268            4 
 2453000   0.86695942   -7.0013548    764.37861  0.025967476  0.025750535           15 
 2454000   0.86446826   -7.0039837     764.4689   0.02595996  0.025743775            7 
 2455000   0.85848933   -7.0145096      765.948  0.025999593  0.025737053            6 
 2456000   0.84749555   -6.9538005    764.64349  0.025944744  0.025730303            6 
 2457000   0.87240626    -6.960444    766.50546  0.025997336  0.025723564            7 
 2458000   0.86305191   -6.9984046    766.15997  0.025975046  0.025716825            8 
 2459000   0.86674735   -6.9866407    765.27206  0.025934393  0.025710067            4 
 2460000   0.85236061   -6.9881856    766.87859  0.025978272  0.025703276            6 
 2461000   0.83694516   -7.0067353    766.64028  0.025959646  0.025696516            7 
 2462000   0.84725898   -6.9846826    768.66729  0.026017712  0.025689773            2 
 2463000   0.85547121   -7.0190813    768.18724  0.025990907  0.025683061            6 
 2464000   0.83698732   -6.9740477     769.1951  0.026014445  0.025676349            6 
 2465000   0.83751906   -6.9851442    767.38968  0.025942856  0.025669616           10 
 2466000   0.85506324   -6.9882142    765.71627  0.025875786  0.025662846           10 
 2467000   0.87189802   -7.0047517    767.61318  0.025929374  0.025656097           10 
 2468000   0.86942678   -6.9749686    767.45952  0.025913679  0.025649357            6 
 2469000   0.84567417   -6.9788126    769.11475   0.02595905  0.025642655            8 
 2470000   0.85739121   -6.9967461    768.20962  0.025918003   0.02563592            3 
 2471000   0.85128011   -7.0165694    768.71661  0.025924612   0.02562913            8 
 2472000   0.84013857   -7.0126782    767.57464  0.025875628  0.025622382            9 
 2473000   0.85458517   -7.0024096    769.20085  0.025919964  0.025615612            4 
 2474000   0.85387703   -7.0126095    768.99203  0.025902453  0.025608889            3 
 2475000   0.83757948    -7.002962    770.71584  0.025950028  0.025602148            9 
 2476000   0.86937311   -6.9963601    768.38059  0.025860952  0.025595349            3 
 2477000   0.85348605   -7.0082838    769.54647  0.025889735  0.025588543            8 
 2478000   0.84344478   -7.0372042    765.81661  0.025753854  0.025581702            7 
 2479000   0.86885257   -7.0449201    767.39525  0.025796533  0.025574899           12 
 2480000   0.86544394   -7.0278227    768.56729  0.025825514  0.025568096            5 
 2481000   0.86534824   -6.9848576    768.99461  0.025829458  0.025561288            7 
 2482000   0.85859857   -7.0013183    771.05661  0.025888282  0.025554536            7 
 2483000   0.85972042   -6.9917384    769.14369  0.025813656  0.025547795            6 
 2484000   0.84012586   -6.9836239    769.15183  0.025803537  0.025541052            7 
 2485000   0.84896633   -7.0497832    767.82504   0.02574866  0.025534284            7 
 2486000   0.86368539   -7.0589039     766.5026  0.025693973   0.02552744            6 
 2487000   0.84902016   -7.0172357    769.51724  0.025784655  0.025520601           10 
 2488000   0.84804413   -7.0101646    771.23535  0.025831838  0.025513828            9 
 2489000   0.86365886    -6.979095    770.01451  0.025780585  0.025507074            3 
 2490000   0.84734666   -6.9818514     769.9679  0.025768671  0.025500335           10 
 2491000   0.84581717   -7.0186036    769.83854  0.025753999  0.025493608            9 
 2492000   0.83998897   -7.0409661    768.58278  0.025701671  0.025486842            5 
 2493000   0.86180821   -7.0208448    771.91341  0.025802695  0.025480056            5 
 2494000   0.85698503   -7.0321098    769.54167  0.025713101  0.025473315            9 
 2495000   0.85102214   -7.0355491    769.60126  0.025704785  0.025466539            6 
 2496000   0.84849021   -6.9875355    773.20279   0.02581473   0.02545981            5 
 2497000   0.86637618   -7.0252305    771.76273  0.025756332  0.025453066           15 
 2498000   0.82944961   -7.0199802    769.99435  0.025687028  0.025446281            6 
 2499000   0.85395224   -6.9729036    771.90891  0.025740593  0.025439514            3 
 2500000   0.86405597   -7.0127659    771.22274  0.025707425  0.025432735            7 
 2501000   0.85791122   -7.0420578    771.23753  0.025697639  0.025425981           11 
 2502000   0.84887436   -7.0117174    771.47648  0.025695326  0.025419277           17 
 2503000   0.82944242   -7.0286309    771.51206  0.025686245  0.025412507            8 
 2504000   0.84320974   -7.0098729    772.84829  0.025720457  0.025405804            4 
 2505000   0.85413256   -7.0104782    772.06856   0.02568425  0.025399124            8 
 2506000   0.84634175   -7.0005109    771.87185   0.02566746  0.025392481            3 
 2507000   0.85356926   -7.0047112     771.7161  0.025652044   0.02538587            5 
 2508000   0.86738125   -7.0133703    772.78715  0.025677404  0.025379201            8 
 2509000   0.85547205   -7.0084735    773.91313  0.025704568  0.025372534            5 
 2510000   0.86273028   -7.0358758    773.53263  0.025681694  0.025365861            2 
 2511000   0.84743312   -7.0312726      772.854  0.025648945  0.025359185            7 
 2512000   0.83423153   -6.9967347    771.63233  0.025598206  0.025352502            2 
 2513000   0.85412239   -7.0104138    772.69926    0.0256234  0.025345795            5 
 2514000   0.84875204   -7.0443938    772.44926  0.025604921   0.02533906            8 
 2515000   0.86575624   -7.0348337    772.24766   0.02558806   0.02533234           15 
 2516000   0.85396145    -7.033226    771.89839  0.025566322  0.025325618            7 
 2517000   0.83891386   -7.0160391    773.33251  0.025603646  0.025318817           16 
 2518000   0.84253134   -7.0290722     773.7853  0.025608463  0.025312047            5 
 2519000   0.85663361   -7.0293656    772.31499  0.025549656  0.025305323            6 
 2520000   0.83832585   -7.0240733     772.6488  0.025550556  0.025298594            5 
 2521000   0.86016033   -7.0121131    773.71505  0.025575666  0.025291865           11 
 2522000    0.8306438   -7.0442009    774.01799  0.025575535  0.025285144            9 
 2523000    0.8678754   -7.0200929    771.81046  0.025492484  0.025278389           10 
 2524000   0.84872073   -7.0098243    774.98715  0.025587267  0.025271671            5 
 2525000   0.85357809   -6.9997758    773.50772  0.025528308  0.025264977           12 
 2526000   0.87018608   -6.9779318    775.23906  0.025575319  0.025258312            8 
 2527000   0.86283265   -7.0216006    775.57862  0.025576395  0.025251656            5 
 2528000   0.86274059   -7.0309156    775.44295  0.025561806  0.025244953            3 
 2529000   0.84759855   -7.0513095    774.31829   0.02551464  0.025238207            6 
 2530000   0.85573133   -7.0769655    774.00913  0.025494372  0.025231467            6 
 2531000   0.83817543   -6.9994623    776.28958  0.025559383  0.025224782           11 
 2532000   0.83680241   -7.0296196    775.29988  0.025516715  0.025218128            4 
 2533000   0.85569634   -7.0477457    774.27497  0.025472923  0.025211424            5 
 2534000   0.85386476   -7.0405835    775.40406  0.025500002  0.025204662            5 
 2535000   0.86123589   -7.0169986    773.66792  0.025432871  0.025197927            3 
 2536000   0.83621627   -7.0092129     776.9894  0.025531986  0.025191229            4 
 2537000   0.84868149   -7.0093576    774.97406  0.025455724  0.025184599            8 
 2538000   0.84639373   -7.0129329    775.47307  0.025462079  0.025177889            7 
 2539000   0.84915338   -7.0460987    775.79564  0.025462637  0.025171215            7 
 2540000   0.84958139   -6.9989933    776.67127  0.025481341  0.025164519            7 
 2541000   0.85060621   -7.0175164    775.64306  0.025437592  0.025157822            6 
 2542000   0.85186662   -7.0284071    776.15432  0.025444346  0.025151153           23 
 2543000     0.864209   -7.0129133     777.5004  0.025478451  0.025144517           18 
 2544000    0.8422096   -7.0390355    776.16924  0.025424831   0.02513779            7 
 2545000   0.86238843   -7.0330954     777.5565  0.025460265  0.025131067            8 
 2546000   0.82201521   -7.0119859    773.57384  0.025319908   0.02512428            4 
 2547000   0.83853794   -7.0031213     775.5341  0.025374103  0.025117516            7 
 2548000   0.81373309   -7.0267018    776.10386  0.025382779    0.0251108           10 
 2549000   0.84141562   -7.0207509    775.77066  0.025361928  0.025104009           10 
 2550000   0.86766981   -7.0405663    775.28429  0.025336088  0.025097263            4 
 2551000   0.84155448   -7.0155957    776.13201  0.025353849  0.025090545            5 
 2552000   0.85410834   -6.9907855     776.4654    0.0253548  0.025083802            5 
 2553000   0.83324783   -7.0297957    776.77252  0.025354894  0.025077045           12 
 2554000   0.83498121   -7.0645393     778.2964  0.025394688  0.025070266            4 
 2555000   0.84060396   -7.0073094     776.8189  0.025336559  0.025063509            3 
 2556000   0.84627385   -7.0152778    776.10303  0.025303307  0.025056714            4 
 2557000   0.83047328   -7.0110684    777.50244  0.025339018  0.025049921            4 
 2558000   0.83793899   -7.0062259    776.52102   0.02529714  0.025043164            5 
 2559000   0.83586023   -7.0349664    775.74645  0.025262031  0.025036393           11 
 2560000   0.84141417   -7.0493641    775.31745  0.025238198  0.025029618            7 
 2561000   0.84333553   -7.0424547     776.6464  0.025271587  0.025022869           10 
 2562000   0.82624464   -6.9851853    777.77034  0.025298281  0.025016132            6 
 2563000   0.83353676   -7.0416373    777.52476  0.025280425  0.025009418            4 
 2564000   0.84988524   -7.0066566    777.00346  0.025253622  0.025002649           12 
 2565000   0.85838478   -7.0137176    778.54867  0.025293979  0.024995925           12 
 2566000   0.83404501   -7.0439799    778.17794  0.025272082   0.02498913            5 
 2567000   0.85004828   -7.0190838    776.92465  0.025221551   0.02498228            5 
 2568000   0.84211109   -7.0432353    778.48888   0.02526249  0.024975462            6 
 2569000   0.85142649   -7.0463027    777.39025  0.025217018  0.024968677            4 
 2570000   0.85636334   -7.0347628    777.14367  0.025199211  0.024961883            9 
 2571000   0.84077164   -7.0094053    778.80057  0.025243115  0.024955152           22 
 2572000   0.83408614   -7.0408324     779.6898  0.025262111  0.024948428           14 
 2573000   0.83788625    -7.048939    778.87016  0.025225747  0.024941704           11 
 2574000   0.85308248   -7.0453144    778.69899  0.025210405  0.024934929            5 
 2575000    0.8491212   -7.0582564    778.45115  0.025192594  0.024928173            7 
 2576000   0.84162794   -7.0316246    778.35522  0.025179711  0.024921413            8 
 2577000   0.83999387   -7.0220921    778.77991  0.025183673  0.024914646            5 
 2578000   0.83355552   -7.0791479    778.48274  0.025164299  0.024907915            7 
 2579000   0.83156036   -7.0406161    778.97225  0.025170358  0.024901175            3 
 2580000   0.83830644   -7.0217903    778.16864  0.025134646   0.02489442            6 
 2581000   0.84108743   -7.0512719    777.25987  0.025095566  0.024887629            4 
 2582000    0.8267166   -7.0529275    778.70512  0.025132492  0.024880845            4 
 2583000   0.81934443   -7.0223167    777.90763  0.025097033  0.024874038            4 
 2584000   0.84832536   -7.0411595    778.00279  0.025090389  0.024867195            9 
 2585000   0.83314549   -7.0261373    777.58683  0.025067274  0.024860352            5 
 2586000   0.83516079   -7.0425394    779.70425  0.025125814  0.024853538            3 
 2587000   0.81998654   -7.0277623    779.45057   0.02510793  0.024846744            9 
 2588000   0.83753569   -7.0323739    779.95391  0.025114435  0.024839987           18 
 2589000   0.82977499   -7.0327645     778.2938    0.0250513  0.024833199            7 
 2590000   0.85051881   -7.0546342    778.23241  0.025039653  0.024826376           14 
 2591000   0.85087227   -7.0374965    777.22415  0.024997561  0.024819527            7 
 2592000   0.82598768   -7.0471322    778.13443  0.025017182  0.024812608            9 
 2593000   0.86706112   -7.0105594    779.59716  0.025054543  0.024805707           12 
 2594000   0.80527405    -7.029295     777.6402  0.024982016  0.024798844            6 
 2595000   0.83078296   -7.0529259    779.26447  0.025024549  0.024791945            5 
 2596000   0.84480036   -7.0775553    778.39508  0.024987002  0.024785094            7 
 2597000   0.85419625   -7.0493632    776.43178  0.024914381  0.024778222            5 
 2598000    0.8555784   -7.0587448    777.77975  0.024948029  0.024771343            7 
 2599000   0.84735289   -7.0115618    780.14689  0.025014329  0.024764516            5 
 2600000   0.84400947   -7.0129983     778.2674  0.024944468  0.024757655            4 
 2601000   0.83701163   -7.0432205    779.71528  0.024981266  0.024750768           16 
 2602000   0.84346215   -7.0219357    780.13717  0.024985177  0.024743887            5 
 2603000   0.82641421   -7.0116162    779.64378  0.024959783  0.024737018            5 
 2604000   0.83605934    -7.013604    778.15188  0.024902454  0.024730128            8 
 2605000    0.8308426   -7.0438759    779.94293   0.02495019  0.024723195            7 
 2606000   0.84624092   -7.0409801     777.7537  0.024870609  0.024716259            7 
 2607000   0.83460933   -7.0535028    777.95335  0.024867451  0.024709334            8 
 2608000   0.83413462     -7.07614    777.48424  0.024842927   0.02470241           18 
 2609000   0.83709627    -7.071117     778.8064  0.024875636  0.024695466            8 
 2610000   0.82791335   -7.0522718    777.84343  0.024835359  0.024688508            7 
 2611000   0.83472305   -7.0579881    779.45069  0.024877144   0.02468159            5 
 2612000   0.83642063   -7.0421507    777.68637  0.024811331   0.02467463           15 
 2613000   0.84424882   -7.0563275    778.33667  0.024822575  0.024667682            6 
 2614000   0.83116964    -7.034954    779.10192  0.024837475  0.024660769            7 
 2615000   0.82664885   -7.0589443    779.13036  0.024828884  0.024653846            6 
 2616000    0.8342576   -7.0044454     780.2181  0.024854042  0.024646962            4 
 2617000   0.84276287   -7.0492981    778.31362  0.024783901  0.024640051            5 
 2618000   0.84140528   -7.0441437    781.75928  0.024884112  0.024633087           10 
 2619000   0.82777927    -7.039061    779.47634  0.024801971  0.024626219            7 
 2620000   0.82878511   -7.0549595    781.37873  0.024853013  0.024619325            4 
 2621000   0.84218123   -7.0449783    780.09685  0.024802774  0.024612413            4 
 2622000   0.83797524   -7.0633744    780.17135  0.024795683   0.02460553           10 
 2623000    0.8159732   -7.0217899    782.90213  0.024872987  0.024598617           17 
 2624000   0.82759551   -7.0605462    780.24335   0.02477907  0.024591746            4 
 2625000   0.82695531   -7.0191217    781.09643  0.024796712   0.02458485            5 
 2626000   0.83688372   -7.0677218    781.13922  0.024788627  0.024577994            8 
 2627000   0.84361876   -7.0473867     781.8432  0.024801523   0.02457116            7 
 2628000   0.82391346   -7.0562061    781.09462  0.024768348  0.024564317            5 
 2629000   0.83401039   -7.0500649    779.45432  0.024706933  0.024557424            4 
 2630000    0.8413365   -7.0611558    782.72215  0.024801082  0.024550562           10 
 2631000   0.81997692   -7.0692497    782.84263  0.024795472  0.024543696            5 
 2632000   0.82747977   -7.0577022    782.68979  0.024781212  0.024536867            6 
 2633000   0.82327461   -7.0332656     782.7522  0.024773775  0.024530035            4 
 2634000   0.81997172   -7.0584538    781.95182  0.024739048  0.024523238            9 
 2635000   0.82896762   -7.0643108    781.21596  0.024706387  0.024516408            5 
 2636000   0.82033777   -7.0513212    781.71724  0.024712862  0.024509597            8 
 2637000   0.84179771   -7.0556488     784.1021  0.024778856  0.024502776            5 
 2638000   0.83147517   -7.0498435    781.49639  0.024687149  0.024495926            5 
 2639000   0.84684879   -7.0349438     781.8821  0.024689974  0.024489091           11 
 2640000   0.83945791   -7.0553317    784.82761  0.024773599  0.024482246            8 
 2641000     0.828689   -7.0606662    783.36186  0.024717968  0.024475454            4 
 2642000   0.82003079   -7.0499332     784.0454  0.024730173  0.024468703            6 
 2643000   0.82809167   -7.0712037    782.77738  0.024680835  0.024461907            7 
 2644000   0.84644101    -7.089204    783.34536  0.024689402  0.024455098           11 
 2645000   0.82601635   -7.0818743    782.73245  0.024660758  0.024448246            4 
 2646000   0.82076328   -7.0658282    784.72168  0.024714087  0.024441389            4 
 2647000   0.81442712   -7.0657371    783.59053  0.024669139   0.02443454            9 
 2648000   0.82351127   -7.0745259    783.05556  0.024642987  0.024427716            5 
 2649000   0.82471117    -7.050509    783.72008  0.024654589  0.024420901            7 
 2650000   0.82437259   -7.0382159    784.29975  0.024663514  0.024414078            4 
 2651000   0.84990335   -7.0772741      782.656   0.02460254  0.024407305            5 
 2652000   0.83795301   -7.0529896    785.13353  0.024671114  0.024400524            6 
 2653000   0.82415885   -7.0394984    786.36449   0.02470048    0.0243938           12 
 2654000    0.8309055    -7.084846    783.67902  0.024606852  0.024386996            8 
 2655000    0.8081216   -7.0484297    787.03102  0.024702794  0.024380213            6 
 2656000   0.82100381   -7.0536952    786.31897  0.024671152  0.024373435            4 
 2657000   0.80635122   -7.0795346    782.98766  0.024557385  0.024366667            4 
 2658000   0.83130066   -7.0516468    786.29047  0.024651695   0.02435988            5 
 2659000   0.82552396   -7.0477227    785.56451  0.024619672   0.02435309            9 
 2660000   0.81834303    -7.052188    783.84912  0.024556677  0.024346293            4 
 2661000   0.83446681   -7.0683455     785.3705  0.024595093  0.024339498            8 
 2662000    0.8284043   -7.0880254    783.17262  0.024517049  0.024332707           16 
 2663000   0.81114279   -7.0333887    788.83449   0.02468502  0.024325945            9 
 2664000   0.82828965   -7.0280506    788.36881  0.024661186  0.024319232            5 
 2665000   0.83345427   -7.0449281     785.6255  0.024566151  0.024312528           15 
 2666000   0.84304499   -7.0525016    785.81468  0.024562849  0.024305806            6 
 2667000   0.81007261   -7.0731172    786.94061   0.02458882  0.024299097            7 
 2668000   0.81675371   -7.0606898    785.81342  0.024544397  0.024292338            7 
 2669000   0.84079571   -7.0643421    786.70242  0.024562958  0.024285557            6 
 2670000   0.83596766   -7.0717805    785.39121  0.024512834   0.02427877            8 
 2671000   0.83358071   -7.0678985    785.06336  0.024493428     0.024272            8 
 2672000   0.83541938   -7.0989593    783.96162  0.024449901  0.024265186           11 
 2673000   0.81802245   -7.0753776    785.78592  0.024497628  0.024258333            9 
 2674000   0.82764916    -7.086528    785.94078  0.024493293  0.024251521            7 
 2675000    0.8415019    -7.056168    786.19158  0.024491949  0.024244726            8 
 2676000   0.79693105   -7.0392193    785.82354  0.024471336  0.024237929            8 
 2677000   0.82274331   -7.0783616    785.14212  0.024440982  0.024231111           13 
 2678000   0.82809939   -7.0534006     787.5368  0.024506373  0.024224304            4 
 2679000   0.81044698    -7.083021    786.27952  0.024458116  0.024217517           11 
 2680000   0.82753706   -7.0528549     785.2098  0.024415728  0.024210708           12 
 2681000   0.83548174   -7.0823882     786.9146  0.024459611  0.024203893            7 
 2682000   0.83143703   -7.0585775    788.14141   0.02448861  0.024197084            9 
 2683000   0.80694061   -7.0870256    786.87423  0.024440124   0.02419028            4 
 2684000    0.8076062   -7.0775195    785.46783  0.024387352  0.024183482            5 
 2685000   0.80300965   -7.0822259    785.19698  0.024369863  0.024176704            3 
 2686000   0.80505762   -7.0736778    785.76792  0.024378503  0.024169908            4 
 2687000   0.82631267   -7.0650728     786.7123  0.024398719   0.02416315            4 
 2688000   0.81526059    -7.038522    787.34126  0.024409141  0.024156416           13 
 2689000   0.82338687   -7.0539488    787.65745  0.024409863  0.024149667            6 
 2690000    0.8179832   -7.0652411    787.36849  0.024391837  0.024142909            6 
 2691000   0.81273305   -7.0726837    785.58603  0.024327574  0.024136142            6 
 2692000   0.83875402   -7.0758816    787.58378   0.02438038  0.024129346            9 
 2693000   0.82722602   -7.0521425     786.3544  0.024333284   0.02412247           13 
 2694000    0.8146018   -7.0720481    785.46943  0.024296877  0.024115596            7 
 2695000   0.82370765    -7.089169    785.55566  0.024290528    0.0241087           17 
 2696000   0.81318486   -7.0898238    787.67143  0.024346916  0.024101747            4 
 2697000   0.81647634   -7.0869989    787.25181  0.024324923  0.024094807            7 
 2698000   0.83507307   -7.0787271     785.7362  0.024269095   0.02408787            6 
 2699000   0.83379976   -7.1001779    785.18539  0.024243096  0.024080985            6 
 2700000   0.84171005   -7.0668153    788.20969   0.02432746  0.024074119            5 
 2701000   0.82115067   -7.0793654    784.23592  0.024195851  0.024067235            7 
 2702000    0.8069545   -7.0725816    786.29071  0.024250269  0.024060357            3 
 2703000   0.81165579   -7.1079198    784.59484  0.024189013  0.024053423            7 
 2704000   0.82044111   -7.1031505    788.10411  0.024288218  0.024046484            6 
 2705000   0.81992047   -7.0836289    787.88222  0.024272403  0.024039604           10 
 2706000   0.81196288   -7.0790619    787.92476  0.024264744  0.024032772           10 
 2707000   0.81799329   -7.0868111    784.76589  0.024158536  0.024025958            9 
 2708000   0.85334701   -7.1042156    788.23457  0.024256357   0.02401913            5 
 2709000   0.83723427   -7.1077367    789.35422  0.024281845  0.024012332            8 
 2710000   0.82774886    -7.082206    788.02486  0.024232007  0.024005482            5 
 2711000   0.81055781   -7.0843809    789.10886   0.02425639  0.023998678            4 
 2712000   0.80399659   -7.0733368    790.35688  0.024285794  0.023991923            7 
 2713000   0.80961535   -7.0833268    787.64477  0.024193536  0.023985158            4 
 2714000   0.82978132   -7.0709188     787.9975  0.024195453  0.023978343            5 
 2715000   0.82355691   -7.0800409    787.99805  0.024186558  0.023971528            6 
 2716000   0.81857803   -7.0808153    788.43285  0.024190993  0.023964715            7 
 2717000   0.82690452   -7.0756811    786.16883   0.02411265  0.023957959            9 
 2718000   0.83226399   -7.1006258    788.24897  0.024167555  0.023951144            6 
 2719000   0.80877459   -7.1014955     787.7346  0.024142902    0.0239443            7 
 2720000   0.79971071   -7.0461343    792.21037  0.024271151  0.023937472            4 
 2721000   0.81585688    -7.087903    787.32355  0.024112567  0.023930616            3 
 2722000   0.83380322   -7.0904931    789.43801  0.024168443   0.02392382            7 
 2723000   0.82596819   -7.0822888    790.85426  0.024202909  0.023917033           13 
 2724000    0.8161028   -7.1213628     789.0142  0.024137733  0.023910251            5 
 2725000   0.83425987   -7.0882007    788.48639  0.024112734  0.023903448            6 
 2726000   0.82957068   -7.1011013    787.14288  0.024062817  0.023896621           10 
 2727000   0.82107901   -7.1064054    790.95556  0.024170504  0.023889803           11 
 2728000   0.83313847   -7.1071386    787.78969  0.024064934  0.023882932           11 
 2729000   0.81330962   -7.0863141    789.81243  0.024117883  0.023876122           10 
 2730000   0.81599618   -7.0965095    788.93524  0.024082272  0.023869323            5 
 2731000   0.82238465   -7.1154767    788.94419  0.024073727  0.023862507            4 
 2732000    0.8149343   -7.0891607     788.7622  0.024059364  0.023855683           11 
 2733000   0.82625189   -7.1302203    787.55715  0.024013817  0.023848834           10 
 2734000   0.81331409   -7.0869249    788.21319   0.02402503  0.023841985            5 
 2735000   0.78712487   -7.1131038    787.94309  0.024008016  0.023835171           12 
 2736000   0.79882815   -7.0785578    790.19609  0.024067863  0.023828318            5 
 2737000   0.81479373   -7.1113153    790.73423  0.024075455  0.023821511            5 
 2738000   0.82231646   -7.0950574    791.15147  0.024079361  0.023814687            9 
 2739000   0.82164594   -7.0905943    790.96624  0.024064934  0.023807866            5 
 2740000   0.81493222   -7.0763183     790.7876  0.024050718  0.023801043            7 
 2741000   0.81736698   -7.0849442    793.14785  0.024113701   0.02379425            5 
 2742000   0.81034039   -7.1166699    789.34731  0.023989403  0.023787391            4 
 2743000   0.81323619   -7.0870575    790.16817  0.024005595  0.023780561           15 
 2744000   0.81820687   -7.0840446    790.37424  0.024003105  0.023773768           12 
 2745000   0.80880794   -7.1233368    788.92373  0.023950326  0.023766968            9 
 2746000   0.79766967    -7.084536    792.92605  0.024063063    0.0237602            9 
 2747000   0.80937393   -7.0825304    793.78471  0.024080352  0.023753471            5 
 2748000   0.81547206    -7.087311    790.94136  0.023985364  0.023746761            7 
 2749000   0.81764907   -7.0827859     790.6271  0.023967112  0.023740029            8 
 2750000   0.82499547    -7.108626    792.10715  0.024003247  0.023733272            5 
 2751000   0.80484511   -7.0712864    792.08383  0.023993815  0.023726545            7 
 2752000    0.8025952   -7.0788698    791.80761  0.023976732  0.023719807            9 
 2753000   0.80276785   -7.0784758    791.26968   0.02395174  0.023713058            6 
 2754000   0.81849209   -7.0810037    791.80176  0.023959143  0.023706284            8 
 2755000   0.82603365   -7.1157243    791.06086  0.023928036  0.023699492           12 
 2756000   0.82284108   -7.1148867    791.29139  0.023926324  0.023692738            8 
 2757000   0.81093343   -7.1017581    792.51164  0.023954529  0.023685967           10 
 2758000   0.81605076   -7.1044575    791.04113  0.023901412  0.023679222           10 
 2759000   0.80244775   -7.1261669    794.01319  0.023982518  0.023672477            4 
 2760000   0.80335152   -7.1036936    794.43273  0.023986496  0.023665717            4 
 2761000   0.81057812   -7.0899187     794.4936  0.023979645  0.023659024            5 
 2762000   0.81429639   -7.0739874    793.02614  0.023926688  0.023652319            4 
 2763000   0.80889124    -7.085233    793.18347  0.023922773  0.023645587            4 
 2764000   0.79247794   -7.1079361    793.04297  0.023909882  0.023638834            7 
 2765000    0.8121779   -7.0932216    794.26913   0.02393819  0.023632103           26 
 2766000    0.8044251   -7.1024756    792.32552  0.023870979  0.023625372            8 
 2767000    0.8129551   -7.1022733    793.26995  0.023890795  0.023618635           15 
 2768000   0.81316163   -7.1000374    792.53471  0.023860029   0.02361192           12 
 2769000    0.8163819    -7.095713    792.62189  0.023854035  0.023605205           15 
 2770000   0.80046379   -7.0800838    792.92079  0.023854416  0.023598515            3 
 2771000   0.79794747   -7.0672166    795.43473   0.02392141  0.023591831            7 
 2772000   0.79738466   -7.0639943    794.38328  0.023881171  0.023585151            8 
 2773000   0.80966521   -7.0737736    793.18861  0.023836657  0.023578435           12 
 2774000   0.81700434   -7.0802616    793.96138  0.023851279  0.023571705            9 
 2775000    0.8149551   -7.0798476    794.73199  0.023865826  0.023564974            7 
 2776000   0.81446166   -7.1171705    792.17916  0.023780594  0.023558238            5 
 2777000   0.81881493   -7.0833122    793.93808  0.023824813  0.023551482            6 
 2778000    0.8192657   -7.1025775    792.11546  0.023761563  0.023544756            6 
 2779000   0.81912575    -7.108796    793.46914  0.023793605  0.023538009            7 
 2780000   0.80239079    -7.052042    794.67888  0.023821309  0.023531262           19 
 2781000    0.8107499   -7.0887905    793.71672  0.023783912   0.02352453            4 
 2782000   0.80868322   -7.1149987    792.95334  0.023752497  0.023517783            5 
 2783000   0.80751363   -7.1132114    792.65697  0.023735087  0.023511043            6 
 2784000   0.78875458   -7.0909708    794.97466  0.023795937  0.023504318            5 
 2785000   0.79889115   -7.1229005    794.86001  0.023783962  0.023497576            6 
 2786000   0.80054922   -7.1404752    797.19089  0.023845145  0.023490855           15 
 2787000   0.82199629   -7.1174963    794.36218  0.023752009  0.023484154           12 
 2788000   0.80876685   -7.1066454    793.23906  0.023709919  0.023477434           11 
 2789000   0.83031886   -7.1187947    793.86807  0.023720212  0.023470681           10 
 2790000   0.81361417   -7.1309707    795.00884  0.023745784  0.023463978            8 
 2791000   0.81417475   -7.1200786    794.43628   0.02372018  0.023457257           13 
 2792000   0.79966213   -7.0899417     796.5045  0.023773415  0.023450566            4 
 2793000   0.79357804   -7.0923456    795.36428  0.023730883  0.023443898            7 
 2794000   0.82060779   -7.1121154    796.12955  0.023745214  0.023437213            8 
 2795000   0.80128265    -7.097114    795.68031  0.023723325  0.023430565           13 
 2796000   0.79879594   -7.0937794    795.55691  0.023711162  0.023423939           11 
 2797000   0.81280779    -7.134721    795.02871  0.023686948  0.023417291            9 
 2798000    0.8008367   -7.1049462    795.33552   0.02368762  0.023410631           13 
 2799000   0.80340751   -7.0918893     795.0034  0.023669269  0.023403981            5 
 2800000   0.79923378    -7.114629    795.84056  0.023685731  0.023397322            9 
 2801000   0.80616154   -7.1297285    796.35469  0.023692571  0.023390689            6 
 2802000   0.79639408   -7.1193282    797.14581  0.023707644  0.023384059           11 
 2803000   0.81410748   -7.1197099    798.24438  0.023731846  0.023377433            7 
 2804000   0.81767937   -7.0826071    798.54802  0.023732407  0.023370843            6 
 2805000   0.79240105   -7.1140449    796.89189  0.023674744  0.023364204           11 
 2806000    0.7960363   -7.1171321     797.8784  0.023695605   0.02335758            4 
 2807000   0.80887966   -7.1215178    797.99212  0.023690539  0.023350947            6 
 2808000   0.78795032   -7.1230032    796.41864  0.023635406  0.023344325            9 
 2809000   0.79140962   -7.1077705    797.59341  0.023661843  0.023337676            6 
 2810000   0.82451234   -7.1072741     799.4929  0.023709754  0.023331076           12 
 2811000   0.78796841   -7.0787245      797.146  0.023631744  0.023324474            8 
 2812000   0.80528258   -7.1481465    796.23659   0.02359639   0.02331784            6 
 2813000    0.8051295   -7.1132453    795.79824  0.023575016  0.023311188            8 
 2814000   0.80914148   -7.0882219      797.912  0.023629235  0.023304542            9 
 2815000   0.81084523   -7.1269125    799.22674  0.023659761  0.023297896           13 
 2816000   0.81055027   -7.1247643    798.64269  0.023634076  0.023291285           16 
 2817000    0.7971314   -7.1102864    797.34438  0.023587279  0.023284682            5 
 2818000   0.79832066   -7.1055737    798.67823  0.023618353  0.023278049           11 
 2819000   0.80111842   -7.1057122    797.71774  0.023581582  0.023271432            9 
 2820000   0.81015552    -7.100424    798.58433  0.023598828  0.023264841            8 
 2821000   0.81939792   -7.1121909    798.01835  0.023573743  0.023258249            5 
 2822000   0.80877097   -7.1356716    797.83261  0.023559905  0.023251648            6 
 2823000   0.80152602   -7.1294542    799.15187  0.023590503  0.023245048            3 
 2824000   0.80282906    -7.119195    799.05084  0.023579168  0.023238452           11 
 2825000   0.79682578   -7.1209054    798.82488  0.023564156  0.023231853           10 
 2826000   0.80094063    -7.121487    800.66925  0.023610204  0.023225253            8 
 2827000   0.80672662   -7.1042056    800.03431  0.023583136  0.023218676            6 
 2828000    0.7929126    -7.102483    800.33338   0.02358361  0.023212087            7 
 2829000   0.81044083   -7.1147855    799.12831  0.023539776  0.023205524           10 
 2830000   0.79283274    -7.089037    799.21712  0.023534073   0.02319892           10 
 2831000   0.80177023   -7.1158513    798.67648  0.023509846  0.023192304            2 
 2832000   0.81670079   -7.1368383    797.05787  0.023453916  0.023185716            3 
 2833000   0.80330946   -7.1231164    800.03289  0.023533148  0.023179076            6 
 2834000   0.79113148   -7.1353876    798.04637  0.023466431  0.023172427           10 
 2835000   0.80300074   -7.1212398    799.22102  0.023492681   0.02316583            9 
 2836000   0.80014663   -7.1103966    796.99565  0.023419007  0.023159155            4 
 2837000   0.79839151    -7.120215    795.99439  0.023381341  0.023152482            7 
 2838000   0.80183796   -7.1088434    797.62136  0.023420876  0.023145829            9 
 2839000   0.79059682   -7.1170623    796.61693  0.023383143  0.023139163            5 
 2840000   0.78359702   -7.1336569    799.11696  0.023448268  0.023132528            6 
 2841000    0.7961516   -7.1147542    799.38301  0.023447818   0.02312588            6 
 2842000   0.79649711   -7.1560562    798.92112  0.023426024  0.023119219            9 
 2843000   0.80082809   -7.1069165    798.33516  0.023400609  0.023112557           15 
 2844000   0.80273441   -7.1096859    798.03103  0.023383469  0.023105864            6 
 2845000   0.80102837   -7.1072038    798.23415  0.023381199  0.023099182            9 
 2846000   0.79862538   -7.1209188    798.19607  0.023371869  0.023092501           13 
 2847000   0.79050317   -7.1154628    797.83684  0.023353145  0.023085801            5 
 2848000   0.80121815   -7.1318157    797.09871  0.023323347  0.023079101           13 
 2849000   0.78767871   -7.1210074    797.01463  0.023312701  0.023072432            6 
 2850000   0.80205483   -7.1175191    797.66402  0.023323509   0.02306574           14 
 2851000    0.8000059   -7.1373168    798.24075  0.023332186  0.023059077            6 
 2852000   0.79765822   -7.1417059    798.91607  0.023343738  0.023052391            5 
 2853000   0.80630164   -7.1276145    799.24624  0.023345199   0.02304567            8 
 2854000   0.79761963   -7.1266462    799.10795  0.023332981     0.023039           14 
 2855000   0.79527964   -7.1279592    798.49411  0.023306892  0.023032329            6 
 2856000   0.79525614   -7.1240485    798.16465  0.023289118  0.023025676           13 
 2857000   0.79285684   -7.1018373    800.93354   0.02336173  0.023019018            3 
 2858000    0.8082745   -7.1396958    799.33425  0.023306923  0.023012355            6 
 2859000   0.78831617   -7.1371753    800.19914  0.023323981   0.02300568            5 
 2860000   0.80996087   -7.1304569    799.42307  0.023293213  0.022999014            6 
 2861000   0.79149784   -7.1169287    798.51735   0.02325869  0.022992336            3 
 2862000   0.80274796   -7.1477611    799.80972  0.023288194  0.022985623            7 
 2863000   0.79444475   -7.1828069    797.92623  0.023225237  0.022978916            8 
 2864000   0.79415984   -7.1692919    799.04567  0.023249699  0.022972227            5 
 2865000   0.79637516   -7.1394769    799.54449  0.023256093  0.022965552            7 
 2866000    0.8174197    -7.143822     799.0347  0.023233156  0.022958888            8 
 2867000   0.78343948   -7.1529972    798.63927  0.023213559  0.022952221            6 
 2868000   0.79969086   -7.1268307    800.08846  0.023247573  0.022945569           10 
 2869000   0.78375836    -7.140293    800.92714   0.02326383  0.022938954            3 
 2870000   0.80305501   -7.1462914    799.93798  0.023227003  0.022932334            4 
 2871000   0.78627924    -7.119936    799.82018  0.023215493  0.022925709            9 
 2872000   0.80978795   -7.1334143     801.4236  0.023253935  0.022919094            4 
 2873000   0.78822892   -7.1250223    798.66455  0.023165813  0.022912497           11 
 2874000   0.79234861   -7.1253259    801.44893  0.023238487  0.022905881           15 
 2875000   0.77816051   -7.1562055    801.80409  0.023240698  0.022899286           14 
 2876000   0.79819072   -7.1235198    798.66026  0.023141524  0.022892672           14 
 2877000   0.79869613   -7.1551723    801.37432  0.023212094  0.022886058            5 
 2878000   0.80519482   -7.1391209    800.18039  0.023169458  0.022879419           20 
 2879000   0.78021329   -7.1456391    801.78116  0.023207745  0.022872803           10 
 2880000   0.79114586   -7.1437086    801.48092  0.023190999  0.022866202           16 
 2881000   0.78822719   -7.1245998    800.15028   0.02314446  0.022859595            5 
 2882000   0.80557799    -7.187988    799.35497  0.023113433  0.022852963            5 
 2883000   0.79526922   -7.1628878    801.77722  0.023175431  0.022846326            5 
 2884000   0.78672473   -7.0949401    800.95428  0.023143617  0.022839692            6 
 2885000   0.81700882   -7.1610303    800.78851  0.023130806  0.022833079            6 
 2886000   0.79431205   -7.1192122    800.50352  0.023114562  0.022826478            8 
 2887000   0.79335972   -7.1350402     803.0524  0.023180129  0.022819866            6 
 2888000   0.77460605   -7.1511127    801.30725  0.023121747   0.02281326           10 
 2889000    0.7896067   -7.1320002    799.74994  0.023068823  0.022806639           18 
 2890000    0.8113413   -7.1631109    802.28238  0.023133863  0.022799967           20 
 2891000   0.80754959   -7.1514448     800.8229  0.023083792  0.022793313           13 
 2892000   0.77521309   -7.1294007     801.0623  0.023082708  0.022786688            7 
 2893000   0.79685013   -7.1470055     799.8288  0.023039198  0.022780026            5 
 2894000   0.79401784   -7.1568842    802.64521  0.023112336  0.022773411            7 
 2895000   0.78668933   -7.1460347    800.04476  0.023029498  0.022766775            5 
 2896000    0.7951379   -7.1504405    802.06032  0.023079544  0.022760119            7 
 2897000   0.79148883   -7.1282638    802.17488  0.023074873   0.02275349            6 
 2898000   0.80016451   -7.1516368    801.66233  0.023052172  0.022746849            5 
 2899000   0.79139953   -7.1471501    802.44505   0.02306672  0.022740209            9 
 2900000   0.80199249   -7.1466239      802.187  0.023051351  0.022733553            9 
 2901000   0.76763823   -7.1666214    799.09712  0.022954645  0.022726861            6 
 2902000   0.78289307   -7.1405682    800.89074  0.022998241  0.022720185            6 
 2903000   0.79244816    -7.166173    799.05262  0.022937554   0.02271352            6 
 2904000   0.80148902   -7.1364787     801.2373  0.022992347  0.022706871            6 
 2905000   0.79516666   -7.1559635    801.86514  0.023002442  0.022700225           19 
 2906000   0.78949099   -7.1234902    803.21839  0.023033333  0.022693595           23 
 2907000   0.79510764   -7.1445654    802.38052  0.023001391  0.022686987           19 
 2908000   0.80140555   -7.1512066    800.82919  0.022949026  0.022680351           25 
 2909000   0.80758287   -7.1688735    800.20605  0.022923286    0.0226737           20 
 2910000   0.76541634   -7.1760096    801.60175  0.022955377  0.022667072           22 
 2911000   0.80122254   -7.1453293    802.38081  0.022969793  0.022660432            9 
 2912000   0.77287057   -7.1351577    803.33004  0.022989069  0.022653819           12 
 2913000   0.78612143   -7.1704214    803.70599  0.022991932   0.02264721           11 
 2914000   0.79748303   -7.1567629    801.74253  0.022927892  0.022640595           10 
 2915000   0.77360118   -7.1385511    804.92211  0.023010924  0.022633976            5 
 2916000   0.77734922   -7.1534261    804.53263  0.022991902  0.022627348            7 
 2917000   0.78075474   -7.1400274    802.86427  0.022936358  0.022620709           10 
 2918000   0.77268195    -7.137771    802.87312   0.02292875  0.022614077            5 
 2919000   0.77962398   -7.1614509    804.76252  0.022974835  0.022607468           15 
 2920000   0.78114354   -7.1303577    802.80709  0.022911161  0.022600879            6 
 2921000   0.79818988   -7.1502412    803.39878  0.022920198  0.022594276            5 
 2922000   0.79459403   -7.1524789    804.03202  0.022930413  0.022587675            5 
 2923000   0.77302072   -7.1635377    802.23167  0.022871242  0.022581054            6 
 2924000   0.77837507   -7.1713356    802.64033  0.022875066  0.022574423           13 
 2925000   0.77423583   -7.1470162    803.31582  0.022886491  0.022567798           10 
 2926000   0.79329127   -7.1835197    802.84702  0.022865317  0.022561173            4 
 2927000   0.77855828   -7.1319789    802.29062  0.022841664  0.022554554           11 
 2928000   0.76630609   -7.1559087    803.50636  0.022868464  0.022547921           11 
 2929000   0.77549391   -7.1424214    803.34782  0.022856146  0.022541282            5 
 2930000   0.77865574   -7.1419065    802.48334  0.022823758  0.022534654            5 
 2931000   0.77743497   -7.1490735    802.12912    0.0228059  0.022528055           17 
 2932000   0.80119321   -7.1472552    803.69776  0.022842706  0.022521444           17 
 2933000   0.78135134   -7.1693911    803.23104  0.022821657  0.022514815            7 
 2934000   0.78843129   -7.1494048    803.74322  0.022828426  0.022508174           13 
 2935000   0.76731275   -7.1765208    803.05575  0.022801129  0.022501525           12 
 2936000   0.78577205    -7.167314    803.97022  0.022819318  0.022494867            9 
 2937000   0.78690864   -7.1530964    803.98602  0.022811997  0.022488243            7 
 2938000   0.78753268   -7.1472929    804.32852  0.022813947  0.022481635            7 
 2939000   0.78480762   -7.1770685    804.27472  0.022804659  0.022475053            4 
 2940000   0.76955074   -7.1391154    804.04774  0.022790469  0.022468477            8 
 2941000   0.77975656   -7.1378406    804.36368  0.022791672    0.0224619           17 
 2942000   0.79138361   -7.1912796    802.49396  0.022730964  0.022455284            4 
 2943000   0.77639513     -7.16645    804.86715  0.022790439  0.022448629           14 
 2944000   0.77016406   -7.1412599    803.89551  0.022755194  0.022441994            7 
 2945000    0.7735612   -7.1600261    803.26037  0.022729495   0.02243539            6 
 2946000   0.77920614   -7.1565372    803.73998  0.022735347  0.022428756           17 
 2947000   0.77862128   -7.1585309    803.35038  0.022716615  0.022422147            5 
 2948000   0.79384876   -7.1907618    803.74202   0.02271998  0.022415512            7 
 2949000   0.79763038   -7.1479722     804.0384  0.022720651  0.022408873            5 
 2950000   0.78199022   -7.1755786    803.10717  0.022686643  0.022402234            5 
 2951000   0.78308812     -7.16849    803.05642  0.022677522  0.022395599           12 
 2952000   0.75393833   -7.1514909    803.95955  0.022695335  0.022388979            7 
 2953000   0.79264324   -7.1450526    804.50966  0.022703174  0.022382362           10 
 2954000   0.80520317   -7.1662992    803.48139   0.02266648  0.022375747           10 
 2955000   0.79196736   -7.1641277    804.10427  0.022676375  0.022369087            7 
 2956000   0.79622893   -7.1971236    805.07591  0.022696096  0.022362459            8 
 2957000      0.76381   -7.1527939    805.25943  0.022693592  0.022355855            5 
 2958000   0.78829264   -7.1670732    802.13319  0.022597847  0.022349255            6 
 2959000   0.76067082   -7.1549296    805.59154  0.022687607  0.022342673            6 
 2960000     0.776113    -7.157279    805.98462  0.022691008  0.022336085            9 
 2961000   0.78085316   -7.1501285    804.96872  0.022654754  0.022329509            4 
 2962000   0.78437579   -7.1291379    805.19098  0.022653359  0.022322917            5 
 2963000   0.77658413   -7.1333003    805.35335   0.02265028  0.022316361            9 
 2964000   0.78276137    -7.169131    805.21684    0.0226388  0.022309775           13 
 2965000   0.78575222   -7.1626687    803.12115  0.022572264  0.022303163            6 
 2966000    0.7835183   -7.1606243    802.45522  0.022545943  0.022296574           13 
 2967000   0.78351886   -7.1554916    804.69365  0.022601215  0.022289956            9 
 2968000   0.75012166   -7.1633735    803.35705  0.022556072  0.022283342            8 
 2969000   0.79087185   -7.1754284    805.32873  0.022603815  0.022276726            9 
 2970000   0.76532838    -7.152917    802.54419  0.022518075  0.022270125           11 
 2971000   0.77130821   -7.1738473    804.37272  0.022561784  0.022263518            4 
 2972000   0.78932104   -7.1823681    803.86705  0.022540014  0.022256894           15 
 2973000   0.77531882   -7.1552827    804.91907   0.02256192  0.022250311            5 
 2974000   0.76923425   -7.1742768    806.37747  0.022595199  0.022243773           10 
 2975000    0.7593803    -7.177142    804.42042  0.022532785  0.022237216            4 
 2976000   0.76752342   -7.1588292    805.89386  0.022566472  0.022230681            4 
 2977000   0.77496545   -7.1708891    805.99341  0.022561679  0.022224108            8 
 2978000   0.78266108   -7.1584865    806.21053  0.022560178  0.022217552            4 
 2979000   0.78558809   -7.1440727    806.29316  0.022554917  0.022211035            6 
 2980000   0.78890849   -7.1881835    806.40984  0.022550611  0.022204494           11 
 2981000   0.76918278    -7.180396    806.03899  0.022532679  0.022197982            8 
 2982000   0.78362801   -7.1756813    806.03906  0.022525125  0.022191422            8 
 2983000   0.77060835   -7.1932683    806.86325  0.022540598  0.022184875            6 
 2984000    0.7673881   -7.1991872     805.4038  0.022492287   0.02217832           12 
 2985000   0.78793986   -7.1825607    802.63801  0.022407538  0.022171749            9 
 2986000   0.77074397   -7.1853941    807.32006  0.022530701  0.022165213           10 
 2987000   0.77884595   -7.1883008    809.58879  0.022586452   0.02215867            5 
 2988000   0.78244727    -7.203551    807.94163  0.022532955  0.022152146            8 
 2989000   0.77164147   -7.1583642    807.82747  0.022522233  0.022145613            6 
 2990000   0.78154111   -7.1891993    806.04902  0.022465134  0.022139073           10 
 2991000   0.78390744   -7.2223748     804.5966  0.022417157  0.022132527            5 
 2992000   0.75665908   -7.1677984    806.08063  0.022450998  0.022125981           22 
 2993000   0.79006592    -7.134803     807.2038  0.022474769   0.02211947            5 
 2994000   0.77394418    -7.197749    808.47536  0.022502654  0.022112978           11 
 2995000   0.77934724   -7.1696824     808.0174  0.022482399  0.022106454            7 
 2996000   0.76530183   -7.1681011    806.58276   0.02243499  0.022099976            9 
 2997000    0.7724161   -7.2039824    805.64607  0.022401459  0.022093481           23 
 2998000   0.78894025   -7.1623694    807.64281  0.022449489   0.02208697           12 
 2999000    0.7681574   -7.1816981    807.19395  0.022429531   0.02208045           19 
 3000000   0.77162966   -7.1711989    806.83236   0.02241201  0.022073901            6 
 3001000   0.76772743   -7.1996532    805.42533  0.022365471  0.022067328           14 
 3002000   0.77277147   -7.1900525    805.22837  0.022352553  0.022060779           10 
 3003000   0.77741559   -7.1349163    807.71777   0.02241419   0.02205425            8 
 3004000   0.76924902   -7.1864902    807.46543  0.022399729   0.02204771           15 
 3005000   0.77618697   -7.1586126    808.14684  0.022411171  0.022041157            6 
 3006000   0.76893464   -7.1886846     810.0593  0.022456734  0.022034639           11 
 3007000   0.75154975   -7.1648182     805.7623  0.022330182  0.022028119           16 
 3008000   0.76814184   -7.1859568    806.71268  0.022349088  0.022021593           18 
 3009000   0.75718323   -7.1808776    808.27225  0.022384852   0.02201506            9 
 3010000   0.77814869   -7.1726831    809.02538  0.022398266  0.022008536            9 
 3011000   0.77847682   -7.1874237    807.78251  0.022356429  0.022002032            8 
 3012000   0.77000037   -7.1995776    808.12261  0.022358417  0.021995511            7 
 3013000   0.77315589   -7.1952282    807.97604  0.022346942  0.021989008            5 
 3014000   0.77954077   -7.2027022    808.35238  0.022349933  0.021982535            4 
 3015000   0.76835899   -7.1929211    807.94675  0.022331309  0.021976019           12 
 3016000   0.77252683   -7.1993633    808.73734  0.022345749  0.021969511            8 
 3017000   0.77789844   -7.1982851    807.63303   0.02230784  0.021962983           11 
 3018000   0.76595106   -7.1472977    808.65924  0.022328784  0.021956492           13 
 3019000   0.76949868   -7.1900953    810.51887  0.022372719  0.021950036            8 
 3020000   0.77783133   -7.1970839    808.98753  0.022323056  0.021943573            6 
 3021000   0.77671032   -7.1942009    807.70493  0.022280286  0.021937095           11 
 3022000   0.75907316   -7.2043561    808.19771  0.022286502  0.021930608            8 
 3023000    0.7618271   -7.1985007    808.11767  0.022276923  0.021924107            7 
 3024000   0.77873779   -7.2117683    808.42282  0.022277966  0.021917599            5 
 3025000   0.76368938   -7.1761429    809.90947  0.022311556  0.021911132            5 
 3026000     0.774669   -7.1952792    809.35854   0.02228901  0.021904688            9 
 3027000   0.75921464   -7.1872804    810.11451  0.022302459   0.02189827            6 
 3028000    0.7636434   -7.1646094    809.04341  0.022265616  0.021891835            6 
 3029000   0.76434064   -7.1718376    811.10579  0.022315005  0.021885421            4 
 3030000   0.77838563   -7.1913932    808.48676  0.022235609  0.021879022            5 
 3031000   0.75760427   -7.1850244    810.24969  0.022276743  0.021872629            7 
 3032000    0.7536342   -7.1675093    808.89456   0.02223215  0.021866209           14 
 3033000   0.75842788   -7.1906752    810.62621  0.022272398  0.021859758            5 
 3034000   0.79198599   -7.1810145    810.76629  0.022268905  0.021853338            7 
 3035000   0.77624028   -7.2020487    810.24811   0.02224734  0.021846904            5 
 3036000   0.77258921   -7.1899844    809.92543  0.022231155  0.021840493            7 
 3037000   0.75790433   -7.1663846    812.27361  0.022288267   0.02183411            9 
 3038000   0.74883291   -7.1837972    811.86535  0.022269732   0.02182776           10 
 3039000   0.77047532   -7.1699525    810.41188  0.022222548  0.021821382            6 
 3040000   0.76198696   -7.1641496     812.1068    0.0222617  0.021814982           11 
 3041000   0.76921524   -7.1827522    812.03215  0.022252333  0.021808606            4 
 3042000   0.78088436   -7.1799855    813.19143  0.022276776  0.021802229            8 
 3043000   0.76497495   -7.2048994    810.80548  0.022204115  0.021795823            7 
 3044000   0.75897936   -7.1934886    810.49806  0.022188405  0.021789417            9 
 3045000   0.75286459   -7.1901152    809.86783  0.022163871  0.021783034            6 
 3046000   0.76370618   -7.1904648    811.60489  0.022204117  0.021776593           15 
 3047000   0.77516432   -7.2078014    810.62487  0.022170027  0.021770149           10 
 3048000   0.77680921   -7.1761738    811.56768   0.02218853  0.021763722           20 
 3049000    0.7568688   -7.1971715    811.61906  0.022182657   0.02175731            3 
 3050000   0.76291402   -7.2041585    810.07043  0.022133072  0.021750862           14 
 3051000   0.75624899   -7.1943624    811.87766  0.022175179  0.021744427           10 
 3052000   0.77871559   -7.1740982    811.26094  0.022151074  0.021738014           11 
 3053000   0.77492999   -7.2175517    808.63386  0.022072111  0.021731599           11 
 3054000   0.75947453   -7.2220724    810.95821  0.022128308  0.021725176            6 
 3055000     0.786509   -7.2162925    810.30388  0.022103215  0.021718767            9 
 3056000   0.74702281   -7.1959845    809.39772  0.022071273  0.021712324            5 
 3057000   0.75145325   -7.2090778    810.98052    0.0221072   0.02170591           13 
 3058000   0.76165451   -7.2067822    811.01801  0.022100992  0.021699463            5 
 3059000     0.769671    -7.210631    810.40867  0.022077168  0.021693054            7 
 3060000   0.76164435   -7.1767415    810.70389  0.022077993  0.021686655            8 
 3061000   0.75703857   -7.1819748    813.08037  0.022135478  0.021680234            6 
 3062000   0.75604336   -7.2039773    812.71835  0.022118396  0.021673831           13 
 3063000   0.75757063    -7.213439    808.94835  0.022008607  0.021667398           16 
 3064000   0.76785363   -7.1821539    809.95265  0.022028738  0.021660974           10 
 3065000   0.76783487   -7.1785456    810.82578   0.02204529  0.021654546           10 
 3066000   0.75082029   -7.2034884    810.08995    0.0220181   0.02164812            5 
 3067000   0.77626315   -7.1899112    810.94708  0.022034211  0.021641704           10 
 3068000   0.75763285   -7.2213957    809.62005  0.021990984   0.02163526            4 
 3069000   0.75644996   -7.2347882    811.32288  0.022030055  0.021628804            7 
 3070000   0.75798849   -7.1995206    811.90068  0.022038564  0.021622406           19 
 3071000   0.74463504   -7.2254276    811.32771  0.022015839  0.021616018           14 
 3072000   0.77351711   -7.2124192    813.16681  0.022058561   0.02160961           10 
 3073000    0.7513033   -7.2179731    812.76851  0.022040582  0.021603203            6 
 3074000   0.73859824   -7.1917856    809.36045  0.021941023  0.021596812            9 
 3075000   0.75795313   -7.2028953    812.93989  0.022030891   0.02159044           15 
 3076000   0.75798913   -7.2305729    812.05902  0.021999865  0.021584042           17 
 3077000   0.76716625   -7.2134762    810.43762  0.021948803  0.021577639           10 
 3078000    0.7598873   -7.1971722     811.6169    0.0219736  0.021571236            7 
 3079000   0.76514515   -7.2210964    812.52579  0.021991063  0.021564845           15 
 3080000   0.76914254   -7.2033919    812.53742  0.021984238  0.021558482            8 
 3081000   0.75764545   -7.2073433    811.48558  0.021948652  0.021552122           12 
 3082000   0.74237985   -7.2027639    813.06246  0.021984168  0.021545816           12 
 3083000   0.75668611   -7.2074264    812.21983  0.021954261  0.021539462           13 
 3084000    0.7668951   -7.1992311    813.79156  0.021989612  0.021533142            6 
 3085000   0.76348628     -7.22715    811.35311  0.021916616  0.021526804           10 
 3086000   0.73505145   -7.2054155    812.84046  0.021949678  0.021520498            7 
 3087000   0.74268412    -7.199142    814.06122  0.021975521   0.02151417           10 
 3088000    0.7531045   -7.2149331    813.11303  0.021942817  0.021507866           14 
 3089000   0.76283209   -7.2022114    812.64414  0.021923064   0.02150153            6 
 3090000   0.75304763   -7.2334544     813.0553  0.021927058  0.021495189           19 
 3091000    0.7583114   -7.2268081    813.12929  0.021921959  0.021488834            8 
 3092000   0.73568165   -7.2162134    809.98112  0.021830022   0.02148247            7 
 3093000   0.75837458   -7.1840545    813.14298  0.021908152   0.02147611           14 
 3094000   0.76222638   -7.2328768    813.29548  0.021905179  0.021469767            7 
 3095000   0.75474646   -7.2222065    814.23972  0.021923525  0.021463408            5 
 3096000   0.75874219   -7.2356687    813.42371   0.02189448  0.021457067            7 
 3097000   0.76931728   -7.2206929    811.40595  0.021833117  0.021450708            6 
 3098000   0.74689111   -7.2201505    813.15986  0.021873248  0.021444347            5 
 3099000   0.75030097   -7.2138517     814.3405  0.021897937  0.021438014            9 
 3100000   0.76040942   -7.1835085    813.30223  0.021862963  0.021431662            7 
 3101000   0.74103931   -7.2113352    813.31612  0.021856286  0.021425338            9 
 3102000   0.76156216   -7.2294683    815.01728  0.021894941  0.021419011            8 
 3103000   0.77172724   -7.2164285    813.51655  0.021847582  0.021412691            6 
 3104000   0.74540728   -7.2192823    811.95051  0.021798499  0.021406339            8 
 3105000   0.75411482    -7.234275    813.35642  0.021829212  0.021399999           10 
 3106000   0.75600253   -7.2337845    814.35792  0.021849053  0.021393689           16 
 3107000   0.75398773   -7.1831922    812.89654  0.021802825  0.021387393            7 
 3108000   0.76444194   -7.2473561    813.58832  0.021814359  0.021381084            7 
 3109000   0.77147981   -7.2166626    814.97322  0.021844463  0.021374809            8 
 3110000   0.76386611   -7.2206786    815.59276   0.02185404  0.021368517           10 
 3111000   0.75405971   -7.2072216    814.19083  0.021809462  0.021362257            5 
 3112000     0.761325   -7.2339537    814.05205  0.021798737  0.021355954           12 
 3113000   0.77399462   -7.2478787    813.05973  0.021765171  0.021349669            3 
 3114000   0.74754713   -7.2103782    814.13016  0.021786827  0.021343373           11 
 3115000   0.73597975   -7.1978807    815.35461   0.02181259  0.021337094            6 
 3116000   0.75744457    -7.206597    815.18928  0.021801168  0.021330813            5 
 3117000   0.73817849   -7.2503442    812.63092  0.021725776  0.021324502            7 
 3118000   0.75178961     -7.24406    814.82647  0.021777488  0.021318182            7 
 3119000   0.76392415   -7.2047161    814.60017  0.021764459  0.021311903           10 
 3120000   0.75502869   -7.2128755    814.23475  0.021747723  0.021305608           10 
 3121000   0.74562228   -7.2120921    814.34677  0.021743746  0.021299337           12 
 3122000   0.75704079   -7.2177189    815.56413  0.021769275  0.021293088            6 
 3123000   0.74094289   -7.2348516    813.22399  0.021699861  0.021286857           10 
 3124000   0.75746725   -7.2426932    815.34093  0.021749385  0.021280619            5 
 3125000   0.75325368   -7.2214725    816.82873  0.021782099  0.021274383           15 
 3126000   0.73726808   -7.1952601    816.62014  0.021769571  0.021268171            8 
 3127000   0.73683347   -7.2540722     814.3617  0.021702422  0.021261939           10 
 3128000   0.75434952   -7.2259891    818.27222  0.021799665    0.0212557           10 
 3129000   0.76747203   -7.2090059    816.18465  0.021737101  0.021249519           12 
 3130000   0.73983541   -7.2523973    817.58857  0.021767534  0.021243321            9 
 3131000    0.7501848    -7.209098     816.0132  0.021718652  0.021237146            8 
 3132000   0.74782709    -7.225516    817.51743  0.021751741  0.021230959           13 
 3133000   0.73477296   -7.2337357     815.8476  0.021700383  0.021224765            9 
 3134000   0.76559808   -7.2349633    817.40517  0.021734875  0.021218583            8 
 3135000   0.74154588   -7.2250438    817.26234  0.021724145  0.021212395            6 
 3136000    0.7588529    -7.209825    815.65299  0.021674452  0.021206214           11 
 3137000    0.7482075   -7.2375295    816.87291   0.02169995  0.021200036            8 
 3138000   0.73550593   -7.2208182    816.62191  0.021686369   0.02119386           14 
 3139000   0.74748871   -7.2370179    814.92817  0.021634495  0.021187696            7 
 3140000   0.74326444   -7.2099815    818.00282  0.021709204  0.021181495           10 
 3141000   0.77151268   -7.2447356     816.6033  0.021665162    0.0211753            9 
 3142000   0.77247306   -7.2460441     816.8734  0.021665431  0.021169096            6 
 3143000   0.73960369   -7.2339617    818.03586  0.021689359  0.021162886           11 
 3144000   0.74999192    -7.248339    817.20031  0.021660313   0.02115669           13 
 3145000   0.74370783   -7.2452577     817.7197  0.021667189  0.021150512           16 
 3146000   0.75386336   -7.2441545    818.22539  0.021673697  0.021144322            6 
 3147000   0.75698483    -7.220905    818.06002   0.02166243  0.021138143           17 
 3148000   0.75513672   -7.2154041     818.0663  0.021655715  0.021131979            8 
 3149000   0.74357891   -7.2228315    819.48574  0.021686401  0.021125845            5 
 3150000   0.74511359   -7.2198792    817.87983  0.021637033  0.021119685            5 
 3151000    0.7522396    -7.269193    815.48108  0.021566727  0.021113498            4 
 3152000   0.73984399   -7.2316823    816.35324  0.021582943  0.021107316           20 
 3153000   0.73301297   -7.2263916    817.55047   0.02160774  0.021101141           29 
 3154000   0.74883874   -7.1950531    817.42882  0.021597675  0.021094976           30 
 3155000   0.75328724   -7.2379466    817.80288   0.02160071   0.02108883           10 
 3156000   0.73584852   -7.2267164      817.012  0.021572983  0.021082715           10 
 3157000   0.74583554    -7.223039     819.9333  0.021643261  0.021076592           11 
 3158000   0.75811938   -7.2305897    819.01919  0.021612286  0.021070469            9 
 3159000   0.75809305   -7.2438819    819.86455  0.021627745   0.02106433           10 
 3160000   0.73391681   -7.2423942    818.97459  0.021597431  0.021058155            9 
 3161000   0.72677391   -7.2586731    815.99684  0.021512096  0.021051989            3 
 3162000   0.76584256   -7.2551667    818.19773  0.021563297  0.021045826            7 
 3163000   0.75718532   -7.2287182    818.76882  0.021571525   0.02103968            7 
 3164000   0.74396026   -7.2051461     820.0601  0.021598717  0.021033539            8 
 3165000   0.74136375   -7.2174264    817.56801  0.021526277  0.021027418            7 
 3166000   0.74570289   -7.2236664    819.38498  0.021567303  0.021021302            7 
 3167000   0.75336423   -7.2209379    820.03476  0.021577591  0.021015182            7 
 3168000   0.74384078   -7.2375586    815.74335  0.021457895  0.021009027           10 
 3169000   0.73627737   -7.2345001    817.50864  0.021497545  0.021002867           11 
 3170000   0.72314516   -7.2130702    817.58391  0.021492742  0.020996725            6 
 3171000    0.7587139    -7.255967    816.57897  0.021459554  0.020990581            9 
 3172000   0.72751547   -7.2282705    818.73492  0.021509429  0.020984434           10 
 3173000   0.74512603   -7.2564066    818.15602  0.021487447  0.020978312           11 
 3174000   0.75047774   -7.2255193    819.00926  0.021503079  0.020972203            8 
 3175000   0.73158962   -7.2226564    819.05181  0.021497423  0.020966101            6 
 3176000   0.74520603    -7.239498    819.55762  0.021503926  0.020959999            9 
 3177000   0.75133202    -7.221283    820.01504  0.021509155  0.020953921           14 
 3178000   0.75303907   -7.2435348    820.62547  0.021518394  0.020947849           13 
 3179000   0.74741214   -7.2232502    821.60232  0.021537232  0.020941798            9 
 3180000   0.75818479   -7.2215677    820.06485  0.021490169  0.020935737           11 
 3181000   0.74940066   -7.2284398    821.66403  0.021525307  0.020929677            7 
 3182000   0.74117398   -7.2260693    820.62675  0.021491377  0.020923642            8 
 3183000   0.75107411   -7.2438206    820.47297  0.021480599  0.020917603           17 
 3184000   0.74009799   -7.2246703    819.49189  0.021448175  0.020911536            9 
 3185000   0.74751856   -7.2503108    821.14688  0.021484743  0.020905483            7 
 3186000   0.74132169   -7.2596774    820.79523  0.021468802  0.020899434           15 
 3187000   0.74615565   -7.2563767    820.98469  0.021467019  0.020893358           12 
 3188000   0.74714282   -7.2510103    820.95513  0.021459513  0.020887303           13 
 3189000   0.73642084   -7.2484309    819.81306   0.02142294  0.020881262           11 
 3190000   0.73305812   -7.2698291    821.55258  0.021461666  0.020875223            7 
 3191000   0.73235997   -7.2620563    820.92148  0.021438459  0.020869178           14 
 3192000   0.73304112   -7.2511078    820.95293  0.021432564   0.02086315            4 
 3193000   0.73805557   -7.2441789    824.34368  0.021514346  0.020857137            8 
 3194000   0.74512678    -7.238582    821.82419  0.021441875  0.020851131           10 
 3195000   0.75122049   -7.2570865    820.09016  0.021389936  0.020845086           11 
 3196000   0.75475617   -7.2563087    821.04601  0.021408167  0.020839057           34 
 3197000   0.71431132   -7.2649715    821.98255  0.021425882  0.020833059           12 
 3198000   0.73720605   -7.2211915     823.0884  0.021447999  0.020827073           13 
 3199000   0.74695977    -7.274933    821.17123  0.021391352  0.020821052           21 
 3200000   0.73786555   -7.2197739    823.06425  0.021433965  0.020815056            6 
 3201000   0.75100104   -7.2704439    821.47957  0.021386014  0.020809021            8 
 3202000   0.74160493   -7.2581778    820.39101  0.021351005  0.020802993           11 
 3203000    0.7517455   -7.2713486     822.7379  0.021405398  0.020796979           11 
 3204000   0.73834484   -7.2411712     824.5308  0.021445349  0.020790974           23 
 3205000   0.74586318   -7.2543134    820.54225  0.021334952  0.020784994           18 
 3206000   0.74657989   -7.2344336    820.87792  0.021337022  0.020778995            7 
 3207000   0.74314366   -7.2461538    820.62674  0.021323842  0.020772984           14 
 3208000    0.7530584   -7.2565653    821.63056  0.021343271  0.020766986            9 
 3209000   0.74043766   -7.2739475    821.69484  0.021338289  0.020760976           15 
 3210000    0.7335546   -7.2752088    821.29852  0.021321353  0.020754944           12 
 3211000   0.75231014   -7.2392604     822.0794  0.021334979  0.020748919            6 
 3212000   0.72783123   -7.2662005    820.17665  0.021278971  0.020742916           17 
 3213000   0.74533872   -7.2337436    822.19247  0.021324631  0.020736912           11 
 3214000   0.73365884   -7.2316503    824.25664  0.021371516  0.020730951           13 
 3215000   0.74408496   -7.2476776    824.79016  0.021378698  0.020724981           11 
 3216000   0.73265889   -7.2403275    823.50697    0.0213388  0.020719025           12 
 3217000   0.74279152   -7.2394877    823.68177  0.021336695  0.020713051            8 
 3218000   0.73665921   -7.2470996    822.20932  0.021291934  0.020707059           37 
 3219000    0.7528666   -7.2490694    821.97845  0.021279343  0.020701051           17 
 3220000   0.73429472   -7.2675952    822.84093  0.021295055   0.02069505            8 
 3221000   0.73787239    -7.256954    823.58187  0.021307613  0.020689067           16 
 3222000   0.73265736    -7.235855    824.05267  0.021313177  0.020683117           15 
 3223000   0.74079703   -7.2424568    824.03436  0.021306091  0.020677178           18 
 3224000   0.73992673   -7.2648793    822.46567  0.021258935  0.020671238           13 
 3225000   0.72517327    -7.274718    825.65376  0.021334723  0.020665275           11 
 3226000     0.733331   -7.2712183    822.89252  0.021256781  0.020659303            7 
 3227000   0.73309559   -7.2520557    824.68254  0.021296419   0.02065332           14 
 3228000   0.73855269   -7.2484962    824.55542   0.02128654  0.020647343           10 
 3229000   0.73588595   -7.2600352     824.7477   0.02128491  0.020641381           11 
 3230000    0.7235056   -7.2397688    824.34389  0.021267902  0.020635443           21 
 3231000   0.72535161   -7.2626801    823.11666  0.021229667  0.020629496           20 
 3232000    0.7334262     -7.26684    822.93404   0.02121839  0.020623542           10 
 3233000   0.74290503   -7.2329723    824.49464  0.021252053  0.020617562           16 
 3234000   0.74050961   -7.2530365     823.7155  0.021225404  0.020611633           12 
 3235000   0.72950721   -7.2688828     823.2085  0.021205783  0.020605699           19 
 3236000   0.73238912   -7.2567868      822.175  0.021172615  0.020599743           10 
 3237000   0.73602025   -7.2542141    824.70626  0.021231239  0.020593794            8 
 3238000   0.73485026   -7.2573579    822.58177  0.021170006  0.020587867            8 
 3239000   0.74461344    -7.276235    823.98538  0.021199583  0.020581964           11 
 3240000   0.73523136   -7.2551198    825.30096  0.021226876  0.020576048            8 
 3241000    0.7441095   -7.2492725    824.85384  0.021208831   0.02057011            8 
 3242000   0.73528147   -7.2726276    825.70405  0.021224143  0.020564176            8 
 3243000   0.74170136   -7.2632607    826.48452  0.021237653  0.020558278            6 
 3244000   0.72529058    -7.214611     824.5112  0.021180415  0.020552382           11 
 3245000   0.73758266   -7.2303697    823.94748  0.021159411  0.020546475            9 
 3246000   0.73257738   -7.2661932    823.45059  0.021140136  0.020540575            6 
 3247000   0.73484556   -7.2519458    824.12948  0.021151049  0.020534655           17 
 3248000    0.7246538   -7.2579939    823.93771  0.021139617  0.020528739           11 
 3249000   0.74042833   -7.2705149    825.51955  0.021173683  0.020522813            8 
 3250000   0.73849195   -7.2603366     824.1719  0.021132613  0.020516898           11 
 3251000   0.73385888   -7.2693626    824.65886  0.021138595   0.02051098            8 
 3252000   0.74705527   -7.2627299    824.52225  0.021128594  0.020505052           11 
 3253000   0.73435122   -7.2721966    824.24619  0.021115027  0.020499125           14 
 3254000    0.7133897   -7.2821678    825.80314  0.021148411  0.020493198           18 
 3255000   0.73467938   -7.2701046    823.87252  0.021092487  0.020487268           14 
 3256000   0.72888484    -7.302372    825.22492  0.021120622  0.020481331           22 
 3257000   0.72599763   -7.3033394    822.08241  0.021033733  0.020475358           22 
 3258000   0.72684142   -7.2907751    822.47972  0.021037439  0.020469361            6 
 3259000   0.74676915   -7.2915458     823.0746  0.021046195  0.020463361           10 
 3260000   0.73916381    -7.287146    824.61179  0.021079033  0.020457393           11 
 3261000   0.72749002   -7.2734563    825.58865  0.021097533  0.020451454           14 
 3262000   0.73157869   -7.2380508    823.40091  0.021035175   0.02044551           20 
 3263000   0.73551918   -7.2644342    824.04512  0.021045181  0.020439582            7 
 3264000   0.72696105   -7.2740684    825.57116  0.021077695  0.020433633           11 
 3265000   0.71419114   -7.2774468    823.30258  0.021013338  0.020427694           16 
 3266000   0.72183937   -7.2624469    824.69893  0.021042532  0.020421758           31 
 3267000   0.70754194   -7.2821145    823.42424  0.021003577  0.020415819           23 
 3268000   0.73388317   -7.2745773    824.51397  0.021024938   0.02040988           13 
 3269000   0.72167743   -7.3031053    824.15486  0.021009352  0.020403938           20 
 3270000   0.73628242   -7.2849972    824.00835  0.020999193  0.020397976           24 
 3271000   0.72817815   -7.2686307    824.74963  0.021011659  0.020392028            6 
 3272000   0.71998615   -7.2600921    824.63144  0.021002227  0.020386105           21 
 3273000   0.76296286   -7.2680065    825.90345  0.021028196  0.020380181           11 
 3274000   0.71748005   -7.2615851    825.18385  0.021003458   0.02037428            4 
 3275000   0.71831696   -7.2650864    823.60667  0.020956913  0.020368383            7 
 3276000   0.74758903    -7.277182    824.65922   0.02097729  0.020362487            8 
 3277000   0.71654147   -7.2944152    824.50978  0.020967088  0.020356587           17 
 3278000   0.72966174   -7.2728134     827.8131  0.021044669  0.020350672           14 
 3279000   0.73552806   -7.2780387    826.15089  0.020996007  0.020344755            7 
 3280000   0.73243252   -7.2525612    824.95654  0.020959262  0.020338841            8 
 3281000   0.72522246   -7.2782721    825.66386  0.020970839  0.020332923            6 
 3282000   0.72710777   -7.2780571    826.57574  0.020987602  0.020327005            7 
 3283000   0.71246769   -7.2769698    823.17503  0.020894888  0.020321076           19 
 3284000   0.74019045   -7.2713707    823.65785  0.020900778  0.020315129           11 
 3285000   0.71421842   -7.2598758     827.0145  0.020979566   0.02030921            7 
 3286000   0.72038348   -7.2696276    825.70792  0.020940047  0.020303278           13 
 3287000   0.73515553   -7.2856048    824.73523  0.020909016   0.02029735            9 
 3288000    0.7157462    -7.289334    824.14789  0.020887771  0.020291386           18 
 3289000   0.72507377   -7.2978767    824.02613  0.020878335  0.020285423           10 
 3290000   0.71299414   -7.2678308    826.16198  0.020926089  0.020279484            9 
 3291000   0.71948876   -7.2734122    824.38408  0.020874711  0.020273548           17 
 3292000    0.7047678    -7.293948    826.13729   0.02091275  0.020267592           38 
 3293000   0.73406058   -7.3048241    825.71014   0.02089559  0.020261643           11 
 3294000   0.72470064   -7.2685907    824.93692  0.020869685  0.020255708           17 
 3295000    0.7317467   -7.2763398    821.50261  0.020776495  0.020249734            7 
 3296000   0.72182119   -7.2926306     824.4957  0.020845866  0.020243771           23 
 3297000   0.71585852    -7.254523    824.89441  0.020849621  0.020237796           14 
 3298000   0.72889723     -7.28135    825.58801  0.020860825  0.020231835            9 
 3299000   0.71995852   -7.2706591    822.46071  0.020775506  0.020225858           11 
 3300000   0.73845481   -7.2975281    824.91355   0.02083115  0.020219868           16 
 3301000   0.72169494   -7.2749952    824.56084  0.020815936  0.020213912           12 
 3302000   0.70582757   -7.2729899    824.20301  0.020800601  0.020207942           29 
 3303000   0.73900153   -7.2969113    823.11051   0.02076674  0.020201974           16 
 3304000   0.72577168   -7.2777602    822.96818  0.020756865  0.020196002           11 
 3305000   0.73488382   -7.2763792    823.06147  0.020752937  0.020190025           16 
 3306000   0.72396782   -7.3073052    823.08962  0.020747369  0.020184028            8 
 3307000   0.72286516   -7.3025015    822.10847  0.020716371  0.020178034           14 
 3308000   0.72533781   -7.2700026    824.09953  0.020760266  0.020172054           17 
 3309000   0.72251488   -7.2787686    822.85112  0.020722553  0.020166081           18 
 3310000   0.72409907   -7.3053047    823.62114  0.020735678  0.020160113           11 
 3311000   0.72377939   -7.2757847    824.31764  0.020746946  0.020154131           15 
 3312000    0.7086243   -7.3024177    824.97022  0.020757101  0.020148132           15 
 3313000   0.71437443   -7.2879325    823.58701  0.020716043  0.020142159           18 
 3314000   0.73313988   -7.2963779    824.30701  0.020727897   0.02013617           28 
 3315000   0.72678134   -7.2923085     824.9031  0.020736629  0.020130213           21 
 3316000   0.71611171   -7.2856363    824.11997  0.020710695  0.020124258            9 
 3317000   0.72541975   -7.2800918    822.93677  0.020674725  0.020118303           17 
 3318000   0.71860434   -7.2995241    824.93073  0.020718574  0.020112344           15 
 3319000   0.71721583   -7.2854277    825.58028   0.02072864  0.020106378           15 
 3320000   0.71235888   -7.2962923    824.29381  0.020690106  0.020100424            9 
 3321000   0.72789231   -7.2953778    825.67153  0.020718447  0.020094478            7 
 3322000   0.71411425   -7.2836524    825.76911  0.020714658  0.020088524            5 
 3323000   0.71942122   -7.2602843    825.26514  0.020695785  0.020082572           13 
 3324000   0.70785277   -7.2740233    822.90467  0.020630382  0.020076628            9 
 3325000   0.71217971    -7.298167    823.89771  0.020649065  0.020070688           11 
 3326000   0.72905282   -7.3008216    823.03758  0.020621306  0.020064741           16 
 3327000   0.70471362   -7.3087772    823.87841  0.020636169   0.02005878           11 
 3328000   0.72588675   -7.3300259    824.74864  0.020651759  0.020052806            6 
 3329000    0.7148568   -7.2984734    825.35349  0.020660696  0.020046883           16 
 3330000   0.72284345   -7.2899965    824.74443   0.02063925  0.020040975            8 
 3331000   0.70830583   -7.2725737    826.12216  0.020667521   0.02003506            9 
 3332000   0.72629459   -7.3094294     824.2084  0.020613455   0.02002914            8 
 3333000   0.72300978    -7.317139    823.62336  0.020592643  0.020023208            5 
 3334000   0.73368405   -7.3047708    825.36003  0.020629875  0.020017273            5 
 3335000   0.70992373    -7.284387    824.60353  0.020604786  0.020011327           11 
 3336000   0.73663078   -7.3149822    824.68882   0.02060074  0.020005393           16 
 3337000    0.7174249   -7.2850231    826.80896  0.020647512  0.019999459            9 
 3338000   0.72039759   -7.2932996    826.16377  0.020625219   0.01999354            9 
 3339000   0.72105591   -7.2959155    824.93722   0.02058843  0.019987609            7 
 3340000    0.7176735   -7.2893011    823.06287  0.020535501  0.019981674            8 
 3341000   0.72290688   -7.2945396    824.94487  0.020576296  0.019975732           15 
 3342000   0.72917344   -7.2929644     824.3521  0.020555359  0.019969787           15 
 3343000   0.71570444   -7.3258271    824.38761  0.020550095  0.019963823           14 
 3344000   0.71191868   -7.2924469    824.42313  0.020544835  0.019957866           21 
 3345000   0.70606797   -7.2956375    823.62264   0.02051875  0.019951918           13 
 3346000   0.73164793    -7.288622    824.89188  0.020544229  0.019945992           11 
 3347000   0.71142718   -7.3112366    825.61488  0.020556092  0.019940049           10 
 3348000   0.72470942    -7.284766    824.58725  0.020524374  0.019934121            9 
 3349000   0.71909706   -7.2887674    825.19771  0.020533436  0.019928194            7 
 3350000   0.71187398   -7.3295964    824.98857  0.020522104  0.019922253           19 
 3351000   0.71840242   -7.3013513     826.8498  0.020562265  0.019916308           12 
 3352000   0.69998199   -7.2792316    826.13772  0.020538428  0.019910383            6 
 3353000   0.71662669   -7.3023306    824.09919  0.020481638  0.019904452            7 
 3354000   0.71242581    -7.316913    824.73043  0.020491215  0.019898542            6 
 3355000   0.70467996   -7.3126287    825.33458  0.020500114   0.01989264           16 
 3356000   0.69852395   -7.3101811    825.22192  0.020491208  0.019886726            8 
 3357000   0.72280942   -7.2922498    825.63965  0.020495473   0.01988081           15 
 3358000   0.71276994   -7.2982712    825.30704  0.020481116  0.019874909            7 
 3359000   0.71511669   -7.3163299    825.60171  0.020482329  0.019869004           11 
 3360000   0.70869524   -7.3226799    826.07334   0.02048793  0.019863073           11 
 3361000   0.71354747   -7.3038419    826.92254  0.020502889  0.019857161            8 
 3362000   0.72086807   -7.2867592    825.68172  0.020466035  0.019851251           10 
 3363000   0.71115662   -7.2885518     825.1307  0.020446296  0.019845358           12 
 3364000   0.72528295   -7.3026158    824.19309  0.020416991  0.019839475            7 
 3365000    0.7196126   -7.2853931     825.8808  0.020452719  0.019833585            9 
 3366000   0.72080927   -7.3021991    825.24773   0.02043097  0.019827679           10 
 3367000   0.70997597   -7.3115443    826.65698  0.020459781  0.019821796           14 
 3368000   0.70451522   -7.2924202    825.49822  0.020425035  0.019815905            9 
 3369000   0.72207073   -7.3015062    825.77145  0.020425731  0.019810026           15 
 3370000   0.71703422   -7.3014073     826.6825  0.020442198  0.019804136            7 
 3371000   0.71612111   -7.3165321    826.91428  0.020441864  0.019798263           11 
 3372000   0.73427675    -7.296832    827.65807  0.020454183  0.019792381           10 
 3373000   0.71515604   -7.3011628    826.46513  0.020418646  0.019786512           10 
 3374000   0.73010999   -7.3036467    827.97937  0.020449994  0.019780616           15 
 3375000   0.71428662    -7.327219    825.77329  0.020389464  0.019774713           11 
 3376000   0.70373234     -7.30777    825.80633   0.02038424  0.019768793            8 
 3377000   0.70415678   -7.3067427    825.40452  0.020368288  0.019762878            9 
 3378000   0.71193865   -7.3088049    827.08484  0.020403711  0.019756994            9 
 3379000   0.70137882   -7.3065874    826.72923  0.020388903  0.019751118            9 
 3380000   0.71601987   -7.3075833    826.27861  0.020371761   0.01974525            6 
 3381000   0.71022193   -7.2995144    826.89071  0.020380822  0.019739395            9 
 3382000   0.70750437    -7.284475    829.64968  0.020442777  0.019733536            5 
 3383000    0.7147285   -7.3156281    827.14966  0.020375152  0.019727686            6 
 3384000    0.7210977   -7.3177011    827.05256   0.02036674  0.019721823            8 
 3385000   0.72205922   -7.2929591     828.2867  0.020391105  0.019715975           14 
 3386000   0.70822453   -7.3268772    827.96527  0.020377172  0.019710144           10 
 3387000   0.70378469   -7.3040194    826.37798  0.020332103  0.019704304           20 
 3388000   0.70881959   -7.3043891    826.04289  0.020317859  0.019698452           17 
 3389000   0.70824362   -7.3010595    826.17771  0.020315179  0.019692602           22 
 3390000   0.70352631   -7.3038062    826.90228  0.020326998  0.019686763           28 
 3391000   0.69789905   -7.3036738    828.23775  0.020353823  0.019680918           13 
 3392000    0.6928194   -7.3015541    827.70598  0.020334758  0.019675066           12 
 3393000   0.71107369   -7.2884643    828.23811  0.020341834  0.019669229            6 
 3394000   0.70765008   -7.3018267    826.47049   0.02029244  0.019663394            8 
 3395000   0.70140514    -7.321413    828.02252  0.020324559  0.019657551           13 
 3396000   0.71195357   -7.3047987    828.34972  0.020326603  0.019651696           19 
 3397000   0.69882384    -7.346925     828.1991  0.020316924  0.019645829           14 
 3398000   0.70244374   -7.3191009    825.29158  0.020239641  0.019639927           20 
 3399000   0.71220465   -7.3268032    825.47617  0.020238212  0.019634038           17 
 3400000   0.70112983   -7.3061983    827.56364  0.020283423  0.019628174            9 
 3401000   0.71487353   -7.2935084     827.5119  0.020276191  0.019622331            6 
 3402000   0.70848631   -7.2790363    826.67287  0.020249678  0.019616491            8 
 3403000    0.7168656   -7.2900885    826.61543  0.020242321  0.019610663            7 
 3404000   0.70821996   -7.2950014    829.43407  0.020305378  0.019604828           12 
 3405000   0.71376216   -7.2933802    826.93067  0.020238147  0.019598989            8 
 3406000    0.7111344   -7.3099347    828.11516  0.020261185  0.019593149            7 
 3407000   0.70009647    -7.300136    829.06143  0.020278384  0.019587306           11 
 3408000   0.70270935   -7.2947628    828.00666  0.020246642  0.019581459           15 
 3409000   0.70474137   -7.3157621    826.35699  0.020200376  0.019575622           23 
 3410000   0.72038103   -7.2891654    828.04161  0.020235621   0.01956976            7 
 3411000   0.70800843   -7.2948828    827.29488  0.020211445  0.019563921           13 
 3412000   0.72891012   -7.3052608    827.66479  0.020214556  0.019558088            6 
 3413000   0.70773432   -7.3327901    825.71202  0.020160954  0.019552263           12 
 3414000   0.70669304   -7.3302925    829.00918   0.02023553  0.019546444           14 
 3415000   0.70646623   -7.3332802    826.79936   0.02017568  0.019540609           13 
 3416000   0.70335323   -7.3124775    826.40352  0.020160117  0.019534773            9 
 3417000   0.71729048   -7.3282048    827.02726  0.020169429  0.019528945           20 
 3418000   0.71590045    -7.315866    825.09649  0.020116454  0.019523118           14 
 3419000   0.68350557   -7.3127595    827.23575  0.020162712  0.019517264           23 
 3420000   0.69437813   -7.3139687    828.06111  0.020176928  0.019511452           15 
 3421000   0.70842216   -7.2988054    827.27503  0.020151881  0.019505629           12 
 3422000   0.71346522   -7.3101087    826.89805  0.020136812  0.019499794           21 
 3423000    0.7066143   -7.3214688    828.33298  0.020165863  0.019493975           13 
 3424000    0.7221897    -7.352399    825.80618  0.020098476  0.019488149           11 
 3425000   0.70792249   -7.3150529    825.95391  0.020096202  0.019482313           18 
 3426000   0.69191145    -7.357703    828.56316  0.020153803  0.019476455            9 
 3427000   0.70104697   -7.3309071    825.06597  0.020062882  0.019470598           11 
 3428000   0.71893663   -7.3501914    826.81995  0.020099668   0.01946474           12 
 3429000   0.69207711   -7.3384178    826.98296  0.020097768  0.019458865           21 
 3430000   0.72212478   -7.3426046    826.85684  0.020088845  0.019452999           10 
 3431000   0.68635681   -7.3419616    826.49454   0.02007419   0.01944714           25 
 3432000   0.69052674   -7.2979841    827.65318  0.020096474  0.019441288           30 
 3433000   0.70800107   -7.3306907    826.76083  0.020068959  0.019435467           35 
 3434000   0.71779854   -7.3151199     829.3119  0.020125022   0.01942966           15 
 3435000   0.71121401   -7.3186453    826.60222  0.020053426  0.019423845           17 
 3436000   0.71311513   -7.3303025    827.32836  0.020065201  0.019418035           36 
 3437000   0.71237423   -7.3395559    828.25989  0.020081949   0.01941222           41 
 3438000   0.70044698   -7.3223843    826.75894  0.020039726  0.019406389           24 
 3439000   0.70716702   -7.3339614    827.76209  0.020058207  0.019400574           17 
 3440000   0.69403636   -7.3298686     827.1703   0.02003804  0.019394758           11 
 3441000   0.68743931   -7.3179307    828.29057  0.020059347  0.019388979           14 
 3442000   0.69505877   -7.3474982     828.6567  0.020062384  0.019383191           17 
 3443000   0.70680068   -7.3428009    828.12053  0.020043579  0.019377421           16 
 3444000   0.70811756    -7.324019    828.08486  0.020036896  0.019371651            8 
 3445000   0.68688437   -7.3264122    829.39754  0.020062834  0.019365852           11 
 3446000   0.71715966   -7.3277664    828.06251  0.020024727  0.019360062           26 
 3447000   0.68754264   -7.3398832    826.30597  0.019976452  0.019354266           18 
 3448000    0.6978048   -7.3489985    827.48249  0.019999093  0.019348472           38 
 3449000   0.70753343   -7.3020832    827.74964   0.01999975  0.019342695           24 
 3450000    0.6926358   -7.3321258    826.97081   0.01997514  0.019336917           22 
 3451000   0.70304247   -7.3440755    827.29962  0.019977292  0.019331142           29 
 3452000    0.6970844   -7.3871754    828.03538  0.019989267  0.019325348           33 
 3453000   0.70621163   -7.3356488    831.74995  0.020073124  0.019319555           16 
 3454000   0.69031404   -7.3421401    828.09034  0.019979018  0.019313783           19 
 3455000   0.69209329   -7.3365832    829.52562  0.020007854  0.019308002           19 
 3456000    0.6907483   -7.3451176    828.46289  0.019976439  0.019302231           23 
 3457000   0.68477842   -7.3304709     828.1453  0.019963005  0.019296431           48 
 3458000   0.70421759   -7.3466221    828.75366  0.019971893  0.019290645           19 
 3459000   0.69573023   -7.3797959    828.49396  0.019959862  0.019284864           17 
 3460000   0.70295914   -7.3373701     829.7971  0.019985479  0.019279093           25 
 3461000   0.68265282   -7.3175851    829.08553  0.019962572  0.019273337           12 
 3462000   0.68470167    -7.314648    829.27526  0.019961372  0.019267578            5 
 3463000   0.70239498   -7.3436611    830.23726  0.019978758  0.019261828           12 
 3464000   0.70298531   -7.3486079    828.53826  0.019932118  0.019256066            7 
 3465000   0.69512147   -7.3136933    829.73859  0.019955233  0.019250302           11 
 3466000    0.7026019   -7.3532356    828.39035   0.01991706  0.019244547           20 
 3467000   0.69438043   -7.3385793    829.54676  0.019939111  0.019238788            9 
 3468000   0.70197412   -7.3303536    830.79661  0.019963394  0.019233024            9 
 3469000   0.70422338   -7.3480614    828.95753   0.01991346  0.019227269           19 
 3470000    0.6805064   -7.3165638    828.80704  0.019904108  0.019221523           22 
 3471000   0.70297499   -7.3430795    829.16288  0.019906916  0.019215778           14 
 3472000    0.7026893   -7.3540197    829.29971  0.019904467   0.01921003           12 
 3473000   0.70099275   -7.3434997    829.30912  0.019898962  0.019204277           11 
 3474000   0.71287177    -7.340389    829.21026  0.019890862  0.019198521            9 
 3475000   0.69119571    -7.329729    829.15755  0.019883874  0.019192765           36 
 3476000   0.70665703   -7.3415483    828.39796  0.019859943  0.019187021           20 
 3477000   0.70026277   -7.3771319    828.41109  0.019854546  0.019181239           24 
 3478000   0.70183282   -7.3348476    829.56514  0.019876489  0.019175469           17 
 3479000   0.69946368   -7.3304081    827.89787  0.019830839  0.019169713           22 
 3480000   0.70808708   -7.3558391    828.51067  0.019839815  0.019163968           20 
 3481000      0.69126    -7.359472    828.45416  0.019832763  0.019158202            7 
 3482000   0.69728322   -7.3250427    830.06159  0.019865537   0.01915246            9 
 3483000   0.68901505   -7.3343447    828.57883  0.019824357  0.019146715           20 
 3484000   0.67633491   -7.3472247    829.16228  0.019832622  0.019140976           12 
 3485000    0.6896339   -7.3545375    828.29523  0.019806199  0.019135228           11 
 3486000   0.68693546   -7.3368074    830.01737  0.019841685  0.019129479           15 
 3487000   0.68698705   -7.3306163    828.34079  0.019795927  0.019123738           13 
 3488000   0.67868747   -7.3486605    829.03961  0.019806948  0.019117973           22 
 3489000   0.68601003    -7.347791    830.21924  0.019829446  0.019112219            7 
 3490000   0.69652329   -7.3480242    830.11135  0.019821188  0.019106461            7 
 3491000   0.69046278   -7.3334291    829.94483  0.019811535  0.019100715           14 
 3492000   0.69660077   -7.3677168     828.2545  0.019765524  0.019094967           14 
 3493000   0.70405428   -7.3660679    828.39414  0.019763196  0.019089203           30 
 3494000   0.68723507   -7.3362318    829.16203  0.019775854  0.019083448           28 
 3495000   0.69866599   -7.3495896    828.43817  0.019752937  0.019077718            7 
 3496000   0.69165179   -7.3653393    826.50141   0.01970112  0.019071977           10 
 3497000   0.70560251   -7.3682433      827.645  0.019722738  0.019066223           22 
 3498000   0.68172095   -7.3837287    827.83813  0.019721701  0.019060473            9 
 3499000   0.70064356   -7.3523875    828.02436    0.0197205  0.019054721            9 
 3500000   0.69395841   -7.3572962    828.92153  0.019736227   0.01904896           14 
 3501000   0.70157786   -7.3349233    829.25311  0.019738482  0.019043204           18 
 3502000   0.69165142   -7.3542853    828.66049  0.019718744  0.019037458           26 
 3503000   0.70433234    -7.369342    828.31331  0.019704856  0.019031712           24 
 3504000   0.69037104   -7.3399608    828.78667   0.01971049  0.019025965           25 
 3505000   0.68488679   -7.3610704    827.37247  0.019671243  0.019020225           23 
 3506000   0.69189519   -7.3508601    828.03619  0.019681408  0.019014492           18 
 3507000   0.68437522   -7.3508344    828.72293  0.019692114  0.019008743           25 
 3508000   0.69358024   -7.3682708     828.2882  0.019676173  0.019003003           14 
 3509000   0.70215446   -7.3571515    829.85372  0.019707745  0.018997276            8 
 3510000   0.68326133   -7.3344476    829.44144  0.019692342  0.018991549           17 
 3511000    0.6958999    -7.366291    828.41325  0.019662329  0.018985847           11 
 3512000   0.69868949   -7.3482262     831.3677  0.019726834   0.01898014            6 
 3513000   0.68113433   -7.3247309    829.06689   0.01966664  0.018974469            6 
 3514000   0.69474948   -7.3312405    829.71428  0.019676396  0.018968785           11 
 3515000   0.68859081   -7.3374577     831.4347  0.019711586  0.018963094            6 
 3516000   0.67855649   -7.3220249    829.47283  0.019659481  0.018957421           12 
 3517000    0.6741979   -7.3510629    829.89537  0.019663903  0.018951749           18 
 3518000   0.67296585   -7.3459279    832.61194  0.019722663  0.018946073           23 
 3519000   0.70006237   -7.3383013     832.0547  0.019703862   0.01894041            7 
 3520000   0.68940722   -7.3458158    831.64135  0.019688479   0.01893476            9 
 3521000   0.68313838   -7.3592726    831.16158  0.019671532   0.01892908            9 
 3522000   0.68071623   -7.3411552    831.18152  0.019666419  0.018923415           11 
 3523000   0.69733944   -7.3555904    831.27392  0.019663022  0.018917752           16 
 3524000   0.68594247   -7.3543762    831.62442  0.019665731  0.018912097           13 
 3525000   0.68633318   -7.3557762    830.12488  0.019624702  0.018906429           25 
 3526000   0.68266577   -7.3498836    830.87265  0.019636809  0.018900756           11 
 3527000   0.68340779   -7.3432714    828.68551  0.019579565  0.018895083           26 
 3528000   0.68820768   -7.3747312    828.10576  0.019560321    0.0188894           43 
 3529000   0.68287952    -7.361015    829.49528   0.01958759  0.018883716           18 
 3530000   0.68328513   -7.3676785    830.46238  0.019604872  0.018878048           12 
 3531000   0.69260989   -7.3667223    831.15167  0.019615587  0.018872371           15 
 3532000   0.68823573   -7.3439164    829.95677  0.019581842  0.018866699           19 
 3533000   0.68267731   -7.3412002    830.82944  0.019596883  0.018861027           11 
 3534000   0.70679578   -7.3548023    830.21537  0.019576857  0.018855344           17 
 3535000    0.6932653   -7.3853176     829.4559  0.019553416  0.018849666           22 
 3536000   0.68496588   -7.3854672    829.98666  0.019560394  0.018843979           17 
 3537000   0.69404903   -7.3708306     829.3844  0.019540675  0.018838295           22 
 3538000    0.6818151   -7.3778695    829.85723  0.019546289  0.018832616           10 
 3539000   0.68627888   -7.3681125    828.19171  0.019501547  0.018826924           26 
 3540000    0.6602986   -7.3819284    828.90212  0.019512762  0.018821238           10 
 3541000   0.69228188   -7.3789148     831.7814  0.019575012  0.018815571            9 
 3542000   0.69053039   -7.3426637    831.38491  0.019560157  0.018809926           12 
 3543000    0.6966227   -7.3614541    829.01294  0.019498846  0.018804253            6 
 3544000   0.68066431   -7.3531621    830.73063  0.019533734  0.018798581            8 
 3545000   0.67648028   -7.3339971    831.68297  0.019550611  0.018792937            9 
 3546000   0.68629144   -7.3672411    831.19815  0.019533704  0.018787281           14 
 3547000   0.70289849   -7.3724661    830.17334  0.019504119  0.018781624           18 
 3548000   0.69530692     -7.36331    828.70754  0.019464194  0.018775957           13 
 3549000   0.69645069    -7.368159    830.23502  0.019494576  0.018770291           12 
 3550000    0.6922285   -7.3403009    829.75832  0.019477895  0.018764635           17 
 3551000   0.68959807   -7.3673437    829.36736  0.019463235  0.018758977           14 
 3552000   0.68339019   -7.3951337    828.03019  0.019426384   0.01875332           14 
 3553000   0.68911878   -7.3542114    830.87207  0.019487571  0.018747682            7 
 3554000    0.6907611   -7.3561482    829.09722  0.019440471  0.018742043           10 
 3555000   0.68040222   -7.3563495    830.95964   0.01947866  0.018736387           14 
 3556000   0.69812733   -7.3734012    831.58275  0.019487785  0.018730737           13 
 3557000   0.67376247   -7.3986964    829.49686  0.019433438  0.018725073            9 
 3558000   0.67602492   -7.3669469     830.7534  0.019457406  0.018719415            9 
 3559000   0.69435131   -7.3675702    830.59236  0.019448168  0.018713773           12 
 3560000    0.6866412   -7.3901881    831.25143  0.019458133  0.018708114           10 
 3561000   0.67486384    -7.389175    829.57707  0.019413486  0.018702454           22 
 3562000   0.67889528   -7.3722831    830.04883  0.019419072  0.018696783           15 
 3563000   0.67212586   -7.3768049    830.11065  0.019415068  0.018691129           10 
 3564000   0.68154816   -7.3721467    831.77878  0.019448625  0.018685491            9 
 3565000   0.68671688   -7.3963703    830.20518  0.019406386  0.018679843            8 
 3566000   0.68485443   -7.3628545    828.06978  0.019351042  0.018674197           10 
 3567000   0.68845007   -7.3701358    830.61786  0.019405146  0.018668548           18 
 3568000   0.65593349   -7.3765062    829.14157  0.019365227  0.018662884           14 
 3569000   0.68695393   -7.3763423    830.06289  0.019381313  0.018657224           13 
 3570000   0.68704541   -7.3672538    830.03151  0.019375152  0.018651587           16 
 3571000   0.66891646   -7.4055985    828.54059  0.019334934  0.018645947           19 
 3572000   0.67838118    -7.364908     828.8504  0.019336749  0.018640268           10 
 3573000   0.66796334   -7.4322416    828.83392  0.019330952  0.018634602           17 
 3574000    0.6743682   -7.3726486    830.84558  0.019372449   0.01862894           11 
 3575000   0.69145411   -7.3855228    828.04278  0.019301696  0.018623274            9 
 3576000   0.68672624   -7.3703938    829.65699  0.019333916   0.01861761           13 
 3577000   0.67256103   -7.3737942      830.465  0.019347335  0.018611972           23 
 3578000   0.67671932   -7.3723149    829.73649   0.01932496  0.018606329           13 
 3579000   0.67551992   -7.3909619    830.23169  0.019331091  0.018600676            8 
 3580000   0.66772714   -7.4038054     829.4763  0.019308108  0.018595018           11 
 3581000   0.68162321   -7.3895215    829.86114  0.019311671  0.018589355           15 
 3582000   0.67633179   -7.3840125    830.99564  0.019332674  0.018583706           13 
 3583000   0.68738178   -7.3895863    831.84203  0.019346963  0.018578039           18 
 3584000   0.68302236    -7.384041    830.19662  0.019303307  0.018572391           15 
 3585000   0.67160633   -7.3916399    829.55779  0.019283073  0.018566733           28 
 3586000   0.66609283   -7.3829174    829.94323  0.019286653  0.018561078           32 
 3587000   0.65746791   -7.3771083    830.17664  0.019286698  0.018555436           14 
 3588000   0.67696811    -7.391935    830.11605  0.019279916  0.018549796           12 
 3589000   0.66375086   -7.3899475    828.66726  0.019240904  0.018544152            9 
 3590000   0.68973631   -7.3710295    830.38725   0.01927547  0.018538513            9 
 3591000   0.68432936    -7.385467    829.04528   0.01923896  0.018532904           12 
 3592000    0.6690591   -7.3809314    831.56849  0.019292142  0.018527291           17 
 3593000   0.66759031   -7.3950382    829.77763  0.019245237  0.018521659            6 
 3594000   0.67541905   -7.3678329    830.38533  0.019253972  0.018516036            9 
 3595000   0.67698568   -7.3795308    830.55094  0.019252456  0.018510429            7 
 3596000    0.6792404   -7.3925928    830.18328  0.019238582  0.018504834           13 
 3597000   0.67745863   -7.4073388    830.33823  0.019236823  0.018499224            8 
 3598000   0.66436691   -7.3699397    831.55175  0.019259583  0.018493618           19 
 3599000    0.6790031   -7.3652195    829.02008  0.019195612  0.018488023            8 
 3600000   0.69089912   -7.3867719    831.58559  0.019249666  0.018482425           14 
 3601000   0.69219852   -7.3919427    831.34202  0.019238684  0.018476827           27 
 3602000   0.67845588   -7.3909089    831.04917  0.019226568  0.018471212           14 
 3603000   0.67585951   -7.4109574    830.80533  0.019215592  0.018465591           11 
 3604000   0.66411825   -7.4147371    828.93681  0.019167055  0.018459963            9 
 3605000   0.67366757   -7.3944976    829.81294  0.019181991  0.018454335           15 
 3606000    0.6691966   -7.4035825    830.99815  0.019204062  0.018448706           14 
 3607000   0.67986369   -7.4020178     829.1943  0.019157063  0.018443072           15 
 3608000   0.67477906   -7.3884547    830.66848  0.019185802  0.018437441           14 
 3609000   0.66667448    -7.400707    829.92936  0.019163419  0.018431806           33 
 3610000   0.67512556   -7.3982925    828.69551  0.019129629  0.018426192           17 
 3611000   0.66410657   -7.3916346     831.6478  0.019192463  0.018420578           17 
 3612000   0.68060517   -7.3697248    830.10495  0.019151554  0.018414987           23 
 3613000   0.65713882   -7.3540081    830.12478  0.019146711  0.018409393           20 
 3614000   0.67457675   -7.3626811    831.82604  0.019180641  0.018403821           16 
 3615000   0.69406545    -7.377014    831.81635  0.019175112  0.018398265            9 
 3616000   0.69101862   -7.3841509    831.11719  0.019153696  0.018392693            8 
 3617000   0.68267413   -7.4105297    832.17927   0.01917287  0.018387091           11 
 3618000   0.66248887   -7.4008743     828.4824  0.019082421  0.018381484           29 
 3619000   0.66303584   -7.3811227    829.24513  0.019094711  0.018375882            9 
 3620000   0.67899566   -7.3933168    830.71668  0.019123312  0.018370272           12 
 3621000   0.65795996    -7.397858    829.79882  0.019096907   0.01836466           12 
 3622000   0.68847682   -7.4140478    829.93554   0.01909478   0.01835906           12 
 3623000   0.65835319   -7.3917806    831.01211  0.019114272  0.018353467           13 
 3624000   0.67198852   -7.4178266    830.52664  0.019097835  0.018347861           10 
 3625000   0.67652422   -7.3880015     829.0696  0.019059071  0.018342251           10 
 3626000   0.67829889   -7.3922578    831.54948  0.019110808  0.018336644           13 
 3627000   0.67433999   -7.4000682    830.54214  0.019082395  0.018331028           49 
 3628000   0.67227209   -7.3804542    829.72834  0.019058442  0.018325432           19 
 3629000   0.66216936    -7.355386    830.60633  0.019073352  0.018319846           21 
 3630000   0.66742948   -7.4078269     829.9086   0.01905208  0.018314257           12 
 3631000   0.65872936   -7.3901533    829.87891  0.019046152  0.018308657           15 
 3632000   0.66874381   -7.4091262    830.31981  0.019051024  0.018303061            9 
 3633000   0.67605676   -7.3945152    830.15203  0.019041931  0.018297476            8 
 3634000   0.64881514   -7.4040673    830.43285  0.019043131  0.018291877           14 
 3635000   0.67593139   -7.3861664    831.83202  0.019069968  0.018286274           18 
 3636000   0.66339131   -7.3956276    830.26097  0.019028717   0.01828068           10 
 3637000   0.69154047   -7.4211628    829.01554  0.018994949  0.018275083           23 
 3638000   0.66523225    -7.400966    829.97975  0.019011814  0.018269464           13 
 3639000   0.67132012   -7.3931015    830.67437  0.019022496  0.018263863           66 
 3640000   0.67578549   -7.3945322    829.57604  0.018992125  0.018258275           10 
 3641000   0.65733186   -7.3892192    829.87153  0.018993672  0.018252694           21 
 3642000   0.65954901   -7.4029557    830.53912  0.019003732  0.018247121           14 
 3643000   0.65592154   -7.3838414    832.17924  0.019036034  0.018241557           29 
 3644000    0.6607479   -7.3986155    830.84313  0.019000255  0.018235995            9 
 3645000    0.6648845   -7.3866736    830.11074  0.018978298  0.018230433           13 
 3646000   0.66322156   -7.3955854    831.52168  0.019005341  0.018224861           17 
 3647000   0.67227078    -7.391233    832.11534  0.019013695  0.018219292           13 
 3648000   0.66201898   -7.4172496    830.06999   0.01896176  0.018213711           28 
 3649000   0.66329539   -7.3971244    831.11509   0.01898043  0.018208142           16 
 3650000   0.67513013   -7.4227559    829.84278  0.018946182  0.018202579           22 
 3651000    0.6665882   -7.4047871    830.55139  0.018957167  0.018197014           21 
 3652000   0.66212143   -7.3875808    831.32624  0.018969657  0.018191455           16 
 3653000   0.67810596   -7.4100715    830.85284  0.018953665  0.018185893           10 
 3654000   0.67195719   -7.3921165    830.88501  0.018949211  0.018180345           16 
 3655000   0.66735271   -7.3991423    830.08704  0.018925833  0.018174786            8 
 3656000   0.68675185   -7.4161294    829.78745  0.018913828  0.018169219           18 
 3657000    0.6641123   -7.4284985    830.30674  0.018920489  0.018163665           13 
 3658000   0.67633148   -7.4255725    830.66483  0.018923474    0.0181581           40 
 3659000   0.64656815   -7.4314266    829.10727  0.018882829  0.018152528           14 
 3660000   0.67195804   -7.4135081    829.99131  0.018897798  0.018146958           17 
 3661000   0.66504156    -7.417293    830.11102  0.018895361  0.018141379           42 
 3662000   0.64728306   -7.4280121     831.6881   0.01892609  0.018135805           23 
 3663000   0.67468311   -7.4187547    830.21587   0.01888743  0.018130248           13 
 3664000    0.6634857   -7.4029646    830.72078  0.018893759  0.018124685           11 
 3665000   0.67210322     -7.41354    830.09282  0.018874325  0.018119127           14 
 3666000   0.66718476   -7.4036786    829.20487  0.018848992  0.018113575           16 
 3667000   0.67596051   -7.4272215    830.62744   0.01887618  0.018108016           18 
 3668000   0.66777318   -7.4101333    830.10467  0.018859157  0.018102458           18 
 3669000   0.65259911   -7.4321837     830.2303  0.018856871   0.01809691           48 
 3670000   0.68397363   -7.4357448    830.26497   0.01885252  0.018091353           22 
 3671000   0.66321987   -7.4297219    830.40881   0.01885065  0.018085794           23 
 3672000   0.67515641   -7.4069167    830.75061  0.018853273  0.018080236           13 
 3673000   0.67160276   -7.4323103    830.50039  0.018842463  0.018074697           17 
 3674000    0.6626598   -7.4291613    829.98048  0.018825542  0.018069145           10 
 3675000   0.68319584   -7.4040668    830.32851  0.018828311  0.018063591           28 
 3676000   0.67643302   -7.4290271    830.99017  0.018838189  0.018058047           16 
 3677000   0.65394914   -7.4151721    829.69228  0.018803651    0.0180525           15 
 3678000   0.66677843   -7.3915999    830.08195  0.018807367  0.018046974           11 
 3679000   0.65724677     -7.41457    830.75144   0.01881742  0.018041448           30 
 3680000   0.65852959    -7.426357    832.50693  0.018852059  0.018035942           11 
 3681000   0.65219912   -7.4033062     833.3568  0.018866178  0.018030438            7 
 3682000   0.66415801   -7.3882771    833.48933  0.018864053  0.018024943           17 
 3683000   0.66098836    -7.411928    832.01139  0.018825491  0.018019437           18 
 3684000   0.66835291   -7.4183576    831.29922  0.018804271  0.018013934           10 
 3685000   0.67867526   -7.3953841    832.20973  0.018819759  0.018008437            8 
 3686000   0.66781287   -7.4034291    830.86454  0.018784241  0.018002935           29 
 3687000   0.66970223   -7.4051393    831.46362  0.018792687  0.017997436           25 
 3688000   0.66595824   -7.4232674    831.52243   0.01878892  0.017991929           14 
 3689000   0.66727104   -7.4295274     832.0066  0.018794764  0.017986426           23 
 3690000   0.65982813   -7.4216552    830.36842  0.018752674   0.01798093           11 
 3691000   0.65611913   -7.4218449    830.08835   0.01874127  0.017975432           17 
 3692000   0.64574912   -7.4475195    831.68697  0.018772277  0.017969923           26 
 3693000   0.64930854   -7.4396118    830.87056  0.018748772  0.017964419           21 
 3694000   0.65560626   -7.4203576    830.14602  0.018727351  0.017958932           11 
 3695000   0.66647769   -7.4099094    832.14185  0.018767295  0.017953446           11 
 3696000   0.65258614   -7.4253884    831.60812  0.018750183  0.017947955           14 
 3697000   0.65058948   -7.4269856    831.60081  0.018744946  0.017942475           21 
 3698000   0.66317394   -7.4308659    832.08762  0.018750848  0.017936983           14 
 3699000   0.64885007   -7.4457684    831.67051  0.018736382  0.017931501           14 
 3700000   0.65581744   -7.4333453    830.98795  0.018715945  0.017926011           23 
 3701000   0.63891785   -7.4523054    830.82342  0.018707183  0.017920528           40 
 3702000   0.66556421   -7.4491587    831.14707  0.018709415  0.017915037           22 
 3703000    0.6359865   -7.4543718    832.73002  0.018739986  0.017909555           19 
 3704000   0.68456858   -7.4371971    831.63641  0.018710322  0.017904076           42 
 3705000   0.66311078   -7.4242481    829.74997  0.018662842  0.017898585           22 
 3706000   0.66433397   -7.4421501    830.70401  0.018679259  0.017893093           20 
 3707000   0.65973498   -7.4272751    833.66189  0.018740713  0.017887613           18 
 3708000    0.6524103   -7.4395407    831.56071  0.018688437  0.017882126           21 
 3709000   0.65842572   -7.4436397    831.89689  0.018690952  0.017876639           11 
 3710000   0.66673017   -7.4293459     831.4519  0.018675919  0.017871144           19 
 3711000   0.65673786   -7.4237486    831.45423  0.018670939  0.017865635           25 
 3712000   0.66863352   -7.4425371    831.89489  0.018675801  0.017860129           22 
 3713000   0.65427828   -7.4374887     830.8068  0.018646351  0.017854637           31 
 3714000   0.65020488   -7.4243627    831.36017  0.018653746   0.01784916           35 
 3715000    0.6557937   -7.4335279    831.90213  0.018660882  0.017843688           49 
 3716000   0.65481441   -7.4134406    831.90861  0.018656006  0.017838209           25 
 3717000   0.66186333   -7.4210681     829.7729  0.018603105  0.017832724           17 
 3718000   0.64374477   -7.4673104    829.66086   0.01859559  0.017827216           43 
 3719000     0.663955   -7.4288869    831.51569  0.018632152  0.017821719           39 
 3720000   0.66243268   -7.4645319    831.95036  0.018636881  0.017816254           25 
 3721000   0.65592877   -7.4376564    833.22751  0.018660474  0.017810781           28 
 3722000    0.6624351   -7.4680887    831.64598  0.018620051  0.017805317           25 
 3723000   0.64785239   -7.4506485    830.02353  0.018578734  0.017799862           25 
 3724000   0.64080884   -7.4714952    829.12342  0.018553603  0.017794389           34 
 3725000    0.6454529   -7.4642017    832.04677  0.018614022  0.017788929           22 
 3726000   0.65557322   -7.4763424    833.25092  0.018635957  0.017783485           24 
 3727000   0.64596333    -7.458398    832.22919  0.018608112  0.017778029           32 
 3728000   0.64945983   -7.4318271    832.05878  0.018599311  0.017772589           30 
 3729000   0.64587411   -7.4338284     831.8452   0.01858955   0.01776715           33 
 3730000   0.65359284   -7.4513049    831.10653  0.018568064  0.017761705           25 
 3731000   0.64114364   -7.4355297    832.21631  0.018587874  0.017756262           20 
 3732000   0.65033578   -7.4336457     833.5315  0.018612261  0.017750828           22 
 3733000   0.66327425   -7.4246134    830.87294  0.018547927  0.017745394           15 
 3734000   0.65360233   -7.4319144    832.13033  0.018571022  0.017739965           31 
 3735000   0.64804359   -7.4304036    831.54612  0.018553015  0.017734529           20 
 3736000   0.65166658   -7.4536542    831.39541  0.018544687  0.017729098           22 
 3737000   0.66114044   -7.4404512    831.70134  0.018546547  0.017723661           20 
 3738000   0.66196306   -7.4429189    831.44489  0.018535868  0.017718218           18 
 3739000   0.65783572   -7.4520773    831.46384  0.018531333   0.01771277           22 
 3740000   0.65191325   -7.4512373    831.33522  0.018523512   0.01770733           23 
 3741000   0.65248403   -7.4581979    832.04574  0.018534388  0.017701918           19 
 3742000   0.64026107   -7.4552794     833.0365  0.018551499  0.017696493           31 
 3743000   0.64776971   -7.4547352    832.61939  0.018537256  0.017691078           26 
 3744000   0.65475577   -7.4383455    830.96088   0.01849539  0.017685665           22 
 3745000   0.64838944   -7.4393561    831.53818  0.018503297  0.017680251           31 
 3746000   0.64358615   -7.4370362    832.44677   0.01851857  0.017674855           30 
 3747000   0.64793299   -7.4561022     833.3869  0.018534537  0.017669445           19 
 3748000   0.66410167   -7.4499941     832.4612  0.018509009  0.017664038           35 
 3749000   0.65146406   -7.4299093    833.49754  0.018527108  0.017658643           14 
 3750000   0.65521733   -7.4500389    830.59878  0.018457751  0.017653243           24 
 3751000   0.64561547   -7.4449689    833.47043  0.018516627   0.01764784           21 
 3752000   0.65554826   -7.4156512    833.05163   0.01850239  0.017642446           10 
 3753000   0.66062783    -7.424028    832.25634  0.018479801  0.017637056           22 
 3754000   0.64910364     -7.43198    833.98782  0.018513315  0.017631675           18 
 3755000   0.63383225   -7.4474492    831.55523  0.018454399   0.01762629           17 
 3756000   0.65690792   -7.4378035    833.35484  0.018489413  0.017620892           24 
 3757000    0.6413275   -7.4469947    833.40871  0.018485687  0.017615495           37 
 3758000    0.6567162   -7.4197661    832.49058  0.018460408  0.017610095           27 
 3759000   0.65868413   -7.4218243    832.69985  0.018460137   0.01760472           15 
 3760000   0.64583984   -7.4436875    833.24007    0.0184672  0.017599331           32 
 3761000   0.64807009   -7.4346281    832.65081  0.018449234  0.017593938           16 
 3762000   0.65305277   -7.4736161    832.11415  0.018432442  0.017588547           33 
 3763000   0.64887297   -7.4441329     829.7488  0.018375162  0.017583148           41 
 3764000   0.64426412   -7.4246679    831.69095  0.018413278  0.017577759           46 
 3765000   0.66293758   -7.4496421    832.46281  0.018425472   0.01757237           86 
 3766000   0.65023015   -7.4471977    832.17537  0.018414219  0.017566968           47 
 3767000   0.65045453   -7.4556439    831.70809  0.018398993  0.017561567           30 
 3768000   0.64413632   -7.4436113    832.90612  0.018420606  0.017556169           63 
 3769000   0.64507787   -7.4558661    832.06279  0.018397072  0.017550787           46 
 3770000    0.6451198   -7.4501469     832.4461  0.018400665  0.017545393           51 
 3771000   0.65468449   -7.4634395    831.90655  0.018383863  0.017540006           29 
 3772000   0.63343941   -7.4405937    832.79751  0.018398672  0.017534615           39 
 3773000   0.63889327   -7.4561715    833.56191  0.018410679  0.017529238           35 
 3774000   0.65332679   -7.4628411    833.96108  0.018414615  0.017523866           37 
 3775000   0.65500485   -7.4615424    831.53617  0.018356207  0.017518495           13 
 3776000   0.63575782   -7.4619021    832.98627  0.018383348  0.017513132           41 
 3777000   0.64702746   -7.4780263    831.12795   0.01833748  0.017507767           20 
 3778000   0.63591388   -7.4536222    833.03099  0.018374603  0.017502396           21 
 3779000   0.64809491   -7.4474847    832.47098  0.018357391  0.017497035           19 
 3780000   0.62086679   -7.4346532    832.57842  0.018354903  0.017491675           21 
 3781000   0.64937317   -7.4723259    834.85267  0.018400174  0.017486319           18 
 3782000   0.63514649   -7.4381521    832.68366  0.018347516   0.01748097           23 
 3783000   0.64462546   -7.4087215      833.401  0.018358468  0.017475631           15 
 3784000   0.65570697   -7.4574567    832.93909  0.018343444  0.017470289           28 
 3785000   0.64512189   -7.4232665    833.93258  0.018360471  0.017464948           40 
 3786000   0.64309879   -7.4455314    832.04603  0.018314096  0.017459621           46 
 3787000   0.63685566   -7.4555602    831.92053  0.018306499  0.017454274           72 
 3788000   0.63869322   -7.4486442    833.39183  0.018334034  0.017448947           43 
 3789000   0.63609155   -7.4334758    831.74589  0.018292995  0.017443624           57 
 3790000    0.6438769   -7.4605715     832.1754  0.018297612  0.017438302           33 
 3791000    0.6470101   -7.4540101    834.77499  0.018349929  0.017432987           58 
 3792000   0.63895225   -7.4346228    833.04155  0.018306996  0.017427669           41 
 3793000   0.64211482   -7.4517985    831.65529  0.018271713  0.017422349           34 
 3794000   0.64550252   -7.4760942    833.17477  0.018300272  0.017417029           30 
 3795000   0.64730621   -7.4242313    834.23982  0.018318837  0.017411717           25 
 3796000   0.65219094   -7.4439421    833.25989  0.018292498  0.017406396           24 
 3797000   0.63532227   -7.4343876    833.98147  0.018303517  0.017401065           49 
 3798000    0.6312723   -7.4679349    832.56579  0.018267636  0.017395727           37 
 3799000   0.63304597   -7.5018076    832.16377  0.018254009   0.01739037           31 
 3800000   0.63381946   -7.4842739    831.24999  0.018229166  0.017384999           23 
 3801000    0.6468466   -7.4816339    831.53821  0.018230689  0.017379645           23 
 3802000    0.6572948   -7.4727992    832.31165  0.018242847  0.017374296           36 
 3803000    0.6545471   -7.4827214    833.03928  0.018253994  0.017368943           42 
 3804000   0.65045003   -7.4636287    833.45277  0.018258254  0.017363598           41 
 3805000   0.63613346    -7.463237    833.14056  0.018246618  0.017358251           79 
 3806000   0.63206706   -7.4349096    832.90676  0.018236704  0.017352923           59 
 3807000   0.63839904   -7.4601261    832.38469  0.018220486  0.017347583           42 
 3808000   0.63801805   -7.4743687    832.45455   0.01821723  0.017342243           96 
 3809000     0.630255   -7.4617556    832.53038  0.018214107  0.017336912           63 
 3810000   0.63713577   -7.4488884    832.72309  0.018213541  0.017331606           58 
 3811000   0.64137472   -7.4883462    831.54233  0.018182942  0.017326287           74 
 3812000   0.63816462    -7.469051    832.55609  0.018200334   0.01732096           39 
 3813000   0.64229404   -7.4797057    831.90545  0.018181341   0.01731564           58 
 3814000   0.65513214   -7.4788314    831.62106   0.01817036   0.01731032           27 
 3815000   0.64899452   -7.4533382    834.00092  0.018217582  0.017304999           76 
 3816000   0.63785291   -7.4682195    833.71048  0.018206466  0.017299683           47 
 3817000   0.63531401   -7.4883705    831.81398  0.018160291  0.017294365           56 
 3818000   0.64724831   -7.4759098    832.80448  0.018177154  0.017289052           25 
 3819000   0.64484321   -7.4689443    832.92913  0.018175114  0.017283743           50 
 3820000   0.63486587   -7.4579131     831.9336  0.018148639  0.017278432           66 
 3821000   0.63550292   -7.4560189    832.44099  0.018154955   0.01727312           23 
 3822000   0.64067427   -7.4902625    834.01046  0.018184425  0.017267814           48 
 3823000   0.64450212   -7.4924225    832.13499  0.018138787  0.017262503           34 
 3824000   0.63820264   -7.4523619    831.68187  0.018124169   0.01725719           19 
 3825000   0.64576253   -7.4626927    833.56773  0.018160517  0.017251887           22 
 3826000   0.64660729   -7.4625905    834.44315  0.018174838  0.017246595           34 
 3827000   0.63576381   -7.4667133     832.4015  0.018125631    0.0172413           53 
 3828000   0.63407745   -7.4762813    832.49139  0.018122853  0.017236012           56 
 3829000   0.63467554   -7.4782087    831.45997  0.018095673  0.017230711           54 
 3830000   0.62457253    -7.450726    832.09292   0.01810472   0.01722542           39 
 3831000   0.64034604   -7.4600828    832.07003  0.018099496  0.017220131           38 
 3832000   0.62844056   -7.4614827    832.39144  0.018101762  0.017214852           33 
 3833000   0.64460042   -7.4747186    832.79124  0.018105732  0.017209561           26 
 3834000   0.63244933   -7.4792532    831.09975  0.018064244  0.017204262           39 
 3835000   0.64371857   -7.4774625    832.09088  0.018081071  0.017198949           29 
 3836000   0.63658094   -7.4481677    832.97673  0.018095601  0.017193648           49 
 3837000   0.62144834   -7.4640995    832.48381   0.01808018  0.017188362           29 
 3838000   0.62946975   -7.4792136    831.68419  0.018058107   0.01718307           28 
 3839000   0.63185384   -7.4735044    832.59156    0.0180731  0.017177795           19 
 3840000   0.63345787   -7.4726887    833.23905  0.018082445  0.017172519           27 
 3841000   0.63058992   -7.4721485     832.6912  0.018065851  0.017167234           30 
 3842000   0.62455095   -7.4750232     833.5471  0.018079713  0.017161957           32 
 3843000   0.63250598   -7.4759618    834.00421  0.018084921  0.017156687           41 
 3844000   0.63972392   -7.4688095    832.52433  0.018048134  0.017151415           35 
 3845000   0.64080839   -7.4443603    831.87467   0.01802936  0.017146151           23 
 3846000   0.64368446   -7.4745822    834.08118  0.018072482  0.017140879           31 
 3847000   0.64400519   -7.4574386    832.60337  0.018035772  0.017135606           23 
 3848000    0.6560089   -7.4743322    834.43119  0.018070668  0.017130335           37 
 3849000   0.62629636   -7.4704717     830.9499  0.017990601  0.017125061           36 
 3850000    0.6303328   -7.4668865    832.72185  0.018024282  0.017119789           31 
 3851000   0.63265404   -7.4789164    833.74277  0.018041694  0.017114529           27 
 3852000   0.62943561   -7.4684247    833.23093  0.018025937  0.017109269           29 
 3853000   0.63531883    -7.480528    832.43855  0.018004121  0.017104006           29 
 3854000   0.63255151   -7.4708879    832.65004  0.018004023  0.017098741           22 
 3855000   0.63403221   -7.4694077    832.81493  0.018002917  0.017093469           31 
 3856000   0.62665985   -7.4718405    833.01739  0.018002623    0.0170882           26 
 3857000   0.64126087   -7.4823451    832.39748  0.017984562  0.017082926           18 
 3858000   0.62300272   -7.4732571    833.73846  0.018008866  0.017077659           44 
 3859000   0.64497332   -7.4736054     830.7567  0.017939809  0.017072384           19 
 3860000   0.63438407   -7.4656622    831.35098  0.017947992  0.017067115           28 
 3861000   0.63307532   -7.4879715    832.55821  0.017969399   0.01706184           29 
 3862000   0.63376732     -7.47414    831.14231  0.017934194  0.017056574           12 
 3863000   0.64219203   -7.4850531    833.68855   0.01798448  0.017051315           24 
 3864000   0.64155383    -7.483196    832.06519  0.017944815  0.017046036           25 
 3865000   0.62330215   -7.4896571    832.70463  0.017953959  0.017040756           30 
 3866000   0.62072285   -7.5051042    830.55609  0.017903002  0.017035462           30 
 3867000    0.6404414   -7.5067662    832.17947  0.017933356  0.017030163           15 
 3868000   0.61304808   -7.4715674    833.72188   0.01796195  0.017024888           12 
 3869000   0.62345517   -7.4963218    831.67664  0.017913256  0.017019609           35 
 3870000   0.63288271   -7.4789113    832.25725  0.017921129  0.017014336           25 
 3871000   0.65218679   -7.4761789    830.93294  0.017887991  0.017009061           30 
 3872000   0.63676013   -7.4837328    832.36604  0.017914214  0.017003791           16 
 3873000   0.62593909   -7.4846624    831.85299   0.01789855  0.016998528           40 
 3874000   0.63866209    -7.495815    831.35545  0.017883227  0.016993257           25 
 3875000   0.62912586   -7.4686498      831.805  0.017888279  0.016987977           42 
 3876000   0.63649953   -7.4862255    831.81651  0.017883912  0.016982716           31 
 3877000   0.63138638   -7.4623966    831.19959  0.017866039  0.016977452           17 
 3878000   0.64003168   -7.4724548    832.16505  0.017882178  0.016972201           30 
 3879000   0.63907117   -7.4671336    832.91196  0.017893614  0.016966943           33 
 3880000   0.64292898   -7.5085692    831.49908  0.017858657  0.016961679           24 
 3881000   0.64276385   -7.4983304    831.48879  0.017853835  0.016956408           66 
 3882000   0.63389771   -7.4893409      831.264   0.01784441  0.016951136           72 
 3883000   0.62922793   -7.4831705    831.12493   0.01783683  0.016945871           58 
 3884000   0.63041784   -7.4778001    830.45521  0.017817868  0.016940613           41 
 3885000    0.6334286   -7.4748474    832.62456  0.017859815   0.01693536           40 
 3886000   0.63392512   -7.4844091    833.23531  0.017868316  0.016930105           39 
 3887000   0.63381727   -7.4752985    832.47934  0.017847512  0.016924852           42 
 3888000   0.64199576    -7.477597    832.33524  0.017839833  0.016919613           52 
 3889000   0.62476502   -7.4749718    831.67994  0.017821204  0.016914372           50 
 3890000   0.62885917   -7.4789115     831.4542  0.017811787  0.016909137           41 
 3891000   0.64520032   -7.4656058    832.41861  0.017827864  0.016903911           14 
 3892000   0.63052035   -7.4689998    831.67174  0.017807291  0.016898681           37 
 3893000   0.64103002   -7.5016559    834.61918   0.01786581  0.016893451           23 
 3894000   0.62282036   -7.4728872      832.399  0.017813709  0.016888218           15 
 3895000   0.64955478   -7.4673635    832.84236  0.017818621  0.016882996           23 
 3896000   0.62893167   -7.4874765    832.25639  0.017801514  0.016877759           26 
 3897000   0.62079793   -7.5029557    830.70689  0.017763812  0.016872504           30 
 3898000    0.6296286   -7.4797979    831.16065  0.017768955  0.016867257           32 
 3899000   0.62374146   -7.5047159     829.9981  0.017739551  0.016862015           27 
 3900000   0.63440675   -7.4849077    831.36315   0.01776417  0.016856773           27 
 3901000   0.62543962   -7.4810776    832.58331  0.017785681  0.016851534           30 
 3902000   0.64273048   -7.4924799    830.10429   0.01772818    0.0168463           41 
 3903000   0.62552683   -7.4678746    831.30074  0.017749183  0.016841064           54 
 3904000   0.62294528   -7.4949734    830.79885  0.017733923  0.016835826           28 
 3905000   0.64316885   -7.4729476    831.02495  0.017734207  0.016830596           33 
 3906000    0.6227992   -7.5031763    831.28336   0.01773518  0.016825357           42 
 3907000    0.6367205   -7.5126354    831.62059  0.017737834  0.016820126           47 
 3908000   0.62485012   -7.5145261    832.26951  0.017747132  0.016814895           48 
 3909000   0.61004498   -7.4963455    831.30269  0.017721981   0.01680965           40 
 3910000   0.60291239   -7.4881949    830.80207  0.017706779  0.016804423           49 
 3911000   0.62262463    -7.499399    832.15491  0.017731077   0.01679919           37 
 3912000   0.62933151   -7.5114078     829.6799  0.017673822  0.016793954           47 
 3913000   0.62043973   -7.4930759     833.0694   0.01774149  0.016788728           17 
 3914000   0.61918558   -7.4950805    831.36023  0.017700567  0.016783502           24 
 3915000   0.63653351   -7.4929127    831.80286  0.017705467  0.016778275           22 
 3916000    0.6250773   -7.4962136    833.12522  0.017729086   0.01677306           27 
 3917000   0.62495569   -7.4969849    833.95392   0.01774219  0.016767852           30 
 3918000   0.62214309   -7.4854816    831.24455  0.017680036  0.016762642           27 
 3919000   0.62481535   -7.4966861    831.28355  0.017676353  0.016757428           17 
 3920000   0.63115105    -7.497176    830.53898  0.017656016  0.016752221           20 
 3921000   0.62951054   -7.4865459     833.2632  0.017709411  0.016747021           23 
 3922000   0.62656319   -7.4928016    832.33949  0.017685269  0.016741804           32 
 3923000    0.6286762   -7.4679724    831.27812  0.017658215  0.016736603           18 
 3924000   0.62960742   -7.5079263    832.77737  0.017685554  0.016731395           14 
 3925000   0.62263005   -7.5021023    832.48699  0.017674883   0.01672619           35 
 3926000   0.63184131   -7.4987735    830.50829  0.017628381  0.016720985           25 
 3927000   0.62462269   -7.4914721    832.71649  0.017670751   0.01671579           26 
 3928000   0.62539939   -7.4924771     830.4346  0.017617842  0.016710585           31 
 3929000    0.6259076   -7.4919886    831.29297  0.017631564  0.016705383           53 
 3930000   0.61668621   -7.5060184    831.92221   0.01764042  0.016700178           37 
 3931000   0.62182569    -7.493845    832.04527  0.017638541  0.016694972           22 
 3932000   0.61277827   -7.5055588    832.08806  0.017634962  0.016689777           28 
 3933000    0.6246353   -7.5224995    832.39355  0.017636951  0.016684586           14 
 3934000   0.62795157   -7.4965399     830.3565  0.017589318    0.0166794           14 
 3935000   0.62895909   -7.5012859    831.43121  0.017607607  0.016674213           30 
 3936000   0.63483101   -7.5045523    831.70421  0.017608914  0.016669026           22 
 3937000    0.6194757   -7.4884907    834.18867  0.017657029  0.016663851           35 
 3938000   0.61989081   -7.4986028    832.41733  0.017615061  0.016658668           23 
 3939000   0.62408282   -7.4980992     832.1536   0.01760501  0.016653499           13 
 3940000   0.61842261   -7.5062415    831.58547  0.017588525  0.016648324           15 
 3941000   0.63085672   -7.5242608    831.11542  0.017574123  0.016643146           15 
 3942000    0.6316434   -7.5133304    831.52559  0.017578336  0.016637976           24 
 3943000   0.63044881    -7.504156    831.76779  0.017578996  0.016632792           19 
 3944000   0.61497917   -7.5107731    831.90615  0.017577463  0.016627603           26 
 3945000   0.62504403   -7.5013669    830.92962  0.017552379  0.016622415           41 
 3946000   0.62003348   -7.5105265    831.54142  0.017560851  0.016617231           17 
 3947000   0.61419055   -7.5072467    832.39869  0.017574502  0.016612052           49 
 3948000   0.61792607   -7.5094866    831.58485  0.017552872  0.016606877           25 
 3949000    0.6172996   -7.4937231    830.71238  0.017530016  0.016601711           33 
 3950000    0.6107407    -7.515083    832.13577  0.017555607  0.016596537           58 
 3951000   0.60806177   -7.5217181    831.16375  0.017530662  0.016591358           24 
 3952000   0.63549695   -7.5089304    831.38445   0.01753088  0.016586185           13 
 3953000   0.61976771   -7.5200961    831.36017  0.017525933  0.016581008           24 
 3954000   0.62692289   -7.5330291    831.61277  0.017526824  0.016575825           26 
 3955000   0.62071015   -7.5149104    830.85317  0.017506388  0.016570652           25 
 3956000   0.62238435   -7.5210829    830.84806  0.017501855  0.016565483           19 
 3957000   0.63254682   -7.5122309    832.38826  0.017529868  0.016560314           11 
 3958000   0.61693656   -7.5279054    829.52187  0.017465089  0.016555144           27 
 3959000   0.60903325    -7.529752    830.31518  0.017477376  0.016549973           45 
 3960000    0.6154908   -7.5146108    832.68097  0.017522748  0.016544803           26 
 3961000   0.63590808   -7.5355376    830.84497  0.017479697  0.016539632           35 
 3962000   0.61210258   -7.5189334     831.3465  0.017485834  0.016534462           29 
 3963000    0.6171821   -7.5434672    831.38814  0.017482297    0.0165293           18 
 3964000   0.62547661   -7.5059604    830.63257  0.017462003   0.01652414           24 
 3965000   0.61608025   -7.5279677     832.2477  0.017491545  0.016518987           26 
 3966000   0.60919244   -7.5036973    831.45503  0.017470479  0.016513841           26 
 3967000   0.62143612   -7.5118878    831.37191  0.017464329  0.016508699           53 
 3968000   0.61661719   -7.5286218    831.44471  0.017461456  0.016503546           43 
 3969000   0.63631763   -7.5197621    831.51383  0.017458508  0.016498392           23 
 3970000    0.6195911    -7.499779    832.71153  0.017479251  0.016493236           30 
 3971000   0.62250185   -7.5295071    831.30039  0.017445236  0.016488094           28 
 3972000   0.61304628   -7.5292814     831.4467  0.017443914  0.016482939           19 
 3973000   0.62047492   -7.5302871    829.92288  0.017407561  0.016477799           34 
 3974000   0.62148476   -7.5346092    830.62847  0.017417977  0.016472643           33 
 3975000   0.62007396    -7.541507    830.16857  0.017403953   0.01646749           20 
 3976000   0.61350448   -7.5204794     829.4193  0.017383872  0.016462342           40 
 3977000   0.62468941   -7.5503767    831.62772  0.017425776  0.016457195           45 
 3978000   0.63029171   -7.5250063    832.00252  0.017429247  0.016452051           28 
 3979000    0.6319187   -7.5615382     830.8539  0.017400811  0.016446902           33 
 3980000   0.60927268   -7.5544179    831.05688  0.017400688  0.016441756           43 
 3981000   0.59788494   -7.5327426     832.3298  0.017422963  0.016436612           80 
 3982000   0.61090928   -7.5227447    832.86913  0.017429875  0.016431466           48 
 3983000   0.62313127   -7.5148381    831.73167    0.0174017  0.016426322           37 
 3984000   0.61301683   -7.5252661     829.6908  0.017354643  0.016421191          117 
 3985000   0.61580553   -7.5234184    832.48675  0.017408757  0.016416058           42 
 3986000   0.61046497   -7.5319479    830.51081  0.017363079  0.016410926           28 
 3987000   0.62829274   -7.5072075    830.39379  0.017356279  0.016405797           37 
 3988000   0.62501339   -7.5175831    831.01196  0.017364844  0.016400671           22 
 3989000   0.60954126   -7.5380041    829.94367  0.017338173  0.016395541           33 
 3990000   0.61713666   -7.5239278    830.43515  0.017344093  0.016390417           22 
 3991000   0.60577624   -7.5055273    830.40804  0.017339181   0.01638529           25 
 3992000   0.60673065   -7.5293635    832.14411  0.017371078  0.016380163           18 
 3993000   0.62462584   -7.5350594    831.19177  0.017346852  0.016375034           29 
 3994000   0.61420777   -7.5446068    830.78767  0.017334078  0.016369904           29 
 3995000   0.60315122   -7.5452512    831.25969  0.017339585   0.01636479           23 
 3996000   0.60361037   -7.5125451      832.053  0.017351789  0.016359685           31 
 3997000   0.60690365   -7.5417325    830.65525  0.017318306  0.016354567           31 
 3998000   0.60104083   -7.5257541    832.54616  0.017353388  0.016349451           17 
 3999000   0.61801351   -7.5331208    831.55419  0.017328378  0.016344347           18 
 4000000   0.61420161   -7.5461265    830.60444  0.017304259  0.016339238           20 
 4001000   0.59784777   -7.5459639     832.4282   0.01733792  0.016334126           27 
 4002000   0.61441256   -7.5393803    831.23883  0.017308821  0.016329022           20 
 4003000   0.61038032   -7.5458469    831.58158  0.017311633  0.016323922           20 
 4004000   0.60846057   -7.5055372    830.08424  0.017276145  0.016318817           27 
 4005000   0.61295176   -7.5175558    831.25568  0.017296206  0.016313718           16 
 4006000   0.60929334   -7.4889513    832.37424  0.017315157   0.01630863           28 
 4007000   0.61662664   -7.5426696    829.81128  0.017257534  0.016303534           17 
 4008000   0.61316104   -7.5244419    830.92342  0.017276352  0.016298429           16 
 4009000   0.60739147   -7.5012261    831.81382  0.017290551   0.01629333           15 
 4010000   0.60039387   -7.5176387    830.90805  0.017267416   0.01628823           41 
 4011000   0.62325608   -7.5464577     830.5482  0.017255635  0.016283122           11 
 4012000   0.61639801   -7.5364001    831.84038  0.017278173  0.016278029           13 
 4013000   0.61662698   -7.5374032    831.48463   0.01726648  0.016272938            8 
 4014000   0.60881212   -7.5350657    831.73892  0.017267458  0.016267851           17 
 4015000   0.62088557   -7.5218984    831.21719  0.017252328  0.016262764           33 
 4016000   0.61001757   -7.5307664    830.60982  0.017235429  0.016257668           10 
 4017000   0.60540903   -7.5085936    830.72419  0.017233512  0.016252579           18 
 4018000   0.61150984   -7.5358911    830.65528  0.017227793  0.016247493           12 
 4019000   0.60595979   -7.5399816    831.42252  0.017239415  0.016242408            9 
 4020000   0.60087502   -7.5270624    830.50496  0.017216106  0.016237328           12 
 4021000   0.61330618   -7.5137439    831.54416  0.017233362  0.016232246           31 
 4022000   0.61266002   -7.5434356    832.52184  0.017249334  0.016227156           10 
 4023000   0.61383323   -7.5375897    830.75709   0.01720849  0.016222064           13 
 4024000   0.59872866   -7.5234528    831.16293  0.017212619  0.016216974           11 
 4025000   0.59417581   -7.5368873    830.68276  0.017198401  0.016211886           11 
 4026000    0.6014893   -7.5397349    831.25544  0.017205983  0.016206802           12 
 4027000   0.61911517   -7.5233701    830.32568   0.01718247  0.016201723           19 
 4028000   0.61392732   -7.5344081    830.48057  0.017181409  0.016196645           13 
 4029000   0.60562559    -7.531918    830.37529  0.017174967  0.016191574           20 
 4030000   0.61379087   -7.5441179    829.41825  0.017150915  0.016186503           12 
 4031000   0.60815167   -7.5605036    831.08721  0.017181163  0.016181428           16 
 4032000   0.60916986    -7.570979    830.48081  0.017164369  0.016176357           12 
 4033000   0.60552625   -7.5222691    830.28396  0.017156045  0.016171285           16 
 4034000   0.60266536   -7.5377964    830.94868  0.017165524  0.016166221           25 
 4035000   0.59884621   -7.5505204    832.03333  0.017183671  0.016161152           21 
 4036000   0.59880877    -7.526806    832.21596  0.017183184  0.016156079           16 
 4037000   0.61267859   -7.5542709    831.07215  0.017155316  0.016151009           14 
 4038000   0.60156569   -7.5486743    829.21297  0.017112699  0.016145938           12 
 4039000   0.60718907   -7.5516976    831.63389  0.017158412  0.016140872            8 
 4040000   0.60724072   -7.5372158    829.84103  0.017117183  0.016135807           20 
 4041000   0.61862025   -7.5341205     830.2191  0.017120744  0.016130745           11 
 4042000   0.60126438   -7.5378699    830.34664  0.017119137  0.016125681           10 
 4043000   0.59812078    -7.518889    831.77625   0.01714437  0.016120624           13 
 4044000   0.60253142   -7.5362416     830.3681  0.017111113  0.016115574           20 
 4045000   0.61614937   -7.5293386    830.23853  0.017104214  0.016110529           15 
 4046000    0.5958093   -7.5250278    829.65048  0.017087874  0.016105487           12 
 4047000   0.60970648   -7.5396224    829.50503  0.017080657  0.016100446           34 
 4048000   0.60856745   -7.5390537     830.4532  0.017095957  0.016095404           37 
 4049000   0.59958282   -7.5509644    831.98133  0.017123185  0.016090366           34 
 4050000   0.60716345   -7.5509855    829.73474  0.017072731  0.016085324           18 
 4051000   0.59636399   -7.5417792    831.83102   0.01711164  0.016080278           14 
 4052000   0.59445142   -7.5347442    830.40208  0.017078029  0.016075227           27 
 4053000   0.61762342   -7.5319249    831.90535  0.017104724  0.016070195           31 
 4054000   0.60336699   -7.5576014    830.57351  0.017073128  0.016065145           12 
 4055000    0.6118845   -7.5512988    831.87703  0.017095705  0.016060105           14 
 4056000   0.60885293   -7.5414779    831.18306  0.017077232  0.016055061           15 
 4057000   0.60464866   -7.5596966    830.31502  0.017055193  0.016050019           34 
 4058000   0.59175284   -7.5630437    832.32896  0.017092348  0.016044974           16 
 4059000   0.60695498   -7.5527247    829.31604   0.01702628  0.016039928           23 
 4060000   0.60646848   -7.5539615    830.14097  0.017039018  0.016034879           21 
 4061000   0.61446297    -7.544278    828.65585  0.017004347   0.01602984           32 
 4062000   0.60763997   -7.5729837    831.51772  0.017058873  0.016024805           22 
 4063000   0.60940401   -7.5431394    831.83685   0.01706122   0.01601977           25 
 4064000   0.60043433   -7.5631094    829.79714  0.017015197  0.016014737           13 
 4065000   0.61780473   -7.5132316    830.75695  0.017030688  0.016009715           31 
 4066000   0.59880044   -7.5473052    829.50885  0.017000919  0.016004701           25 
 4067000   0.60533684   -7.5468993    830.15054  0.017009887  0.015999676           18 
 4068000   0.61718396   -7.5305235    831.69075  0.017037257  0.015994658           15 
 4069000   0.59445171   -7.5382604    831.26387  0.017024328  0.015989642           16 
 4070000   0.59891838   -7.5457618    830.07178  0.016995737  0.015984629           11 
 4071000   0.62325204   -7.5334199    829.72353  0.016984433   0.01597961           12 
 4072000   0.61450464   -7.5389407    830.35434  0.016993172  0.015974601           13 
 4073000   0.59788265   -7.5314486    830.79865   0.01699809  0.015969594           15 
 4074000   0.58873542   -7.5378421    831.13011  0.017000698  0.015964594            9 
 4075000    0.5930639   -7.5516387    830.88309  0.016991474  0.015959586            8 
 4076000   0.59580208   -7.5493034    830.51284  0.016979736  0.015954579            8 
 4077000   0.59904446   -7.5496802    830.10166  0.016967167  0.015949576           11 
 4078000   0.60800849   -7.5508019    830.63844  0.016973975  0.015944571            9 
 4079000   0.60034664    -7.544464     830.2316  0.016961502  0.015939582           17 
 4080000   0.61086561   -7.5665949    830.72838  0.016967491   0.01593459           17 
 4081000    0.5883999   -7.5371994    831.31818  0.016975377  0.015929603           10 
 4082000   0.60795445   -7.5521894    830.15571  0.016947487  0.015924603           13 
 4083000   0.59466902   -7.5402899    830.84598  0.016957425  0.015919605           15 
 4084000   0.60875461   -7.5590366    829.12292  0.016918114  0.015914601           19 
 4085000   0.58465853   -7.5531219    829.85787  0.016928965  0.015909592           10 
 4086000   0.60641129   -7.5442939    829.88489  0.016925373  0.015904587           15 
 4087000   0.60769548   -7.5575968     830.1306  0.016926242  0.015899586           12 
 4088000   0.58834313   -7.5633838     829.1305  0.016901714  0.015894583           16 
 4089000   0.60917353   -7.5432229    831.28555  0.016941501  0.015889587           24 
 4090000   0.60203957   -7.5738434     831.6701  0.016945193  0.015884591           29 
 4091000   0.59069992   -7.5436724    831.28813  0.016933271  0.015879595           19 
 4092000   0.57999725   -7.5538481    831.63145  0.016936124  0.015874599           19 
 4093000   0.59377869    -7.562112    830.37796  0.016906466  0.015869611           13 
 4094000    0.6125227   -7.5447919    829.93905  0.016893402  0.015864624           18 
 4095000   0.59407536   -7.5532385    831.04309  0.016911744  0.015859637           13 
 4096000   0.59938483   -7.5666187    829.92896  0.016884948  0.015854657           29 
 4097000   0.59594303   -7.5401028    831.16377  0.016905943  0.015849682           16 
 4098000   0.60248709   -7.5454979     831.8844  0.016916471  0.015844708           10 
 4099000   0.59110376   -7.5509923    829.42866  0.016862419  0.015839737           23 
 4100000   0.58992656   -7.5470182    829.46873   0.01685912  0.015834756           19 
 4101000   0.60056056   -7.5575995     828.7357  0.016840114  0.015829785           24 
 4102000   0.60268274   -7.5429743     831.8875  0.016900039  0.015824821           13 
 4103000   0.60551265   -7.5672432    830.16845  0.016861005  0.015819833           31 
 4104000   0.59918126   -7.5686048    828.50681  0.016823156   0.01581485           10 
 4105000   0.59857121   -7.5700421    831.21631  0.016874062  0.015809884            9 
 4106000   0.59194716   -7.5746897     830.0321  0.016845919  0.015804917           13 
 4107000   0.60134126    -7.538488    829.78539  0.016836811  0.015799948           16 
 4108000   0.59067904   -7.5456327    828.72603  0.016811223  0.015794983           12 
 4109000   0.58610812   -7.5381918    829.87382  0.016830409   0.01579002           12 
 4110000   0.59246751   -7.5402255    829.20579  0.016812769  0.015785059           18 
 4111000   0.59283292   -7.5726272    829.28764  0.016810339  0.015780102            9 
 4112000   0.58738021   -7.5641777    830.25384  0.016825832  0.015775143            9 
 4113000   0.58681113   -7.5687051    829.73904   0.01681131  0.015770187           25 
 4114000   0.59239416   -7.5897481    829.32135  0.016798763  0.015765226           18 
 4115000   0.59498807   -7.5920691    832.07865  0.016850519  0.015760275            8 
 4116000   0.58452744    -7.553854    831.85078  0.016841812  0.015755319            8 
 4117000   0.59408361   -7.5614051    830.88801  0.016818234  0.015750372           17 
 4118000   0.59175127   -7.5643048    830.64982  0.016809329  0.015745417           23 
 4119000   0.59888915    -7.561684    829.83925  0.016788849  0.015740471           19 
 4120000   0.60367056    -7.570411    828.79222  0.016763597  0.015735523           20 
 4121000   0.58733467   -7.5502462     830.1837  0.016787667  0.015730576           21 
 4122000   0.58298752   -7.5707075    829.01968  0.016760061  0.015725632           20 
 4123000    0.6097731   -7.5764523    829.94319  0.016774662  0.015720685           41 
 4124000   0.59590999   -7.5685009    829.23056  0.016756195  0.015715738           28 
 4125000   0.59726839   -7.5622214    830.05988  0.016768887  0.015710794           29 
 4126000   0.59989038   -7.5578997    827.31396  0.016709363  0.015705849           27 
 4127000   0.59578547   -7.5636014    829.29717  0.016745359  0.015700894           38 
 4128000   0.58703661   -7.5905119    828.96643  0.016734626  0.015695951           40 
 4129000   0.58718212   -7.5809503    828.86243  0.016728474  0.015691002           40 
 4130000   0.59627688   -7.5789403    828.49798   0.01671707  0.015686052           19 
 4131000   0.59735898   -7.5988852    829.40684  0.016731357  0.015681108           25 
 4132000    0.5920169   -7.5999112     828.3848  0.016706696  0.015676168           36 
 4133000   0.58436117    -7.581097    829.98312   0.01673488  0.015671226           47 
 4134000   0.59545907   -7.5722819    830.63655  0.016744004  0.015666276           83 
 4135000   0.58616815   -7.5784401    830.50035   0.01673721  0.015661334           56 
 4136000   0.59115404   -7.5741798    827.52979  0.016673311  0.015656404           25 
 4137000   0.60165117   -7.5888177    829.61219  0.016711228  0.015651472           26 
 4138000   0.59810091   -7.5746482    829.00103  0.016694881  0.015646538           37 
 4139000   0.58160506   -7.5705954     829.7781  0.016706493  0.015641609           86 
 4140000   0.58474449   -7.5807987    829.86305  0.016704168  0.015636681           36 
 4141000   0.57803859    -7.569288    828.24457  0.016667564  0.015631758           31 
 4142000   0.59442267   -7.5923408    830.09309   0.01670073  0.015626831           33 
 4143000    0.5904509    -7.584704     830.7924  0.016710765   0.01562191           38 
 4144000   0.59090786   -7.5836778    830.19107   0.01669464  0.015616992           61 
 4145000   0.59524836   -7.5778064    830.54678  0.016697764  0.015612082           81 
 4146000   0.59184857   -7.5568247    829.96842  0.016682112  0.015607171           52 
 4147000   0.58445179   -7.5727546    829.08983  0.016660434  0.015602261           22 
 4148000   0.59818966   -7.5644305    829.78556  0.016670395  0.015597357           31 
 4149000   0.58360982   -7.5856121    830.84508  0.016687657  0.015592451           70 
 4150000   0.57952117    -7.579212     829.4982   0.01665659  0.015587548           29 
 4151000   0.58411691   -7.5759052    829.13427  0.016645272  0.015582642           22 
 4152000   0.57300712    -7.564341    831.02362  0.016679183  0.015577738           27 
 4153000   0.58798885   -7.5617932    831.11428  0.016676986  0.015572834           23 
 4154000    0.5831426   -7.5755687    828.86985  0.016627946  0.015567938           35 
 4155000   0.58313401   -7.5843901    828.96094  0.016625771  0.015563034           55 
 4156000   0.59635336   -7.5979288    830.89993   0.01666065  0.015558145           42 
 4157000   0.59197984   -7.5803442    830.72957  0.016653227  0.015553254           30 
 4158000   0.58851257   -7.5673867    830.12608  0.016637127  0.015548365           36 
 4159000   0.58740906   -7.5881434     829.2684  0.016615941  0.015543474           43 
 4160000   0.59418579   -7.5664336    829.15611  0.016609698  0.015538585           64 
 4161000   0.59089705   -7.6026205    829.97401  0.016622086  0.015533694           45 
 4162000    0.5787694    -7.578462    828.28944  0.016584363  0.015528806           46 
 4163000   0.58379428   -7.5985894    828.19912  0.016578572  0.015523913           34 
 4164000   0.58666861   -7.5980866    830.67009  0.016624041  0.015519019           30 
 4165000    0.5867687   -7.6036884    831.10446  0.016628741  0.015514131           24 
 4166000   0.59527483   -7.5933608    830.17415   0.01660614  0.015509242           86 
 4167000   0.56865275   -7.5858323    828.49041  0.016568483  0.015504358           83 
 4168000   0.57875796   -7.5850113    830.34398  0.016601567  0.015499475           33 
 4169000    0.5824659   -7.5996602    828.85568  0.016567836  0.015494593           40 
 4170000   0.58845663   -7.5925563    830.41922  0.016595108  0.015489715           89 
 4171000   0.58988893   -7.6094363     829.9655  0.016582065  0.015484841           90 
 4172000   0.59451344   -7.5869636    829.70105  0.016572808  0.015479969           47 
 4173000   0.58371431   -7.6108237    830.87482  0.016592276  0.015475096           56 
 4174000   0.58373273   -7.5888089    830.39112  0.016578644  0.015470222           31 
 4175000   0.58751384   -7.5982053    829.61602  0.016559202  0.015465356           47 
 4176000   0.57300539   -7.6002754    828.70974  0.016537152  0.015460495           33 
 4177000   0.59045051   -7.6002366    830.03794  0.016559691  0.015455634           21 
 4178000   0.57709751   -7.5940582    831.06762  0.016576265  0.015450788           43 
 4179000   0.57120072   -7.5876163    830.17689  0.016554536  0.015445936           37 
 4180000   0.58036473   -7.5766717    828.89251   0.01652497  0.015441088           65 
 4181000   0.57031004   -7.5772911    828.94479   0.01652206  0.015436237           74 
 4182000   0.57664891   -7.6006095    830.67204  0.016552527  0.015431389           28 
 4183000   0.56452347   -7.5878471    830.41625  0.016543475  0.015426544           66 
 4184000   0.58250849   -7.5971311     831.1561  0.016554256    0.0154217           40 
 4185000   0.57572341   -7.5871761    830.77835  0.016542779  0.015416851           77 
 4186000   0.58957297   -7.6096722    831.17588  0.016546741  0.015412005           49 
 4187000   0.57993726   -7.5809356    830.35778  0.016526506  0.015407157           39 
 4188000   0.59217875   -7.5691618    829.39948  0.016503492  0.015402312           51 
 4189000   0.57773285   -7.6195182    830.42143  0.016519882  0.015397464           55 
 4190000    0.5878313   -7.5757098    828.87232   0.01648513  0.015392619           89 
 4191000   0.57806006   -7.5680714    831.39512  0.016531359  0.015387778           43 
 4192000    0.5697576   -7.6005399    830.90113  0.016517596  0.015382944           82 
 4193000   0.57842173   -7.6007688    829.21269    0.0164801  0.015378105           86 
 4194000   0.58400888   -7.5846969    831.52392  0.016522093   0.01537327           67 
 4195000   0.59134528   -7.6041379      830.269  0.016493226  0.015368444           80 
 4196000   0.57258576   -7.5975728    829.58779  0.016475766  0.015363609           53 
 4197000   0.59108108   -7.5929671    829.62249   0.01647253  0.015358773           72 
 4198000   0.58164375   -7.6006686    829.80999  0.016472328  0.015353937           76 
 4199000   0.58394722    -7.589056    829.73223  0.016466862  0.015349103          102 
 4200000   0.58239253   -7.6120243    828.96731  0.016447764  0.015344275          144 
 4201000   0.57118156   -7.6132989    829.87969  0.016461947  0.015339447          150 
 4202000   0.57898656   -7.5912624    829.26251   0.01644579  0.015334623          125 
 4203000   0.58610967   -7.6003851    829.47007  0.016445992  0.015329812           67 
 4204000   0.57661003   -7.5899585    830.09287  0.016454426  0.015324985           95 
 4205000    0.5755621   -7.6163878    829.59251  0.016440597  0.015320167           78 
 4206000   0.58708678   -7.6117966    831.41233  0.016472744  0.015315344           98 
 4207000   0.59374358   -7.5913396    830.57431  0.016452229  0.015310539           67 
 4208000   0.58397054   -7.5890045    829.86182  0.016434209  0.015305728          106 
 4209000   0.58619357   -7.6114286    829.04763  0.016414185  0.015300917           94 
 4210000   0.58145975   -7.6014323    829.75226  0.016424233  0.015296114           44 
 4211000   0.57465716   -7.5969127     830.2049   0.01642929  0.015291307           25 
 4212000   0.56262516   -7.6159726    829.77429   0.01641687  0.015286505           28 
 4213000   0.58069362   -7.5875364    828.01991  0.016378272  0.015281704           67 
 4214000   0.57077375   -7.6058845    827.09439  0.016356083    0.0152769           27 
 4215000   0.58153651   -7.6058752    829.85576  0.016406796  0.015272095           30 
 4216000    0.5614434   -7.6000055    829.65384  0.016398914  0.015267291           38 
 4217000   0.56877804    -7.591262    829.35974  0.016389213   0.01526249           54 
 4218000   0.57791686   -7.5825138    828.99081  0.016378039  0.015257701           34 
 4219000   0.57694136   -7.6021684    829.09075  0.016376131  0.015252902           50 
 4220000   0.57921395   -7.6086603    830.10008  0.016392182  0.015248104           53 
 4221000    0.5838194   -7.5882603    829.49881  0.016376428  0.015243307           68 
 4222000   0.56643017   -7.6146085    830.26674  0.016387706  0.015238513           52 
 4223000   0.57922218   -7.6048423    829.60457  0.016370759  0.015233721           50 
 4224000   0.57648671   -7.6054227    830.91406  0.016392717  0.015228927           39 
 4225000   0.57573319   -7.5920295    829.79945  0.016366853  0.015224142           28 
 4226000   0.57862497   -7.5826539    828.85179  0.016344293  0.015219362           20 
 4227000   0.58707135   -7.6127679    829.71523  0.016357449  0.015214574           70 
 4228000   0.57844963   -7.6069498    829.27653  0.016344933  0.015209792           25 
 4229000   0.57740957   -7.6248809    830.56599  0.016366477  0.015205011           59 
 4230000   0.57515863   -7.6157589    831.01624  0.016371478  0.015200232           28 
 4231000   0.57495754   -7.5954334    829.33497  0.016334495  0.015195456           28 
 4232000   0.56281324     -7.60832      829.289   0.01632973   0.01519068           83 
 4233000   0.57618127   -7.6149758    829.12684   0.01632268    0.0151859           23 
 4234000   0.58930611    -7.598636     829.4108  0.016324413  0.015181125           20 
 4235000   0.57418309   -7.6004973     829.0893  0.016314232  0.015176343           23 
 4236000   0.57858533   -7.6238504    829.19356  0.016312432  0.015171571           92 
 4237000   0.57629971   -7.5861814    829.91343  0.016322741  0.015166799           53 
 4238000   0.57638832   -7.6030441    830.29574  0.016326407  0.015162031           41 
 4239000   0.56826938   -7.6095978    829.04079  0.016297885  0.015157257           37 
 4240000   0.56816355   -7.6206604    829.72659   0.01630752   0.01515249           51 
 4241000   0.56860201   -7.6375006    829.86692  0.016306432  0.015147721           36 
 4242000   0.55908903   -7.6136168     830.0848  0.016306868  0.015142948           31 
 4243000   0.56187614   -7.6240245    829.58223  0.016293154  0.015138185           25 
 4244000   0.57922766   -7.6034967    828.98342  0.016277557  0.015133417           38 
 4245000   0.56554114   -7.6276538    829.66103  0.016287025  0.015128659           25 
 4246000   0.57195268   -7.6230737    829.22845  0.016274699  0.015123898           17 
 4247000   0.55468762   -7.6231189    829.88856  0.016283819  0.015119149           17 
 4248000   0.57638774   -7.6137179    829.01184  0.016262787  0.015114402           18 
 4249000   0.58390997   -7.6199575    829.44846  0.016267523  0.015109652           13 
 4250000   0.56818996   -7.5946462    831.04802  0.016295059  0.015104908           14 
 4251000   0.57270176   -7.5941478    830.55119  0.016281487  0.015100173           23 
 4252000   0.56600773     -7.59356    830.58081  0.016278238  0.015095435           18 
 4253000   0.57865012   -7.6277096    830.05522  0.016264112  0.015090697           12 
 4254000   0.55821297   -7.6110371    828.98928  0.016239408  0.015085963           11 
 4255000   0.57188213   -7.6345693    830.71322  0.016269354  0.015081229           21 
 4256000   0.57128754   -7.6149784    829.16612  0.016235239  0.015076495           19 
 4257000   0.57220837   -7.6192504    829.62224  0.016240354  0.015071759           39 
 4258000   0.55933517   -7.6214386    829.66316  0.016237341  0.015067036           32 
 4259000   0.57554521   -7.6149342    829.27481   0.01622593  0.015062314           36 
 4260000     0.591944   -7.6197517    830.41548  0.016244434   0.01505759           25 
 4261000   0.58037996   -7.6234459       829.82  0.016228976  0.015052868           27 
 4262000   0.57768644   -7.6129784    830.17067  0.016232025  0.015048146           25 
 4263000   0.57174835   -7.6255895    830.57459  0.016236113  0.015043425           21 
 4264000   0.56749105   -7.6276752    830.27117  0.016226375  0.015038701           19 
 4265000   0.57704239   -7.6199715      829.948  0.016216256  0.015033978           32 
 4266000   0.57650248   -7.6103115    829.08042  0.016195507  0.015029255           24 
 4267000   0.56826042   -7.6291916    830.08096  0.016211252  0.015024535           24 
 4268000    0.5692491   -7.6228837    830.82062  0.016221896  0.015019824           17 
 4269000   0.56178891   -7.6058413    830.37616   0.01620942  0.015015113           19 
 4270000   0.56096742   -7.6352422      830.182  0.016201835  0.015010405           31 
 4271000   0.57033463   -7.6195378    829.82621  0.016191099  0.015005697           29 
 4272000   0.56767244   -7.6110811    830.56478  0.016201716  0.015000989           20 
 4273000   0.56183484   -7.6242442    829.00022  0.016167412  0.014996287           38 
 4274000   0.58007231   -7.6420101    830.00641  0.016183248   0.01499158           43 
 4275000   0.56137015   -7.6263328    830.25869   0.01618438  0.014986877           28 
 4276000   0.57422209   -7.6300323    831.19942  0.016198928   0.01498217           28 
 4277000   0.56051043   -7.6381638    828.45102  0.016141591  0.014977462           21 
 4278000   0.57444583   -7.6275845    830.34744  0.016174759  0.014972753           32 
 4279000   0.55989163   -7.6327637    830.28825  0.016169827  0.014968051           26 
 4280000   0.57424386   -7.6203062    829.95671  0.016159593  0.014963351           64 
 4281000   0.54883394   -7.6232171    829.68486  0.016150527  0.014958656           65 
 4282000   0.56158777   -7.6316055    831.03917  0.016173112  0.014953963           43 
 4283000   0.55181212   -7.6351403    829.79543  0.016145136  0.014949277           57 
 4284000   0.57067931   -7.6390869    828.29246  0.016112132  0.014944588           35 
 4285000   0.56247701   -7.6224599    829.52651  0.016132371  0.014939895           60 
 4286000   0.57173251    -7.625224    830.56841  0.016148865  0.014935209           40 
 4287000   0.56652605   -7.6030309    829.81806  0.016130512  0.014930529           22 
 4288000   0.56501612   -7.6284905    829.21801  0.016115089  0.014925843           39 
 4289000   0.55186785    -7.626191    829.33104  0.016113528  0.014921157           22 
 4290000   0.56328053   -7.6192572     829.5916  0.016114833  0.014916476           41 
 4291000   0.55791413    -7.638397    830.01477  0.016119296  0.014911792           29 
 4292000   0.56187638   -7.6216869    829.68984  0.016109231  0.014907104           24 
 4293000   0.55868627   -7.6210689    830.17157   0.01611483  0.014902426           43 
 4294000   0.56337296   -7.6060623    828.94348  0.016087244  0.014897746           49 
 4295000   0.56515425   -7.6468781    828.76823  0.016080098  0.014893066           38 
 4296000   0.56925265   -7.6298498    828.49982  0.016071148  0.014888391           45 
 4297000   0.56773446   -7.6319481    828.49722  0.016067358  0.014883714           74 
 4298000   0.57307775    -7.634775    829.15066  0.016076288  0.014879033           25 
 4299000   0.56254619   -7.6401687    829.57176  0.016080712  0.014874353           66 
 4300000   0.57800324   -7.6315066    830.64698   0.01609781  0.014869672           42 
 4301000    0.5684283   -7.6466011    828.71556  0.016056645  0.014864997           39 
 4302000   0.55550875    -7.649597    829.73404  0.016072641  0.014860321           29 
 4303000   0.56505524   -7.6460376    830.07559  0.016075521   0.01485564           52 
 4304000   0.55690748   -7.6374166     828.1619  0.016034733  0.014850963           43 
 4305000   0.56887789   -7.6445116    829.28455   0.01605274  0.014846287           35 
 4306000    0.5615389   -7.6408641     831.3835  0.016089633  0.014841612           36 
 4307000   0.55480751    -7.643097    828.44367  0.016029016   0.01483694           41 
 4308000   0.57085144   -7.6306488     829.0475  0.016036976  0.014832271           29 
 4309000   0.54179426   -7.6474115      828.928  0.016030943  0.014827603           43 
 4310000   0.55548184   -7.6326661    828.38963  0.016016814  0.014822934           85 
 4311000   0.57056647   -7.6534901    828.26332  0.016010657  0.014818273           40 
 4312000   0.55409386   -7.6392895    828.58993  0.016013256  0.014813612           64 
 4313000   0.55424828   -7.6265008    828.62229  0.016010169  0.014808954           40 
 4314000   0.58432839   -7.6305638    829.24045  0.016018398  0.014804294           58 
 4315000   0.56006335   -7.6301989    827.33018  0.015977794  0.014799633           35 
 4316000   0.55731836    -7.634494    827.98002  0.015986639  0.014794976           47 
 4317000   0.54814086     -7.63924    828.50503  0.015993071  0.014790319           37 
 4318000   0.57329564   -7.6162531    828.95672  0.015998084  0.014785671           26 
 4319000    0.5504595   -7.6495415    829.82777  0.016011187   0.01478102           43 
 4320000   0.56168422   -7.6472881    829.84734  0.016007858   0.01477637           52 
 4321000    0.5582495   -7.6130768     829.9698  0.016006515  0.014771725           56 
 4322000   0.56118207   -7.6140782    828.28956  0.015970414  0.014767081           46 
 4323000    0.5605804   -7.6336775    829.49153   0.01598989  0.014762444           37 
 4324000   0.55219949   -7.6286398    830.13213  0.015998538  0.014757799           54 
 4325000   0.55932717   -7.6229178     829.3765  0.015980279  0.014753154           48 
 4326000    0.5585136   -7.6131758    828.85883  0.015966613  0.014748514           52 
 4327000   0.55874461   -7.6063663    829.29952  0.015971411  0.014743879           59 
 4328000   0.55330161   -7.6138108    828.09184  0.015944467  0.014739248           76 
 4329000   0.54488289   -7.6428316    828.17167  0.015942321  0.014734609           60 
 4330000   0.56705349    -7.646486    829.55183  0.015965201  0.014729972           35 
 4331000    0.5747104   -7.6452751    828.60967  0.015943386  0.014725338           64 
 4332000   0.55112523   -7.6043349    829.19542  0.015950974  0.014720705           38 
 4333000   0.57219702   -7.6396561      828.575   0.01593536  0.014716072           45 
 4334000   0.56029452   -7.6553559     828.6577  0.015933274  0.014711444           85 
 4335000   0.55207696   -7.6303996    829.26558  0.015941284  0.014706817           43 
 4336000   0.55710028   -7.6234725    829.30382  0.015938342   0.01470219           60 
 4337000   0.56306244   -7.6377755    828.13035  0.015912119  0.014697562           80 
 4338000    0.5575766    -7.651701    829.51781  0.015935105  0.014692937           56 
 4339000   0.55542691   -7.6562119    828.42246  0.015910395  0.014688311           37 
 4340000   0.56123721   -7.6335552    828.73782  0.015912785   0.01468369           60 
 4341000   0.55492246   -7.6397687    828.89071  0.015912054  0.014679073           56 
 4342000   0.56190605   -7.6472244    829.00756  0.015910632  0.014674455           26 
 4343000   0.56213146    -7.631315    829.80999  0.015922365  0.014669841           24 
 4344000   0.54240204   -7.6542871    828.67038  0.015896838  0.014665225           34 
 4345000   0.55044218     -7.64369    827.98664  0.015880066  0.014660607           62 
 4346000   0.55717266   -7.6401807    827.98409  0.015876363  0.014655989           24 
 4347000    0.5545504    -7.651563      828.846  0.015889234  0.014651373           31 
 4348000    0.5549484   -7.6604738    828.27853  0.015874703  0.014646759           41 
 4349000   0.56765177   -7.6450737    828.31223  0.015871699  0.014642147           35 
 4350000   0.55932839   -7.6660812     827.1269  0.015845343  0.014637533           34 
 4351000   0.56679671   -7.6445088    828.88979  0.015875465  0.014632924           46 
 4352000   0.55130321   -7.6299526    830.33301  0.015899453  0.014628321           34 
 4353000    0.5527485   -7.6310733    828.10485  0.015853144  0.014623717           38 
 4354000   0.55840767   -7.6550881    828.16293  0.015850615  0.014619117           84 
 4355000   0.55942712   -7.6675211    828.90781  0.015861229  0.014614513           70 
 4356000   0.54396152   -7.6400997    828.86261  0.015856723  0.014609906           42 
 4357000   0.55605178   -7.6629698    827.73724  0.015831559    0.0146053           56 
 4358000   0.55743889   -7.6552107    827.98961  0.015832752   0.01460069           49 
 4359000    0.5620926   -7.6678083      827.494  0.015819645  0.014596084           67 
 4360000   0.54208623   -7.6558542    828.03888  0.015826431  0.014591479           38 
 4361000   0.55220274   -7.6381685    827.84425  0.015819083  0.014586872           71 
 4362000    0.5425769   -7.6377168    829.11538  0.015839741  0.014582266           47 
 4363000   0.55988558   -7.6493213    828.26582  0.015819884  0.014577658           52 
 4364000   0.55366215   -7.6644791    828.36809  0.015818211  0.014573056           65 
 4365000   0.55504545   -7.6471852    828.17713  0.015810942  0.014568459           50 
 4366000    0.5576316   -7.6360701    829.15152  0.015825918  0.014563859           50 
 4367000    0.5657388   -7.6569059    827.49243  0.015790635  0.014559261           79 
 4368000   0.54451727   -7.6581293    827.02208  0.015778046  0.014554663           73 
 4369000   0.55357674   -7.6712194    827.01118  0.015774227  0.014550063           30 
 4370000   0.54710184    -7.650861      827.668  0.015783143  0.014545466           44 
 4371000   0.53817898   -7.6552896    827.64458  0.015779085  0.014540868           76 
 4372000   0.56118228   -7.6842412     828.8839  0.015799098  0.014536269           40 
 4373000   0.55060942   -7.6730637    827.64331  0.015771844  0.014531665           51 
 4374000   0.54863844   -7.6595402    827.32344  0.015762144  0.014527064           53 
 4375000   0.55416657   -7.6738243    828.15653   0.01577441  0.014522468           43 
 4376000   0.55569043   -7.6596134    827.33866   0.01575523  0.014517877           65 
 4377000   0.56505811   -7.6453758    827.71736  0.015758841  0.014513284           54 
 4378000   0.54975874   -7.6527707    827.17869  0.015744988  0.014508693           55 
 4379000   0.54222835   -7.6532106    827.21297  0.015742045    0.0145041           56 
 4380000   0.55016736   -7.6579943    826.29605  0.015721006  0.014499508           52 
 4381000   0.55355059   -7.6633406    827.34938  0.015737453  0.014494916           77 
 4382000    0.5619197    -7.681919    827.33282  0.015733547  0.014490322           54 
 4383000    0.5372287    -7.665603    827.49302  0.015733003  0.014485725           42 
 4384000   0.54290045   -7.6349246    828.41315  0.015746904  0.014481133           43 
 4385000   0.54539586   -7.6626898    826.07265  0.015698834  0.014476544           65 
 4386000   0.55171402   -7.6718813    827.58758  0.015724038  0.014471958           32 
 4387000   0.55192073    -7.656977    826.99932   0.01570928  0.014467373           63 
 4388000   0.55573727   -7.6411256    827.70957  0.015719188  0.014462795           49 
 4389000   0.53797431   -7.6634316    827.31753  0.015708163  0.014458216           49 
 4390000   0.55393342   -7.6568195    828.13752   0.01572015   0.01445364           75 
 4391000   0.54056506   -7.6623916    827.51783   0.01570481  0.014449058           46 
 4392000   0.55710713   -7.6543917    827.31299  0.015697347  0.014444478           53 
 4393000   0.54804959   -7.6777377    826.44875   0.01567738  0.014439897           51 
 4394000   0.55581438   -7.6542591    826.04736  0.015666199  0.014435318           39 
 4395000   0.55513024   -7.6688048    826.63786  0.015673831  0.014430743           56 
 4396000    0.5445599   -7.6771294    827.52763  0.015687133  0.014426166           52 
 4397000     0.559178   -7.6699515    826.91485  0.015671951  0.014421595           36 
 4398000   0.54123447   -7.6602234    826.62987  0.015662988  0.014417022           50 
 4399000   0.54985933   -7.6653086    827.09937  0.015668322  0.014412451          108 
 4400000    0.5495094   -7.6577801    826.11302   0.01564608  0.014407885           45 
 4401000   0.54684324   -7.6811042    826.34247  0.015646869  0.014403322           57 
 4402000     0.548975    -7.679888    827.18758  0.015659314  0.014398759           47 
 4403000   0.54508175   -7.6621354    827.59789  0.015663523  0.014394197           50 
 4404000   0.55734137   -7.6785863    826.40953   0.01563748  0.014389633           37 
 4405000   0.56091681   -7.6683704    827.25645  0.015649952  0.014385067           44 
 4406000   0.55533664   -7.6677428    826.94859  0.015640577  0.014380506           42 
 4407000   0.54502987   -7.6579833    827.91752   0.01565535  0.014375946           34 
 4408000   0.53838823   -7.6607294     825.8584  0.015612871  0.014371387           44 
 4409000   0.54831672   -7.6793235    826.53156  0.015622053  0.014366833           45 
 4410000   0.55591726   -7.6615294    828.06861  0.015647555  0.014362279           36 
 4411000   0.53797906   -7.6770079    826.36322  0.015611789  0.014357724           43 
 4412000   0.53662997   -7.6992261    825.04694  0.015583389  0.014353169           52 
 4413000   0.54477638   -7.6697457    826.22932  0.015602185  0.014348616           42 
 4414000   0.54779024    -7.677871    827.35862  0.015619971   0.01434407           42 
 4415000   0.53422668   -7.6596745    826.98902  0.015609457  0.014339527           66 
 4416000   0.54647766   -7.6590604    825.78233  0.015583151  0.014334983           53 
 4417000   0.54301426   -7.6616321    825.56683  0.015575557  0.014330439           73 
 4418000   0.53876236    -7.667815    826.74366  0.015594229  0.014325901           29 
 4419000   0.54782438   -7.6738416    826.20084  0.015580464  0.014321362           48 
 4420000   0.54596183   -7.6910305    827.34987  0.015598602  0.014316822           31 
 4421000   0.54007146   -7.6966605    825.95867  0.015568851  0.014312284           38 
 4422000   0.55259012   -7.6511503    825.22632  0.015551529  0.014307747           78 
 4423000   0.54857749   -7.6521454    826.65616  0.015574952  0.014303213           40 
 4424000   0.54518005   -7.6887159    825.49028   0.01554947  0.014298679           63 
 4425000     0.539438   -7.6807521    826.76989  0.015570054  0.014294147           33 
 4426000   0.53706626   -7.6744552    826.26008  0.015556938  0.014289617           47 
 4427000   0.54324126   -7.6698619    827.68337  0.015580215  0.014285083           42 
 4428000   0.53779921   -7.6742727    828.00071  0.015582669  0.014280554           36 
 4429000   0.54393929   -7.6593315    826.77992  0.015556181  0.014276024           57 
 4430000   0.52900861   -7.6706957    825.58317  0.015530157  0.014271493           79 
 4431000   0.54718642   -7.6681575    827.20625  0.015557178  0.014266965           57 
 4432000   0.53995852   -7.6756886    827.36669  0.015556684  0.014262445           54 
 4433000   0.54171477   -7.6688927    827.55615  0.015556736  0.014257926           47 
 4434000   0.54271586    -7.670987    825.52494  0.015515053  0.014253407           44 
 4435000   0.53911058   -7.6859161    826.32303  0.015526551  0.014248882           60 
 4436000   0.56128915   -7.6845914    826.95787  0.015534976  0.014244363           50 
 4437000   0.53999947   -7.6765878    826.31577  0.015519416  0.014239851           54 
 4438000   0.53231809   -7.6878469    827.51242  0.015538389  0.014235339           54 
 4439000   0.53738185   -7.7022741      827.098  0.015527108  0.014230826           79 
 4440000   0.52940639   -7.6747453     825.9297  0.015501683  0.014226321           56 
 4441000   0.55240866   -7.6847676    825.69798  0.015493845  0.014221807           53 
 4442000   0.55515698    -7.684986    826.42161  0.015503932  0.014217302           70 
 4443000   0.53189357   -7.6686387    825.02372  0.015474224  0.014212802           45 
 4444000   0.54998026   -7.6781408    826.60153  0.015500329  0.014208295           41 
 4445000   0.54820461     -7.67631    827.19306  0.015507931  0.014203798           40 
 4446000   0.56005277   -7.6720447    826.18747  0.015485595  0.014199302           50 
 4447000   0.54379812   -7.6769978    824.80785   0.01545626  0.014194805           57 
 4448000   0.53629126   -7.6934216    827.80499  0.015508936  0.014190309           64 
 4449000   0.53422908   -7.6596598    826.03656  0.015472326  0.014185816           42 
 4450000   0.55243827   -7.6765076    825.86984  0.015465727  0.014181321           54 
 4451000   0.53678114   -7.6714456    826.68604  0.015477534  0.014176827           56 
 4452000   0.53493584   -7.6695473    826.61557  0.015472738  0.014172335           52 
 4453000    0.5325285   -7.6734661    826.59982  0.015468969  0.014167843           54 
 4454000     0.536687   -7.6757918    825.44196  0.015443833  0.014163355           47 
 4455000   0.53337327   -7.6761047    826.61288  0.015462269  0.014158873           42 
 4456000    0.5450311   -7.6750157    826.47467  0.015456214  0.014154391           48 
 4457000   0.53317768   -7.6845781    825.50583  0.015434632  0.014149902           48 
 4458000    0.5368754   -7.6737773    827.25753  0.015463914  0.014145421           81 
 4459000   0.53470772   -7.6764487     825.0699  0.015419562  0.014140938           42 
 4460000   0.53334748   -7.6896603    827.11044  0.015454231  0.014136462           36 
 4461000   0.53366259   -7.6829857    827.54007  0.015458792  0.014131986           42 
 4462000   0.53559557   -7.6642074     826.3265  0.015432663  0.014127513           43 
 4463000   0.53185947   -7.6951516    824.99992  0.015404435  0.014123037           45 
 4464000   0.53513203   -7.6693261    824.74543  0.015396233  0.014118559           43 
 4465000   0.54864631    -7.684143    825.19002  0.015401083  0.014114089           39 
 4466000   0.52859361   -7.6856158    825.89668   0.01541082  0.014109616           58 
 4467000     0.543595   -7.6797799    826.10365  0.015411231  0.014105148           41 
 4468000   0.54449068    -7.664489    824.82848  0.015383999   0.01410068           41 
 4469000    0.5355972   -7.6905129    826.54239  0.015412516  0.014096216           37 
 4470000   0.53016963   -7.7052988    826.02789  0.015399476  0.014091751           54 
 4471000   0.53720699   -7.6781341    827.20103  0.015417897  0.014087287           32 
 4472000   0.53074105    -7.684666    826.49475  0.015401289  0.014082823           53 
 4473000   0.54323232   -7.7058505    826.11925   0.01539085  0.014078368           49 
 4474000   0.52443786   -7.6896246    825.63518  0.015378393   0.01407391           42 
 4475000   0.54391993    -7.694744    826.63218  0.015393523  0.014069454           63 
 4476000   0.53627104   -7.6982315    827.19502  0.015400563  0.014065001           38 
 4477000   0.53689252   -7.7032679    825.21885  0.015360339  0.014060548           82 
 4478000   0.53604711   -7.6939316    826.48621  0.015380494  0.014056096           78 
 4479000   0.53440293   -7.6782763    826.36468  0.015374799  0.014051647           48 
 4480000   0.54381465   -7.6937104    825.82247  0.015361281  0.014047196           79 
 4481000   0.53333352   -7.6843488    826.42302  0.015369021  0.014042749           78 
 4482000   0.53870588   -7.6945186    825.32446  0.015345167  0.014038298           39 
 4483000    0.5351157   -7.6729807    825.10732  0.015337708  0.014033855           43 
 4484000   0.54417724   -7.7039497    825.97205  0.015350358  0.014029411          118 
 4485000   0.53686799   -7.7063199    825.43475  0.015336952  0.014024967           77 
 4486000   0.52050629   -7.6862654    826.44766  0.015352349  0.014020525           63 
 4487000   0.53032922   -7.6922535    826.00979  0.015340795  0.014016087           45 
 4488000   0.53322375   -7.6768736    826.18252  0.015340584  0.014011651           56 
 4489000   0.52622536   -7.7018517    824.59556  0.015307707  0.014007216           59 
 4490000    0.5363265    -7.697398    825.41401  0.015319488  0.014002777           91 
 4491000   0.53255421   -7.6948817    825.70819  0.015321535  0.013998345           74 
 4492000   0.52810797   -7.7006304    826.24754   0.01532813   0.01399391           50 
 4493000   0.53879076   -7.6987845     825.7481  0.015315456  0.013989474           58 
 4494000   0.53988192   -7.6969135    826.45557  0.015325166  0.013985048           88 
 4495000   0.52991681   -7.6850164    826.71345  0.015326538  0.013980622           74 
 4496000   0.51324894   -7.6741824    825.98914  0.015309704  0.013976192           88 
 4497000   0.53555579   -7.6857618    825.03718  0.015288659  0.013971771           86 
 4498000   0.54194613   -7.6879813    825.34634  0.015290987  0.013967345           86 
 4499000   0.53184518   -7.6808384    824.80524  0.015277566  0.013962928          103 
 4500000    0.5339433   -7.6935765    825.80407  0.015292668  0.013958505           81 
 4501000   0.53058778   -7.7155537    826.35353  0.015299443   0.01395409           41 
 4502000   0.53703442   -7.7000146     825.6455  0.015282939  0.013949664           98 
 4503000   0.53853953   -7.6866841    824.97417  0.015267121  0.013945238           88 
 4504000   0.53024889   -7.6994103     825.9843  0.015282421  0.013940823           81 
 4505000   0.54005861   -7.6880564    825.67616  0.015273329  0.013936409           43 
 4506000   0.53474689   -7.7091294     825.3848  0.015264551  0.013931996           41 
 4507000   0.51654221   -7.6962022    824.63859  0.015247367   0.01392758           56 
 4508000   0.52084252   -7.6969217    826.19752  0.015272802  0.013923169           96 
 4509000   0.52867545   -7.7135177    825.31037  0.015253019  0.013918755           97 
 4510000   0.52995546   -7.7068443    826.00876  0.015262542   0.01391434           94 
 4511000   0.51720785   -7.6974461    826.38665  0.015266139  0.013909927           71 
 4512000    0.5243062    -7.707281    825.45345   0.01524552  0.013905516           89 
 4513000   0.52109113   -7.7014625     826.9647  0.015270048  0.013901112           78 
 4514000   0.53635262   -7.7028777    825.85547  0.015246187  0.013896712           50 
 4515000     0.536725   -7.7021271     824.8356  0.015223987  0.013892308           77 
 4516000   0.53124682   -7.7014083    826.88516  0.015258436  0.013887906           49 
 4517000   0.52515932   -7.7064006    826.03064  0.015239293  0.013883509           51 
 4518000   0.53140236   -7.7074599     825.2876  0.015222215  0.013879112           93 
 4519000   0.53056628   -7.7068306    824.73209  0.015208602  0.013874713           85 
 4520000   0.52331135   -7.7117551     824.9025  0.015208379  0.013870318          108 
 4521000   0.53779347   -7.6945461    824.55889  0.015198682  0.013865923           74 
 4522000   0.52970753   -7.7032304    824.60383  0.015196149  0.013861528           92 
 4523000   0.52395194   -7.7038302     825.2907  0.015205444  0.013857143           83 
 4524000   0.52958965   -7.7029424    824.70009  0.015191204  0.013852754           52 
 4525000   0.54315249   -7.7077186    825.63731  0.015205107  0.013848366          101 
 4526000   0.53241817    -7.710712    824.88343  0.015187867   0.01384398           59 
 4527000   0.51814396   -7.6937094    824.81528  0.015183257  0.013839596           49 
 4528000   0.53103572   -7.7006159    824.45458  0.015173266  0.013835216           56 
 4529000   0.52488985   -7.7130039    823.55607  0.015153383  0.013830837           95 
 4530000   0.52021848   -7.7087236    824.20451  0.015161967  0.013826447           43 
 4531000   0.52830958   -7.7057643    824.22761  0.015159045  0.013822064          115 
 4532000   0.52001397    -7.712612    825.48258  0.015178776  0.013817677          106 
 4533000   0.53217658   -7.6935038    823.89873  0.015146311  0.013813296           52 
 4534000   0.52864736   -7.7214096    825.13944  0.015165774  0.013808916          111 
 4535000   0.52621034   -7.7260099    824.75634   0.01515539  0.013804537           61 
 4536000   0.51964649    -7.697011    826.05032  0.015175822  0.013800152           57 
 4537000    0.5239436   -7.7061232    826.29535  0.015176977  0.013795778           52 
 4538000   0.53045694   -7.6996983    824.39236  0.015138687  0.013791402          112 
 4539000   0.52010809   -7.7070392    823.50891  0.015119133  0.013787028           67 
 4540000   0.53160894   -7.7054076    825.32038  0.015149052  0.013782655           82 
 4541000   0.52334231   -7.7030129    824.00966  0.015121663   0.01377828          122 
 4542000   0.53023239   -7.6897234    827.03174  0.015173781  0.013773907           97 
 4543000   0.53430254   -7.7012555    824.92036  0.015131711   0.01376954           87 
 4544000   0.53010029   -7.7196307    824.56855  0.015121929  0.013765172          123 
 4545000   0.53234409   -7.7058385    825.07522  0.015127892  0.013760805          101 
 4546000   0.52609293   -7.7146087    823.25861  0.015091264  0.013756436           97 
 4547000   0.53402297   -7.7053672    824.91281  0.015118261  0.013752071          118 
 4548000   0.53434829   -7.7169423    825.34479  0.015122852   0.01374771           87 
 4549000   0.52650679   -7.7110745     825.4038  0.015120609  0.013743351          104 
 4550000   0.52920758   -7.7106475    824.71794  0.015104724  0.013738988           74 
 4551000   0.51638405   -7.7092163    825.03804  0.015107266  0.013734631          115 
 4552000   0.52989779   -7.7102307    823.77936  0.015080905  0.013730268           71 
 4553000   0.52112963   -7.7110832    824.15658  0.015084497  0.013725917           75 
 4554000   0.51594431   -7.7201084    824.86735  0.015094191  0.013721559           52 
 4555000   0.52148848   -7.7067393    825.09474  0.015095037   0.01371721          143 
 4556000   0.51766279   -7.7196139    824.68705  0.015084267  0.013712861           64 
 4557000   0.52074088    -7.735598    825.22837  0.015090856  0.013708515          134 
 4558000   0.53133927   -7.7232335     825.4464  0.015091531  0.013704165           70 
 4559000    0.5251508   -7.7226051    824.09641  0.015063545  0.013699815          111 
 4560000   0.52588461   -7.7156852    823.34173   0.01504645  0.013695467          103 
 4561000   0.52286428   -7.7240522     824.3227  0.015061074  0.013691119          101 
 4562000   0.52251327   -7.7129108    823.87354  0.015049568  0.013686774           63 
 4563000   0.52128717   -7.7116052    824.79282  0.015063058  0.013682435          152 
 4564000   0.51201168   -7.7207705    824.47211  0.015053902  0.013678094           86 
 4565000    0.5171474   -7.7098055     823.3901  0.015030852  0.013673755           86 
 4566000   0.52398163   -7.7276139    824.68773  0.015051243   0.01366942           74 
 4567000   0.52953419   -7.7333019    823.96509  0.015034762  0.013665081          155 
 4568000   0.52483172   -7.7272938    825.65412  0.015062283  0.013660742          116 
 4569000   0.52316588   -7.7026837    825.13191  0.015049462  0.013656409           73 
 4570000    0.5251084   -7.7216595    825.29671  0.015049174  0.013652076          137 
 4571000   0.52527876   -7.7371092    823.06841  0.015005258  0.013647743           82 
 4572000   0.51823761   -7.7292377    824.88738   0.01503513  0.013643416           85 
 4573000    0.5200781   -7.7432948    824.33107  0.015021705  0.013639088           75 
 4574000   0.50638897   -7.7057284    824.43918   0.01502039  0.013634766           67 
 4575000   0.52187408   -7.7020349    824.22542  0.015013213  0.013630445          121 
 4576000   0.51603898   -7.7291603    824.71595  0.015018866  0.013626129          105 
 4577000   0.51452746   -7.7234217    825.05266  0.015021715  0.013621812          118 
 4578000   0.52737234   -7.7221797    825.21714  0.015021427  0.013617497          124 
 4579000   0.51680111   -7.7214998    824.28279  0.015001143  0.013613182          112 
 4580000    0.5225118   -7.7270405    824.76354  0.015006615   0.01360887           86 
 4581000   0.50988087   -7.7362654    825.55682  0.015017769  0.013604557           66 
 4582000   0.52157885   -7.7239095    824.40196  0.014993488  0.013600244          119 
 4583000    0.5288109   -7.7245208    824.47496  0.014991544  0.013595934          103 
 4584000   0.52156805   -7.7234861    824.12766   0.01498196  0.013591624          125 
 4585000   0.49913059   -7.7059064    823.32385  0.014964083  0.013587316          104 
 4586000   0.52453137   -7.7173302    823.51969  0.014964379  0.013583011          102 
 4587000   0.52978484   -7.7130553    824.94872  0.014987078  0.013578709          128 
 4588000   0.51497038   -7.7147552    824.21601  0.014970503  0.013574413           91 
 4589000   0.52135642   -7.7145027    823.76354  0.014959024  0.013570111          109 
 4590000   0.51736693   -7.7211775    823.51443  0.014951242  0.013565808           80 
 4591000   0.51396077   -7.7199555    822.81969  0.014935375   0.01356151           90 
 4592000   0.51720345   -7.7261987    824.44545  0.014961626  0.013557219           69 
 4593000   0.51587227   -7.7310528    824.38054  0.014957191  0.013552925          151 
 4594000   0.51722133    -7.731697    822.81094  0.014925463  0.013548636          210 
 4595000   0.51508571   -7.7266004    824.10918   0.01494576  0.013544343           79 
 4596000    0.5134848   -7.7322048    823.71653  0.014935388  0.013540053          136 
 4597000   0.52692058   -7.7231108    822.51747  0.014910403  0.013535761           66 
 4598000   0.52023444   -7.7267376    824.12567  0.014936307  0.013531471          100 
 4599000   0.51518939   -7.7424478    824.72746  0.014943964  0.013527185           97 
 4600000    0.5094993   -7.7192187    822.71009  0.014904168  0.013522897          141 
 4601000   0.51757412   -7.7278837    823.25705  0.014910836  0.013518618          162 
 4602000   0.51943932   -7.7331488    823.94468  0.014920047  0.013514345          112 
 4603000   0.51069961   -7.7434917    824.79281   0.01493216  0.013510068           78 
 4604000   0.50962381   -7.7376592    825.21586  0.014936574   0.01350579          151 
 4605000   0.52471603   -7.7291322    823.22105  0.014897232  0.013501516          157 
 4606000   0.51965305    -7.730102    824.11034  0.014910087  0.013497243           70 
 4607000      0.51599   -7.7289467    823.00978  0.014886943  0.013492974          205 
 4608000   0.52126744   -7.7310866      823.005  0.014883626  0.013488706          123 
 4609000   0.51964408   -7.7473561    824.29972  0.014903806  0.013484439          127 
 4610000   0.51734052   -7.7301329     823.2379  0.014881379  0.013480172          135 
 4611000   0.52116775   -7.7273534    824.06366  0.014893076  0.013475905           85 
 4612000    0.5205881   -7.7262836    823.39746  0.014877809  0.013471644          142 
 4613000   0.51099451   -7.7274639    823.69733  0.014880001  0.013467377          124 
 4614000   0.50726299   -7.7392938    824.32707   0.01488815  0.013463115          159 
 4615000   0.50630332   -7.7308088    823.56687  0.014871197  0.013458855           66 
 4616000   0.51531117   -7.7263668    824.75206  0.014889371  0.013454596           70 
 4617000   0.51570662   -7.7278998    822.18153   0.01483975  0.013450334          100 
 4618000   0.51715611   -7.7166931    823.48544  0.014860066  0.013446074           69 
 4619000   0.50666582   -7.7332542    823.92871  0.014864846  0.013441818          144 
 4620000   0.50495173   -7.7212303    823.41749  0.014852408  0.013437567          171 
 4621000   0.50860484   -7.7470737    824.38985  0.014866729  0.013433318          149 
 4622000   0.50569505   -7.7329057    823.03467  0.014839079  0.013429064           80 
 4623000   0.50717187   -7.7357079    824.49832  0.014862252  0.013424816           82 
 4624000   0.52508687   -7.7447805    823.46729  0.014840457   0.01342057          165 
 4625000   0.51974007    -7.731088     824.7155  0.014859739  0.013416327           60 
 4626000   0.51066272   -7.7402216    823.40188  0.014832863  0.013412081          133 
 4627000    0.5089555   -7.7553602    823.88238  0.014838311  0.013407839          156 
 4628000   0.50642135   -7.7491531    823.27365  0.014824144  0.013403599           97 
 4629000   0.49902604   -7.7333238    823.85332  0.014831377  0.013399357           85 
 4630000   0.50379934   -7.7525693    824.31768  0.014836531  0.013395112           80 
 4631000   0.51156282   -7.7346051    822.91734  0.014808129  0.013390875          135 
 4632000    0.5014248   -7.7273897     823.3016  0.014811845  0.013386636          172 
 4633000   0.50508567     -7.75691    823.23374  0.014807428  0.013382403           90 
 4634000   0.50543724   -7.7309259    824.17519  0.014821162  0.013378164           78 
 4635000   0.50502052   -7.7379005    824.08142  0.014816279   0.01337393           81 
 4636000   0.51615526   -7.7295974     823.3573  0.014800066  0.013369699           99 
 4637000   0.51532843   -7.7342948    823.38421  0.014797358  0.013365469           82 
 4638000   0.50975706   -7.7419927    823.82546  0.014802096  0.013361245           82 
 4639000   0.50250968   -7.7529786    823.85172  0.014799377  0.013357024           73 
 4640000   0.50764028   -7.7464906    823.98845  0.014798643  0.013352804           70 
 4641000   0.51178897   -7.7525237    824.76007   0.01480931  0.013348587          109 
 4642000   0.50365137   -7.7569454     823.9447  0.014791482   0.01334437           92 
 4643000   0.50361929   -7.7400428     823.3358  0.014777367  0.013340152           77 
 4644000   0.49387854   -7.7629406    824.64797  0.014797731  0.013335934           77 
 4645000   0.50189529   -7.7410383    824.47977  0.014791528   0.01333172          147 
 4646000   0.51309616   -7.7251051    823.86572   0.01477733  0.013327514          102 
 4647000    0.5071269   -7.7512213    824.95907  0.014793757  0.013323307           87 
 4648000    0.5129636    -7.740474    823.55903  0.014765473  0.013319099          103 
 4649000   0.51572119   -7.7429206     823.7795  0.014766249  0.013314888           89 
 4650000    0.5146353   -7.7373022    822.24337  0.014735544  0.013310682           92 
 4651000   0.50212524   -7.7488699    823.38678  0.014752863  0.013306474          144 
 4652000   0.51923265   -7.7430041    823.19273  0.014746215  0.013302268          132 
 4653000   0.52302261   -7.7556338    824.08313  0.014758993  0.013298067           76 
 4654000   0.50290595   -7.7509681     823.2746  0.014741344  0.013293865          151 
 4655000   0.51141141   -7.7335101    824.14932  0.014753837  0.013289664           71 
 4656000    0.5165243   -7.7557903    824.21569  0.014751856  0.013285466           83 
 4657000   0.51690232   -7.7520033    824.18825  0.014748197  0.013281267           74 
 4658000    0.5129582   -7.7586141    823.40717  0.014731057  0.013277074           97 
 4659000   0.51378776   -7.7357202    823.74038  0.014733855  0.013272879          102 
 4660000   0.50489591   -7.7484193    822.59017  0.014710125  0.013268689          194 
 4661000    0.5194945   -7.7339061    823.85639  0.014729607  0.013264499           68 
 4662000   0.49620961   -7.7362079    824.27587  0.014733946  0.013260314           69 
 4663000   0.50024668   -7.7439597    823.65649  0.014719717  0.013256125          140 
 4664000   0.51166504   -7.7418645    824.96048   0.01473986  0.013251937          111 
 4665000   0.50658627   -7.7370968    822.69819  0.014696288  0.013247754          143 
 4666000   0.50414334    -7.747979    823.60193  0.014709279   0.01324357          126 
 4667000   0.50589498   -7.7539156    825.23186  0.014735231  0.013239392           83 
 4668000   0.51438668   -7.7263942    824.33355  0.014716037  0.013235216          100 
 4669000   0.50092635   -7.7412385    823.30368  0.014694504  0.013231039           96 
 4670000   0.50321717   -7.7534096    823.96948  0.014703238  0.013226862          103 
 4671000   0.51765883   -7.7702276    824.54219  0.014710308   0.01322269           96 
 4672000   0.50296608   -7.7514753     822.7157  0.014674581  0.013218519           72 
 4673000   0.51063793   -7.7513021    823.34754  0.014682708  0.013214347           56 
 4674000   0.50476695   -7.7472948    823.69816  0.014685818  0.013210178          163 
 4675000    0.4902254   -7.7468519     823.3923  0.014677225  0.013206007          150 
 4676000   0.50142067   -7.7586583    822.25414  0.014653802  0.013201839          107 
 4677000   0.50317694   -7.7432399    822.81853  0.014660725   0.01319767          137 
 4678000   0.49323601   -7.7664034    823.33241  0.014666745  0.013193504          204 
 4679000   0.49639849   -7.7452607    824.24717  0.014679903  0.013189344           83 
 4680000   0.51860227   -7.7610975    822.47623  0.014645232   0.01318518          170 
 4681000   0.50849219   -7.7638471    824.58182  0.014679588  0.013181018          132 
 4682000   0.50340079     -7.74179     823.8544  0.014663506  0.013176859           72 
 4683000   0.50586196    -7.757192    822.69006  0.014639655  0.013172704           76 
 4684000   0.49912587   -7.7505373    824.33659  0.014665823  0.013168549          105 
 4685000   0.49752445   -7.7455597    823.72061  0.014651736    0.0131644           92 
 4686000   0.50362212   -7.7426075    824.04449  0.014654369  0.013160247          133 
 4687000   0.49845664   -7.7684497     823.4968  0.014641505  0.013156095          148 
 4688000   0.49942029   -7.7554648    822.41028  0.014619068   0.01315195          144 
 4689000   0.50191558   -7.7586903    823.24811   0.01463084  0.013147804           71 
 4690000   0.50873357   -7.7560498    824.46456  0.014649335  0.013143661          190 
 4691000   0.50765005   -7.7635464    823.26873  0.014624969   0.01313952           56 
 4692000   0.49650248   -7.7547036    823.21266  0.014620856  0.013135378          120 
 4693000   0.50039657   -7.7489855    823.60527  0.014624712   0.01313124           81 
 4694000   0.49496879   -7.7574915    823.55707   0.01462074  0.013127105           96 
 4695000   0.50422154    -7.763403    824.25196   0.01462996  0.013122967          162 
 4696000    0.4930883    -7.767532    822.19162  0.014590283  0.013118829           80 
 4697000   0.50085327   -7.7450548    823.21636  0.014605357  0.013114692          189 
 4698000   0.49907044   -7.7615421    823.93909  0.014615068  0.013110556           86 
 4699000   0.49995359    -7.740627    824.42519  0.014620579  0.013106425           81 
 4700000    0.4877114   -7.7474231    824.73449  0.014622952  0.013102298          137 
 4701000   0.50645225   -7.7632732    823.81805  0.014603596  0.013098169           70 
 4702000   0.49754086   -7.7554675    822.63906  0.014579595   0.01309404          150 
 4703000    0.4942662   -7.7480516    822.87507  0.014580677  0.013089915           86 
 4704000   0.51535723   -7.7609569    822.40239  0.014569203  0.013085788          182 
 4705000   0.49629906   -7.7640009    823.40421  0.014583851  0.013081662           82 
 4706000   0.49775261   -7.7510869    822.89541  0.014571742  0.013077538           87 
 4707000   0.50147982   -7.7632376    821.59857  0.014545687  0.013073411           88 
 4708000   0.50354627   -7.7620023     823.3701  0.014573954   0.01306929           76 
 4709000   0.49956696   -7.7639407     823.4122  0.014571604  0.013065169           85 
 4710000   0.49948748   -7.7681987    823.22844  0.014565259  0.013061045           94 
 4711000   0.49952825   -7.7683558    823.30792  0.014563573  0.013056926           79 
 4712000   0.49908446   -7.7564527    823.23001  0.014559105   0.01305281           71 
 4713000   0.48833294   -7.7661912    824.47272  0.014577989  0.013048695           76 
 4714000   0.48758745    -7.770465    822.35385  0.014537439  0.013044583          159 
 4715000   0.50179098   -7.7586867    823.26589  0.014550475  0.013040472          111 
 4716000   0.49954606   -7.7588419    823.62611  0.014553755   0.01303636          123 
 4717000    0.5004214   -7.7535851    821.76019  0.014517705   0.01303225          108 
 4718000   0.48797489   -7.7649376    822.75518  0.014532203  0.013028143           98 
 4719000    0.5115398   -7.7712552      823.867  0.014548757  0.013024035           79 
 4720000   0.49363496   -7.7643587    822.25246  0.014517169  0.013019927           91 
 4721000   0.48648333    -7.757206    822.45239  0.014517623  0.013015823          172 
 4722000   0.50375647    -7.739454    823.03143  0.014524768  0.013011723           68 
 4723000   0.48879049   -7.7580379    823.14782  0.014523746  0.013007625           86 
 4724000   0.49298308   -7.7410564     823.1464  0.014520646  0.013003524          177 
 4725000   0.49913491    -7.748142    825.08287  0.014551726  0.012999427           80 
 4726000   0.49930705   -7.7580865    822.59206  0.014504727  0.012995334           76 
 4727000   0.48986233   -7.7561311    821.20994  0.014477292  0.012991239           85 
 4728000   0.49731647    -7.776576    821.35372  0.014476765  0.012987141          134 
 4729000   0.49686995   -7.7576477     821.8173  0.014481872  0.012983048           83 
 4730000   0.49023378   -7.7809572    823.40294  0.014506747  0.012978955          160 
 4731000   0.50545267   -7.7695383    822.74532  0.014492097  0.012974866           81 
 4732000   0.49787066   -7.7548889     822.1259  0.014478126  0.012970777          127 
 4733000   0.50519941   -7.7687963     823.2643   0.01449511  0.012966692          136 
 4734000   0.50506538   -7.7543081    822.38064  0.014476494  0.012962605           78 
 4735000   0.48440056   -7.7741527    823.23537  0.014488479  0.012958517          159 
 4736000   0.49401641   -7.7708064    823.56364  0.014491196  0.012954432           69 
 4737000   0.49007851    -7.768659    823.12705  0.014480456  0.012950346           80 
 4738000    0.5032665   -7.7700456    822.05706  0.014458581  0.012946263           83 
 4739000   0.49274871   -7.7575967    821.91406  0.014453015  0.012942182          139 
 4740000   0.49790651      -7.7753    821.59322  0.014444325  0.012938102           84 
 4741000    0.4910403   -7.7618228    822.78238  0.014462181  0.012934022          130 
 4742000   0.50168443    -7.776807    822.53448  0.014454774  0.012929945           79 
 4743000   0.49129254   -7.7530905    822.43689  0.014450012  0.012925867           76 
 4744000   0.48957133    -7.774032    822.51076  0.014448264  0.012921797           96 
 4745000   0.50285117   -7.7722451    822.17325  0.014439291  0.012917722          195 
 4746000   0.48127667   -7.7705914    823.83465  0.014465421  0.012913651           72 
 4747000    0.4908566    -7.783542    823.15605  0.014450461  0.012909581          112 
 4748000   0.49474241   -7.7905805    821.57954  0.014419748  0.012905512          144 
 4749000   0.48669854   -7.7796327    823.52712  0.014450886  0.012901445          141 
 4750000   0.49456305    -7.769314    821.54292  0.014413034  0.012897384          119 
 4751000   0.50109502   -7.7899241    822.14506  0.014420562   0.01289332          126 
 4752000   0.49693096   -7.7716128     822.5721  0.014425016  0.012889261           82 
 4753000   0.47799495   -7.7715851    823.19141  0.014432839  0.012885202          139 
 4754000   0.48955552   -7.7749846    823.05677  0.014427443  0.012881143           76 
 4755000     0.491431   -7.7766503    823.38947   0.01443024  0.012877087          125 
 4756000   0.49857623   -7.7596145    822.36887  0.014409323  0.012873031           88 
 4757000   0.48792749   -7.7775298    822.64253  0.014411088  0.012868978           71 
 4758000   0.48134093   -7.7685068    821.15074  0.014381931  0.012864923          164 
 4759000   0.49416341   -7.7846487    822.09144  0.014395381  0.012860871           83 
 4760000   0.48393861   -7.7638269    822.66492  0.014402397  0.012856823          108 
 4761000   0.49196934   -7.7661913    822.40324  0.014394792  0.012852778          132 
 4762000   0.47904527   -7.7620236    822.34046   0.01439067  0.012848733          115 
 4763000   0.47486841   -7.7764435    822.60345   0.01439225  0.012844689          126 
 4764000   0.48321717   -7.7716895    821.78086   0.01437484  0.012840643          174 
 4765000   0.49500958   -7.7807335    822.59391  0.014386043  0.012836598          141 
 4766000   0.48979004   -7.7749681    823.98475  0.014407343  0.012832556          158 
 4767000   0.48551556   -7.7639175    822.27558  0.014374442  0.012828518           65 
 4768000   0.49253684     -7.76823    823.06388  0.014385205  0.012824483           80 
 4769000   0.48893868   -7.7713834     822.4034  0.014370647  0.012820444          137 
 4770000   0.49188082   -7.7635827    822.14661  0.014363148  0.012816408          137 
 4771000   0.48658841   -7.7702189    823.08425  0.014376515  0.012812372           70 
 4772000   0.48526883   -7.7723913    822.50357  0.014363362  0.012808339           60 
 4773000   0.49005742     -7.76777    821.34664  0.014340154  0.012804311           80 
 4774000   0.48565932   -7.7575348    821.61696  0.014341868  0.012800285           77 
 4775000   0.49106424   -7.7812863    821.83664  0.014342699   0.01279626           76 
 4776000   0.48743479   -7.7784022    822.82717  0.014356979  0.012792236          124 
 4777000   0.48884203   -7.7876897    821.37067  0.014328565   0.01278821          125 
 4778000   0.48183092   -7.7758208    822.99314  0.014353864  0.012784187          133 
 4779000     0.492052   -7.7828148    822.16738  0.014336461  0.012780167           78 
 4780000   0.47054105   -7.7977746    821.67676  0.014324909  0.012776147          131 
 4781000   0.48375092    -7.757511    821.39898  0.014317071  0.012772133          127 
 4782000   0.48885538   -7.7780213     821.9948   0.01432446  0.012768118           95 
 4783000   0.48316609    -7.781765    821.80135  0.014318094  0.012764106           96 
 4784000   0.48896878    -7.784512    822.68387  0.014330474  0.012760098          151 
 4785000   0.48130023   -7.7738985    822.60953  0.014326185  0.012756087          119 
 4786000   0.48314843   -7.7687656     821.9433  0.014311591  0.012752076          123 
 4787000   0.49301618   -7.7795243    821.90432  0.014307923  0.012748065           96 
 4788000   0.49809883   -7.7686059    822.74737  0.014319608  0.012744058          159 
 4789000   0.47228314   -7.7914359    822.31546  0.014309102  0.012740055          125 
 4790000    0.4838179    -7.791018    822.02925  0.014301135  0.012736049           91 
 4791000   0.48181451   -7.7915432    821.25434  0.014284672  0.012732047          140 
 4792000   0.49170459   -7.7805511    821.34118  0.014283201  0.012728046           96 
 4793000   0.48216003   -7.7760593    821.50579  0.014283083  0.012724047           76 
 4794000   0.47912581   -7.7964543    822.86173  0.014303674  0.012720053          107 
 4795000   0.48957408   -7.7927476    822.50044  0.014294411  0.012716058          139 
 4796000   0.48903582   -7.7733277    822.41318  0.014289915  0.012712064           64 
 4797000   0.48342066   -7.7733931    822.48263  0.014288142  0.012708071          115 
 4798000   0.47536903   -7.7847182    821.09038  0.014260983  0.012704079           80 
 4799000   0.48423292   -7.7796317    821.62735  0.014267336  0.012700087          119 
 4800000   0.47869076   -7.7916989    820.89646  0.014251675    0.0126961          130 
 4801000   0.48613808   -7.7873873       821.68  0.014262306  0.012692108          227 
 4802000   0.48531355   -7.7806401    821.78939  0.014261235  0.012688119           75 
 4803000   0.47926115   -7.7929139    822.55097  0.014271479  0.012684135           74 
 4804000   0.47701203   -7.7843957    822.11018  0.014260862  0.012680148          144 
 4805000   0.47677499   -7.7885488    821.78776  0.014252303  0.012676167           87 
 4806000    0.4855743   -7.7794486    822.84283  0.014267631  0.012672187          126 
 4807000   0.47751222   -7.7823281    821.96425  0.014249432  0.012668207           88 
 4808000    0.4826991   -7.7906268    822.22468  0.014250982  0.012664229           80 
 4809000   0.47224789   -7.7744417    822.23735  0.014248238  0.012660252           84 
 4810000    0.4890344   -7.7777584    821.16512    0.0142267  0.012656277          140 
 4811000    0.4745556   -7.7753207     822.2794  0.014243044  0.012652303          197 
 4812000   0.49150205   -7.7995038    822.14213  0.014237707  0.012648329           86 
 4813000   0.47145516   -7.7981549    821.31281  0.014220389  0.012644356          133 
 4814000   0.49440392   -7.7832284    822.45774  0.014237255  0.012640388           81 
 4815000   0.48853307   -7.7723257    822.94177  0.014242675  0.012636421          175 
 4816000   0.47675781   -7.7777666    821.85092  0.014220842  0.012632458           81 
 4817000   0.48661698   -7.7815005    821.08774  0.014204687  0.012628494          136 
 4818000   0.48505888   -7.7834997    823.00283  0.014234863  0.012624532          160 
 4819000   0.49446102   -7.7733761    821.52765  0.014206399  0.012620571           93 
 4820000   0.48930887   -7.7808608    822.35258  0.014217714  0.012616612          117 
 4821000   0.48371619   -7.7829754     821.4315  0.014198844  0.012612652           85 
 4822000   0.47910479   -7.7880307    822.09016  0.014207282  0.012608695           93 
 4823000   0.47607905   -7.7954426    820.42066   0.01417549  0.012604738          157 
 4824000   0.47693944   -7.7769051    822.38619  0.014206505  0.012600784           61 
 4825000   0.48079574   -7.7968666    821.10654   0.01418146  0.012596833           90 
 4826000   0.48024288   -7.7884467    823.07685  0.014212544  0.012592883           90 
 4827000   0.47937299   -7.7769907    821.84663  0.014188361  0.012588932          158 
 4828000   0.47856282   -7.7967319    821.00883  0.014170962  0.012584982           88 
 4829000     0.482115   -7.7804424    822.59013  0.014195315  0.012581036           83 
 4830000   0.47737685   -7.7962886    821.44671  0.014172649   0.01257709           87 
 4831000   0.47402012   -7.7961963    821.28847  0.014166985  0.012573152          102 
 4832000   0.47042427   -7.7870755     822.0459  0.014177116  0.012569212          158 
 4833000   0.47537044   -7.7815148    821.41346  0.014163278   0.01256527          156 
 4834000    0.4812066    -7.777954     820.5917  0.014146182  0.012561333          143 
 4835000   0.48023663   -7.7859829    821.42499  0.014157618  0.012557396          140 
 4836000   0.46557731   -7.7903722    821.94989  0.014163735  0.012553458           84 
 4837000   0.47389254   -7.7742226     823.2684  0.014183523  0.012549529          161 
 4838000    0.4793039   -7.7961633    822.54522  0.014168135  0.012545594          158 
 4839000   0.48441996   -7.7799407    822.44313  0.014163449  0.012541665          149 
 4840000   0.48646075   -7.7768488    820.31566  0.014123892  0.012537739          119 
 4841000   0.47834153   -7.7900281    821.62974  0.014143595  0.012533812          182 
 4842000   0.47605212   -7.8091448    824.28232  0.014186326  0.012529885           93 
 4843000   0.47671281   -7.8003209    821.85921  0.014141703   0.01252596          173 
 4844000   0.47212865   -7.8033374     823.0778  0.014159748  0.012522038          140 
 4845000   0.47370693   -7.8047235      821.233  0.014125095  0.012518115          140 
 4846000   0.48293179   -7.7943415     821.2961  0.014123265  0.012514194           84 
 4847000   0.47489502   -7.7968345    821.57602  0.014125164  0.012510276          156 
 4848000    0.4725893   -7.7778409    820.82166  0.014109283   0.01250636          148 
 4849000   0.47462563   -7.7780057    821.87326  0.014124446  0.012502446          140 
 4850000   0.46562893   -7.7950562    822.15895  0.014126442  0.012498531          126 
 4851000   0.47954962   -7.7838964    823.65945  0.014149307  0.012494621          169 
 4852000   0.46723303   -7.8043271    820.50042  0.014092134   0.01249071          134 
 4853000   0.46552464   -7.7860583    823.40064  0.014139032  0.012486801          124 
 4854000   0.47490156   -7.7882071    822.40388  0.014119006  0.012482894          133 
 4855000   0.47815053   -7.7979414    821.47406  0.014100138   0.01247899          163 
 4856000   0.48523924   -7.8001655    821.94793  0.014105367  0.012475087          152 
 4857000   0.46612279   -7.7869729    822.27605  0.014108092  0.012471186          197 
 4858000   0.47995192   -7.7858163    821.37271  0.014089692  0.012467289          149 
 4859000   0.46640911    -7.799836    822.09077  0.014099108  0.012463391          159 
 4860000   0.47402583   -7.8051696    821.21988  0.014081274  0.012459492           80 
 4861000    0.4715652   -7.7874665    821.30253  0.014079794  0.012455596           85 
 4862000   0.47787817   -7.7803721    822.35497  0.014094936  0.012451702          160 
 4863000   0.46809163   -7.8042851    819.65551   0.01404578  0.012447804          147 
 4864000   0.47590151   -7.7921368    821.61924  0.014076536   0.01244391           83 
 4865000   0.47024599   -7.8067085    821.17122  0.014065968  0.012440017          156 
 4866000   0.46464718   -7.7981358    821.11889  0.014062181  0.012436129          111 
 4867000   0.46814425   -7.7605861    820.24544  0.014044337  0.012432239          140 
 4868000   0.48039331   -7.7999945     822.1276  0.014073672  0.012428352           78 
 4869000   0.46697943   -7.7830783    820.51082   0.01404311  0.012424466          179 
 4870000   0.47883968   -7.7921768    821.62317   0.01405926  0.012420578          121 
 4871000   0.47302325   -7.8011303    821.87509  0.014060684  0.012416694          152 
 4872000   0.47388147   -7.8001047    822.35943  0.014066082  0.012412813          130 
 4873000   0.47640373   -7.7812767    821.39561  0.014046713  0.012408932          212 
 4874000   0.47070436   -7.8058365    822.75902  0.014067142  0.012405053          122 
 4875000   0.47325451   -7.8178014    822.82202  0.014065334  0.012401174           88 
 4876000   0.47428787   -7.7984944    820.73405  0.014026765  0.012397299          203 
 4877000   0.47751327   -7.7930483    821.54064  0.014037671  0.012393421          176 
 4878000    0.4776493    -7.797272    819.59953  0.014001632  0.012389543          158 
 4879000   0.47292731   -7.7963879     820.5239  0.014014551  0.012385669          183 
 4880000   0.48373256   -7.8002947    821.75145  0.014032641  0.012381798          200 
 4881000   0.45229074   -7.7956078    821.62439  0.014027597  0.012377928          154 
 4882000   0.46712689   -7.8014783     821.8124  0.014027933  0.012374059          172 
 4883000   0.46549269   -7.7935546    820.86707  0.014008927  0.012370192          106 
 4884000   0.47463404   -7.8141702    821.28081  0.014013118  0.012366327          136 
 4885000   0.47093401   -7.7999903    821.38592  0.014012042  0.012362461           92 
 4886000   0.46488586   -7.8074693    822.28362  0.014024485  0.012358596           79 
 4887000    0.4800198   -7.7987928    821.64887  0.014010792  0.012354734          192 
 4888000   0.46816303   -7.7939169    822.26657  0.014018456  0.012350873          187 
 4889000   0.46737597   -7.8124075    820.35067  0.013982932  0.012347011          193 
 4890000   0.47364489   -7.8017255    820.03951   0.01397477  0.012343152          267 
 4891000   0.46421084   -7.7897895    820.94686  0.013987372  0.012339292           89 
 4892000    0.4712898   -7.8104606    820.75109  0.013981178  0.012335434          205 
 4893000   0.46797425   -7.8219766    821.66999  0.013993971  0.012331579          258 
 4894000   0.46462759   -7.7827696    820.38027  0.013969151  0.012327727          147 
 4895000   0.46549709   -7.8135962    820.15317   0.01396243  0.012323876          188 
 4896000   0.45466886   -7.8096525    821.37113  0.013980309  0.012320022          207 
 4897000   0.48128143   -7.8029947    820.89412  0.013969337  0.012316171          254 
 4898000   0.47453274   -7.8100463    822.42876  0.013992595  0.012312324          167 
 4899000   0.46850087   -7.7987236    820.35877  0.013954528  0.012308477          168 
 4900000   0.46730546   -7.8051347    821.28918  0.013967503  0.012304632          208 
 4901000   0.46814319   -7.7986135    821.54044  0.013968925  0.012300788          180 
 4902000    0.4684555   -7.8104995    819.83294  0.013937049  0.012296945          132 
 4903000   0.47515048    -7.807323    820.87743  0.013951958  0.012293102          160 
 4904000   0.45710445   -7.8185657    821.01201    0.0139514   0.01228926          156 
 4905000   0.47346641   -7.8143127    821.87558  0.013963228  0.012285421          176 
 4906000   0.45846411   -7.8043117    819.61818  0.013922037   0.01228158          181 
 4907000   0.47337162   -7.8028985     820.5862   0.01393564  0.012277745          173 
 4908000   0.47670153   -7.8108372    821.14245  0.013942245  0.012273905          172 
 4909000   0.46618041   -7.8244965    822.46508  0.013961857  0.012270072          183 
 4910000    0.4649604   -7.8074949    820.83536  0.013931354  0.012266239          234 
 4911000   0.47226976   -7.8085319    820.57188  0.013924046  0.012262412          194 
 4912000   0.45967196   -7.8233247    821.52427  0.013937369  0.012258582          199 
 4913000   0.46379993   -7.8051447    819.90029  0.013906986  0.012254752           91 
 4914000   0.48157492   -7.8039154    820.98577  0.013922564  0.012250925           75 
 4915000   0.47090309   -7.7947603    820.18561  0.013906165    0.0122471          160 
 4916000   0.46663354   -7.8210081     820.5441  0.013909413  0.012243276          178 
 4917000   0.45770743   -7.8033949    821.16274  0.013917069  0.012239452          187 
 4918000   0.46507896   -7.8079827    821.59884  0.013921629  0.012235631          185 
 4919000   0.46820939   -7.8011274    819.62882  0.013885424  0.012231813          160 
 4920000   0.47424678   -7.8069087    820.61719  0.013899343  0.012227995          194 
 4921000   0.46771136   -7.8160336    820.12378  0.013888163  0.012224178          164 
 4922000   0.46836939   -7.8117479    821.94272  0.013916137  0.012220364          171 
 4923000   0.46459302   -7.7975628    820.56786  0.013890038   0.01221655          156 
 4924000   0.46383885   -7.8117273    820.90603   0.01389294  0.012212741          178 
 4925000   0.45598728   -7.7956952    820.83415  0.013888903  0.012208933           89 
 4926000   0.45622403   -7.7894744    819.75041   0.01386775  0.012205123          184 
 4927000   0.47676831   -7.8249719    820.58245  0.013879008  0.012201318          159 
 4928000    0.4618244   -7.8064715    819.95134  0.013865519   0.01219751           93 
 4929000   0.46747203   -7.8137929    820.95717  0.013879711  0.012193709          151 
 4930000   0.46766859   -7.8056561    820.00055  0.013860726  0.012189906          157 
 4931000   0.46536057   -7.8108811    820.50719  0.013866477  0.012186104          173 
 4932000    0.4575356   -7.8019795    821.68175  0.013883512   0.01218231          187 
 4933000   0.45997984   -7.8109606    819.96673  0.013851725  0.012178515          181 
 4934000   0.46003739   -7.8021009    821.02511  0.013866793  0.012174721          138 
 4935000   0.46059368   -7.8018722    820.32396  0.013852144  0.012170929          174 
 4936000    0.4655747    -7.817226    819.87002  0.013841674  0.012167138          123 
 4937000    0.4540125     -7.80573    819.76675  0.013837127  0.012163348          171 
 4938000   0.45842432   -7.8224203    819.98146  0.013837948   0.01215956          186 
 4939000    0.4585821   -7.8021335    821.53249  0.013861316  0.012155771           91 
 4940000   0.46142905    -7.822176    820.54258  0.013841811  0.012151983          106 
 4941000   0.45862283   -7.8115552     821.1096  0.013848573    0.0121482          138 
 4942000   0.46037368   -7.8102512    821.33074    0.0138495  0.012144417           98 
 4943000   0.45656116    -7.818788    820.28997  0.013829152  0.012140635          177 
 4944000   0.46412144   -7.8017097    820.58899  0.013831395  0.012136856          112 
 4945000   0.46651537   -7.8202377    820.13863  0.013821008  0.012133076           79 
 4946000   0.46363642   -7.8169355    820.74168  0.013828374  0.012129297          168 
 4947000   0.46628311   -7.8153093     821.8842  0.013844825   0.01212552          181 
 4948000   0.46464269    -7.814087    821.00637  0.013827243  0.012121744          205 
 4949000   0.46900338   -7.8101311     820.6082  0.013817744  0.012117967          196 
 4950000   0.45950512   -7.8090969    820.08505  0.013806146  0.012114195          134 
 4951000   0.45849544   -7.8168594    821.76728  0.013831672  0.012110421          217 
 4952000   0.45891097   -7.8107727    820.07137  0.013800339  0.012106649          171 
 4953000   0.46890039   -7.8095501    820.26977  0.013800891  0.012102879          170 
 4954000   0.47026647   -7.8117435    820.00486  0.013793649  0.012099111          131 
 4955000   0.44900341   -7.8085401    819.98832  0.013790587  0.012095346           85 
 4956000   0.46034813   -7.8180186    820.34727   0.01379384  0.012091582           81 
 4957000   0.45319431   -7.8086165    819.83546  0.013782453  0.012087819          145 
 4958000   0.45605141    -7.820804    819.92916  0.013781249  0.012084055          156 
 4959000   0.46510666   -7.8196618    820.94361  0.013795517  0.012080292          166 
 4960000   0.46124885   -7.8186874    819.60806  0.013770297   0.01207653          148 
 4961000   0.46031897   -7.8116749    820.04285  0.013774824  0.012072768          233 
 4962000   0.46002867   -7.8210298    821.11933  0.013790127   0.01206901          181 
 4963000   0.46334094   -7.8113041      820.801  0.013782003  0.012065253          166 
 4964000   0.46125636   -7.8240546    820.95772  0.013781858  0.012061501          140 
 4965000   0.45953414   -7.8254514    820.68876  0.013774568  0.012057745          140 
 4966000   0.45916566   -7.8121208    820.57807  0.013769937  0.012053989          143 
 4967000    0.4637865   -7.8173881    821.05629  0.013775188  0.012050242          122 
 4968000    0.4660205   -7.8046694    819.31069  0.013743134  0.012046492          160 
 4969000   0.46043248   -7.8305326    820.32968  0.013757458  0.012042746          143 
 4970000   0.45734955   -7.8186363    821.01655  0.013766206  0.012039001          160 
 4971000   0.45627613   -7.8169362    820.68648  0.013757904  0.012035256          155 
 4972000   0.45416021   -7.8209368    820.97963   0.01376005  0.012031509          183 
 4973000   0.46531317   -7.8162717    819.98986  0.013740697  0.012027765          178 
 4974000   0.44999002   -7.8254432    820.93685  0.013753801  0.012024024           80 
 4975000   0.46702681   -7.8298945    820.51692  0.013744002  0.012020285          108 
 4976000   0.45795057   -7.8291915    821.77056  0.013762235  0.012016546          181 
 4977000   0.46209599   -7.8237257    820.77271  0.013742762  0.012012808          163 
 4978000    0.4567809   -7.8290485    820.63673  0.013737725  0.012009072          116 
 4979000    0.4532191   -7.8290525    818.92213  0.013706269  0.012005333          187 
 4980000   0.46384115   -7.8162434    819.92581  0.013720311  0.012001598          178 
 4981000   0.46543452   -7.8240882    820.84207  0.013732886  0.011997865          145 
 4982000   0.44798766   -7.8240956     821.8455  0.013746914  0.011994133          130 
 4983000   0.45583146   -7.8299097    821.70434  0.013741794  0.011990402          149 
 4984000   0.46463453   -7.8212526     819.9813  0.013710228  0.011986673          172 
 4985000   0.45967621   -7.8156076    821.23693  0.013728468  0.011982944          172 
 4986000   0.46097354   -7.8470076    820.85835  0.013719387  0.011979219          111 
 4987000   0.44439027   -7.8284023     821.0847  0.013720418  0.011975494          129 
 4988000   0.46076683   -7.8269672    818.81126  0.013679686  0.011971769          194 
 4989000   0.45243855    -7.829775    819.46536  0.013687869   0.01196805          233 
 4990000   0.45710706   -7.8246596    820.83881  0.013708063  0.011964326          158 
 4991000   0.45109539   -7.8163159    819.87848  0.013689282   0.01196061          157 
 4992000   0.44061677   -7.8096703    820.70721  0.013700374  0.011956892          169 
 4993000    0.4599354   -7.8034051    819.89315  0.013684043  0.011953179          157 
 4994000   0.45074114   -7.8125626    820.36101   0.01368911  0.011949464          110 
 4995000     0.460227   -7.8317037    819.97023   0.01367985   0.01194575          205 
 4996000   0.44563937   -7.8273634    820.43901  0.013684931  0.011942035           94 
 4997000   0.46592678   -7.8187244    819.97284  0.013674419  0.011938321          194 
 4998000   0.44243488    -7.825132    820.77449  0.013685049  0.011934609           89 
 4999000   0.46276705   -7.8307789    820.71053  0.013681245    0.0119309          172 
 5000000   0.45060233   -7.8200301    820.93238  0.013682206  0.011927193           87 
 5001000   0.44839618   -7.8279722    819.42131  0.013654291  0.011923487          203 
 5002000   0.44623846   -7.8323639    820.71877  0.013673177  0.011919786          195 
 5003000   0.45190018   -7.8230691    819.97934  0.013658127  0.011916082          156 
 5004000   0.45552594    -7.818584    819.02279  0.013639468  0.011912381          166 
 5005000   0.45147604   -7.8321093     820.3627  0.013659053  0.011908682          173 
 5006000   0.45471762    -7.822081    819.08577  0.013635067  0.011904989          222 
 5007000   0.45260779   -7.8276074    820.24373  0.013651617  0.011901299          129 
 5008000   0.45031331   -7.8357158    819.96194  0.013644202  0.011897602          110 
 5009000   0.45565634   -7.8257991    820.67858    0.0136534  0.011893909          112 
 5010000   0.45781537   -7.8105842    820.13714  0.013641669  0.011890218          119 
 5011000   0.45222645   -7.8311917    820.27318  0.013641209  0.011886527          115 
 5012000   0.44843529   -7.8443314    819.21839   0.01362095  0.011882839          162 
Loop time of 10985.8 on 48 procs for 5000000 steps with 4000 atoms

Performance: 78646.975 tau/day, 455.133 timesteps/s
99.4% CPU use with 48 MPI tasks x no OpenMP threads

MPI task timing breakdown:
Section |  min time  |  avg time  |  max time  |%varavg| %total
---------------------------------------------------------------
Pair    | 686.07     | 724.82     | 754.11     |  60.6 |  6.60
Neigh   | 69.022     | 70.222     | 71.553     |   7.8 |  0.64
Comm    | 623.68     | 654.92     | 699.56     |  67.2 |  5.96
Output  | 13.562     | 13.566     | 13.645     |   0.3 |  0.12
Modify  | 9365.6     | 9400.3     | 9430.9     |  20.1 | 85.57
Other   |            | 122        |            |       |  1.11

Nlocal:        83.3333 ave          91 max          75 min
Histogram: 1 1 3 8 6 12 10 3 3 1
Nghost:        1835.48 ave        1869 max        1816 min
Histogram: 6 4 11 9 5 7 2 1 1 2
Neighs:        11310.9 ave       12718 max        9908 min
Histogram: 1 2 6 6 11 8 4 4 1 5
FullNghs:      22621.0 ave       25144 max       20172 min
Histogram: 1 0 7 7 11 8 7 4 2 1

Total # of neighbors = 1085810
Ave neighs/atom = 271.45250
Neighbor list builds = 269399
Dangerous builds = 2

#clear
#
#next RN
#
#jump SELF
Total wall time: 3:03:09
