
units lj                  # Use reduced LJ style units
atom_style atomic         # Uncharged point particles
atom_modify map hash      # Needed for indexing of clusters etc
                          # Used to be able to find where atoms are in relation to each other.

lattice fcc 1.0 spacing 1 1 1
Lattice spacing in x,y,z = 1.5874011 1.5874011 1.5874011
region box block 0 10 0 10 0 10 units lattice
create_box 2 box
Created orthogonal box = (0.0000000 0.0000000 0.0000000) to (15.874011 15.874011 15.874011)
  3 by 4 by 4 MPI processor grid
create_atoms 1 box
Created 4000 atoms
  using lattice units in orthogonal box = (0.0000000 0.0000000 0.0000000) to (15.874011 15.874011 15.874011)
  create_atoms CPU = 0.015 seconds
set type 1 type/fraction 2 0.76 78393
Setting atom values ...
  3028 settings made for type/fraction
mass 1 1.0
mass 2 1.0
pair_style lj/cut  3.5
pair_modify tail  yes
pair_coeff 1  1  1.0  1.0   # Intearaction between 1 and 1 set with epsilon = 1 and sigma = 1
pair_coeff 1  2  1.5  0.8
pair_coeff 2  2  0.5  0.88

write_data data.0
System init for write_data ...
Neighbor list info ...
  update every 1 steps, delay 10 steps, check yes
  max neighbors/atom: 2000, page size: 100000
  master list distance cutoff = 3.8
  ghost atom cutoff = 3.8
  binsize = 1.9, bins = 9 9 9
  1 neighbor lists, perpetual/occasional/extra = 1 0 0
  (1) pair lj/cut, perpetual
      attributes: half, newton on
      pair build: half/bin/atomonly/newton
      stencil: half/bin/3d
      bin: standard
WARNING: Not all mixed pair coeffs generated from mixing. Use write_data with 'pair ij' option to store all pair coeffs. (../write_data.cpp:312)


#############################
#   M E L T   S Y S T E M   #
#############################

velocity all create 2.4 2750902 mom yes dist gaussian # Assign velocities
                                                    # Temperature 2.4, random number seed, zero linear momentum
                                                                                # Gaussian distribution

timestep 0.002   # simulation timestep
thermo 1000       # output thermodynamic data every 1000 steps bf 100

# Define a fix  in this case with index 1 applied to all
# particles in the simulation. This fix is for simulations
# in the anisotropic NPT ensemble. Note that we use the MTK
# correction.
fix 1 all npt temp 2.4 2.4 0.1 iso 5.68 5.68 0.5 mtk yes tchain 5 pchain 5 # Use NPT ensemble
                                                                         # Set temperature and pressure and damping
                                                                         # Numbers of thermostats in chain and in barostat
run 10000          # run for 10000 steps
Per MPI rank memory allocation (min/avg/max) = 3.642 | 3.644 | 3.648 Mbytes
Step Temp E_pair E_mol TotEng Press Volume 
       0          2.4   -3.9031684            0  -0.30406845   -3.4881309         4000 
    1000    2.4331941   -3.4063394            0   0.24253925    5.7185901    3710.4341 
    2000    2.3726238   -3.4127297            0   0.14531627    5.7134257    3706.9241 
    3000    2.4160592   -3.3743732            0   0.24880962    5.5881875    3751.4922 
    4000    2.3894511   -3.4427866            0   0.14049391    5.6924869    3693.9532 
    5000    2.3559044   -3.3728771            0   0.16009606    5.4669156     3738.139 
    6000    2.4199416    -3.379518            0     0.249487     5.266731    3773.6105 
    7000    2.3616472   -3.3726721            0   0.16891313    5.7137874     3726.694 
    8000    2.3952353     -3.38466            0   0.20729469    5.4335034    3748.7255 
    9000    2.3993325   -3.3495035            0   0.24859548    5.8077582    3740.7149 
   10000    2.4691101   -3.4408262            0   0.26191307    5.4082607    3728.5961 
Loop time of 2.68543 on 48 procs for 10000 steps with 4000 atoms

Performance: 643471.652 tau/day, 3723.794 timesteps/s
99.6% CPU use with 48 MPI tasks x no OpenMP threads

MPI task timing breakdown:
Section |  min time  |  avg time  |  max time  |%varavg| %total
---------------------------------------------------------------
Pair    | 1.142      | 1.248      | 1.3629     |   4.1 | 46.47
Neigh   | 0.21288    | 0.22206    | 0.24019    |   1.3 |  8.27
Comm    | 0.80403    | 0.91617    | 1.0439     |   5.8 | 34.12
Output  | 0.00024933 | 0.00025386 | 0.00032347 |   0.0 |  0.01
Modify  | 0.25163    | 0.28353    | 0.31999    |   3.9 | 10.56
Other   |            | 0.01543    |            |       |  0.57

Nlocal:        83.3333 ave          92 max          77 min
Histogram: 3 3 13 5 5 2 9 4 2 2
Nghost:        1722.88 ave        1750 max        1691 min
Histogram: 4 0 6 6 6 3 6 10 3 4
Neighs:        10223.0 ave       11763 max        9069 min
Histogram: 3 7 6 8 7 6 4 4 2 1

Total # of neighbors = 490704
Ave neighs/atom = 122.67600
Neighbor list builds = 903
Dangerous builds = 179

# Equilibrate just above the melting temperature to avoid step fn in T

fix 1 all npt temp 1.25 1.25 0.1 iso 5.68 5.68 0.5 mtk yes tchain 5 pchain 5
run 2000
Per MPI rank memory allocation (min/avg/max) = 3.644 | 3.646 | 3.649 Mbytes
Step Temp E_pair E_mol TotEng Press Volume 
   10000    2.4691101   -3.4408262            0   0.26191307    5.4082607    3728.5961 
   11000    1.2538518   -5.0002603            0   -3.1199528    5.6095225    2850.9433 
   12000    1.2899105   -5.0219907            0   -3.0876087    5.5188401    2852.6143 
Loop time of 0.754039 on 48 procs for 2000 steps with 4000 atoms

Performance: 458331.683 tau/day, 2652.382 timesteps/s
99.3% CPU use with 48 MPI tasks x no OpenMP threads

MPI task timing breakdown:
Section |  min time  |  avg time  |  max time  |%varavg| %total
---------------------------------------------------------------
Pair    | 0.28956    | 0.31801    | 0.34906    |   2.3 | 42.17
Neigh   | 0.040815   | 0.043568   | 0.047499   |   0.6 |  5.78
Comm    | 0.27651    | 0.31959    | 0.36557    |   3.7 | 42.38
Output  | 5.5733e-05 | 5.7286e-05 | 7.8966e-05 |   0.0 |  0.01
Modify  | 0.052546   | 0.067956   | 0.080339   |   3.6 |  9.01
Other   |            | 0.004858   |            |       |  0.64

Nlocal:        83.3333 ave          90 max          74 min
Histogram: 1 0 2 5 4 12 15 3 2 4
Nghost:        2068.42 ave        2095 max        2045 min
Histogram: 2 3 3 10 10 6 8 3 1 2
Neighs:        13400.5 ave       14518 max       11825 min
Histogram: 2 0 4 5 5 4 8 14 5 1

Total # of neighbors = 643225
Ave neighs/atom = 160.80625
Neighbor list builds = 144
Dangerous builds = 14

#############################
# L I N E A R  Q U E N C H  #
#############################

# Define solid atoms. This closely follows ten Wolde  Ruiz-Montero and Frenkel  Faraday Discuss  1996  104  93-110
# Compute components of the per-atom q6 vector
compute q6 all orientorder/atom degrees 1 6 components 6 nnn NULL cutoff 1.3 # compute the Q6 parameter.
                                                                             # Use all neighbours within 1.3 unit cell.

# get number of connections
compute coord_number all coord/atom orientorder q6 0.5

# An atom is solid if it has 8 or more connections (of a possible 14)
variable is_solid atom c_coord_number>=8
group solid dynamic all var is_solid    # Must be dynamic to update
dynamic group solid defined

# do clustering
compute cluster solid cluster/atom 1.3 # Create a cluster where all atoms within are solid and max 1.3 units from another member

# define chunks one chunk per cluster
compute clus_chunks solid chunk/atom c_cluster nchunk every compress yes  # Says which atoms are in which chunk

# count the size of each chunk
compute size_chunks solid property/chunk clus_chunks count


# Find the maximum entry in the vector of chunk sizes
variable max_n equal max(c_size_chunks)


# Thermo style which includes this variable
# thermo_style custom step temp pe vol v_max_n

thermo ${N}  # Print the thermo information every 100 steps
thermo 1000  

# Reset the npt fix at a lower temperature (below freezing)
fix 1  all npt temp  ${temp} ${temp}  0.1  iso  5.68  5.68  0.5  mtk yes tchain  5  pchain  5
fix 1  all npt temp  0.45 ${temp}  0.1  iso  5.68  5.68  0.5  mtk yes tchain  5  pchain  5
fix 1  all npt temp  0.45 0.45  0.1  iso  5.68  5.68  0.5  mtk yes tchain  5  pchain  5

dump dmp2 all dcd ${N} traj.dcd
dump dmp2 all dcd 1000 traj.dcd


compute msd all msd com yes
variable twopoint equal c_msd[4]/6/(step*dt+1.0e-6)
fix 9 all vector 10 c_msd[4]
variable fit equal slope(f_9)/6/(10*dt)
thermo_style custom step temp pe c_msd[4] v_twopoint v_fit v_max_n

fix 1 all npt temp 1.25 ${temp} 0.1 iso 5.68 5.68 0.5 mtk yes tchain 5 pchain 5
fix 1 all npt temp 1.25 0.45 0.1 iso 5.68 5.68 0.5 mtk yes tchain 5 pchain 5
run 2000000 # 5000000  # Run for this many steps
Neighbor list info ...
  update every 1 steps, delay 10 steps, check yes
  max neighbors/atom: 2000, page size: 100000
  master list distance cutoff = 3.8
  ghost atom cutoff = 3.8
  binsize = 1.9, bins = 8 8 8
  4 neighbor lists, perpetual/occasional/extra = 1 3 0
  (1) pair lj/cut, perpetual
      attributes: half, newton on
      pair build: half/bin/atomonly/newton
      stencil: half/bin/3d
      bin: standard
  (2) compute orientorder/atom, occasional
      attributes: full, newton on
      pair build: full/bin/atomonly
      stencil: full/bin/3d
      bin: standard
  (3) compute coord/atom, occasional
      attributes: full, newton on
      pair build: full/bin/atomonly
      stencil: full/bin/3d
      bin: standard
  (4) compute cluster/atom, occasional
      attributes: full, newton on
      pair build: full/bin/atomonly
      stencil: full/bin/3d
      bin: standard
Per MPI rank memory allocation (min/avg/max) = 9.839 | 9.845 | 9.849 Mbytes
Step Temp PotEng c_msd[4] v_twopoint v_fit v_max_n 
   12000    1.2899105   -5.0219907 1.6954593e-30 1.1774022e-32 8.3333333e+20            5 
   13000    1.2344112   -5.0230729   0.74322524 0.0047642642  0.062926759            3 
   14000    1.2635092   -5.0640356    1.4727566  0.008766408  0.062597436            2 
   15000     1.233928   -5.0510008    2.2441785  0.012467658  0.061654256            5 
   16000    1.2381457    -4.953453    3.0823024  0.016053658  0.063623031            3 
   17000    1.2564253   -5.0438632    3.8596447  0.018919827  0.064691141            3 
   18000    1.2144228   -5.0287767    4.5423999  0.021029629  0.064293373            3 
   19000    1.2424782   -5.0252265    5.2337305  0.022954958  0.063475859            3 
   20000     1.256515   -5.0277576    5.9234852  0.024681188  0.062772418            2 
   21000    1.2630656   -5.0221144    6.7359117  0.026729808  0.062274511            4 
   22000    1.2552823   -5.0450396    7.4226581  0.028116128  0.061820424            2 
   23000    1.2508334    -5.045159    8.0664302  0.029226196  0.061610552            2 
   24000    1.2452154   -5.0222384     8.832466  0.030668284   0.06131234            1 
   25000    1.2445491   -5.0143156    9.5844343  0.031948114   0.06120845            2 
   26000    1.2384985    -5.016887    10.337178  0.033131981  0.061021608            2 
   27000    1.2591788     -5.04467    10.902602  0.033650005  0.060863593            2 
   28000    1.2230943    -5.032725    11.511217  0.034259575  0.060449154            2 
   29000    1.2467569   -5.0381097    12.222312  0.035121587  0.060014161            3 
   30000    1.2451691   -5.0387471    12.887871   0.03579964  0.059707401            3 
   31000    1.2484481   -5.0379953    13.584848  0.036518408  0.059422766            1 
   32000    1.2500219   -5.0665012    14.174561  0.036912919  0.059179316            4 
   33000    1.2402767   -5.0363487    14.905604  0.037640414  0.058958148            1 
   34000    1.2221799   -5.0286962    15.549727  0.038112075  0.058752389            1 
   35000    1.2448849   -5.0295793    16.380099  0.039000235    0.0586591            2 
   36000    1.2694861   -5.0412386    17.190066  0.039791818  0.058655325            2 
   37000    1.2506834   -5.0455348    17.856257  0.040216795  0.058659939            1 
   38000    1.2263936   -5.0557731    18.412502  0.040378293  0.058638647            4 
   39000    1.2505385   -5.0691528    19.066293  0.040739941   0.05856963            2 
   40000     1.241117   -5.0044816    19.895911  0.041449813  0.058497612            2 
   41000    1.2799482   -5.0678751    20.441169  0.041547092  0.058425129            3 
   42000    1.2513094   -5.0221742    21.386449  0.042433431   0.05838305            3 
   43000    1.2501359   -5.0237569    22.041108  0.042715325   0.05837346            3 
   44000    1.2303157   -5.0301425    22.591306  0.042786563  0.058381938            2 
   45000    1.2374066   -5.0389792    23.316638  0.043178958  0.058379438            3 
   46000    1.2156932   -5.0713386    23.995849   0.04347074  0.058365002            3 
   47000    1.2594428   -5.0561062    24.794559  0.043961983   0.05835045            4 
   48000    1.2678319   -5.0665356    25.301249  0.043925778  0.058333434            5 
   49000    1.2411824   -5.0297511    26.054679  0.044310678   0.05829869            3 
   50000    1.2503051   -5.0269047    26.670438  0.044450729  0.058240778            1 
   51000     1.221283   -5.0632519    27.265231  0.044551031  0.058162926            3 
   52000    1.2153043   -5.0381114    27.887324  0.044691224  0.058075907            3 
   53000    1.2521721    -5.050612    28.649817  0.045046882  0.057981328            3 
   54000    1.2368969   -5.0184827    29.320558  0.045247774  0.057934907            1 
   55000    1.2061948   -5.0527422    30.033225  0.045504887  0.057885067            2 
   56000    1.2402077   -5.0681064    30.538597  0.045444341  0.057803853            1 
   57000    1.2210091   -5.0664936    31.292097   0.04574868  0.057727536            3 
   58000    1.2361279    -5.013449    32.125784  0.046157735  0.057652067            1 
   59000    1.2389814   -5.0746072     32.34483  0.045684787  0.057558551            2 
   60000    1.2298255   -5.0243455    33.145958  0.046036052  0.057447106            3 
   61000    1.2374414   -5.0667157    33.418759  0.045654042  0.057308415            3 
   62000     1.226872   -5.1188956    34.036175  0.045747547  0.057162391            6 
   63000    1.2637224   -5.0255219    35.045838  0.046356928  0.057050354            2 
   64000    1.2122122   -5.0352959    35.653455  0.046423769   0.05698876            2 
   65000    1.2377208   -5.0888902    36.294964  0.046532005  0.056920801            3 
   66000    1.2330723   -5.0433494    37.315616  0.047115677  0.056863626            2 
   67000    1.2374711   -5.0438342      37.9365  0.047184701  0.056830068            2 
   68000    1.2009482   -5.0775417    38.664397  0.047382839  0.056791859            2 
   69000    1.2010056   -5.0688933    39.575872  0.047796947  0.056777453            2 
   70000    1.2456539   -5.0359876    40.063462  0.047694598  0.056761759            1 
   71000    1.2043767   -5.1011526    40.365898  0.047377814  0.056719468            2 
   72000    1.2267685   -4.9935337     41.15729  0.047635752  0.056673595            2 
   73000    1.2378007    -5.056356    41.575548  0.047460671  0.056619581            3 
   74000    1.2288541   -5.0261765    42.471277  0.047828014  0.056576283            3 
   75000    1.2403947   -5.0694678    43.129578  0.047921753  0.056533066            1 
   76000    1.2076811   -5.1063505    43.833103  0.048062612  0.056512731            2 
   77000    1.1771108   -5.0374132    44.770431  0.048452847   0.05650249            5 
   78000    1.2393172   -5.0913777    45.450292  0.048558004  0.056529741            3 
   79000    1.2081003   -5.0477561    46.214738  0.048749723  0.056549823            5 
   80000    1.2319217   -5.0860752    46.771283  0.048720086  0.056561311            1 
   81000    1.2235564   -5.0736399    47.605161  0.048976503  0.056571284            2 
   82000    1.2365566   -5.0934551    48.182902  0.048966363  0.056584925            2 
   83000    1.2249779   -5.0864596    48.673292  0.048868767  0.056587986            3 
   84000    1.2151401   -5.0785686    49.312455  0.048921086  0.056580132            2 
   85000    1.2200199   -5.0394993    49.869874  0.048892033   0.05655556            2 
   86000    1.1942719   -5.0722651    50.452702  0.048888277  0.056519052            2 
   87000    1.2068689   -5.0407704    51.351248  0.049187019  0.056482371            2 
   88000    1.2347276   -5.1287879    51.838657  0.049089637  0.056459189            1 
   89000    1.2344276   -5.0928456    52.634033  0.049282802  0.056446525            3 
   90000    1.1907497    -5.124761    53.137148  0.049201062  0.056427343            3 
   91000    1.2067904   -5.0745375    53.960255  0.049414153  0.056423802            1 
   92000    1.2365725    -5.039317    54.934181  0.049759222  0.056421324            2 
   93000    1.2378808   -5.0461615     55.74287  0.049948808  0.056430889            2 
   94000    1.2015431   -5.0819544    56.310573  0.049920721  0.056430999            3 
   95000    1.1978779    -5.023652    57.062758  0.050055051  0.056432991            2 
   96000    1.1722946   -5.0768317    57.768301  0.050146094  0.056438071            2 
   97000    1.2078118    -5.102081    58.575114  0.050322262  0.056443188            2 
   98000    1.2308572   -5.0761477    59.087812  0.050244738  0.056462032            1 
   99000    1.2391781   -5.1215919    59.587617  0.050157927  0.056473974            1 
  100000    1.2014573   -5.0598218    60.899689   0.05074974  0.056492527            4 
  101000    1.2124958    -5.066294    61.204271  0.050498573  0.056519235            3 
  102000    1.2320364   -5.1238806    61.851606  0.050532357  0.056545201            2 
  103000      1.18967   -5.0739619    63.128055  0.051074478  0.056576909            8 
  104000    1.1914929   -5.0743587    63.872995  0.051180284  0.056616387            4 
  105000    1.2029049   -5.1303229    64.659205  0.051316829  0.056648176            3 
  106000    1.2270962   -5.1211406     65.03397  0.051127334  0.056681538            3 
  107000    1.2115894   -5.0668405    65.569276  0.051066414  0.056707053            3 
  108000      1.19867   -5.0402354     66.34681  0.051193526  0.056732641            3 
  109000    1.2031773   -5.1038495    66.827971  0.051091721  0.056744323            3 
  110000    1.2076374    -5.115938    67.693145  0.051282685  0.056763651            2 
  111000    1.2282104   -5.1132816    68.329886  0.051298713   0.05679322            2 
  112000     1.229743   -5.0966958    69.380862  0.051622665  0.056823818            2 
  113000    1.2102138   -5.1278568    69.962189  0.051594535  0.056858086            3 
  114000    1.1890698   -5.0799258    70.913042  0.051837018  0.056896428            2 
  115000    1.2099635   -5.1401244     71.52742  0.051831463  0.056938377            5 
  116000    1.2167274   -5.0909086    72.530461  0.052105216  0.056977745            2 
  117000    1.1910029    -5.053736    73.296516  0.052205495   0.05702097            2 
  118000    1.2074568   -5.1174995    73.687746  0.052039368  0.057055376            2 
  119000    1.2420223   -5.0831803    74.793257   0.05237623  0.057092569            2 
  120000    1.1952075   -5.1015854    75.111496  0.052160761  0.057130046            3 
  121000    1.1852829   -5.1250083    75.720504  0.052149107  0.057158424            3 
  122000    1.2121439    -5.097483    76.683714  0.052379586   0.05718422            2 
  123000    1.1923486   -5.1318864     77.25059  0.052337798  0.057211903            3 
  124000    1.1987209   -5.1245726    77.535238  0.052107015  0.057236984            3 
  125000    1.2079474   -5.1042358    78.648075   0.05243205  0.057262372            2 
  126000    1.2183384   -5.0737034    79.288439  0.052439444  0.057288104            1 
  127000      1.17736   -5.0943939    79.730349  0.052316502  0.057302634            2 
  128000    1.2110493   -5.0715224    80.705325  0.052542529  0.057311345            1 
  129000    1.1648291   -5.0896415    81.165453  0.052432463  0.057321242            3 
  130000    1.2135515   -5.0670516    81.740913  0.052398021  0.057333423            2 
  131000    1.1798557   -5.1055877     81.71211  0.051979713  0.057327036            2 
  132000    1.1953597   -5.1014287    82.122976  0.051845313  0.057310153            2 
  133000    1.2077302   -5.1124684    82.670354  0.051798467   0.05728643            6 
  134000    1.1883234   -5.1284194     83.08059  0.051667033  0.057254098            3 
  135000    1.2038477   -5.0776838    83.923718  0.051804764  0.057214666            2 
  136000    1.1765744    -5.121668    84.450938  0.051746898  0.057179477            2 
  137000     1.196512   -5.1119981    84.742994  0.051546833  0.057148386            2 
  138000    1.1780581   -5.1373487    85.190343  0.051443443  0.057104778            5 
  139000    1.2266583   -5.1341754    86.248258  0.051707589  0.057058351            4 
  140000    1.2165764   -5.1133348    86.524364  0.051502598  0.057014582            2 
  141000    1.1667989   -5.1172868    87.166514  0.051516852  0.056971059            3 
  142000    1.1953604   -5.1535464    87.435194  0.051311733  0.056923585            2 
  143000    1.2258479   -5.1028227    88.661889  0.051667767  0.056877375            2 
  144000    1.1749429   -5.1085513    89.771756  0.051951248  0.056834185            2 
  145000    1.1971593   -5.1161335      89.3576  0.051354942   0.05679179            3 
  146000     1.202978    -5.125294    90.508582   0.05166015  0.056747525            4 
  147000    1.1848215   -5.1018552    91.323568   0.05177073  0.056707224            2 
  148000    1.2033445   -5.0352599    92.629441  0.052156217  0.056673216            2 
  149000    1.1835902   -5.1593334    92.597569   0.05178835  0.056641695            3 
  150000    1.1972301   -5.0783406     93.13202  0.051740011  0.056608895            2 
  151000    1.1992229   -5.0941433    94.179091  0.051975216  0.056574729            3 
  152000    1.2029289   -5.1178386    94.361258  0.051733146   0.05654113            2 
  153000    1.1966224   -5.1404413    94.784377  0.051625478  0.056509858            3 
  154000    1.1627034   -5.1190292    96.048717  0.051974414  0.056483212            1 
  155000    1.1893117   -5.1139242    96.929191  0.052112468  0.056455047            2 
  156000    1.2073804   -5.1679986    96.947105  0.051787983  0.056426478            4 
  157000    1.1699628   -5.1673382    97.448967  0.051724505   0.05639495            5 
  158000    1.1604627   -5.1430901    98.079029  0.051729446  0.056363116            5 
  159000    1.1840664   -5.1471328    99.164271  0.051972888  0.056329056            2 
  160000    1.1941852   -5.1278363    99.554806  0.051851461  0.056292927            2 
  161000    1.1883273   -5.1325578    99.848377  0.051681354  0.056255834            1 
  162000    1.1974294   -5.1341275    100.35491  0.051622894  0.056221344            1 
  163000    1.2089959   -5.1478268    101.18242  0.051729251  0.056187397            3 
  164000    1.1838149   -5.1539341    101.91935  0.051788289  0.056152938            2 
  165000    1.2178212   -5.1430205    103.20738  0.052124938  0.056129244            2 
  166000    1.1976964    -5.128506    103.24317    0.0518289  0.056105059            4 
  167000    1.1792132    -5.144716    103.66582  0.051729452   0.05608006            4 
  168000    1.1879282   -5.1172261    104.77687  0.051972654  0.056051194            3 
  169000    1.1893732   -5.1571496    105.56071  0.052051633  0.056025955            3 
  170000    1.1884158   -5.1532366    105.59546  0.051762483  0.055999428            3 
  171000    1.1751959   -5.1359986    106.31884    0.0518123  0.055971229            2 
  172000    1.1708319   -5.1126935    107.35064   0.05201097  0.055943669            4 
  173000    1.1966387   -5.1336109    107.51305  0.051788557  0.055919585            2 
  174000    1.1935774   -5.1620493    108.46903  0.051948771  0.055896705            4 
  175000    1.1792428   -5.1280339    109.22215  0.052010549  0.055873838            4 
  176000    1.1914542   -5.1016706    109.79027  0.051984028  0.055851794            2 
  177000    1.2056046   -5.1130174    109.99359  0.051786061  0.055824945            7 
  178000    1.1778678   -5.1314134    110.44098   0.05170458  0.055794719            6 
  179000    1.1476987   -5.1627961    111.07599  0.051711354  0.055760525            3 
  180000    1.1828809   -5.1455453    111.86779  0.051790641  0.055728463            4 
  181000    1.1818897   -5.1365949    112.64771  0.051863588  0.055696544            2 
  182000    1.1631187   -5.1805089    113.07625   0.05177484  0.055666411            3 
  183000    1.1651447   -5.1645376    113.62821  0.051743266  0.055635826            3 
  184000    1.1984524   -5.1735611    114.37882  0.051802001  0.055607982            3 
  185000    1.2062959    -5.133174    115.45922  0.052008659   0.05558364            2 
  186000    1.1859196   -5.1186325    115.84489  0.051901831  0.055558852            2 
  187000    1.1957171   -5.1716911    116.19026  0.051778192  0.055529503            2 
  188000    1.2274786    -5.145926    117.03243  0.051876076  0.055499086            2 
  189000    1.1664745   -5.2078541    117.14042  0.051649217  0.055468499            2 
  190000    1.1613962   -5.1685964    117.46065  0.051517827  0.055435678            2 
  191000    1.1927177   -5.1524859    118.38559  0.051651655  0.055401702            1 
  192000    1.1764464   -5.1720977    118.45677  0.051413528  0.055367484            2 
  193000    1.1919696   -5.1586732     119.3988  0.051553886  0.055334035            3 
  194000    1.1808956   -5.1445545    120.10232  0.051590342  0.055302497            3 
  195000    1.1898611   -5.1317442    121.13312  0.051766288  0.055269098            2 
  196000    1.1723536   -5.1592048    120.93182  0.051416592  0.055238102            6 
  197000    1.1754925   -5.1461444    122.31201  0.051739429  0.055206739            2 
  198000    1.1747964   -5.1982557    122.64451  0.051618061  0.055176836            3 
  199000    1.1712191   -5.1491522    122.79716  0.051422598   0.05514608            1 
  200000    1.1800849    -5.194489    123.68385  0.051534936  0.055116805            2 
  201000    1.1564399   -5.1479872    124.72591  0.051710576  0.055086603            2 
  202000     1.167249   -5.1584847    125.65332  0.051837177   0.05506036            2 
  203000    1.1605403   -5.2014969    125.32798  0.051448268   0.05503022            3 
  204000    1.1900284   -5.1469097    126.42574    0.0516445  0.054997613            3 
  205000    1.1698835   -5.1669056    126.52187  0.051431653  0.054963918            3 
  206000    1.1950132   -5.1917778    126.88181  0.051327594  0.054930022            2 
  207000     1.145685   -5.1698388    127.99351  0.051527178  0.054896147            1 
  208000    1.1602187   -5.1838908     128.2322   0.05137508  0.054866513            2 
  209000    1.1558566   -5.1438935    130.01891  0.051841669  0.054839351            5 
  210000    1.1675777    -5.210504    129.90774  0.051550691  0.054811519            2 
  211000    1.1258789   -5.1697459    130.90013  0.051698314  0.054786118            3 
  212000    1.1774716   -5.1538925    131.55855  0.051713267  0.054762061            2 
  213000    1.1837785   -5.2132086    131.61664  0.051493207   0.05473468            2 
  214000    1.1566717   -5.1589875    132.54931  0.051615774  0.054709164            1 
  215000    1.1671106   -5.1810456    132.88391   0.05150539  0.054684365            6 
  216000    1.1522145   -5.1704748     133.3574  0.051449614  0.054658463            4 
  217000    1.1958687   -5.1712753    133.96212  0.051444748   0.05463368            2 
  218000     1.156646   -5.1673146    134.91837  0.051574301  0.054605298            2 
  219000    1.1724784   -5.2173679    134.94325  0.051348269  0.054578327            1 
  220000    1.1757407   -5.1397482    136.61283  0.051747284   0.05455236            2 
  221000    1.1481403   -5.1758137    136.40222  0.051433717  0.054528915            4 
  222000    1.1805517   -5.1578691    137.36262  0.051562544  0.054502746            3 
  223000    1.1709557   -5.2114586    137.57855  0.051412016  0.054475613            2 
  224000    1.1566948   -5.1966264      138.113  0.051381324   0.05444779            2 
  225000    1.1658914   -5.1520242    139.40849  0.051632775  0.054424833            3 
  226000    1.1504038   -5.1931643    140.26775  0.051721148  0.054402017            2 
  227000    1.1581911   -5.1729119     140.2677  0.051493282  0.054380659            4 
  228000    1.1876472   -5.1841651    140.76485  0.051449143  0.054352404            2 
  229000    1.1568671   -5.2264005    141.27373  0.051409653  0.054323787            1 
  230000    1.1814417   -5.1629174    141.82171  0.051384678  0.054298331            2 
  231000    1.1533061   -5.1877526     142.8499  0.051533152  0.054274231            1 
  232000    1.1576442   -5.1691321     143.8685  0.051676903  0.054251948            2 
  233000    1.1562301   -5.1926591    143.83854  0.051444398  0.054226522            2 
  234000    1.1655055   -5.2209611    143.80856  0.051213876  0.054201305            3 
  235000    1.1608879   -5.2222948    143.85064  0.051010864   0.05417389            2 
  236000    1.1373791   -5.2280612     144.7893  0.051126164  0.054146039            2 
  237000    1.1589417   -5.2022141    145.95822  0.051321456  0.054118945            6 
  238000    1.1668802   -5.1803544    146.11626  0.051161155  0.054089574            3 
  239000    1.1635287   -5.1735837    146.48846   0.05107687  0.054063296            6 
  240000    1.1444983   -5.1904741    147.10664  0.051078696  0.054035075            2 
  241000    1.1455601   -5.2023401    147.73573  0.051084277  0.054009033            4 
  242000    1.1423886   -5.2173067    148.32966  0.051077707  0.053978326            4 
  243000     1.177661   -5.1746692    149.44593  0.051250317  0.053949318            3 
  244000    1.1449332   -5.2048773    149.59936  0.051092676   0.05392164            4 
  245000    1.1358814   -5.2297827    149.98459  0.051015168  0.053893202            2 
  246000    1.1427391   -5.1834731    151.57905  0.051347917  0.053864955            4 
  247000     1.148195   -5.1933737    151.28548  0.051040986  0.053840162            3 
  248000     1.162668   -5.2117636    152.35757  0.051195421  0.053813023            5 
  249000    1.1392406   -5.2248008    152.69983   0.05110436  0.053788656            2 
  250000    1.1426938   -5.2024792     153.1157  0.051038566  0.053764652            3 
  251000    1.1344582   -5.2074773     154.9228  0.051435191  0.053742395            3 
  252000     1.149295    -5.197735    154.86093  0.051210626   0.05372142            4 
  253000    1.1600875   -5.1859908    155.37017  0.051175947  0.053698291            2 
  254000    1.1632107   -5.2253476    156.19647  0.051245559  0.053675089            3 
  255000    1.1496011    -5.212329    156.40558  0.051112933  0.053650759            2 
  256000    1.1543864   -5.1737761    157.36296   0.05122492  0.053627765            3 
  257000    1.1461835    -5.194362    157.35801  0.051023999  0.053604206            2 
  258000    1.1568404   -5.2394805    157.99543  0.051032116  0.053579375            2 
  259000    1.1627554   -5.1651631    158.37216  0.050956294  0.053552851            2 
  260000    1.1612943   -5.1967337    158.48899  0.050797752  0.053525129            3 
  261000      1.18395   -5.2044075    159.42096   0.05090069  0.053496826            3 
  262000    1.1676496    -5.239262    159.79971  0.050826881  0.053469593            3 
  263000    1.1572112   -5.1913147    161.34127  0.051122077  0.053441394            3 
  264000    1.1443501   -5.2169785    161.22859  0.050892864  0.053413999            5 
  265000    1.1792544   -5.2188797    161.08826  0.050656686  0.053386572            1 
  266000    1.1485409   -5.1924214    162.66061  0.050958837  0.053358213            3 
  267000    1.1898357   -5.2175892    163.03181  0.050883837  0.053329947            3 
  268000    1.1683621   -5.2071356    163.75966  0.050920291  0.053302746            2 
  269000    1.1625318   -5.1991203    164.64788  0.051006157  0.053274399            3 
  270000    1.1498927   -5.1831802    164.95938  0.050913389  0.053246936            2 
  271000    1.1470783   -5.2320084    164.54842  0.050599144  0.053219952            5 
  272000    1.1154386   -5.2029271     166.2339  0.050929503  0.053193008            3 
  273000    1.1252261   -5.2099814    166.27437  0.050755301    0.0531667            2 
  274000    1.1277393   -5.2299355    167.63746  0.050984628  0.053141975            2 
  275000    1.1623595   -5.2646353    167.08191  0.050630883  0.053117282            2 
  276000    1.1317918   -5.2364126    167.96801   0.05071498  0.053093504            5 
  277000    1.1305119   -5.1951344    168.97365   0.05083443  0.053068354            3 
  278000    1.1614845   -5.2269469    169.30233    0.0507501  0.053044743            3 
  279000     1.149076    -5.180402    170.46497  0.050915464  0.053022162            2 
  280000      1.15339    -5.209766     171.3832  0.051006903   0.05299807            2 
  281000    1.1566952   -5.2404025    170.96853  0.050702411  0.052973335            3 
  282000    1.1535038   -5.2367925    171.56937  0.050700169  0.052947707            3 
  283000    1.1405376   -5.2703983    171.78534  0.050584611  0.052922471            2 
  284000    1.1454396   -5.2589931    172.19556  0.050526866   0.05289916            2 
  285000    1.1674628   -5.2206364    173.73427  0.050799494   0.05287682            3 
  286000    1.1227268   -5.2338466    173.92806   0.05067834  0.052854064            3 
  287000    1.1452842   -5.2131539    173.80394  0.050465721  0.052830103            1 
  288000    1.1445798   -5.2402555     175.0426  0.050648899  0.052806803            4 
  289000    1.1200458   -5.2398219    175.70979   0.05066603  0.052784776            1 
  290000    1.1341684   -5.2311053    176.69329  0.050773935  0.052763638            1 
  291000    1.1573214   -5.2113241    176.26246  0.050476077   0.05274379            7 
  292000    1.1303545   -5.2372084    178.45114  0.050927838  0.052722833            3 
  293000    1.1439017   -5.2421246    177.71738   0.05054533  0.052703007            4 
  294000    1.1347313   -5.2428317    178.33727  0.050549111  0.052681077           10 
  295000    1.1321048   -5.2362504    180.09483  0.050874246  0.052659865            2 
  296000    1.1256673   -5.2366311    179.50531  0.050536405  0.052638129            2 
  297000    1.1745117   -5.2476814    180.17565  0.050554336  0.052618778            2 
  298000    1.1288272    -5.307001    180.52667   0.05048285  0.052595318            4 
  299000    1.1135164   -5.2349224    181.39114  0.050554946   0.05257114            4 
  300000     1.120322   -5.2445841    182.14711  0.050596418  0.052549241            1 
  301000    1.1330604   -5.2377787    183.18496  0.050715658  0.052527381            5 
  302000    1.1579713   -5.2477494     183.2053  0.050553339  0.052505651            2 
  303000    1.1174936   -5.2379877     183.8395  0.050560918  0.052484559            2 
  304000    1.1158429   -5.2698899    184.40324  0.050549132  0.052463545            2 
  305000     1.121815   -5.2202137    185.25069  0.050614941   0.05244254            2 
  306000    1.1503802   -5.2482593    185.08059  0.050403212  0.052421465            3 
  307000    1.1273749   -5.2494515    184.87053  0.050182012  0.052398032            4 
  308000    1.1228372    -5.242113    186.25477  0.050393606  0.052375546            3 
  309000    1.1455785   -5.2405535    186.40369  0.050270681  0.052351322            3 
  310000    1.1464795   -5.2421888     186.9748  0.050262044  0.052328093            4 
  311000    1.1296652   -5.2510276    187.26687  0.050178688   0.05230334            2 
  312000    1.1178513   -5.2413817    187.50001   0.05008013  0.052278641            2 
  313000    1.1204345   -5.2507353    188.06529   0.05007063  0.052252455            3 
  314000    1.1343243   -5.2307827     188.6523  0.050066957  0.052223841            2 
  315000    1.1252013   -5.2519405    189.24261  0.050064182  0.052196114            3 
  316000    1.1358096   -5.2772272    189.35739  0.049936021  0.052167477            3 
  317000    1.1199827   -5.2478414    189.95048  0.049934405  0.052139246            3 
  318000    1.0970386   -5.2481412    190.89448  0.050024759  0.052110294            3 
  319000    1.1562634   -5.2445342    191.81765  0.050109105  0.052082091            1 
  320000    1.1218965   -5.2576586    191.28067  0.049812673  0.052054088            3 
  321000    1.1167917   -5.2348089    191.70181  0.049766826  0.052025062            2 
  322000    1.1124105   -5.2343063    193.28259  0.050021375  0.051997463            4 
  323000    1.1257533   -5.2344557    192.96471  0.049784497  0.051968294            2 
  324000    1.1170434   -5.2327153    194.03531  0.049906201  0.051939861            2 
  325000    1.1319311   -5.2207108    194.70149   0.04992346  0.051912344            1 
  326000    1.1373095   -5.3155713    194.62889  0.049751761  0.051883261            5 
  327000    1.1165956   -5.2563833    195.58711  0.049843811  0.051853794            5 
  328000    1.1399584   -5.3061552    195.44281  0.049655186  0.051823121            3 
  329000    1.1087006   -5.2581141    195.98289  0.049641056  0.051793044            2 
  330000    1.1323403   -5.2607592    196.88914   0.04971948  0.051762782            3 
  331000    1.1154875   -5.2676282    196.80297  0.049547574  0.051732257            2 
  332000    1.1119648   -5.2802109    197.70046  0.049623609  0.051702391            2 
  333000    1.1120369   -5.2668885    197.83079  0.049507204  0.051673073            2 
  334000    1.1193309   -5.2762399    198.35303   0.04948928  0.051644135            1 
  335000      1.13246   -5.2521992    199.13974  0.049537248  0.051614949            4 
  336000    1.1343755   -5.2921809    198.86472  0.049321607  0.051584063            1 
  337000    1.1184649   -5.2904108    200.03168  0.049463819  0.051551819            5 
  338000    1.1427825    -5.259814    200.91578  0.049535449   0.05152097            3 
  339000    1.1100659   -5.2809267    200.87398  0.049379051  0.051488599            2 
  340000    1.1320658   -5.2383595    201.78408  0.049456883  0.051458078            2 
  341000     1.122688   -5.3093427    201.95724  0.049354163  0.051427944            2 
  342000    1.1165388   -5.2810843    202.66831  0.049383117   0.05139748            5 
  343000    1.1104842   -5.2578785    202.62298  0.049228129  0.051370463            2 
  344000    1.1143228   -5.2591908    203.55559  0.049310947  0.051340299            3 
  345000    1.1046491   -5.2896586    203.53439  0.049162896  0.051309162            7 
  346000    1.1042257   -5.2857528    204.19846  0.049180747  0.051278673            4 
  347000    1.1129129   -5.2753582    204.76695  0.049175541  0.051247751            2 
  348000    1.1093808   -5.2856125    206.36831  0.049417698  0.051214323           11 
  349000     1.108439   -5.3017132    205.29929  0.049020844  0.051180273            4 
  350000    1.1244676   -5.2963922    206.04042  0.049057244  0.051147333            2 
  351000    1.1221558    -5.265603    205.49368  0.048787673  0.051112005            2 
  352000    1.1066068   -5.2818557    206.24438  0.048826794    0.0510772            2 
  353000    1.1463212   -5.2720478    206.86598  0.048835216  0.051042332            2 
  354000     1.107166   -5.2711157    207.46772  0.048838916   0.05100784            7 
  355000    1.1121818   -5.3103995    207.13235  0.048622617  0.050972429            2 
  356000    1.1053067    -5.283431    208.30291  0.048760044  0.050935976            2 
  357000     1.113522   -5.2887691    207.68435  0.048479073  0.050897928            3 
  358000     1.115957   -5.2658127    208.65755  0.048570193  0.050860704            2 
  359000    1.1184679   -5.2999344    208.79133  0.048465954  0.050823348            4 
  360000    1.1113782   -5.3122156    209.81466  0.048568209  0.050786821           10 
  361000    1.1126501   -5.2904977    210.65862   0.04862849  0.050751787            2 
  362000    1.1377274    -5.317383    210.65291  0.048492843  0.050717046            3 
  363000    1.1094116   -5.2948409    211.22894  0.048491491  0.050682497            1 
  364000    1.0875903   -5.2762962    212.29062  0.048601332  0.050648987            5 
  365000    1.1127521   -5.2689114    213.00187  0.048630565  0.050613779            1 
  366000    1.1341719    -5.293819     212.4794  0.048378734  0.050579301            3 
  367000    1.0981287   -5.3355883     212.9569  0.048355335  0.050544024            3 
  368000    1.1182476   -5.3058464    213.64594  0.048379968  0.050509635            9 
  369000    1.0956557   -5.2947038    213.81768  0.048287643  0.050473845            2 
  370000    1.1015976   -5.2729083     215.0178  0.048427433   0.05043836            2 
  371000    1.1068629   -5.2653534    214.77508   0.04824238  0.050402435            6 
  372000    1.0952066   -5.2867367    214.79385  0.048116902  0.050367097            2 
  373000    1.0838034   -5.2965156    215.36874  0.048116339  0.050329424            2 
  374000    1.0948717   -5.3179931    215.26885   0.04796543   0.05029113            2 
  375000    1.1057232   -5.2806346    215.82019  0.047960042  0.050252497            4 
  376000     1.118204   -5.2698304    216.55323  0.047994954   0.05021351            5 
  377000    1.1016323   -5.3223792    216.81264  0.047924987  0.050175096            4 
  378000    1.1161824    -5.331734    217.37917  0.047923097  0.050136275            3 
  379000     1.084491   -5.3244968    217.51213  0.047825886  0.050097929            6 
  380000    1.1220095   -5.3013404    218.72365  0.047965713  0.050060424            4 
  381000    1.1099973   -5.3318761     218.2754  0.047741776  0.050021899            5 
  382000    1.0925479    -5.295119    218.77163  0.047725051   0.04998419            4 
  383000    1.1212056   -5.3292552    219.07881  0.047667278  0.049945724            2 
  384000    1.0881104   -5.3181402    219.82677  0.047705462  0.049906958            5 
  385000    1.1042342   -5.2916904    220.14187  0.047649755  0.049868071            5 
  386000    1.0994057   -5.3082015    221.18324  0.047751131  0.049830359            5 
  387000    1.0800297   -5.3288485    221.03637  0.047596118  0.049793632            3 
  388000    1.1072459     -5.32664    221.36653  0.047544357  0.049756956            2 
  389000    1.0917358   -5.3273246    222.62539  0.047691815  0.049719911            3 
  390000     1.089913   -5.3269039    223.74723  0.047809236  0.049684522            3 
  391000    1.1060706   -5.3306644    223.22962  0.047576645  0.049650556            4 
  392000    1.1034188   -5.3001246    224.96772  0.047824771  0.049616521            3 
  393000    1.0672943   -5.2989567    225.52596  0.047821451   0.04958402            2 
  394000    1.1186911   -5.3177931    226.26958  0.047857357  0.049552459            4 
  395000    1.1083225   -5.3210252    226.37268  0.047757949  0.049521302            4 
  396000    1.1008289   -5.3303274    226.73937  0.047714514  0.049489959            2 
  397000    1.0990284    -5.328011    227.09113  0.047668163  0.049457388            2 
  398000    1.1196157   -5.3444474     227.0358  0.047536808  0.049425104            2 
  399000    1.0788956   -5.3251285    227.91459  0.047601209   0.04939331            4 
  400000    1.1224588   -5.3293296    228.76488   0.04765935  0.049359907            3 
  401000    1.0855579   -5.3326885    228.73858  0.047535033  0.049328167            4 
  402000    1.0755728   -5.3032057    230.56488  0.047795373  0.049297998            3 
  403000    1.0885483   -5.3438319    231.26467  0.047821478  0.049268153            4 
  404000    1.1197702   -5.3157388    231.91519  0.047837292  0.049239126            3 
  405000    1.0839332   -5.3177588     232.5646  0.047852799  0.049209746            4 
  406000    1.1017119    -5.352781    232.56739  0.047735506  0.049179884            4 
  407000    1.0782056   -5.3136621    233.21934  0.047751707  0.049151703            2 
  408000    1.1063054   -5.3260752    234.26711  0.047848674  0.049125191            2 
  409000    1.0975025   -5.3468868    233.88452  0.047653732  0.049098662            4 
  410000    1.0935724   -5.3695139    234.19079  0.047599755  0.049071604            4 
  411000    1.0930855   -5.3160468    235.14094  0.047676589   0.04904298            3 
  412000    1.0705824   -5.3890911    235.07241  0.047547008  0.049014707            2 
  413000    1.1042943   -5.3383385    235.99296  0.047617627  0.048986743            5 
  414000    1.1029259   -5.3168631    236.35038  0.047574554  0.048959417            4 
  415000    1.0809148   -5.3280265    237.53477  0.047697745  0.048932553            2 
  416000    1.0859742   -5.3520644    238.39214  0.047754836  0.048906866            3 
  417000    1.1023339   -5.3222558    238.16738    0.0475954  0.048881445            8 
  418000    1.0846492   -5.3312178     238.5535  0.047558513  0.048856322            5 
  419000    1.0771395   -5.3301159    239.97441  0.047727607  0.048831252            5 
  420000    1.0948359   -5.3592682    239.59686  0.047539059  0.048807015            5 
  421000    1.1008415   -5.3640007     239.5076  0.047408472  0.048783026            3 
  422000    1.0901988   -5.3355183    240.87432   0.04756602  0.048759041            2 
  423000    1.0745099   -5.3682755      241.384  0.047553979  0.048736303            2 
  424000    1.1005803   -5.3498312    241.72928  0.047509686  0.048713095            3 
  425000    1.0751921   -5.3149282    243.32974  0.047711714  0.048688927            3 
  426000    1.0817508   -5.3087854    243.43001  0.047619329  0.048665783            4 
  427000    1.0636284   -5.3696791    242.11422  0.047251019  0.048641819            2 
  428000    1.0799225   -5.3770254     243.0936  0.047331308  0.048617272            3 
  429000    1.0889205   -5.3332941    244.58178  0.047510059  0.048592657            2 
  430000    1.0748107   -5.3377758    244.31174  0.047347237  0.048566592            2 
  431000    1.0662333   -5.3299821    245.25995  0.047420717  0.048541331            4 
  432000    1.0787525   -5.3486914    245.23005   0.04730518  0.048514582            2 
  433000    1.0941958   -5.3548716    246.54205  0.047448431  0.048488759            3 
  434000    1.1055556   -5.3958463    245.99787  0.047234615  0.048463276            1 
  435000    1.0835449   -5.3205078     247.5133  0.047416341   0.04843799            2 
  436000    1.0678016   -5.3104538    247.79119  0.047360702  0.048413576            2 
  437000    1.0986808    -5.340079    247.49043  0.047194971  0.048388167            2 
  438000    1.0724445   -5.3360979    248.47335   0.04727423   0.04836288            3 
  439000    1.0688753   -5.3705218    248.39687  0.047152026   0.04833761            3 
  440000    1.0744237   -5.3685711    249.41398  0.047237496    0.0483114            3 
  441000    1.0545648   -5.3830591    249.43931  0.047135168  0.048285058            5 
  442000    1.0740795   -5.3495436    249.84751  0.047105488  0.048258866            2 
  443000    1.0701342   -5.3537298     249.5698  0.046946914  0.048232239            3 
  444000    1.0762148   -5.3346581    252.04638  0.047306001  0.048205006            2 
  445000    1.0791988   -5.3661154    250.34719  0.046881497   0.04817964            3 
  446000    1.0784658   -5.3145015    251.88412   0.04706355  0.048153842            2 
  447000    1.0685782   -5.3722092    252.46502  0.047066558  0.048127898            4 
  448000    1.0654545   -5.3387605    251.58781  0.046798328  0.048100957            3 
  449000    1.0611507   -5.4163319    251.46481  0.046671272  0.048073577            5 
  450000    1.0586343   -5.3947553    252.31899   0.04672574  0.048045782            2 
  451000    1.0827243    -5.392182    253.35786  0.046814091  0.048018773            4 
  452000    1.0960495   -5.3397566    254.35776  0.046894867  0.047992031            3 
  453000     1.071507   -5.3927072    253.82323  0.046693015  0.047965351            4 
  454000     1.081127   -5.3325628    253.69861  0.046567293  0.047937659            4 
  455000    1.0438491   -5.3909666    254.39556  0.046592593  0.047909521            2 
  456000    1.0909033   -5.3982421    254.12159  0.046440348  0.047881262            3 
  457000    1.0531666   -5.3550348    257.00554  0.046864613  0.047854301            2 
  458000    1.0451031    -5.337436    256.42019  0.046655785  0.047827347            7 
  459000    1.0725332    -5.373247    255.92472  0.046464182  0.047799855            2 
  460000    1.0691559   -5.4135632     256.5397  0.046474584  0.047772441            2 
  461000     1.074443   -5.3784403     257.2101  0.046494957  0.047744001            2 
  462000    1.0958418   -5.4025467    257.99738  0.046536324  0.047716394            5 
  463000    1.0504625   -5.3656641    259.07301  0.046629411  0.047689679            3 
  464000    1.0491761   -5.3854831    258.15576  0.046364181  0.047662811            2 
  465000    1.0537623   -5.3671969    258.96733  0.046409916  0.047636419            7 
  466000    1.0548708   -5.3643412    259.85657  0.046469344   0.04761042            2 
  467000    1.0820457   -5.3857225    259.96914  0.046389926   0.04758313            2 
  468000    1.0660662   -5.4053614    260.60455  0.046403945  0.047556626            4 
  469000    1.0558183   -5.3803828     261.2002  0.046410838  0.047530907            2 
  470000    1.0818881   -5.3668224     262.4645  0.046536258  0.047505342            7 
  471000    1.0620513   -5.3647743    262.47489  0.046439294  0.047479144            2 
  472000    1.0791318   -5.4081221    261.75296  0.046213447  0.047452771            5 
  473000    1.0670537   -5.4025541    261.33922   0.04604285  0.047424405            5 
  474000    1.0681461   -5.3550194    262.83286  0.046208309  0.047396727            3 
  475000    1.0374365   -5.4447582    262.69655  0.046087114  0.047369533            5 
  476000    1.0737611   -5.3997185    263.22674  0.046083113  0.047342198            2 
  477000    1.0548917   -5.4239304    262.97607  0.045942709   0.04731492            2 
  478000    1.0823549   -5.3662611    265.03093  0.046204834  0.047287374            5 
  479000    1.0578741   -5.4308268    263.81691  0.045897166   0.04725865            2 
  480000    1.0452028   -5.4150982    264.97798  0.046003121  0.047229908            3 
  481000    1.0685996   -5.3860289    265.99898  0.046084369  0.047201516            3 
  482000    1.0658038   -5.3703782    265.91189  0.045973702  0.047173179            4 
  483000    1.0588977   -5.4180322    265.87017  0.045871319  0.047143777            2 
  484000    1.0554074   -5.4262387    265.83433  0.045770373  0.047113284            5 
  485000    1.0634815   -5.3952514    265.93759  0.045693743   0.04708293            2 
  486000    1.0262474   -5.3819932    266.17737  0.045640838  0.047052901            3 
  487000    1.0643647   -5.4204184    266.19827  0.045550696  0.047021932            3 
  488000    1.0376692   -5.3735399    266.75856  0.045553033   0.04699253            2 
  489000     1.057757   -5.4102894    267.41374  0.045571531  0.046962513            3 
  490000    1.0452409   -5.4430895    266.77614  0.045370092  0.046932215            3 
  491000    1.0206518   -5.3966982    269.15389  0.045681244  0.046902768            6 
  492000    1.0563128   -5.4058012    269.14119  0.045586244  0.046873251            2 
  493000    1.0813089   -5.3932153    270.67997  0.045753882  0.046844296            2 
  494000    1.0555327   -5.4016577    270.96627   0.04570956  0.046815681            4 
  495000    1.0594349    -5.386843    271.90219   0.04577478  0.046787536            2 
  496000     1.079536   -5.3871859    271.75483  0.045657734  0.046759087            2 
  497000     1.050651   -5.4028235    272.19179  0.045639134  0.046730878            1 
  498000    1.0629137   -5.3913683    272.24392  0.045556212  0.046702553            2 
  499000    1.0454635   -5.4155248    271.82242  0.045394526  0.046672969            3 
  500000    1.0310368   -5.3974601    272.79632  0.045466053  0.046643507            5 
  501000    1.0537138   -5.3932323     272.8401  0.045382584  0.046613295            5 
  502000    1.0312792   -5.3886243    273.69802  0.045434599  0.046583199            6 
  503000    1.0631134   -5.3947813    273.49678  0.045310932  0.046553502            3 
  504000    1.0651666    -5.418235    273.77388  0.045266846   0.04652333            4 
  505000    1.0390631   -5.4498393    275.05464  0.045388555  0.046494012            5 
  506000    1.0278049   -5.4283074    275.28459  0.045336725  0.046465249            5 
  507000    1.0671256   -5.4102932    274.92925  0.045188897  0.046436423            3 
  508000    1.0259365   -5.3914683    276.13317  0.045297436  0.046407806            3 
  509000    1.0492055   -5.4239951    277.43393  0.045421403  0.046379028            4 
  510000    1.0571139   -5.4073029    276.81308  0.045230896  0.046350946            3 
  511000     1.050825   -5.4406414    277.64101  0.045277398  0.046323257            3 
  512000    1.0471968   -5.4424093     277.0628  0.045094857   0.04629487            3 
  513000    1.0308082   -5.4290721    278.00881  0.045160625  0.046266843            4 
  514000    1.0366685   -5.3980105    279.13958  0.045256093  0.046239617            4 
  515000    1.0558523   -5.4361122    278.29238  0.045031129  0.046211999            2 
  516000    1.0753553   -5.4233935    280.07697  0.045232069  0.046184314            2 
  517000    1.0305659   -5.4213953    280.48771  0.045210784  0.046157565            5 
  518000    1.0473519   -5.4182491    281.56311   0.04529651  0.046131384            4 
  519000    1.0251788   -5.4340154     280.9266  0.045107033  0.046105282            3 
  520000    1.0481087   -5.4095813    281.96666  0.045186964  0.046078903            5 
  521000    1.0490885   -5.4520799    281.51346  0.045027744  0.046052635            4 
  522000    1.0577633   -5.4347503    282.24826  0.045058789   0.04602622            1 
  523000    1.0486464   -5.4240924    282.91445  0.045078785  0.046001412            5 
  524000    1.0491284   -5.4023874     285.0467  0.045331855  0.045976642            3 
  525000    1.0290428   -5.4641867     283.9918  0.045078064  0.045951672            2 
  526000    1.0174426   -5.4014541    284.92289  0.045139875  0.045926878            4 
  527000    1.0364612    -5.459373    284.41678  0.044974191  0.045902434            5 
  528000    1.0497213   -5.4283739    284.23827  0.044860838   0.04587731            8 
  529000    1.0257345    -5.426244    286.25042  0.045093008  0.045852279            2 
  530000    1.0454787   -5.4426584    286.19097   0.04499858   0.04582715            2 
  531000    1.0335854   -5.3966952    287.86834  0.045177078   0.04580231            2 
  532000    1.0502033   -5.4096816    288.40537   0.04517628  0.045779289            2 
  533000     1.055886   -5.4518404    286.83773  0.044846424  0.045755304            5 
  534000    1.0452555     -5.49185    286.64876  0.044732953  0.045729675            3 
  535000    1.0410233   -5.4087496    290.03319  0.045176509  0.045704083            3 
  536000    1.0342702   -5.4400861     288.4306  0.044843065  0.045678477            6 
  537000    1.0251192    -5.422635    288.73862  0.044807358  0.045653192            3 
  538000    1.0346685   -5.4649516    288.63374  0.044707829   0.04562761            3 
  539000    1.0286046   -5.4383603    288.63566   0.04462518   0.04560205            2 
  540000    1.0372613    -5.436496    291.19703  0.044937814  0.045577682            3 
  541000    1.0378494   -5.4588351    290.94622  0.044816115  0.045552681            3 
  542000    1.0544969   -5.4249789    291.73386  0.044854529  0.045529026            3 
  543000    1.0440002   -5.4662108    291.65676  0.044760092  0.045504959            1 
  544000    1.0324138   -5.4545579    292.50293  0.044807434  0.045479937            6 
  545000    1.0332095   -5.4753495    291.64261  0.044593672  0.045454978            4 
  546000    1.0456706   -5.4441846    292.52627  0.044646867   0.04542982            2 
  547000    1.0523451   -5.4391029    293.81444  0.044761494  0.045406351            3 
  548000    1.0621599   -5.4475948    293.37552  0.044613066  0.045382315            7 
  549000    1.0290802    -5.446989    293.49118   0.04454936  0.045357892            9 
  550000    1.0377531   -5.4210087    294.77503  0.044662884  0.045334367            6 
  551000    1.0517041   -5.4513437    295.57378  0.044702629  0.045310862            1 
  552000    1.0324351   -5.4354114    295.42813  0.044599658  0.045288023            4 
  553000    1.0170248   -5.4642043    295.99613    0.0446046  0.045264697            5 
  554000     1.055814   -5.4500405    296.03994  0.044530676  0.045242241            4 
  555000    1.0348699   -5.4556966    297.23809  0.044630344  0.045218805            5 
  556000    1.0367962   -5.4549214     297.3333  0.044564343  0.045195199            3 
  557000    1.0317427   -5.4755883    296.63079  0.044379233  0.045171205            7 
  558000    1.0411701   -5.4346343    298.26949  0.044544427  0.045146485            1 
  559000    1.0063654    -5.467768    297.62528  0.044368707  0.045122411            2 
  560000    1.0097453   -5.4770012    298.06497  0.044354906  0.045097506            5 
  561000    1.0261696   -5.4621986    299.00843  0.044415987  0.045072968            4 
  562000    1.0372384   -5.4536624    299.08309  0.044348026  0.045049042            4 
  563000    1.0430671   -5.4580699    300.19766   0.04443423  0.045025683            3 
  564000    1.0185294   -5.4777887    300.24164  0.044361945  0.045002294            3 
  565000    1.0217893   -5.4782898    299.76944  0.044213781  0.044978851            7 
  566000    1.0148649   -5.4432968    301.01002  0.044318319  0.044954851            5 
  567000    1.0315198   -5.4431507    301.84668  0.044363122   0.04493146            1 
  568000   0.99942256   -5.4720863    303.11701  0.044471393  0.044908013            2 
  569000    1.0311772   -5.4621579    302.57548  0.044313925  0.044885417            7 
  570000    1.0440738   -5.4806282    302.02065  0.044155065  0.044861938            4 
  571000    1.0329823   -5.5112035    301.64505   0.04402292  0.044837906            6 
  572000    1.0230037   -5.4694469    303.54774  0.044223156   0.04481434            2 
  573000    1.0243641   -5.4452353    305.60581   0.04444529  0.044791261            3 
  574000    1.0435284   -5.4779255    304.03784  0.044140221    0.0447689            4 
  575000    1.0162463   -5.4256066    306.19039  0.044375418  0.044746265            2 
  576000      1.02307   -5.4529968    306.13526  0.044290403  0.044723524            7 
  577000    1.0087702   -5.4675467    306.27127  0.044233286  0.044701144            8 
  578000    1.0280371   -5.4763188     305.6963  0.044073861   0.04467936            3 
  579000    1.0156061   -5.4849666    307.65267  0.044279314  0.044657319            6 
  580000    1.0243691     -5.45201    308.87027  0.044377913  0.044634989            2 
  581000    1.0072682   -5.4963662     307.6321  0.044123938  0.044613558            3 
  582000    1.0278842   -5.4689175     308.7316  0.044205556  0.044592052            3 
  583000   0.99210306   -5.4660051    309.14859  0.044189336  0.044571118            2 
  584000   0.99870335   -5.4756128    309.62088  0.044181062  0.044549765            5 
  585000      1.00928   -5.4957426    308.62452  0.043963606  0.044528347            3 
  586000    1.0039685   -5.4879643    309.88845  0.044068323  0.044506991            3 
  587000    1.0264439    -5.474093    310.39866  0.044065681  0.044485534            3 
  588000    1.0198099   -5.4952525    309.90356  0.043920572  0.044463448            4 
  589000    1.0181808   -5.5076464    310.46411  0.043925313   0.04444183            4 
  590000    1.0409979    -5.468196    311.99142  0.044066585  0.044420275            4 
  591000    1.0031634   -5.4849205    311.38964  0.043907168  0.044398244            3 
  592000    1.0271325   -5.4521332    312.60215  0.044003681  0.044376271            4 
  593000   0.99018283   -5.4565957     313.6649  0.044078823   0.04435515            1 
  594000    1.0182242   -5.5118173    311.39734  0.043686495  0.044333397            2 
  595000   0.98330813   -5.5017573    313.57871  0.043918587   0.04431096            2 
  596000     1.022346   -5.4921245    313.47797  0.043830812  0.044288761            6 
  597000    1.0037445   -5.4753837    313.80504  0.043803049  0.044267089            2 
  598000   0.99603542   -5.4888342    314.96281  0.043891139  0.044244946            2 
  599000    1.0111465   -5.4941365    314.19321  0.043710797  0.044222974            3 
  600000    1.0304814   -5.4750178    315.72635  0.043850882  0.044200873            3 
  601000     1.013493   -5.4672217    315.82921  0.043792182   0.04417918            3 
  602000    1.0140595   -5.5082588    314.93668  0.043595886  0.044156526            4 
  603000    1.0051177   -5.4925502     315.6186  0.043617827  0.044133148            6 
  604000    1.0012136    -5.482808    316.38703  0.043651632  0.044109689            2 
  605000    1.0265083   -5.4908669    316.64479  0.043614984  0.044087363            3 
  606000    1.0151362   -5.5084811    317.59292  0.043673393  0.044064074            3 
  607000    1.0349197   -5.5183042    317.97798  0.043654308  0.044041548            4 
  608000    1.0050822   -5.5028846    318.72231  0.043684527  0.044019917            2 
  609000    1.0108882   -5.4847819    319.17452  0.043674674  0.043998081            5 
  610000    1.0136562   -5.5201277    318.22076  0.043472781   0.04397578            4 
  611000    1.0204173   -5.5115621    317.79083  0.043342993  0.043953958            6 
  612000    1.0047408   -5.4989154    319.07139  0.043446539  0.043931772            1 
  613000    1.0169802   -5.4777888    320.01969   0.04350458  0.043910156            7 
  614000    1.0153622   -5.4951461    319.48665  0.043361381  0.043887916            2 
  615000    1.0028719   -5.4940129    320.44977  0.043421377  0.043865139            4 
  616000   0.99540616   -5.5284778    320.39966  0.043344109  0.043842198            7 
  617000     1.000187   -5.5359899    319.76905  0.043188688  0.043819155            4 
  618000    1.0049157   -5.4944484    321.43986  0.043344101  0.043796016            3 
  619000    1.0073298    -5.496128    321.67051   0.04330513  0.043773124           11 
  620000     1.019937   -5.4954607    321.96426  0.043274767  0.043750022            2 
  621000    1.0111787   -5.5480582    321.59919  0.043156091  0.043727028            2 
  622000    1.0273034   -5.5198089    322.55335  0.043214543  0.043704137            3 
  623000    1.0013223   -5.5318233    322.97791  0.043201968  0.043681336            2 
  624000    1.0148078   -5.5276226     322.5915  0.043081129  0.043658276            2 
  625000    1.0007471   -5.5342053    322.76648  0.043035531  0.043635671            7 
  626000    1.0118036   -5.5514916    323.42414  0.043054332  0.043612452            3 
  627000    1.0161133   -5.5014753    324.51236  0.043130298  0.043589929            3 
  628000   0.99832774   -5.5467302    325.32351  0.043169256   0.04356701            3 
  629000    1.0046947   -5.5060552    325.30567  0.043098261  0.043544216            4 
  630000    1.0219419   -5.5292773    325.59076  0.043067561  0.043521663            6 
  631000   0.97225013   -5.5379472    325.85059  0.043033623  0.043499344            3 
  632000    1.0055449   -5.5300352    326.58891  0.043062884   0.04347676            3 
  633000    1.0061939   -5.5359632    327.24437  0.043081143  0.043454048            5 
  634000    1.0250541   -5.5284895    326.50729  0.042916311  0.043431376            4 
  635000   0.99337908    -5.551408    327.50324  0.042979428  0.043409964            4 
  636000    1.0111004   -5.5116045    327.54462  0.042917272  0.043388079            4 
  637000   0.99469277   -5.5011754    328.60754  0.042988951   0.04336654            7 
  638000   0.99652802   -5.5366893    328.34879  0.042887773  0.043344303            2 
  639000    1.0122025   -5.5591397    328.19492   0.04280059  0.043321674            6 
  640000    0.9945363   -5.5261151    328.84465  0.042818313  0.043299181            2 
  641000   0.99361721   -5.5324317    328.90735  0.042759665  0.043276608            4 
  642000    1.0200385    -5.523948    330.33834  0.042878809  0.043254302            2 
  643000   0.99450222   -5.4883102    330.94103  0.042890232  0.043232295            7 
  644000   0.99742611   -5.5407807    330.71062  0.042793818  0.043210101            3 
  645000   0.97923686   -5.5422671    330.50186  0.042700499   0.04318775           11 
  646000    1.0055304   -5.5260968    331.01386  0.042700447  0.043165363            4 
  647000   0.98198345   -5.5162674    332.85558  0.042871661  0.043142838            3 
  648000   0.98122134   -5.5381487    332.71961  0.042788016  0.043121306            4 
  649000   0.98843466   -5.5242206    333.09106  0.042769781  0.043099103            2 
  650000   0.98678636   -5.5546046    332.64409  0.042646679  0.043076706            3 
  651000   0.99728988   -5.5256225    333.32871  0.042668806  0.043054104            5 
  652000   0.99904523   -5.5262317    333.19489  0.042586258  0.043031123            5 
  653000    1.0019579   -5.5640396    332.79113  0.042469517  0.043007185            5 
  654000   0.99465157   -5.5433321    334.15529    0.0425784  0.042983804            9 
  655000   0.98517879   -5.5475238     333.1582  0.042386539  0.042960038            6 
  656000   0.98318343   -5.5385943    334.27094  0.042463279  0.042936251            2 
  657000   0.99452366   -5.5212174    335.19744  0.042516164  0.042912463            2 
  658000   0.99580305     -5.52092    334.80566  0.042401933  0.042889253            5 
  659000   0.98518415   -5.5421187    334.42242  0.042289127   0.04286527            3 
  660000    1.0046533   -5.5657116     334.7492  0.042266313  0.042841242            2 
  661000   0.99991405   -5.5741302    333.66065  0.042065135  0.042817284            3 
  662000   0.98010139    -5.567498    335.93228  0.042287548  0.042793789            8 
  663000    1.0041773   -5.5333234    337.87729  0.042468236  0.042770009            6 
  664000   0.99760411   -5.5457578    337.04715  0.042300094  0.042747121            8 
  665000   0.97232043   -5.5223144    337.84277  0.042336187  0.042724607            3 
  666000   0.98442636   -5.5143835    338.99846  0.042417225  0.042702278            4 
  667000   0.99123852   -5.5811833    338.80309  0.042329222  0.042679627            6 
  668000   0.96307938   -5.5435927    338.66475  0.042248597  0.042656404            3 
  669000   0.99428314   -5.5742877    337.78004  0.042075242   0.04263305            4 
  670000    0.9874241   -5.5387674    339.61056  0.042240119  0.042610287            2 
  671000   0.99474776   -5.5161184    340.05868  0.042232821  0.042587806            3 
  672000   0.97855721   -5.5754719    340.00935  0.042163858  0.042565065            4 
  673000   0.99543544   -5.5589494    340.35886  0.042144485  0.042542248            3 
  674000   0.98995787   -5.5405723    340.22959  0.042065973    0.0425197            7 
  675000   0.99294359   -5.5429734    341.59573  0.042172312  0.042497484            3 
  676000    1.0078103   -5.5673058    341.26624   0.04206931  0.042474785            5 
  677000   0.97828843   -5.5786782    341.11462  0.041988505  0.042451847            3 
  678000   0.99172127   -5.5865082    341.88283  0.042020996  0.042428907            7 
  679000   0.98921834   -5.5349156    342.60554  0.042047809  0.042405918            3 
  680000   0.97005256   -5.5519905    342.75339  0.042004092  0.042383137            2 
  681000   0.97530577   -5.5322766    344.05558   0.04210176  0.042360335            4 
  682000   0.97542318   -5.5600609    341.72442  0.041755183  0.042337494            4 
  683000   0.99429874   -5.5503984    343.01087  0.041851009  0.042314508            4 
  684000   0.97703467   -5.5560004    342.67163  0.041748493  0.042291549            2 
  685000   0.98660621     -5.58319    343.29192  0.041763008  0.042268514            3 
  686000   0.98576385   -5.5323753    345.16199  0.041929299  0.042246011           11 
  687000   0.95335102   -5.5722011    344.80726  0.041825238  0.042223744            6 
  688000   0.95068412   -5.5096198    346.63462  0.041985782  0.042201763            3 
  689000   0.97536076   -5.5734301    344.49652  0.041666246  0.042179562            4 
  690000   0.96206773   -5.5711961    345.31605  0.041704837   0.04215677            4 
  691000   0.98349106   -5.5759478     346.5425   0.04179239  0.042133954            5 
  692000   0.97387414    -5.550598    346.84308  0.041768193  0.042111898            3 
  693000   0.98614263   -5.5550389    346.84222  0.041707818  0.042089646            5 
  694000   0.99286236   -5.5572411    348.13908  0.041803444   0.04206748            4 
  695000   0.98838971   -5.5837276     349.0247  0.041849484  0.042045366            5 
  696000   0.97979123    -5.578817    348.01109  0.041667994  0.042022757            3 
  697000   0.98653983   -5.5718211    347.19858  0.041511069  0.042000287            5 
  698000   0.97874951   -5.5529772    348.85393  0.041649227  0.041977755            4 
  699000   0.95584961   -5.6095422    348.35739  0.041530448  0.041955207            3 
  700000   0.97185171   -5.5638669    349.53643   0.04161148    0.0419324            3 
  701000   0.97911342   -5.5820257    349.90355  0.041595762  0.041910043            3 
  702000   0.94539422   -5.5788587    348.91172   0.04141877  0.041887638            2 
  703000   0.96682639   -5.5598027    350.43705  0.041540665  0.041865143            5 
  704000   0.96993378   -5.5799096    351.35407  0.041590207  0.041843033            4 
  705000   0.97410322   -5.6124474    350.06049  0.041378309  0.041820946            4 
  706000   0.95489238   -5.5698916    352.09265  0.041559567  0.041798279            4 
  707000   0.96216967   -5.5944692    351.02296    0.0413747  0.041775857            5 
  708000   0.98311198   -5.5891343    351.77039  0.041404236  0.041753877            4 
  709000    0.9855807   -5.5724811    351.68775  0.041336125  0.041731645            3 
  710000   0.97271784   -5.5516287    353.36998   0.04147535  0.041709261            4 
  711000   0.95692996   -5.6132211    353.72031  0.041458077  0.041687569            6 
  712000   0.95916615   -5.5830433    353.71326  0.041399024  0.041665544            2 
  713000   0.98064843   -5.5820202    354.10813  0.041387111  0.041643638            2 
  714000   0.97518359   -5.6218434     353.9185  0.041307015  0.041621923            5 
  715000   0.97966823   -5.5506939    354.58037  0.041326383  0.041599527            4 
  716000   0.97223713   -5.5899036    354.39677  0.041247297  0.041577527            4 
  717000   0.96284911   -5.5789079    355.65656  0.041336188   0.04155546            3 
  718000   0.97940428   -5.5685644    356.94632   0.04142831  0.041533442           11 
  719000   0.96965847   -5.5824157    355.81111  0.041239118  0.041511125            5 
  720000   0.96828859    -5.591763     355.4843  0.041144016  0.041488508            2 
  721000   0.98244502   -5.6179602    356.71065  0.041228692  0.041466164            5 
  722000   0.94654685   -5.6152655      356.023  0.041092221  0.041443822            9 
  723000   0.97190358   -5.5956956    357.02421  0.041150785  0.041420971            4 
  724000   0.98512938   -5.5955393    356.03033   0.04097955  0.041398189            2 
  725000   0.95857613   -5.5891019    357.34451  0.041074081  0.041375274            5 
  726000   0.94664223   -5.6110676    356.15797   0.04088131  0.041352321            4 
  727000   0.96714705    -5.605904    357.30419  0.040956463  0.041329652            3 
  728000   0.95285394   -5.6189713    356.77911  0.040840099  0.041306747            4 
  729000    0.9525582   -5.6240408    356.05357   0.04070114  0.041283161            6 
  730000   0.97648359   -5.6035818    356.69508  0.040718616  0.041259594            2 
  731000   0.96061146   -5.6083969    357.29205  0.040730967  0.041235654            6 
  732000   0.96164909   -5.6238405    356.16891  0.040547463   0.04121155            4 
  733000    0.9560131   -5.6140789    357.75993  0.040673025   0.04118782            3 
  734000   0.94964227   -5.6392145    358.34877  0.040684465  0.041163535            6 
  735000   0.96872173   -5.6135358    357.43271  0.040525251  0.041139531            3 
  736000    0.9535291   -5.5674454    358.17143  0.040553831   0.04111527            5 
  737000   0.99074447    -5.618438     358.9141  0.040582779  0.041091519            6 
  738000    0.9560075   -5.6125308    358.66697  0.040499883  0.041067602            2 
  739000   0.95150006   -5.6149118    359.13415  0.040497761   0.04104354            4 
  740000   0.94957773   -5.6513731    358.86761   0.04041302  0.041019513            8 
  741000   0.97689188    -5.635216      360.305   0.04052013  0.040995197            2 
  742000    0.9656405   -5.6198344    361.14389  0.040559737  0.040970534            4 
  743000   0.95921603   -5.6350002     359.0258  0.040267587  0.040946407            3 
  744000   0.94880324   -5.6266965    359.81907  0.040302315  0.040922037            3 
  745000   0.95607313   -5.6035844     362.6421  0.040563993  0.040898254            6 
  746000   0.96486742   -5.6073227    362.39634  0.040482165  0.040874435            2 
  747000   0.96436536   -5.6160092    362.39765  0.040428118  0.040850423            2 
  748000   0.95322821   -5.6238972    361.98537  0.040328139  0.040826414            8 
  749000   0.96001168   -5.6397031    362.33866  0.040313603  0.040802797            9 
  750000   0.94245519   -5.6054417    364.06387  0.040451541  0.040779017            7 
  751000   0.95261933   -5.6214889    364.13072  0.040405096  0.040755181            6 
  752000    0.9542253   -5.6370794    363.31792  0.040261294  0.040731315            6 
  753000   0.96559818   -5.6027794    364.01644   0.04028513  0.040707375            4 
  754000   0.95107166   -5.6399804    363.03265  0.040122972  0.040683668            2 
  755000   0.96805684   -5.6429317    362.99736  0.040065933  0.040659919            5 
  756000   0.96464635   -5.6150445    364.18923  0.040144315  0.040635943            2 
  757000   0.94063752   -5.6252623    365.33544  0.040217464  0.040612623            5 
  758000   0.95506085   -5.6379177    362.90567  0.039897281  0.040588505            4 
  759000   0.95204801   -5.6491547    365.57352  0.040137628  0.040564321            4 
  760000   0.93469285   -5.6478132    365.90239  0.040120876  0.040540483            2 
  761000   0.94489692   -5.6656825    365.60912   0.04003604  0.040516908            4 
  762000   0.95055716   -5.6340409    365.33029  0.039953007  0.040493082            5 
  763000    0.9492562   -5.6008853    365.88578  0.039961313  0.040468979            3 
  764000   0.95301453   -5.5826436      367.817  0.040119655  0.040444927            6 
  765000   0.96179232   -5.6331117    365.18509  0.039780511  0.040420768            2 
  766000   0.95718917   -5.6458947    365.83578  0.039799367  0.040396446            4 
  767000   0.92607445   -5.6527819    366.87191  0.039860052  0.040371957            5 
  768000   0.94878138   -5.6341633    366.33239  0.039749608  0.040347361            3 
  769000    0.9513848   -5.6341459    367.34005  0.039807114  0.040322888            4 
  770000   0.93624907   -5.6659831    367.77937  0.039802963  0.040298515            2 
  771000   0.96224856   -5.6047785     368.8043  0.039862116  0.040274125            3 
  772000   0.94231541   -5.6172316    369.10168  0.039842582  0.040249891            6 
  773000    0.9593963   -5.6217478    367.45944  0.039613997  0.040225262            8 
  774000   0.93628949   -5.6164861    369.36306  0.039767771  0.040201215            3 
  775000   0.94714279   -5.6122594    368.56781  0.039630947  0.040177064            2 
  776000    0.9597922   -5.6284422    368.64148  0.039587788  0.040152967            7 
  777000   0.94576821   -5.6242624    370.40766  0.039726261  0.040128881            5 
  778000   0.94015975   -5.6331347     369.9094  0.039621829  0.040104811            5 
  779000   0.94848861    -5.636348    370.03937  0.039584871  0.040080468            4 
  780000   0.94590326   -5.6322279    371.62422  0.039703443  0.040056623            5 
  781000   0.94759262   -5.6412648    371.13931  0.039600866  0.040032822            3 
  782000    0.9372728   -5.6477563    370.80716   0.03951483  0.040009057            4 
  783000    0.9453984   -5.6666549    371.42027  0.039529616  0.039984938            6 
  784000   0.94102951   -5.6455738     371.4265  0.039479857  0.039960862            3 
  785000   0.93874734   -5.6669239    371.09444  0.039394314  0.039936739            6 
  786000   0.92604021   -5.6790011      371.271  0.039362914  0.039912371            3 
  787000   0.93771246   -5.6501199    372.69146  0.039463306  0.039888033            6 
  788000   0.94186966   -5.6330215    373.18784  0.039465719  0.039863994            5 
  789000   0.93202127    -5.661034    371.84763  0.039274148  0.039839709            5 
  790000   0.94205342   -5.6827653    372.45786  0.039288803  0.039815542            4 
  791000    0.9575428   -5.6769707    373.45984  0.039344694  0.039791725            4 
  792000   0.94314363   -5.6682562    373.57753    0.0393074  0.039768041            4 
  793000   0.93723092   -5.6550921    374.76826  0.039382961  0.039744126            3 
  794000   0.92834994    -5.684891    373.31924  0.039181281  0.039720694            6 
  795000   0.92830575   -5.6635502    375.00478  0.039308677  0.039696611            4 
  796000   0.93885714   -5.6945635    375.24354   0.03928429  0.039672716            6 
  797000   0.92502166   -5.6394238    374.20429  0.039126338  0.039648969            3 
  798000   0.93308615   -5.6368749     377.3843  0.039409388  0.039625584            3 
  799000   0.95171019   -5.6556527    376.33143  0.039250254  0.039601984            7 
  800000   0.92448805   -5.6923565     374.7654  0.039038063   0.03957802            4 
  801000   0.93396344   -5.6797494    374.55408   0.03896734  0.039554015            4 
  802000   0.91609189    -5.713516    375.69693  0.039037503  0.039529842            3 
  803000   0.93941319   -5.6918458    375.05095  0.038921851  0.039505656            4 
  804000   0.93704258   -5.7143388    375.01545   0.03886976  0.039481665            5 
  805000   0.92984473   -5.6674743    376.38639  0.038963394  0.039457462            5 
  806000   0.94202996   -5.6678952    376.30805  0.038906953   0.03943347            3 
  807000   0.93967508   -5.6800455    376.56873   0.03888566  0.039409006           10 
  808000   0.91701268   -5.6342643    376.72103  0.038853241   0.03938416            5 
  809000   0.93331145   -5.6818683     375.3312  0.038662052  0.039358906            3 
  810000   0.92672294   -5.6511072    377.66114  0.038854027  0.039333902            3 
  811000   0.93524987   -5.6782064    376.63754  0.038700939  0.039308169            2 
  812000   0.91579561    -5.677216     377.0714  0.038697804  0.039283132            3 
  813000   0.92945172   -5.6711132    377.32415  0.038676112  0.039258214            5 
  814000   0.93151322   -5.6900946    376.78657  0.038573564  0.039232689            6 
  815000   0.93138362   -5.6952753    378.32317   0.03868335  0.039206975            7 
  816000   0.93179785   -5.6899128    377.85119  0.038587744  0.039181643            5 
  817000   0.93347976   -5.6822179    377.01972  0.038455703  0.039155785            4 
  818000   0.91498831   -5.6840114    377.74189  0.038482262  0.039130041            2 
  819000   0.93377111   -5.7112535    377.28115  0.038388395  0.039103985            9 
  820000    0.9421886   -5.7123191    377.74055  0.038388267  0.039077844            9 
  821000   0.94117705   -5.6542833    379.08321  0.038477792  0.039052096            3 
  822000   0.93004269   -5.6832215    378.95329  0.038417811  0.039026619            3 
  823000   0.92810157   -5.7198505    377.10097  0.038183573  0.039000949            5 
  824000   0.93340461   -5.6768005    379.08562  0.038337947  0.038975314            4 
  825000    0.9166611   -5.6912873     379.5641  0.038339808  0.038949785            6 
  826000   0.93408419   -5.6601443    380.03384  0.038340783  0.038924049            5 
  827000   0.92352043   -5.6901673    380.04825  0.038295873  0.038898741            5 
  828000   0.93175433   -5.6964486    380.14938  0.038259801  0.038873644            4 
  829000   0.92827066   -5.6899051    381.30352  0.038329667  0.038848264            4 
  830000   0.93024321   -5.6873763    380.75115  0.038228027  0.038822942            5 
  831000    0.9271143   -5.7107651    379.98187  0.038104881  0.038797863            2 
  832000   0.91724052    -5.683951    383.43708  0.038405156  0.038772654            3 
  833000   0.91471162   -5.7158434    380.62138  0.038077369  0.038747364           10 
  834000   0.90443109   -5.7221176     381.8634  0.038155815  0.038722092            1 
  835000   0.93156769   -5.7036731    383.18493  0.038242009   0.03869713            3 
  836000   0.92460768   -5.6804474    383.15922  0.038193703  0.038672243            3 
  837000   0.91821622   -5.6897138     384.5192  0.038283472    0.0386474            4 
  838000   0.94026084   -5.7142683    383.11589  0.038098239  0.038622468           10 
  839000   0.90121428   -5.7194065    384.31656  0.038172086  0.038597653            4 
  840000   0.90630309    -5.670667    383.60729  0.038056279   0.03857296            3 
  841000   0.90778534   -5.6905105    383.64464  0.038014729   0.03854804            3 
  842000   0.91218382   -5.7125814    383.66672  0.037971766  0.038523326            3 
  843000   0.92677414   -5.7068696    385.58515  0.038116365  0.038498336            7 
  844000   0.94296841   -5.7161837    385.33749   0.03804675  0.038473651            5 
  845000   0.93040587    -5.679202    386.07443  0.038074401  0.038449057            3 
  846000   0.91949095   -5.6802155    385.51934  0.037974719  0.038424711            8 
  847000   0.92989815   -5.7212848    385.08867  0.037887512  0.038400477            7 
  848000   0.90391658   -5.7586217    384.79407  0.037813883  0.038375613            5 
  849000   0.90961949   -5.6896185    384.62654  0.037752899  0.038350819            6 
  850000   0.93037005   -5.7364209     385.1165   0.03775652   0.03832644            9 
  851000   0.90490816   -5.7080499    385.83827  0.037782831   0.03830197            9 
  852000   0.90982978    -5.725632    384.55635  0.037613101  0.038276999            6 
  853000   0.90384501   -5.6941448    386.82063  0.037790214  0.038252105            6 
  854000   0.92287303   -5.6925302    385.58826  0.037625708  0.038227209            7 
  855000   0.92752878   -5.7198135    387.81882  0.037799106  0.038202159            7 
  856000   0.89396691   -5.7154892    387.41382   0.03771552   0.03817773            6 
  857000   0.90890065   -5.7230164    387.62948  0.037692482  0.038153254            5 
  858000   0.90058233   -5.7085169    387.29099  0.037615675  0.038128541            5 
  859000    0.9088994   -5.6810997    388.22768  0.037662755  0.038103597            5 
  860000   0.90523052   -5.7564842    386.12915  0.037415615  0.038078585            6 
  861000    0.9043501   -5.7443863    388.48242  0.037599925  0.038053621            4 
  862000   0.89794352   -5.7095233    389.50029  0.037654707  0.038029131            5 
  863000   0.90549551   -5.7159289    389.16813     0.037579  0.038004901            9 
  864000   0.88830067   -5.7466315    388.22651  0.037444686  0.037979772           11 
  865000     0.922762   -5.7507308    388.68681  0.037445743  0.037954398            8 
  866000   0.89526497   -5.7257373    389.10823  0.037443055  0.037929337            8 
  867000   0.88100184   -5.7666885    389.16717  0.037405534  0.037904045            6 
  868000   0.88905185   -5.7328815    389.58287   0.03740235  0.037878974            8 
  869000   0.89593911   -5.7502256    388.76679   0.03728105  0.037853693            5 
  870000    0.8895801   -5.7183206    389.71153  0.037328691  0.037828806            5 
  871000   0.91596867   -5.7274514    390.12484  0.037325377  0.037803991            5 
  872000   0.89606613   -5.7399255    391.13045  0.037378675  0.037779758            3 
  873000   0.90608292     -5.74952    389.57758  0.037187627  0.037755351            7 
  874000   0.89470807   -5.7385987    391.23348  0.037302963  0.037730625            3 
  875000   0.90398619   -5.7163432    391.79883  0.037314174    0.0377059            4 
  876000   0.91937571   -5.7278182    390.63655  0.037161011   0.03768132            8 
  877000   0.89725375   -5.7237363    391.21817  0.037173904  0.037656616            4 
  878000   0.91710819   -5.7329856     391.3953  0.037148377  0.037632255            5 
  879000   0.90537627    -5.751331    393.09099  0.037266874  0.037608285            3 
  880000   0.89591907   -5.7177667    392.73521  0.037190834   0.03758437            4 
  881000   0.90927907   -5.7230415    392.79083  0.037153881  0.037560087            4 
  882000   0.90158342   -5.7527515    392.96458  0.037128173  0.037535929            5 
  883000   0.90781373    -5.697521    395.15129  0.037292496  0.037512182            6 
  884000   0.92690201   -5.6886679    394.44945  0.037184148  0.037488452            3 
  885000   0.89964387   -5.7324508     394.6375   0.03715984  0.037464583            5 
  886000   0.87108147   -5.7204884    395.12566  0.037163813  0.037440711            4 
  887000   0.90242035   -5.7023215    396.22983  0.037225651  0.037417098            4 
  888000   0.92626205   -5.7146441    395.32602  0.037098913  0.037393175            5 
  889000   0.90533502   -5.7152552    395.75187  0.037097101  0.037369198            4 
  890000   0.89371557   -5.7350669    393.70118  0.036863407  0.037345047            5 
  891000   0.89809317   -5.7549402    393.38855  0.036792794  0.037320684            5 
  892000     0.908203   -5.7432174    393.87292  0.036796798  0.037296018            6 
  893000   0.90529187   -5.7902585    393.60761  0.036730833  0.037271139            9 
  894000   0.89983196   -5.7608994    395.00232  0.036819754  0.037246503            3 
  895000   0.87463111   -5.7623829    393.85877  0.036672138  0.037221664            8 
  896000   0.88224195   -5.7415221    395.37833  0.036772538  0.037196733           12 
  897000   0.90106492    -5.765321    393.69982  0.036575606  0.037172067            6 
  898000   0.89373824   -5.7824972    395.24153  0.036677945  0.037147203            4 
  899000   0.88709774   -5.7595929    395.95767  0.036703529  0.037122364            5 
  900000   0.89437447   -5.7353928    395.70608  0.036639452  0.037097803            8 
  901000   0.89375799   -5.7514193    396.62565  0.036683838  0.037073486            4 
  902000   0.88665975   -5.7614791    396.41396  0.036623611  0.037049317            3 
  903000   0.90502347   -5.7479452    398.22787   0.03675045   0.03702501            3 
  904000   0.89682594   -5.7461344    396.76509  0.036574953  0.037000845            2 
  905000   0.88734473   -5.7341114     396.6442  0.036523407  0.036976349            4 
  906000   0.91589552   -5.7845989    396.62661  0.036481476  0.036951813           12 
  907000   0.90467867   -5.7745881    396.27805  0.036409229  0.036926954            2 
  908000    0.8902598   -5.7677933    397.63567  0.036493729  0.036902458            3 
  909000   0.89178824   -5.7914218    397.07355  0.036402049  0.036878128            3 
  910000   0.90421595   -5.7472976    398.80097  0.036520235  0.036853564            4 
  911000    0.8705391   -5.7470079    397.72533  0.036381754   0.03682934            7 
  912000   0.89820308   -5.7163605    399.31959  0.036487536  0.036804901            3 
  913000   0.89701552   -5.7609456    397.47816  0.036279496  0.036780442            8 
  914000   0.89773567   -5.7403655    398.80161  0.036360468  0.036756136            8 
  915000   0.89345803   -5.7456966    399.70796  0.036403275  0.036731864            7 
  916000   0.88760892    -5.779393    399.29579  0.036326036  0.036707438            5 
  917000   0.89984211   -5.8218577    398.36986  0.036202278  0.036682777            4 
  918000   0.89467204   -5.7799646     400.3342  0.036341159  0.036658064           12 
  919000   0.87497446   -5.7751902    399.95078  0.036266846  0.036633884            8 
  920000     0.878466   -5.7652669    400.81382  0.036305599  0.036609796            6 
  921000   0.88738638   -5.7781542    400.26735  0.036216735  0.036585734            4 
  922000   0.88409288   -5.7704235    400.91834  0.036236293  0.036562177            4 
  923000    0.8677466   -5.7479335    400.84992  0.036190856  0.036538356            6 
  924000   0.89891755   -5.8060591    401.76829  0.036234514  0.036514386            8 
  925000   0.88966517   -5.7930943    401.58484  0.036178814   0.03649044            4 
  926000   0.85707505   -5.7906668    402.34422  0.036208083  0.036466519            8 
  927000    0.8834357   -5.7906471    402.15299  0.036151833  0.036442797            5 
  928000   0.89017772   -5.7604163    402.49249  0.036143363  0.036419293            6 
  929000   0.90779707   -5.7639104    403.73767  0.036216152  0.036395548            6 
  930000   0.85634815   -5.7998571    400.54792  0.035891391  0.036371582            4 
  931000   0.88130204   -5.8214329    402.22783  0.036003207  0.036347241           11 
  932000   0.90828489   -5.7870921    402.43462  0.035983067  0.036323035            7 
  933000   0.87585731   -5.8171948    402.21286  0.035924693  0.036298816            7 
  934000   0.89148761   -5.7904526    403.77439  0.036025552  0.036274644            8 
  935000   0.89410907   -5.7949434    403.94161  0.036001926  0.036250656            7 
  936000   0.88444871    -5.805241     403.6247  0.035935248  0.036226969            7 
  937000   0.88237899      -5.7637    404.05707  0.035935349  0.036203632            3 
  938000   0.89708449    -5.771115    403.00831  0.035803865  0.036179657            4 
  939000    0.9051871   -5.7925354     404.6043  0.035907375  0.036155862            6 
  940000   0.90756791   -5.8005043    401.60779  0.035603527  0.036132304           10 
  941000   0.88299703   -5.7654194    404.93474  0.035860321  0.036108431            5 
  942000   0.88044417   -5.8160316    403.13704   0.03566322  0.036084418           14 
  943000   0.87422142   -5.7993529    404.11942  0.035712214   0.03606038            4 
  944000    0.8987508   -5.8077823     403.0521  0.035580164  0.036036342            6 
  945000   0.88930335   -5.7868734    405.35401  0.035745504  0.036012521            9 
  946000   0.87069156   -5.8034891    405.16799  0.035691331  0.035988934            5 
  947000   0.88307855   -5.7808476    406.66715  0.035785564  0.035965151            4 
  948000   0.88682462   -5.8082495    405.98028  0.035687437  0.035941611            6 
  949000   0.85108502   -5.8142717    405.77405  0.035631722   0.03591788            6 
  950000   0.85884109   -5.7938482    407.25025  0.035723706  0.035893805            4 
  951000   0.88572363   -5.8183827    405.73661  0.035553506  0.035869835            7 
  952000    0.8608098   -5.8138039    407.15207  0.035640062  0.035846039            5 
  953000   0.86909789   -5.8150093    406.57453  0.035552162   0.03582228            3 
  954000   0.85786692   -5.8099496    407.54778   0.03559991  0.035798525            5 
  955000   0.87317472   -5.8396271    406.55427   0.03547594  0.035774897            9 
  956000    0.8617722   -5.8120742    408.61899   0.03561881  0.035751413            4 
  957000   0.87750158   -5.8195865     407.5994  0.035492807  0.035727901            6 
  958000   0.84836238    -5.804029     406.5812  0.035367188  0.035704675            3 
  959000   0.86853958   -5.8389908    407.81814  0.035437794   0.03568116            5 
  960000   0.87386926   -5.8222356    407.10653  0.035339108  0.035657472           11 
  961000    0.8890371   -5.8154776    408.47912   0.03542136  0.035633881            4 
  962000   0.89064617   -5.8130136    408.98318  0.035428203   0.03561044            6 
  963000   0.86650743   -5.8189162    408.56343  0.035355091  0.035587241            3 
  964000   0.85849294   -5.7918321    409.29849  0.035381958  0.035564026            3 
  965000   0.86282669   -5.8411279    408.98458  0.035318185  0.035540658            6 
  966000   0.88553854   -5.8084786     408.7271  0.035259412   0.03551712            5 
  967000   0.86273821   -5.8104282    410.09478  0.035340812  0.035493794            4 
  968000   0.86649897   -5.8272739    409.31122  0.035236847  0.035470711            6 
  969000    0.8704431   -5.8486903    409.19583   0.03519056  0.035447371            7 
  970000   0.87166683    -5.838766    409.89841   0.03521464  0.035424151           10 
  971000    0.8602304    -5.841344    409.93647   0.03518164  0.035400801           14 
  972000   0.86608785   -5.8141115    411.88833  0.035312786  0.035377738            4 
  973000   0.87826457   -5.8226435    412.67087  0.035343514  0.035354749            3 
  974000   0.88376851   -5.8117742    411.42434  0.035200576  0.035331906           12 
  975000   0.86536165   -5.8389915    411.42294  0.035164354  0.035309275           11 
  976000   0.85821053   -5.7892464    411.96139  0.035174299  0.035286083            4 
  977000   0.89434906    -5.826559     411.8361   0.03512761  0.035263629            6 
  978000   0.85179286   -5.8481241    411.59386  0.035071051  0.035240662            5 
  979000   0.86272033   -5.8102831    412.42319  0.035105822  0.035217778            4 
  980000   0.86451096   -5.8426586    412.24149  0.035054548  0.035194993            7 
  981000   0.85367382   -5.8376841    412.68624  0.035056596  0.035172111            4 
  982000   0.85459056   -5.8270607    411.78752   0.03494463  0.035149164            9 
  983000   0.86549508   -5.8282782    414.13206  0.035107839  0.035126286            4 
  984000   0.85685432   -5.8461021    412.68687  0.034949768  0.035103571            5 
  985000   0.84927891   -5.8548576    413.44146  0.034978127  0.035080615            6 
  986000   0.85577561   -5.8246839    413.87502  0.034979295  0.035057778            8 
  987000   0.85213633   -5.8460149    414.72784   0.03501586  0.035035099            5 
  988000    0.8598391   -5.8356247    414.13434  0.034930359    0.0350126            7 
  989000   0.85799122   -5.8446625    414.39846  0.034917295  0.034989657            5 
  990000   0.86473261   -5.8595478    415.03093  0.034935263  0.034966797           11 
  991000   0.84352423   -5.8253681    416.43749  0.035018289  0.034944286            6 
  992000   0.85291994   -5.8368259    414.26621  0.034800589  0.034921859            2 
  993000   0.87569166   -5.8435803    415.65887  0.034882416  0.034899349            3 
  994000   0.85207128    -5.863011    416.48941  0.034916953  0.034876935            5 
  995000    0.8477865   -5.8684449    415.28151  0.034780696  0.034854321            4 
  996000   0.84887165   -5.8254938    415.38007  0.034754022  0.034831928            6 
  997000   0.86139846    -5.864629    415.53094  0.034731774  0.034809506            5 
  998000   0.84458012   -5.8552817    415.96706  0.034733388  0.034787251            4 
  999000   0.86009112   -5.8511268    416.92851  0.034778822  0.034765099            6 
 1000000   0.86421441   -5.8226087    416.21272  0.034684393  0.034742892            5 
 1001000   0.84815531   -5.8248745    416.72671  0.034692533  0.034720694            6 
 1002000   0.85956476   -5.8284437    417.67208  0.034736533  0.034698468            9 
 1003000   0.84838241   -5.8572611    416.16825  0.034576957  0.034676068            4 
 1004000   0.84453423   -5.8489931    417.70679  0.034670218  0.034653606            5 
 1005000    0.8537475   -5.8201055    418.66503  0.034715177  0.034631318            5 
 1006000   0.84844775    -5.831577     416.2425  0.034479995  0.034608671            5 
 1007000   0.84224412   -5.8524778    417.19856  0.034524872  0.034586043            8 
 1008000   0.85959087   -5.8723433    416.46432  0.034429921  0.034563475           19 
 1009000   0.85972351   -5.8492945    417.75561  0.034502445   0.03454091           10 
 1010000    0.8770889   -5.8733222    417.80276  0.034472175  0.034518469            6 
 1011000   0.85949232   -5.8607856    418.13715   0.03446564  0.034496037            8 
 1012000   0.84977358   -5.8357749    419.45633  0.034540211  0.034473751            6 
 1013000   0.85816593   -5.8215287     420.2729  0.034573289  0.034451753           12 
 1014000   0.84773701   -5.8422631    419.30257  0.034459448  0.034429795            5 
 1015000   0.84406627   -5.8694622    419.64334  0.034453476  0.034407641            5 
 1016000   0.84891539   -5.8722934    419.52862  0.034410156  0.034385576            5 
 1017000   0.85765214   -5.8492563    419.72318  0.034392263  0.034363526            4 
 1018000   0.85641097    -5.862636    418.80845    0.0342836  0.034341353           10 
 1019000    0.8522489   -5.8508099    420.87593  0.034419032  0.034319231            7 
 1020000   0.84658154   -5.8918192    419.19208  0.034247719  0.034296975            8 
 1021000   0.82936462   -5.8776253    419.57917   0.03424577  0.034274656            6 
 1022000   0.84845179   -5.8405701    420.91079  0.034320841  0.034252718            4 
 1023000   0.83807528   -5.8884184    420.43586  0.034248603  0.034230421            8 
 1024000   0.84783087   -5.8604614    421.80888  0.034326894  0.034208466            4 
 1025000   0.83472616   -5.8446424    421.67043  0.034282149  0.034186923            4 
 1026000   0.83944719   -5.8939256     421.7819  0.034257789  0.034165005            4 
 1027000   0.85199976   -5.8820071     420.7069  0.034137204  0.034142929            8 
 1028000   0.83553567    -5.896912    420.77289  0.034109346  0.034120743           11 
 1029000   0.84370541   -5.9021415    421.41655  0.034128325  0.034098526            7 
 1030000   0.85512765   -5.8777081    421.18217  0.034076228  0.034076643            6 
 1031000   0.83515367   -5.8838068    420.79233  0.034011666    0.0340547            8 
 1032000   0.83898655    -5.901732    421.66255  0.034048978  0.034032826            4 
 1033000   0.85323616   -5.8882603    422.13158  0.034053854  0.034010664            3 
 1034000   0.86106577   -5.8989034    422.39161  0.034041877  0.033988676            5 
 1035000   0.86229724   -5.8867597    422.28988  0.034000795  0.033966631            8 
 1036000   0.84930948   -5.8534276    420.94276  0.033859617  0.033944645           11 
 1037000   0.84257258    -5.861192    422.94028  0.033987486  0.033922513            3 
 1038000   0.84448051   -5.8504627    423.03783  0.033962575  0.033900754            6 
 1039000   0.85284766   -5.8782599    422.86644  0.033916141  0.033878725            5 
 1040000   0.84526462   -5.9047256    423.56229  0.033939286  0.033856728            4 
 1041000   0.82966046   -5.9074625    422.60698  0.033830209  0.033834592            6 
 1042000   0.82510487   -5.8651422    424.96829  0.033986587  0.033812569            6 
 1043000    0.8299378   -5.8665577    422.99237  0.033796131  0.033790537            9 
 1044000   0.83766498   -5.8911939    423.59014  0.033811473  0.033768448            6 
 1045000   0.84568131   -5.8779753     422.8376  0.033719107  0.033746462            6 
 1046000   0.82295542    -5.903672    423.18813  0.033714797  0.033724194           15 
 1047000   0.83694397   -5.9018078    423.32465  0.033693461  0.033702043            4 
 1048000   0.84937426   -5.8939056    423.36658  0.033664646  0.033679651            6 
 1049000   0.84627613    -5.919708    424.01952  0.033684423  0.033657176            8 
 1050000   0.82752946   -5.9199308    422.89562  0.033563145  0.033634729            5 
 1051000   0.83658481   -5.8922212    422.94044  0.033534764  0.033612525            5 
 1052000   0.84774563   -5.8854347    424.89459  0.033657683  0.033590356            4 
 1053000   0.81891613   -5.9029361    425.21972   0.03365145  0.033568429            6 
 1054000   0.82488068   -5.9019193    423.76911  0.033504832  0.033546078            3 
 1055000   0.85698482   -5.8792586    425.92641  0.033643476  0.033523876           11 
 1056000   0.81965463    -5.897756    425.66432  0.033590934  0.033501746           12 
 1057000   0.82125515   -5.9103366    425.13798  0.033517659  0.033479671            6 
 1058000   0.84569402   -5.8932414    425.83662  0.033541007  0.033457743            8 
 1059000   0.81485483   -5.9062448    424.68329  0.033418578  0.033435505            5 
 1060000   0.84212078   -5.9269351    425.62349  0.033460966  0.033413391            5 
 1061000   0.83269316   -5.8952311    426.46012  0.033495139  0.033391325            6 
 1062000   0.83889616   -5.9064189    426.42249  0.033460648  0.033369114            7 
 1063000   0.84326202   -5.8847525    426.38561  0.033426279   0.03334714            5 
 1064000   0.85097186   -5.9031573     426.2046  0.033380686  0.033325049            3 
 1065000   0.82580569   -5.9372174    425.63107  0.033304465  0.033303009            5 
 1066000     0.821041   -5.8994206    428.50636  0.033497996  0.033280987            9 
 1067000   0.81436865   -5.9069984     426.1248    0.0332806  0.033259253            4 
 1068000   0.82309731   -5.9250068    426.78185  0.033300706  0.033237386            3 
 1069000   0.83013679   -5.9291591    426.77416  0.033268956  0.033215442           11 
 1070000   0.83477495   -5.9208276    428.05625  0.033337714  0.033193558            9 
 1071000   0.81778101   -5.9109916    427.87937  0.033292824  0.033171685            7 
 1072000   0.82072898   -5.9077284    426.72515  0.033172042  0.033149848           10 
 1073000   0.82358011   -5.9026859    427.93981  0.033235462  0.033128224            6 
 1074000   0.84549051    -5.933687     428.4804  0.033246462   0.03310667            4 
 1075000   0.81735291   -5.9245531    428.80585  0.033240764  0.033084996            5 
 1076000   0.82543367   -5.9258501    429.48164  0.033262209   0.03306345           14 
 1077000   0.83558775   -5.9394813    428.50701  0.033155912   0.03304183            8 
 1078000   0.81864208    -5.938779    428.21733  0.033102762  0.033019959           10 
 1079000   0.84735988   -5.9447653    426.95124    0.0329743  0.032997969            9 
 1080000   0.82079526   -5.9255878    428.25226  0.033044156  0.032976106            5 
 1081000   0.81754287   -5.9354009    430.03251  0.033150826  0.032954388           12 
 1082000   0.80600648   -5.9307452    429.77676   0.03310049   0.03293267            8 
 1083000   0.81633897   -5.9465575    428.37714   0.03296223  0.032911034           12 
 1084000   0.80789748   -5.9632909    429.23725  0.032997944  0.032889404            3 
 1085000   0.82361811   -5.9321851    429.53327  0.032990267   0.03286761           11 
 1086000   0.81672619    -5.914225    429.70327  0.032972934  0.032845868            8 
 1087000   0.81704241   -5.9022044    429.30172  0.032911816   0.03282415           10 
 1088000   0.81023246   -5.9315118    429.36469  0.032886389  0.032802481            5 
 1089000   0.84016189   -5.9045197    429.59155   0.03287355   0.03278072            5 
 1090000   0.80586765   -5.9094111    430.54649  0.032916398  0.032759084           12 
 1091000   0.82032975   -5.9234079    429.78176  0.032827816  0.032737375            7 
 1092000   0.80626465    -5.925056    430.57678  0.032858423  0.032715723            6 
 1093000   0.81794242   -5.9322907    430.37442  0.032812933  0.032693913            3 
 1094000   0.80527532   -5.9404705    428.75596  0.032659656  0.032672129            8 
 1095000   0.80944032   -5.9240624    431.16113  0.032812871  0.032650174            4 
 1096000    0.8216887   -5.9518039     429.6428  0.032667487  0.032628185            3 
 1097000   0.84281265   -5.9342585    429.54453  0.032630244  0.032606385           12 
 1098000   0.82317826   -5.9262824    430.56184  0.032677736  0.032584364            6 
 1099000   0.81719762    -5.947163     431.3572   0.03270831   0.03256245            4 
 1100000    0.8256619   -5.9600456    429.41198   0.03253121  0.032540629           13 
 1101000   0.81178944   -5.9528409    430.55143  0.032587907  0.032519078            6 
 1102000   0.80943476   -5.9353957     430.6839  0.032568353  0.032497479            5 
 1103000    0.8051376   -5.9392152    431.34166  0.032588521   0.03247604            9 
 1104000   0.81281767   -5.9472671    431.40538  0.032563812   0.03245461            7 
 1105000   0.82094302   -5.9692136    431.90802  0.032572249  0.032433012            8 
 1106000   0.80576942   -5.9635026    432.95941  0.032622017  0.032411188           11 
 1107000   0.80026921   -5.9479582     432.7185  0.032574413  0.032389796            8 
 1108000   0.81670257     -5.96769     431.4108  0.032446661  0.032368426            7 
 1109000   0.79812892   -5.9560811    432.11512  0.032470327  0.032346969            3 
 1110000   0.82400225   -5.9507148    433.34485  0.032533398  0.032325827            4 
 1111000   0.81595054   -5.9454495    432.66895  0.032453416  0.032304663            6 
 1112000   0.80137783   -5.9100607    434.82832  0.032586055  0.032283656            5 
 1113000   0.81163524   -5.9463645    433.32612  0.032444304  0.032262349            8 
 1114000   0.81378946    -5.943507    434.65161  0.032514333  0.032241169            9 
 1115000   0.79295376    -5.970802    434.05099  0.032440283  0.032220083            7 
 1116000   0.80747285   -5.9666845    434.03663  0.032410143  0.032198924            7 
 1117000   0.81134124    -5.967812    434.44248  0.032411406  0.032177714            8 
 1118000   0.79827887   -5.9800171    433.50354  0.032312428   0.03215643            4 
 1119000   0.79939302   -5.9644885    433.86847  0.032310729  0.032134933            6 
 1120000    0.8055088    -5.954803    434.57959  0.032334791  0.032113791            6 
 1121000   0.79754037   -5.9715609    434.40782  0.032293177  0.032092658           14 
 1122000   0.80181192    -5.947972    434.55579  0.032275385  0.032071544            5 
 1123000   0.80395821   -5.9794352    433.83892  0.032193449  0.032050488           11 
 1124000   0.80185623   -5.9585754    436.25029  0.032343586  0.032029335           11 
 1125000   0.80672531   -5.9661416    434.56919   0.03219031  0.032008288            5 
 1126000   0.79414378   -5.9440749    434.52314  0.032158314  0.031987175           11 
 1127000   0.80830688   -5.9715033    434.40629   0.03212114  0.031965936            5 
 1128000   0.80009666   -5.9676351     434.6713  0.032112242  0.031944886            9 
 1129000   0.79610948   -5.9573521    436.10416   0.03218956  0.031923668            6 
 1130000   0.80241345   -5.9194995    436.33152   0.03217784  0.031902558            4 
 1131000   0.80177598   -5.9623955    437.51409  0.032236523  0.031881602            8 
 1132000   0.80495686   -5.9730389    435.65085  0.032070881  0.031860518            6 
 1133000   0.78990548   -5.9723639    434.63573  0.031967912  0.031839345            7 
 1134000   0.79824994    -5.983245    435.49264  0.032002693   0.03181812            9 
 1135000   0.78746298   -6.0008038    435.68708  0.031988773  0.031796989            5 
 1136000    0.8160688   -5.9977694    436.57409  0.032025682  0.031775924            6 
 1137000   0.80036458   -5.9943568    435.45363  0.031915393  0.031754836            3 
 1138000   0.78288222   -5.9704806    437.62297  0.032046204  0.031733855           11 
 1139000   0.79627475    -5.974571    437.83629  0.032033677  0.031712843            5 
 1140000   0.81280605   -5.9742355    437.24008  0.031961994  0.031692116            5 
 1141000   0.79295889   -6.0025524    436.31328  0.031866293  0.031671273            6 
 1142000   0.80194995   -5.9989559    436.77329  0.031871957  0.031650453            8 
 1143000   0.78657839   -6.0012849    437.28781  0.031881584  0.031629667           11 
 1144000   0.78963928   -5.9828227     437.7257  0.031885613  0.031608791           10 
 1145000   0.80086982   -5.9848559    437.64969  0.031852234  0.031587951            6 
 1146000   0.79899211   -5.9611256    437.93987   0.03184554   0.03156708            8 
 1147000   0.80635361    -5.995715    437.73411  0.031802827   0.03154622            5 
 1148000   0.80577159   -5.9964308    436.40854  0.031678901  0.031525102            6 
 1149000    0.8113197   -5.9750272    437.37837  0.031721669  0.031504111            9 
 1150000   0.78469646   -6.0014653    438.22723  0.031755596  0.031483277            6 
 1151000   0.79569072    -6.027498    438.37463  0.031738679  0.031462344            8 
 1152000   0.78839258   -5.9687837    437.56167   0.03165232  0.031441353            8 
 1153000   0.80296075   -5.9962341    438.66968  0.031704949  0.031420615            7 
 1154000   0.79376542    -5.997472    439.00249  0.031701508  0.031399609            4 
 1155000   0.80779652   -5.9856258     438.3293  0.031625491  0.031378532            5 
 1156000   0.77682499   -5.9861516     438.7159  0.031626002  0.031357587            9 
 1157000   0.80198661   -5.9762278    437.65356  0.031522152  0.031336313            5 
 1158000   0.80656051   -5.9763993    437.60292  0.031491287  0.031315196           15 
 1159000   0.79236596   -6.0029582    438.12314   0.03150152  0.031294147           15 
 1160000   0.79074375   -5.9720689    437.98686  0.031464573  0.031273008            6 
 1161000   0.78252692   -6.0090213    438.15951  0.031449864  0.031251803            9 
 1162000   0.78895339   -6.0068453    438.82891  0.031470806  0.031230566            5 
 1163000   0.80060302   -5.9966038    438.16353  0.031396068  0.031209284            7 
 1164000   0.77225578   -5.9614924     438.4741   0.03139133  0.031187934            6 
 1165000   0.79225752    -6.008411    439.07764  0.031407557  0.031166783           13 
 1166000   0.79258203   -6.0145091    439.32316  0.031398168  0.031145543            7 
 1167000   0.78081687   -5.9753023    439.15099  0.031358968  0.031124421            5 
 1168000   0.79880183   -6.0276174    437.71113   0.03122939  0.031103221            7 
 1169000   0.79755104   -5.9948343    438.42423  0.031253509  0.031081829            9 
 1170000   0.80016062   -6.0319169    437.82925  0.031184419  0.031060558            6 
 1171000   0.78831552    -6.030889    438.26688  0.031188932  0.031039105            4 
 1172000   0.79172342   -6.0115682    439.02569  0.031216275  0.031017803            6 
 1173000   0.79260983   -6.0512987    439.35847  0.031213304  0.030996514            7 
 1174000   0.78585943   -6.0159178    439.03102  0.031163474  0.030975428            6 
 1175000   0.76180538   -6.0120988    439.32808   0.03115802  0.030954347           13 
 1176000   0.79386859   -6.0487574    438.55629  0.031076834   0.03093319            6 
 1177000   0.79823345   -6.0148131    439.54684  0.031120563  0.030912042            5 
 1178000   0.78254286   -6.0269941    440.09296  0.031132779  0.030890933            4 
 1179000   0.80489139   -5.9967886    439.70424  0.031078897  0.030869838           13 
 1180000   0.78322348   -6.0405547    440.06491   0.03107803  0.030848664            9 
 1181000   0.77924337   -5.9980871    440.60204  0.031089616  0.030827608            9 
 1182000   0.78686618   -6.0339611    439.78778  0.031005907  0.030806559            6 
 1183000   0.77579513   -6.0419752    440.64869  0.031040341  0.030785319            4 
 1184000    0.7832415   -6.0203447    440.42056  0.030998069  0.030764278            5 
 1185000   0.78875553   -6.0281612    441.13517  0.031022164  0.030743212            7 
 1186000   0.79504685   -5.9952772    441.77632  0.031041057  0.030722112            6 
 1187000   0.78172699   -6.0513452    441.41477  0.030989523   0.03070108            8 
 1188000   0.77738729   -6.0332985    440.53349   0.03090162  0.030679978            5 
 1189000   0.76133952   -6.0357268    440.57521  0.030878554  0.030658838            9 
 1190000   0.77657006   -6.0196313    441.26847  0.030901153  0.030637761           13 
 1191000    0.7848448   -6.0405644     441.3072  0.030877918  0.030616689            7 
 1192000   0.78698966   -6.0523188    440.49677  0.030795356  0.030595667            5 
 1193000   0.75663907     -6.05609    439.20997  0.030679657  0.030574512           12 
 1194000   0.77064196   -6.0323157    440.76047  0.030762177  0.030553515            4 
 1195000   0.77387035   -6.0315046    441.59063  0.030794326  0.030532552            4 
 1196000   0.77302158   -6.0470456    441.82189  0.030784691  0.030511633            7 
 1197000   0.76075299   -6.0536395    441.75918  0.030754607  0.030490652           10 
 1198000   0.77263535   -6.0176907    443.35097  0.030839661  0.030469695           15 
 1199000   0.77030525   -6.0326438    441.25415  0.030668206  0.030448771            9 
 1200000   0.76385625   -6.0517451    440.72821  0.030606126   0.03042784            8 
 1201000   0.78180296   -6.0388338    441.27151  0.030618339  0.030406965           19 
 1202000   0.78327418   -6.0657546    441.67182   0.03062062  0.030386063            7 
 1203000   0.76671448   -6.0459661    442.95707  0.030684197  0.030365046           19 
 1204000   0.78732615   -6.0523823    441.26199  0.030541389  0.030344003           18 
 1205000   0.77934307   -6.0452248    441.87333  0.030558321  0.030322955           13 
 1206000   0.76692317   -6.0473058    443.18756  0.030623795  0.030302018           17 
 1207000   0.75726177   -6.0661574    441.47102   0.03047991  0.030281168           11 
 1208000   0.77917258   -6.0546836    442.33184  0.030514062  0.030260034            7 
 1209000   0.75314174   -6.0586281    441.65117  0.030441906  0.030239204           17 
 1210000    0.7721019   -6.0677073    442.04837  0.030444103  0.030218367            8 
 1211000   0.78153647   -6.0444576     443.2251  0.030499938   0.03019748            5 
 1212000   0.76698008   -6.0654494    442.85643  0.030449424  0.030176808            7 
 1213000   0.77153869   -6.0402565    444.19846  0.030516519  0.030156178            7 
 1214000   0.75140406   -6.0531789    443.35241  0.030433307  0.030135648           15 
 1215000   0.76630191   -6.0644751    443.54915  0.030421752  0.030114938            6 
 1216000   0.74982891   -6.0806527    441.30897  0.030243213  0.030094218           10 
 1217000   0.75690405   -6.0596941    444.36906    0.0304279  0.030073423           11 
 1218000   0.77074155   -6.0924151    443.11186  0.030316903  0.030052675           12 
 1219000    0.7763744   -6.0461323    442.82908  0.030272701  0.030032058            5 
 1220000   0.77783754   -6.0605906     443.1926  0.030272719  0.030011346            8 
 1221000   0.74868531   -6.0639579      444.348  0.030326781  0.029990639            5 
 1222000     0.777136   -6.0647138    443.56406  0.030248504  0.029969819            8 
 1223000   0.75704908   -6.0641807    444.07754  0.030258758  0.029949105           15 
 1224000   0.76150236   -6.0361782      443.734  0.030210648   0.02992847            9 
 1225000   0.77258745   -6.0591695    443.32816  0.030158378  0.029907629            9 
 1226000   0.76038305   -6.0650448    444.96701  0.030245175  0.029886876           23 
 1227000   0.74490885   -6.0500254     444.9841  0.030221686  0.029866161            6 
 1228000   0.75746565   -6.0591974    444.48492    0.0301632  0.029845363            8 
 1229000   0.75668683   -6.0567342    444.11688  0.030113702  0.029824598            7 
 1230000   0.77670934   -6.0836714    443.88722   0.03007366  0.029803905            7 
 1231000   0.76111962   -6.0746066    444.14297  0.030066543  0.029783168            8 
 1232000   0.76110373   -6.0537738    446.00941  0.030168386  0.029762589           14 
 1233000   0.76281002   -6.0778586    444.12219  0.030016369  0.029742082            6 
 1234000   0.75845464   -6.0825717    444.29336  0.030003603  0.029721373           11 
 1235000   0.75876975   -6.0675547    445.08463  0.030032701  0.029700762           15 
 1236000    0.7490329   -6.0914435    444.25771  0.029952651  0.029680106            8 
 1237000    0.7527069   -6.0852709    445.80367  0.030032584  0.029659623           16 
 1238000   0.75663805   -6.0383558    447.07932  0.030094192  0.029639279            8 
 1239000   0.76723123   -6.1075232    445.18578  0.029942547  0.029618801            9 
 1240000   0.74605179   -6.0939379    443.43628  0.029800826  0.029598295            6 
 1241000   0.76591176   -6.1060277    444.46637  0.029845982  0.029577566            9 
 1242000   0.76564903   -6.1084879    445.42005   0.02988594  0.029556931           10 
 1243000   0.75792248   -6.0831371     446.0756  0.029905846  0.029536444           11 
 1244000   0.76339467   -6.1100899    445.34741  0.029833026  0.029515952            3 
 1245000   0.75563176    -6.112155    445.26172  0.029803328  0.029495326            9 
 1246000   0.75506786   -6.1166825    445.08717  0.029767735  0.029474626           12 
 1247000     0.738462   -6.0838006    445.81093   0.02979223  0.029454227           10 
 1248000   0.75635181   -6.0824105    446.29843   0.02980091  0.029433852           28 
 1249000   0.75240635   -6.1140718    444.44463  0.029653365  0.029413375            7 
 1250000   0.74873556   -6.1215205     444.2389  0.029615927  0.029392916           14 
 1251000   0.75027157   -6.1044641    446.87354  0.029767755  0.029372497            8 
 1252000   0.74514789   -6.0864675    446.87262  0.029743918  0.029352193           19 
 1253000   0.74797381    -6.100139     445.5379  0.029631411  0.029331691           21 
 1254000   0.74535532   -6.1181213    445.98602  0.029637561  0.029311294           10 
 1255000   0.75328382   -6.0858645     448.2387  0.029763526  0.029291041           13 
 1256000   0.76900121   -6.1005258     447.6176   0.02969862  0.029270961           10 
 1257000   0.73175733   -6.1189227    446.80151  0.029620891  0.029250958            7 
 1258000   0.74124765   -6.1003648    448.39435  0.029702858  0.029230834            8 
 1259000   0.74706752   -6.1012973     448.0614  0.029657228  0.029210743            6 
 1260000   0.76098464   -6.1124767     447.9394  0.029625621  0.029190634           16 
 1261000   0.76923432   -6.1148827    446.62539  0.029515291  0.029170456           14 
 1262000   0.73467226   -6.1161001    448.16162  0.029593345  0.029150226           13 
 1263000   0.74506026   -6.1146098    447.77208  0.029544212  0.029130077           12 
 1264000   0.73690862   -6.0782964    448.39365  0.029561818  0.029109974            5 
 1265000   0.74717842   -6.0860145    448.91309  0.029572668  0.029090119            9 
 1266000   0.74474348   -6.0949449    449.50776  0.029588452  0.029070299            7 
 1267000   0.73140353   -6.1306045    447.67917  0.029444828  0.029050409            6 
 1268000   0.75161699   -6.1155483    449.19422  0.029521177   0.02903043            6 
 1269000   0.76034136   -6.0801043    449.28159   0.02950365  0.029010599            7 
 1270000   0.74511496     -6.12905    448.72416  0.029443842  0.028990773           29 
 1271000   0.75408728   -6.1191387    448.96447  0.029436432  0.028970898           12 
 1272000   0.72656968   -6.1068288     450.2323  0.029496351  0.028950968           18 
 1273000     0.750946   -6.1047745    449.32458  0.029413759  0.028930883           12 
 1274000   0.74536441    -6.121505    447.75908   0.02928827   0.02891092            6 
 1275000   0.75804834   -6.1273867    449.31152  0.029366766  0.028890979           20 
 1276000    0.7404213   -6.1039508    449.36946  0.029347535   0.02887106           17 
 1277000   0.75174517   -6.1361287    448.39427  0.029260916  0.028851116           21 
 1278000   0.75208431   -6.1464618    448.24193  0.029228086  0.028831039           23 
 1279000   0.75509918   -6.1168759    449.21068  0.029268353   0.02881108            7 
 1280000   0.74657152   -6.1168114    449.60837  0.029271378  0.028791235           11 
 1281000   0.75546917   -6.1378408    450.04071  0.029276653  0.028771439            5 
 1282000   0.74218321   -6.1380297    450.09769   0.02925752  0.028751602            8 
 1283000   0.72391741   -6.1264012    450.62872  0.029269208  0.028731938           11 
 1284000   0.74448179   -6.0924054    449.60625  0.029180052  0.028712178           16 
 1285000   0.73841728   -6.1469046    449.80516  0.029170244  0.028692382            6 
 1286000    0.7321501    -6.120907    449.75668  0.029144419  0.028672575            7 
 1287000   0.74944909    -6.166685     449.1275  0.029081035  0.028652623           18 
 1288000   0.72276145   -6.1724636    447.97558  0.028983927  0.028632625            5 
 1289000   0.73455316   -6.1516504    448.77895  0.029013379  0.028612656            8 
 1290000   0.73783537   -6.1267221    450.41566  0.029096619  0.028592874            8 
 1291000    0.7256164   -6.1183164    450.87498   0.02910373  0.028573243           11 
 1292000   0.72810869   -6.1274661     449.4444  0.028988932  0.028553459           14 
 1293000   0.73222753   -6.1408517    450.02482   0.02900392  0.028533657           15 
 1294000   0.73382147   -6.1362326    451.07358  0.029049046  0.028513784           16 
 1295000   0.74058277   -6.1608158    449.33077  0.028914464  0.028494029           11 
 1296000   0.74337169   -6.1538446    449.00615   0.02887128  0.028474082           13 
 1297000   0.74209531   -6.1339128    449.64262  0.028889914   0.02845428           11 
 1298000    0.7382366   -6.1365133    449.96456  0.028888325  0.028434514           20 
 1299000   0.72880446   -6.1016358    451.38357  0.028957119  0.028414875            4 
 1300000   0.72365184   -6.1253146    450.82649  0.028899134  0.028395438            9 
 1301000     0.716828   -6.1405639    451.36303  0.028911288    0.0283759            8 
 1302000   0.73627515   -6.1338734    451.97657  0.028928352  0.028356318            6 
 1303000   0.72824654   -6.1379733    450.81909  0.028832124  0.028336703           14 
 1304000   0.71138306   -6.1497573    452.20576   0.02889863  0.028317268           11 
 1305000   0.72330055   -6.1498936    451.88802  0.028856195  0.028297901            7 
 1306000   0.72716208   -6.1474538    451.78315  0.028827409  0.028278206            9 
 1307000   0.73877228   -6.1468257    451.75218  0.028803378  0.028258517            9 
 1308000   0.71695939    -6.132324    450.77043  0.028718809  0.028238916           17 
 1309000   0.74042019   -6.1396253    451.13891  0.028720328  0.028219353            5 
 1310000   0.73964819   -6.1274233    452.80983  0.028804696  0.028199814           16 
 1311000   0.74636821   -6.1805638    451.34186  0.028689414  0.028180222           22 
 1312000   0.71969217   -6.1387025    450.76315  0.028630789  0.028160507            8 
 1313000   0.73665035   -6.1620532    450.60134  0.028598714  0.028140743            7 
 1314000   0.73542029   -6.0982763    452.10059  0.028672031  0.028121332            8 
 1315000   0.73104516   -6.1636637    450.25293  0.028533139  0.028101778            6 
 1316000   0.73161627   -6.1602968    450.80641  0.028546505  0.028082344            8 
 1317000   0.72020094   -6.1581276    450.61718  0.028512856  0.028062785           16 
 1318000   0.73624017   -6.1222811    451.76067  0.028563522  0.028043275           18 
 1319000   0.70185262    -6.174907    450.90184  0.028487607  0.028023736           13 
 1320000   0.71587709   -6.1351754    451.49733  0.028503619  0.028004038            7 
 1321000   0.73378898   -6.1685177    451.56991  0.028486621  0.027984353           14 
 1322000    0.7248372   -6.1606392    450.78714   0.02841573  0.027964634           13 
 1323000    0.7315418   -6.1511638    452.64045  0.028510988  0.027945075           15 
 1324000   0.72523041   -6.1571881    452.59351    0.0284865  0.027925555            5 
 1325000    0.7295331   -6.1597655     452.0389  0.028430119  0.027906018            9 
 1326000   0.72951284   -6.1461601    451.96079   0.02840377  0.027886472           14 
 1327000   0.71668739   -6.1529407    451.81614  0.028373282  0.027866988           17 
 1328000   0.72834881   -6.1575027    452.73055  0.028409297  0.027847463            8 
 1329000   0.72845927   -6.1466543    453.47153  0.028434382  0.027828003           12 
 1330000   0.72384953    -6.148447    452.49381  0.028351743  0.027808552           10 
 1331000    0.7188817   -6.1835146    452.53282  0.028332884  0.027789092           12 
 1332000   0.72529996   -6.1720663    451.77033   0.02826391  0.027769586            8 
 1333000   0.71917922   -6.1824354    451.92528  0.028252393  0.027750074           20 
 1334000   0.71643629    -6.177783    452.52159  0.028268465  0.027730675            7 
 1335000   0.72603523   -6.1828192     453.0722   0.02828166  0.027711263           11 
 1336000   0.72024394   -6.2034294    452.07765  0.028198456  0.027691796           14 
 1337000   0.72528323   -6.2162328    451.69227  0.028153345   0.02767224            9 
 1338000   0.71523677   -6.1709984    452.61282  0.028189638  0.027652609            9 
 1339000   0.70291736   -6.1912321    453.21554  0.028206096  0.027633159            8 
 1340000   0.72775758   -6.1749446    453.55873  0.028206389  0.027613738            8 
 1341000   0.70985103   -6.1651342    454.22539  0.028226783  0.027594427            7 
 1342000   0.72068184   -6.1932953    454.02367  0.028193224   0.02757518           12 
 1343000   0.71443434   -6.1533904    453.81044  0.028158999  0.027555923            4 
 1344000   0.71099056   -6.1751318     453.7282  0.028132949  0.027536715           21 
 1345000   0.70530599   -6.1754363    452.53593  0.028038162  0.027517471           12 
 1346000   0.72512681   -6.1716425     453.3891  0.028070153  0.027498306           12 
 1347000   0.72291051   -6.1950426    452.86467  0.028016869  0.027479013           28 
 1348000    0.7218304   -6.1960076    453.09125  0.028010092  0.027459604           17 
 1349000   0.72007999   -6.1996282    452.53929  0.027955232  0.027440331           15 
 1350000   0.72688961   -6.1893092    454.38941  0.028048729  0.027421137            9 
 1351000   0.71153896    -6.194794    454.28085  0.028021271  0.027402055           15 
 1352000   0.71990366   -6.1985833    453.15493  0.027931147  0.027382868           19 
 1353000   0.69913082   -6.1841842    453.98425  0.027961583  0.027363681            7 
 1354000   0.71884327   -6.2016635    453.26566  0.027896705  0.027344482           17 
 1355000   0.71969514   -6.2028104    455.24592  0.027997904  0.027325299           17 
 1356000   0.71093404   -6.2113343    454.50349  0.027931631  0.027306145           21 
 1357000   0.70274152   -6.2153336    453.39722  0.027843111  0.027286923            7 
 1358000   0.70902198    -6.211641    453.59815  0.027834938   0.02726762            8 
 1359000   0.71941683   -6.1790463    454.99787  0.027900286  0.027248412            9 
 1360000   0.70326965   -6.1921377    454.58953  0.027854751  0.027229261           15 
 1361000   0.72759414   -6.2070444    453.10453  0.027743359  0.027210048           14 
 1362000   0.69827926   -6.1753324    453.82209  0.027766892  0.027190844           10 
 1363000   0.70386189   -6.2071726    454.39028   0.02778126  0.027171732           11 
 1364000   0.71754383   -6.2000531    454.98864  0.027797449  0.027152644           10 
 1365000   0.72024735    -6.195395    454.70638  0.027759852  0.027133645           12 
 1366000   0.70245026   -6.2090072    455.43483   0.02778397  0.027114661           15 
 1367000    0.7080874   -6.2299562     455.3955  0.027761247  0.027095641           10 
 1368000   0.71561953   -6.2061766     455.0031  0.027717051  0.027076648           16 
 1369000   0.70881689   -6.2278684     454.5145  0.027667063  0.027057656            7 
 1370000   0.70652284   -6.2104824    454.70474  0.027658439  0.027038662           12 
 1371000   0.70622411   -6.2235971    455.02177  0.027657535  0.027019639            7 
 1372000    0.7042897   -6.2030754    454.27822  0.027592215  0.027000664            5 
 1373000   0.70043189   -6.1915012    455.09229  0.027621528   0.02698174            8 
 1374000   0.68958814   -6.1911006    455.64029  0.027634661  0.026962788            8 
 1375000   0.70729568   -6.2027604    455.11131  0.027582503  0.026943822           16 
 1376000   0.68534981   -6.2265289    454.83209  0.027545548  0.026924732           12 
 1377000   0.71340177   -6.1972452    454.87343  0.027528046  0.026905708           14 
 1378000   0.71517162   -6.2007539    454.76355  0.027501424  0.026886696            9 
 1379000   0.70136969   -6.2349438    454.82837  0.027485398  0.026867686           13 
 1380000   0.69256574   -6.2009303    455.26076  0.027491592  0.026848717            9 
 1381000   0.69151777   -6.2053787    454.44917  0.027422711  0.026829677           12 
 1382000   0.71384646   -6.2156314    455.32331  0.027455578  0.026810618            8 
 1383000   0.69392661   -6.2222541    454.12989  0.027363816  0.026791506            5 
 1384000     0.725098    -6.252094    454.07989  0.027341034   0.02677233            8 
 1385000   0.69182946   -6.2199506    455.07436  0.027381129  0.026753282           19 
 1386000   0.69237845   -6.2243345    455.39823  0.027380846  0.026734239           18 
 1387000   0.70767425   -6.2282895    455.23833  0.027351498  0.026715347            7 
 1388000   0.68684733   -6.2430676    453.95588  0.027254796  0.026696374           11 
 1389000   0.69340018   -6.2132122    455.48047  0.027326642   0.02667733            9 
 1390000   0.69732885    -6.244694    454.51647  0.027249189  0.026658311           14 
 1391000   0.69467571   -6.2445147    455.35706  0.027279958  0.026639275           17 
 1392000   0.70052889    -6.243678    455.78018  0.027285691  0.026620372            9 
 1393000   0.70614622   -6.2491373    455.58416  0.027254377   0.02660147           15 
 1394000   0.70410054   -6.2321814     454.8329  0.027189915  0.026582449           23 
 1395000   0.69552692   -6.2270767    455.10062  0.027186417  0.026563471           10 
 1396000   0.69280526    -6.239066    455.06495  0.027164813    0.0265445           10 
 1397000   0.68966621   -6.2420095    455.52341  0.027172716   0.02652554           20 
 1398000   0.69964943   -6.2670315    455.52914  0.027153621  0.026506542           10 
 1399000   0.68795834   -6.2776141    454.37321  0.027065357  0.026487474            6 
 1400000   0.69336466   -6.2699492    455.09665  0.027089087  0.026468411           10 
 1401000   0.69575865   -6.2469995    455.72585  0.027107176  0.026449435           18 
 1402000    0.6977826    -6.245373    455.73946  0.027088651  0.026430508           27 
 1403000   0.69357677   -6.2479495    455.64689  0.027063845  0.026411529           11 
 1404000   0.68027755   -6.2656684     455.1713   0.02701634  0.026392657           10 
 1405000   0.69239105   -6.2451446    455.10094  0.026992938  0.026373712            5 
 1406000   0.69434532   -6.2654018    455.89419  0.027020756  0.026354788           12 
 1407000   0.67911066   -6.2587926    455.62334  0.026985509  0.026335828           10 
 1408000   0.68872954   -6.2698995    455.79697   0.02697662  0.026317132            7 
 1409000   0.68809318   -6.2722346    455.88777  0.026962844  0.026298322           11 
 1410000   0.70409015    -6.256163     455.3549  0.026912228  0.026279443           20 
 1411000   0.68988394   -6.2732983    455.31018  0.026890514  0.026260533           14 
 1412000   0.69204361   -6.2433295    455.83516  0.026902453  0.026241817           21 
 1413000    0.6909681   -6.2633976    455.97478  0.026891648  0.026223012           20 
 1414000   0.68028752   -6.2648974    455.21217  0.026827686  0.026204112           15 
 1415000   0.69271127   -6.2438197    456.39807  0.026878567  0.026185405            5 
 1416000     0.681517   -6.2651543    456.39885  0.026859631  0.026166697           15 
 1417000   0.69336129   -6.2827506     456.2881  0.026834163  0.026148025            8 
 1418000   0.69184662   -6.2438503    457.28617  0.026873893  0.026129383           14 
 1419000    0.6974108   -6.2405119    456.67634  0.026819141  0.026110749           16 
 1420000   0.67215105   -6.2632324    456.68181  0.026800575  0.026092103            7 
 1421000   0.67825593   -6.2436114    456.95554  0.026797768  0.026073396            9 
 1422000   0.67809688   -6.2607418    456.50555  0.026752552   0.02605477            9 
 1423000   0.69263793   -6.2429846    457.34491  0.026782906  0.026036107           11 
 1424000   0.68200489   -6.2436202    456.41138  0.026709468  0.026017382           14 
 1425000   0.68864096   -6.2684911    457.19303  0.026736435  0.025998606            8 
 1426000   0.67525979   -6.2623014    456.72284  0.026690208  0.025979899           11 
 1427000   0.70336736   -6.2594078    455.90322  0.026623641  0.025961129           14 
 1428000    0.6822194    -6.275318    456.45409  0.026637143  0.025942434           11 
 1429000   0.67436234   -6.2753688    456.25007  0.026606606  0.025923757           12 
 1430000   0.67384372   -6.2688156    456.41843  0.026597811  0.025905093           18 
 1431000   0.68351405    -6.286668    456.23668  0.026568639  0.025886449           13 
 1432000    0.6891631   -6.2922205    456.73354     0.026579  0.025867793            5 
 1433000   0.69492229   -6.2697635     456.8295  0.026566033  0.025849189           12 
 1434000   0.69310697    -6.256414    456.42186  0.026523818  0.025830635           26 
 1435000   0.66990933   -6.2731832    455.89166  0.026474545  0.025812016           12 
 1436000   0.68347794   -6.2914112    457.07225   0.02652462  0.025793524           19 
 1437000   0.68564548   -6.2818225     455.7325  0.026428468  0.025775021           15 
 1438000   0.67135829   -6.2914986    455.53595  0.026398699  0.025756509            8 
 1439000   0.68778931   -6.2732126    457.28852  0.026481846  0.025738033            9 
 1440000   0.67686514    -6.299014    456.84905  0.026438024  0.025719489           16 
 1441000   0.68043533   -6.2778651    456.17243  0.026380548  0.025700986           10 
 1442000   0.67937372   -6.2956678    456.94894  0.026407128  0.025682458           13 
 1443000   0.67719469   -6.2822023    456.91998  0.026387155  0.025663837           14 
 1444000   0.68045917   -6.2746745    457.24928  0.026387886  0.025645325           15 
 1445000   0.66805681    -6.288061    457.52553  0.026385555  0.025626848           23 
 1446000   0.67136081   -6.2760519    457.86225  0.026386713  0.025608343            5 
 1447000   0.68426891   -6.2783758    457.74044  0.026361463  0.025589898            4 
 1448000   0.68101063   -6.3118748    458.24505  0.026372298  0.025571495           12 
 1449000   0.66945088   -6.2914889    457.28443  0.026298851  0.025553048           27 
 1450000   0.68119052   -6.3074395    457.73696  0.026306722  0.025534601           23 
 1451000   0.67616246   -6.2857068    457.24412  0.026260287  0.025516177           14 
 1452000   0.67688713   -6.3064548    455.89553  0.026164803  0.025497743            8 
 1453000   0.68820555   -6.2925856    458.43955  0.026292702  0.025479409           13 
 1454000   0.67132401    -6.283844    455.78197  0.026122305   0.02546102           18 
 1455000   0.66107408   -6.2960692     457.0475  0.026176833  0.025442617           18 
 1456000   0.67588883   -6.2917535    457.52828  0.026186371  0.025424165           14 
 1457000   0.66305627   -6.3268724    456.41962  0.026104988  0.025405773           12 
 1458000   0.68013881   -6.2994676    457.39881  0.026143051  0.025387345           13 
 1459000   0.68378207   -6.3034531    457.73484  0.026144325  0.025368883            7 
 1460000   0.66715938   -6.3004726    456.89849  0.026078681  0.025350425            9 
 1461000   0.66144201   -6.3041953    458.32351  0.026142112  0.025332018           19 
 1462000   0.66485397   -6.3083458    457.20914  0.026060712  0.025313676           21 
 1463000   0.66533922   -6.3136792    457.42415  0.026055147  0.025295261           19 
 1464000   0.67774423   -6.2982801    457.51514  0.026042528  0.025276972           39 
 1465000   0.67223976   -6.3277514    457.43909  0.026020426  0.025258584           12 
 1466000   0.67454067   -6.2991736    457.67098  0.026015859  0.025240221           14 
 1467000    0.6786007   -6.2961591    457.78312  0.026004494  0.025221887           10 
 1468000   0.65784162   -6.3283272    456.49703  0.025913773   0.02520352           11 
 1469000   0.67012516   -6.3122182    457.48091  0.025951946  0.025185101           12 
 1470000   0.65890589   -6.3124626    456.48925  0.025878075  0.025166651           10 
 1471000   0.67867869   -6.2960155    456.81537  0.025878958  0.025148226            7 
 1472000   0.67979129   -6.3126073    456.55211  0.025846473  0.025129917           11 
 1473000   0.66421663   -6.3003326    457.65141  0.025891118  0.025111579           14 
 1474000   0.67000644    -6.290453    458.10111  0.025898977  0.025093257           11 
 1475000   0.67036399   -6.3206134    458.09535  0.025881093  0.025075026           10 
 1476000   0.66427721   -6.3299195    457.05551  0.025804851  0.025056755           13 
 1477000   0.66592688   -6.3002781    457.41919  0.025807899   0.02503858           30 
 1478000   0.66754391   -6.3262158    456.44244  0.025735365  0.025020446           17 
 1479000   0.67035377   -6.3191933    457.64058  0.025785473  0.025002271           54 
 1480000   0.65323115   -6.3442701     457.7668  0.025775157  0.024984063           15 
 1481000   0.66328576   -6.3186786    456.98245   0.02571362  0.024965854           20 
 1482000   0.66128197    -6.309652    457.64781  0.025733683  0.024947653           20 
 1483000   0.65728229   -6.3269573    457.64016    0.0257159  0.024929474           26 
 1484000   0.65806689    -6.313983    458.05961  0.025722126   0.02491132           21 
 1485000   0.66514423   -6.3572528    456.26136  0.025603892  0.024893207           16 
 1486000   0.66258956    -6.334476    457.43458  0.025652455  0.024875017           11 
 1487000   0.66856501    -6.321599    458.62103  0.025701694  0.024856845           13 
 1488000   0.66455665     -6.30365    459.22828   0.02571843  0.024838829            9 
 1489000     0.662208   -6.3098806    458.55121  0.025663265   0.02482078            8 
 1490000    0.6584112   -6.3200603    457.33027  0.025577755   0.02480276           16 
 1491000   0.66237197   -6.3240605    457.21723  0.025554283  0.024784658           14 
 1492000   0.65438795    -6.324299    457.54484  0.025555454  0.024766587           37 
 1493000   0.65073265   -6.3403381    458.29191  0.025580035  0.024748521           14 
 1494000   0.65248415   -6.3456664    457.91299  0.025541778  0.024730445           12 
 1495000   0.66063034   -6.3606853    456.42145  0.025441553  0.024712424           25 
 1496000   0.65674541   -6.3286016    456.75309   0.02544302  0.024694317           39 
 1497000   0.64844463   -6.3376889    457.72416   0.02548008  0.024676092           16 
 1498000   0.65703605   -6.3384877     457.0579  0.025426007  0.024657947           37 
 1499000    0.6438247   -6.3491252    458.02817  0.025462985  0.024639907           20 
 1500000    0.6566869    -6.341499    458.83416  0.025490787  0.024621881           44 
 1501000   0.64759253   -6.3439418    457.45076     0.025397  0.024603784           35 
 1502000   0.65602804   -6.3612855    457.50609  0.025383161  0.024585733           26 
 1503000   0.65702811   -6.3620266    457.97928  0.025392509  0.024567716           26 
 1504000   0.65483492   -6.3400888    459.41136  0.025454973  0.024549645           20 
 1505000    0.6535518   -6.3608799    456.81869  0.025294501  0.024531639           34 
 1506000   0.63364592   -6.3280511     457.7411  0.025328746  0.024513671           46 
 1507000   0.65442946   -6.3588625     457.6755  0.025308311  0.024495664           10 
 1508000   0.65477752   -6.3477247    458.44711  0.025334168  0.024477723           14 
 1509000    0.6454426   -6.3638243    456.65083  0.025218182  0.024459798            8 
 1510000   0.65755989   -6.3388268     458.6836  0.025313664  0.024441854           14 
 1511000   0.65202632   -6.3559447    457.03429   0.02520595  0.024423873           12 
 1512000   0.65159625   -6.3251892    458.38361  0.025263647  0.024406048           16 
 1513000    0.6455881   -6.3497308    458.28255  0.025241383  0.024388192           22 
 1514000   0.64214397   -6.3543392    459.00577  0.025264518  0.024370286           38 
 1515000   0.64031862   -6.3731084    457.98793  0.025191855  0.024352415           16 
 1516000   0.64245149   -6.3548888    459.17512  0.025240497  0.024334552           40 
 1517000   0.64303965   -6.3842613     457.8761  0.025152499  0.024316712           33 
 1518000   0.64787442   -6.3536465    457.71561  0.025127119  0.024298814           48 
 1519000   0.64324535   -6.3780757    456.35259  0.025035801   0.02428097           26 
 1520000   0.65737849   -6.3625836    458.12821  0.025116678  0.024263145           41 
 1521000   0.64659565   -6.3685216    456.89809  0.025032769  0.024245347           12 
 1522000   0.64996079   -6.3794259    457.63845  0.025056858  0.024227368           19 
 1523000   0.64622936   -6.3685362    457.45377    0.0250303  0.024209499           27 
 1524000   0.63694856    -6.370937     458.6555  0.025079588  0.024191596           12 
 1525000   0.63885782   -6.3645833    457.93925  0.025024003  0.024173743           49 
 1526000   0.64365049   -6.3725522    458.28636  0.025026559  0.024155865           18 
 1527000   0.64349799   -6.3636626    457.74883  0.024980835  0.024138082           16 
 1528000   0.63910083   -6.3674222    457.84424   0.02496969  0.024120267           22 
 1529000   0.64888107   -6.3631703    458.55642  0.024992175  0.024102502           17 
 1530000    0.6394883   -6.3940067    458.56018  0.024976045  0.024084707            9 
 1531000   0.63580597   -6.3836261    457.51041  0.024902591  0.024066859           14 
 1532000   0.64844946   -6.3958833     457.6795  0.024895534   0.02404899           43 
 1533000   0.64372822   -6.3755228    456.87429  0.024835524  0.024031118           60 
 1534000   0.65260849   -6.4023272    457.41855    0.0248489   0.02401332           29 
 1535000   0.63673972   -6.3671275    457.54332  0.024839485  0.023995418           45 
 1536000   0.63460582   -6.3922742    457.97158  0.024846548  0.023977539           23 
 1537000   0.64141885   -6.3791908    457.15379  0.024786043  0.023959733           32 
 1538000   0.64905106   -6.3725472    458.52625  0.024844292  0.023941986           23 
 1539000   0.63646851   -6.3801329     458.5472  0.024829283  0.023924314           19 
 1540000   0.64961759   -6.3746163    458.49373  0.024810267  0.023906616           21 
 1541000   0.65766154   -6.3627206     457.8615  0.024759978  0.023888961           23 
 1542000   0.64665057   -6.3717104    456.77595  0.024685254  0.023871228           14 
 1543000   0.64618372   -6.3769126    457.22799   0.02469367  0.023853448           16 
 1544000   0.63214337   -6.3882909    458.24375  0.024732499  0.023835719           14 
 1545000   0.62893029    -6.371082    458.47678   0.02472906  0.023818017           23 
 1546000    0.6294932   -6.3952855    457.90572  0.024682283  0.023800306           19 
 1547000   0.63236951   -6.3882266    458.09283  0.024676408  0.023782609           24 
 1548000   0.62673374   -6.3791195     457.5261  0.024629958  0.023764918           15 
 1549000   0.64045758   -6.3592078    457.89456   0.02463388   0.02374726           12 
 1550000   0.64066258   -6.3671316    457.87243  0.024616797   0.02372964           12 
 1551000   0.63138328   -6.3582552    458.40253  0.024629408  0.023712014            8 
 1552000   0.62700941   -6.3901419    456.87478  0.024531506  0.023694404           20 
 1553000   0.61727578   -6.3491331    458.35742  0.024595268  0.023676751           11 
 1554000   0.63594227   -6.3751157    457.38457  0.024527272  0.023659156           17 
 1555000   0.62635007   -6.3702489    457.52692  0.024519128  0.023641549           24 
 1556000   0.62894386   -6.3885448    458.48654  0.024554763  0.023623948           19 
 1557000   0.63171623   -6.3816204    457.91531   0.02450842  0.023606403           32 
 1558000   0.63618883   -6.3985568     459.4659  0.024575626  0.023588839           18 
 1559000    0.6450287   -6.3971595    458.14712  0.024489369  0.023571245           16 
 1560000   0.62833957   -6.3962953    458.58915  0.024497283  0.023553583           13 
 1561000   0.61845842   -6.3874613    457.62594   0.02443017  0.023536062            8 
 1562000   0.63532149   -6.3843184    458.75093  0.024474548   0.02351861           33 
 1563000   0.63817771   -6.3915173    459.16858  0.024481157  0.023501162           54 
 1564000    0.6342498   -6.3913051    458.54855  0.024432468  0.023483762           25 
 1565000   0.61618517   -6.3585756     458.1774  0.024397093  0.023466443           12 
 1566000   0.61624955   -6.3857814    458.22551  0.024384074  0.023449177           13 
 1567000    0.6370162   -6.4128229     458.0739   0.02436045  0.023431813           12 
 1568000   0.62134318    -6.416809    457.96991  0.024339387  0.023414421           18 
 1569000   0.61398297   -6.4094525    457.10131  0.024277741  0.023396967           15 
 1570000    0.6385648   -6.4177091    458.42578  0.024332579  0.023379501           27 
 1571000   0.64213987   -6.4281554    458.23707   0.02430708   0.02336204           14 
 1572000    0.6295546   -6.3934864    459.04443  0.024334416   0.02334462           22 
 1573000   0.62496901    -6.407594    457.55726   0.02424016  0.023327228           52 
 1574000   0.63482998   -6.3973467    459.15039  0.024309106  0.023309769           30 
 1575000   0.61781232   -6.4324288    458.27155  0.024247172  0.023292373           23 
 1576000   0.61918621   -6.4127682    458.25915  0.024231131  0.023274992           31 
 1577000   0.62035716   -6.4399869    457.47831  0.024174504  0.023257679           22 
 1578000   0.62799727   -6.4283582     459.0236   0.02424079  0.023240333           39 
 1579000   0.63540825   -6.4346925    459.29432  0.024239726  0.023222952           18 
 1580000   0.62073388   -6.4300359    456.85752  0.024095861   0.02320552           30 
 1581000   0.62215066    -6.442037     457.1491  0.024095989  0.023188145           30 
 1582000   0.61561208   -6.4175398    458.42456  0.024147943   0.02317084           11 
 1583000   0.62443048   -6.4389219    457.36474  0.024076897  0.023153515           22 
 1584000   0.62683961   -6.4320287    457.90093  0.024089906  0.023136191           27 
 1585000   0.60799856   -6.4292347    457.58073  0.024057872  0.023118883           11 
 1586000   0.62371389   -6.4184325    458.71346  0.024102221  0.023101657           20 
 1587000     0.621757   -6.4309041     458.0211  0.024050677  0.023084429           31 
 1588000   0.62693212   -6.4329257    457.67383  0.024017309  0.023067211           30 
 1589000   0.63004196   -6.4329508    458.85078  0.024063918  0.023049916           28 
 1590000   0.62476569   -6.4514483    456.65273  0.023933581  0.023032665           25 
 1591000   0.62359469   -6.4326492    458.04915   0.02399168  0.023015424           24 
 1592000   0.61354723   -6.4238626    458.66632  0.024008915  0.022998212           19 
 1593000   0.62228963   -6.4458629    458.45208  0.023982636  0.022981041           21 
 1594000   0.61947012   -6.4485224    457.78596  0.023932767  0.022963857           26 
 1595000   0.61196007   -6.4591782     458.0678  0.023932487    0.0229467           11 
 1596000   0.61765844   -6.4191972    458.71868  0.023951476  0.022929551           32 
 1597000   0.61513941   -6.4472869    458.87135  0.023944445  0.022912422            8 
 1598000   0.60002633   -6.4327429    458.72538  0.023921849  0.022895384            8 
 1599000   0.61969926   -6.4526206    458.86084  0.023913948  0.022878289           22 
 1600000   0.60698278   -6.4436673    458.22469  0.023865869  0.022861126           12 
 1601000   0.61764023   -6.4276179    459.29397  0.023906619  0.022844018           19 
 1602000   0.62469464   -6.4161714    457.25786  0.023785781  0.022826921           11 
 1603000   0.61985057   -6.4236287     458.6375  0.023842665  0.022809852           32 
 1604000   0.61790407   -6.4660612    458.07441  0.023798546  0.022792764           33 
 1605000   0.61600283   -6.4599905    458.51436  0.023806561  0.022775644           37 
 1606000   0.60833063    -6.448283    457.87859  0.023758748   0.02275853           20 
 1607000     0.615037   -6.4604949    456.86406  0.023691354  0.022741347           39 
 1608000   0.61514818   -6.4696673     457.0511  0.023686313   0.02272416           47 
 1609000   0.61847663   -6.4806848    457.75195  0.023707891  0.022706946           37 
 1610000   0.59932483   -6.4679458    457.03535  0.023656074  0.022689779           40 
 1611000   0.59798139    -6.477647    457.74714  0.023678209    0.0226726           41 
 1612000   0.60262995   -6.4861222    458.12015  0.023682804   0.02265546           21 
 1613000   0.60264468   -6.4753716    457.45365  0.023633687  0.022638343           27 
 1614000   0.60453088   -6.4584458    456.91515  0.023591241  0.022621222           13 
 1615000   0.60357418   -6.4630438    458.56471   0.02366175  0.022604164           31 
 1616000   0.61245178   -6.4726041     458.0086   0.02361843  0.022587131           25 
 1617000   0.60641306   -6.4636286    457.00423  0.023552063  0.022570087           19 
 1618000   0.61589606   -6.4727166    456.94767  0.023534593   0.02255306           13 
 1619000   0.59960522   -6.4566332    458.03951  0.023576257  0.022536056           13 
 1620000   0.61270783   -6.4693807    457.79307  0.023549026   0.02251901           12 
 1621000   0.59599191   -6.4652253    457.90229  0.023540114  0.022501971           44 
 1622000   0.59506939   -6.5183463    457.06115  0.023482385  0.022484871           51 
 1623000   0.61070439   -6.4822191    456.35203  0.023431507   0.02246774           63 
 1624000   0.60416046   -6.4714897    457.14238  0.023457634  0.022450656           58 
 1625000   0.60798914   -6.4652185    457.95505  0.023484874  0.022433636           34 
 1626000   0.60698529   -6.4811669    457.68425  0.023456553   0.02241676           45 
 1627000   0.59887439   -6.4692339     458.4458  0.023481141  0.022399839           51 
 1628000   0.61031759   -6.4937369    457.41234  0.023413818  0.022382932           24 
 1629000   0.61121401   -6.4699168    457.82307  0.023420456  0.022366064           26 
 1630000   0.59266946   -6.4505629    458.10489  0.023420495  0.022349183           46 
 1631000   0.60650234   -6.5104421    457.65862  0.023383334  0.022332251           61 
 1632000   0.60831692   -6.4947828    457.87306  0.023379956  0.022315286           67 
 1633000    0.6111436   -6.5156973    457.43271  0.023343167  0.022298364           75 
 1634000    0.5903882    -6.515759    457.16031  0.023314989  0.022281404           97 
 1635000   0.59385182   -6.5113433    457.44463  0.023315221  0.022264417          159 
 1636000   0.59295392    -6.508457     456.0017  0.023227471  0.022247481          145 
 1637000   0.58564956   -6.5050492    456.42127   0.02323464  0.022230587           99 
 1638000   0.60343932    -6.496353    456.27328  0.023212926  0.022213695          120 
 1639000   0.59862879     -6.51493    456.96466  0.023233916  0.022196796          125 
 1640000    0.5898327   -6.5026368    457.75974  0.023260149  0.022179956          141 
 1641000   0.59581677    -6.520172    457.40282   0.02322785  0.022163121           64 
 1642000   0.60160183   -6.5035269     457.8579    0.0232368   0.02214631           51 
 1643000    0.6046636   -6.5004769    456.99643  0.023178963  0.022129502           57 
 1644000   0.60964521   -6.5079128    457.37333  0.023183968  0.022112787           64 
 1645000   0.58954427   -6.5145623    456.73722   0.02313765  0.022096012           51 
 1646000   0.60825909   -6.5019169    457.28997  0.023151578  0.022079272           80 
 1647000   0.59897011   -6.4801035    458.00472  0.023173685  0.022062579           55 
 1648000   0.60484103   -6.4889456    457.60071  0.023139194  0.022045915           84 
 1649000   0.59464181   -6.5102665    457.82363  0.023136428  0.022029309           99 
 1650000   0.60200383   -6.5078171    458.30831  0.023146884  0.022012689           53 
 1651000   0.60959552   -6.5019576    458.51879  0.023143488  0.021996059           78 
 1652000   0.59631294   -6.5118728    457.77319  0.023091868  0.021979413          105 
 1653000   0.58504895    -6.514079    457.46764  0.023062495  0.021962779           87 
 1654000   0.59224423   -6.5067669    457.91574  0.023071127  0.021946199           46 
 1655000   0.59605276   -6.5061615    457.30944  0.023026659  0.021929633           95 
 1656000   0.58414729   -6.4821125     458.1769  0.023056406  0.021913084           84 
 1657000   0.58354966     -6.51245    458.09403  0.023038324   0.02189657           74 
 1658000   0.57800915   -6.5095812    458.68043  0.023053902  0.021880052           83 
 1659000   0.57862782   -6.4936747    458.62848  0.023037396  0.021863564           79 
 1660000   0.59686696   -6.5220871    457.21105  0.022952362  0.021847081          101 
 1661000   0.59932229   -6.5086981    456.86598  0.022921231  0.021830578           83 
 1662000   0.59030293   -6.4875316    458.29674  0.022979179  0.021814085          107 
 1663000   0.58967919    -6.518565    458.44373  0.022972726  0.021797568           34 
 1664000   0.58419734   -6.5124309     457.3277   0.02290303  0.021781022          182 
 1665000   0.58159377   -6.4993802    457.31456  0.022888617  0.021764526          148 
 1666000   0.60194365   -6.5106994    456.79449  0.022848864   0.02174798          159 
 1667000   0.58544047   -6.5413346     456.4543  0.022818152  0.021731463          183 
 1668000   0.58058425   -6.5186211    457.60686  0.022862053   0.02171499          157 
 1669000    0.5776876   -6.5417932    456.74358  0.022805252   0.02169852          139 
 1670000   0.58969049   -6.5100745    457.40868  0.022824785  0.021682046          128 
 1671000   0.58280073    -6.518941    457.29814  0.022805612  0.021665563          134 
 1672000   0.59262535   -6.5331392    456.52075  0.022753227   0.02164904          121 
 1673000   0.59163823   -6.5364562    457.15195  0.022771068  0.021632494          151 
 1674000   0.57596288   -6.5411517    456.82645  0.022741261  0.021615963          150 
 1675000   0.57897268   -6.5271907    456.41099  0.022707014  0.021599491          181 
 1676000   0.58977553   -6.5489676    457.42641  0.022743954  0.021583017          231 
 1677000   0.58773254   -6.5487833    456.85679  0.022702086  0.021566552          172 
 1678000   0.57897999    -6.550726    456.58682   0.02267515  0.021550065          277 
 1679000   0.58371265    -6.549721    457.52787  0.022708352  0.021533561          257 
 1680000   0.57514433   -6.5708927    455.58907  0.022598664  0.021517054          333 
 1681000   0.58414699   -6.5655022    455.62032   0.02258677  0.021500517          227 
 1682000   0.58249104   -6.5386449     455.8416  0.022584304  0.021483946          244 
 1683000   0.58954422    -6.552625    455.49423  0.022553685  0.021467385          237 
 1684000   0.58830401   -6.5492065    456.19376  0.022574909  0.021450872          283 
 1685000   0.57763457   -6.5659404    456.06595  0.022555191  0.021434382          232 
 1686000   0.58166645   -6.5551108    456.21201  0.022549032  0.021417913          282 
 1687000   0.58497637   -6.5577488    455.62977  0.022506904  0.021401498          241 
 1688000    0.5930018   -6.5543935    456.16023  0.022519759  0.021385081          296 
 1689000    0.5811695    -6.564568    455.22116  0.022460093  0.021368656          239 
 1690000    0.5843548   -6.5461308    457.43109  0.022555773  0.021352252          203 
 1691000   0.57427595    -6.547399    455.34312  0.022439539  0.021335838          294 
 1692000   0.58488578    -6.554993    454.53963  0.022386703  0.021319437          225 
 1693000    0.5894159   -6.5603927    455.89416  0.022440154  0.021303042          275 
 1694000   0.58025205   -6.5675536    455.71805  0.022418243   0.02128661          231 
 1695000   0.57770401   -6.5589967    456.52853  0.022444864  0.021270177          348 
 1696000   0.58306144    -6.539952    456.75177  0.022442599  0.021253776          392 
 1697000   0.58100773   -6.5503064    456.24787  0.022404629  0.021237451          320 
 1698000   0.58501598    -6.558824    455.60066  0.022359671  0.021221061          249 
 1699000   0.58313649    -6.549239    456.25224   0.02237847  0.021204686          261 
 1700000    0.5640275   -6.5666281    455.22176  0.022314792  0.021188317          282 
 1701000   0.56961297   -6.5661018    456.01386  0.022340479  0.021171993          247 
 1702000   0.57876145   -6.5787243    455.93081  0.022323287  0.021155658          252 
 1703000    0.5739735   -6.5650555    455.19296  0.022274073  0.021139313          278 
 1704000   0.58625947   -6.5587804    456.52803  0.022326292  0.021122939          256 
 1705000    0.5644471   -6.5680802    456.21167  0.022297736  0.021106603          292 
 1706000    0.5716386   -6.5696669    456.04749  0.022276646  0.021090261          330 
 1707000   0.57771995   -6.5654197     455.5464  0.022239133  0.021073925          272 
 1708000   0.57481836   -6.5690619    455.92327    0.0222445  0.021057627          318 
 1709000   0.58891085   -6.5667917    456.24955  0.022247394  0.021041328          235 
 1710000   0.55779923   -6.5632401    455.22338  0.022184375   0.02102505          237 
 1711000   0.56525739   -6.5610817    456.37514  0.022227506  0.021008839          174 
 1712000   0.56768149   -6.5805936    455.38562  0.022166356  0.020992646          274 
 1713000   0.57478888    -6.582705    455.15897   0.02214239  0.020976422          309 
 1714000   0.56953314   -6.5466437    455.64718  0.022153208   0.02096023          162 
 1715000   0.57639822   -6.5486678    455.90544   0.02215284  0.020944094          212 
 1716000   0.57040874   -6.5713956    455.76495  0.022133107  0.020927938          193 
 1717000   0.57436778   -6.5601758    455.54548  0.022109565  0.020911782          222 
 1718000   0.56630258   -6.5732195    456.49485  0.022142746  0.020895672          252 
 1719000   0.56094691   -6.5817784    456.18306   0.02211475   0.02087956          211 
 1720000      0.56917   -6.5759007    456.54102  0.022119235  0.020863473          205 
 1721000   0.56765424   -6.5692975    456.27796  0.022093645  0.020847413          287 
 1722000   0.57227125   -6.5820779    455.64028  0.022049956  0.020831345          386 
 1723000   0.56211836   -6.5673265    456.19144  0.022063815  0.020815296          369 
 1724000   0.56540827   -6.5782177    456.56155  0.022068907   0.02079923          400 
 1725000   0.56219951   -6.5876319    455.32391  0.021996324  0.020783152          239 
 1726000   0.55617894   -6.5947858    455.05016  0.021970363  0.020767059          350 
 1727000   0.55363529   -6.5927846    455.15698  0.021962796   0.02075099          372 
 1728000   0.56805031   -6.5668878    455.76487  0.021979402  0.020734951          395 
 1729000   0.56073371   -6.5870629      455.704  0.021963755  0.020718922          320 
 1730000   0.58104218   -6.6044976    455.55159  0.021943718   0.02070292          392 
 1731000   0.56185709   -6.6000791    455.41137  0.021924291    0.0206869          354 
 1732000   0.55841977   -6.6030483    455.19093  0.021901026  0.020670886          328 
 1733000   0.55195955   -6.6008266    454.97965  0.021878229  0.020654901          351 
 1734000   0.56671315   -6.5977348    455.75007  0.021902637  0.020638877          387 
 1735000   0.56830567   -6.5984154    454.80284  0.021844517  0.020622889          274 
 1736000   0.56184534   -6.5934872    455.10738  0.021846552  0.020606929          371 
 1737000   0.55887947   -6.5946963     456.2906  0.021890741  0.020591017          405 
 1738000     0.555024   -6.5940709      455.326  0.021831895   0.02057515          329 
 1739000   0.56150967   -6.6107484    455.73881  0.021839123   0.02055925          394 
 1740000   0.56034256   -6.6195325     454.2424  0.021754904  0.020543349          482 
 1741000   0.54885272   -6.6036449    455.40406  0.021798012  0.020527472          405 
 1742000   0.55872487   -6.5987674    455.14042  0.021772886  0.020511626          260 
 1743000   0.56048845   -6.6009463    455.38434  0.021772057  0.020495797          391 
 1744000   0.56157809   -6.6173567    456.08312  0.021792963  0.020479959          373 
 1745000   0.55979727   -6.6216447    455.08027  0.021732582  0.020464122          448 
 1746000   0.55068044   -6.6405773    455.14059  0.021723014  0.020448296          412 
 1747000   0.54311448   -6.6113426    455.54371  0.021729809  0.020432477          429 
 1748000   0.54733765   -6.6179072    455.53434  0.021716931  0.020416698          455 
 1749000   0.55764441   -6.6203925    455.43132  0.021699605  0.020400949          355 
 1750000   0.56403509   -6.6084032    454.64188  0.021649613  0.020385183          425 
 1751000   0.56280783   -6.5997828    455.60515  0.021683093  0.020369385          285 
 1752000   0.55530881   -6.6039323    454.08401  0.021598364  0.020353606          420 
 1753000   0.55256956   -6.6071774    455.15532  0.021636971  0.020337822          518 
 1754000   0.53581896    -6.613777    454.71924  0.021603917  0.020322073          493 
 1755000   0.55253221   -6.6144237     455.2905  0.021618732  0.020306321          463 
 1756000   0.55791024   -6.6331025    454.67032  0.021576989  0.020290562          508 
 1757000   0.53865447   -6.6113799    454.83161  0.021572359  0.020274821          447 
 1758000   0.56550702   -6.6258199     455.0644  0.021571123  0.020259087          490 
 1759000   0.54900395   -6.6359737     454.5675  0.021535318  0.020243335          537 
 1760000   0.55988283    -6.628164     454.6383  0.021526435  0.020227587          520 
 1761000   0.54332555   -6.6463273    454.41503  0.021503645  0.020211863          481 
 1762000   0.55106006   -6.6305972    454.52378  0.021496584  0.020196134          414 
 1763000   0.54973027   -6.6265287    453.79506  0.021449946  0.020180411          500 
 1764000   0.54772272   -6.6420314    454.06637  0.021450603  0.020164737          502 
 1765000   0.54399337   -6.6512224    454.41649   0.02145498  0.020149057          525 
 1766000   0.55276217   -6.6408387    455.22357  0.021480916  0.020133402          428 
 1767000   0.55188531   -6.6442584    454.05231  0.021413522  0.020117739          484 
 1768000   0.55337183   -6.6244188    454.64521  0.021429356  0.020102085          373 
 1769000   0.53959211   -6.6541409    454.12836  0.021392894  0.020086463          424 
 1770000   0.54581775   -6.6214553    454.79898  0.021412381  0.020070836          481 
 1771000   0.55407451   -6.6244491    454.97991  0.021408804  0.020055225          360 
 1772000   0.54824044   -6.6423005    455.07635  0.021401258  0.020039614          427 
 1773000   0.53877241   -6.6330035     454.7623  0.021374427  0.020024045          413 
 1774000   0.53898994   -6.6351701    453.79745  0.021317054  0.020008493          447 
 1775000   0.53672914   -6.6419287     454.1252  0.021320432  0.019992927          427 
 1776000   0.54269503   -6.6487383    453.96607  0.021300961  0.019977371          463 
 1777000   0.53646244   -6.6486803    454.61421  0.021319368   0.01996184          427 
 1778000   0.53202663   -6.6429371     454.1093  0.021283713  0.019946296          524 
 1779000   0.55178508   -6.6524781    453.24633  0.021231325  0.019930773          523 
 1780000   0.54430309   -6.6518657    454.07781  0.021258324  0.019915251          494 
 1781000   0.54595476   -6.6600492    454.45598  0.021264083  0.019899765          498 
 1782000   0.54992223   -6.6501933    454.99148  0.021277192  0.019884302          450 
 1783000   0.54431107   -6.6386225    454.26799  0.021231445  0.019868854          475 
 1784000   0.54514463   -6.6555447    454.28604  0.021220387  0.019853398          457 
 1785000   0.54248819   -6.6532381    454.15925  0.021202579  0.019837905          449 
 1786000   0.54344667   -6.6442271    454.28319  0.021196491  0.019822448          557 
 1787000   0.54976837   -6.6632897    454.87809  0.021212371  0.019807015          593 
 1788000   0.54466208   -6.6450484    454.23039   0.02117032  0.019791627          515 
 1789000   0.53226101   -6.6473997    454.18424  0.021156337  0.019776247          561 
 1790000   0.54902589    -6.677361    454.08339  0.021139823  0.019760871          631 
 1791000     0.543119   -6.6613157    454.79383  0.021161075  0.019745494          523 
 1792000   0.53118187   -6.6419507     454.4917  0.021135217  0.019730151          662 
 1793000   0.54179848   -6.6423025    454.37721  0.021118108  0.019714842          524 
 1794000   0.53625074   -6.6372197    454.73203  0.021122818  0.019699542          637 
 1795000   0.52596879   -6.6638464    454.71991  0.021110488  0.019684242          575 
 1796000   0.52965975   -6.6454998    454.03031  0.021066737  0.019668956          623 
 1797000   0.52839517   -6.6811641    453.19898  0.021016461  0.019653671          538 
 1798000   0.54789389   -6.6629785    453.67126  0.021026662  0.019638391          576 
 1799000   0.53036505   -6.6689487    453.69257  0.021015961   0.01962313          725 
 1800000   0.52843255   -6.6771223    452.88873  0.020967071  0.019607858          709 
 1801000   0.53732535   -6.6520288    454.29001  0.021020267  0.019592617          599 
 1802000   0.52780007   -6.6701171    453.41818  0.020968284  0.019577383          683 
 1803000    0.5334204   -6.6812773    453.44977  0.020958115  0.019562179          676 
 1804000   0.53193208   -6.6570777    454.06557  0.020974943  0.019546937          712 
 1805000   0.52793737   -6.6746973    454.47261  0.020982115  0.019531708          645 
 1806000   0.53503059   -6.6641434    453.61715  0.020931024  0.019516461          761 
 1807000   0.52906811   -6.6645664    454.18566  0.020945658  0.019501234          718 
 1808000    0.5306057   -6.6492664    454.40143  0.020944019  0.019486062          653 
 1809000   0.53820849   -6.6743732    453.39148  0.020885917  0.019470867          714 
 1810000   0.52895144    -6.688367    453.60917    0.0208844  0.019455672          731 
 1811000   0.53395917   -6.6749046    454.14744  0.020897636  0.019440477          593 
 1812000   0.52994947   -6.6870678    453.74166  0.020867442  0.019425296          678 
 1813000   0.54076999   -6.7015406    453.46698  0.020843306  0.019410095          663 
 1814000   0.54098756   -6.6815505    452.90399  0.020805953  0.019394912          656 
 1815000   0.52367868   -6.6909225    452.10873  0.020757977  0.019379739          688 
 1816000   0.52737204   -6.6973037    452.76529  0.020776675  0.019364591          695 
 1817000   0.52474673   -6.6979556    452.53104  0.020754496  0.019349441          727 
 1818000   0.52697236   -6.6973852    453.07674  0.020768094  0.019334289          778 
 1819000   0.52700532   -6.6920672    452.82386  0.020745091   0.01931914          690 
 1820000   0.52914951   -6.7097238    453.29596   0.02075531  0.019304026          801 
 1821000   0.52912957   -6.6821927    453.22488  0.020740659  0.019288921          739 
 1822000    0.5255992   -6.7088458    452.60389  0.020700873  0.019273796          807 
 1823000   0.52740892   -6.7055025    452.71781  0.020694725  0.019258683          835 
 1824000   0.53248756   -6.6958986    453.78355   0.02073207  0.019243626          755 
 1825000   0.52556942   -6.7050338    452.81306  0.020676396  0.019228557          862 
 1826000   0.52910744   -6.6955198    452.56003  0.020653524  0.019213481          871 
 1827000   0.53756873   -6.7094181     453.2306  0.020672806  0.019198412          768 
 1828000   0.52785329     -6.69074    452.74806  0.020639499  0.019183355          775 
 1829000   0.53044424   -6.7007062    452.60863  0.020621862  0.019168302          770 
 1830000   0.52303978   -6.7046791     452.1425  0.020589367  0.019153275          907 
 1831000    0.5238864   -6.6993352    452.74711  0.020605639  0.019138282          882 
 1832000   0.51576899   -6.7102768    453.19747  0.020614878  0.019123282          860 
 1833000   0.51787037   -6.7065961    452.77026  0.020584209  0.019108309          916 
 1834000   0.51168623   -6.7056853    452.72531  0.020570943  0.019093312          895 
 1835000   0.53052206   -6.7002574    452.41361  0.020545577  0.019078348          860 
 1836000   0.51943225   -6.6955401    453.09333  0.020565238    0.0190634          835 
 1837000   0.52039215   -6.7270523    452.94669  0.020547391  0.019048473          874 
 1838000   0.52459909   -6.7137786     452.5942   0.02052023  0.019033522          896 
 1839000   0.51422987   -6.7276704    452.16958  0.020489831  0.019018564          902 
 1840000   0.51891474   -6.7244613    452.22067  0.020481008  0.019003633          882 
 1841000   0.51349125   -6.7133309    451.48219  0.020436456  0.018988721          998 
 1842000   0.51129475   -6.7116078    452.33399  0.020463897   0.01897384          896 
 1843000   0.51657221   -6.7250163    452.55388  0.020462737  0.018958959         1040 
 1844000   0.51756531   -6.7109149    453.28112  0.020484505  0.018944092          978 
 1845000   0.50633791   -6.7175104    452.02345  0.020416597  0.018929236         1030 
 1846000   0.51698866   -6.7364526    452.65336  0.020433973  0.018914422         1040 
 1847000   0.52872071   -6.7125173    452.64631  0.020422591  0.018899584         1050 
 1848000   0.51392753    -6.724766    452.30684  0.020396232  0.018884782          989 
 1849000    0.5047201   -6.7306029    452.25467   0.02038285  0.018869972          995 
 1850000   0.51351724   -6.7057559    452.45684  0.020380939  0.018855187         1014 
 1851000     0.502822   -6.7299614    452.45377   0.02036979  0.018840436          991 
 1852000   0.50981104   -6.7184276    451.73744  0.020326559  0.018825662         1012 
 1853000   0.51529205   -6.7367054    452.43516  0.020346967  0.018810894          986 
 1854000   0.51202735   -6.7196281    452.44198  0.020336299  0.018796135         1041 
 1855000   0.51909924   -6.7293082    452.81875  0.020342262  0.018781391          996 
 1856000   0.51038314   -6.7261338    451.99786  0.020294444  0.018766649          888 
 1857000   0.52218258   -6.7294574    451.51721  0.020261946  0.018751895          967 
 1858000   0.52347795   -6.7422581     452.1597  0.020279857  0.018737187         1041 
 1859000   0.50483296     -6.72045    451.83563  0.020254421  0.018722471          949 
 1860000   0.51641649    -6.740209    452.34855  0.020266512  0.018707755         1077 
 1861000   0.52440298   -6.7300261     452.1275  0.020245724  0.018693052         1006 
 1862000   0.50892386   -6.7550415    451.98001   0.02022825   0.01867838         1091 
 1863000   0.51049842   -6.7494315    452.03134  0.020219688  0.018663687         1166 
 1864000   0.51997501   -6.7564759    451.84124  0.020200342  0.018649033         1167 
 1865000   0.50599524   -6.7575673    452.18983  0.020205086  0.018634403         1161 
 1866000   0.51052743   -6.7711445    451.39445  0.020158737  0.018619775         1134 
 1867000   0.50816407   -6.7497633    451.65087  0.020159385  0.018605123         1082 
 1868000   0.50455304   -6.7338581    451.47799  0.020140881  0.018590502         1135 
 1869000   0.50467197   -6.7385281    451.63433  0.020137076  0.018575901         1164 
 1870000   0.50408994   -6.7398981    452.00862  0.020142987  0.018561294         1270 
 1871000   0.51031803   -6.7614735    451.35042  0.020102905  0.018546732         1213 
 1872000   0.51764926   -6.7369974    452.48262  0.020142567  0.018532175         1219 
 1873000   0.50464004   -6.7529221     451.6524  0.020094875  0.018517627         1154 
 1874000   0.51647175    -6.745209     451.7797  0.020089812   0.01850309         1181 
 1875000   0.50101811   -6.7539824    450.92084  0.020040926  0.018488559         1113 
 1876000   0.50053473   -6.7588601    451.92497  0.020074848   0.01847406         1077 
 1877000   0.50916418   -6.7514886    451.50892  0.020045681  0.018459579         1127 
 1878000   0.49411381   -6.7487041    451.11052  0.020017329  0.018445098         1048 
 1879000   0.51638845   -6.7598273    451.36177  0.020017818  0.018430607         1129 
 1880000   0.50104366   -6.7631928    451.05173  0.019993428   0.01841613         1057 
 1881000   0.49936412   -6.7686905    451.10704  0.019985249  0.018401666         1087 
 1882000   0.49842916   -6.7799702    451.02105  0.019970822  0.018387212         1091 
 1883000   0.51121578   -6.7607635    451.15844  0.019966297  0.018372761         1011 
 1884000    0.5104701   -6.7723209     451.3396  0.019963712  0.018358338         1142 
 1885000   0.49553005   -6.7431525    451.39505  0.019955573  0.018343923         1068 
 1886000   0.50646237   -6.7401108    451.88748   0.01996675  0.018329573          963 
 1887000   0.50237321   -6.7707125    451.23902  0.019927531  0.018315192         1021 
 1888000   0.49944309   -6.7739136    451.32655   0.01992084    0.0183008         1036 
 1889000   0.49837596    -6.779252     450.9979  0.019895796  0.018286435         1015 
 1890000   0.49508039   -6.7694442    451.59306  0.019911511   0.01827207         1104 
 1891000   0.49866199   -6.7636859    451.46921  0.019895523  0.018257693         1096 
 1892000   0.50311692    -6.778788    451.29088  0.019877153  0.018243333         1138 
 1893000   0.49155318   -6.7854943    450.90633  0.019849724     0.018229         1103 
 1894000   0.49151946   -6.7731591    450.96791  0.019841953  0.018214681         1087 
 1895000   0.49906428   -6.7805332    450.75486  0.019822113  0.018200368         1134 
 1896000   0.49552257   -6.7657999    451.35624  0.019838091  0.018186057         1112 
 1897000   0.50065959   -6.7803109    452.00007  0.019855916  0.018171764         1085 
 1898000   0.50424681   -6.7852391    450.88362  0.019796436  0.018157485         1113 
 1899000   0.49457013    -6.782923    450.62339  0.019774591  0.018143196         1024 
 1900000   0.49801006   -6.7740208    450.86553  0.019774804  0.018128945          998 
 1901000    0.4887061   -6.7783485    451.18642  0.019778468  0.018114686         1027 
 1902000   0.49276129   -6.7952618    451.50928  0.019782215  0.018100461         1061 
 1903000   0.48614961   -6.7777896    450.90773  0.019745478  0.018086248         1115 
 1904000   0.48476477   -6.7885479    450.76367  0.019728802   0.01807203         1054 
 1905000   0.49334309   -6.7827886    451.73319  0.019760857  0.018057839         1008 
 1906000   0.49548541   -6.7876097    450.10134  0.019679142   0.01804366         1100 
 1907000   0.49897489   -6.7764251    450.85828    0.0197019  0.018029504         1112 
 1908000   0.50534152   -6.7899761    449.55252  0.019634544  0.018015355         1032 
 1909000   0.50456163   -6.7770135    450.91603   0.01968378  0.018001221         1115 
 1910000   0.47560302   -6.7875089      450.234  0.019643717  0.017987087         1043 
 1911000   0.48808063   -6.7766636    451.06808   0.01966981  0.017972976         1045 
 1912000   0.48376096   -6.7774976    451.21781  0.019666048  0.017958888         1023 
 1913000   0.50156215   -6.7918477    451.42957  0.019664993  0.017944809         1042 
 1914000   0.48834829   -6.7811888    449.90953  0.019588538  0.017930723         1114 
 1915000   0.48082732   -6.7750236    451.03708  0.019627375  0.017916652         1054 
 1916000   0.48741921   -6.7935744    450.83449   0.01960832  0.017902576         1058 
 1917000   0.49226802   -6.7998684    451.13589  0.019611193  0.017888529         1045 
 1918000    0.4988065   -6.7963613    450.53506  0.019574864  0.017874498         1049 
 1919000   0.48318874   -6.8093159    450.34826  0.019556551  0.017860475         1021 
 1920000   0.48545898   -6.7819299    450.31445  0.019544898  0.017846451         1112 
 1921000   0.48547677   -6.7900425    450.27007  0.019532799  0.017832432         1074 
 1922000   0.48485474   -6.7961184    450.84214  0.019547439  0.017818429         1205 
 1923000   0.48019873   -6.7915805    450.21366  0.019510039  0.017804458         1071 
 1924000   0.48249856   -6.7927384    450.33072  0.019504969  0.017790478         1013 
 1925000   0.48701017   -6.8127341    449.50369  0.019459034  0.017776515         1129 
 1926000   0.48535238   -6.8034839     450.3801  0.019486851  0.017762568         1104 
 1927000   0.49149185   -6.8168606    449.42919  0.019435616  0.017748622         1114 
 1928000   0.49139468   -6.8113029     450.7049  0.019480675  0.017734677         1053 
 1929000   0.48410181   -6.7884234    449.96601  0.019438656  0.017720742         1009 
 1930000   0.48952433   -6.8092892    450.34148  0.019444796   0.01770685         1069 
 1931000   0.48026553   -6.7976084    450.28773  0.019432407  0.017692965         1059 
 1932000   0.48172082   -6.7833144    450.38723  0.019426641    0.0176791         1027 
 1933000   0.48282288   -6.8033918    450.52705  0.019422618  0.017665252         1009 
 1934000   0.47958765   -6.7917738    449.63114  0.019373972  0.017651404         1021 
 1935000   0.47419609   -6.8097066    449.90655  0.019375821  0.017637601         1006 
 1936000   0.49417297   -6.8083892    450.41612  0.019387746  0.017623801         1072 
 1937000   0.47902034   -6.7979753    450.15785  0.019366626   0.01761001         1019 
 1938000   0.47879312   -6.8008815    450.46877  0.019370002  0.017596216          959 
 1939000   0.48605688   -6.8171312    449.94236  0.019337389  0.017582438          986 
 1940000   0.47567834   -6.8032529    450.70221   0.01936006   0.01756868         1016 
 1941000   0.47898327    -6.821365    450.13213  0.019325611  0.017554919         1118 
 1942000   0.46239238   -6.7930492    450.38084  0.019326332  0.017541156          995 
 1943000   0.48576869   -6.8026483    450.45866  0.019319723  0.017527428          942 
 1944000   0.47782473   -6.8117175    449.74895  0.019279362  0.017513714          975 
 1945000   0.47642137   -6.8119064    450.43191  0.019298711  0.017499979         1007 
 1946000   0.47568449   -6.8199827     450.4386   0.01928908  0.017486258         1001 
 1947000   0.48653505      -6.8197    450.48939  0.019281347  0.017472549          977 
 1948000   0.47701105   -6.8262215    449.77964  0.019241087  0.017458872         1062 
 1949000   0.47894082   -6.8037155    450.49047  0.019261607   0.01744521          999 
 1950000   0.48161122   -6.7953686    449.64515  0.019215605  0.017431559         1074 
 1951000   0.47593952   -6.8264768     448.6337  0.019162553   0.01741792         1188 
 1952000   0.47003181   -6.8163258    450.25023  0.019221748  0.017404283         1022 
 1953000   0.47126664   -6.8208149    449.25633  0.019169497  0.017390671         1118 
 1954000   0.47811638   -6.8337734    449.38484  0.019165167  0.017377062         1126 
 1955000   0.48581657   -6.8347771    449.80372  0.019173219  0.017363483         1224 
 1956000   0.47865397   -6.8273501    449.85859  0.019165754    0.0173499         1126 
 1957000   0.48008838   -6.8246076     449.9588  0.019160228  0.017336329         1090 
 1958000   0.46516207   -6.8132109    449.40029  0.019126672  0.017322752         1114 
 1959000   0.46062369   -6.8176879    449.49522  0.019120947  0.017309194         1118 
 1960000   0.47118552   -6.8324095    449.63329  0.019117062  0.017295642         1156 
 1961000   0.46110269   -6.8170512    449.90833  0.019119001  0.017282103         1142 
 1962000   0.47228577   -6.8019204    449.12486  0.019075979  0.017268577         1093 
 1963000   0.47013442    -6.822458    450.32201  0.019117083  0.017255078         1150 
 1964000   0.46739429   -6.8188216    449.08743  0.019054965  0.017241583         1119 
 1965000   0.47311536   -6.8224988    449.17849   0.01904913   0.01722809         1047 
 1966000   0.47236268    -6.823987     448.8403  0.019025106  0.017214614         1067 
 1967000   0.46832447   -6.8344574    449.63644  0.019049163  0.017201145         1043 
 1968000   0.47098037   -6.8272794    448.75203  0.019002034   0.01718768         1085 
 1969000   0.46518121   -6.8298008    449.40339   0.01901995  0.017174245         1125 
 1970000   0.45866473   -6.8309099    449.32445  0.019006957  0.017160823         1109 
 1971000   0.47168651   -6.8194112     448.7777  0.018974196  0.017147414         1059 
 1972000   0.46358196   -6.8448659    449.14756  0.018980204  0.017134019         1126 
 1973000   0.47012399   -6.8271387    449.00877  0.018964723  0.017120644         1013 
 1974000   0.46666276   -6.8209737    449.21535  0.018963836  0.017107265         1093 
 1975000   0.46780349   -6.8387761    449.22744  0.018954744  0.017093895          999 
 1976000   0.46261668   -6.8302063    449.91636  0.018974205  0.017080539         1075 
 1977000   0.46447389   -6.8410657    449.13203  0.018931548  0.017067174         1094 
 1978000   0.46223493   -6.8374108    449.55569  0.018939825  0.017053835         1022 
 1979000   0.46843165    -6.833419    449.22078  0.018916152  0.017040513         1034 
 1980000   0.45357577   -6.8420762    449.43743  0.018915717  0.017027199         1054 
 1981000   0.47260323   -6.8316018    449.57954  0.018912146  0.017013898         1037 
 1982000   0.45188294   -6.8343131    449.11821  0.018883208   0.01700061         1125 
 1983000   0.46521699   -6.8309051    449.42438  0.018886552  0.016987338         1104 
 1984000    0.4594515   -6.8402763    448.57929  0.018841536  0.016974069         1089 
 1985000   0.45820817   -6.8265822    448.68412  0.018836445  0.016960804         1049 
 1986000    0.4567982   -6.8461593     448.6432  0.018825243  0.016947555         1059 
 1987000   0.46546966   -6.8370939    449.58607  0.018855312  0.016934307         1133 
 1988000   0.46451934   -6.8577379    449.14194  0.018827211  0.016921063         1161 
 1989000   0.46943354   -6.8435124    449.53456  0.018834195  0.016907838         1153 
 1990000   0.45476684   -6.8277046    449.35505  0.018817213  0.016894629         1074 
 1991000   0.46734919   -6.8409876    449.06014  0.018795419   0.01688143         1155 
 1992000   0.45663661   -6.8509142    449.37206  0.018799032  0.016868244         1180 
 1993000   0.44619316   -6.8433384    448.37149  0.018747763  0.016855062         1203 
 1994000    0.4513758   -6.8663196    447.77524  0.018713442  0.016841889         1187 
 1995000   0.44989329   -6.8646583    448.51366  0.018734907  0.016828735         1195 
 1996000   0.45661458   -6.8496648    448.49754  0.018724847  0.016815612         1160 
 1997000   0.46163593   -6.8361119    449.26202  0.018747372  0.016802503         1137 
 1998000   0.46221961   -6.8477037    447.67894  0.018671961  0.016789397         1159 
 1999000   0.45504168   -6.8454396    448.74819  0.018707195  0.016776305         1084 
 2000000    0.4521166   -6.8392534     449.5993  0.018733304  0.016763216         1181 
 2001000   0.45394236    -6.830042    448.89345  0.018694546  0.016750139         1094 
 2002000    0.4573397   -6.8448422    449.11718  0.018694521  0.016737082         1178 
 2003000   0.45280925   -6.8355123    448.74876   0.01866986  0.016724046         1165 
 2004000   0.44298709   -6.8551573    449.22117  0.018680188  0.016711022         1143 
 2005000   0.45330532   -6.8456311    448.23903  0.018630051  0.016697992         1128 
 2006000   0.45268763   -6.8476782    448.69981  0.018639906  0.016684975         1167 
 2007000   0.45211608   -6.8610201      448.402  0.018618253  0.016671985         1062 
 2008000   0.45192569   -6.8605168    448.51876  0.018613826  0.016658974         1202 
 2009000    0.4476598   -6.8420323    449.22182  0.018633724  0.016645981         1137 
 2010000   0.44166788   -6.8588676    448.25355   0.01858431  0.016633001         1151 
 2011000   0.45452022   -6.8607356    448.73222  0.018594904  0.016620034         1167 
 2012000   0.45669388   -6.8539081    448.07808  0.018558568  0.016607085         1004 
Loop time of 5124.62 on 48 procs for 2000000 steps with 4000 atoms

Performance: 67439.129 tau/day, 390.273 timesteps/s
99.4% CPU use with 48 MPI tasks x no OpenMP threads

MPI task timing breakdown:
Section |  min time  |  avg time  |  max time  |%varavg| %total
---------------------------------------------------------------
Pair    | 364.28     | 388.16     | 417.4      |  62.0 |  7.57
Neigh   | 35.637     | 36.867     | 38.461     |  10.9 |  0.72
Comm    | 323.33     | 354        | 378.12     |  62.7 |  6.91
Output  | 4.8497     | 4.8524     | 4.933      |   0.5 |  0.09
Modify  | 4279.7     | 4293.6     | 4306.2     |   8.9 | 83.78
Other   |            | 47.11      |            |       |  0.92

Nlocal:        83.3333 ave          90 max          76 min
Histogram: 2 0 10 2 4 15 1 7 6 1
Nghost:        2398.31 ave        2421 max        2370 min
Histogram: 2 2 2 5 7 5 10 9 3 3
Neighs:        16568.5 ave       19063 max       14049 min
Histogram: 3 3 4 6 6 10 7 4 1 4
FullNghs:      33137.1 ave       36048 max       30255 min
Histogram: 2 2 7 6 9 6 6 4 5 1

Total # of neighbors = 1590581
Ave neighs/atom = 397.64525
Neighbor list builds = 107255
Dangerous builds = 0

#clear
#
#next RN
#
#jump SELF
Total wall time: 1:25:28
