
units lj                  # Use reduced LJ style units
atom_style atomic         # Uncharged point particles
atom_modify map hash      # Needed for indexing of clusters etc
                          # Used to be able to find where atoms are in relation to each other.

lattice fcc 1.0 spacing 1 1 1
Lattice spacing in x,y,z = 1.5874011 1.5874011 1.5874011
region box block 0 10 0 10 0 10 units lattice
create_box 2 box
Created orthogonal box = (0.0000000 0.0000000 0.0000000) to (15.874011 15.874011 15.874011)
  3 by 4 by 4 MPI processor grid
create_atoms 1 box
Created 4000 atoms
  using lattice units in orthogonal box = (0.0000000 0.0000000 0.0000000) to (15.874011 15.874011 15.874011)
  create_atoms CPU = 0.031 seconds
set type 1 type/fraction 2 0.7 78393
Setting atom values ...
  2825 settings made for type/fraction
mass 1 1.0
mass 2 1.0
pair_style lj/cut  3.5
pair_modify tail  yes
pair_coeff 1  1  1.0  1.0   # Intearaction between 1 and 1 set with epsilon = 1 and sigma = 1
pair_coeff 1  2  1.5  0.8
pair_coeff 2  2  0.5  0.88

write_data data.0
System init for write_data ...
Neighbor list info ...
  update every 1 steps, delay 10 steps, check yes
  max neighbors/atom: 2000, page size: 100000
  master list distance cutoff = 3.8
  ghost atom cutoff = 3.8
  binsize = 1.9, bins = 9 9 9
  1 neighbor lists, perpetual/occasional/extra = 1 0 0
  (1) pair lj/cut, perpetual
      attributes: half, newton on
      pair build: half/bin/atomonly/newton
      stencil: half/bin/3d
      bin: standard
WARNING: Not all mixed pair coeffs generated from mixing. Use write_data with 'pair ij' option to store all pair coeffs. (../write_data.cpp:312)


#############################
#   M E L T   S Y S T E M   #
#############################

velocity all create 2.4 5300450 mom yes dist gaussian # Assign velocities
                                                    # Temperature 2.4, random number seed, zero linear momentum
                                                                                # Gaussian distribution

timestep 0.002   # simulation timestep
thermo 1000       # output thermodynamic data every 1000 steps bf 100

# Define a fix  in this case with index 1 applied to all
# particles in the simulation. This fix is for simulations
# in the anisotropic NPT ensemble. Note that we use the MTK
# correction.
fix 1 all npt temp 2.4 2.4 0.1 iso 5.68 5.68 0.5 mtk yes tchain 5 pchain 5 # Use NPT ensemble
                                                                         # Set temperature and pressure and damping
                                                                         # Numbers of thermostats in chain and in barostat
run 10000          # run for 10000 steps
Per MPI rank memory allocation (min/avg/max) = 3.642 | 3.644 | 3.648 Mbytes
Step Temp E_pair E_mol TotEng Press Volume 
       0          2.4   -4.1690742            0  -0.56997417    -3.744831         4000 
    1000     2.384411   -3.7256107            0   -0.1498884    5.7984427    3678.5512 
    2000    2.3978782   -3.6697448            0 -0.073826694    5.7159309    3721.5295 
    3000    2.3757745   -3.8096927            0  -0.24692191    5.5859833    3647.1134 
    4000    2.4059255   -3.7944634            0  -0.18647737    5.8913949    3631.1359 
    5000    2.3797148   -3.7998767            0  -0.23119696     5.345278    3675.9754 
    6000    2.4477001   -3.7831266            0  -0.11249428    5.9209915    3638.2008 
    7000    2.4497969   -3.7934323            0  -0.11965561    5.9286327    3630.5398 
    8000    2.4201947   -3.7905681            0  -0.16118365     5.552285    3678.5221 
    9000     2.417804   -3.8108202            0  -0.18502096    5.7934644    3634.6585 
   10000     2.397315   -3.6974464            0  -0.10237293    6.4541738     3636.978 
Loop time of 2.65295 on 48 procs for 10000 steps with 4000 atoms

Performance: 651350.278 tau/day, 3769.388 timesteps/s
99.5% CPU use with 48 MPI tasks x no OpenMP threads

MPI task timing breakdown:
Section |  min time  |  avg time  |  max time  |%varavg| %total
---------------------------------------------------------------
Pair    | 1.2128     | 1.2632     | 1.3532     |   3.1 | 47.62
Neigh   | 0.21693    | 0.22323    | 0.23938    |   0.8 |  8.41
Comm    | 0.79132    | 0.88439    | 0.97059    |   4.3 | 33.34
Output  | 0.00024992 | 0.00025378 | 0.00031523 |   0.0 |  0.01
Modify  | 0.2327     | 0.26633    | 0.29755    |   3.3 | 10.04
Other   |            | 0.01552    |            |       |  0.58

Nlocal:        83.3333 ave          95 max          71 min
Histogram: 1 1 6 6 3 17 6 4 1 3
Nghost:        1754.44 ave        1790 max        1730 min
Histogram: 4 5 8 6 8 5 5 5 1 1
Neighs:        10502.5 ave       12350 max        8894 min
Histogram: 2 3 6 6 10 11 5 1 3 1

Total # of neighbors = 504118
Ave neighs/atom = 126.02950
Neighbor list builds = 906
Dangerous builds = 198

# Equilibrate just above the melting temperature to avoid step fn in T

fix 1 all npt temp 1.25 1.25 0.1 iso 5.68 5.68 0.5 mtk yes tchain 5 pchain 5
run 2000
Per MPI rank memory allocation (min/avg/max) = 3.644 | 3.646 | 3.649 Mbytes
Step Temp E_pair E_mol TotEng Press Volume 
   10000     2.397315   -3.6974464            0  -0.10237293    6.4541738     3636.978 
   11000    1.2403195   -5.5846248            0   -3.7246106    5.9909225    2780.8897 
   12000    1.2544268   -5.6565603            0   -3.7753904    5.8060707    2764.5118 
Loop time of 0.663355 on 48 procs for 2000 steps with 4000 atoms

Performance: 520987.683 tau/day, 3014.975 timesteps/s
99.6% CPU use with 48 MPI tasks x no OpenMP threads

MPI task timing breakdown:
Section |  min time  |  avg time  |  max time  |%varavg| %total
---------------------------------------------------------------
Pair    | 0.29362    | 0.32425    | 0.36151    |   2.6 | 48.88
Neigh   | 0.04057    | 0.043816   | 0.046982   |   0.6 |  6.61
Comm    | 0.20961    | 0.24493    | 0.27829    |   3.2 | 36.92
Output  | 5.4084e-05 | 5.568e-05  | 8.1207e-05 |   0.0 |  0.01
Modify  | 0.039481   | 0.045447   | 0.051915   |   1.5 |  6.85
Other   |            | 0.004854   |            |       |  0.73

Nlocal:        83.3333 ave          88 max          76 min
Histogram: 2 3 1 6 2 7 9 4 3 11
Nghost:        2115.02 ave        2132 max        2100 min
Histogram: 4 3 4 7 9 8 5 4 3 1
Neighs:        13804.0 ave       15434 max       12407 min
Histogram: 2 4 9 7 3 9 5 5 2 2

Total # of neighbors = 662592
Ave neighs/atom = 165.64800
Neighbor list builds = 144
Dangerous builds = 14

#############################
# L I N E A R  Q U E N C H  #
#############################

# Define solid atoms. This closely follows ten Wolde  Ruiz-Montero and Frenkel  Faraday Discuss  1996  104  93-110
# Compute components of the per-atom q6 vector
compute q6 all orientorder/atom degrees 1 6 components 6 nnn NULL cutoff 1.3 # compute the Q6 parameter.
                                                                             # Use all neighbours within 1.3 unit cell.

# get number of connections
compute coord_number all coord/atom orientorder q6 0.5

# An atom is solid if it has 8 or more connections (of a possible 14)
variable is_solid atom c_coord_number>=8
group solid dynamic all var is_solid    # Must be dynamic to update
dynamic group solid defined

# do clustering
compute cluster solid cluster/atom 1.3 # Create a cluster where all atoms within are solid and max 1.3 units from another member

# define chunks one chunk per cluster
compute clus_chunks solid chunk/atom c_cluster nchunk every compress yes  # Says which atoms are in which chunk

# count the size of each chunk
compute size_chunks solid property/chunk clus_chunks count


# Find the maximum entry in the vector of chunk sizes
variable max_n equal max(c_size_chunks)


# Thermo style which includes this variable
# thermo_style custom step temp pe vol v_max_n

thermo ${N}  # Print the thermo information every 100 steps
thermo 1000  

# Reset the npt fix at a lower temperature (below freezing)
fix 1  all npt temp  ${temp} ${temp}  0.1  iso  5.68  5.68  0.5  mtk yes tchain  5  pchain  5
fix 1  all npt temp  0.45 ${temp}  0.1  iso  5.68  5.68  0.5  mtk yes tchain  5  pchain  5
fix 1  all npt temp  0.45 0.45  0.1  iso  5.68  5.68  0.5  mtk yes tchain  5  pchain  5

dump dmp2 all dcd ${N} traj.dcd
dump dmp2 all dcd 1000 traj.dcd


compute msd all msd com yes
variable twopoint equal c_msd[4]/6/(step*dt+1.0e-6)
fix 9 all vector 10 c_msd[4]
variable fit equal slope(f_9)/6/(10*dt)
thermo_style custom step temp pe c_msd[4] v_twopoint v_fit v_max_n

fix 1 all npt temp 1.25 ${temp} 0.1 iso 5.68 5.68 0.5 mtk yes tchain 5 pchain 5
fix 1 all npt temp 1.25 0.45 0.1 iso 5.68 5.68 0.5 mtk yes tchain 5 pchain 5
run 500000 # 5000000  # Run for this many steps
Neighbor list info ...
  update every 1 steps, delay 10 steps, check yes
  max neighbors/atom: 2000, page size: 100000
  master list distance cutoff = 3.8
  ghost atom cutoff = 3.8
  binsize = 1.9, bins = 8 8 8
  4 neighbor lists, perpetual/occasional/extra = 1 3 0
  (1) pair lj/cut, perpetual
      attributes: half, newton on
      pair build: half/bin/atomonly/newton
      stencil: half/bin/3d
      bin: standard
  (2) compute orientorder/atom, occasional
      attributes: full, newton on
      pair build: full/bin/atomonly
      stencil: full/bin/3d
      bin: standard
  (3) compute coord/atom, occasional
      attributes: full, newton on
      pair build: full/bin/atomonly
      stencil: full/bin/3d
      bin: standard
  (4) compute cluster/atom, occasional
      attributes: full, newton on
      pair build: full/bin/atomonly
      stencil: full/bin/3d
      bin: standard
Per MPI rank memory allocation (min/avg/max) = 9.848 | 9.852 | 9.856 Mbytes
Step Temp PotEng c_msd[4] v_twopoint v_fit v_max_n 
   12000    1.2544268   -5.6565603 2.0029178e-30 1.3909151e-32 8.3333333e+20            5 
   13000     1.227448   -5.5930783   0.64389146 0.0041275092  0.053880262            1 
   14000    1.2641399   -5.6105513     1.266575 0.0075391368  0.052723041            2 
   15000    1.2439927   -5.6543717    1.8964817  0.010536009  0.052479268            6 
   16000    1.2527692   -5.6272096    2.4839879  0.012937436  0.052240692            2 
   17000    1.2587916   -5.6413324    3.1850667  0.015613071  0.052277342            2 
   18000    1.2662829   -5.6762822    3.8452416  0.017802044  0.052919239            2 
   19000    1.2418965   -5.6774803    4.4845542  0.019669097  0.053351492            4 
   20000    1.2320971   -5.6289913     5.125616  0.021356733  0.053356706            1 
   21000    1.2346457   -5.6283856    5.6858831  0.022563028  0.053397996            4 
   22000    1.2454265   -5.6422495    6.2359143  0.023620887  0.052903779            2 
   23000    1.2300521   -5.6610068    6.7798253  0.024564584  0.052231296            1 
   24000    1.2263482   -5.6752781    7.3304248  0.025452863  0.051738868            2 
   25000    1.2514333   -5.6630571     7.875963   0.02625321  0.051217332            4 
   26000    1.2422631   -5.6859679    8.3941163  0.026904218  0.050626747            3 
   27000    1.1980318   -5.6473241    9.0021878   0.02778453  0.050236683            1 
   28000    1.2557885   -5.6380222    9.6156758  0.028618082  0.049846645            2 
   29000    1.2355119   -5.6520862    10.282187  0.029546514  0.049658884            3 
   30000     1.207829   -5.6653666    10.811457  0.030031824  0.049552084            2 
   31000    1.1919021   -5.6465207    11.390644   0.03062001  0.049426083            2 
   32000    1.1841633   -5.6312861    11.889731   0.03096284  0.049215885            2 
   33000    1.2243609   -5.6789889    12.613744  0.031852889  0.049130104            2 
   34000    1.2087727   -5.7068268    13.186391  0.032319584   0.04912005            4 
   35000    1.2076454   -5.6921621    13.838124  0.032947913  0.049171508            2 
   36000    1.2272554   -5.6594348    14.573242  0.033734357  0.049234392            2 
   37000    1.2238618   -5.7539465    15.020192  0.033829261  0.049326895            3 
   38000    1.2192918   -5.6930332    15.525196  0.034046482  0.049320373            5 
   39000     1.224513   -5.6732503    16.084358  0.034368285  0.049260073            3 
   40000    1.2008232   -5.7131105    16.492768  0.034359932  0.049152407            2 
   41000     1.196222   -5.7044429    17.242457  0.035045643  0.049073726            2 
   42000    1.2125555   -5.6819253    17.752877  0.035223962  0.049004888            2 
   43000    1.2106653   -5.7463252    18.220254   0.03531057  0.048914223            4 
   44000     1.188076   -5.7298021    18.770728   0.03555062  0.048812859            2 
   45000    1.2128472   -5.8053839    19.172934  0.035505433  0.048664828            6 
   46000    1.2141033   -5.6919997    19.736324  0.035754209  0.048499037            3 
   47000    1.1875539   -5.7609839    20.121671  0.035676721  0.048320295            2 
   48000    1.1837879   -5.7349275    20.514816  0.035615999  0.048084559            1 
   49000    1.1849546   -5.7841482    21.086374  0.035861179  0.047855795            3 
   50000    1.2189867   -5.7702556    21.444431  0.035740717  0.047623793            2 
   51000    1.1990101    -5.711711    22.182301   0.03624559   0.04743245            2 
   52000    1.1686701   -5.7756473    22.828349  0.036583893  0.047312616            2 
   53000    1.1909406   -5.7614452    23.386253  0.036770838  0.047215545            1 
   54000    1.1655415   -5.7576497    23.937154  0.036940052  0.047115922            4 
   55000    1.1724659   -5.7841606    24.308186  0.036830585  0.047013213            1 
   56000    1.2081578   -5.7749058    24.719606  0.036785128  0.046881419            2 
   57000     1.179612   -5.7778136    25.265707  0.036938168  0.046738132            3 
   58000    1.1878085   -5.7836581    25.819709  0.037097283  0.046623616            3 
   59000    1.1557135   -5.7833576    26.462919  0.037377004  0.046519899            2 
   60000    1.1916836   -5.8090436    26.739382   0.03713803  0.046404374            2 
   61000    1.1678794   -5.8054866    27.161943  0.037106479  0.046265582            3 
   62000    1.1978826   -5.8330463    27.818531  0.037390498  0.046138675            2 
   63000    1.1633347   -5.7845801    28.406894  0.037575256  0.046052358            3 
   64000    1.1855903   -5.8513533    28.701968  0.037372354  0.045961066            5 
   65000    1.1917747   -5.8122459    29.224624  0.037467467  0.045840517            3 
   66000    1.1622854   -5.8256198    29.605577  0.037380779  0.045717939            3 
   67000    1.1676231   -5.7634023     30.20274  0.037565597  0.045591639            5 
   68000    1.1644785    -5.791509    30.826447  0.037777509  0.045480994            3 
   69000    1.1439048   -5.8405413    31.017562  0.037460823  0.045370391            3 
   70000     1.168958   -5.8426901    31.498186   0.03749784  0.045245526            3 
   71000    1.1488085   -5.8226296    32.078355  0.037650651  0.045130077            3 
   72000    1.1580664   -5.8000116    32.828579   0.03799604  0.045035372            6 
   73000    1.1561839   -5.8299972    32.982629  0.037651402  0.044930335            3 
   74000    1.1390401   -5.8680197    33.222147  0.037412327  0.044805663            1 
   75000    1.1669889   -5.8177596    33.784573  0.037538415  0.044671937            4 
   76000    1.1349664   -5.7873238    34.075589  0.037363584  0.044522701            4 
   77000    1.1527926   -5.8679317    34.645524  0.037495156  0.044396968            2 
   78000    1.1764239   -5.8343454    35.246539  0.037656559  0.044280278            2 
   79000    1.1763891   -5.8538736    35.543799  0.037493459  0.044166648            2 
   80000     1.144319   -5.8595233    36.017233  0.037517951  0.044051587            1 
   81000     1.140319   -5.9005452    36.301764  0.037347494  0.043931329            2 
   82000    1.1237887   -5.8723599     36.94602  0.037546768  0.043811969            3 
   83000    1.1270787   -5.8507466    37.396346  0.037546532  0.043698999            2 
   84000    1.1042873   -5.8879339    37.840746  0.037540423  0.043581051            1 
   85000    1.1422465   -5.8876618    38.188053  0.037439267  0.043468354            5 
   86000    1.1488406   -5.8959976    38.538445  0.037343454  0.043355752            5 
   87000    1.1273925   -5.8746067    39.169769  0.037518936  0.043246909            4 
   88000    1.1084651   -5.8970456    39.442812  0.037351147  0.043139397            2 
   89000    1.1208804   -5.9016969    40.170206  0.037612553  0.043041223            4 
   90000    1.1373766   -5.9130609     40.65651  0.037644916  0.042953006            1 
   91000    1.1214836   -5.8632453    41.327673  0.037845854  0.042877838            4 
   92000     1.119171   -5.9166895     41.66275  0.037737998  0.042809719            3 
   93000    1.1153836   -5.8905167    41.972493  0.037609761  0.042729764            3 
   94000    1.1101957   -5.8949619     42.20967   0.03741992  0.042632284            2 
   95000    1.1046938      -5.9115    42.541658  0.037317244  0.042531248            3 
   96000    1.1024455    -5.880378    43.013862  0.037338421  0.042431856            1 
   97000     1.095735    -5.938619    43.413271  0.037296624  0.042328384            5 
   98000    1.1127798   -5.9199459    43.792116  0.037238194  0.042222324            4 
   99000    1.0938646   -5.9272486    44.254241  0.037251044  0.042124898            1 
  100000    1.1107445   -5.9479562    44.553227  0.037127689  0.042024929            3 
  101000     1.130627   -5.9289419    45.321279  0.037393795  0.041931662            3 
  102000    1.0792228    -5.903665    45.778741  0.037400932  0.041842015            5 
  103000    1.0933192   -5.9236741     46.00825  0.037223503  0.041749686            3 
  104000    1.0896377    -5.937382    46.262661   0.03706944  0.041657528            1 
  105000    1.1000639   -5.9823565    46.481398  0.036889999   0.04155216            4 
  106000    1.1034737   -5.9619225    46.805317  0.036796632  0.041441275            2 
  107000    1.0884582   -5.9495811    46.997387  0.036602326  0.041329181            2 
  108000    1.0791826   -6.0197426    47.566822  0.036702795  0.041219422            3 
  109000    1.0815561   -5.9576769    48.100081  0.036773762  0.041114471            3 
  110000    1.0849558   -6.0047201    48.460031  0.036712145  0.041013725            3 
  111000    1.0873887      -5.9883    49.040556  0.036817234  0.040916783            6 
  112000    1.0872442   -5.9519019     49.45395  0.036796094  0.040823247            3 
  113000    1.1197211   -5.9561458    49.676324  0.036634457  0.040733404            3 
  114000    1.0787139    -6.031875    49.773952  0.036384468  0.040633966            4 
  115000    1.0870775   -6.0172729    50.606112  0.036671096  0.040535931            5 
  116000    1.0731461   -5.9755379    51.132154  0.036732869  0.040447641            2 
  117000    1.0727186   -6.0172914    51.496279  0.036678261  0.040361362            4 
  118000    1.0801497   -6.0072514    51.873766  0.036634015  0.040281192            4 
  119000    1.0748828   -6.0089246    52.184575   0.03654382  0.040200224            4 
  120000    1.1233753   -6.0346473     52.64855  0.036561493  0.040118619            5 
  121000    1.0839808   -5.9674165     53.16312  0.036613719  0.040040709            3 
  122000    1.0809108   -6.0269224    53.465656  0.036520257  0.039960638            3 
  123000    1.0741836   -5.9997386    54.079621  0.036639309  0.039885376            3 
  124000    1.0874574   -6.0242173    54.399912  0.036559081  0.039815137            3 
  125000     1.066822   -5.9678899    54.997001  0.036664667  0.039747058            2 
  126000    1.0839666    -6.023365    55.138634  0.036467351   0.03967746            2 
  127000     1.047888    -6.042988    55.337882  0.036310946  0.039603231            3 
  128000    1.0761881   -6.0321892    55.566239  0.036175937  0.039522566            5 
  129000    1.0673866   -6.0541913    55.970282  0.036156513  0.039440402            2 
  130000    1.0399169   -6.0349806     56.34105  0.036116058  0.039359583            5 
  131000    1.0537918   -6.0849834     56.38924  0.035871018  0.039270845            5 
  132000    1.0638422   -6.0567927    56.886081   0.03591293  0.039181835            5 
  133000    1.0703418   -6.0439326    57.181445  0.035827973  0.039095477            6 
  134000    1.0474771    -6.043751    57.565507  0.035799445  0.039006101            4 
  135000    1.0412901   -6.0668572    57.868176  0.035721096  0.038916352            5 
  136000    1.0267335   -6.0691115    58.125628  0.035616194  0.038825163            4 
  137000    1.0695803   -6.0748841    58.366893  0.035502976  0.038733898            4 
  138000    1.0576768   -6.0781419    58.679295  0.035434357  0.038641697            3 
  139000    1.0487955   -6.0971529    59.034381  0.035392315    0.0385496            2 
  140000    1.0575412   -6.0612475    59.639545  0.035499729  0.038465516            5 
  141000    1.0390509   -6.0642368    60.332557   0.03565754  0.038383823            2 
  142000    1.0530448   -6.1003562    60.417769  0.035456437  0.038302951            5 
  143000    1.0356749   -6.1013238     60.87175  0.035473047  0.038223252            4 
  144000    1.0201657   -6.0948501    61.316801   0.03548426  0.038145353            3 
  145000    1.0317082   -6.1231425    61.550557  0.035373883  0.038068772            2 
  146000    1.0476013   -6.0948027    62.137885  0.035466829  0.037993867            4 
  147000    1.0245687    -6.137965    62.322352  0.035330131  0.037916744            3 
  148000    1.0635951   -6.1296547    62.302967  0.035080499  0.037837025            2 
  149000    1.0109881   -6.1046359    62.860332  0.035156785  0.037756833            3 
  150000    1.0444494    -6.102804    62.946502  0.034970279  0.037674854            6 
  151000    1.0272971   -6.1018564    63.097865  0.034822221  0.037587365            2 
  152000    1.0357756   -6.1466662    63.397628  0.034757471  0.037501059            2 
  153000    1.0204438   -6.1685731    63.423682  0.034544489  0.037411719            3 
  154000    1.0506246   -6.1308657     64.01171  0.034638371  0.037319213            5 
  155000    1.0423672   -6.1302032    64.184108  0.034507585  0.037230496            2 
  156000   0.99018413   -6.0995858    64.560577  0.034487488  0.037136444            2 
  157000    1.0016266   -6.1702451    64.644517  0.034312376  0.037047082            4 
  158000    1.0096888   -6.1261547    64.884955  0.034222023  0.036954467            2 
  159000    1.0042439   -6.1958648     65.02659  0.034081022  0.036861968            3 
  160000   0.98555565   -6.1395781    65.714154  0.034226122  0.036772106            4 
  161000   0.98640801   -6.1573195    65.824451  0.034070627  0.036681572            3 
  162000    1.0200892   -6.1460118    66.031186  0.033966659  0.036589337            6 
  163000   0.99963943   -6.1337583    66.127176   0.03380735  0.036496209            3 
  164000    1.0104396   -6.2089162    66.456069  0.033768328  0.036404062            4 
  165000    1.0367476   -6.1658567     67.17296  0.033925737  0.036313759            3 
  166000   0.99752169   -6.1109129    67.631422  0.033951517  0.036227098            5 
  167000    1.0094662   -6.1762624    67.406976  0.033636216  0.036136612            2 
  168000     0.984109   -6.1626854    67.765163  0.033613672  0.036044617            5 
  169000   0.99135476   -6.1440204     67.92957  0.033495843  0.035949587            4 
  170000   0.97381722   -6.2069544    67.937772  0.033302829  0.035853227            3 
  171000   0.99651707   -6.2265907    68.156511  0.033214674  0.035756447            3 
  172000   0.99130842   -6.2087852    68.443017  0.033160376  0.035657654            3 
  173000   0.96355298   -6.2214131    68.628347  0.033057971  0.035558953            4 
  174000    1.0259241   -6.2505244    68.892094  0.032994298  0.035459102            6 
  175000    1.0050059   -6.1854534    69.207531  0.032955967  0.035360029            6 
  176000   0.99715483   -6.1880604    69.354501  0.032838306  0.035262748            8 
  177000    0.9740653   -6.2065394    69.553476  0.032746458  0.035164837            4 
  178000   0.98925196   -6.1877872    69.909519  0.032729175  0.035066993            6 
  179000   0.99383184   -6.2449358    69.659913  0.032430127  0.034966517            5 
  180000   0.97480346   -6.2269663    70.274119  0.032534314  0.034866075            3 
  181000   0.97703887    -6.246213    70.450191  0.032435631   0.03476829            4 
  182000   0.99049666   -6.2918217     70.72672  0.032384029  0.034670172            8 
  183000   0.99096608   -6.2549258    70.789805  0.032235794  0.034574602            4 
  184000   0.98845129   -6.2133141    71.336408  0.032308156  0.034480451            2 
  185000   0.97597133   -6.2466505    71.437571  0.032179086  0.034386867           13 
  186000   0.96563146   -6.2745405    71.526771  0.032046044  0.034291477            3 
  187000   0.94736098   -6.2309822    72.154296  0.032154321  0.034196188            3 
  188000   0.98018593   -6.2959013    71.982954  0.031907338  0.034101142            4 
  189000   0.95408817   -6.2727272    72.543456  0.031985651  0.034007187            4 
  190000   0.95455199   -6.2821811    72.908111  0.031977242  0.033915685            6 
  191000   0.97055921   -6.2960743    72.862338  0.031789851  0.033821861            7 
  192000   0.95037626   -6.2772811    72.989312  0.031679389  0.033727754            4 
  193000   0.95598541   -6.2716973    73.058112  0.031544953  0.033630505            5 
  194000   0.96785002   -6.3250227    73.055295   0.03138114  0.033531772            7 
  195000   0.95734592   -6.2675097    73.344272  0.031343706  0.033433401            4 
  196000   0.95995205   -6.2811535    73.450376  0.031228901   0.03333535            5 
  197000   0.95122162   -6.3054123    73.714463  0.031182091  0.033234757            2 
  198000   0.95219242   -6.3325855    73.540465  0.030951374  0.033134058            2 
  199000   0.95209111   -6.2886211    74.093175  0.031027293  0.033035707            7 
  200000   0.97605937   -6.2951421    74.288817  0.030953674  0.032937714            7 
  201000   0.95802525   -6.3485103    73.999338  0.030679659  0.032838583            4 
  202000   0.95608709   -6.2938314    74.450031  0.030713709   0.03273936            4 
  203000   0.93866711    -6.318532    74.399708  0.030541752  0.032638336            4 
  204000   0.93898827   -6.3254136     74.77286  0.030544469  0.032536358            4 
  205000   0.96095262   -6.3482525    74.475063  0.030274416  0.032435129            9 
  206000   0.95662821    -6.324195    75.053123  0.030361296  0.032333807            4 
  207000   0.92036574   -6.3519139    75.092277  0.030230385  0.032233524            2 
  208000   0.93518437   -6.3368245    75.277331  0.030159187  0.032131239            2 
  209000   0.92248711   -6.3453676    75.519182  0.030111317  0.032031769            4 
  210000   0.93406237   -6.3772712    75.380135  0.029912752  0.031929906            4 
  211000   0.92778816   -6.3565148    75.620143  0.029865775   0.03182683            4 
  212000   0.93497988   -6.3733911    75.499525  0.029677486  0.031724113            9 
  213000   0.91457897   -6.3697773    75.586398  0.029572143  0.031619385            5 
  214000   0.92723872   -6.4054311    75.747657  0.029496751  0.031514827            5 
  215000   0.91735619    -6.354706    76.061446  0.029481181  0.031411604            8 
  216000   0.91088011   -6.3788008    76.416223  0.029481568  0.031311325            7 
  217000   0.93065447   -6.3590967    76.311444   0.02930547  0.031209943            3 
  218000   0.92557484   -6.3990728    76.644117   0.02929821   0.03110888            7 
  219000   0.91794711   -6.4042387    76.594989  0.029145734  0.031006122            5 
  220000   0.91513965     -6.37763    76.854946  0.029111722  0.030905349            5 
  221000   0.91179346   -6.3496798    76.922146  0.029005334  0.030803898            2 
  222000   0.92056885   -6.3786044    77.261816  0.029002183  0.030704187            8 
  223000   0.91320145   -6.4095568    77.129239  0.028822585  0.030603308           10 
  224000   0.91406333   -6.4297227    77.417093  0.028801002  0.030502473            6 
  225000   0.89441105   -6.4486367    77.399176  0.028666361  0.030401511            6 
  226000   0.91426728   -6.4524006    77.543119  0.028592596  0.030300506            5 
  227000   0.90350416   -6.4438355    77.591347  0.028484342  0.030198957            3 
  228000   0.89355405   -6.4240405     78.01386  0.028513838   0.03009878            6 
  229000   0.89794087    -6.428339    78.230521  0.028468166  0.029999546            4 
  230000    0.9102572   -6.4390631    78.182965  0.028327161  0.029901783            8 
  231000   0.91342083   -6.4503558     78.44788  0.028300101  0.029804681            7 
  232000   0.90623835   -6.4345309     78.72333  0.028277058  0.029710126            5 
  233000   0.88580502   -6.4098587     79.29861  0.028361448  0.029616985            4 
  234000   0.89198217   -6.4325919    79.291711  0.028237789  0.029526406            6 
  235000   0.89289632   -6.4630132    79.413764  0.028160909  0.029434589            3 
  236000   0.90056635   -6.4642759    79.574449  0.028098322  0.029344501           18 
  237000   0.89825009   -6.4611358    79.503137  0.027954689  0.029253659            7 
  238000   0.88736623   -6.4735405    79.815443  0.027946584   0.02916197           11 
  239000   0.86574576   -6.4944899    80.399787  0.028033398  0.029072378           13 
  240000   0.86927147   -6.4861844    80.207953  0.027849984  0.028982791            6 
  241000   0.87439434   -6.4954424    80.480461  0.027828652  0.028894542            4 
  242000   0.87392636    -6.485773    80.653168  0.027773129  0.028806927            7 
  243000   0.87040588   -6.5164367    80.419622  0.027578745  0.028719271            7 
  244000   0.87606514   -6.5080823    80.500177   0.02749323  0.028631472           10 
  245000   0.85990693   -6.4876142    81.047397  0.027567142  0.028544157            7 
  246000   0.88913556   -6.5236547    81.198935  0.027506414  0.028458785           13 
  247000   0.86864689   -6.5060435    81.298616  0.027428683  0.028373134            8 
  248000    0.8737409    -6.531897    81.567239  0.027408346  0.028289389            4 
  249000   0.87788032   -6.4963626    81.751817  0.027360046  0.028205218           10 
  250000   0.86947489   -6.5153167    81.902788  0.027300929  0.028120199            7 
  251000   0.86251075   -6.5056519    82.048029  0.027240381  0.028036378           10 
  252000   0.86684517   -6.4801154    81.857138  0.027069159  0.027953644            7 
  253000   0.86078182   -6.5301821    82.021769  0.027016393  0.027870577            9 
  254000   0.85016714     -6.51296    82.245667  0.026983486  0.027786426            4 
  255000   0.84816502   -6.5356047    82.319737  0.026901875  0.027702929            5 
  256000   0.84812701   -6.5604712    82.316259  0.026795657  0.027618621            5 
  257000   0.84283533   -6.5707378    82.426023  0.026726985  0.027534589            6 
  258000    0.8540321   -6.5325398    82.649962  0.026695724  0.027450995            5 
  259000   0.84131493   -6.5465768    82.819458  0.026647187  0.027368075            6 
  260000   0.84228386   -6.5773023    82.692407  0.026503977  0.027285292            6 
  261000   0.84811121   -6.5694817    82.927228  0.026477404  0.027202761            6 
  262000   0.85338468   -6.5679517    83.009075  0.026402378  0.027119923            6 
  263000   0.82933926   -6.5963401    82.863116   0.02625574   0.02703671           18 
  264000   0.83514672   -6.5909786     83.09829  0.026230521  0.026953537            7 
  265000   0.84931422   -6.6161468    83.248826  0.026178876  0.026871849            7 
  266000   0.83879431   -6.5626118    83.568984  0.026180759  0.026791787            4 
  267000   0.83790875   -6.5550429       84.238  0.026291511  0.026713613            4 
  268000   0.84325998      -6.5917    83.986946  0.026115344  0.026636097            4 
  269000   0.85761382   -6.5912865    84.068473  0.026043517  0.026558218           11 
  270000    0.8441784   -6.6072431    84.122506  0.025963736  0.026480383            6 
  271000   0.83100818    -6.577409    84.267288   0.02591245    0.0264014            4 
  272000   0.82357708   -6.5935827    84.295629  0.025825867  0.026322492            6 
  273000   0.81930512   -6.6166446    84.028803  0.025649818  0.026242848            6 
  274000   0.82710087   -6.6181785    84.414514  0.025673514  0.026163837            7 
  275000    0.8431849   -6.6694092      84.2964  0.025544364  0.026084748            4 
  276000    0.8331936   -6.6565505    84.267359  0.025443043  0.026005693            6 
  277000   0.82886679   -6.6454761    84.469779  0.025412087  0.025927168            8 
  278000   0.83292544   -6.6245847     84.84794  0.025434035  0.025848871            4 
  279000   0.82322504   -6.6382288    84.810749  0.025331765  0.025771439            5 
  280000   0.81994557   -6.6452027    84.816645  0.025243049  0.025693612            5 
  281000   0.83973486   -6.6241985    85.065834  0.025227116  0.025616298            3 
  282000   0.82113219   -6.6147828    84.991966  0.025115829  0.025538867           10 
  283000   0.81705504   -6.6665987     85.33979  0.025129502  0.025461659            5 
  284000   0.82164807   -6.6565565     85.33647  0.025040044   0.02538488            6 
  285000   0.80235269   -6.6645779    85.414729  0.024975067   0.02530855            5 
  286000   0.81090374   -6.6537586    85.622961  0.024948415   0.02523263            9 
  287000   0.80364928   -6.6437702    85.559858  0.024843164  0.025156659            9 
  288000   0.82063435   -6.6577784    85.821613  0.024832643  0.025081047            7 
  289000    0.8016814   -6.6810046    85.650308  0.024697321  0.025005253            7 
  290000   0.80191423    -6.701837    85.763792  0.024644768   0.02492933           12 
  291000   0.79886348   -6.6876361    85.771198  0.024562199  0.024853947           12 
  292000       0.8166   -6.7266975    85.836995  0.024496859  0.024778869            8 
  293000   0.80563488   -6.6959444    85.891337  0.024428708  0.024703815           20 
  294000   0.81198288   -6.7008177    86.057266  0.024392649  0.024629782            6 
  295000    0.8041384   -6.6969141    86.137546   0.02433264  0.024556033            8 
  296000   0.80509056    -6.695766    86.373452   0.02431685  0.024482199            5 
  297000    0.8075262   -6.7348451    86.235235  0.024196194  0.024408769           24 
  298000   0.79771114   -6.6856381     86.69911  0.024244718  0.024335475           12 
  299000   0.79388432   -6.7116515    86.456164  0.024095921  0.024262464           10 
  300000   0.79749241   -6.7248761     86.44615   0.02401282  0.024189231           19 
  301000   0.78841166   -6.7205087    86.818705  0.024036186  0.024116216           12 
  302000   0.78515805    -6.733562    86.691483  0.023921491  0.024043152            7 
  303000   0.77849795   -6.7202464    86.741212  0.023856219  0.023969884            6 
  304000   0.79342503   -6.7281392    86.734858  0.023776003   0.02389748            8 
  305000   0.79903376   -6.7054738     86.77008  0.023707672  0.023824921           14 
  306000   0.79348114   -6.7898364    86.618102  0.023588808  0.023752178            6 
  307000   0.79414451   -6.7659122    86.805215  0.023562762  0.023678968           10 
  308000   0.77200558   -6.7526766    86.879807  0.023506441  0.023605721           28 
  309000   0.80327422   -6.7780981    86.675828  0.023375358  0.023532603            9 
  310000   0.77285408   -6.8056067    86.764634  0.023323826  0.023459686            6 
  311000   0.77252867   -6.7649862    86.946535  0.023297571  0.023387538            8 
  312000   0.76832059   -6.7736261    87.512824  0.023374152  0.023316174           11 
  313000   0.74647998   -6.8103926    87.029296  0.023170739  0.023245102           15 
  314000   0.75480571   -6.7945672    87.270935  0.023161076  0.023173962            6 
  315000   0.75497075   -6.7979348    87.395901  0.023120609  0.023103239           10 
  316000   0.77522875   -6.8204863    87.365727  0.023039485    0.0230327           10 
  317000   0.75467761   -6.8012618    87.489159  0.022999253   0.02296208           10 
  318000   0.77071053   -6.8082311    87.386618  0.022900057  0.022891862           10 
  319000    0.7551609   -6.8330709    87.573338  0.022877048   0.02282192            6 
  320000   0.76023775   -6.8077539    87.599616    0.0228124  0.022752171           12 
  321000   0.76893646   -6.8347287    87.751501  0.022780764  0.022682721           13 
  322000   0.75394495    -6.830801    87.968593  0.022766199  0.022613603           11 
  323000   0.75969558   -6.8121772    87.873066   0.02267107  0.022544618           11 
  324000   0.75997433   -6.8484817    87.802479  0.022582942  0.022475853            8 
  325000    0.7500884   -6.8547884    87.882877  0.022534071  0.022407324           18 
  326000   0.72943985   -6.8513765    87.799689  0.022443683  0.022338649           18 
  327000   0.74707769   -6.8701528    87.992764  0.022424252  0.022270339            8 
  328000   0.76017131   -6.8927008    87.911857  0.022335329  0.022201253           11 
  329000   0.73542648   -6.8779982    88.156973  0.022329527  0.022132295           20 
  330000     0.739685    -6.892547    87.974094   0.02221568  0.022063677           15 
  331000   0.73867645   -6.8905999    87.965595  0.022146424  0.021995104           19 
  332000   0.74944743   -6.8922178    88.000173  0.022088397   0.02192661           19 
  333000   0.73300856   -6.8967807    88.071923  0.022040021  0.021858198           23 
  334000   0.72596014   -6.8876675    88.227441  0.022012835   0.02179008           10 
  335000   0.72033997   -6.8644488    88.033269  0.021898823  0.021722695           18 
  336000   0.72686486    -6.892724    88.120211  0.021855211  0.021655171           15 
  337000   0.72880472   -6.9097382    88.223411  0.021815878  0.021587837           13 
  338000   0.70706821   -6.8906843    88.263145   0.02176113  0.021520601           23 
  339000   0.73120792   -6.9333181    88.127094  0.021663494  0.021453099           22 
  340000   0.71113017   -6.9255963    88.283285   0.02163806  0.021385821           15 
  341000   0.73108681   -6.9172573    88.428392  0.021610066  0.021318743           11 
  342000    0.7263339   -6.9232767    88.221119  0.021496374  0.021251981            8 
  343000   0.71897122   -6.9450202    88.098362  0.021403878  0.021184917            8 
  344000   0.71838697   -6.9272221    88.111523  0.021344846  0.021117842            9 
  345000   0.71378754   -6.9377574    88.393619  0.021351116   0.02105122           17 
  346000   0.70145226   -6.9402561    88.323821  0.021272597  0.020984787           16 
  347000   0.71600966   -6.9088273    88.417244  0.021233728  0.020918638           10 
  348000   0.72023402   -6.9527773    88.581676  0.021212087  0.020853032           11 
  349000    0.7028579   -6.9704598    88.412939  0.021111017  0.020787082           30 
  350000   0.72094419   -6.9658866    88.383406  0.021043668  0.020721549            9 
  351000   0.70170158    -6.958125    88.716728  0.021062851  0.020656627            8 
  352000   0.70404375   -6.9493762    88.376255  0.020922409  0.020591697           20 
  353000   0.69984645   -6.9570274    88.569219  0.020908692  0.020526612           26 
  354000   0.70556465   -6.9868835    88.601347  0.020857191  0.020461731           16 
  355000   0.70794811   -6.9895207    88.524796  0.020780469  0.020396987           21 
  356000   0.71277328   -7.0233924    88.428151  0.020699474  0.020332201           29 
  357000   0.68644328   -6.9933368    88.492065  0.020656411  0.020267427           27 
  358000   0.71632661   -7.0095708     88.36325  0.020568727  0.020202808           27 
  359000    0.6816587   -7.0203937    88.450109  0.020531594  0.020138328           20 
  360000   0.70216124   -7.0311514     88.32819   0.02044634  0.020073708           39 
  361000    0.6912347   -7.0168197    88.425133  0.020412081  0.020009328           33 
  362000   0.69232264    -7.045112     88.56618  0.020388163  0.019945041           19 
  363000   0.69639719   -7.0174354    88.719843  0.020367273  0.019880778           48 
  364000   0.68857824   -7.0345174    88.544019  0.020271067  0.019816817           23 
  365000   0.69624808   -7.0287504    88.368115  0.020175369  0.019752953           28 
  366000   0.65797079   -7.0728225    88.490717   0.02014816  0.019689212           24 
  367000   0.69733044   -7.0541455    88.647958  0.020128964  0.019625835           34 
  368000   0.68356043   -7.0273733    88.700199  0.020086096   0.01956277           13 
  369000   0.67833826    -7.047585    88.876699  0.020071522  0.019500418           14 
  370000   0.68777652   -7.0456944    88.914728   0.02002584   0.01943842            7 
  371000   0.67347548    -7.022941    88.884226   0.01996501  0.019376631           23 
  372000    0.6658276   -7.0592205    88.739739  0.019878974  0.019314783           22 
  373000    0.6853565   -7.0612522    89.045444  0.019893978  0.019253237           19 
  374000   0.66177995   -7.0445167    88.884817  0.019804995  0.019192101           27 
  375000   0.67261025   -7.0468477    89.104735  0.019801052   0.01913113           28 
  376000   0.66034535   -7.0695138    88.979816  0.019720704  0.019070499           35 
  377000   0.66711529   -7.0700122    88.786686  0.019625704  0.019009979           17 
  378000   0.65691926   -7.0601378    88.890872  0.019596753  0.018949466           20 
  379000   0.65694118   -7.0950737    88.723217  0.019508183  0.018888905           34 
  380000   0.64919788   -7.0769537    89.034833  0.019525183  0.018828454           20 
  381000   0.66910814   -7.0651683    88.895997  0.019443569  0.018768033           36 
  382000   0.65477402   -7.1127018    88.888756   0.01939109  0.018707666           23 
  383000   0.67234721   -7.0995841    88.838654  0.019329559  0.018647641           80 
  384000   0.64980707   -7.0954722    88.923339  0.019297599  0.018587691           26 
  385000   0.66744208   -7.1198113     88.72731  0.019205045  0.018528029           20 
  386000   0.63974656    -7.102918    88.781843  0.019167065  0.018468614           78 
  387000   0.65184814   -7.1301621    88.839941  0.019130047  0.018409277           50 
  388000   0.65887038     -7.09709    88.990635  0.019113109  0.018350138           40 
  389000    0.6448684   -7.1484007    88.845896  0.019032968  0.018291213           34 
  390000    0.6645759   -7.1213391    88.767616  0.018967439  0.018232314           40 
  391000   0.66224957   -7.1118196    88.822906  0.018930713  0.018173642           54 
  392000   0.64395617   -7.1624812    88.866758  0.018891743  0.018114967           56 
  393000   0.66034436   -7.1282293    88.881551  0.018846809  0.018056577           39 
  394000   0.63876444   -7.1421037    89.010843   0.01882632  0.017998453           25 
  395000   0.63116288   -7.1608583    88.955373  0.018766956  0.017940652           50 
  396000   0.63458806   -7.1413692    89.010932  0.018731257   0.01788311           69 
  397000   0.64104922   -7.1394801    89.117079  0.018706356  0.017825701           77 
  398000   0.64728099    -7.141735    89.056614  0.018646695  0.017768646           80 
  399000   0.63155163   -7.1501595    89.173373  0.018624347   0.01771181           65 
  400000   0.63279693   -7.1466581    89.038898   0.01854977  0.017655236           63 
  401000   0.62443376    -7.191048    88.965069  0.018488169  0.017598866          114 
  402000   0.62623267   -7.2080574    88.734911  0.018394467  0.017542356           88 
  403000   0.63232555   -7.1859855    88.984148  0.018400361  0.017486008           50 
  404000    0.6357961   -7.2010232    89.078253  0.018374227  0.017429841           56 
  405000   0.61272942   -7.2317599    88.659372  0.018242669  0.017373676           73 
  406000   0.62454865   -7.2253707     88.70097  0.018206275  0.017317741           53 
  407000   0.61671253   -7.1916954    88.885877  0.018199401  0.017261974          113 
  408000   0.61806264   -7.2101399    88.797149  0.018136673  0.017206115           53 
  409000   0.63158443   -7.2022421    88.785549  0.018089965  0.017150403           48 
  410000    0.6106222   -7.2128368    89.036827  0.018096916  0.017094805           75 
  411000   0.61119195   -7.2020638    88.724589  0.017989576   0.01703927           68 
  412000   0.60178738   -7.2310747    88.787368   0.01795861  0.016983873           91 
  413000    0.5989885   -7.2341432    88.737263  0.017905017  0.016928715           66 
  414000    0.6166578   -7.2328726    88.840821  0.017882613  0.016873882           77 
  415000   0.60535917   -7.2349734     88.78906  0.017829128  0.016819049           74 
  416000    0.5968922   -7.2618125    88.713333    0.0177711  0.016764408           60 
  417000   0.60931295   -7.2435911     88.66266  0.017718357  0.016710211           49 
  418000   0.59934578    -7.254295    88.654211  0.017674284  0.016656034           52 
  419000   0.59018768   -7.2552464     88.66505  0.017634258  0.016602042           54 
  420000   0.59651771   -7.2735753    88.749645  0.017609057  0.016548187           86 
  421000   0.60295177   -7.2640418    88.560857  0.017529861  0.016494554           57 
  422000     0.591867   -7.2603217    88.759473  0.017527542  0.016440972           52 
  423000   0.59501825   -7.2705311    88.637589  0.017462094  0.016387546          108 
  424000   0.59607473   -7.2787463     88.65769   0.01742486  0.016334159           87 
  425000   0.60446863   -7.2775676     88.63665  0.017379735   0.01628103           86 
  426000   0.59246921   -7.2882926    88.624454  0.017336552   0.01622799           96 
  427000   0.58538154   -7.2908145    88.602561  0.017291679  0.016175102           74 
  428000   0.57353589   -7.2814378    88.668128  0.017264044  0.016122469           51 
  429000   0.57546828   -7.2858177    88.608244  0.017212169  0.016069994           73 
  430000   0.59136909    -7.308249     88.54034  0.017158981  0.016017617           67 
  431000   0.58667329   -7.2846214    88.477886  0.017107093  0.015965444           42 
  432000   0.56408352   -7.3112964    88.480867  0.017068068  0.015913431           80 
  433000   0.57509012   -7.2924294     88.55527   0.01704297  0.015861618           88 
  434000   0.56906593    -7.300315    88.734776  0.017038167  0.015809974           50 
  435000   0.56328227   -7.3107072    88.459709  0.016946304  0.015758439          129 
  436000   0.57139428   -7.3201824    88.603562  0.016934932  0.015707203           65 
  437000   0.57704144    -7.323075    88.545508  0.016885108  0.015656073           90 
  438000   0.56670589   -7.3542758    88.459715  0.016830235  0.015605133          110 
  439000   0.54575047   -7.3256348     88.54356  0.016807813  0.015554441           60 
  440000   0.58063449   -7.3150768    88.332335  0.016729609  0.015503929           36 
  441000   0.54715463   -7.3229001    88.445175  0.016712996   0.01545358          119 
  442000   0.57807338   -7.3425465    88.451889   0.01667645  0.015403284           77 
  443000   0.56206579   -7.3401492    88.418433  0.016632512  0.015353202          123 
  444000   0.57293837   -7.3736683    88.461988  0.016603226  0.015303191          101 
  445000   0.56854203   -7.3582753    88.329671  0.016541137  0.015253401          121 
  446000   0.56384087   -7.3788249    88.345551  0.016507016  0.015203808          129 
  447000   0.55387038   -7.3729897    88.350226  0.016470959   0.01515425          104 
  448000   0.54842808   -7.3548473    88.216497  0.016409319  0.015104803          152 
  449000   0.54751138    -7.380879    88.500039  0.016425397   0.01505553          171 
  450000   0.54902447   -7.3918499    88.249023  0.016342412  0.015006511          286 
  451000   0.54534835   -7.3680876     88.19925  0.016296979  0.014957506          287 
  452000     0.541305    -7.390764     88.23917  0.016268283  0.014908778          146 
  453000   0.53733746    -7.384678    88.391569  0.016260406  0.014860203           56 
  454000   0.54278687   -7.3820288    88.261189  0.016200659  0.014811815           85 
  455000   0.54766059   -7.3807686    88.224959  0.016158417  0.014763632          198 
  456000   0.53418318   -7.3857915    88.319654  0.016140288  0.014715664          155 
  457000   0.54076421    -7.403258    88.122788  0.016069071  0.014667867          136 
  458000   0.53442269   -7.3972179     88.25602  0.016058228  0.014620224           67 
  459000   0.54414916   -7.4073935    88.221246  0.016016929  0.014572761          216 
  460000   0.54364012   -7.4084145    88.048721  0.015950855  0.014525435           71 
  461000   0.53247104   -7.4022206    88.265583  0.015955456  0.014478178          280 
  462000   0.52979503   -7.4187251    88.028778  0.015878207  0.014431053           94 
  463000   0.53392667   -7.4022907    88.169305  0.015869205  0.014384153          230 
  464000   0.53588503   -7.4326834    88.059006  0.015815195  0.014337357          231 
  465000   0.52145969   -7.4379432     88.02731  0.015775504  0.014290607          303 
  466000   0.52003621   -7.4204025    87.961678  0.015729914  0.014244083          138 
  467000   0.51723331    -7.438487    88.147519  0.015729393  0.014197727          351 
  468000   0.51829024   -7.4411397    87.958198  0.015662072  0.014151487          421 
  469000   0.52303832   -7.4460321    87.942046  0.015625808  0.014105512          131 
  470000   0.51585427   -7.4436763    87.922231  0.015589048  0.014059723          215 
  471000   0.52581032    -7.440066    87.948439  0.015560587  0.014014083          243 
  472000    0.5190093   -7.4339068     88.00016  0.015536751  0.013968645          408 
  473000   0.50521769   -7.4389621    87.937771  0.015492912  0.013923337          111 
  474000   0.51063875   -7.4564918    87.966998  0.015465365  0.013878146          131 
  475000   0.51159611   -7.4503053    87.852517  0.015412722  0.013833095          166 
  476000   0.50638929   -7.4622947    87.895017  0.015387783  0.013788253          228 
  477000   0.50021302   -7.4540544    87.873473   0.01535176  0.013743426          233 
  478000   0.50224606   -7.4692794    87.769342  0.015301489  0.013698851          153 
  479000   0.50473965   -7.4799036     87.81737    0.0152779   0.01365444          128 
  480000   0.49376586    -7.470595    87.754055  0.015235079  0.013610216          184 
  481000   0.49210525   -7.4814357    87.862861  0.015222256  0.013566141          149 
  482000   0.50315065   -7.4895779     87.70533  0.015163439  0.013522207          114 
  483000   0.50399258   -7.4856395     87.89874  0.015165414  0.013478369          403 
  484000    0.5002641   -7.4857634    87.774016  0.015112606  0.013434733          182 
  485000   0.48982599   -7.4910785    87.712699   0.01507091  0.013391315          191 
  486000   0.50210719   -7.4853752    87.829998  0.015060013  0.013348049          275 
  487000   0.49065204   -7.4924119    87.760329  0.015017168  0.013304987          242 
  488000   0.48713352   -7.4943896     87.73009  0.014981231  0.013262052          504 
  489000   0.48568438   -7.5013566    87.610029  0.014930134  0.013219356          366 
  490000   0.49121156   -7.4992297    87.826386   0.01493646  0.013176765          245 
  491000   0.48804207   -7.5093068    87.847397  0.014909606  0.013134434          273 
  492000   0.48146869   -7.4925644     87.62695  0.014841963  0.013092214          408 
  493000    0.4826143   -7.4987725    87.767386  0.014835596  0.013050233          384 
  494000    0.4896558   -7.5154484    87.673881  0.014789791  0.013008335          343 
  495000   0.48121076   -7.5144837    87.605749  0.014748443  0.012966624          458 
  496000   0.47626404   -7.5326247    87.671385  0.014729735  0.012925064          380 
  497000   0.46533922   -7.5052213    87.535982  0.014677395  0.012883598          129 
  498000   0.47404589   -7.5388239    87.642556  0.014665756  0.012842278          320 
  499000     0.474762   -7.5175782    87.611977  0.014631259  0.012801057          207 
  500000   0.46935647   -7.5236737    87.659401    0.0146099  0.012760058          355 
  501000   0.46855132   -7.5337776    87.651851  0.014579483  0.012719223          355 
  502000   0.45191479   -7.5129085    87.485455  0.014522818  0.012678564          364 
  503000   0.46490068   -7.5399837    87.497044  0.014495866  0.012638027          448 
  504000   0.46098169   -7.5359648    87.584173   0.01448151  0.012597616          405 
  505000    0.4618306   -7.5425169    87.533957  0.014444547  0.012557315          374 
  506000    0.4660323   -7.5560514    87.563232  0.014420822  0.012517228          471 
  507000   0.45710453   -7.5534706    87.412157  0.014367547  0.012477267          527 
  508000    0.4595687    -7.547194      87.5289  0.014358415  0.012437522          450 
  509000   0.45683746   -7.5506539    87.512005   0.01432744  0.012397897          478 
  510000   0.45609411   -7.5540219    87.494162  0.014296432  0.012358402          568 
  511000   0.45457559   -7.5620174    87.488615   0.01426755  0.012319082          355 
  512000   0.45364033   -7.5451355    87.449988  0.014233396  0.012279936          399 
Loop time of 1303.76 on 48 procs for 500000 steps with 4000 atoms

Performance: 66269.781 tau/day, 383.506 timesteps/s
99.4% CPU use with 48 MPI tasks x no OpenMP threads

MPI task timing breakdown:
Section |  min time  |  avg time  |  max time  |%varavg| %total
---------------------------------------------------------------
Pair    | 91.543     | 101.23     | 107.52     |  37.4 |  7.76
Neigh   | 9.0464     | 9.3949     | 9.7328     |   6.0 |  0.72
Comm    | 88.558     | 93.48      | 102.57     |  35.6 |  7.17
Output  | 0.96726    | 0.9682     | 1.0005     |   0.5 |  0.07
Modify  | 1081.1     | 1085.9     | 1090.6     |   6.9 | 83.29
Other   |            | 12.79      |            |       |  0.98

Nlocal:        83.3333 ave          89 max          78 min
Histogram: 2 7 3 7 8 7 3 4 4 3
Nghost:        2405.79 ave        2421 max        2378 min
Histogram: 1 0 1 4 4 10 9 4 7 8
Neighs:        16728.9 ave       18988 max       14751 min
Histogram: 5 4 7 7 5 1 7 6 3 3
FullNghs:      33456.7 ave       35862 max       31380 min
Histogram: 3 5 5 7 9 5 4 6 1 3

Total # of neighbors = 1605921
Ave neighs/atom = 401.48025
Neighbor list builds = 26717
Dangerous builds = 0

#clear
#
#next RN
#
#jump SELF
Total wall time: 0:21:47
