
units lj                  # Use reduced LJ style units
atom_style atomic         # Uncharged point particles
atom_modify map hash      # Needed for indexing of clusters etc
                          # Used to be able to find where atoms are in relation to each other.

lattice fcc 1.0 spacing 1 1 1
Lattice spacing in x,y,z = 1.5874011 1.5874011 1.5874011
region box block 0 10 0 10 0 10 units lattice
create_box 2 box
Created orthogonal box = (0.0000000 0.0000000 0.0000000) to (15.874011 15.874011 15.874011)
  3 by 4 by 4 MPI processor grid
create_atoms 1 box
Created 4000 atoms
  using lattice units in orthogonal box = (0.0000000 0.0000000 0.0000000) to (15.874011 15.874011 15.874011)
  create_atoms CPU = 0.002 seconds
set type 1 type/fraction 2 0.85 78393
Setting atom values ...
  3394 settings made for type/fraction
mass 1 1.0
mass 2 1.0
pair_style lj/cut  3.5
pair_modify tail  yes
pair_coeff 1  1  1.0  1.0   # Intearaction between 1 and 1 set with epsilon = 1 and sigma = 1
pair_coeff 1  2  1.5  0.8
pair_coeff 2  2  0.5  0.88

write_data data.0
System init for write_data ...
Neighbor list info ...
  update every 1 steps, delay 10 steps, check yes
  max neighbors/atom: 2000, page size: 100000
  master list distance cutoff = 3.8
  ghost atom cutoff = 3.8
  binsize = 1.9, bins = 9 9 9
  1 neighbor lists, perpetual/occasional/extra = 1 0 0
  (1) pair lj/cut, perpetual
      attributes: half, newton on
      pair build: half/bin/atomonly/newton
      stencil: half/bin/3d
      bin: standard
WARNING: Not all mixed pair coeffs generated from mixing. Use write_data with 'pair ij' option to store all pair coeffs. (../write_data.cpp:312)


#############################
#   M E L T   S Y S T E M   #
#############################

velocity all create 2.4 1741580 mom yes dist gaussian # Assign velocities
                                                    # Temperature 2.4, random number seed, zero linear momentum
                                                                                # Gaussian distribution

timestep 0.002   # simulation timestep
thermo 1000       # output thermodynamic data every 1000 steps bf 100

# Define a fix  in this case with index 1 applied to all
# particles in the simulation. This fix is for simulations
# in the anisotropic NPT ensemble. Note that we use the MTK
# correction.
fix 1 all npt temp 2.4 2.4 0.1 iso 5.68 5.68 0.5 mtk yes tchain 5 pchain 5 # Use NPT ensemble
                                                                         # Set temperature and pressure and damping
                                                                         # Numbers of thermostats in chain and in barostat
run 10000          # run for 10000 steps
Per MPI rank memory allocation (min/avg/max) = 3.642 | 3.644 | 3.648 Mbytes
Step Temp E_pair E_mol TotEng Press Volume 
       0          2.4   -3.4381692            0   0.16093083   -2.9520202         4000 
    1000    2.3817078   -2.6370165            0   0.93465214    5.7415267    3877.6618 
    2000    2.4345685   -2.6865581            0   0.96438164    5.6583733    3865.4744 
    3000    2.4191163   -2.6237432            0    1.0040241    5.7347078    3899.5933 
    4000    2.3850981   -2.6291414            0   0.94761131    5.8712657    3882.6002 
    5000    2.4064089   -2.6426064            0    0.9661045    5.7745069    3875.5641 
    6000    2.3948947   -2.6769879            0   0.91445617    5.4461817    3889.8808 
    7000    2.4105433   -2.6736146            0   0.94129645    5.7478664    3871.9791 
    8000    2.3672807   -2.6788605            0   0.87117274     5.568637    3861.4373 
    9000    2.4332423   -2.6554682            0   0.99348283    5.8118004    3858.8165 
   10000    2.4346922   -2.6702094            0   0.98091595    5.3903559    3905.9272 
Loop time of 2.51618 on 48 procs for 10000 steps with 4000 atoms

Performance: 686755.359 tau/day, 3974.279 timesteps/s
99.7% CPU use with 48 MPI tasks x no OpenMP threads

MPI task timing breakdown:
Section |  min time  |  avg time  |  max time  |%varavg| %total
---------------------------------------------------------------
Pair    | 1.1148     | 1.1852     | 1.3149     |   3.3 | 47.10
Neigh   | 0.20983    | 0.21655    | 0.23426    |   1.0 |  8.61
Comm    | 0.71068    | 0.85969    | 0.93101    |   4.3 | 34.17
Output  | 0.0002399  | 0.00025734 | 0.00031627 |   0.0 |  0.01
Modify  | 0.19794    | 0.2392     | 0.26921    |   4.1 |  9.51
Other   |            | 0.01526    |            |       |  0.61

Nlocal:        83.3333 ave          93 max          73 min
Histogram: 2 1 8 9 4 4 3 5 5 7
Nghost:        1668.33 ave        1710 max        1631 min
Histogram: 2 5 8 5 5 7 7 1 6 2
Neighs:        9786.81 ave       11621 max        8199 min
Histogram: 2 6 7 5 6 8 2 9 1 2

Total # of neighbors = 469767
Ave neighs/atom = 117.44175
Neighbor list builds = 904
Dangerous builds = 190

# Equilibrate just above the melting temperature to avoid step fn in T

fix 1 all npt temp 1.25 1.25 0.1 iso 5.68 5.68 0.5 mtk yes tchain 5 pchain 5
run 2000
Per MPI rank memory allocation (min/avg/max) = 3.643 | 3.645 | 3.649 Mbytes
Step Temp E_pair E_mol TotEng Press Volume 
   10000    2.4346922   -2.6702094            0   0.98091595    5.3903559    3905.9272 
   11000    1.2684444   -3.9374041            0   -2.0352132    5.5224041    2998.4608 
   12000    1.2438618   -3.9045368            0   -2.0392106    5.9796155    2990.4063 
Loop time of 0.621886 on 48 procs for 2000 steps with 4000 atoms

Performance: 555728.884 tau/day, 3216.024 timesteps/s
99.6% CPU use with 48 MPI tasks x no OpenMP threads

MPI task timing breakdown:
Section |  min time  |  avg time  |  max time  |%varavg| %total
---------------------------------------------------------------
Pair    | 0.28448    | 0.30042    | 0.32772    |   1.7 | 48.31
Neigh   | 0.040107   | 0.041699   | 0.044844   |   0.5 |  6.71
Comm    | 0.19791    | 0.22877    | 0.24587    |   2.1 | 36.79
Output  | 5.2015e-05 | 5.3474e-05 | 6.7791e-05 |   0.0 |  0.01
Modify  | 0.043672   | 0.046092   | 0.049487   |   0.7 |  7.41
Other   |            | 0.004858   |            |       |  0.78

Nlocal:        83.3333 ave          89 max          77 min
Histogram: 3 2 3 4 7 13 2 6 6 2
Nghost:        1997.02 ave        2032 max        1976 min
Histogram: 5 5 10 6 7 8 5 0 1 1
Neighs:        12767.9 ave       14261 max       11663 min
Histogram: 4 4 7 5 10 8 5 2 2 1

Total # of neighbors = 612858
Ave neighs/atom = 153.21450
Neighbor list builds = 142
Dangerous builds = 10

#############################
# L I N E A R  Q U E N C H  #
#############################

# Define solid atoms. This closely follows ten Wolde  Ruiz-Montero and Frenkel  Faraday Discuss  1996  104  93-110
# Compute components of the per-atom q6 vector
compute q6 all orientorder/atom degrees 1 6 components 6 nnn NULL cutoff 1.3 # compute the Q6 parameter.
                                                                             # Use all neighbours within 1.3 unit cell.

# get number of connections
compute coord_number all coord/atom orientorder q6 0.5

# An atom is solid if it has 8 or more connections (of a possible 14)
variable is_solid atom c_coord_number>=8
group solid dynamic all var is_solid    # Must be dynamic to update
dynamic group solid defined

# do clustering
compute cluster solid cluster/atom 1.3 # Create a cluster where all atoms within are solid and max 1.3 units from another member

# define chunks one chunk per cluster
compute clus_chunks solid chunk/atom c_cluster nchunk every compress yes  # Says which atoms are in which chunk

# count the size of each chunk
compute size_chunks solid property/chunk clus_chunks count


# Find the maximum entry in the vector of chunk sizes
variable max_n equal max(c_size_chunks)


# Thermo style which includes this variable
# thermo_style custom step temp pe vol v_max_n

thermo ${N}  # Print the thermo information every 100 steps
thermo 1000  

# Reset the npt fix at a lower temperature (below freezing)
fix 1  all npt temp  ${temp} ${temp}  0.1  iso  5.68  5.68  0.5  mtk yes tchain  5  pchain  5
fix 1  all npt temp  0.45 ${temp}  0.1  iso  5.68  5.68  0.5  mtk yes tchain  5  pchain  5
fix 1  all npt temp  0.45 0.45  0.1  iso  5.68  5.68  0.5  mtk yes tchain  5  pchain  5

dump dmp2 all dcd ${N} traj.dcd
dump dmp2 all dcd 1000 traj.dcd


compute msd all msd com yes
variable twopoint equal c_msd[4]/6/(step*dt+1.0e-6)
fix 9 all vector 10 c_msd[4]
variable fit equal slope(f_9)/6/(10*dt)
thermo_style custom step temp pe c_msd[4] v_twopoint v_fit v_max_n

fix 1 all npt temp 1.25 ${temp} 0.1 iso 5.68 5.68 0.5 mtk yes tchain 5 pchain 5
fix 1 all npt temp 1.25 0.45 0.1 iso 5.68 5.68 0.5 mtk yes tchain 5 pchain 5
run 500000 # 5000000  # Run for this many steps
Neighbor list info ...
  update every 1 steps, delay 10 steps, check yes
  max neighbors/atom: 2000, page size: 100000
  master list distance cutoff = 3.8
  ghost atom cutoff = 3.8
  binsize = 1.9, bins = 8 8 8
  4 neighbor lists, perpetual/occasional/extra = 1 3 0
  (1) pair lj/cut, perpetual
      attributes: half, newton on
      pair build: half/bin/atomonly/newton
      stencil: half/bin/3d
      bin: standard
  (2) compute orientorder/atom, occasional
      attributes: full, newton on
      pair build: full/bin/atomonly
      stencil: full/bin/3d
      bin: standard
  (3) compute coord/atom, occasional
      attributes: full, newton on
      pair build: full/bin/atomonly
      stencil: full/bin/3d
      bin: standard
  (4) compute cluster/atom, occasional
      attributes: full, newton on
      pair build: full/bin/atomonly
      stencil: full/bin/3d
      bin: standard
Per MPI rank memory allocation (min/avg/max) = 9.831 | 9.834 | 9.839 Mbytes
Step Temp PotEng c_msd[4] v_twopoint v_fit v_max_n 
   12000    1.2438618   -3.9045368 8.3382598e-31 5.7904579e-33 8.3333333e+20            2 
   13000    1.2299634   -3.8969586   0.89990382  0.005768614  0.076026339            1 
   14000    1.2316296   -3.9175952    1.8497811  0.011010602  0.078208423            2 
   15000    1.2691956    -3.892393    2.7638025  0.015354458  0.077407242            1 
   16000     1.253399   -3.9309508    3.6642472   0.01908462  0.077224204            1 
   17000    1.2421621   -3.9358966    4.6980502  0.023029657   0.07773974            1 
   18000    1.2458095   -3.9191149    5.7063754  0.026418404   0.07878249            2 
   19000    1.2344458   -3.9052384    6.6043185  0.028966308   0.07911487            2 
   20000    1.2594778   -3.9225922    7.4642337  0.031100973  0.078980673            3 
   21000    1.2258283   -3.9603767    8.3933717   0.03330703  0.078557159            2 
   22000    1.2493421   -3.9152159    9.3757673  0.035514269  0.078345793            1 
   23000    1.2609827    -3.965125    10.121621  0.036672538  0.078049851            2 
   24000      1.24838   -3.9396409    11.005578  0.038213811  0.077421961            2 
   25000    1.2353823   -4.0001212    11.848441  0.039494802  0.076903983            1 
   26000    1.2309593   -3.9301511    12.897304  0.041337511  0.076621645            1 
   27000    1.2260714   -3.9619114     13.90237  0.042908548  0.076621387            2 
   28000    1.2184901   -3.9406143    14.928275  0.044429389  0.076849215            2 
   29000    1.2077323    -3.929823     15.91623  0.045736293  0.077134973            2 
   30000    1.2023016    -3.940274    16.839838  0.046777328  0.077295951            3 
   31000    1.2259002   -3.9640265    17.735612  0.047676375  0.077462736            3 
   32000    1.2248372   -3.9440044    18.558805   0.04833022  0.077433719            3 
   33000    1.2260189   -3.9767768    19.574882   0.04943152  0.077388104            1 
   34000    1.2250378   -3.9390609    20.356566  0.049893543  0.077362653       -1e+20 
   35000    1.2142818   -3.9707523    21.249022  0.050592908   0.07728098            2 
   36000    1.2289587   -3.9690053    22.110509  0.051181732  0.077150187            4 
   37000    1.1864316   -3.9706269    22.853454  0.051471743  0.077014081            3 
   38000    1.2145567    -3.939316    23.722362  0.052022723   0.07680106            1 
   39000     1.221522   -4.0078082    24.466692  0.052279255  0.076571726            2 
   40000    1.2014831   -3.9903695    25.184007  0.052466682  0.076299483            1 
   41000    1.2095731   -4.0059882    26.017434  0.052880963  0.075968611            2 
   42000    1.2281147   -3.9620113    26.715126  0.053006201  0.075600158            1 
   43000    1.2051661   -4.0313584    27.371462  0.053045468  0.075227639            1 
   44000    1.1937162   -3.9799659    28.388525  0.053766146  0.074872882            2 
   45000    1.2018112   -4.0245696    29.121529  0.053928757  0.074543383            1 
   46000      1.19058   -4.0151326    29.813734  0.054010387  0.074207028            2 
   47000    1.2106879   -4.0013532    30.572487  0.054206537  0.073885187            1 
   48000    1.2026004   -4.0087748    31.415995  0.054541658  0.073549066            1 
   49000    1.2097035   -3.9727131    32.261887  0.054867155   0.07322467            1 
   50000    1.1746453   -4.0159477    32.952786   0.05492131  0.072919902            2 
   51000    1.1962288   -4.0251304      33.8112  0.055247059  0.072638196            5 
   52000    1.2296719   -4.0081367    34.224956  0.054847686  0.072338201            3 
   53000    1.1977175   -4.0094063    35.297684  0.055499503   0.07205851            1 
   54000    1.1845527   -4.0211747    35.895458  0.055394225  0.071781924            2 
   55000    1.1483786   -4.0048361    36.745147  0.055674464  0.071508643            1 
   56000    1.1817046    -4.047707    37.439123  0.055712981   0.07125999            2 
   57000    1.1653545   -4.0120398    38.661771  0.056523056  0.071039025            4 
   58000    1.1690851   -4.0112441    39.502772  0.056756855  0.070898429            1 
   59000    1.2009459   -3.9839011    40.401818  0.057064715   0.07075517            2 
   60000     1.173785    -4.003419    41.153941   0.05715825  0.070632601            2 
   61000    1.1651719    -4.005005    41.953309  0.057313263  0.070531308            2 
   62000    1.1506081   -4.0218406    42.787198  0.057509675  0.070437666            2 
   63000    1.1668752    -4.033541    43.516675  0.057561739  0.070360533            2 
   64000    1.1591003   -4.0665368    44.280963  0.057657504  0.070261876            3 
   65000    1.1526893   -4.0556177    45.066853  0.057778016  0.070162171            1 
   66000    1.1716462    -4.059286    45.468421  0.057409622  0.070036222            1 
   67000    1.1736436   -4.0651774    46.144254   0.05739335  0.069891095            3 
   68000    1.1655244   -4.0026577    47.314086  0.057982948  0.069728966            2 
   69000    1.1414573    -4.069918    47.870589  0.057814721  0.069593413            1 
   70000    1.1794459   -4.0537492     48.51036  0.057750428  0.069465665            1 
   71000    1.1319722   -4.0722417     49.68566  0.058316502  0.069350771            7 
   72000     1.146287   -4.0747646    50.351345   0.05827702  0.069252538            2 
   73000    1.1332746   -4.0423453    51.146945  0.058386924  0.069157967            1 
   74000    1.1497888   -4.0506037    51.913642  0.058461308  0.069057362            2 
   75000    1.1522259   -4.0992957    52.536788  0.058374208  0.068955441            1 
   76000    1.1616167   -4.0555856    53.469128   0.05862843  0.068845705            2 
   77000    1.1557128   -4.0767667    53.984966  0.058425287  0.068737815            1 
   78000    1.1441701   -4.0784372    54.348656  0.058064803  0.068604192            2 
   79000    1.1454978   -4.0569786    55.184547  0.058211547  0.068468382            1 
   80000    1.1473072   -4.0870263    55.709477  0.058030705  0.068315229            2 
   81000    1.1478928   -4.0681893    56.590121  0.058220289  0.068151372            1 
   82000    1.1381603   -4.1043183    57.154351   0.05808369  0.068005465            1 
   83000    1.1447996   -4.0941848    57.943216  0.058175919  0.067852544            3 
   84000    1.1419247    -4.103561    58.501505  0.058037207  0.067711686            2 
   85000    1.1222233   -4.1069783    59.579233  0.058411013  0.067577261            3 
   86000    1.1665686   -4.1172931    60.530761  0.058653838  0.067458599            2 
   87000    1.1169914   -4.1077262    61.472026   0.05888125  0.067366268            3 
   88000    1.0975676   -4.1026338     62.09804  0.058804962  0.067283586            1 
   89000    1.1223105   -4.0949149    63.085815  0.059069114  0.067209528            2 
   90000    1.1363226   -4.0952465    63.697424  0.058979096  0.067124954            4 
   91000    1.0984986   -4.1448199    64.139301  0.058735623  0.067050726            2 
   92000    1.1201674   -4.1052733    65.042161     0.058915  0.066968026            1 
   93000    1.1126834   -4.1358734    65.921789  0.059069703  0.066887385            3 
   94000    1.1131836   -4.1550777    66.391321  0.058857554  0.066792852            1 
   95000    1.1191186   -4.1202011    67.052106  0.058817636  0.066706537            2 
   96000    1.1119361   -4.1178337    68.014247  0.059040145  0.066614223            3 
   97000    1.1038293    -4.116773    68.685697   0.05900833  0.066511927            2 
   98000    1.1396577   -4.1394659    69.159067   0.05880873  0.066415413            4 
   99000    1.1023625   -4.0946141    70.276762  0.059155523  0.066328277            2 
  100000    1.1050739   -4.1172723    71.006216  0.059171846  0.066251021            6 
  101000    1.1255271   -4.1464875     71.29949  0.058827961  0.066158894            3 
  102000    1.1152792   -4.1410402    71.528772  0.058438539  0.066051264            2 
  103000     1.103032   -4.1541907    72.451558  0.058617765  0.065942202            3 
  104000     1.088443   -4.1104708    73.261437  0.058703075  0.065824773            3 
  105000     1.074939   -4.1588447    73.621404  0.058429685   0.06570881            2 
  106000    1.1016583   -4.1380093    73.905459  0.058101776  0.065592542            2 
  107000    1.1166809   -4.1313833    74.765014  0.058228204   0.06547535            1 
  108000     1.096172   -4.1296678    75.842542   0.05852048  0.065358676            2 
  109000    1.1116376   -4.1393728     76.70288  0.058641346   0.06526477            1 
  110000    1.0864326   -4.1736205    77.304441   0.05856397  0.065176208            2 
  111000    1.0909967   -4.1517934    78.111696  0.058642414  0.065091687            6 
  112000    1.1077965   -4.1630895    78.718305  0.058570167  0.065008939            2 
  113000    1.0799112   -4.1343134    79.940276  0.058953005  0.064923106            2 
  114000    1.1197256   -4.1820012     79.96082  0.058450892  0.064833475            2 
  115000    1.0720314   -4.1623835    80.565144  0.058380539  0.064731993            4 
  116000    1.0848772   -4.1663326    81.003362   0.05819207  0.064631618            2 
  117000    1.0733154   -4.1725926    82.014386  0.058414805  0.064529046            3 
  118000    1.1278239   -4.1905888     81.93168  0.057861355  0.064417739            3 
  119000     1.071469   -4.1803968    82.885483  0.058043055  0.064311849            3 
  120000    1.0918786   -4.1878819    83.404221  0.057919598  0.064196241            2 
  121000    1.0722464   -4.2035579    84.039913  0.057878728  0.064078805            4 
  122000    1.0799346   -4.1927677    84.746073  0.057886661  0.063960943            3 
  123000    1.0717704   -4.2042102    84.935339  0.057544267  0.063835276            4 
  124000    1.0656063   -4.1820166    85.797752  0.057659779  0.063707343            3 
  125000    1.0822688   -4.1784344    85.767291  0.057178194  0.063577269            2 
  126000    1.0791363   -4.1936905    86.580296    0.0572621  0.063445156            1 
  127000    1.0853759   -4.2227194    86.786896  0.056946782  0.063307331            3 
  128000    1.0445292   -4.2004013    87.597867  0.057029861  0.063167851            4 
  129000    1.0797078   -4.1998227    88.392405  0.057101037  0.063030899            4 
  130000    1.0553686    -4.229106    88.912096  0.056994933  0.062899896            1 
  131000    1.0567647   -4.2349414    89.226534  0.056759881  0.062761103            2 
  132000    1.0633883   -4.2215492    90.059058  0.056855466  0.062631005            2 
  133000    1.0439575    -4.231453     90.94488  0.056983008  0.062497384            2 
  134000    1.0560521   -4.2441225    91.118268  0.056665589  0.062366005            2 
  135000    1.0316581   -4.2222497    92.209563  0.056919483  0.062241187            2 
  136000    1.0578377   -4.2067502    92.921967   0.05693748  0.062108604            2 
  137000    1.0219346    -4.230015    92.801203   0.05644842   0.06197852            3 
  138000    1.0374512   -4.2252052    93.149984   0.05624999  0.061843865            4 
  139000    1.0432796   -4.2245894     93.91254  0.056302482  0.061711988            4 
  140000      1.04265   -4.2496818    94.337041     0.056153  0.061575471            3 
  141000    1.0409457    -4.233856    95.230196  0.056282622  0.061449523            4 
  142000    1.0237473   -4.2370355    95.620267   0.05611518  0.061324467            2 
  143000    1.0621931   -4.2355196    96.213898  0.056068705  0.061200697            4 
  144000    1.0432191    -4.242189    96.951095  0.056105958  0.061077688            2 
  145000    1.0298271   -4.2520323    97.352379  0.055949643    0.0609511            3 
  146000    1.0576007   -4.2406349    98.234988  0.056070199  0.060827311            3 
  147000    1.0319104   -4.2887155    98.332821  0.055744229  0.060705804            2 
  148000    1.0303809   -4.2232395    99.310379  0.055918006  0.060583159            2 
  149000    1.0146164   -4.2513716    99.705846  0.055763896  0.060464602            4 
  150000    1.0194718   -4.2555292    100.07126  0.055595146  0.060345993            7 
  151000    1.0296969    -4.241303    100.30606  0.055356547  0.060223602            2 
  152000    1.0339745   -4.2735856    100.93854  0.055339112  0.060098603            4 
  153000    1.0224684   -4.2959171    101.31258  0.055181146  0.059972762            4 
  154000    1.0138833   -4.2485446    101.99203   0.05519049  0.059846415            6 
  155000    1.0216615   -4.2672314     102.8206  0.055279892  0.059722795            4 
  156000    1.0537057      -4.2512      103.336  0.055200853  0.059608175            5 
  157000    1.0128375   -4.2601589    103.71488  0.055050362  0.059489999            3 
  158000    1.0064267   -4.2954357    104.18399  0.054949361  0.059366843            3 
  159000    1.0328014   -4.3022567    104.90933  0.054983924  0.059245222            1 
  160000     1.000734   -4.3138119    105.15453  0.054767982  0.059133035            2 
  161000    1.0210332   -4.2909572    105.59736  0.054657017  0.059015346            2 
  162000   0.98786839   -4.3077758     106.7744  0.054925105  0.058900981            4 
  163000    1.0171197   -4.2680719     107.2236  0.054817792  0.058789263            6 
  164000   0.98885873   -4.3160533    107.93045   0.05484271  0.058676796            1 
  165000    1.0112727   -4.3437731    107.97741  0.054534047  0.058568894            3 
  166000    1.0235017   -4.2995069    109.14282  0.054790572  0.058457059            2 
  167000    1.0061276   -4.2981998    109.66224  0.054721674  0.058355414            3 
  168000    0.9917273   -4.2897903    110.44973  0.054786571  0.058252357            2 
  169000   0.99375648    -4.328927    110.53668  0.054505264  0.058152889            2 
  170000   0.99295043   -4.3282678    111.28516  0.054551551  0.058052972            3 
  171000   0.99733705   -4.3261218    111.26412  0.054222279  0.057956143            3 
  172000   0.98814415   -4.3024681    112.11396  0.054318779  0.057855759            5 
  173000   0.99188954   -4.3185969    112.53128   0.05420582  0.057752675            6 
  174000   0.97861089   -4.3222356    113.16211  0.054196415  0.057653728            2 
  175000   0.99436339   -4.3327962    113.90062  0.054238391  0.057554669            4 
  176000    1.0038609    -4.323201    114.81936  0.054365228   0.05745694            4 
  177000   0.97407794   -4.3496789    115.24457  0.054258271  0.057363789            5 
  178000     0.962581   -4.3441678    115.80677  0.054216653  0.057272452            2 
  179000   0.97056921   -4.3248564    116.87794  0.054412447  0.057183949            2 
  180000    0.9764926   -4.3423951    116.98033  0.054157561  0.057096459            7 
  181000   0.98057924   -4.3576547    116.69368  0.053726371   0.05700487            6 
  182000   0.95812462   -4.3322925    118.12934  0.054088526  0.056915999            2 
  183000   0.96721173   -4.3478701    118.69959  0.054052636  0.056828367            4 
  184000   0.97530858    -4.354351    119.33004  0.054044401  0.056740716            5 
  185000   0.96502064    -4.363055    119.61359  0.053879995  0.056651332            6 
  186000   0.94759669   -4.3724731    119.61208   0.05358964  0.056561778            2 
  187000   0.98360943   -4.3900328    120.09779  0.053519515  0.056470799            2 
  188000   0.96937968   -4.3615717    120.29552  0.053322484  0.056374002            1 
  189000   0.95866872   -4.3750565    120.17365  0.052986618  0.056276079            3 
  190000   0.97004368   -4.3861158     120.8137  0.052988467  0.056175864            4 
  191000   0.98478987   -4.3969325    120.85129  0.052727438  0.056072128            7 
  192000   0.97741127   -4.3698537    122.04364   0.05297033  0.055969097            3 
  193000   0.97613569   -4.4015202    122.00884  0.052680845  0.055866758            5 
  194000   0.94889641   -4.3658507    122.54323  0.052638844  0.055760991            2 
  195000   0.96830636   -4.3861133    122.85479  0.052502047  0.055654968            4 
  196000   0.95144286   -4.4039507    122.92911  0.052265779  0.055546919            3 
  197000   0.95183338   -4.3996233    123.46886   0.05222879  0.055438212            3 
  198000   0.95111719   -4.4268239    123.85244  0.052126448  0.055331382            2 
  199000   0.96709405   -4.4061585    125.00655  0.052347799  0.055222247            5 
  200000   0.93333083   -4.4320015    124.27026  0.051779274  0.055112309            3 
  201000   0.97164971   -4.4169561    125.10242  0.051866676   0.05500017            3 
  202000   0.94752135   -4.4008282     125.2989  0.051690964  0.054888173            3 
  203000    0.9368184   -4.3944307    126.03115  0.051736926  0.054777231            4 
  204000   0.93247649   -4.4099027    125.91215  0.051434703  0.054668881            3 
  205000   0.94402536   -4.4105744    126.56826   0.05145051  0.054557215            3 
  206000   0.91314355   -4.4032719    127.06671   0.05140239  0.054444923            4 
  207000   0.95825502   -4.4373369    127.19934  0.051207462  0.054330874            2 
  208000   0.95300162   -4.4280195    127.73257  0.051174907  0.054217008            3 
  209000   0.91562231   -4.4282417    127.98026  0.051028812  0.054102087            3 
  210000   0.92781145   -4.4269224    128.62098   0.05104007  0.053988235            2 
  211000   0.93062202   -4.4190043    128.68356  0.050822889  0.053875411            3 
  212000   0.93599009   -4.4408312    129.54794  0.050922934  0.053762009            2 
  213000   0.92464846   -4.4305855    130.01185  0.050865358  0.053651405            5 
  214000   0.92914364   -4.4388556    130.28778  0.050735118  0.053544514            4 
  215000   0.93619598   -4.4465779    131.12515  0.050823701  0.053439203            2 
  216000   0.92256399   -4.4337829    132.02122  0.050934113  0.053335844            2 
  217000   0.93144093   -4.4752843    131.55878  0.050521804  0.053231725            2 
  218000    0.9067434   -4.4571973     132.1626   0.05052087  0.053125343            3 
  219000   0.90337242   -4.4370397    132.52141  0.050426717  0.053018892            3 
  220000   0.92469264   -4.4692834    132.33255  0.050125967  0.052912958            8 
  221000   0.89775655   -4.4501414    133.23944  0.050241115  0.052809227            3 
  222000   0.90734167   -4.4708818    133.71168  0.050192072  0.052702944            6 
  223000   0.90602443   -4.4462452    134.26388  0.050173346  0.052598091            2 
  224000   0.92064103   -4.4586465    134.63139  0.050086083  0.052494616            3 
  225000     0.903162   -4.4959189    135.19932  0.050073824    0.0523942            2 
  226000   0.91268967   -4.4851571    135.68017  0.050029561  0.052295361            4 
  227000   0.91122567   -4.4794722    136.26514  0.050023912  0.052198965            2 
  228000    0.9182743   -4.4864912     136.7338  0.049975805  0.052103638            3 
  229000   0.91082106   -4.5013865    137.03538  0.049867315   0.05200504            9 
  230000   0.89291392   -4.4807227    137.43805  0.049796394  0.051907836            4 
  231000   0.89139454   -4.4960414    137.52484  0.049612135  0.051811619            3 
  232000   0.91213034   -4.4840798    138.42718  0.049722407  0.051715672            2 
  233000   0.88053571   -4.5134087    138.38851  0.049495176  0.051620875            4 
  234000   0.89525173   -4.4848124    139.52433  0.049688153  0.051525903            3 
  235000   0.90751748   -4.4583028    140.18588  0.049711306  0.051432753            3 
  236000   0.89803518   -4.4977944    139.56458  0.049281279  0.051339742            4 
  237000   0.88310457   -4.5065189      139.769  0.049145218  0.051244875            7 
  238000    0.8970653   -4.5378155     140.7555  0.049284139  0.051148565            8 
  239000   0.88315104   -4.5276739    140.10986   0.04885281  0.051052238            5 
  240000   0.88817102   -4.5096399     140.3089  0.048718368  0.050953135           12 
  241000    0.8912601   -4.5143384    141.86284  0.049053541  0.050855685            4 
  242000   0.86780577   -4.5152593    142.36492  0.049023731  0.050760314            3 
  243000   0.87926521   -4.5156166     142.7966  0.048970027  0.050667224            5 
  244000   0.88706655    -4.522538     142.6293  0.048712191  0.050575182            2 
  245000   0.87626634   -4.5194789    143.83124  0.048922189  0.050481581            3 
  246000   0.88399896   -4.5363227    143.08325  0.048469935  0.050389212            5 
  247000   0.87176569   -4.5260076    143.56989  0.048437884  0.050293791            8 
  248000   0.86092708   -4.5302918    143.81716  0.048325659  0.050199576            5 
  249000   0.86949011   -4.5546325     144.7001  0.048427076  0.050105458            5 
  250000   0.86779885   -4.5299802     144.5529    0.0481843  0.050011729            7 
  251000   0.86729204   -4.5397414    144.39146  0.047938733  0.049914141            3 
  252000   0.90962411   -4.5497474    144.56504  0.047805898  0.049815773            3 
  253000   0.87713889    -4.545166    144.96604  0.047749025  0.049717241            7 
  254000   0.85988888   -4.5512442    146.00495  0.047901887  0.049619171            2 
  255000   0.83262921   -4.5382266    146.02074  0.047719195  0.049522323            5 
  256000   0.86625786   -4.5580251    146.26141  0.047611135  0.049426682            6 
  257000   0.85858558   -4.5624771    146.29546  0.047436918  0.049329687            5 
  258000   0.85435546   -4.5785304    146.95167  0.047465009  0.049229338            4 
  259000   0.86457999    -4.577834    146.85252  0.047249845  0.049130508            3 
  260000   0.84198149   -4.5635433    147.69995  0.047339727  0.049032762           12 
  261000   0.86186467   -4.5679455    148.16055  0.047305411  0.048936708            7 
  262000   0.82937461   -4.5724456    149.05868  0.047410523  0.048841268            8 
  263000   0.83985665   -4.5800941    148.84716  0.047163233   0.04874621            4 
  264000   0.83469358   -4.5485255    149.15013  0.047080219  0.048650629            6 
  265000   0.83778945   -4.5979655    148.86439  0.046812701  0.048553877            6 
  266000   0.82879238   -4.5809889    149.35809  0.046791381   0.04845754            5 
  267000   0.83107132   -4.6090661    150.02774  0.046825137   0.04836161            7 
  268000   0.85543461   -4.5847017     150.2693  0.046725529  0.048265873            6 
  269000    0.8619835   -4.6118096    150.49633  0.046622159  0.048170689            4 
  270000   0.86442113   -4.6042313    150.64799  0.046496293  0.048076135            4 
  271000   0.83614331   -4.5974572    151.27732   0.04651824  0.047981872            5 
  272000     0.822944   -4.6218435    151.77086  0.046498426  0.047887083           17 
  273000    0.8529585   -4.6348135    152.08021  0.046422532  0.047796045            3 
  274000   0.83899273   -4.6340606    152.06148  0.046247408  0.047703842            3 
  275000   0.81780789   -4.6197454    152.31575  0.046156288  0.047610642            7 
  276000   0.81276839   -4.6293791    152.44895  0.046029272  0.047517627            2 
  277000   0.82853021   -4.6139262    153.15501  0.046075514   0.04742469            3 
  278000   0.82663936    -4.628158    153.44306  0.045996122  0.047334091           10 
  279000   0.81068217   -4.6206975    153.86029  0.045955882   0.04724298            3 
  280000   0.82161851   -4.6053608    154.14415  0.045876235  0.047153087            5 
  281000   0.80613429   -4.6357712    154.79896  0.045907164  0.047062976            4 
  282000   0.82437381   -4.6475386    154.88371  0.045769418  0.046972894            4 
  283000   0.81231241   -4.6677712    154.77973   0.04557707  0.046882348            2 
  284000   0.80640689   -4.6487321    154.93087  0.045460935  0.046791669            6 
  285000   0.81465881   -4.6805267    155.10504  0.045352352  0.046700951            5 
  286000   0.80371344   -4.6618035    155.85129  0.045411215  0.046610926            4 
  287000   0.81275399   -4.6699299    156.38913  0.045409155  0.046523402            6 
  288000   0.80740349    -4.645631    156.94423  0.045412104  0.046436449            3 
  289000   0.80716247   -4.6807514    156.66439  0.045174276  0.046348014            5 
  290000   0.80732512   -4.6567241    157.07548  0.045136632  0.046259531            3 
  291000   0.80188963   -4.6516522    157.46703  0.045093652   0.04616948            4 
  292000   0.82539669   -4.7069276    157.19227  0.044860808  0.046080721            6 
  293000   0.81589511   -4.6940043    157.94766  0.044922542  0.045991967            3 
  294000   0.79909113    -4.676631    157.72604  0.044706928  0.045902894            3 
  295000   0.79532302   -4.6807024    158.51459  0.044778131  0.045813323            4 
  296000   0.81623039   -4.6840964    158.21176  0.044541599  0.045723454            5 
  297000   0.79712453   -4.7065574    158.70529  0.044530103  0.045633695            3 
  298000   0.80164146   -4.7062718    158.34424   0.04427971  0.045543198            4 
  299000   0.79863464   -4.7123801    159.12482  0.044349171  0.045454087            6 
  300000   0.78579557   -4.6712493    159.23731  0.044232587  0.045362821            5 
  301000   0.79545296    -4.741317    158.59364  0.043907431  0.045270629            6 
  302000   0.79366092   -4.6976993    159.80108   0.04409522   0.04517836            3 
  303000   0.79554056   -4.7074078     159.9298  0.043985093  0.045087738            4 
  304000   0.77785402   -4.7176373    160.02042  0.043865246  0.044996983            3 
  305000   0.79367805    -4.702036    159.96315  0.043705778  0.044905513            6 
  306000   0.77405629   -4.7249968    160.04801  0.043586058  0.044813731            5 
  307000   0.78176506   -4.7079287    160.51903  0.043571941  0.044722381            3 
  308000    0.7692245   -4.7113495    161.09281  0.043585716  0.044631211            6 
  309000   0.77432495   -4.7335469    160.89621  0.043391643  0.044538285           19 
  310000   0.78203013   -4.7334334    160.89148  0.043250398  0.044446815            3 
  311000    0.7570546    -4.732315    161.73084  0.043336238  0.044355486            6 
  312000   0.78063886   -4.7463498    161.32536  0.043089039  0.044264164           19 
  313000   0.79607671   -4.7627926    161.85481  0.043092335   0.04417281            5 
  314000   0.76354745   -4.7226598    162.48805  0.043123154  0.044082359           10 
  315000      0.74942   -4.7568996    162.44966    0.0429761  0.043993904            8 
  316000   0.76734816   -4.7468635    162.77485  0.042925857  0.043905278            4 
  317000   0.75069324   -4.7543901    163.07607  0.042869629  0.043816111           14 
  318000   0.76609753   -4.7336158     162.8453  0.042674344  0.043726767           18 
  319000   0.76737869   -4.7598641       163.49  0.042708987  0.043636721            8 
  320000   0.77745996   -4.7601826      163.561  0.042594011  0.043547552            4 
  321000   0.74787005     -4.76896    163.91045  0.042552037  0.043458465            5 
  322000   0.75491702   -4.7878408    163.24914  0.042248741  0.043368945            6 
  323000   0.77403299   -4.7426722    164.03037  0.042319497   0.04327947            3 
  324000   0.75278595   -4.7665997    164.55143  0.042322898  0.043188972            5 
  325000   0.76692273    -4.786062    163.61247  0.041951914  0.043098627           10 
  326000   0.75077324   -4.7980099    164.39119  0.042022287  0.043007321           11 
  327000   0.77422421   -4.7995273    164.66049  0.041962409  0.042917067            6 
  328000    0.7427716   -4.7824314      165.205  0.041972814  0.042828657            6 
  329000   0.74205113   -4.7856905    164.84802  0.041754818  0.042739647            4 
  330000   0.75271404   -4.7872782     165.0445  0.041677903  0.042650391            7 
  331000    0.7512408   -4.8027064    165.16893  0.041583315  0.042561019            4 
  332000   0.74306361   -4.8124485    165.84173  0.041626941  0.042472499            7 
  333000   0.72962192   -4.8014006    166.04601  0.041553055  0.042385158           15 
  334000   0.72621463   -4.7928989    166.33005  0.041499514  0.042295813            4 
  335000   0.73467199   -4.8018396    166.64889  0.041454948  0.042207135            6 
  336000   0.73533104   -4.8177454     165.9949   0.04116937  0.042118051            6 
  337000   0.71362858   -4.8070601    166.35852  0.041137121  0.042028922           10 
  338000   0.73396591   -4.8308302    166.58038  0.041070113  0.041939281            8 
  339000   0.71562015   -4.8296266      166.585  0.040950098  0.041849395           11 
  340000    0.7083997   -4.8199037    166.58991  0.040830859  0.041758484           10 
  341000   0.72362709   -4.8358228     166.3607  0.040655107  0.041667835            9 
  342000   0.70913715   -4.8342091    166.78379  0.040639326  0.041577016            4 
  343000   0.71191916   -4.8500818    166.93575  0.040557763  0.041485611            7 
  344000   0.72813067   -4.8573077    166.84269  0.040417318   0.04139456            8 
  345000   0.71651589      -4.8246    167.25732  0.040400319  0.041303122            8 
  346000   0.71375674   -4.8511104    167.30141  0.040294173  0.041211993           17 
  347000   0.70134338   -4.8453007    167.55191  0.040238211  0.041120467            9 
  348000   0.70365588   -4.8746348     167.0806  0.040009721  0.041028248           14 
  349000   0.70532351   -4.8722377     167.2625  0.039938515  0.040935736            6 
  350000   0.70939015   -4.8747726    167.22869  0.039816355  0.040842999           13 
  351000   0.69623586    -4.861934    167.44429  0.039754104  0.040749856           16 
  352000   0.71137858   -4.8664163    167.69735  0.039701077  0.040657207           11 
  353000   0.69259059   -4.8643425     167.9382  0.039645469  0.040564453            8 
  354000   0.70588855   -4.8877588     167.8091  0.039503085  0.040471858            4 
  355000   0.70255333   -4.8808176    168.17118  0.039476803   0.04037927            5 
  356000   0.69989495   -4.8693517    168.66384  0.039481236  0.040287891           11 
  357000   0.70097319   -4.8773673    168.58769   0.03935287  0.040196112            7 
  358000   0.70137749   -4.9083254    168.00236  0.039106694  0.040103848           12 
  359000   0.69644262   -4.9207609     168.2157  0.039047283   0.04001104            6 
  360000   0.70290309   -4.9054726    168.56341  0.039019309  0.039918871            8 
  361000   0.68107135    -4.898169    168.81629  0.038969596  0.039826732            5 
  362000    0.6956902   -4.9110062     168.7055  0.038836442  0.039734843            4 
  363000   0.68426584   -4.8929822    169.20112  0.038843232  0.039643109            7 
  364000   0.68889367    -4.855683    169.32771  0.038765501  0.039552173           11 
  365000   0.70228668   -4.9258448    169.42265  0.038680971  0.039460892           10 
  366000   0.68568944   -4.9491439    169.72117  0.038643254  0.039369948            5 
  367000   0.68582645   -4.9250227    169.30771  0.038444076  0.039278081            9 
  368000    0.6814485   -4.9414012    169.92586  0.038479587  0.039186753            6 
  369000    0.6682567   -4.9442093    170.05167   0.03840372  0.039095605            7 
  370000   0.67817228   -4.9159058     169.9377  0.038274258  0.039004916           11 
  371000   0.68060453   -4.9483673    169.89742  0.038162044  0.038914821           10 
  372000   0.66089443   -4.9243896    170.18907  0.038124792  0.038824438            4 
  373000   0.67595534   -4.9312188      170.235  0.038032841  0.038734207            5 
  374000   0.67437533   -4.9376435    170.88641  0.038076294  0.038644642            8 
  375000   0.66495713   -4.9541658    170.38936  0.037864302  0.038554489            7 
  376000   0.65747278   -4.9546637    170.40855  0.037767852  0.038464529           11 
  377000   0.66209252   -4.9589597    170.82842  0.037760482  0.038374897            6 
  378000   0.66003967    -4.951402    171.04398  0.037708109  0.038285935           12 
  379000   0.65300643   -4.9477258    170.75995  0.037546162  0.038196381            7 
  380000   0.66679892    -4.964137    171.40454  0.037588714  0.038106579            7 
  381000   0.65740674   -4.9704215     171.1393  0.037432042  0.038017088            5 
  382000   0.66077734   -4.9831045    171.35087  0.037380207  0.037928307            6 
  383000   0.64563259   -4.9660762    171.22488  0.037255196   0.03783946            8 
  384000   0.65748737   -4.9887824    171.98138  0.037322349    0.0377511            6 
  385000   0.65770182    -4.971344    171.85003  0.037196977  0.037664031            8 
  386000   0.64601329   -4.9911311     171.4482  0.037013861  0.037576744            8 
  387000   0.65407154   -5.0023963    171.59035  0.036948827  0.037488771           11 
  388000   0.64412562   -4.9978863    172.32151  0.037010633  0.037401318            7 
  389000   0.64708692   -4.9682511    172.27914  0.036906414  0.037314985            5 
  390000   0.63258235   -4.9841986    172.25446  0.036806509  0.037228182            9 
  391000   0.64298306    -4.994699    172.31494  0.036725265  0.037141504            9 
  392000   0.63705572   -5.0005486    172.47549  0.036665708  0.037053838            6 
  393000   0.62566775   -4.9924674    172.38404   0.03655302  0.036967215            9 
  394000    0.6474947   -4.9923518    172.86196  0.036561328   0.03688072           16 
  395000   0.63605424   -5.0022208     172.4916  0.036390633  0.036794047            8 
  396000   0.63311602    -5.000524    172.25106  0.036248118  0.036706867            8 
  397000   0.61571931   -5.0146787    172.42969  0.036194309  0.036619721            7 
  398000   0.64243318   -5.0078057    172.92868  0.036207848  0.036533353           13 
  399000   0.61955807   -5.0233435    172.82298  0.036095025  0.036446945           13 
  400000   0.64774409   -5.0097459    172.91978  0.036024954  0.036359845           14 
  401000   0.60355398   -5.0139442    172.83366   0.03591722  0.036272621           11 
  402000   0.62936444   -5.0230181    172.81999  0.035825039  0.036184899            6 
  403000   0.62480296   -5.0338819    171.88898  0.035543626  0.036096773           23 
  404000   0.61358671   -5.0570867    172.81551  0.035646764  0.036009141           19 
  405000   0.62866028   -5.0382133    172.40254  0.035473773  0.035921197           13 
  406000   0.61302908   -5.0326921    172.87122  0.035482598  0.035833476           10 
  407000   0.62180627   -5.0377349    172.62496  0.035344996  0.035746399            6 
  408000   0.62768972   -5.0477619    173.17556  0.035370825  0.035659723           15 
  409000   0.61139116   -5.0388562    173.29762  0.035309213  0.035573246            9 
  410000   0.60028354   -5.0452205    173.17983  0.035199152  0.035486414           11 
  411000    0.6151434   -5.0614894    172.57917  0.034991721  0.035399427            6 
  412000   0.61793188   -5.0468939    172.91521   0.03497476  0.035312826           14 
  413000   0.61232071   -5.1062951    173.17598  0.034942692   0.03522672           15 
  414000   0.61575435   -5.0763712    173.40282   0.03490395  0.035140942            7 
  415000    0.6087309   -5.0570837    173.38648  0.034816562  0.035055588            8 
  416000   0.60529186   -5.0808566    173.13625  0.034682743  0.034969752           14 
  417000   0.60915403   -5.0881193    173.39434  0.034651148  0.034884235           29 
  418000      0.60979   -5.0944996    173.60402  0.034610051  0.034798961           11 
  419000   0.60013209   -5.0957813    173.57098  0.034520878  0.034713815           15 
  420000   0.59010024    -5.095532    173.54382  0.034433298  0.034629167            8 
  421000   0.61550408   -5.0889725    173.84764  0.034411647  0.034544491           10 
  422000    0.5960329   -5.0974063    173.79753  0.034320208  0.034460089            8 
  423000   0.58828686   -5.1128818     173.4489  0.034170391  0.034375494            6 
  424000   0.59686608   -5.1206787    173.98284   0.03419474    0.0342909           23 
  425000   0.58883578   -5.1121887    174.03636  0.034124776  0.034206649           17 
  426000   0.58797038   -5.1201777    173.89873  0.034017749  0.034122657           12 
  427000     0.585126   -5.1193487    174.04303  0.033966244  0.034039072           12 
  428000   0.57040159      -5.0901    173.95788  0.033870303  0.033956019           10 
  429000   0.59224518   -5.1054456    174.39977   0.03387719  0.033872533            8 
  430000    0.5693561   -5.1217651    173.94932  0.033711109  0.033789154           21 
  431000   0.57558015   -5.1248442    174.76434  0.033790476  0.033706417            7 
  432000   0.58492152   -5.1393621    174.45855  0.033653271   0.03362368            9 
  433000   0.58307879   -5.1175201    174.51027  0.033585502   0.03354137           13 
  434000   0.59611378   -5.1326231     174.8636   0.03357596  0.033459212           10 
  435000   0.56662914   -5.1485016    174.53584  0.033435985  0.033377249           22 
  436000   0.57357772   -5.1453271    174.35637  0.033324995  0.033295096            7 
  437000   0.56629637   -5.1245019    174.30878   0.03323966  0.033213436           12 
  438000   0.55883381   -5.1454861    174.73397  0.033244666  0.033131838           12 
  439000   0.57109549   -5.1626733    174.29833  0.033086244  0.033049771           14 
  440000   0.56841724   -5.1748692    174.32736  0.033016546  0.032967819           17 
  441000   0.56294922   -5.1750839    174.29201  0.032934998  0.032886065           14 
  442000   0.56286889   -5.1741075    174.71808  0.032940815  0.032804038           26 
  443000   0.56902211   -5.1562247    174.28489  0.032784968   0.03272216           10 
  444000   0.55948697    -5.151283    174.48321  0.032748351  0.032640666            8 
  445000   0.55965794   -5.1698737    174.10355   0.03260366  0.032559089           12 
  446000   0.54506332   -5.1685561    175.11794  0.032720094  0.032477351           18 
  447000   0.54187366   -5.1789478    174.71323  0.032571444  0.032396093           10 
  448000   0.55224498   -5.2003113    174.34877  0.032430946  0.032314224           14 
  449000   0.54968424   -5.1850061    173.75934   0.03224932   0.03223248           21 
  450000   0.54736179   -5.2002543    174.04509  0.032230571  0.032150914            8 
  451000   0.54453413   -5.2210835    174.10501  0.032170179  0.032069102           17 
  452000   0.55825681   -5.2116288    173.97758  0.032075512  0.031987571           24 
  453000   0.54839689   -5.1915141    174.13707  0.032034045  0.031906252            9 
  454000   0.54225524   -5.2258485    174.01086   0.03194032  0.031824864           10 
  455000   0.54536014   -5.2247705    174.14836  0.031895305  0.031743755           11 
  456000   0.55236052   -5.2180828    174.58922  0.031905925  0.031662938           27 
  457000   0.54418842    -5.222849    174.26544  0.031777068  0.031582041           26 
  458000   0.53774662    -5.211796    174.58534  0.031765891  0.031501387           12 
  459000   0.52827297   -5.2215321    174.08328  0.031605533  0.031421123           10 
  460000    0.5328686   -5.2507798    174.05925  0.031532473  0.031340548           60 
  461000   0.54012995   -5.2662057    174.05176  0.031462719  0.031259816           12 
  462000    0.5187529   -5.2271957    173.84473  0.031357275  0.031179177           10 
  463000   0.53846697    -5.246906    173.81557  0.031284299  0.031098424           17 
  464000   0.52370679    -5.250646    173.85732  0.031224375  0.031017889           33 
  465000   0.53661551   -5.2469907    173.93178   0.03117057  0.030937567           24 
  466000   0.52571921   -5.2515831    174.27546   0.03116514  0.030857754           23 
  467000    0.5155146   -5.2628298    174.02086  0.031052973  0.030777963           42 
  468000   0.52273094   -5.2500431    174.02053  0.030986561   0.03069832           29 
  469000   0.51244037   -5.2640516    174.09207  0.030933204  0.030618681           37 
  470000   0.52097361   -5.2568541    173.92642  0.030838018  0.030539022           19 
  471000   0.51524802   -5.2835415    174.03157  0.030791147  0.030459791           54 
  472000   0.51104065   -5.2786245    173.93683  0.030709187  0.030380596           19 
  473000   0.50980091   -5.2952565    173.91856  0.030641043  0.030301555           87 
  474000   0.50530141   -5.2930487    173.89139  0.030571622  0.030222579           55 
  475000   0.51251569   -5.2742722    174.06692  0.030538056  0.030143935           44 
  476000   0.50618999   -5.3085537    173.65555  0.030401883  0.030065282           85 
  477000   0.49362169   -5.2993792    173.69182  0.030344482  0.029986419           37 
  478000    0.4982148   -5.3207331    173.63145  0.030270477  0.029907564           22 
  479000     0.511097   -5.3090099     173.9335   0.03025983  0.029828852           24 
  480000   0.50231095   -5.3217242    173.33968  0.030093694  0.029750697           14 
  481000   0.50178117   -5.2947621     173.5228  0.030062855  0.029672642           11 
  482000   0.50210696   -5.3142298    173.60829  0.030015264  0.029594868           17 
  483000   0.48861682   -5.3114522    173.65646  0.029961432  0.029517371           15 
  484000   0.48006897   -5.3128872     173.5491  0.029881043  0.029439802           16 
  485000   0.48559445   -5.3159515    173.88687  0.029877469  0.029362293           33 
  486000   0.49823281   -5.3113662    173.38762  0.029730387  0.029284973           22 
  487000   0.49353708   -5.3378851    173.52455   0.02969277  0.029207802           21 
  488000    0.4857069   -5.3390346    173.02369  0.029546394  0.029130614           28 
  489000   0.49426086   -5.3371487    173.57127  0.029579289  0.029053612           29 
  490000   0.48587673   -5.3459834    173.70641  0.029541907  0.028976911           37 
  491000   0.48469132   -5.3375838      173.324  0.029416837  0.028900408           30 
  492000   0.47344106   -5.3515494    173.47291  0.029382268  0.028824065           57 
  493000   0.47873889   -5.3496784    173.67173  0.029356276  0.028747714           39 
  494000   0.48064535   -5.3744831    173.06293  0.029194151  0.028671587           34 
  495000   0.47942307   -5.3607117    173.31256  0.029177199  0.028595581           28 
  496000   0.47903981   -5.3573006    173.21661  0.029102253  0.028519695           35 
  497000   0.48037986   -5.3605545    173.27689  0.029053804  0.028444163           22 
  498000    0.4697856   -5.3557775    173.09963  0.028965801   0.02836872           53 
  499000   0.46938755   -5.3590536    173.23709   0.02893071  0.028293388           28 
  500000   0.48009273   -5.3629746    173.09138  0.028848564  0.028218224           64 
  501000   0.46865359   -5.3718215    173.18864  0.028807159  0.028143097           50 
  502000    0.4679672   -5.3680795    173.22152  0.028755233  0.028068019           62 
  503000   0.46882267   -5.3796504    173.23359  0.028700065  0.027993059          100 
  504000   0.46414037   -5.3866178    172.98977  0.028602806  0.027918038           68 
  505000   0.45614803   -5.3901678    172.73698  0.028504452  0.027843206          123 
  506000   0.45669834   -5.4029882    172.99778   0.02849107  0.027768722          103 
  507000   0.45386938   -5.3913875    173.03136  0.028440394  0.027694254           98 
  508000   0.45435293   -5.4026968    173.04966  0.028387412  0.027620059           88 
  509000   0.46302833   -5.4046857    172.74623  0.028281963  0.027545959          101 
  510000    0.4609416   -5.4247878    172.98082   0.02826484  0.027471986          164 
  511000   0.45114526   -5.4245727    172.70802  0.028165039  0.027398015           86 
  512000   0.44535995   -5.4172289    172.51339  0.028078351   0.02732414           84 
Loop time of 1261.85 on 48 procs for 500000 steps with 4000 atoms

Performance: 68470.744 tau/day, 396.243 timesteps/s
99.4% CPU use with 48 MPI tasks x no OpenMP threads

MPI task timing breakdown:
Section |  min time  |  avg time  |  max time  |%varavg| %total
---------------------------------------------------------------
Pair    | 86.007     | 91.71      | 96.078     |  25.5 |  7.27
Neigh   | 8.4801     | 8.8354     | 9.314      |   7.1 |  0.70
Comm    | 81.42      | 86.949     | 93.122     |  29.8 |  6.89
Output  | 0.87246    | 0.87316    | 0.8959     |   0.4 |  0.07
Modify  | 1057.8     | 1061.5     | 1064.9     |   6.0 | 84.12
Other   |            | 11.96      |            |       |  0.95

Nlocal:        83.3333 ave          89 max          77 min
Histogram: 1 4 6 3 4 12 6 5 5 2
Nghost:        2310.35 ave        2330 max        2291 min
Histogram: 1 7 8 5 2 3 10 7 3 2
Neighs:        15702.5 ave       17268 max       13773 min
Histogram: 1 2 4 7 4 6 9 9 5 1
FullNghs:      31404.6 ave       33535 max       28675 min
Histogram: 1 2 4 6 5 9 7 6 5 3

Total # of neighbors = 1507422
Ave neighs/atom = 376.85550
Neighbor list builds = 26948
Dangerous builds = 0

#clear
#
#next RN
#
#jump SELF
Total wall time: 0:21:05
