
units lj                  # Use reduced LJ style units
atom_style atomic         # Uncharged point particles
atom_modify map hash      # Needed for indexing of clusters etc
                          # Used to be able to find where atoms are in relation to each other.

lattice fcc 1.0 spacing 1 1 1
Lattice spacing in x,y,z = 1.5874011 1.5874011 1.5874011
region box block 0 10 0 10 0 10 units lattice
create_box 2 box
Created orthogonal box = (0.0000000 0.0000000 0.0000000) to (15.874011 15.874011 15.874011)
  3 by 4 by 4 MPI processor grid
create_atoms 1 box
Created 4000 atoms
  using lattice units in orthogonal box = (0.0000000 0.0000000 0.0000000) to (15.874011 15.874011 15.874011)
  create_atoms CPU = 0.016 seconds
set type 1 type/fraction 2 0.34 78393
Setting atom values ...
  1376 settings made for type/fraction
mass 1 1.0
mass 2 1.0
pair_style lj/cut  3.5
pair_modify tail  yes
pair_coeff 1  1  1.0  1.0   # Intearaction between 1 and 1 set with epsilon = 1 and sigma = 1
pair_coeff 1  2  1.5  0.8
pair_coeff 2  2  0.5  0.88

write_data data.0
System init for write_data ...
Neighbor list info ...
  update every 1 steps, delay 10 steps, check yes
  max neighbors/atom: 2000, page size: 100000
  master list distance cutoff = 3.8
  ghost atom cutoff = 3.8
  binsize = 1.9, bins = 9 9 9
  1 neighbor lists, perpetual/occasional/extra = 1 0 0
  (1) pair lj/cut, perpetual
      attributes: half, newton on
      pair build: half/bin/atomonly/newton
      stencil: half/bin/3d
      bin: standard
WARNING: Not all mixed pair coeffs generated from mixing. Use write_data with 'pair ij' option to store all pair coeffs. (../write_data.cpp:312)


#############################
#   M E L T   S Y S T E M   #
#############################

velocity all create 2.4 5833274 mom yes dist gaussian # Assign velocities
                                                    # Temperature 2.4, random number seed, zero linear momentum
                                                                                # Gaussian distribution

timestep 0.002   # simulation timestep
thermo 1000       # output thermodynamic data every 1000 steps bf 100

# Define a fix  in this case with index 1 applied to all
# particles in the simulation. This fix is for simulations
# in the anisotropic NPT ensemble. Note that we use the MTK
# correction.
fix 1 all npt temp 2.4 2.4 0.1 iso 5.68 5.68 0.5 mtk yes tchain 5 pchain 5 # Use NPT ensemble
                                                                         # Set temperature and pressure and damping
                                                                         # Numbers of thermostats in chain and in barostat
run 10000          # run for 10000 steps
Per MPI rank memory allocation (min/avg/max) = 3.642 | 3.644 | 3.648 Mbytes
Step Temp E_pair E_mol TotEng Press Volume 
       0          2.4   -6.2108987            0   -2.6117987   -4.0679274         4000 
    1000    2.3728223   -5.0360472            0   -1.4777035    5.5787184    4037.2412 
    2000     2.462179   -4.9922928            0   -1.2999476    5.8365433    4045.9339 
    3000    2.3963378   -4.9577699            0   -1.3641618    5.7485841    4074.4929 
    4000    2.4527872   -5.0094443            0   -1.3311832    5.5339931    4073.2847 
    5000    2.3916263   -5.0352829            0   -1.4487403       5.6591    4035.4898 
    6000    2.4421185   -5.0232696            0   -1.3610076    5.7410857    4047.0134 
    7000     2.463212   -4.9958325            0   -1.3019382    5.6134887    4071.4066 
    8000    2.4131883   -4.9784716            0   -1.3595941    6.0061892    4042.8351 
    9000    2.3543165   -5.0107342            0   -1.4801422    6.0297746    4012.5891 
   10000     2.415061   -5.0468196            0   -1.4251337    5.6223321    4031.9288 
Loop time of 2.42361 on 48 procs for 10000 steps with 4000 atoms

Performance: 712987.143 tau/day, 4126.083 timesteps/s
99.6% CPU use with 48 MPI tasks x no OpenMP threads

MPI task timing breakdown:
Section |  min time  |  avg time  |  max time  |%varavg| %total
---------------------------------------------------------------
Pair    | 1.075      | 1.1354     | 1.2316     |   2.9 | 46.85
Neigh   | 0.20347    | 0.21369    | 0.22578    |   0.9 |  8.82
Comm    | 0.73325    | 0.82642    | 0.88923    |   3.9 | 34.10
Output  | 0.00024281 | 0.00024964 | 0.00031613 |   0.0 |  0.01
Modify  | 0.21278    | 0.23276    | 0.25539    |   2.6 |  9.60
Other   |            | 0.01507    |            |       |  0.62

Nlocal:        83.3333 ave          95 max          74 min
Histogram: 1 6 3 13 7 9 1 5 1 2
Nghost:        1633.23 ave        1681 max        1606 min
Histogram: 5 6 11 6 8 4 6 1 0 1
Neighs:        9467.79 ave       11235 max        8240 min
Histogram: 2 4 7 16 6 4 3 4 1 1

Total # of neighbors = 454454
Ave neighs/atom = 113.61350
Neighbor list builds = 907
Dangerous builds = 219

# Equilibrate just above the melting temperature to avoid step fn in T

fix 1 all npt temp 1.25 1.25 0.1 iso 5.68 5.68 0.5 mtk yes tchain 5 pchain 5
run 2000
Per MPI rank memory allocation (min/avg/max) = 3.643 | 3.645 | 3.649 Mbytes
Step Temp E_pair E_mol TotEng Press Volume 
   10000     2.415061   -5.0468196            0   -1.4251337    5.6223321    4031.9288 
   11000     1.252364   -6.9242538            0   -5.0461775     5.473952    3251.2544 
   12000    1.2747371   -6.9652236            0    -5.053596    5.7244176    3231.2327 
Loop time of 0.622517 on 48 procs for 2000 steps with 4000 atoms

Performance: 555165.123 tau/day, 3212.761 timesteps/s
99.5% CPU use with 48 MPI tasks x no OpenMP threads

MPI task timing breakdown:
Section |  min time  |  avg time  |  max time  |%varavg| %total
---------------------------------------------------------------
Pair    | 0.25405    | 0.28087    | 0.30841    |   2.1 | 45.12
Neigh   | 0.037203   | 0.040477   | 0.044518   |   0.6 |  6.50
Comm    | 0.21998    | 0.24614    | 0.27575    |   2.6 | 39.54
Output  | 5.2413e-05 | 5.3756e-05 | 7.0881e-05 |   0.0 |  0.01
Modify  | 0.043243   | 0.050269   | 0.055123   |   1.7 |  8.08
Other   |            | 0.004708   |            |       |  0.76

Nlocal:        83.3333 ave          92 max          75 min
Histogram: 2 0 6 4 15 9 6 3 2 1
Nghost:        1892.98 ave        1912 max        1878 min
Histogram: 3 7 6 4 10 7 4 2 1 4
Neighs:        11815.4 ave       13482 max        9901 min
Histogram: 1 1 4 4 12 9 6 6 3 2

Total # of neighbors = 567139
Ave neighs/atom = 141.78475
Neighbor list builds = 142
Dangerous builds = 5

#############################
# L I N E A R  Q U E N C H  #
#############################

# Define solid atoms. This closely follows ten Wolde  Ruiz-Montero and Frenkel  Faraday Discuss  1996  104  93-110
# Compute components of the per-atom q6 vector
compute q6 all orientorder/atom degrees 1 6 components 6 nnn NULL cutoff 1.3 # compute the Q6 parameter.
                                                                             # Use all neighbours within 1.3 unit cell.

# get number of connections
compute coord_number all coord/atom orientorder q6 0.5

# An atom is solid if it has 8 or more connections (of a possible 14)
variable is_solid atom c_coord_number>=8
group solid dynamic all var is_solid    # Must be dynamic to update
dynamic group solid defined

# do clustering
compute cluster solid cluster/atom 1.3 # Create a cluster where all atoms within are solid and max 1.3 units from another member

# define chunks one chunk per cluster
compute clus_chunks solid chunk/atom c_cluster nchunk every compress yes  # Says which atoms are in which chunk

# count the size of each chunk
compute size_chunks solid property/chunk clus_chunks count


# Find the maximum entry in the vector of chunk sizes
variable max_n equal max(c_size_chunks)


# Thermo style which includes this variable
# thermo_style custom step temp pe vol v_max_n

thermo ${N}  # Print the thermo information every 100 steps
thermo 1000  

# Reset the npt fix at a lower temperature (below freezing)
fix 1  all npt temp  ${temp} ${temp}  0.1  iso  5.68  5.68  0.5  mtk yes tchain  5  pchain  5
fix 1  all npt temp  0.45 ${temp}  0.1  iso  5.68  5.68  0.5  mtk yes tchain  5  pchain  5
fix 1  all npt temp  0.45 0.45  0.1  iso  5.68  5.68  0.5  mtk yes tchain  5  pchain  5

dump dmp2 all dcd ${N} traj.dcd
dump dmp2 all dcd 1000 traj.dcd


compute msd all msd com yes
variable twopoint equal c_msd[4]/6/(step*dt+1.0e-6)
fix 9 all vector 10 c_msd[4]
variable fit equal slope(f_9)/6/(10*dt)
thermo_style custom step temp pe c_msd[4] v_twopoint v_fit v_max_n

fix 1 all npt temp 1.25 ${temp} 0.1 iso 5.68 5.68 0.5 mtk yes tchain 5 pchain 5
fix 1 all npt temp 1.25 0.45 0.1 iso 5.68 5.68 0.5 mtk yes tchain 5 pchain 5
run 5000000 # 5000000  # Run for this many steps
Neighbor list info ...
  update every 1 steps, delay 10 steps, check yes
  max neighbors/atom: 2000, page size: 100000
  master list distance cutoff = 3.8
  ghost atom cutoff = 3.8
  binsize = 1.9, bins = 8 8 8
  4 neighbor lists, perpetual/occasional/extra = 1 3 0
  (1) pair lj/cut, perpetual
      attributes: half, newton on
      pair build: half/bin/atomonly/newton
      stencil: half/bin/3d
      bin: standard
  (2) compute orientorder/atom, occasional
      attributes: full, newton on
      pair build: full/bin/atomonly
      stencil: full/bin/3d
      bin: standard
  (3) compute coord/atom, occasional
      attributes: full, newton on
      pair build: full/bin/atomonly
      stencil: full/bin/3d
      bin: standard
  (4) compute cluster/atom, occasional
      attributes: full, newton on
      pair build: full/bin/atomonly
      stencil: full/bin/3d
      bin: standard
Per MPI rank memory allocation (min/avg/max) = 9.816 | 9.821 | 9.827 Mbytes
Step Temp PotEng c_msd[4] v_twopoint v_fit v_max_n 
   12000    1.2747371   -6.9652236 1.9721523e-34 1.3695501e-36 8.3333333e+20       -1e+20 
   13000    1.2709132    -6.947632   0.49558827 0.0031768478  0.040168289            2 
   14000    1.2383111   -6.9448227   0.98813893 0.0058817791  0.039720109            4 
   15000    1.2593725   -6.9955472    1.4864472 0.0082580398   0.04149055            3 
   16000    1.2428943   -7.0144287    1.9277392  0.010040308  0.040293301            1 
   17000    1.2570487   -7.0240645    2.3898755  0.011715076  0.039946626            2 
   18000    1.2336144   -6.9975491    2.8708879  0.013291147  0.039384141            1 
   19000    1.2564523   -6.9919965     3.307089  0.014504776   0.03924194            3 
   20000    1.2609361   -7.0145559    3.7641323  0.015683884  0.038993438            3 
   21000    1.2531802    -6.977239    4.2812869  0.016989233  0.038990896            1 
   22000    1.2601752   -6.9866485    4.7903546  0.018145282  0.039253311            1 
   23000    1.2590431    -6.958536    5.2619206  0.019064929  0.039399006            1 
   24000    1.2569564   -6.9789745    5.7038806   0.01980514  0.039443332            2 
   25000    1.2545519    -6.952246    6.2339633  0.020779877  0.039502304            1 
   26000    1.2653652   -6.9606809    6.6706351   0.02138024  0.039550589            1 
   27000    1.2500082   -6.9640648    7.1094107  0.021942625  0.039513908            2 
   28000    1.2380563   -7.0391115    7.5931042  0.022598524  0.039455823            2 
   29000    1.2475527   -7.0178854    8.0216674  0.023050768  0.039377276            2 
   30000    1.2346617   -6.9628134    8.4330894  0.023425248  0.039232178            1 
   31000    1.2423993   -6.9849051    8.9105976  0.023953219  0.039093537            1 
   32000    1.2413735   -7.0279761    9.3664609  0.024391825  0.039045416            2 
   33000    1.2553576   -6.9876959    9.8587357  0.024895797  0.039019534            1 
   34000    1.2393999   -6.9975995    10.283075  0.025203616  0.038982534            3 
   35000    1.2480154   -7.0096831    10.764719  0.025630282  0.038914563            1 
   36000    1.2518468   -6.9979244    11.237705  0.026013206  0.038879517            1 
   37000    1.2765567   -6.9547645    11.711256  0.026376703  0.038839456            1 
   38000    1.2343856   -6.9653135    12.157254  0.026660645  0.038826558            2 
   39000    1.2382247   -6.9600997    12.768131  0.027282331  0.038841775            2 
   40000    1.2398744   -7.0005442    13.290633  0.027688817  0.038944958            2 
   41000    1.2465357   -6.9596302    13.746106   0.02793924  0.039011862            3 
   42000    1.2515141    -6.951425    14.174518  0.028124043  0.039031684            2 
   43000    1.2718771   -7.0015054     14.49336  0.028087906  0.039022412            4 
   44000    1.2625886   -6.9904739    14.889175  0.028199194  0.038960349            2 
   45000    1.2421813   -6.9777066    15.357932  0.028440615  0.038903071            1 
   46000    1.2351193   -6.9917043     15.89226  0.028790325  0.038886032            2 
   47000    1.2449979    -6.999604    16.278853  0.028863214  0.038837339            2 
   48000    1.2550109   -6.9817398    16.795591  0.029159013  0.038797289            2 
   49000    1.2628349   -6.9823509    17.216875  0.029280399  0.038780411            2 
   50000    1.2405762   -6.9711194     17.63647  0.029394117   0.03875939            1 
   51000    1.2414851   -7.0090573    18.176828  0.029700698  0.038717015            2 
   52000    1.2725252   -6.9522848    18.615144  0.029831961   0.03868559            1 
   53000    1.2415682   -6.9924624    19.146613  0.030104738  0.038666928            2 
   54000    1.2472321    -7.013311    19.573976  0.030206753  0.038677253            2 
   55000    1.2498427   -7.0170386    20.024923  0.030340792  0.038668692            1 
   56000    1.2534023   -6.9804455    20.575425  0.030618192  0.038680589            1 
   57000     1.228969   -7.0534466    20.954707  0.030635536  0.038683188            1 
   58000    1.2343653   -7.0004102    21.362405   0.03069311  0.038673372            1 
   59000    1.2742528   -7.0337581    21.853305   0.03086625  0.038653129            1 
   60000    1.2146062   -7.0236398    22.201426  0.030835314  0.038629165            3 
   61000    1.2449938   -7.0603488     22.62231  0.030904795  0.038603438            2 
   62000    1.2410143   -6.9856342    23.073172  0.031012327  0.038566355            1 
   63000     1.257479   -6.9996765    23.676051  0.031317527  0.038543476            1 
   64000    1.2486013   -7.0063357    24.070024  0.031341177  0.038530359            2 
   65000     1.241052   -7.0256184    24.593145  0.031529673  0.038530215            2 
   66000    1.2353559   -6.9818697    25.145579  0.031749468  0.038539099            1 
   67000    1.2373417   -6.9960679    25.542355  0.031769099  0.038537931            1 
   68000    1.2479725   -6.9837035    25.930973  0.031778153  0.038519176            1 
   69000    1.2485811   -7.0207175    26.479905  0.031980561  0.038518622            3 
   70000     1.250109   -7.0410329    26.945623  0.032078123   0.03852422            1 
   71000    1.2650283   -7.0147815    27.459473  0.032229428  0.038526085            1 
   72000    1.2697097   -7.0217593    28.021837  0.032432681  0.038533668            4 
   73000    1.2328664   -6.9794586    28.613902  0.032664271  0.038560339            1 
   74000    1.2536556   -6.9967116    28.808336   0.03244182  0.038569466            2 
   75000    1.2193605   -6.9979545    29.293036  0.032547817  0.038575549            2 
   76000    1.2229757   -6.9993302    29.463185  0.032306123  0.038566916            1 
   77000    1.2229478   -7.0246918    29.790086  0.032240352   0.03852384            2 
   78000    1.2220288   -6.9959405    30.315264  0.032388102   0.03848474            1 
   79000    1.2309663   -6.9838083    30.721045  0.032406165  0.038444261            2 
   80000    1.2804419   -6.9581745    31.202433  0.032502534  0.038413883            1 
   81000    1.2503573   -6.9992807    31.744867  0.032659328   0.03838029            2 
   82000    1.2295098   -7.0186285    32.211203  0.032734962  0.038355019            2 
   83000    1.2281332    -7.006705    32.592355  0.032723248  0.038335335            1 
   84000    1.2567591   -6.9924061    33.078253  0.032815727   0.03830397            2 
   85000    1.2478529   -6.9711129    33.568985  0.032910769  0.038281781            1 
   86000    1.2437453   -7.0408843    33.896355  0.032845305   0.03826295            2 
   87000    1.2484875   -7.0342416    34.385198  0.032936013  0.038234976            1 
   88000    1.2254466   -6.9753371    34.966758   0.03311246   0.03821614            1 
   89000    1.2484079   -6.9933168    35.271741  0.033025975  0.038197179            3 
   90000    1.2477238   -7.0081878    35.689867  0.033046173  0.038179681            1 
   91000    1.1978861   -7.0205546    36.293268  0.033235594  0.038164695            2 
   92000    1.2266602   -6.9962629    36.606585  0.033158139  0.038149395            1 
   93000    1.2372389   -6.9827498     37.26233  0.033389184  0.038131585            5 
   94000    1.2149015    -6.998321    37.449702   0.03320009  0.038118152            2 
   95000    1.2590731   -7.0120671    37.782515  0.033142557  0.038094192            1 
   96000    1.2062907   -7.0165507    38.471125  0.033395074  0.038082087            2 
   97000      1.23995   -6.9903718    39.005709  0.033510059  0.038070685            1 
   98000    1.2389922   -6.9509871    39.232869  0.033361283  0.038050868            1 
   99000    1.2333384   -7.0464417    39.837648  0.033533373  0.038032902            1 
  100000    1.2195837   -7.0110911    40.498845  0.033749037  0.038033572            1 
  101000    1.2205941   -6.9824457    41.061225  0.033878898  0.038044341            2 
  102000     1.229874   -7.0048338     41.59397  0.033982001  0.038055757            2 
  103000    1.2385714   -7.0324209    42.078776  0.034044317  0.038070527            1 
  104000    1.2177318   -6.9774279    42.338691  0.033925233  0.038075694            1 
  105000    1.2369551   -7.0068813    42.987603  0.034117145  0.038080253            1 
  106000    1.2553514   -7.0237813    43.430555  0.034143518  0.038091099            2 
  107000    1.2398156   -7.0201293    43.660012  0.034003124  0.038092929            4 
  108000    1.2539658   -7.0176293    44.245915  0.034140366  0.038099769            2 
  109000    1.2280071   -7.0133297    44.926679  0.034347613  0.038118108            1 
  110000    1.2061899    -6.996614    45.396712  0.034391448  0.038133586            2 
  111000    1.2340177   -7.0087747    45.597375  0.034232264  0.038143164            1 
  112000    1.2555395   -6.9998332    46.043017  0.034258197  0.038140068            3 
  113000    1.2097996   -6.9863247    46.438312  0.034246543  0.038135605       -1e+20 
  114000    1.2222845   -7.0671128    46.855967  0.034251438  0.038135344            2 
  115000    1.2446177   -7.0471906    47.573781  0.034473754  0.038138149            1 
  116000    1.2357456   -6.9848453    48.068638  0.034532067  0.038149537            2 
  117000    1.2536443   -7.0129587    48.442443  0.034503164  0.038157689            1 
  118000    1.2306876   -7.0084622    48.701341  0.034393602  0.038157695            3 
  119000     1.239961   -7.0291267    49.038625  0.034340774  0.038151527            1 
  120000    1.2206169     -7.02511    49.391485  0.034299642  0.038141072            1 
  121000    1.2432726   -7.0079748    49.856565  0.034336477  0.038127182            2 
  122000     1.218985   -7.0049104    50.376992  0.034410514  0.038117319            1 
  123000    1.2495626   -6.9870196    51.194599  0.034684688  0.038115498            1 
  124000     1.220705   -7.0138152    51.405022  0.034546386  0.038113054            1 
  125000    1.2719454   -7.0190941    51.650444  0.034433629  0.038107243            2 
  126000    1.2276767   -7.0030844    52.034932  0.034414638  0.038097721            1 
  127000    1.2213009   -7.0214127    52.634214  0.034536886   0.03808363            1 
  128000    1.2345106   -7.0068006    53.155027  0.034606138   0.03807738            1 
  129000    1.2670636   -7.0364632     53.41327  0.034504696  0.038069902            1 
  130000    1.2194584   -7.0252609    54.033542  0.034636886  0.038060008            2 
  131000    1.2301429   -7.0061632    54.509943  0.034675536   0.03805186            1 
  132000     1.225372   -7.0481619    54.768266  0.034575926  0.038042534            2 
  133000    1.1927059   -6.9885821    55.302462  0.034650665  0.038035037            1 
  134000     1.229396   -7.0280165    55.555914  0.034549697  0.038024907            3 
  135000    1.2455875    -7.061685    56.244915  0.034719083   0.03801487            3 
  136000    1.2221072   -7.0365042    56.837147  0.034826683  0.038011905            2 
  137000    1.2210655   -7.0086847    57.469146  0.034956901  0.038014094            1 
  138000    1.2218045    -7.009434    57.671402  0.034825726  0.038011428            1 
  139000    1.2176517   -7.0111555    57.799193  0.034651794  0.038005106            2 
  140000    1.2255116   -6.9934848    58.415055  0.034770866  0.037997251            1 
  141000    1.2429336   -7.0214901    59.062569  0.034906956  0.037991178            1 
  142000    1.1917764   -7.0109385    59.654949  0.035008773  0.037992931            1 
  143000    1.2105393    -7.030144    60.351308   0.03516976  0.037997346            2 
  144000    1.2192257   -7.0334292    60.819162  0.035196274  0.038005976            1 
  145000      1.24959   -7.0346327     61.22082  0.035184379  0.038012212            2 
  146000    1.2188102   -7.0035694    61.796008  0.035271694  0.038021959            1 
  147000    1.2375273   -6.9983121    62.558809  0.035464177  0.038036672            1 
  148000    1.2360118   -7.0392305    62.565955  0.035228578  0.038048888            1 
  149000    1.2327994   -7.0140551    63.276148  0.035389344  0.038059978            2 
  150000    1.2443481   -7.0365817    63.818337  0.035454632  0.038071415            1 
  151000    1.2364248   -7.0286782    64.139815  0.035397249  0.038081533            1 
  152000    1.2323525   -7.0216687    64.566314  0.035398199  0.038088065            2 
  153000     1.232289   -7.0640006    64.788933   0.03528809  0.038093903            1 
  154000    1.2328205   -7.0222196    65.593947   0.03549456  0.038101552            3 
  155000    1.2318707   -7.0167122     66.21424  0.035599054  0.038111564            1 
  156000    1.2135309   -7.0281011     66.46074  0.035502532  0.038123029            1 
  157000    1.2035696   -7.0219286    67.052585  0.035590544  0.038131352            2 
  158000    1.2266961    -7.077828    67.315808  0.035504118  0.038140258            1 
  159000    1.2031424   -7.0286616    68.005522  0.035642307  0.038146469            1 
  160000    1.2424312   -7.0325443    68.293239  0.035569395  0.038153981            1 
  161000    1.2102837   -7.0151784    68.877866  0.035651069  0.038162729            6 
  162000    1.2476831   -7.0778342    69.159338  0.035575791  0.038173863            2 
  163000    1.2408538   -7.0108213    69.950436  0.035761982  0.038181494            2 
  164000    1.2398933   -7.0275974    70.468569  0.035807199   0.03819069            1 
  165000    1.2502892   -7.0747368    70.558698  0.035635706  0.038199479            1 
  166000    1.2124456   -7.0122682    71.342953  0.035814735  0.038207822            3 
  167000    1.2435542   -7.0389757     71.65986  0.035758413  0.038215777            1 
  168000    1.2245854   -7.0287809    72.330918  0.035878431  0.038228997            1 
  169000    1.1948523   -7.0564807    72.434119  0.035717021  0.038238125            2 
  170000    1.2196264   -7.0266534    72.652015  0.035613733  0.038240308            1 
  171000    1.2090381   -7.0617559    72.584931  0.035372773  0.038239033            2 
  172000    1.2180867   -7.0783587    73.295443  0.035511358  0.038232475            1 
  173000    1.2272722   -7.0864179    73.864574  0.035580238  0.038230848            1 
  174000     1.216557    -7.035314    74.368755  0.035617219  0.038230222            1 
  175000    1.2153324   -7.0507237    74.661145  0.035552926  0.038230101            1 
  176000    1.2228701   -7.0161363    75.045535  0.035532924  0.038226288            1 
  177000    1.2284622   -7.0079574    75.901982  0.035735396  0.038221418            1 
  178000    1.2345329   -7.0498999    76.378108  0.035757541  0.038220004            1 
  179000    1.2222364   -7.0404232    76.500691  0.035614847  0.038215758       -1e+20 
  180000    1.2047161   -7.0873687    76.623274  0.035473738  0.038206771            1 
  181000     1.227032   -7.0354513    77.023432  0.035461985  0.038195717            2 
  182000     1.227959   -7.0046629    77.483622  0.035477849  0.038184192            2 
  183000    1.2480913   -7.0147012    77.985247  0.035512407  0.038174129            1 
  184000    1.2360833   -7.0527396    78.164937  0.035400787  0.038163814            1 
  185000    1.2503166   -7.0352463    78.332414  0.035284871  0.038148227            1 
  186000    1.2133034    -7.033946    78.836685  0.035321096  0.038132615            2 
  187000    1.2256826   -7.0556907    79.638745  0.035489637  0.038117752            1 
  188000    1.2270548   -7.0528504     79.96384  0.035444964  0.038104958       -1e+20 
  189000    1.2331925   -7.0609948    80.431377   0.03546357  0.038092366            1 
  190000    1.2350032   -7.0260601    80.864011  0.035466671  0.038079694            1 
  191000    1.2229967   -7.0298602     80.94236  0.035315166  0.038064351            3 
  192000    1.2533534   -7.0639301    81.199609  0.035242886  0.038049847            2 
  193000    1.2427374   -7.0360485    81.356267  0.035127922  0.038033235            1 
  194000    1.2259498   -7.0373729    82.017769     0.035231  0.038013178            2 
  195000    1.2136022   -7.0222101    82.568673  0.035285758  0.037992095            2 
  196000    1.2172689   -7.0182468    82.374174  0.035023033  0.037969244            1 
  197000    1.2354653   -6.9948509     83.10453  0.035154201  0.037943084       -1e+20 
  198000    1.2386226   -7.0820983    82.939461  0.034907181  0.037915646            1 
  199000    1.2215958   -7.0777953    83.368802  0.034911559  0.037886952            1 
  200000    1.2111659   -7.0751437    83.709927  0.034879136  0.037855021            1 
  201000    1.1823308   -7.0663758    84.029876  0.034838257  0.037825523            2 
  202000    1.2020329   -7.0471609    84.865326  0.035010448  0.037797325            1 
  203000    1.1798556   -7.0542596    85.268086  0.035003319  0.037769935            1 
  204000    1.2036667   -7.0378213    85.941041  0.035106634  0.037745171            2 
  205000    1.2006617   -7.0133693     86.38488  0.035115805  0.037721451            1 
  206000    1.2391924   -7.0288194    86.595924  0.035030714  0.037697044            4 
  207000    1.2129813   -7.0814842    86.615488  0.034869359  0.037671391            2 
  208000    1.2084506    -7.042933    87.436237  0.035030543  0.037647452            2 
  209000    1.2299088   -7.0362592    87.621951  0.034936982  0.037622437            2 
  210000    1.1992316   -7.0580384    88.191926  0.034996796  0.037600168            3 
  211000    1.2050332   -7.0319869    88.612807  0.034997159  0.037579537            1 
  212000      1.22164   -7.0440969    89.319612   0.03510991  0.037557939            2 
  213000     1.195922   -7.0448736    89.380671  0.034968963  0.037535782            3 
  214000    1.2158058    -7.045465    89.892695  0.035004943  0.037514336            2 
  215000    1.2035046   -7.0340659    90.513424  0.035082722  0.037493344            1 
  216000    1.1890973   -7.0481372    90.430505  0.034888312  0.037472112            4 
  217000    1.1974363   -7.0911496    91.165417  0.035009761  0.037450737            2 
  218000    1.2299412   -7.0807711    91.398158  0.034938134  0.037430627            1 
  219000    1.2208776   -7.0270791    92.367966  0.035147628  0.037413167            2 
  220000     1.219682   -7.0639935    92.581561  0.035068773  0.037397199            1 
  221000    1.2127846    -7.048291    93.349788  0.035199769  0.037382075            2 
  222000    1.2062126   -7.0569921     93.38147  0.035053104  0.037366602            1 
  223000    1.2196563   -7.0660693    93.934534  0.035102591  0.037350763            1 
  224000    1.2402981   -7.0553629    94.163232  0.035030964  0.037335101            1 
  225000    1.2242974   -7.0854223     94.81945  0.035118315  0.037317937            2 
  226000    1.2204642   -7.0563603     95.30465  0.035141832  0.037301198            1 
  227000    1.2233837   -7.0436327    95.440771  0.035036994  0.037285617            1 
  228000    1.2467836   -6.9913157    96.395432  0.035232248  0.037270202            1 
  229000      1.19551   -7.0516619    96.259721  0.035029011  0.037252619            1 
  230000    1.2177065   -7.0419323    96.647878  0.035017347  0.037234762            3 
  231000      1.23299   -7.0453913    97.033776   0.03500497  0.037216942            1 
  232000    1.2269392   -7.0630672    97.343474  0.034965328  0.037199227            1 
  233000    1.2338835   -7.0911244    97.803271  0.034979711  0.037180965            2 
  234000    1.2495366   -7.0330428     98.49332  0.035075968  0.037164771            1 
  235000    1.2164943   -7.0111065    98.598123  0.034963873  0.037147377            1 
  236000    1.2084129   -7.0447283    99.115558  0.034998431  0.037129669            2 
  237000    1.2494623   -7.0107538    99.950269  0.035144258  0.037112795            1 
  238000    1.2351481   -7.0622272    100.44095  0.035168401  0.037098017            2 
  239000    1.1792067   -7.0891265    100.20059  0.034937445  0.037083669            1 
  240000    1.1778487   -7.0354707     101.2626  0.035160625  0.037069768            2 
  241000    1.2148365   -7.0266525    101.50663  0.035099111  0.037056957            2 
  242000    1.1942049   -7.0312945    101.91091  0.035093287  0.037043459            1 
  243000    1.2234977   -7.0479859    102.31639  0.035087925  0.037030088            3 
  244000    1.2387557   -7.0691622    102.47225  0.034997352  0.037015943            2 
  245000    1.2156378   -7.0250992    102.45865  0.034849882  0.036998283            1 
  246000    1.1984334   -7.0416287     103.0413  0.034905589  0.036980236            1 
  247000    1.2132886   -7.0817084    103.47265  0.034909801  0.036962361            2 
  248000    1.2391929   -7.0660242    103.74782    0.0348615  0.036945647            1 
  249000    1.2077046   -7.0362764    104.52351  0.034981094  0.036929717            1 
  250000    1.2105263   -7.0316228    104.80046  0.034933487  0.036914404            1 
  251000    1.1919543    -7.032086    105.51721  0.035032275  0.036898101            1 
  252000    1.2384876   -7.0327748    105.45599  0.034873011  0.036882007            1 
  253000    1.2095786   -7.0529481    106.16932  0.034970133   0.03686528            1 
  254000    1.2005405   -7.0785639     106.2849  0.034870374  0.036848899            2 
  255000    1.2215099   -7.0386241    106.82588  0.034910418  0.036832415            1 
  256000    1.2133936   -7.0427298    107.69227  0.035056078  0.036816892            2 
  257000    1.1750397   -7.0521466    107.19057  0.034756994  0.036800233            1 
  258000    1.2041868   -7.0331836    107.93393  0.034862379  0.036783051            3 
  259000    1.1915041   -7.0388695    108.63567  0.034953561  0.036764713            1 
  260000    1.1838044   -7.0935586    108.48263  0.034770073  0.036747806            2 
  261000    1.2214062   -7.0604002    109.20479   0.03486743  0.036731082            2 
  262000    1.2187399   -7.0742074    109.31139  0.034768255  0.036714807            1 
  263000     1.180641   -7.0756151    109.77304  0.034782331  0.036696954            1 
  264000    1.1823878   -7.0779538     109.8296  0.034668434  0.036678122            1 
  265000     1.205888   -7.0313215    110.46752  0.034738213   0.03665997            2 
  266000      1.22245   -7.0248329    110.69861  0.034680016  0.036641562            2 
  267000    1.2048057    -7.065144    111.26675  0.034727449  0.036623155            1 
  268000    1.2107611   -7.0584531    111.33811  0.034620058  0.036604617            2 
  269000    1.2218243   -7.1002593    111.44234  0.034523648  0.036586297            1 
  270000    1.2065763   -7.0988156    111.85923  0.034524453  0.036567024            2 
  271000     1.201691   -7.0552412    112.69864  0.034655179  0.036547851            1 
  272000    1.2110166   -7.0856979    113.43714  0.034754025     0.036531            1 
  273000    1.2158636   -7.0897625    113.79998  0.034737477  0.036514569            1 
  274000    1.2045756    -7.041496    114.64898  0.034868912  0.036499545            1 
  275000    1.1888323   -7.0640037    115.17812   0.03490246  0.036485747            1 
  276000    1.1988015   -7.0614953    115.51264  0.034877004  0.036472335            2 
  277000    1.2237162   -7.0699474    115.63895  0.034789094  0.036457898            1 
  278000    1.2174321   -7.0901175    115.74313  0.034695183    0.0364433            1 
  279000    1.2001237   -7.0858214     116.5825  0.034821536  0.036428506            1 
  280000    1.2161931   -7.0643089    116.64011  0.034714318  0.036414102            1 
  281000    1.1934685   -7.0504662      117.263  0.034775505   0.03639926            1 
  282000    1.1982451   -7.1172218    117.49019  0.034719324  0.036385461            1 
  283000    1.2155674   -7.0413713    118.43791  0.034875709  0.036373123            1 
  284000    1.2306714   -7.0376029    119.18865  0.034973196  0.036362586            2 
  285000    1.2260795   -7.0437566    119.60219  0.034971401  0.036352669            1 
  286000    1.2321687    -7.108072    119.94879  0.034950114  0.036343042            1 
  287000    1.1955512   -7.0853164    119.77255  0.034777163  0.036332656            2 
  288000    1.2074707   -7.0653253    120.73581  0.034935129  0.036322239            2 
  289000    1.2160645   -7.0722298    121.17028  0.034939527  0.036313173            2 
  290000    1.2169436   -7.0823483    122.02112   0.03506354  0.036303773            1 
  291000    1.1926502    -7.072539    122.29698  0.035022046  0.036296228            1 
  292000    1.1937144     -7.06396    122.68396  0.035012547  0.036290127            1 
  293000    1.2301869   -7.0632543     123.0984  0.035010922  0.036283088            1 
  294000    1.1762505   -7.0535199    123.45119  0.034991833  0.036274213            2 
  295000    1.2184123   -7.0758927    123.63387  0.034924823  0.036264886            2 
  296000    1.1946146   -7.0626693    124.05341  0.034924946  0.036257108            1 
  297000    1.2116547    -7.082277    125.08713  0.035097399  0.036250456            6 
  298000    1.2194768   -7.1049563    125.01857  0.034960451  0.036243847            2 
  299000    1.1883408   -7.1208551    125.04496  0.034850881  0.036235135            2 
  300000     1.198608   -7.0514961    125.52518  0.034868106  0.036226204            1 
  301000    1.2217689   -7.0835238    126.25342  0.034953881  0.036217413            3 
  302000    1.1988249   -7.0638648    125.68856  0.034682275  0.036206952            1 
  303000    1.2274561   -7.0624508    126.64273  0.034830233  0.036197317            3 
  304000    1.1944534   -7.0848013    126.72256  0.034737544  0.036187024            2 
  305000    1.1988244   -7.1117913    127.23431  0.034763472  0.036176414            1 
  306000    1.2309559   -7.1124776    127.86592  0.034821874  0.036166055            1 
  307000    1.2324031   -7.0775009    128.19015  0.034796458  0.036156456            1 
  308000    1.2223606   -7.0809434    128.79456  0.034847012  0.036147235            1 
  309000    1.2191058   -7.1183613    129.35331  0.034884926  0.036137594            1 
  310000    1.2090149   -7.0738002    129.54598  0.034824189  0.036128354            1 
  311000    1.2024458   -7.0519347    130.58662  0.034991057  0.036120791            3 
  312000    1.1886621   -7.1277583    130.42443  0.034835585  0.036111368            2 
  313000    1.2288178   -7.1031097    130.53385   0.03475342   0.03610201            1 
  314000    1.1765653   -7.0614243    131.30086  0.034846302   0.03609192            1 
  315000    1.2121076   -7.1127705    131.29806  0.034734938  0.036081305            1 
  316000    1.1873993   -7.0325294    131.78075  0.034752307  0.036069859            1 
  317000    1.1800174   -7.0827994    131.66107  0.034611217   0.03605735            2 
  318000    1.2073095   -7.0808094    131.84473  0.034550506   0.03604367            5 
  319000    1.2094314   -7.0796102    132.60703  0.034641334  0.036030967            2 
  320000    1.1879647   -7.0769041    132.47709  0.034499242  0.036016641            1 
  321000    1.1714595   -7.1036581    132.72465  0.034456035  0.036002742            1 
  322000    1.2147143   -7.1136794    133.50544  0.034551099  0.035988938            1 
  323000    1.2209823   -7.0587686    134.26592  0.034640331  0.035975135            1 
  324000    1.2032068   -7.1034171    134.35306  0.034555828  0.035960749            1 
  325000    1.1903283   -7.1053014    134.28695  0.034432552  0.035946958            1 
  326000    1.1760302   -7.0963787     134.9493  0.034496242  0.035933198            1 
  327000    1.2082398   -7.0710363    136.20194  0.034709973  0.035921401            2 
  328000    1.2147256   -7.1239945    136.12698  0.034585107  0.035910283            1 
  329000    1.2097906   -7.0548384    136.61487  0.034603564  0.035899172            3 
  330000    1.1975058   -7.1046133     137.2879  0.034668662  0.035887717            1 
  331000    1.1674825   -7.0858379    137.54654  0.034629039  0.035876988            3 
  332000    1.2127439   -7.0280527    138.53241  0.034772191  0.035866404            1 
  333000     1.171243   -7.0849226    137.99905  0.034534296  0.035856695            2 
  334000    1.2055649   -7.0769376    138.97788  0.034675119  0.035847126            1 
  335000      1.18769   -7.0993154    139.42679  0.034683282  0.035838796            3 
  336000    1.2287993   -7.0704153    139.75911  0.034662477  0.035829531            1 
  337000    1.2116314   -7.1042419    139.80241  0.034570329  0.035819369            2 
  338000    1.2165377    -7.061266    140.40908  0.034617623  0.035808326            2 
  339000    1.1768181   -7.0632322    140.77399  0.034605208  0.035796748            3 
  340000    1.1939451   -7.0925923     141.1243  0.034589288  0.035786011            1 
  341000    1.1982791   -7.1327497    140.61532   0.03436347  0.035773419            2 
  342000    1.2021077   -7.0787641    141.93209  0.034583842  0.035762152            1 
  343000    1.1931794    -7.125205    141.97833  0.034494248  0.035751216            1 
  344000     1.204124   -7.0831722    143.30652  0.034715728  0.035742247            2 
  345000     1.191548   -7.0552615    143.68133  0.034705636  0.035733959            1 
  346000    1.2147046   -7.1139505    143.83987  0.034643513  0.035724869       -1e+20 
  347000     1.179029   -7.0667021    144.55075  0.034714397  0.035717224            1 
  348000    1.1858661   -7.0863874     144.7204  0.034655268  0.035708981            1 
  349000    1.1907993   -7.1308479    145.21162  0.034673261  0.035700386            1 
  350000    1.2160229   -7.1032534    145.08695  0.034544511  0.035692226            2 
  351000    1.1732566   -7.0748762    146.00931  0.034665079  0.035683965            3 
  352000     1.204075   -7.1254307    146.43556  0.034667509  0.035676783            1 
  353000    1.1883954   -7.0909155    146.97117  0.034695744   0.03566989            5 
  354000    1.2183813   -7.1043756    147.22167  0.034656701  0.035662364       -1e+20 
  355000    1.1880156   -7.1018158    147.40895  0.034603039  0.035654101            1 
  356000    1.1813474   -7.0523387    148.02649  0.034650397  0.035646238            1 
  357000      1.20114   -7.0763299    148.86407  0.034748849  0.035638731            2 
  358000    1.2002457   -7.1049631    148.86841  0.034652796  0.035631961            1 
  359000    1.1952974   -7.0692934     149.5932  0.034724513  0.035625763            3 
  360000    1.1975001   -7.0747468     149.7442   0.03466301  0.035619525            1 
  361000    1.1616726   -7.0679496    150.09851  0.034648779  0.035613007            2 
  362000    1.1970758   -7.1397137     149.8784  0.034502395  0.035605229            4 
  363000    1.1917777    -7.147215    150.29497  0.034502976  0.035596338            1 
  364000    1.1784461   -7.0848607    151.10778  0.034594272  0.035587774       -1e+20 
  365000    1.1972601   -7.0968233    151.33045  0.034550332  0.035580319            1 
  366000    1.1925245   -7.1259785    152.09538  0.034630096  0.035572265            1 
  367000    1.1873594   -7.1164861    152.37403  0.034599008  0.035564874            1 
  368000    1.1943101   -7.1226259    153.09841  0.034669024  0.035556983            2 
  369000    1.1827968   -7.1066072    152.86753   0.03452293  0.035549117            1 
  370000    1.1881252   -7.0531641    153.55529  0.034584524  0.035541527            1 
  371000    1.1572254     -7.10428    153.44071  0.034465568  0.035532949            2 
  372000    1.1994061   -7.0802786     154.5216  0.034615054  0.035524605            1 
  373000    1.1993248   -7.1382655    154.16933   0.03444355  0.035516079            3 
  374000    1.1979262   -7.0744148    155.19642  0.034580306  0.035507243            2 
  375000    1.1902573    -7.137468    155.30249  0.034511665   0.03549768            1 
  376000    1.1727264   -7.0731979    155.83156  0.034537137  0.035488723            1 
  377000    1.1876242   -7.1182563    155.90559   0.03446189  0.035480384            1 
  378000    1.1654705   -7.0935085    157.14463  0.034643878  0.035472039            2 
  379000    1.2009349   -7.1318649    157.08116  0.034538513  0.035463669            1 
  380000    1.1616936   -7.1639594    156.88557  0.034404731  0.035455579            1 
  381000    1.1776423   -7.1281725    157.59414  0.034469409  0.035447203            1 
  382000    1.1790058   -7.1292429    158.23682  0.034519377  0.035439425            3 
  383000    1.1869911   -7.0719828    158.27366  0.034437264  0.035431726            1 
  384000    1.2117472   -7.1147254    159.20008  0.034548628  0.035423981            1 
  385000    1.2111606    -7.105829    159.75314  0.034578601  0.035417219            5 
  386000    1.1722643    -7.063588    160.41506  0.034631921  0.035410462            3 
  387000    1.2149603   -7.1351778    159.83973  0.034418546  0.035402389            2 
  388000     1.177271   -7.1102617    160.85126  0.034547093  0.035394382            1 
  389000    1.1683457    -7.105657    160.37606  0.034356483  0.035385685            2 
  390000    1.2046507   -7.0972537    160.89639  0.034379571  0.035377007            3 
  391000    1.1832531   -7.1263331    161.24327  0.034365574  0.035368225            1 
  392000    1.1871211   -7.0851674    161.91538  0.034420787  0.035359179            1 
  393000    1.1641261     -7.12191    162.56894  0.034471786  0.035351026            1 
  394000    1.1962077   -7.1446887    162.91445  0.034457371  0.035342961            2 
  395000    1.2199617   -7.1103471    163.29293  0.034449985  0.035333149            1 
  396000    1.1473489   -7.1215507    162.69655   0.03423749  0.035323344            2 
  397000    1.1684951   -7.1092132    163.33319  0.034284884  0.035313654            3 
  398000    1.1929973   -7.1284633    164.30278  0.034401754  0.035304385            1 
  399000     1.185512   -7.1228343    164.53532  0.034364102  0.035295217            1 
  400000    1.1830693    -7.096649    165.04489  0.034384351  0.035287156            2 
  401000    1.2066239   -7.0639126     165.6008  0.034414131  0.035279416            1 
  402000    1.1964487   -7.0943371    166.10376  0.034432785  0.035272197            1 
  403000    1.2107812   -7.0844514    166.41401  0.034411499  0.035265516            3 
  404000    1.2174671   -7.0978485    166.94084  0.034434991  0.035258124            2 
  405000    1.1921752   -7.1221704    167.39489  0.034443393   0.03525064            3 
  406000    1.2210551   -7.1114436    167.66851  0.034414719   0.03524273            2 
  407000    1.1866227   -7.1038848    168.04448  0.034407142  0.035235158            1 
  408000    1.1700902   -7.0938791    168.84797  0.034486922  0.035228046            1 
  409000    1.1818155   -7.1349308    168.70167  0.034372793  0.035222063            1 
  410000    1.1836313   -7.1550281    169.31024   0.03441265  0.035215378            2 
  411000    1.1529078   -7.1398137    169.44881  0.034357018  0.035208597            1 
  412000    1.1943533   -7.1315604    169.69565  0.034323553  0.035201255            2 
  413000    1.1939581   -7.1082427    170.36294   0.03437509  0.035194807            1 
  414000    1.1794463   -7.1108633    171.00976  0.034422254  0.035187937            2 
  415000    1.1635883   -7.1252796    171.18889  0.034375279  0.035181352            1 
  416000    1.1871604   -7.1431352    171.20281  0.034295434  0.035174018            1 
  417000    1.1813851   -7.1025483    171.79274  0.034331082  0.035167105            2 
  418000     1.178568   -7.1558532    171.79709  0.034249819  0.035159484            4 
  419000     1.186304   -7.1337949    173.17248  0.034441623  0.035152003            1 
  420000    1.1790507    -7.124407    173.42156   0.03440904  0.035144772            2 
  421000    1.1883143   -7.1417948    173.57163  0.034357013  0.035137556            2 
  422000    1.1856891     -7.11274    174.33343  0.034426032  0.035130934            1 
  423000    1.1732337   -7.0946054    174.47678  0.034372888  0.035125441            1 
  424000    1.1961224   -7.1297141    174.57129  0.034310395  0.035119384            2 
  425000    1.1822476   -7.1055223    175.12982   0.03433918  0.035113292            2 
  426000    1.1831262    -7.144925    175.32074  0.034295919  0.035105934            1 
  427000    1.1522937   -7.1878683    175.35011  0.034221333  0.035098556            2 
  428000    1.1663314   -7.0813993    176.75371  0.034414664  0.035091662            3 
  429000     1.182895   -7.0801403    177.36497  0.034453179   0.03508568            2 
  430000    1.2053259   -7.1284332    177.01987  0.034306175  0.035079195            1 
  431000    1.1981832   -7.0896278    178.17221  0.034449383  0.035073199            1 
  432000    1.1787263   -7.1156068     178.3362  0.034401273  0.035067837            2 
  433000    1.2163188   -7.1370849    177.98897  0.034254999  0.035061986            2 
  434000    1.1901109   -7.1638942    178.68673  0.034310048  0.035054665            1 
  435000    1.1834324   -7.0841343    179.63515  0.034412864  0.035048467            2 
  436000    1.1722774   -7.1611764    179.30781  0.034271371  0.035041585            1 
  437000    1.1831014   -7.1460237    178.99002  0.034132345  0.035033872            3 
  438000     1.187446   -7.1164655    179.68262   0.03418619  0.035025874            1 
  439000    1.1766425   -7.1059669    180.10954  0.034189358  0.035017734            2 
  440000    1.2157891   -7.1230557    180.97195  0.034274991  0.035009583            1 
  441000    1.1848435   -7.1773901    180.65432  0.034137249  0.035001989            1 
  442000    1.1539247   -7.1509834    181.24372  0.034171138  0.034994397            1 
  443000     1.197905   -7.1544766    181.44987  0.034132783  0.034986751            4 
  444000     1.164875   -7.1267791    182.78359   0.03430623  0.034980088            1 
  445000     1.200982   -7.1291586    183.17473  0.034302384  0.034974042            4 
  446000    1.1610573   -7.0742453     183.5561   0.03429673  0.034968069            1 
  447000    1.1995977   -7.1413799    184.32467  0.034363287  0.034962053            2 
  448000    1.1888068   -7.1403854    184.15816  0.034255611  0.034955495            2 
  449000    1.1863299   -7.1083087    185.20824  0.034374209  0.034949409            3 
  450000      1.19578   -7.1260584    185.42144  0.034337303  0.034943031            1 
  451000    1.1964942   -7.1136155    185.08548  0.034199091  0.034936034            3 
  452000    1.1694381   -7.1132779    185.64956  0.034227426  0.034929441            1 
  453000    1.1789881   -7.1425329    186.05155  0.034225819  0.034922856            2 
  454000    1.1855555   -7.0934523    186.37782   0.03421032  0.034916169            2 
  455000    1.2087084   -7.0899602    187.92672  0.034418813  0.034909848            1 
  456000    1.1969179   -7.1089355    187.47993  0.034261683  0.034903801            2 
  457000    1.1879898   -7.1514089    187.80467  0.034245928  0.034897823            1 
  458000    1.1772605   -7.1017185    188.83441  0.034358517  0.034892285            1 
  459000    1.1915451   -7.1275203    188.51259  0.034225235  0.034886775            1 
  460000    1.1604253   -7.1416397    188.78576  0.034200318  0.034879723            2 
  461000    1.1701961   -7.1428274    189.96685  0.034339633  0.034874083            2 
  462000    1.1879152   -7.1542177    190.94324  0.034441421  0.034869248            1 
  463000    1.1894594   -7.1383929    190.59923  0.034305117  0.034864697            2 
  464000    1.1633987   -7.1195459      190.403  0.034195941  0.034860478            1 
  465000    1.1829898   -7.1162188    191.40884  0.034302659  0.034856046            2 
  466000    1.1663718   -7.1205476    191.93828  0.034323727  0.034850955            2 
  467000    1.1798484   -7.1554488    192.01032  0.034263084  0.034845858            1 
  468000    1.1709836   -7.1564047    191.86194  0.034163451  0.034840449            3 
  469000     1.180394   -7.1709962    192.53734  0.034210615  0.034835017            1 
  470000    1.1841061   -7.1686081    193.43488  0.034296965  0.034829914            4 
  471000    1.1756297   -7.1322439    194.01449  0.034326696  0.034825384            1 
  472000    1.1572336   -7.1695342     193.8541  0.034225653  0.034820333            1 
  473000    1.1893733   -7.2170986    194.59168  0.034283242  0.034815361            3 
  474000    1.1684748   -7.1788164      194.888  0.034263009  0.034810395            3 
  475000    1.1564131   -7.1520682    195.49036  0.034296554    0.0348054            2 
  476000    1.1850669   -7.1158074    195.93486  0.034302321  0.034801301       -1e+20 
  477000    1.1744742   -7.1263405    196.57793  0.034342754    0.0347979            2 
  478000    1.1935694   -7.1024713    197.51549   0.03443436  0.034793877            1 
  479000     1.172388   -7.1427864    197.69664  0.034393988  0.034790392            1 
  480000    1.1629977   -7.1291652    198.31539  0.034429755  0.034786876            1 
  481000    1.1691923   -7.1272537    198.91439  0.034461952  0.034784026            1 
  482000    1.1893009    -7.128926    199.50604  0.034492745  0.034781801            1 
  483000    1.1881929   -7.1500766    199.50878  0.034421805  0.034779895            1 
  484000    1.1616392   -7.1813811    199.76171  0.034394234  0.034777796            1 
  485000    1.1659389   -7.0893178     200.9467  0.034526925  0.034775761            2 
  486000    1.1722239   -7.1543553    200.13004  0.034315851  0.034773104            2 
  487000    1.1864929   -7.1295195    200.77511  0.034355768  0.034769545            2 
  488000    1.1942729   -7.1041486    200.99963  0.034323707  0.034766505            2 
  489000    1.1925048   -7.1568146    201.72823   0.03437768  0.034763618            1 
  490000    1.1597022   -7.1586407    202.40813  0.034423151  0.034760538            2 
  491000    1.1809039   -7.1265966    203.05324  0.034462532  0.034757686            1 
  492000    1.1700498   -7.1650734    202.42407   0.03428592  0.034754478            2 
  493000    1.1820294   -7.1392288    203.23985  0.034354267   0.03475127            1 
  494000    1.1793373   -7.1483219    202.93925  0.034234017  0.034747637            5 
  495000    1.1641489   -7.1610712    203.30109  0.034225773  0.034743631            4 
  496000    1.1930827   -7.1285286    204.05522   0.03428347  0.034739579            1 
  497000    1.1562245   -7.1508124    204.77632  0.034335399  0.034736353            2 
  498000    1.1944856   -7.1894605    204.65774   0.03424661  0.034732667            1 
  499000    1.1487762   -7.1716822    205.40872  0.034303393  0.034729394            3 
  500000    1.1856878   -7.1737664    205.83217  0.034305362  0.034726465            2 
  501000    1.1802414    -7.101874     206.5818  0.034361577  0.034723506            1 
  502000    1.1884086   -7.1516467     207.1947   0.03439487  0.034720301            3 
  503000    1.1841495   -7.1628747    207.18041  0.034324124  0.034716853            1 
  504000     1.182689   -7.1860612    206.81018  0.034194805  0.034713372            2 
  505000    1.1866466   -7.1332065     208.2441  0.034363713  0.034709717            1 
  506000    1.1865154   -7.1716403    207.43292  0.034162207  0.034705922            4 
  507000    1.1649368   -7.1657513    208.20461  0.034221665  0.034701606            5 
  508000    1.1574334   -7.1766612     208.3694  0.034181332  0.034696435            1 
  509000    1.1888246   -7.1371663    208.73752  0.034174446  0.034691348            2 
  510000    1.1818828   -7.1753356    208.65802  0.034094447  0.034686774            2 
  511000    1.1752893    -7.144321    209.62427  0.034185302   0.03468238            1 
  512000    1.1553178   -7.1709292    209.84169  0.034153921  0.034678445            2 
  513000    1.1709525   -7.1946692    210.85394  0.034251777  0.034674177            1 
  514000     1.169167   -7.1492115    211.21343  0.034243423  0.034670208            1 
  515000    1.1625724    -7.147534    211.67214  0.034251156  0.034666451            2 
  516000     1.178623   -7.1603133    211.84575  0.034212815  0.034663124            3 
  517000    1.1617601   -7.1322544    213.14481  0.034356031  0.034660177            2 
  518000    1.1885201   -7.1328194    214.01311  0.034429393  0.034657696            2 
  519000    1.1752041   -7.1857031    213.17571  0.034228599  0.034655205            2 
  520000    1.1833966    -7.184902    214.32373  0.034346751   0.03465252            2 
  521000    1.1444655   -7.1764983    215.07528  0.034401036  0.034650301            1 
  522000     1.169622   -7.1185487    215.78075  0.034447757  0.034648187            2 
  523000    1.1470748   -7.1572487    215.87452  0.034396833  0.034645845            1 
  524000    1.1792011   -7.2048309    214.75455  0.034153077  0.034642857            2 
  525000    1.1619172   -7.1411537    216.01846  0.034288645   0.03463978            2 
  526000    1.1669962    -7.185501    216.25116  0.034260323  0.034637037            1 
  527000    1.1483884     -7.15258     216.6425  0.034257194  0.034634118            1 
  528000    1.1572281   -7.1626211    217.12526  0.034268506  0.034631322            2 
  529000    1.1691139   -7.1351571    218.50305  0.034420771  0.034628412            2 
  530000    1.1815921   -7.1656449     218.1026  0.034292862  0.034625625            4 
  531000    1.1902531   -7.1256528    218.69815  0.034321744  0.034622417            2 
  532000    1.1784934   -7.1717371    219.24971  0.034343627  0.034620164            3 
  533000    1.1715736   -7.1616038    219.24396  0.034278293   0.03461684            2 
  534000    1.1656651   -7.1390093    219.60722  0.034270789  0.034613436            4 
  535000    1.1565064   -7.0686438     220.9425   0.03441472  0.034610688            2 
  536000    1.1656564   -7.1606604    221.28137  0.034403198  0.034607942            2 
  537000    1.1696924   -7.1653872     220.8274  0.034268684  0.034605481            2 
  538000    1.1739044   -7.1602332       221.31  0.034279739  0.034602445            1 
  539000    1.1813354    -7.144012    222.01871  0.034325713  0.034599848            1 
  540000    1.1465421   -7.1491378    221.90401  0.034244446  0.034596662            3 
  541000    1.1777275   -7.1068079    222.23873  0.034232707  0.034593215            2 
  542000    1.1922862   -7.1953167    221.94894   0.03412499  0.034589166            3 
  543000    1.1602556   -7.1259983    222.87583  0.034204394  0.034584651            2 
  544000     1.143711   -7.1644911    222.50637  0.034084923  0.034580445            2 
  545000    1.1506605   -7.1576604    222.52464  0.034025174  0.034575626            2 
  546000    1.1789389    -7.208667    223.32494  0.034085003  0.034570685            1 
  547000    1.1673833   -7.1774659    223.45536  0.034042559  0.034565724            1 
  548000    1.1785357   -7.1397174     224.4629  0.034133653  0.034560886            1 
  549000    1.1819341   -7.1747712    224.07139   0.03401205    0.0345562            2 
  550000    1.1754831   -7.1313373    224.37732  0.033996564  0.034551165            1 
  551000    1.1698118   -7.1156348    225.57374  0.034115811  0.034546238            1 
  552000    1.1751443   -7.1568337    226.27842  0.034160389  0.034541458            1 
  553000    1.1859226   -7.1708227    225.85561  0.034034902  0.034536424            2 
  554000    1.1694183    -7.116987    227.30032  0.034190783  0.034531832            1 
  555000    1.1629753   -7.1935257    227.08184  0.034096372  0.034527335            2 
  556000     1.150936   -7.1140523    227.43286  0.034087659  0.034523266            1 
  557000    1.1727622   -7.1770586    228.10766  0.034127418  0.034518649            1 
  558000    1.1632454   -7.1900552    228.02762  0.034054304  0.034513623            3 
  559000    1.1663138   -7.1467391    228.86558  0.034118304    0.0345091            1 
  560000    1.1652733   -7.2093026    228.52782  0.034007116  0.034504782            3 
  561000    1.1493733   -7.2092624    228.74183  0.033978287  0.034500167            2 
  562000    1.1689364   -7.1624922    230.47706  0.034175127  0.034495803            1 
  563000    1.1824055   -7.1956211    229.54925  0.033977094  0.034491459            2 
  564000    1.1504045   -7.1905655    230.67889   0.03408376  0.034487224            1 
  565000    1.1650909   -7.1576871    231.13832  0.034091197   0.03448256            1 
  566000    1.1562247   -7.1407707    231.42672  0.034073427  0.034478317            3 
  567000    1.1695513    -7.117903    232.90937  0.034231242   0.03447442            1 
  568000    1.1574325   -7.1866857    231.95885  0.034031522  0.034470258            2 
  569000    1.1780318   -7.1830936    231.86271  0.033957632  0.034465438            2 
  570000    1.1373114   -7.1480624    233.43507  0.034127934  0.034461068            1 
  571000     1.145274   -7.1576407    233.44792  0.034070041  0.034457396            2 
  572000    1.1320406   -7.1597958    233.92368   0.03407979  0.034453651            2 
  573000    1.1644902   -7.1773793    234.24627  0.034067229  0.034449509            1 
  574000      1.15715   -7.1780182    234.82098  0.034091315  0.034446083            1 
  575000    1.1565518   -7.2063914    234.82146  0.034032096  0.034441926            2 
  576000    1.1710689   -7.1868802     234.7206   0.03395842  0.034437712            1 
  577000    1.1144075   -7.1902427    235.66154  0.034035463  0.034433469            1 
  578000    1.1579015   -7.1831519    235.99415  0.034024531  0.034429162            3 
  579000    1.1891788   -7.2066712    235.59018  0.033907625  0.034424476            2 
  580000    1.1187223   -7.1800292    236.07612  0.033918983  0.034419611            2 
  581000    1.1479556   -7.2036178    235.70008  0.033806666  0.034414223            2 
  582000    1.1723568   -7.1943805    236.14098  0.033811709  0.034409094            1 
  583000    1.1600082   -7.2012411    237.21701   0.03390752  0.034403937            1 
  584000     1.163192   -7.2020545    237.72919  0.033922544  0.034399098            1 
  585000    1.1713691   -7.2126786    238.16531  0.033926682  0.034394292            3 
  586000    1.1646827   -7.2138099     238.1262  0.033863225  0.034389033            1 
  587000     1.142301   -7.1990522    238.18689  0.033814152    0.0343838            1 
  588000    1.1331359   -7.1650561    239.62952    0.0339611   0.03437839            2 
  589000    1.1546808   -7.1742816    238.63187   0.03376229  0.034372792            2 
  590000     1.167386   -7.1684402    239.72907  0.033860038   0.03436698            1 
  591000    1.1645861   -7.1416885    239.62969  0.033788732  0.034361124            1 
  592000    1.1566437   -7.1686308    239.80193  0.033755903  0.034355114            1 
  593000    1.1811781   -7.1397937    241.08377  0.033879114  0.034349341            2 
  594000    1.1541955   -7.1856432    241.70325  0.033908985  0.034343479            1 
  595000    1.1690077   -7.2109163    241.07588  0.033764128  0.034337907            2 
  596000    1.1442348   -7.1992352    241.46972  0.033762545  0.034332245            2 
  597000    1.1543439   -7.1583515    242.43148   0.03384024  0.034326626            1 
  598000    1.1454177   -7.2362318     242.1282  0.033741388  0.034321254            2 
  599000    1.1753403   -7.2073138    242.33025  0.033713167  0.034315412            1 
  600000    1.1706832   -7.1840153    243.69819  0.033846971  0.034309688            2 
  601000    1.1796078   -7.2091038    243.82517   0.03380826  0.034304029            2 
  602000    1.1712575   -7.1894768    243.15423  0.033659223  0.034297782            1 
  603000    1.1719716   -7.1766207    243.72628   0.03368246  0.034291401            2 
  604000    1.1395455   -7.1742894    244.71211  0.033762708  0.034284829            2 
  605000    1.1450163   -7.1669621    244.42211  0.033666957  0.034278503            1 
  606000    1.1461228   -7.1846141    245.02047  0.033693685  0.034272369            1 
  607000    1.1167636   -7.1610847    245.49686  0.033703577  0.034266363            1 
  608000    1.1610609   -7.1931723    245.52991  0.033652674  0.034260316            1 
  609000      1.14809   -7.1829273    246.49025  0.033728825  0.034254115            1 
  610000     1.141247   -7.2147562    246.61697  0.033690842  0.034248745            1 
  611000    1.1789379   -7.1456087    247.13759  0.033706709  0.034243007            1 
  612000    1.1366355   -7.2068478    247.98134  0.033766522  0.034237568            3 
  613000    1.1628681   -7.1973683    248.18665  0.033739349  0.034232098            2 
  614000    1.1358526   -7.2291071    248.97356    0.0337912  0.034226359            1 
  615000    1.1486399   -7.1528455      248.953  0.033733468  0.034220919            1 
  616000    1.1563561   -7.2037437    249.30226  0.033725954  0.034215796            2 
  617000    1.1431573   -7.1823812    250.22326  0.033795686    0.0342106            1 
  618000     1.156663   -7.1638202    250.12995  0.033728418  0.034205176            2 
  619000    1.1490524   -7.1570526    251.43824  0.033850059  0.034199856       -1e+20 
  620000    1.1510239   -7.1947087    250.80447  0.033710279   0.03419483            1 
  621000    1.1598866   -7.1323924     251.5663  0.033758225  0.034189477            1 
  622000     1.138893   -7.1757486    251.04416  0.033633998  0.034184034            3 
  623000    1.1557954   -7.2021912    251.78223  0.033678737  0.034178141            5 
  624000    1.1646683   -7.1912944    252.00411  0.033654395  0.034171629            1 
  625000     1.146566   -7.2263627    252.12886  0.033617181  0.034165967            2 
  626000    1.1457651   -7.1766503    253.08441  0.033690683  0.034160423            1 
  627000    1.1505458   -7.1734292    253.71535  0.033720807  0.034154608            1 
  628000     1.160867   -7.1729189     252.9972  0.033571816   0.03414828            3 
  629000    1.1472402   -7.2122965    253.89806  0.033637793  0.034142375            1 
  630000    1.1473446   -7.2103024    253.18278  0.033489785  0.034135828            3 
  631000     1.149507   -7.2326837    252.66493  0.033368322  0.034129374            4 
  632000    1.1408884   -7.1626902    255.09678  0.033636179  0.034122984            1 
  633000    1.1635694     -7.21995    254.16365  0.033460196  0.034116479            2 
  634000    1.1785811   -7.1779486    256.08113  0.033659454  0.034110064            2 
  635000    1.1741372   -7.2082745    255.75879  0.033564146  0.034103924            3 
  636000    1.1454791   -7.1860023    256.52102  0.033611245  0.034097513            1 
  637000    1.1514834   -7.1846504    256.25208  0.033523297  0.034091367            2 
  638000    1.1455338   -7.1672386    257.81401  0.033674766  0.034085389            2 
  639000    1.1429827    -7.199186    257.08317  0.033526756  0.034079331            1 
  640000     1.128049   -7.2078409    257.45069  0.033522225  0.034073351            2 
  641000    1.1366166   -7.1688024    257.80614  0.033516139  0.034067276       -1e+20 
  642000    1.1443607   -7.2084467    258.55177  0.033560718  0.034061604            1 
  643000    1.1486936   -7.1835429    258.60946  0.033516001  0.034055924            1 
  644000    1.1529495   -7.1822001    258.56387  0.033458058  0.034049963            2 
  645000    1.1471106   -7.1969061    259.02154  0.033465315  0.034043621            3 
  646000    1.1442022   -7.1933627    259.29412  0.033448674  0.034037262            3 
  647000    1.1511573    -7.198606    259.65057  0.033442887  0.034030296            1 
  648000    1.1471383   -7.2157567    259.24041   0.03333853  0.034022998            3 
  649000    1.1669171   -7.2063756     260.4636  0.033444221  0.034015823            1 
  650000    1.1368527   -7.2153439     260.7726  0.033432385  0.034008357            1 
  651000     1.146119   -7.1757257    261.03168  0.033414194  0.034001244            2 
  652000    1.1631169   -7.2737599     260.8174  0.033335557  0.033994078            1 
  653000    1.1544184   -7.2077446    261.45674  0.033366097  0.033986961       -1e+20 
  654000    1.1377374   -7.2036966    261.16052  0.033277334  0.033979955            3 
  655000    1.1557505   -7.2093799    261.95745   0.03332792  0.033972464            2 
  656000    1.1367838   -7.2361714    261.45182  0.033212883  0.033964971            4 
  657000    1.1375209   -7.1683588     262.9817   0.03335638  0.033957585            2 
  658000      1.13689   -7.2191656    261.85454  0.033162936  0.033950115            2 
  659000    1.1708028   -7.2072825    262.63148   0.03321086  0.033942578            3 
  660000    1.1376086   -7.2292463    263.03698   0.03321174  0.033934941            2 
  661000    1.1404056   -7.2386337    262.99518  0.033156225  0.033927361            1 
  662000    1.1508029   -7.1770034    264.35645  0.033277499  0.033919884            3 
  663000    1.1232202   -7.2113064    265.59411  0.033382869  0.033912694            8 
  664000     1.132945   -7.2477615    264.91787  0.033247724  0.033905078            1 
  665000    1.1510422   -7.1951177     265.0158      0.03321  0.033897164            1 
  666000    1.1317121   -7.2052021     265.1176  0.033172873   0.03388937            2 
  667000    1.1588158   -7.2410845    264.99898  0.033108318  0.033881623            2 
  668000    1.1671219   -7.2089841    266.37121  0.033229941  0.033873633            1 
  669000    1.1198983   -7.2190279    267.20481  0.033284106  0.033865765            1 
  670000    1.1462697   -7.2173532    267.07255  0.033217979  0.033858041            1 
  671000    1.1407981    -7.247824    267.82008  0.033261312  0.033850562            3 
  672000    1.1503421   -7.2236864    267.71991  0.033199394  0.033842789            2 
  673000    1.1398654    -7.239918    267.60364  0.033135666  0.033835204            2 
  674000    1.1340161   -7.2026816    268.65345  0.033216302  0.033827983       -1e+20 
  675000    1.1522002   -7.1753319     269.2724  0.033243506  0.033821637            3 
  676000    1.1421029   -7.1858162    269.97665  0.033281145  0.033814618            2 
  677000    1.1369726   -7.2061451    269.90769  0.033223497  0.033807674            1 
  678000    1.1275162   -7.2037268    270.80189  0.033284402  0.033801055            2 
  679000    1.1562067   -7.2307204    270.38323     0.033184  0.033794751            2 
  680000    1.1473286    -7.213617    271.33829  0.033252241   0.03378799            1 
  681000    1.1275121   -7.1844155    272.71808  0.033372257  0.033781614            1 
  682000    1.1400613    -7.221284    271.62903  0.033190253  0.033775588            1 
  683000    1.1541093    -7.182315    272.47242   0.03324456  0.033769311            1 
  684000    1.1434607   -7.2200046    273.53852  0.033325843  0.033762878            1 
  685000      1.15122   -7.2224561    272.71939  0.033177541  0.033756132            2 
  686000    1.1403527   -7.2308189    273.50435  0.033224533  0.033749596            2 
  687000    1.1453193   -7.1750938    274.23701  0.033265043  0.033743626            3 
  688000    1.1527554   -7.2021815    275.23926  0.033338088  0.033737569            2 
  689000    1.1374039   -7.2077584    275.22859  0.033288412  0.033731683            2 
  690000    1.1396947     -7.22337    275.03656  0.033216976  0.033725597            4 
  691000    1.1601375   -7.2329651    274.63432  0.033120395  0.033719334            2 
  692000    1.1402553   -7.2385568    274.82891  0.033095967  0.033712473            2 
  693000    1.1587609   -7.2051316    276.53084  0.033252867  0.033705582            1 
  694000    1.1273676   -7.2421185    275.23027  0.033048783  0.033698231            1 
  695000    1.1465796   -7.1845178    277.14804  0.033231179  0.033691112            1 
  696000     1.136987   -7.1868836    276.52447  0.033108773  0.033684017            1 
  697000    1.1338058   -7.2055538    275.62676   0.03295394  0.033677021            2 
  698000    1.1516259   -7.2279139    277.17502  0.033091574  0.033669821            1 
  699000    1.1276467   -7.2308077    277.43521  0.033075251  0.033662654            1 
  700000     1.152975   -7.1866298    279.14999  0.033232141  0.033655803            2 
  701000     1.134038   -7.1856115    278.80005  0.033143135  0.033649119            3 
  702000    1.1387781    -7.191469    278.96439  0.033115431  0.033642651            1 
  703000    1.1340124   -7.1955291    279.24856   0.03310201   0.03363595            3 
  704000    1.1170166   -7.2010204    280.09121  0.033154736  0.033629421            2 
  705000    1.1547798   -7.2126105    280.21661   0.03312253  0.033623164            1 
  706000    1.1330734   -7.2974142    279.25183  0.032961737  0.033616283            1 
  707000     1.154871    -7.247861     279.7617  0.032975212  0.033609453            1 
  708000    1.1451783   -7.2214509    281.11369   0.03308777  0.033602379            1 
  709000    1.1454378   -7.2067452    280.90669  0.033016771  0.033594948            1 
  710000    1.1321436   -7.2703091    279.83847  0.032844891  0.033586972            2 
  711000    1.1432229   -7.2273514    280.86543  0.032919061  0.033578937            1 
  712000    1.1239124   -7.2423379    281.14228  0.032905229  0.033570803            3 
  713000    1.1414905   -7.2554365    281.44474   0.03289443  0.033563029            2 
  714000    1.1287476    -7.239547     281.6763  0.032875385  0.033555324            1 
  715000    1.1246615   -7.2196095    283.71888  0.033067468  0.033548202            1 
  716000    1.1425778   -7.2327055    283.24635  0.032966288   0.03354085            2 
  717000    1.1071582   -7.2108864     283.5971  0.032961076  0.033533694            1 
  718000    1.1624938   -7.1993361     285.1643  0.033097063  0.033526768            1 
  719000    1.1353756   -7.2477324    284.60147  0.032985799  0.033519448            2 
  720000    1.1348476    -7.233006    284.69879  0.032951249  0.033512599            2 
  721000    1.1456383   -7.2523857    284.74091  0.032910415  0.033505337            1 
  722000    1.1582466   -7.2376794    285.09603  0.032905821  0.033498005            1 
  723000    1.1454123   -7.2476993    285.91779  0.032955025  0.033490762            1 
  724000    1.1371978   -7.2199932     285.6269  0.032876025   0.03348314            1 
  725000    1.1417765    -7.227544    286.53197  0.032934709  0.033475586            1 
  726000    1.1381051   -7.2453829    286.19992   0.03285123  0.033468114            2 
  727000    1.1274307   -7.2413632    286.43294  0.032832754  0.033460585            2 
  728000    1.1530015   -7.2270339    286.86189  0.032836754  0.033452801            1 
  729000    1.1517261   -7.2291552    286.19988  0.032716036  0.033444894            1 
  730000    1.1110145   -7.2879763    286.31139  0.032683949  0.033437221            2 
  731000    1.1231418    -7.206823    287.96595  0.032827856  0.033429546            3 
  732000    1.1321117   -7.2668526    287.66182  0.032748386  0.033421992            3 
  733000    1.1268537   -7.2439802    288.75278  0.032827738  0.033414145            1 
  734000    1.1826015   -7.2257965    288.96455  0.032807057  0.033406524            2 
  735000    1.1569818    -7.229032    289.29606  0.032800007  0.033399191            3 
  736000    1.1741548   -7.2325124    289.83045  0.032815947  0.033391581            2 
  737000    1.1597803   -7.2175811    289.86277  0.032775076  0.033383773            4 
  738000    1.1182282   -7.2060177    290.60702  0.032814704  0.033376463            1 
  739000    1.1466766   -7.2275661    290.98634  0.032813074  0.033369138            2 
  740000    1.1319721   -7.2121311    290.54238  0.032718737  0.033361537            2 
  741000    1.1266442   -7.2221436    291.84157   0.03282069  0.033354269            3 
  742000    1.1117492   -7.2099957    292.08416  0.032803702  0.033347049            1 
  743000     1.114481   -7.2283402     291.6091   0.03270627  0.033339447            3 
  744000    1.1414485   -7.2373063    292.64103  0.032777894  0.033331289            2 
  745000    1.1366055   -7.2346016    292.47009  0.032714775  0.033323617            1 
  746000    1.1605115   -7.2174545    292.79598  0.032707325  0.033316093            3 
  747000    1.1423327   -7.2255202    293.64591  0.032758357  0.033308125            1 
  748000    1.1282474   -7.2623106    293.19779  0.032664638  0.033300411            1 
  749000     1.147035   -7.3045574    293.36057  0.032639138  0.033292175            2 
  750000    1.1514488    -7.229253    293.76806  0.032640896   0.03328399            3 
  751000    1.1545915   -7.2724259    293.54387  0.032572555  0.033275779            2 
  752000    1.1240575   -7.2478882    294.21744  0.032603883  0.033267638            1 
  753000    1.1786918   -7.2876767     293.8019  0.032514598  0.033259244            2 
  754000    1.1321309   -7.2128946    294.39639  0.032537178  0.033251165            1 
  755000    1.1152107   -7.2527073    294.97816  0.032558296  0.033242638            2 
  756000    1.1313053   -7.2188851    295.33064  0.032554083  0.033234017            2 
  757000    1.1391215   -7.2645998    295.02518  0.032477453  0.033225407            2 
  758000    1.1290432   -7.2086457     297.1727  0.032670701  0.033217181            1 
  759000    1.1198709    -7.256074    297.29843  0.032641461  0.033209062            3 
  760000    1.1403549   -7.2407951    297.07118  0.032573594  0.033201071            1 
  761000    1.1446158   -7.2634889     296.3825  0.032455377  0.033192752            1 
  762000    1.1439805   -7.2250988    297.92783  0.032581784  0.033184513            1 
  763000    1.1062229   -7.2350654    298.09638   0.03255749  0.033176172            1 
  764000    1.1412388   -7.2060332    298.17881  0.032523867  0.033168016            2 
  765000    1.1100399   -7.1989061    298.33008   0.03249783  0.033159474            2 
  766000    1.1400823   -7.2662861    297.82749  0.032400728  0.033150513            2 
  767000    1.1309011    -7.235134    298.05076  0.032382742  0.033141468            2 
  768000    1.1009674   -7.2883867    297.83232  0.032316875  0.033132545            1 
  769000     1.135544   -7.2763918    298.75464  0.032374799  0.033123363            2 
  770000    1.1485228   -7.2039392    300.39423  0.032510198  0.033114769            3 
  771000    1.1280489    -7.218348    300.70371  0.032501482  0.033106229            4 
  772000    1.1146481    -7.214887    300.66593  0.032455303  0.033097739            1 
  773000    1.1226991   -7.2827403      300.123  0.032354786  0.033088895            1 
  774000    1.0895348   -7.2265638    300.83238  0.032389361  0.033080036            4 
  775000    1.1255662   -7.2494115    301.00866  0.032366522  0.033071024            1 
  776000    1.1447466   -7.2212858    301.12485  0.032337291  0.033062321            3 
  777000    1.1250898   -7.2378704    300.98042  0.032280182  0.033053751            1 
  778000     1.110088   -7.2585494    302.78625  0.032432118  0.033045059            2 
  779000    1.1226552   -7.2117749    302.87688   0.03240018  0.033036181            2 
  780000    1.1019477   -7.2594059    302.03021  0.032268185  0.033027255            2 
  781000    1.1092837   -7.2596158    302.97942   0.03232815  0.033018143            2 
  782000    1.1446945   -7.2200554    303.44896  0.032336845  0.033009409            2 
  783000    1.1216825   -7.2303716    303.50944  0.032301984  0.033000777            2 
  784000    1.1360338   -7.2512942    304.62577   0.03237944  0.032992043            1 
  785000    1.1561934   -7.2810206    303.85303   0.03225616  0.032983121            5 
  786000     1.135283    -7.263932    304.45422  0.032278861  0.032974202            2 
  787000    1.1251474    -7.245734    304.75165  0.032269341  0.032965152            1 
  788000    1.1646572   -7.2465415    305.71473  0.032330237  0.032956519            1 
  789000    1.1217864   -7.2405425     306.0808  0.032327926  0.032947606            1 
  790000    1.1258229   -7.2609284    305.19832  0.032193916   0.03293842            1 
  791000    1.1264658    -7.289161    304.55857  0.032085817  0.032928807            2 
  792000    1.1451906   -7.2805698    305.21159  0.032114014  0.032919612            3 
  793000    1.1234104    -7.234971    306.61347  0.032220835  0.032910869            3 
  794000    1.1257101   -7.2154039    307.80735  0.032305557  0.032902242            1 
  795000    1.1186083   -7.2332741    307.21679  0.032203017  0.032893427            3 
  796000    1.1190557   -7.2001912    308.67938  0.032315681  0.032883981            2 
  797000    1.1341327   -7.2550047    306.08367  0.032003729  0.032874316            3 
  798000    1.1426719   -7.2605664    306.58882  0.032016376  0.032864241            2 
  799000    1.1156233    -7.231998    306.90249  0.032009021  0.032854505            1 
  800000    1.1324208   -7.2368282    307.01956  0.031981204  0.032844532            3 
  801000    1.1337952   -7.2408026     307.4601   0.03198711  0.032834502            2 
  802000    1.1394861   -7.2774072    307.55324  0.031956904  0.032824225            1 
  803000    1.1359291   -7.2544715    308.17565  0.031981699  0.032813936            2 
  804000    1.1138886   -7.2713525    308.91348  0.032018395   0.03280404            2 
  805000     1.131558    -7.277678    308.94579  0.031981965  0.032793725            2 
  806000    1.1100894   -7.2442981    309.32883  0.031981889  0.032783758            1 
  807000    1.1262663    -7.304847    309.23776  0.031932854  0.032774121            1 
  808000    1.1321315   -7.2529807    310.03922  0.031975992  0.032764495            2 
  809000    1.1248422   -7.2874675    309.35165  0.031865642  0.032754851            1 
  810000    1.1319109   -7.2140063    311.80476  0.032078679  0.032745715            1 
  811000    1.1339616   -7.2244233    312.10672  0.032070152  0.032736516            1 
  812000    1.1261355   -7.3164531    311.36713  0.031954755  0.032727337            1 
  813000    1.1201269   -7.2757428    311.62906  0.031942298  0.032718017            3 
  814000    1.1351503   -7.2573745    313.31255  0.032075404  0.032708625            2 
  815000    1.1387573   -7.2436908    312.54933  0.031958009   0.03269892            1 
  816000    1.1234631   -7.2672564    313.37597  0.032003265    0.0326895            3 
  817000    1.1308228   -7.2482077    312.85168  0.031910616  0.032679752            1 
  818000    1.1268766   -7.2427569    313.69124  0.031957135  0.032670409            1 
  819000    1.1289774    -7.297479    314.17264  0.031967098   0.03266121            2 
  820000    1.1198363   -7.2498875    314.82965  0.031994883  0.032652281            2 
  821000    1.1158385   -7.2742435    315.81792  0.032056224  0.032643365            1 
  822000    1.1332313   -7.2745041    315.93188   0.03202878  0.032634466            1 
  823000    1.1424187   -7.2855584    315.78798  0.031975291  0.032625415            1 
  824000    1.1348767   -7.2692879    316.23062  0.031981252  0.032616447            2 
  825000     1.102505   -7.2669108    316.70152  0.031990052  0.032607697            1 
  826000    1.0928689   -7.3099512    315.59842  0.031840034  0.032598519            1 
  827000    1.1155204   -7.2891783    316.56376  0.031898807  0.032589321            4 
  828000    1.1023718   -7.2825252    316.78172  0.031882218   0.03258036            1 
  829000    1.1040677   -7.2890044    317.32023  0.031897892  0.032571289            2 
  830000    1.1206748   -7.2342445     318.6604  0.031994016  0.032562524            2 
  831000    1.1155781   -7.2358875    318.40191  0.031929594  0.032553848            3 
  832000    1.1255319   -7.2857028    318.51134  0.031902177  0.032545194            1 
  833000    1.0906227   -7.2637263    317.94928  0.031807651  0.032536121            1 
  834000    1.1335721   -7.2605523    320.08175  0.031982589  0.032527331            2 
  835000    1.0931462   -7.2718352    319.58025  0.031894237  0.032518172            2 
  836000    1.1145219   -7.2520658    320.08573  0.031906472  0.032509255            1 
  837000     1.085717   -7.2741025    319.40158  0.031800237   0.03250027            2 
  838000    1.1226581   -7.2755791    320.34115  0.031855723  0.032491288            2 
  839000     1.106023   -7.2602537    320.18789  0.031802532  0.032482301            1 
  840000    1.1231838   -7.2847501     319.8984  0.031735953  0.032473526            2 
  841000    1.1149403    -7.281161    321.09031  0.031816321  0.032464618            2 
  842000    1.1498859   -7.2621588     321.4129  0.031810462  0.032455696            2 
  843000    1.1114428   -7.2630771    320.80113  0.031712251  0.032446732            1 
  844000    1.1295162    -7.252616    322.65959  0.031858174  0.032437789            1 
  845000    1.1210747   -7.2474534    321.60487  0.031716456  0.032428839            1 
  846000    1.1131627   -7.2928822    322.77907  0.031794629  0.032419819            2 
  847000    1.1149452   -7.2407933    322.63958  0.031743367  0.032411198            1 
  848000    1.1182824   -7.3094601    322.01442  0.031644498  0.032402357            2 
  849000     1.145616   -7.2585666    323.52782  0.031755774  0.032393595            2 
  850000    1.1149793    -7.243288    325.05613  0.031868248  0.032384943            2 
  851000    1.1126936   -7.2872079     324.2873  0.031755513  0.032376516            5 
  852000    1.1152114    -7.235991     325.6058  0.031847203  0.032368185            3 
  853000    1.1071749   -7.3007352    325.45844  0.031795471  0.032359481            1 
  854000    1.1364428   -7.2694414    326.61595  0.031871189  0.032351163            2 
  855000    1.1400212    -7.262812    326.25584  0.031798814  0.032342908            1 
  856000    1.1233783   -7.2974973    326.48198  0.031783682  0.032334631            4 
  857000    1.1088012   -7.2813415    327.70681  0.031865695  0.032326269            1 
  858000    1.1197907   -7.2235589    327.31939  0.031790927  0.032318106            1 
  859000    1.1091416   -7.2996167    328.19206  0.031838578  0.032309955            2 
  860000    1.1046974   -7.3002962    327.61751  0.031745883  0.032301765            2 
  861000    1.0961964    -7.212974    329.21506  0.031863634  0.032293355            1 
  862000    1.1074677   -7.2667872    328.97481  0.031803443  0.032285208            2 
  863000    1.0999169   -7.2890554    328.32022  0.031703381  0.032276992            2 
  864000    1.1121558   -7.2901997    329.02099  0.031734277  0.032268634            1 
  865000    1.1160512   -7.2972885    328.04491  0.031603555   0.03226005            1 
  866000    1.1121395   -7.2397891    330.49058  0.031802404  0.032251363            2 
  867000    1.1150313   -7.2699792    329.74551  0.031694109  0.032242659            1 
  868000    1.0973224   -7.2734589     328.8681  0.031573358  0.032233663            3 
  869000    1.1018486   -7.2888386     329.2291  0.031571644  0.032225049            2 
  870000    1.1100873   -7.2786667    329.77046  0.031587209  0.032216572            1 
  871000    1.1462057   -7.2664798    331.03809  0.031672224  0.032207932            1 
  872000    1.1187769   -7.2859624    332.09391  0.031736803  0.032199385            2 
  873000    1.1401648   -7.2466009     332.3714  0.031726938  0.032191215            2 
  874000    1.0948809   -7.2700159    330.75747  0.031536753   0.03218279            2 
  875000    1.1126814   -7.2637887    332.35471  0.031652829  0.032174198            1 
  876000     1.104386   -7.2898243    331.18838  0.031505744  0.032165564            1 
  877000    1.0997779   -7.2925254    332.16147  0.031562283  0.032156834            4 
  878000    1.1007676   -7.3136252    332.37799  0.031546886  0.032147991            2 
  879000    1.1211367   -7.3000119    332.77209  0.031548359  0.032139144       -1e+20 
  880000    1.1280874   -7.2783533    332.48647  0.031485462  0.032130165            1 
  881000    1.1207862   -7.2828974    332.78925  0.031478363  0.032121323            2 
  882000    1.0921051   -7.2940286     333.1173  0.031473667  0.032112545            1 
  883000    1.1070979   -7.3062461    333.55492  0.031479324  0.032103812            2 
  884000    1.1108474   -7.2715116    334.71939  0.031553487  0.032095071            2 
  885000    1.1030355   -7.2984846    334.24296  0.031472972   0.03208654            1 
  886000    1.1225407   -7.2739003    335.80368  0.031584244  0.032078075            2 
  887000    1.1016309   -7.2522704    335.90521  0.031558175  0.032069587            1 
  888000    1.1159475    -7.273471    336.42753  0.031571653  0.032061131            1 
  889000      1.11099   -7.2849086    335.99403  0.031495503  0.032052699            1 
  890000    1.1197217   -7.2531223    336.77438  0.031533181  0.032044206            2 
  891000     1.105493   -7.3206296    336.65065  0.031486219  0.032035952            3 
  892000    1.0855866   -7.2682402    338.46705  0.031620614  0.032027844            3 
  893000    1.1274853   -7.2759596      337.654  0.031509332  0.032020075            3 
  894000    1.1204462   -7.2615359    337.36468  0.031447117   0.03201206            3 
  895000    1.1021809   -7.3147047    338.61876  0.031528748  0.032004062            3 
  896000    1.1049895   -7.2762682    339.81125  0.031604469  0.031995977            1 
  897000    1.0982597   -7.3049268    339.18233  0.031510808   0.03198806            2 
  898000    1.1260883    -7.276798    339.83291   0.03153609  0.031980052            1 
  899000    1.1167708   -7.2962112    340.42967  0.031556329  0.031972142            1 
  900000    1.1247139   -7.2852425    339.66937  0.031450867  0.031964106            2 
  901000    1.1184498   -7.2841172     340.7367  0.031514678  0.031956162            1 
  902000    1.1198986    -7.350151    340.11247  0.031422069  0.031948033            3 
  903000    1.1112968   -7.2843684    341.92935  0.031554942  0.031940146            2 
  904000    1.1005716   -7.2826439    341.14802  0.031448011  0.031932567            1 
  905000    1.0983213   -7.3094182    341.08713  0.031407654  0.031924759            2 
  906000    1.1110776   -7.3203613    342.13717   0.03146957  0.031916721            2 
  907000    1.1172667    -7.290483    342.71094  0.031487591  0.031908776            2 
  908000    1.0990092   -7.3052651    342.44049  0.031428092   0.03190056            2 
  909000    1.1183736   -7.2717715     342.9358  0.031438925   0.03189238            2 
  910000    1.1006795   -7.3018789    342.52455  0.031366717  0.031884155            1 
  911000    1.0947346   -7.3132739    342.96992  0.031373026  0.031876162            1 
  912000    1.0953763   -7.2973538    343.07471  0.031348201  0.031868418            3 
  913000    1.1075922   -7.2794526    344.40163  0.031434979  0.031860412            1 
  914000     1.109265   -7.3213846    343.84451  0.031349791  0.031852612            2 
  915000    1.0918767   -7.2835207    345.96137  0.031508321  0.031844647            6 
  916000    1.1045848   -7.2964004    345.16185  0.031401187  0.031836844            1 
  917000     1.106226   -7.2955985     345.8999  0.031434015  0.031828936            3 
  918000    1.1131737   -7.2889463    346.15096  0.031422564  0.031821386            2 
  919000    1.0792098    -7.290586    346.76207  0.031443786  0.031813553            2 
  920000    1.0889286    -7.302811    346.32939  0.031370416  0.031805583            4 
  921000    1.1025542   -7.2828332    347.24379  0.031419091  0.031797477            2 
  922000    1.1390864   -7.2797295    348.11097  0.031463392  0.031789769            2 
  923000     1.100469   -7.2711238     347.3186  0.031357765  0.031782038            2 
  924000    1.0932751   -7.3012818     347.4451  0.031335236  0.031774216            3 
  925000    1.1086602   -7.2870549    348.54018  0.031400017  0.031766193            2 
  926000    1.1103484    -7.277144    348.72392  0.031382642  0.031758142            2 
  927000    1.0889823   -7.2953396    347.50611  0.031239312  0.031750264            1 
  928000     1.098173   -7.3214943    347.97304  0.031247579   0.03174184            2 
  929000    1.1260771   -7.3035602    347.78986  0.031197512  0.031733313            2 
  930000    1.0960481   -7.3041552    347.17874  0.031109206  0.031724566            1 
  931000    1.1455182   -7.2746001    349.85069  0.031314956  0.031716426            2 
  932000    1.1339933   -7.3075184    347.89706  0.031106676  0.031708268            1 
  933000    1.1016481   -7.3121761    349.91928  0.031253955  0.031700133            2 
  934000    1.1137976   -7.3041682    349.48131  0.031181416  0.031692032            2 
  935000      1.10479   -7.2706328    350.90885  0.031275298  0.031683985            1 
  936000    1.1165546   -7.2958831    350.29773  0.031187476  0.031675914            1 
  937000    1.0950558   -7.2782047    350.38412  0.031161874   0.03166775            1 
  938000    1.0779344   -7.3039169    350.82185  0.031167542  0.031659381            2 
  939000    1.0865171   -7.3101635    350.11188  0.031071342  0.031650818            2 
  940000    1.0917365   -7.2436137    352.36648  0.031238163  0.031642562            2 
  941000     1.115886   -7.2921796    351.92694  0.031166042   0.03163425            2 
  942000    1.1096989   -7.3073859    351.12711    0.0310622  0.031625675            2 
  943000    1.0917113   -7.3292425    350.78759  0.030999257  0.031617067            2 
  944000     1.080438    -7.280959    351.84986  0.031060192  0.031608371            2 
  945000    1.0975628   -7.2886818    353.25508  0.031151242  0.031599985            3 
  946000    1.1138553   -7.3479441    352.34686  0.031038307  0.031591404            2 
  947000    1.1237627   -7.2902461    352.61343  0.031028989  0.031582913            2 
  948000    1.0789792   -7.2485255    354.80334  0.031188761   0.03157462            1 
  949000    1.0726821   -7.2893036    353.81501  0.031069108  0.031566238            1 
  950000    1.1139163   -7.3395816    353.73074  0.031029012  0.031557663            1 
  951000    1.1088301   -7.3086317    353.70948  0.030994522  0.031549026            2 
  952000    1.0918884   -7.3042392    354.52623  0.031033459  0.031540219            2 
  953000    1.0980758   -7.2945222    355.90824  0.031121742  0.031531805            1 
  954000     1.084933   -7.2875852    354.39491  0.030956927  0.031523458            1 
  955000    1.0823121   -7.3211083    355.04589  0.030981317  0.031514888            2 
  956000     1.091443   -7.3303848    356.40963  0.031067785  0.031506448            3 
  957000     1.093694   -7.3192946    356.02943  0.031002214  0.031498149            2 
  958000    1.1158789   -7.3072318     357.1975   0.03107146  0.031490122            2 
  959000    1.0908209   -7.3619162    355.91907  0.030927969  0.031481552            3 
  960000    1.1024784   -7.2987601    356.53931  0.030949593  0.031472985            1 
  961000    1.0849803   -7.3288629    357.09505  0.030965578  0.031464487            1 
  962000    1.0780323   -7.3154494    356.67104   0.03089666  0.031455963            2 
  963000    1.0911667   -7.3242026    358.54121  0.031026411  0.031447415            3 
  964000    1.0845891    -7.361385    358.27417  0.030971142  0.031438827            1 
  965000    1.0977722   -7.3270396    357.77507  0.030895947  0.031430469            3 
  966000    1.1075107   -7.3379978    357.83542   0.03086917   0.03142198            1 
  967000     1.118023   -7.3151485    358.51397  0.030895723  0.031413422            1 
  968000    1.1085771    -7.357213    358.52261  0.030864549   0.03140441            2 
  969000    1.0785879   -7.3218256    358.35073  0.030817916  0.031395552            1 
  970000    1.1149363   -7.2892153    359.36729  0.030873478  0.031386721            3 
  971000    1.1212318   -7.3186058    359.99415  0.030895481  0.031378061            4 
  972000    1.0798758   -7.2727631     359.2543  0.030800266  0.031369286            1 
  973000    1.1011709   -7.2989566    359.43749    0.0307843  0.031360517            2 
  974000    1.0799486   -7.3345364     360.0345  0.030803773  0.031351614            2 
  975000      1.10231   -7.3463988    360.05946  0.030774313  0.031342579            2 
  976000    1.1071622    -7.367839    359.30012  0.030677947  0.031333668            2 
  977000    1.0973953   -7.3358564    360.89046  0.030782195  0.031324829            3 
  978000    1.1028648   -7.3073904    362.03622  0.030848348  0.031316295            1 
  979000    1.1094149   -7.3337402    360.27453  0.030666882  0.031307796            1 
  980000    1.0828362    -7.303284    362.27509  0.030805705  0.031299227            2 
  981000    1.0972662    -7.363737    362.05773  0.030755839  0.031290329            1 
  982000    1.1242497   -7.3331006    361.63279  0.030688458  0.031281492            2 
  983000     1.102038   -7.3009929    362.76238  0.030752999  0.031272801            1 
  984000    1.0890882   -7.3124282    363.98971  0.030825687  0.031264183            4 
  985000    1.1099032   -7.3087536    364.42864  0.030831527  0.031255716            2 
  986000    1.1189364   -7.2876485    363.14188  0.030691505  0.031247017            2 
  987000    1.1025724   -7.3086592    364.58277  0.030782064  0.031238494            1 
  988000    1.0873324   -7.2846001     365.2089   0.03080372  0.031230239            4 
  989000    1.0845917    -7.278269     364.4303  0.030706969  0.031222118            2 
  990000    1.0910991   -7.3261198     364.5313  0.030684453  0.031213717            1 
  991000    1.1050401   -7.2865285    365.95834   0.03077349  0.031205377            1 
  992000    1.0851409   -7.3591914    365.43545  0.030698542  0.031197105            1 
  993000    1.0520731   -7.3207411    365.84896  0.030702329   0.03118864            1 
  994000    1.1258989    -7.309629    366.18197  0.030699361  0.031180354            6 
  995000    1.0986546   -7.3151596    366.20181  0.030670169  0.031172011            2 
  996000    1.1140915   -7.3371984    366.56494  0.030669758  0.031163799            1 
  997000    1.0918974   -7.3221365    367.92776  0.030752905   0.03115528            2 
  998000    1.1045126   -7.3316652    367.06928  0.030650407   0.03114705            1 
  999000    1.1058468   -7.3496499    367.27346  0.030636759  0.031138719            2 
 1000000     1.088514   -7.3271381    367.89774  0.030658145  0.031130423            4 
 1001000    1.0914255    -7.328258    368.99081  0.030718516   0.03112225            2 
 1002000    1.0892523   -7.3180227    369.19942  0.030705208  0.031114011            2 
 1003000    1.0750032    -7.323257    369.43756   0.03069438  0.031105813            3 
 1004000    1.0938794   -7.3308648    369.43903   0.03066393  0.031097647            1 
 1005000     1.090719   -7.3289304    369.31038  0.030622751  0.031089543       -1e+20 
 1006000    1.0880985   -7.3030315    370.15313  0.030662122   0.03108125            2 
 1007000    1.1102633   -7.3220705    370.44827  0.030656096  0.031072995            2 
 1008000    1.0786772   -7.3402442    370.53138  0.030632554  0.031064713            2 
 1009000    1.0767656   -7.3090269    371.22252  0.030659276  0.031056683            2 
 1010000    1.0865628   -7.3272961     371.7988  0.030676469   0.03104858            3 
 1011000    1.0834425     -7.36436    372.00001  0.030662711  0.031040553            3 
 1012000    1.0896484   -7.3429591    371.94386  0.030627789  0.031032578            1 
 1013000    1.0912856   -7.3387792    372.36156  0.030631915  0.031024469            1 
 1014000    1.1130392   -7.3467406    371.70417   0.03054768  0.031016038            2 
 1015000    1.0984495   -7.3461417     371.2674  0.030481724  0.031007709            2 
 1016000    1.0940925   -7.3240066    373.42836  0.030628967  0.030999676            1 
 1017000    1.0931396   -7.2915259    373.44432  0.030600157  0.030991666            2 
 1018000    1.1041612   -7.3732737    372.05784  0.030456601  0.030983631            2 
 1019000    1.0713714   -7.3788369    372.32839  0.030448838  0.030975273            1 
 1020000    1.0699873   -7.3490817    373.78882  0.030538302  0.030966978            1 
 1021000    1.0900685   -7.3295795    374.80137  0.030591036   0.03095879            1 
 1022000     1.067881   -7.3540437    373.93357  0.030490343  0.030950631            3 
 1023000    1.0889452   -7.3700959      374.003  0.030466194  0.030942341            1 
 1024000    1.0873958   -7.3496654    375.35059  0.030546109  0.030933738            1 
 1025000    1.1103919   -7.3115715    374.91075  0.030480549  0.030925218            1 
 1026000    1.0699575   -7.3199534    375.46485  0.030495846  0.030916614            4 
 1027000    1.0600568    -7.367215    374.84162  0.030415581  0.030908171            2 
 1028000    1.0819853   -7.3184719    375.56969  0.030445014  0.030899759            4 
 1029000    1.0778841    -7.338949    376.21165  0.030467415    0.0308912            3 
 1030000    1.0968993   -7.3406071    376.23546  0.030439762  0.030882614            1 
 1031000    1.0671262   -7.3323381    376.73459  0.030450581  0.030874146            1 
 1032000    1.0784472   -7.3757479    375.55149   0.03032554  0.030865731            2 
 1033000    1.0863267   -7.3585167    376.98268  0.030411639  0.030857448            2 
 1034000    1.0855774   -7.3296565    377.68522  0.030438847    0.0308492            1 
 1035000    1.0863823   -7.3391402    377.74793  0.030414487  0.030841006            3 
 1036000     1.093461   -7.3453602     378.1264  0.030415573  0.030832686            2 
 1037000    1.0694749   -7.3424138    377.96737  0.030373463  0.030824429            1 
 1038000     1.075521   -7.3066395    378.54863  0.030390866  0.030815989            1 
 1039000    1.0988017   -7.3443951    379.40928  0.030430645  0.030807724            2 
 1040000    1.0856799   -7.3281978    379.59031   0.03041589  0.030799601            3 
 1041000    1.0942804   -7.3950705    378.78054  0.030321849  0.030791452            1 
 1042000    1.0872039   -7.3320874    380.16022  0.030403088  0.030783217            1 
 1043000    1.0841893   -7.3473989    379.56908  0.030326708  0.030775114            2 
 1044000    1.0929883   -7.3485517    380.27148  0.030353726  0.030767073            4 
 1045000    1.0682727   -7.3753561    380.97041  0.030380416  0.030759059            1 
 1046000    1.0841425   -7.3494812     380.6755  0.030327876  0.030751019            3 
 1047000    1.0780246   -7.3544685    381.89886   0.03039628  0.030743229            2 
 1048000     1.070872   -7.3474538    382.51515  0.030416281  0.030735716            3 
 1049000      1.09282   -7.3111145    383.49621  0.030465222  0.030727969            1 
 1050000    1.0812092   -7.3112959    384.61154  0.030524725  0.030720753            1 
 1051000    1.0855573   -7.3216946    384.11359    0.0304562  0.030713664            2 
 1052000    1.0992278   -7.3182186    384.91022  0.030490353  0.030706639            1 
 1053000    1.0768264   -7.3058173    385.25582  0.030488748  0.030699553            1 
 1054000    1.1079498   -7.3856462    385.68753  0.030493954  0.030692646            1 
 1055000    1.0948601   -7.3543795    384.94597  0.030406475   0.03068568            2 
 1056000    1.0850851   -7.3538203    386.37291  0.030490287  0.030678485            3 
 1057000    1.0793698   -7.3410583    385.59332  0.030399978  0.030671372            1 
 1058000     1.067666   -7.3256465    388.40491  0.030592699  0.030664472            2 
 1059000    1.0838684   -7.3491502    387.26018  0.030473732  0.030657734            1 
 1060000    1.0682475   -7.3770066    387.64489  0.030475227  0.030650895            2 
 1061000    1.0839087    -7.344274    387.29314  0.030418877  0.030643745            2 
 1062000    1.1092601   -7.3596242    387.25268  0.030387059  0.030636801            1 
 1063000    1.0697978   -7.3028219    388.37638  0.030446565  0.030629677            1 
 1064000    1.1038369   -7.3508315    388.40949  0.030420543  0.030622882            2 
 1065000    1.0978101   -7.3551814    389.18347   0.03045254   0.03061608            1 
 1066000    1.0724418   -7.3507565    389.56648  0.030453915  0.030608956            3 
 1067000    1.0996846   -7.3559479    389.05774  0.030385641  0.030601979            4 
 1068000    1.0703095   -7.3951117    388.30904   0.03029877  0.030595006            1 
 1069000    1.0773184   -7.3338761    390.77224  0.030462445  0.030588012            2 
 1070000     1.070683    -7.386015    390.02945  0.030376126  0.030581188            2 
 1071000    1.0834897   -7.4022619    389.73934   0.03032519  0.030573966            1 
 1072000    1.0857702   -7.3398791    390.83465  0.030382047  0.030566851            1 
 1073000    1.0683846   -7.3634797    390.46044  0.030324669  0.030559601            2 
 1074000    1.0673388   -7.3656107    390.46583  0.030296852   0.03055225            5 
 1075000    1.0696557   -7.3418536    391.90241  0.030380032  0.030545056            2 
 1076000    1.1036593   -7.3563238    391.13468  0.030292339  0.030537891            1 
 1077000    1.0673137    -7.328449    390.86799  0.030243577  0.030530714            2 
 1078000    1.0852827   -7.3593628    391.33176  0.030251373  0.030523448            5 
 1079000     1.051406   -7.3721123    391.06928  0.030203065  0.030516051            1 
 1080000    1.0735461   -7.3914768    390.81398    0.0301554  0.030508597            1 
 1081000    1.0709508    -7.355881    393.78693  0.030356686   0.03050128            2 
 1082000     1.078203   -7.3658452    393.58797  0.030313306  0.030494168            1 
 1083000    1.0823619   -7.3846139    392.08139   0.03016939   0.03048682            4 
 1084000    1.0616068   -7.3913844    392.28512   0.03015722  0.030479596            2 
 1085000    1.0927763   -7.3494733    393.27616  0.030205543  0.030472369            1 
 1086000    1.0844443   -7.3692073    394.47924  0.030270046  0.030465103            1 
 1087000    1.0829356   -7.3685006    393.53429  0.030169755  0.030457929            2 
 1088000    1.0893874   -7.3816452    394.45906  0.030212857  0.030450633            2 
 1089000    1.0499874   -7.3847797    393.77299  0.030132613  0.030443275            1 
 1090000    1.0754729   -7.3665424    395.16423  0.030211333  0.030436032            1 
 1091000    1.0871952   -7.3588144    394.42703  0.030127332  0.030428617            1 
 1092000    1.0584706   -7.3692683    395.35677  0.030170694   0.03042127            2 
 1093000    1.0828336   -7.3429771    395.61013  0.030162407  0.030413832            1 
 1094000    1.0735195    -7.359214    396.00491  0.030164908  0.030406506            4 
 1095000    1.0656396   -7.3411087    396.11191  0.030145503  0.030399257            2 
 1096000    1.0652954   -7.3715737    396.96252  0.030182673  0.030392028            2 
 1097000    1.0858973   -7.3112275    399.12947  0.030319771  0.030384941            2 
 1098000    1.0654081   -7.3825698    397.26619  0.030150743  0.030377842            1 
 1099000      1.06225   -7.3464667    397.26496  0.030123215   0.03037053            6 
 1100000    1.0638923   -7.3521537     396.9159  0.030069386  0.030363117            1 
 1101000    1.0744512   -7.3797423    396.61414  0.030019236  0.030355502            2 
 1102000    1.0663223   -7.3485254    397.86399  0.030086509  0.030347859            1 
 1103000    1.0743371   -7.3456229    397.56498  0.030036641  0.030340352            2 
 1104000    1.0830112   -7.3597797    396.90672  0.029959746  0.030332434            3 
 1105000     1.104803   -7.3560352    398.41448  0.030046341  0.030324407            1 
 1106000    1.0567138   -7.3433647    397.61529  0.029958958  0.030316299            3 
 1107000    1.0749335   -7.3757981    396.75314  0.029866993  0.030308155            2 
 1108000    1.0811676   -7.3151256    397.68917  0.029910437  0.030300009            2 
 1109000    1.0885134   -7.3940651    398.33843  0.029932254  0.030291747            3 
 1110000    1.0651289    -7.363026    398.44348  0.029913174  0.030283762            1 
 1111000    1.0827475   -7.3910548     398.4247  0.029884841  0.030275545            3 
 1112000    1.0737711   -7.3679429    397.23316  0.029768672  0.030267246            2 
 1113000    1.0719802   -7.3869299    397.58268  0.029768095  0.030258926            2 
 1114000    1.0750325   -7.3929066    398.59681  0.029817236  0.030250615            2 
 1115000    1.0852636   -7.3385841    400.43323  0.029927745  0.030242467            1 
 1116000    1.0805286   -7.3774615    398.56989   0.02976179   0.03023426            1 
 1117000     1.099908    -7.330459    400.88132  0.029907589  0.030225827            1 
 1118000    1.0650831   -7.3755995    398.84869   0.02972933  0.030217374            2 
 1119000     1.066168   -7.3929689    399.65289  0.029762652  0.030208915            1 
 1120000    1.1030034   -7.4124003    400.50216  0.029799268  0.030200628            2 
 1121000    1.0813033   -7.3934522      400.442  0.029768213  0.030192206            2 
 1122000    1.0633598   -7.3719699    400.24462  0.029727022  0.030183823            1 
 1123000    1.0861684   -7.3864421    401.56568  0.029798581  0.030175468            3 
 1124000     1.066833   -7.3678634    401.69512  0.029781667  0.030167228            1 
 1125000    1.0838847   -7.3518441    402.74082  0.029832653  0.030158933            2 
 1126000    1.0817901   -7.3704426    401.54445  0.029717618  0.030150673            2 
 1127000    1.0719662   -7.3686395     403.2789  0.029819499  0.030142339            1 
 1128000    1.0859795   -7.3732313    401.83822   0.02968663  0.030134105            1 
 1129000    1.0864219   -7.3888336    402.40101  0.029701876  0.030125898            1 
 1130000    1.0773996   -7.3885319    404.25323  0.029812185  0.030117627            2 
 1131000    1.0803603    -7.345267    403.36541   0.02972041  0.030109362            1 
 1132000    1.0736626   -7.3897041    401.44663  0.029552903  0.030100885            3 
 1133000    1.0866296   -7.3741269    403.24788  0.029659303  0.030092385            2 
 1134000    1.0705902   -7.3928814     404.3655  0.029715278  0.030084091            1 
 1135000    1.0642354    -7.362114    403.98261  0.029660985    0.0300758            1 
 1136000    1.0748821    -7.356408    405.09379  0.029716387  0.030067408            1 
 1137000    1.0644024    -7.387574    403.74133  0.029591127  0.030059031            2 
 1138000    1.0703663   -7.3442288    404.56729  0.029625607  0.030050538            2 
 1139000    1.0805655   -7.3718746    405.70337  0.029682717  0.030042156            1 
 1140000    1.0704366   -7.4036177    405.03761  0.029608012   0.03003384            3 
 1141000    1.0256886   -7.3806075    404.89897  0.029571937  0.030025408            1 
 1142000    1.0738541   -7.3736971    406.32465  0.029650077  0.030017042            3 
 1143000    1.0831476   -7.3652369    406.91218  0.029666971   0.03000881            1 
 1144000     1.078379   -7.3577348    405.74775  0.029556217  0.030000579            1 
 1145000    1.0672529   -7.3970133    406.80996  0.029607712  0.029992378            1 
 1146000    1.0697314   -7.3736611    407.53756  0.029634785  0.029984091            1 
 1147000    1.0638395   -7.3529016     408.6336  0.029688579  0.029976243            2 
 1148000    1.0731872    -7.379123     408.8728  0.029680081  0.029968399            1 
 1149000    1.0961781   -7.3460561    409.16755  0.029675627  0.029960308            3 
 1150000    1.0759675   -7.3334802    409.24668  0.029655556  0.029952358            3 
 1151000    1.0526131   -7.3990577    409.15749  0.029623334  0.029944259            2 
 1152000    1.0483135   -7.4041671    409.19843  0.029600581  0.029936216            1 
 1153000    1.0956651   -7.3904989    408.03681  0.029490952  0.029927993            1 
 1154000    1.0499864     -7.39394    408.79929  0.029520457  0.029919764            2 
 1155000    1.0624572   -7.3914441    408.82765  0.029496944  0.029911418            1 
 1156000    1.0779828   -7.3872927    409.24683  0.029501646  0.029903127            2 
 1157000    1.0954436   -7.4172863    409.19519  0.029472428  0.029894801            3 
 1158000    1.0373226   -7.3878428    409.12407  0.029441859  0.029886482            2 
 1159000     1.039748   -7.3849777    409.95505  0.029476204  0.029878301            1 
 1160000    1.0614569    -7.384448    410.26626  0.029473151  0.029869889            1 
 1161000    1.0394762   -7.3928176    411.45791  0.029533298  0.029861768            2 
 1162000    1.0870669   -7.3971566    410.92037  0.029469332  0.029853612            2 
 1163000     1.057787   -7.4037171    409.83405  0.029366154  0.029845239            2 
 1164000    1.0527875    -7.426418    410.14447  0.029363149   0.02983666            1 
 1165000    1.0605946   -7.3813334     414.0464  0.029617053  0.029828277            1 
 1166000    1.0552594    -7.377013    411.78843  0.029430276  0.029820183            2 
 1167000    1.0520435   -7.3965354    412.55102  0.029459513  0.029811869            2 
 1168000    1.0764757     -7.35041     413.9597  0.029534796  0.029803768            2 
 1169000    1.0549906   -7.3974101    412.35005  0.029394786  0.029795644            2 
 1170000    1.0506611   -7.3836428    414.14352  0.029497401  0.029787672            2 
 1171000    1.0641157   -7.3892586    412.07137  0.029324749  0.029779628            2 
 1172000    1.0620132   -7.4226115    412.45902  0.029327291  0.029771328            4 
 1173000    1.0388577   -7.3570201    413.97383  0.029409906  0.029762909            2 
 1174000    1.0326351   -7.4261592    412.51915  0.029281598   0.02975465            2 
 1175000    1.0467455   -7.4015755    414.59576  0.029403955  0.029746399            2 
 1176000    1.0645112   -7.3863718    414.25179  0.029354577  0.029738356            1 
 1177000    1.0455723   -7.4235535    415.92882  0.029448373  0.029730208            3 
 1178000    1.0555614   -7.4188055     415.8899  0.029420621  0.029722073            2 
 1179000    1.0556403    -7.412971    414.96866  0.029330552  0.029713903            2 
 1180000    1.0343908   -7.3820431    416.57617  0.029419221  0.029706054            1 
 1181000    1.0600742   -7.3753244     418.0638  0.029499281  0.029698302            1 
 1182000    1.0745166    -7.414887    416.95068  0.029395846  0.029690533            1 
 1183000    1.0585885   -7.3801244    418.21705  0.029460204   0.02968271            1 
 1184000    1.0538847   -7.4355062    417.35511  0.029374656  0.029674878            1 
 1185000    1.0682815   -7.4181257    417.99864  0.029395122  0.029667132            1 
 1186000    1.0664478   -7.3749226    418.57773  0.029411026  0.029659533            1 
 1187000    1.0580267   -7.3896337    417.62902  0.029319645  0.029651779            1 
 1188000    1.0597559   -7.3920909     418.5849  0.029362016  0.029644011            2 
 1189000    1.0629659   -7.3804694    419.14561   0.02937662  0.029636328            5 
 1190000    1.0626286   -7.3886577     418.5199  0.029308116  0.029628537            4 
 1191000    1.0560814   -7.3531903    419.89223  0.029379529  0.029620979            1 
 1192000    1.0673218   -7.3893612     419.8663  0.029353069  0.029613404            1 
 1193000     1.080073   -7.3968999      419.673  0.029314962  0.029605808            2 
 1194000    1.0465198   -7.4185656    420.93363  0.029378394  0.029598319            2 
 1195000    1.0616644   -7.3941202    421.40229  0.029386492  0.029590768            1 
 1196000    1.0604006   -7.3870078    420.37922  0.029290637  0.029583218            2 
 1197000    1.0678981   -7.4018084    420.89774  0.029302265  0.029575696            1 
 1198000    1.0557707   -7.4319809    422.09565  0.029361133  0.029568218            2 
 1199000    1.0763329   -7.4149239    421.64913  0.029305611   0.02956091            4 
 1200000    1.0721707   -7.4012259    423.09104  0.029381323  0.029553711            3 
 1201000    1.0815315   -7.3943788      422.198  0.029294893  0.029546355            3 
 1202000    1.0441869   -7.3586737    424.59394  0.029436629  0.029538912            1 
 1203000    1.0441911   -7.4027278    423.15501  0.029312483  0.029531335            1 
 1204000    1.0501871   -7.3950932    423.94194  0.029342604   0.02952387            1 
 1205000    1.0891036   -7.4310507    423.04505  0.029256227  0.029516279            2 
 1206000    1.0620243   -7.4023318     424.0756  0.029303179  0.029508671            1 
 1207000    1.0533881   -7.3778726    425.20016  0.029356542  0.029501301            1 
 1208000    1.0491043   -7.3897517    424.85088  0.029308145  0.029493808            1 
 1209000    1.0646895   -7.4330844    425.02967  0.029296227  0.029486277            1 
 1210000    1.0860985   -7.3966907    425.34929  0.029294028  0.029478845            1 
 1211000    1.0486036   -7.4091767    425.10631  0.029253118  0.029471091            1 
 1212000    1.0431025   -7.3777918    427.12261  0.029367616  0.029463586            1 
 1213000    1.0447777   -7.3914913    426.05986  0.029270394  0.029456186            2 
 1214000    1.0496063   -7.4352968    426.28171  0.029261513   0.02944881            1 
 1215000    1.0525725   -7.4026202    427.96646  0.029352981  0.029441608            1 
 1216000    1.0431398   -7.3730456    428.90275  0.029393007  0.029434435            4 
 1217000     1.084724    -7.406361    427.50025  0.029272819  0.029427235            3 
 1218000    1.0462917   -7.3739266    428.17248  0.029294779  0.029419998            1 
 1219000    1.0631437   -7.4491997    427.44474  0.029220997  0.029412703            2 
 1220000    1.0666867   -7.4020181    427.90372  0.029228396  0.029405453            3 
 1221000    1.0369075   -7.4359308    427.12145  0.029151068  0.029398046            1 
 1222000    1.0466276   -7.4294468    426.95452  0.029115829  0.029390437            1 
 1223000    1.0513668   -7.3829384    429.19444  0.029244647   0.02938292            1 
 1224000    1.0411204   -7.4095952    428.65306  0.029183896  0.029375407            1 
 1225000    1.0545867    -7.434383    427.96407  0.029113202  0.029367827            3 
 1226000    1.0505989   -7.4198395    427.70214  0.029071652  0.029360099            2 
 1227000     1.051312   -7.3970804    429.16698  0.029147445  0.029352361            2 
 1228000    1.0644806   -7.4383234    428.33573    0.0290673  0.029344852            2 
 1229000    1.0553376   -7.4110339    429.74005   0.02913887  0.029337302            2 
 1230000    1.0414256   -7.4061893    429.39836   0.02909203  0.029329654            2 
 1231000    1.0602325   -7.4217219      429.663  0.029086312  0.029322001            2 
 1232000    1.0512721   -7.4168969    430.47623   0.02911771  0.029314446            2 
 1233000    1.0710215   -7.3949505     429.7563  0.029045438  0.029306768            1 
 1234000    1.0306473   -7.4103515    430.54743  0.029075326  0.029299126            1 
 1235000    1.0526483   -7.4252109     430.7538  0.029065708   0.02929153            2 
 1236000    1.0409428   -7.4666857    429.54507  0.028960698  0.029283863            1 
 1237000    1.0522432   -7.3717246    431.94982  0.029099287  0.029276185            2 
 1238000    1.0370545   -7.4343244    430.29671  0.028964506   0.02926851            2 
 1239000     1.066536   -7.4024365    430.78854  0.028974209  0.029260925            1 
 1240000    1.0475468   -7.4175867    433.05917  0.029103439  0.029253443            2 
 1241000    1.0297331   -7.4216611    431.68724  0.028987862  0.029246019            1 
 1242000    1.0721966   -7.4358066    432.75507   0.02903617  0.029238624            1 
 1243000    1.0353737   -7.4268673    432.58253  0.029001242  0.029231221            2 
 1244000     1.063096   -7.4388328    433.53601  0.029041802   0.02922379            1 
 1245000    1.0393915   -7.4111143    433.87322  0.029041045  0.029216627            1 
 1246000    1.0409527   -7.4120102    433.41986  0.028987417  0.029209514            3 
 1247000    1.0487544   -7.4225027    433.73494  0.028985227  0.029202179            1 
 1248000    1.0475036     -7.39083    435.13527  0.029055507  0.029195066            1 
 1249000    1.0553757   -7.4371233    434.50414  0.028990135  0.029187882            3 
 1250000    1.0602244   -7.4113241    435.19892  0.029013261  0.029180682            2 
 1251000    1.0713359   -7.4039982    434.61266  0.028951016  0.029173497            3 
 1252000    1.0588446   -7.4355385    436.15342  0.029030446  0.029166294            2 
 1253000    1.0490602   -7.3840072    437.08408  0.029069173  0.029159226            1 
 1254000    1.0394772   -7.3969913    437.64892  0.029083528  0.029152109            1 
 1255000     1.058572   -7.3992195    436.24867  0.028967375  0.029144768            2 
 1256000     1.046864   -7.4148421    436.02112  0.028929215  0.029137524            1 
 1257000    1.0529824   -7.3973023    436.67065  0.028949261  0.029130391            1 
 1258000    1.0347273   -7.3983066    437.88483  0.029006679  0.029123118            2 
 1259000    1.0618697   -7.3964902    437.28353  0.028943839  0.029115803            3 
 1260000    1.0391217   -7.3923763     438.5628  0.029005476  0.029108465            1 
 1261000    1.0392201   -7.4332153    438.72675  0.028993309  0.029101046            1 
 1262000    1.0513953   -7.4278259    436.45127  0.028820078  0.029093627            2 
 1263000    1.0572316   -7.4310115    437.85394  0.028889809  0.029086114            2 
 1264000    1.0498979   -7.4418919    437.67257  0.028854995  0.029078698            1 
 1265000    1.0530726    -7.425257    439.05939  0.028923543    0.0290712            3 
 1266000    1.0462657   -7.4199611    437.79111  0.028817214  0.029063868            2 
 1267000    1.0633995   -7.4181067    438.69183  0.028853711  0.029056645            2 
 1268000    1.0516917   -7.4306182    439.55318  0.028887564  0.029049391            2 
 1269000    1.0602027   -7.4192176    440.30907  0.028914438  0.029041997            2 
 1270000    1.0547344    -7.409501    439.21109  0.028819626   0.02903449            1 
 1271000    1.0296957   -7.3884842    439.82546  0.028837232  0.029026872            1 
 1272000    1.0706011   -7.4182914    440.06698  0.028830384   0.02901929            2 
 1273000    1.0372245   -7.4487633    438.49853  0.028705062  0.029011513            2 
 1274000    1.0607473   -7.4016925    440.43978   0.02880951  0.029003795            1 
 1275000    1.0657409   -7.4398137    439.09705  0.028699153  0.028996093            2 
 1276000    1.0472343   -7.4121919    440.31865  0.028756443    0.0289883            2 
 1277000    1.0665821   -7.4421023    439.83535  0.028702385  0.028980638            1 
 1278000    1.0621345    -7.444653    440.03964  0.028693247  0.028972947            3 
 1279000    1.0270963   -7.4771232    439.44372  0.028631986  0.028965283            2 
 1280000    1.0526086   -7.4211089      440.998  0.028710807  0.028957555            2 
 1281000    1.0673914   -7.4438773    440.48762  0.028655192  0.028949897            1 
 1282000    1.0490047   -7.4506608    440.96888  0.028664124  0.028942369            2 
 1283000    1.0441467   -7.4368122    441.29347  0.028662865  0.028934659            2 
 1284000     1.036422   -7.4236251    441.00548  0.028621851  0.028926979            2 
 1285000    1.0601193   -7.4391586    442.10246  0.028670717  0.028919206            2 
 1286000    1.0429644   -7.4390084    441.22025  0.028591255  0.028911339            3 
 1287000    1.0379122    -7.451951    442.08961  0.028625331  0.028903488            1 
 1288000    1.0502487   -7.4187133    442.25814   0.02861401  0.028895734            1 
 1289000    1.0405385   -7.4650175    442.31846  0.028595711  0.028887882            2 
 1290000    1.0223344   -7.4307509    443.05422  0.028621074   0.02888011            3 
 1291000    1.0539327   -7.4771313    442.61341   0.02857045  0.028872328            1 
 1292000    1.0255166   -7.3963585    444.63747  0.028678887  0.028864563            1 
 1293000    1.0380964   -7.4250847    444.14104  0.028624712  0.028856836            4 
 1294000    1.0482541   -7.4092606    445.51142  0.028690844   0.02884932            3 
 1295000    1.0470882   -7.4089916    445.16625  0.028646477  0.028841592            1 
 1296000    1.0664413   -7.4639802    445.21257  0.028627351  0.028834038            1 
 1297000    1.0392266   -7.4506745    444.74329  0.028575128  0.028826444            1 
 1298000    1.0399383   -7.4479049    446.98062  0.028696752  0.028818586            2 
 1299000    1.0452857   -7.4844662    444.38576  0.028508196  0.028810656            3 
 1300000    1.0595411   -7.4295821    445.65738  0.028567781  0.028802839            3 
 1301000    1.0584661   -7.4413209    446.17529  0.028578996  0.028795126            2 
 1302000    1.0431826   -7.4364242     446.2079  0.028559133  0.028787266            2 
 1303000    1.0357687    -7.466505    445.98774  0.028523135  0.028779492            2 
 1304000    1.0440475   -7.4520313    445.23985  0.028453467   0.02877153            1 
 1305000    1.0370175    -7.437035    445.20938  0.028429718  0.028763625            1 
 1306000    1.0159323    -7.444963    446.05612  0.028461978  0.028755757            2 
 1307000     1.017544   -7.4522183    447.13804  0.028509184  0.028747995            2 
 1308000    1.0401521    -7.408671    446.90269  0.028472394  0.028740298            2 
 1309000    1.0375895   -7.4219821    448.36546  0.028543765  0.028732587            1 
 1310000     1.027765   -7.4704779    447.38936  0.028459883  0.028724761            2 
 1311000    1.0458671   -7.4401016    447.53117  0.028447188  0.028716983            3 
 1312000    1.0620768   -7.4370297    447.69076  0.028435642  0.028709243            1 
 1313000    1.0258296   -7.4553071    448.59451  0.028471345  0.028701391            1 
 1314000     1.048027   -7.4631092    447.61668  0.028387664  0.028693503            6 
 1315000    1.0384822   -7.4138989    450.34531  0.028538993  0.028685849            2 
 1316000    1.0514414   -7.4340307    450.04714  0.028498426  0.028678347            1 
 1317000    1.0515633   -7.4426117    448.61489  0.028386161  0.028670742            1 
 1318000    1.0569963    -7.479397    449.31156  0.028408672  0.028663129            1 
 1319000    1.0424156   -7.4622089    448.68152  0.028347329  0.028655226            2 
 1320000    1.0691325   -7.4465998    449.46826  0.028375521  0.028647507            1 
 1321000    1.0411839   -7.4328805    449.79395  0.028374587  0.028639704            1 
 1322000    1.0381925   -7.4376048     449.6428  0.028343595  0.028631969            1 
 1323000    1.0567641   -7.5214717    448.65875  0.028260188  0.028623958            2 
 1324000    1.0551774   -7.4563982    449.41917  0.028286705  0.028615877            1 
 1325000    1.0383719   -7.4443246     451.7179  0.028409931  0.028607773            1 
 1326000    1.0236484    -7.449899    449.36639  0.028240723  0.028599759            3 
 1327000    1.0340122   -7.4545023    450.18437   0.02827081  0.028591759            2 
 1328000    1.0276198   -7.4534588    450.96851  0.028298727  0.028583877            1 
 1329000    1.0388166   -7.4565156    451.41221  0.028305255  0.028576045            2 
 1330000    1.0421746   -7.4391289    452.44984  0.028348987  0.028568215            1 
 1331000    1.0503858   -7.4665764    451.61554  0.028275453  0.028560374            3 
 1332000    1.0502178   -7.4465585    451.22728  0.028229935  0.028552587            3 
 1333000    1.0385048   -7.4496844    452.09498  0.028263002  0.028544692            3 
 1334000    1.0657196   -7.4623428    451.67958  0.028215866  0.028536952            2 
 1335000    1.0310848   -7.4487036    452.91702  0.028271974  0.028529125            1 
 1336000    1.0069682   -7.4654745    452.97699  0.028254553  0.028521338            2 
 1337000    1.0378119    -7.454945    452.40975  0.028198065  0.028513468            2 
 1338000    1.0506567   -7.5000998    453.13367  0.028222077  0.028505536            1 
 1339000    1.0475013   -7.4736885    453.66648   0.02823416  0.028497598            2 
 1340000    1.0770181   -7.4539542    454.50785  0.028265414  0.028489829            3 
 1341000    1.0389219   -7.4593173    452.72311  0.028133427  0.028481946            1 
 1342000    1.0277069   -7.4954957    453.56051  0.028164463  0.028474224            1 
 1343000     1.041103   -7.4467676    454.35614   0.02819286   0.02846632            2 
 1344000     1.048021   -7.4735739    454.40505  0.028174916    0.0284585            1 
 1345000    1.0531138   -7.4182987    455.79999  0.028240396  0.028450658            1 
 1346000    1.0411911   -7.4578086    455.88097  0.028224429   0.02844297            1 
 1347000    1.0192499   -7.4755457    454.67195  0.028128678  0.028435156            1 
 1348000    1.0459486   -7.4446494    456.16277  0.028199974  0.028427444            2 
 1349000    1.0415738   -7.4851791      456.104  0.028175439  0.028419732            2 
 1350000    1.0314161   -7.4746263    455.98955  0.028147503  0.028411981            1 
 1351000    1.0114308   -7.4373962      456.896  0.028182581  0.028404167            1 
 1352000    1.0547262   -7.4814665    455.46465  0.028073511  0.028396267            1 
 1353000    1.0309974   -7.4594035    457.08245  0.028152405   0.02838843            1 
 1354000    1.0249254   -7.4925756    455.29968  0.028021891  0.028380492            3 
 1355000    1.0192822   -7.4757145    456.58917  0.028080515  0.028372441            3 
 1356000     1.058268   -7.4879528    457.28768  0.028102734  0.028364419            3 
 1357000    1.0250858   -7.4365105    457.40686  0.028089343  0.028356405            1 
 1358000    1.0318595   -7.4727484    457.18727  0.028055183  0.028348437            2 
 1359000    1.0346826    -7.456094    458.15804  0.028094067  0.028340371            2 
 1360000    1.0479576   -7.4650928    458.04272  0.028066343  0.028332399            2 
 1361000    1.0627306   -7.4710495    458.55685  0.028077201  0.028324497            1 
 1362000    1.0209848   -7.4879509    458.73432  0.028067445  0.028316477            2 
 1363000    1.0357977    -7.487617    458.38997  0.028025799  0.028308458            3 
 1364000    1.0387027   -7.5007002    457.42941  0.027946567  0.028300446            4 
 1365000    1.0306148   -7.4853364    457.81923  0.027949892  0.028292389            3 
 1366000    1.0127301   -7.4683752    459.92283  0.028057762  0.028284381            2 
 1367000    1.0394986    -7.458562    459.54285  0.028014073  0.028276524            2 
 1368000    1.0187881   -7.4454148    460.01806  0.028022543  0.028268678            1 
 1369000    1.0424784   -7.4348335    460.40032  0.028025342  0.028260761            2 
 1370000    1.0125912   -7.4555388    460.02352  0.027981966  0.028252927            2 
 1371000    1.0459709   -7.4635179    461.08369  0.028025997  0.028245199            2 
 1372000    1.0145676   -7.4428588    459.82356  0.027929031  0.028237363            2 
 1373000    1.0268328   -7.4469042    461.04429  0.027982781  0.028229585            1 
 1374000    1.0375305   -7.4779706    460.40818  0.027923835  0.028221792            2 
 1375000    1.0331407   -7.4524179    461.51137  0.027970386  0.028213867            1 
 1376000    1.0364852   -7.4439475    461.68132  0.027960351  0.028206249            1 
 1377000    1.0295799   -7.4660371    461.37658  0.027921604  0.028198379            3 
 1378000     1.017942   -7.4823661     461.8406  0.027929402  0.028190492            2 
 1379000    1.0128176   -7.4583411    461.86858   0.02791084  0.028182587            3 
 1380000    1.0378331   -7.4322401    464.95243  0.028076837  0.028174816            3 
 1381000     1.035667   -7.4658896    464.57551  0.028033762    0.0281671            1 
 1382000    1.0094591   -7.4529118    463.42071  0.027943844  0.028159281            4 
 1383000    1.0348963    -7.457182    464.43003  0.027984456  0.028151579            4 
 1384000    1.0059873   -7.4510974    464.01494  0.027939243  0.028143946            1 
 1385000    1.0475871   -7.4506957    463.80597  0.027906497  0.028136206            2 
 1386000    1.0186459   -7.5053178    463.62689  0.027875594  0.028128439            2 
 1387000    1.0247079   -7.4428729     465.3513  0.027959102  0.028120688            1 
 1388000    1.0349015    -7.484267    465.25047  0.027932905   0.02811318            9 
 1389000    1.0218427   -7.4927045     463.9254  0.027833297  0.028105598            3 
 1390000    1.0184957   -7.4875056    465.18653  0.027888881  0.028098122            1 
 1391000     1.040108   -7.4780881    465.19627  0.027869414  0.028090716            2 
 1392000   0.99711793   -7.5166392    465.31587  0.027856553  0.028083142            1 
 1393000    1.0386281    -7.460531    465.85172  0.027868612  0.028075488            2 
 1394000    1.0369949   -7.4346297    466.71383  0.027900157  0.028067913            1 
 1395000    1.0471216   -7.4545025     466.4996   0.02786736  0.028060201            2 
 1396000    1.0259739   -7.4744779    466.03658  0.027819758  0.028052594            3 
 1397000    1.0194719   -7.5214128    466.96585  0.027855276  0.028044987            1 
 1398000    1.0370129   -7.4994908     466.3672  0.027799666  0.028037189            1 
 1399000     1.029427   -7.5093868    466.32893  0.027777515  0.028029501            2 
 1400000    1.0149655   -7.4547356    467.46089  0.027825053  0.028021814            2 
 1401000    1.0137949   -7.4780434    466.82509  0.027767374   0.02801416            5 
 1402000    1.0256669   -7.4694986    467.95833  0.027814927  0.028006549            2 
 1403000    1.0208689   -7.4642794    467.54254  0.027770405  0.027999009            1 
 1404000    1.0070798   -7.4607256    467.85236  0.027769015  0.027991467            1 
 1405000    1.0518179   -7.4594036    469.40928  0.027841594  0.027983957            4 
 1406000    1.0322492   -7.4823393    467.76253   0.02772419   0.02797635            2 
 1407000    1.0452497   -7.4947931    467.02294  0.027660681  0.027968567            1 
 1408000    1.0319866   -7.4700384    468.98814  0.027757347  0.027960805            1 
 1409000    1.0049989   -7.4808415    468.05867  0.027682675  0.027953049            1 
 1410000    1.0354857   -7.5167411    467.03018  0.027602257  0.027945235            3 
 1411000    1.0170196   -7.4381176    468.16212  0.027649547  0.027937404            2 
 1412000    1.0371762   -7.5039631    468.10829  0.027626787  0.027929489            1 
 1413000    1.0370496   -7.5465629    468.23326  0.027614606  0.027921598            1 
 1414000    1.0346536   -7.4564844    470.35652   0.02772021  0.027913767            1 
 1415000    1.0193717    -7.479504    469.29697   0.02763822  0.027905932            3 
 1416000    1.0317867   -7.4888717    469.88489  0.027653301  0.027897988            1 
 1417000    1.0206487   -7.5221434    469.83699  0.027630969  0.027890139            2 
 1418000    1.0381101   -7.4437317    469.79117   0.02760879  0.027882241            2 
 1419000    1.0565489   -7.4355694    470.59645  0.027636625  0.027874371            1 
 1420000     1.017397   -7.4427794    471.57123  0.027674368  0.027866529            2 
 1421000    1.0152202   -7.4964366    470.97247  0.027619779  0.027858673            1 
 1422000    1.0280583   -7.5064117    470.86978  0.027594338  0.027850781            1 
 1423000     1.016094   -7.4986681    470.49611  0.027553064  0.027842836            2 
 1424000    1.0444377    -7.470602    470.99809  0.027563091  0.027834792            2 
 1425000    1.0293008   -7.4924427    470.94296  0.027540524  0.027826871            2 
 1426000    1.0520751   -7.4934536    470.98214    0.0275235  0.027818902            2 
 1427000    1.0232828   -7.4787899     470.8065  0.027493956  0.027810818            2 
 1428000    1.0348416   -7.4522427    471.67295  0.027525265  0.027802799            2 
 1429000    1.0045381      -7.4565    472.74466  0.027568501  0.027794927            2 
 1430000    1.0397561   -7.4994437    471.13131  0.027455205  0.027786925            1 
 1431000    1.0325714   -7.4857057    472.57097  0.027519856  0.027778863            2 
 1432000    1.0117439   -7.4864531     472.3401  0.027487203  0.027770866            2 
 1433000     1.035163   -7.4820088    471.71538  0.027431692  0.027763012            4 
 1434000    1.0280847   -7.4619567    473.42916  0.027512155  0.027755081            1 
 1435000    1.0005581    -7.487811    472.65281  0.027447898   0.02774717            2 
 1436000    1.0268408   -7.5178643    471.36283  0.027353925  0.027739099            1 
 1437000    1.0359119   -7.5132816    473.59752  0.027464482  0.027731031            1 
 1438000    1.0259984   -7.5293803    472.94516  0.027407577  0.027722994            3 
 1439000    1.0076481   -7.4865475    474.71007  0.027490738  0.027714985            1 
 1440000    1.0259977   -7.4484088    473.61895  0.027408504  0.027707128            2 
 1441000    1.0029545   -7.4875862    473.71718  0.027395164  0.027699197            1 
 1442000    1.0116112   -7.5379023    473.31312  0.027352815  0.027691096            3 
 1443000    1.0175801   -7.4964724    475.37167  0.027452741  0.027683004            1 
 1444000    1.0580262   -7.4651035     475.8659  0.027462252  0.027675119            2 
 1445000    1.0201325   -7.4129093    476.44498  0.027476643  0.027667244            4 
 1446000     1.015315    -7.482568    475.25479   0.02738905  0.027659335            1 
 1447000   0.98713666   -7.5179915    474.93084  0.027351465  0.027651354            2 
 1448000    1.0453095   -7.4909068    475.30775  0.027354267   0.02764314            2 
 1449000    1.0271697   -7.5139165    473.63365   0.02723911  0.027635073            6 
 1450000    1.0366756   -7.4925077    476.22349  0.027369166  0.027627036            1 
 1451000    1.0100947   -7.5090996    475.97517  0.027336042  0.027619007            1 
 1452000    1.0171475   -7.4898069    476.63207  0.027354917   0.02761097            2 
 1453000    1.0184967   -7.4617122     477.6669  0.027395441  0.027603029            2 
 1454000    1.0110287   -7.4989982    477.18074  0.027348736  0.027594999            2 
 1455000     1.003051   -7.4859085    477.23561  0.027333082  0.027586993            1 
 1456000    1.0084402   -7.4785579     477.2444  0.027314812  0.027579054            3 
 1457000    1.0106271    -7.454682    478.26475  0.027354424  0.027571157            2 
 1458000    1.0108787   -7.5091468     478.3401  0.027339969  0.027563241            2 
 1459000    1.0055005    -7.502602    476.86445  0.027236946  0.027555165            1 
 1460000    1.0363464   -7.4932455    478.84345  0.027331247  0.027547288            2 
 1461000    1.0177891   -7.5282453    477.93139  0.027260517  0.027539429            3 
 1462000     1.010062   -7.5068224    477.86203  0.027237918  0.027531563            2 
 1463000    1.0238802   -7.4797825    479.74351   0.02732647  0.027523594            4 
 1464000    1.0158935   -7.4669319    479.72224  0.027306594  0.027515835            1 
 1465000    1.0469826   -7.4704305    478.11244  0.027196385  0.027508028            2 
 1466000    1.0090885   -7.5016125    480.17977  0.027295348  0.027500102            3 
 1467000    1.0092433   -7.4944563    479.19247  0.027220658  0.027492155            3 
 1468000    1.0170165    -7.534628    478.73978  0.027176418   0.02748416            2 
 1469000    1.0139813   -7.4918949    480.79114  0.027274287  0.027476222            6 
 1470000    1.0087033   -7.5234267    479.78381  0.027198629  0.027468325            2 
 1471000    1.0119035   -7.4921034    479.22804  0.027148654  0.027460322            2 
 1472000      1.04145   -7.5231275    479.99958  0.027173889  0.027452352            1 
 1473000    1.0140702   -7.4922322    479.93364  0.027151711  0.027444419            1 
 1474000    1.0219747   -7.5200416    479.99565  0.027136796  0.027436385            2 
 1475000    1.0261327   -7.5139403    479.24598  0.027076044  0.027428253            3 
 1476000    1.0002074   -7.5194353     480.7454  0.027142355  0.027420121            2 
 1477000    1.0126655   -7.5111939    481.14093  0.027146295  0.027412081            1 
 1478000    1.0210457   -7.5394931    480.59502  0.027097148  0.027403982            2 
 1479000    1.0099768    -7.499312     481.3295  0.027120211  0.027395876            1 
 1480000    1.0000956   -7.5125026    480.39908  0.027049497  0.027387854            2 
 1481000    1.0063698   -7.4935543     481.9149  0.027116526  0.027379787            2 
 1482000    1.0112755   -7.5078194    481.45395  0.027072309  0.027371715            2 
 1483000    1.0138013   -7.5258003    479.96876  0.026970598  0.027363487            2 
 1484000    1.0038841   -7.5215784    479.99543  0.026953921  0.027355259            2 
 1485000   0.99963107   -7.5347637    481.78747  0.027036334  0.027346874            1 
 1486000    1.0194006   -7.5121283    481.37458  0.026994985   0.02733853            1 
 1487000    1.0080143   -7.5068026    482.05287  0.027014844  0.027330304            1 
 1488000       1.0118   -7.4900723    482.68819  0.027032269  0.027322206            5 
 1489000     1.014014   -7.5149767    483.12273  0.027038434  0.027314253            2 
 1490000   0.99448185   -7.4992412    482.68809  0.026995978  0.027306274            1 
 1491000    1.0082366   -7.4919833    485.57311  0.027139119  0.027298212            1 
 1492000    1.0100989   -7.5325234    481.83266  0.026912012  0.027290123            2 
 1493000    1.0053371   -7.5350648    483.73932  0.027000408  0.027282067            2 
 1494000    1.0126422   -7.5138362    485.65682  0.027089292  0.027274029            1 
 1495000    1.0239774     -7.55698    481.80038  0.026856209   0.02726583            1 
 1496000    1.0157523   -7.5039571     483.7915   0.02694917  0.027257737            1 
 1497000    1.0177688   -7.5357367    484.56755  0.026974368  0.027249647            2 
 1498000   0.99324028   -7.5067982    484.78119  0.026968246  0.027241625            1 
 1499000    1.0033044   -7.4872774    483.87034  0.026899619  0.027233555            2 
 1500000     1.011173    -7.567165    484.51009  0.026917227  0.027225399            2 
 1501000     1.006468   -7.5054785    484.75078  0.026912657  0.027217384            2 
 1502000    1.0108589   -7.5067256    486.18387   0.02697425  0.027209317            3 
 1503000    1.0125582   -7.5495366    486.72558  0.026986337  0.027201231            2 
 1504000    1.0275671   -7.5042307    486.35573  0.026947902  0.027193115            1 
 1505000   0.98264307   -7.5274445     486.6885  0.026948422  0.027185126            2 
 1506000    1.0111835   -7.5201339    486.08309  0.026897028  0.027177013            1 
 1507000    1.0222906   -7.4994591    487.19846  0.026940857  0.027168977            2 
 1508000    1.0061253   -7.4854364    487.24017  0.026925297  0.027161081            2 
 1509000    1.0073361   -7.5038197    487.51195  0.026922462  0.027153062            1 
 1510000    1.0367497   -7.5105467    487.01907  0.026877432  0.027144996            1 
 1511000   0.99080815   -7.5006447     487.8959  0.026908002  0.027136884            2 
 1512000    1.0271895   -7.5413641    485.89537  0.026779948  0.027128833            2 
 1513000    1.0068766   -7.5327614    485.42773  0.026736491  0.027120598            2 
 1514000   0.99859754   -7.5098945    487.37066  0.026825774  0.027112362            3 
 1515000     1.027169     -7.55401    484.92392  0.026673483  0.027104128            3 
 1516000    1.0025457   -7.5339102    486.80325  0.026759194  0.027095828            1 
 1517000   0.99281422   -7.5561694    488.11333  0.026813521  0.027087494            2 
 1518000   0.99891552   -7.5552338    488.14356  0.026797517  0.027079347            3 
 1519000   0.99755564   -7.5307936     487.6761   0.02675423  0.027071249            2 
 1520000    1.0289855   -7.5283666    488.25121  0.026768158  0.027063237            2 
 1521000     1.004647   -7.5501982    488.02031  0.026737909  0.027055141            3 
 1522000    1.0022769   -7.5020591    489.43698  0.026797907  0.027047014            3 
 1523000    1.0139965   -7.4943567    489.41345  0.026779024  0.027038876            1 
 1524000   0.98824646    -7.503998    489.30653  0.026755606  0.027030808            3 
 1525000    1.0179227   -7.5496991    489.09541  0.026726525  0.027022753            3 
 1526000    1.0085699   -7.5471304    489.24527  0.026717195  0.027014735            2 
 1527000    1.0077289   -7.5276067    489.15949  0.026695017  0.027006742            2 
 1528000    1.0299659   -7.5521192    488.70566  0.026652795  0.026998798            2 
 1529000     1.007703   -7.4946542     490.8221  0.026750714  0.026990921            4 
 1530000    1.0149526   -7.5606006    490.13472  0.026695791  0.026983077            3 
 1531000    1.0055925   -7.5394535    491.50385  0.026752877  0.026975142            1 
 1532000    1.0258888   -7.4631001    492.30471  0.026778977  0.026967253            1 
 1533000    1.0074735   -7.5364834    492.17839  0.026754642  0.026959254            2 
 1534000    1.0292031   -7.5295497    490.45287  0.026643463  0.026951263            4 
 1535000    1.0163873   -7.5262801    492.26519  0.026724495  0.026943262            2 
 1536000   0.98879198   -7.5162782     491.4382  0.026662229  0.026935311            3 
 1537000    1.0161164   -7.5109394    492.69103  0.026712808  0.026927369       -1e+20 
 1538000    1.0071491   -7.5284734    493.06667  0.026715793  0.026919431            4 
 1539000    1.0167586   -7.5321183     493.2781  0.026709882  0.026911315            1 
 1540000    1.0346086   -7.4751578    494.00892  0.026732084  0.026903262            2 
 1541000    1.0105372   -7.5443478    492.82449  0.026650686  0.026895404            1 
 1542000   0.99569263   -7.5008847    494.13328  0.026704133  0.026887495            1 
 1543000    1.0116843   -7.5114621    493.27209  0.026640316  0.026879598            3 
 1544000    1.0255873   -7.5804028    492.67192  0.026590669  0.026871703            1 
 1545000    1.0127996    -7.520304    493.40605  0.026613055  0.026863765            3 
 1546000   0.97030841   -7.5919729     493.3954  0.026595268  0.026855882            1 
 1547000    1.0099337   -7.5178255    495.19717  0.026675133  0.026847992            1 
 1548000   0.99242156   -7.5226352    494.49282  0.026619984  0.026840144            2 
 1549000    1.0315257   -7.5316359    494.13695  0.026583654  0.026832298            1 
 1550000    1.0033551   -7.5157339    494.13868  0.026566596  0.026824346            4 
 1551000   0.99484235   -7.5458573    494.54708   0.02657141  0.026816322            1 
 1552000    1.0177242   -7.5811229    492.03224  0.026419257  0.026808308            3 
 1553000    1.0233259   -7.5360371    495.26599  0.026575767  0.026800157            3 
 1554000    1.0153854   -7.5082735    495.04496  0.026546812   0.02679213            4 
 1555000    1.0065853   -7.5154806    494.98884  0.026526733  0.026784126            3 
 1556000    1.0269082   -7.5389616    494.90421  0.026505153  0.026776142            1 
 1557000    1.0032876   -7.5356545    495.19678  0.026503788  0.026768026            2 
 1558000   0.99797897   -7.5416779    495.25153  0.026489705  0.026759968            3 
 1559000    1.0024083   -7.5474729    496.74105  0.026552333  0.026751998            2 
 1560000   0.99279001   -7.5713041    495.54433  0.026471385  0.026743921            2 
 1561000    1.0033281   -7.5193847    496.61902  0.026511799  0.026735905            2 
 1562000    1.0033044   -7.5460613     496.3397  0.026479924  0.026727938            1 
 1563000    1.0093136   -7.5430029    495.65789  0.026426631  0.026719957            3 
 1564000    1.0004657   -7.5463821    497.68361  0.026517669  0.026712053            5 
 1565000    1.0030145   -7.5530532     498.0528  0.026520383  0.026704187            2 
 1566000    1.0356661     -7.53006    498.89043  0.026548022  0.026696364            2 
 1567000    0.9998812   -7.5331381    497.58307  0.026461554  0.026688549            2 
 1568000    1.0176674   -7.4999803    497.79863  0.026456135  0.026680839            2 
 1569000    1.0048138   -7.5330805    498.74778  0.026489684  0.026673037            2 
 1570000    1.0006264   -7.5501307    498.88492  0.026480091  0.026665321            4 
 1571000    1.0117929   -7.5366395     499.7666  0.026510004  0.026657545            2 
 1572000     0.991167    -7.538645    499.92671  0.026501628  0.026649884            1 
 1573000    1.0045997   -7.5737747    499.88569  0.026482607  0.026642314            4 
 1574000   0.99403034   -7.5779567    500.29399  0.026487399  0.026634758            2 
 1575000    0.9663936   -7.5103738    502.11864  0.026567124  0.026627271            3 
 1576000    0.9964354   -7.5640217    500.98584  0.026490368  0.026619686            3 
 1577000    1.0087715   -7.5390466    500.81715  0.026464656  0.026612064       -1e+20 
 1578000   0.99289494   -7.5558313    501.73355  0.026496279  0.026604428            4 
 1579000    1.0171628   -7.5509964    499.60809  0.026367326  0.026596865            2 
 1580000   0.99164275   -7.5230895    501.82096   0.02646735  0.026589226            2 
 1581000    1.0172102   -7.5197574    502.37122  0.026479613  0.026581622            3 
 1582000    1.0061413   -7.5511726    501.12627  0.026397296   0.02657405            1 
 1583000   0.98924407   -7.5175982    502.63615  0.026460105  0.026566411            1 
 1584000     1.019437   -7.5674768    499.52701   0.02627983   0.02655871            3 
 1585000   0.99403001   -7.5376659    502.20645  0.026404125  0.026550947            3 
 1586000   0.99125672   -7.5323477    502.57719  0.026406956  0.026543239            5 
 1587000    1.0115113   -7.5171931    502.64566  0.026393912  0.026535618            2 
 1588000    1.0147135   -7.5705962    502.47088  0.026368119  0.026527942            2 
 1589000   0.99793194   -7.5738713    502.14765  0.026334573  0.026520305            2 
 1590000     1.001709   -7.5622871     502.1185  0.026316483  0.026512673            2 
 1591000   0.97856541   -7.5567405    503.40144   0.02636714  0.026504892            3 
 1592000   0.97643886    -7.552211    502.85289  0.026321864  0.026497267            4 
 1593000   0.99492848   -7.5598748      503.043  0.026315286  0.026489572            2 
 1594000   0.99122902   -7.5606759    504.40282  0.026369867  0.026482002            1 
 1595000   0.97941078   -7.5478927    504.38172  0.026352232  0.026474483            1 
 1596000   0.97369274    -7.566003    502.98555  0.026262821    0.0264669            3 
 1597000   0.97209987   -7.5907558    503.99094  0.026298838  0.026459307            3 
 1598000   0.99626566   -7.5503141    505.90471  0.026382181  0.026451722            2 
 1599000    1.0085605   -7.5120269    507.32071  0.026439478  0.026444304            2 
 1600000   0.98531941   -7.5105897    506.35147  0.026372472  0.026436771            1 
 1601000    1.0159648   -7.5309247     505.9521  0.026335212  0.026429197            1 
 1602000   0.99622405   -7.5790181    505.32162  0.026285977  0.026421572            1 
 1603000   0.99937328   -7.5681057    505.95518  0.026302515  0.026413948            4 
 1604000   0.99979393   -7.5868503    504.67008  0.026219352  0.026406341            3 
 1605000    1.0010745   -7.5738771     504.5443  0.026196485  0.026398722            1 
 1606000    1.0163386   -7.5555978    506.69856  0.026291955  0.026391143            2 
 1607000   0.99925274    -7.559074    507.16159  0.026299605  0.026383532            2 
 1608000    1.0018921   -7.5828099    505.90224  0.026217985  0.026375855            2 
 1609000   0.98972691   -7.5530911    506.53958    0.0262347  0.026368159            1 
 1610000    0.9773612   -7.5826949    506.56549  0.026219746  0.026360482            2 
 1611000    1.0026387   -7.5340686    506.93694  0.026222685  0.026352823            4 
 1612000    0.9774768   -7.5825573    506.73993  0.026196233  0.026345207            6 
 1613000   0.98831326   -7.5541924    506.80746  0.026183481  0.026337574            2 
 1614000   0.99057734   -7.5594281    506.64717  0.026158982  0.026329952            2 
 1615000    1.0328552   -7.5884061    507.11838  0.026167099  0.026322265            1 
 1616000    1.0103553   -7.5210229    506.89403  0.026139337  0.026314824            1 
 1617000    1.0114369   -7.5541136    508.18942  0.026189931  0.026307378            1 
 1618000   0.99997064   -7.5401758    509.10817  0.026221063  0.026299789            3 
 1619000     1.012327   -7.5157954    509.17971   0.02620855   0.02629229            3 
 1620000    1.0064006   -7.5448785    510.46844  0.026258665  0.026284907            2 
 1621000   0.97861001   -7.5261687    509.07641  0.026170903  0.026277524            2 
 1622000    1.0038277   -7.5182504    510.28424  0.026216823  0.026270065            1 
 1623000   0.98940007   -7.5480489    508.46783  0.026107405  0.026262504            2 
 1624000   0.99672999   -7.5695023    508.26513  0.026080928  0.026254979            2 
 1625000    1.0004819   -7.5649287    509.30335   0.02611812  0.026247375            1 
 1626000   0.98603024    -7.560287    508.89773  0.026081269  0.026239869            1 
 1627000   0.99227833   -7.5642277    509.44996  0.026093524  0.026232332            1 
 1628000   0.96406371   -7.5403092    510.92127  0.026152809  0.026224843            2 
 1629000    1.0027379   -7.5761551    511.11487  0.026146658  0.026217409            2 
 1630000   0.96227337   -7.5703798    510.97295  0.026123362  0.026209838            2 
 1631000   0.98553482   -7.5544445    509.50382  0.026032282  0.026202306            1 
 1632000   0.98271652   -7.5779156    509.71621  0.026027176  0.026194694            2 
 1633000    0.9758384   -7.5843196    509.77522  0.026014249  0.026187045            2 
 1634000   0.96506721   -7.5696536    510.43271   0.02603186  0.026179449            3 
 1635000   0.98046352   -7.5552386    511.47307  0.026068964  0.026171859            2 
 1636000    1.0011308   -7.5937674    510.32728  0.025994666  0.026164354            1 
 1637000     1.005911   -7.5939317    509.92945  0.025958534  0.026156727            2 
 1638000   0.99096613   -7.5813438    510.06929  0.025949801  0.026149056            1 
 1639000   0.98338166   -7.5494432     513.2603  0.026096212  0.026141475            1 
 1640000   0.99291296   -7.5481697    513.08378   0.02607133  0.026134015            2 
 1641000   0.98201106   -7.5864605    512.04199  0.026002539  0.026126452            1 
 1642000   0.98411945   -7.5723953     512.3881  0.026004268  0.026118861            2 
 1643000    1.0043423   -7.5730235    510.93954   0.02591497  0.026111315            2 
 1644000   0.97002083   -7.6094391    512.16313  0.025961229  0.026103762            2 
 1645000   0.97943425   -7.5648003    512.63582  0.025969393  0.026096154            2 
 1646000    1.0027662   -7.5498854    512.53207  0.025948363  0.026088548            4 
 1647000   0.98634303   -7.5521888    512.98536  0.025955543  0.026080923            1 
 1648000   0.98868301   -7.5764506     513.4048  0.025961003  0.026073363            2 
 1649000   0.97959076    -7.561081    513.96073  0.025973354  0.026065758            1 
 1650000   0.97678238   -7.5883867     512.4562  0.025881626  0.026058086            1 
 1651000   0.98871081   -7.5351973    514.38379  0.025963244  0.026050503            3 
 1652000    1.0044396   -7.5589983    513.77265  0.025916699  0.026043076            4 
 1653000   0.99400224   -7.5401478    514.65833  0.025945671  0.026035649            2 
 1654000   0.98177204   -7.5736686    514.23135  0.025908472  0.026028136            1 
 1655000   0.97107426   -7.5588843     514.3224  0.025897402  0.026020626            3 
 1656000   0.96095982   -7.5508454    514.67482  0.025899498  0.026013188            2 
 1657000   0.97150639   -7.5938509      515.107  0.025905603  0.026005767            2 
 1658000    1.0010097   -7.5870068    517.50317  0.026010413  0.025998381            2 
 1659000   0.96935063   -7.5683021    516.81721  0.025960278  0.025991092            3 
 1660000   0.98322129   -7.5473654    516.91232  0.025949414  0.025983718            4 
 1661000    0.9984871   -7.5789996    515.76245  0.025876101  0.025976339            2 
 1662000   0.97047135   -7.5742428    517.44903  0.025945098  0.025969001            1 
 1663000   0.97714177   -7.5685489    516.32722  0.025873282  0.025961555            2 
 1664000    1.0038471   -7.5729115    516.69877  0.025876341  0.025954219            1 
 1665000   0.98356723   -7.5744055    517.91437   0.02592164  0.025946881            1 
 1666000   0.98859401   -7.5908568    516.94115  0.025857401  0.025939502            2 
 1667000   0.98871721    -7.522779    517.95942  0.025892793   0.02593219            1 
 1668000   0.97105843   -7.5818646    517.31582  0.025845115   0.02592485            4 
 1669000   0.98916616   -7.5658344    516.69892  0.025798828  0.025917459            2 
 1670000   0.97900626   -7.5520335    517.72971  0.025834816  0.025909911            2 
 1671000   0.99622114   -7.5980731    516.18487  0.025742314  0.025902404            2 
 1672000   0.98113899   -7.5926848    518.24508  0.025829599  0.025894851            5 
 1673000   0.97988285   -7.5837526    516.99422  0.025751854  0.025887142            1 
 1674000   0.96856892   -7.5871845    516.88539  0.025731053  0.025879488            1 
 1675000   0.95347635   -7.6250418    516.59333  0.025701161  0.025871812            2 
 1676000    1.0058506   -7.6015228    517.93726  0.025752648  0.025864166            1 
 1677000    1.0014925    -7.589037    517.64739  0.025722888  0.025856612            2 
 1678000   0.97763321   -7.5659412    516.39044  0.025645135  0.025848994            2 
 1679000   0.97900221    -7.599265    517.07192  0.025663685  0.025841263            3 
 1680000   0.97064217   -7.6084293    516.38541  0.025614356   0.02583355            2 
 1681000    0.9669486   -7.5624024    517.46623  0.025652698  0.025825818            4 
 1682000   0.98925739   -7.6071265    517.05097  0.025616873  0.025818139            2 
 1683000    1.0210431   -7.5738038    517.91026    0.0256442  0.025810421            1 
 1684000    0.9912549   -7.5755267     518.2155  0.025644077  0.025802743            2 
 1685000   0.99442568   -7.5588116    518.57973  0.025646871  0.025795066            3 
 1686000   0.99454321   -7.5920517     517.7516  0.025590727   0.02578734            1 
 1687000    1.0107392   -7.5774595    518.14228  0.025594857  0.025779618            2 
 1688000   0.98637654   -7.6046694    519.00053  0.025622064  0.025771923            1 
 1689000   0.98253669   -7.5939897    519.39734  0.025626472  0.025764193            2 
 1690000   0.97211194   -7.5639684     519.2923  0.025606129  0.025756472            1 
 1691000   0.96906526   -7.5934703     518.6415  0.025558915  0.025748711            2 
 1692000    1.0038871    -7.598728    519.33516  0.025577973  0.025740923            3 
 1693000   0.97236003   -7.5837652    519.44083  0.025568066  0.025733204            5 
 1694000   0.98672374   -7.6221929    518.75439  0.025519205  0.025725443            2 
 1695000   0.97844776   -7.5709595    519.00432  0.025516437  0.025717604            2 
 1696000   0.98658137   -7.6030128     518.9349  0.025497981  0.025709826            2 
 1697000   0.99538823   -7.6116318    517.94114  0.025434156  0.025701952            1 
 1698000   0.99316451   -7.6171503    520.36155  0.025537964  0.025694202            2 
 1699000    0.9774184    -7.600605    519.89534  0.025500066  0.025686519            2 
 1700000   0.99133348    -7.605943    520.62845  0.025521003  0.025678715            2 
 1701000   0.96884908   -7.5710244     521.4197  0.025544763  0.025670927            1 
 1702000   0.96725097   -7.6068599    520.58652   0.02548896  0.025663207            2 
 1703000   0.97768821    -7.573849    521.32398  0.025510079  0.025655453            1 
 1704000   0.97776296   -7.5660888    522.20444  0.025538167  0.025647788            1 
 1705000    0.9730888   -7.6341389    520.04083   0.02541744  0.025640074            2 
 1706000   0.97714579   -7.6120234    519.98523  0.025399826  0.025632321            1 
 1707000   0.98568038   -7.5966543    520.88284  0.025428766  0.025624645            2 
 1708000    1.0177307    -7.567853    522.93107  0.025513811  0.025616971            3 
 1709000   0.96538442   -7.6389405    520.81527  0.025395713  0.025609263            1 
 1710000   0.97353323   -7.6094925    522.61795  0.025468711  0.025601544            2 
 1711000   0.99485776   -7.6246397    522.30678   0.02543867  0.025593795            3 
 1712000    0.9652347   -7.6150778    522.41673  0.025429163  0.025586083            1 
 1713000   0.99001638   -7.6140099    522.66169  0.025426235  0.025578402            1 
 1714000   0.98324756   -7.6033445    523.70511  0.025462131  0.025570753            2 
 1715000   0.97576387    -7.607104    522.98777  0.025412428  0.025563196            2 
 1716000   0.99302229   -7.6306792    523.57349  0.025426063  0.025555581            1 
 1717000   0.99161623   -7.6135911     522.5653  0.025362323  0.025548029            2 
 1718000    0.9572504   -7.6059731    524.15037  0.025424446  0.025540471            1 
 1719000   0.96946835   -7.6142031    523.46901  0.025376625  0.025532787            2 
 1720000   0.98811735   -7.6100588    524.60572  0.025416944  0.025525085            2 
 1721000   0.95802238   -7.6228344    524.67631  0.025405593  0.025517508            1 
 1722000   0.97473297   -7.6425562    524.66776  0.025390426  0.025509862            2 
 1723000   0.95950097   -7.6112296    524.75586  0.025379951  0.025502305            2 
 1724000   0.95595764   -7.5877912    525.04459  0.025379186   0.02549474            2 
 1725000   0.97516959   -7.6236159    525.26315  0.025375031  0.025487238            2 
 1726000   0.95508367   -7.6227754    526.01523  0.025396641  0.025479805            1 
 1727000   0.97929496   -7.5938623    524.71843  0.025319361  0.025472306            1 
 1728000   0.95734085   -7.6032531    525.84347  0.025358963  0.025464734            1 
 1729000   0.97758833    -7.630113    524.51178  0.025280113  0.025457116            2 
 1730000   0.97770342   -7.5844749    526.72618  0.025372167  0.025449569            1 
 1731000   0.99070328   -7.6118602    525.98433  0.025321795  0.025442036            2 
 1732000   0.99448185   -7.6151429    525.17288  0.025268133  0.025434368            1 
 1733000   0.97371042   -7.5905078    527.24916  0.025353393  0.025426805            1 
 1734000   0.98250571   -7.6272786    525.92484  0.025275127  0.025419172            1 
 1735000   0.97556406   -7.5970145    526.39151  0.025282974  0.025411562            3 
 1736000   0.96871044    -7.650758    525.01591  0.025202377  0.025403896            3 
 1737000   0.97830414   -7.6411554    526.50291  0.025259207  0.025396167            1 
 1738000   0.95758626   -7.5784803    526.14785  0.025227649  0.025388518            2 
 1739000   0.95546982   -7.6238671    528.02656   0.02530317  0.025380914            1 
 1740000   0.96452136   -7.6277199    525.91639  0.025187566  0.025373145            5 
 1741000   0.99947926   -7.5583486    526.23004  0.025188112   0.02536539            2 
 1742000   0.97109111   -7.6118645    525.64447  0.025145641  0.025357645            2 
 1743000   0.95394004   -7.5607864    527.64883  0.025227043  0.025349946            3 
 1744000   0.97618814   -7.6109152    527.39005  0.025200212   0.02534224            2 
 1745000    0.9690031   -7.5798086     527.4448  0.025188386  0.025334548            3 
 1746000   0.94393506   -7.6150165    527.01595  0.025153491  0.025326786            3 
 1747000    0.9878614   -7.6215296    526.96131  0.025136487  0.025319008            3 
 1748000   0.96338089   -7.5946015    527.35245  0.025140754  0.025311273            2 
 1749000   0.97239282   -7.6095419     528.3499  0.025173904  0.025303521            2 
 1750000   0.98987789   -7.6102316    526.92961  0.025091886  0.025295829            2 
 1751000   0.96758136   -7.5892175    528.64192  0.025159048  0.025288163            2 
 1752000   0.97587281   -7.6373443    528.80421  0.025152407   0.02528045            3 
 1753000   0.96197981   -7.6055377    527.25609  0.025064465  0.025272737            1 
 1754000    0.9763732   -7.6008495    527.06188  0.025040948  0.025264903            2 
 1755000   0.98839374   -7.6286211    527.39989   0.02504273  0.025257115            5 
 1756000    1.0028489   -7.6227407    529.00818  0.025104792  0.025249324            1 
 1757000   0.96174901   -7.6026157    528.10718   0.02504777  0.025241599            3 
 1758000   0.95630226   -7.6218521     528.3626   0.02504563  0.025233738            2 
 1759000   0.98196866    -7.635087    527.89697  0.025009331  0.025225934            1 
 1760000   0.96544091   -7.6357293    527.24971  0.024964475  0.025218046            1 
 1761000   0.95632749   -7.6121847    528.85252  0.025026146  0.025210089            3 
 1762000   0.97851578   -7.6346589    527.81814  0.024963022  0.025202279            1 
 1763000   0.95623906   -7.6110591    528.91514  0.025000715   0.02519451            1 
 1764000   0.96076778   -7.6149456    530.54653  0.025063612   0.02518679            1 
 1765000   0.96684213   -7.6161571    529.77882  0.025013164  0.025179022            3 
 1766000   0.96729175   -7.6263325    529.64726  0.024992792  0.025171271            2 
 1767000   0.97869251   -7.6455189    529.38521   0.02496629  0.025163499            1 
 1768000   0.96435881   -7.6148738    530.37578  0.024998858  0.025155605            1 
 1769000   0.95907676   -7.5964385    529.67212  0.024951579  0.025147656            2 
 1770000   0.96659032   -7.6123947    529.66586  0.024937187  0.025139818            1 
 1771000   0.97495076    -7.617556    530.00889  0.024939247  0.025132062            2 
 1772000   0.95642899   -7.5596631    530.81885  0.024963264  0.025124334            1 
 1773000   0.96000092   -7.6186426    530.33655  0.024926516  0.025116539            2 
 1774000    0.9619233   -7.6440308    529.38492  0.024867762  0.025108638            2 
 1775000   0.99535817    -7.596094    530.83256  0.024921716  0.025100804            1 
 1776000   0.96576053   -7.6259823     532.2474  0.024974071  0.025092987            2 
 1777000   0.98039388   -7.6271284    531.46523  0.024923336  0.025085158            3 
 1778000    0.9728796   -7.6110879      531.327   0.02490284  0.025077329            2 
 1779000   0.96990113   -7.5903695    531.86375  0.024913985  0.025069606            4 
 1780000   0.98328562   -7.6329782    531.48388  0.024882204  0.025062012            4 
 1781000   0.97875709   -7.6197415    531.65881  0.024876418  0.025054369            4 
 1782000   0.98109132   -7.5829845    532.87214  0.024919198  0.025046675            2 
 1783000   0.94524319   -7.5852039    532.93226  0.024908032  0.025039064            1 
 1784000   0.97991072   -7.6398331    532.34369  0.024866577  0.025031393            2 
 1785000   0.97936533   -7.6183648    532.15401  0.024843791  0.025023745            2 
 1786000   0.98471292   -7.6238573    534.28229  0.024929185  0.025015984            6 
 1787000   0.94415861   -7.5965751    532.94572  0.024852906  0.025008294            2 
 1788000   0.96184459   -7.6219692    533.90176  0.024883565  0.025000651            2 
 1789000   0.98074367   -7.6305848    532.85768  0.024821021  0.024992923            1 
 1790000    0.9728214   -7.6567169    531.18933  0.024729484  0.024985043            2 
 1791000   0.97226631   -7.6083991    532.68471  0.024785256  0.024977253            1 
 1792000   0.95344254    -7.646621     532.5255  0.024764021  0.024969437            2 
 1793000   0.96364861   -7.6445313    533.02331  0.024773346  0.024961504            2 
 1794000   0.96963094   -7.5894059    535.95151  0.024895555    0.0249538            2 
 1795000   0.95839953   -7.6456195    533.66708  0.024775631  0.024946027            1 
 1796000   0.99634302   -7.6076828    535.81267   0.02486139   0.02493825            2 
 1797000   0.96971895   -7.6530884    532.86801     0.024711   0.02493052            1 
 1798000   0.97224734   -7.6456373    533.67853  0.024734822  0.024922737            1 
 1799000   0.98028584   -7.6202314    533.80994   0.02472716   0.02491498            1 
 1800000   0.95536123   -7.6357227     534.8285  0.024760579  0.024907195            2 
 1801000   0.95522412   -7.6099745    536.16542   0.02480869  0.024899385            6 
 1802000   0.94855503   -7.6297398     534.5025  0.024718022  0.024891664            2 
 1803000   0.95301019   -7.5911352     534.8594  0.024720808  0.024883955            3 
 1804000   0.93982939   -7.6129714    534.51495  0.024691193   0.02487621            1 
 1805000    0.9275713   -7.6229798    534.71754  0.024686867  0.024868514            1 
 1806000   0.98127136   -7.5988892    536.32765  0.024747492  0.024860912            4 
 1807000   0.95012344   -7.6283025    537.05612  0.024767392  0.024853322            4 
 1808000   0.97458579   -7.6454652    535.56209  0.024684831  0.024845729            1 
 1809000   0.97206557   -7.6292612    538.01823   0.02478433  0.024837982            1 
 1810000   0.97565629   -7.6565009    536.59816  0.024705256  0.024830399            1 
 1811000   0.96143675   -7.6696719    535.98525  0.024663411  0.024822718            2 
 1812000   0.98164697   -7.6416491    537.63081  0.024725479  0.024815103            1 
 1813000   0.97990932   -7.6056124    537.88016  0.024723302  0.024807454            2 
 1814000   0.95861322   -7.6676768    535.71618  0.024610262  0.024799794            3 
 1815000   0.96840536   -7.6090415    538.01754  0.024702366  0.024792161            3 
 1816000   0.97697199   -7.6361904    535.89263  0.024591255  0.024784479            2 
 1817000    0.9498827     -7.64496    537.57048  0.024654673  0.024776771            1 
 1818000   0.96080149   -7.6837452    536.07011  0.024572337   0.02476901            1 
 1819000   0.95340516    -7.665962    536.17547  0.024563656  0.024761167            2 
 1820000   0.94135286   -7.5842817    539.04395    0.0246815  0.024753433            2 
 1821000   0.96963534    -7.627115    538.71639  0.024652956  0.024745758            2 
 1822000    0.9689378   -7.6283995    537.47789   0.02458278  0.024738075            1 
 1823000   0.95639131   -7.6758596    538.34009  0.024608708  0.024730422            2 
 1824000   0.97249533   -7.6288963     539.3603  0.024641827  0.024722808            2 
 1825000   0.97192534   -7.6810723    538.82242  0.024603763  0.024715198            1 
 1826000   0.93835462   -7.6362768    538.63078  0.024581543  0.024707495            1 
 1827000   0.95295096   -7.6513004    538.10988   0.02454433  0.024699955            2 
 1828000    0.9672291   -7.6052494     540.6702   0.02464762  0.024692354            5 
 1829000   0.94057356   -7.6392653    540.25178   0.02461508  0.024684816            4 
 1830000   0.95032695   -7.6272279     541.4208  0.024654863  0.024677386            1 
 1831000   0.97057248   -7.5761809    542.21174  0.024677396   0.02467003            2 
 1832000   0.95417892   -7.6232205    541.55898  0.024634233  0.024662576            4 
 1833000   0.95719243   -7.6675527    539.83118  0.024542243  0.024655078            1 
 1834000   0.97475049   -7.6309092    541.36578   0.02459859  0.024647602            1 
 1835000   0.95829777   -7.6713225    540.37818  0.024540335  0.024640066            3 
 1836000   0.95552706   -7.6230057    541.21007  0.024564727  0.024632528            1 
 1837000   0.94877654   -7.6358614    540.58376  0.024522943  0.024625036            2 
 1838000    0.9793762   -7.6272305    542.35461   0.02458989  0.024617543            1 
 1839000   0.94929856   -7.6110097    543.19635  0.024614662  0.024610141            2 
 1840000   0.95617042   -7.6888247     541.9505   0.02454486  0.024602641            1 
 1841000   0.95604627   -7.6432296    540.59102   0.02446999  0.024595144            4 
 1842000   0.97502998   -7.6489142    540.94942   0.02447292  0.024587661            1 
 1843000   0.94621185    -7.655522    541.26323   0.02447383  0.024580171            2 
 1844000   0.94980145   -7.6709213    540.87364  0.024442952  0.024572692            1 
 1845000   0.97029443   -7.6303185    542.25811  0.024492236  0.024565238            3 
 1846000   0.94714608   -7.6180132    544.03604  0.024559229  0.024557848            2 
 1847000   0.94274316   -7.6497108    543.46352  0.024520101  0.024550448            4 
 1848000   0.96858358   -7.6231488    544.02398  0.024532106  0.024543098            2 
 1849000   0.95280589    -7.628984    542.56809  0.024453222  0.024535714            3 
 1850000   0.93648466   -7.6691745    543.11133  0.024464474  0.024528315            5 
 1851000    0.9596441   -7.6816153     543.4286  0.024465541    0.0245209            1 
 1852000   0.95579952   -7.6733205    544.26805  0.024490103  0.024513454            2 
 1853000   0.96511144   -7.6399132    543.17888  0.024427904  0.024506023            1 
 1854000   0.94268989   -7.6303449    543.40277  0.024424792  0.024498567            3 
 1855000   0.96707664   -7.6803257    543.05692  0.024396088  0.024491131            2 
 1856000   0.94566854   -7.6663678    543.79473  0.024416071  0.024483753            3 
 1857000    0.9452451   -7.6342251    545.37229  0.024473716  0.024476308            2 
 1858000   0.96891791   -7.6608202    543.18558  0.024362468  0.024468895            2 
 1859000   0.96372344    -7.653956    545.61725  0.024458367  0.024461497            1 
 1860000   0.96255756   -7.6152933    545.23463  0.024428075  0.024454142            1 
 1861000   0.93553825   -7.6608024    545.03049  0.024405807  0.024446709            2 
 1862000   0.95320033   -7.6566701    545.32897  0.024406059  0.024439216            3 
 1863000   0.97114138   -7.6219956    545.41261  0.024396699    0.0244318            2 
 1864000    0.9464037   -7.6347256    547.02219   0.02445557  0.024424518            2 
 1865000   0.94617538     -7.63642    545.37236  0.024368738  0.024417169            2 
 1866000   0.93713675    -7.664409    544.90386  0.024334756  0.024409793            1 
 1867000   0.97024005   -7.6373374    546.24091  0.024381401  0.024402449            3 
 1868000   0.93859884   -7.6174418    545.66956  0.024342861  0.024395115            1 
 1869000   0.97814707   -7.6490311    545.97574  0.024343488  0.024387709            3 
 1870000   0.96215372   -7.6663956    546.11778    0.0243368  0.024380323            2 
 1871000   0.95793441   -7.6826206    544.21105  0.024238867  0.024372859            2 
 1872000    0.9702878   -7.6709204     546.2945  0.024318665  0.024365381            1 
 1873000   0.95846789   -7.6883195    546.17627  0.024300421  0.024357881            2 
 1874000   0.95873778   -7.6739191    546.22554  0.024289645  0.024350373            2 
 1875000   0.94481511   -7.6679599     545.9518  0.024264525  0.024342933            1 
 1876000   0.96466683   -7.6307717    548.40343  0.024360494  0.024335492            2 
 1877000   0.95732849   -7.6451087    548.93192  0.024370979  0.024328065            2 
 1878000   0.95889161   -7.6627384    548.47584  0.024337763  0.024320708            2 
 1879000    0.9264716   -7.6718136    546.63828  0.024243316   0.02431325            2 
 1880000   0.95420185   -7.6812747    546.20664  0.024211287  0.024305751            1 
 1881000   0.94788081   -7.6592653    546.15071  0.024195938  0.024298148            2 
 1882000    0.9510924   -7.6594675    544.88371   0.02412698  0.024290553            2 
 1883000   0.95563194   -7.6544466    547.38277  0.024224764   0.02428301            2 
 1884000   0.96388571    -7.678665    546.53029  0.024174199  0.024275671            1 
 1885000   0.93093109   -7.6865737     547.0931  0.024186256  0.024268225            3 
 1886000    0.9692711   -7.6849505    546.99873  0.024169262   0.02426071            2 
 1887000    0.9417239   -7.6637141    546.69898  0.024143216  0.024253243            2 
 1888000   0.96472143   -7.6659842    547.47657   0.02416475  0.024245847            1 
 1889000    0.9503438   -7.6725235    547.60126  0.024157458  0.024238383            2 
 1890000   0.94981144   -7.6707345    548.03879  0.024163968  0.024230876            2 
 1891000    0.9575126   -7.6595127     548.9015  0.024189207  0.024223493            1 
 1892000   0.93949138   -7.6460864    548.42324  0.024155358  0.024216057            2 
 1893000   0.95841326   -7.6414318    549.79296  0.024202895  0.024208667            1 
 1894000   0.94027986   -7.7067973    548.01037  0.024111684  0.024201217            1 
 1895000   0.97240203   -7.7133542    547.22947   0.02406462  0.024193717            3 
 1896000   0.95326499   -7.6608532    547.68613  0.024071999  0.024186174            1 
 1897000   0.94800918   -7.6498617    546.72336  0.024017016  0.024178688            1 
 1898000   0.95281403   -7.6710389    548.49057  0.024081953  0.024171128            1 
 1899000   0.97098359   -7.6760092    549.73409  0.024123841  0.024163625            3 
 1900000    0.9368186   -7.6890737     547.8306  0.024027658   0.02415607            1 
 1901000   0.95472992     -7.65111    549.28877   0.02407894  0.024148505            1 
 1902000   0.97137894   -7.6675849    549.47071  0.024074251  0.024140956            3 
 1903000   0.94521487   -7.6712536    548.47381  0.024017946   0.02413341            2 
 1904000   0.94034973   -7.6801088    549.89984  0.024067745  0.024125862            1 
 1905000   0.93200118   -7.6524982    551.49262  0.024124787  0.024118355            4 
 1906000   0.93054116   -7.6561668     550.1169  0.024051981  0.024110889            1 
 1907000   0.92764126   -7.6381255    551.19064  0.024086289  0.024103501            2 
 1908000   0.94895221   -7.6818339    550.82864  0.024057855  0.024096093            3 
 1909000   0.96096926   -7.7141584    548.91659  0.023961786  0.024088634            2 
 1910000   0.95825916   -7.6497048    551.72486  0.024071765  0.024081134            1 
 1911000   0.94639536    -7.660679    550.64365   0.02401202  0.024073679            2 
 1912000   0.97425744   -7.6666161    551.47859  0.024035852  0.024066264            3 
 1913000   0.94997396   -7.6286475    551.26071  0.024013796  0.024058833            3 
 1914000   0.94242703   -7.6885033    550.46022  0.023966397  0.024051432            3 
 1915000   0.95079696    -7.687013     550.9595  0.023975609   0.02404397            1 
 1916000   0.93837278   -7.6923093    550.56413    0.0239459  0.024036532            2 
 1917000   0.91934692   -7.6906792    551.46484  0.023972563  0.024029075            2 
 1918000   0.95193783   -7.7055396    551.53988  0.023963325  0.024021607            2 
 1919000   0.95210251   -7.6981162    550.52931  0.023906953  0.024014115            3 
 1920000   0.95252677   -7.6646316    552.33113  0.023972705  0.024006706            1 
 1921000   0.93618889   -7.6915289     552.3375  0.023960503  0.023999341            1 
 1922000   0.94931849    -7.631373    553.64145  0.024004572  0.023991976            1 
 1923000   0.95636953   -7.6731317    551.11128  0.023882444  0.023984609            3 
 1924000    0.9664231   -7.6474575    553.92945  0.023992093  0.023977272            2 
 1925000   0.95340097   -7.6870015    552.25111  0.023906975  0.023969844            3 
 1926000   0.93896039   -7.6848529    551.88817  0.023878858  0.023962443            2 
 1927000   0.92881092   -7.6494963    553.67074  0.023943554  0.023955066            2 
 1928000   0.95093685   -7.6425444    555.13255  0.023994318  0.023947697            2 
 1929000   0.96064166   -7.6616119    554.56128  0.023957201  0.023940371            2 
 1930000    0.9428313   -7.6965965    552.42268  0.023852447  0.023932976            2 
 1931000   0.93807216    -7.678879     554.6234  0.023935068  0.023925574            2 
 1932000    0.9463057   -7.6534671    554.28904  0.023908258  0.023918273            2 
 1933000   0.93739476   -7.6656369     553.9695  0.023882113  0.023910978            3 
 1934000   0.93855881    -7.676592    554.28574  0.023883391  0.023903644            1 
 1935000   0.93855367   -7.6677809    554.59366  0.023884309  0.023896242            2 
 1936000   0.95482344   -7.6670056    554.89358  0.023884882  0.023888882            1 
 1937000    0.9463971   -7.7154402    554.53657  0.023857192  0.023881534            2 
 1938000   0.94560616   -7.6787642    554.98501  0.023864165  0.023874166            2 
 1939000   0.95762536    -7.690403    554.15439  0.023816159  0.023866833            3 
 1940000   0.95100418   -7.6922137    555.50993   0.02386211  0.023859558            2 
 1941000   0.93593193   -7.6886026    554.84574  0.023821301  0.023852359            1 
 1942000   0.95098367   -7.6754647    557.29323  0.023914059   0.02384518            2 
 1943000   0.94178657   -7.7269814    554.71156  0.023791026  0.023837854            1 
 1944000   0.93584481   -7.6721488    557.09533  0.023880973  0.023830573            1 
 1945000   0.95466916   -7.7125935    555.69819  0.023808834  0.023823215            2 
 1946000   0.95087009   -7.6872696    555.52374  0.023789129  0.023815869            2 
 1947000   0.93712486   -7.6369938    556.24176  0.023807643  0.023808557            3 
 1948000   0.94775195   -7.7040501    555.86665  0.023779374  0.023801252            3 
 1949000   0.93971741   -7.7112108    555.07711  0.023733415  0.023793918            1 
 1950000   0.92467032   -7.6396639    557.11551  0.023808355  0.023786564            5 
 1951000   0.93627579   -7.6785647    556.92262  0.023787913  0.023779232            2 
 1952000   0.93359868   -7.6633896    558.73498  0.023853099  0.023771942            1 
 1953000   0.91919257   -7.6597702      557.287  0.023779101  0.023764654            2 
 1954000   0.92583022   -7.7029438    556.18733  0.023720033  0.023757287            1 
 1955000   0.95727314   -7.6994653    555.87004  0.023694375  0.023749955            2 
 1956000    0.9354565   -7.6880387    557.84168  0.023766261  0.023742656            3 
 1957000   0.94205352   -7.6781283     558.0322  0.023762229  0.023735376            2 
 1958000   0.92982344   -7.7087238    558.53054  0.023771303  0.023728072            1 
 1959000   0.93075938   -7.6808663    557.16121  0.023700919  0.023720807            4 
 1960000   0.94596171   -7.7072856    557.47431  0.023702139  0.023713508            2 
 1961000   0.94403348   -7.6884826    558.16247  0.023719296  0.023706303            6 
 1962000   0.91549233    -7.725825    557.31054  0.023671022  0.023699074            2 
 1963000   0.94947338   -7.6914061     558.3721  0.023704029  0.023691829            2 
 1964000   0.92662655   -7.6838642    559.25408  0.023729382  0.023684564            2 
 1965000   0.91901579    -7.678996    558.33296  0.023678242  0.023677323            1 
 1966000   0.92964852   -7.6943539    558.97599  0.023693455  0.023670069            1 
 1967000   0.94666705   -7.7519249    556.83445  0.023590682  0.023662761            1 
 1968000   0.95255014   -7.6946955    558.69111  0.023657313  0.023655449            3 
 1969000   0.92986777    -7.679929    558.36185  0.023631363  0.023648225            2 
 1970000   0.92848061   -7.6782536    559.39938  0.023663256  0.023640995            2 
 1971000   0.94170219   -7.6860814    558.74932  0.023623766  0.023633764            2 
 1972000   0.93419101   -7.6673465     560.5397  0.023687445  0.023626508            2 
 1973000   0.91861459   -7.7174829    558.08427  0.023571729  0.023619237            1 
 1974000   0.94939122   -7.7092682    559.85762  0.023634651   0.02361203            4 
 1975000   0.93461235   -7.6948591    559.46162  0.023605975  0.023604768            1 
 1976000   0.96394701   -7.6708937    559.57838  0.023598953  0.023597565            1 
 1977000   0.93808836   -7.7063114    560.22387  0.023614225  0.023590329            2 
 1978000   0.96162331   -7.6860441    560.81619  0.023627241  0.023583118            5 
 1979000   0.93438401   -7.7158664    559.22779  0.023548416  0.023575867            2 
 1980000   0.91816591   -7.6994569    561.24326  0.023621349   0.02356865            2 
 1981000   0.94505573   -7.7409534    558.73728  0.023504008  0.023561358            3 
 1982000   0.93623023   -7.7318734    560.62673  0.023571591  0.023554063            2 
 1983000   0.94623875   -7.7064026    561.51096  0.023596863  0.023546821            1 
 1984000   0.94409908   -7.6912321    561.46105  0.023582873  0.023539552            2 
 1985000   0.92879265    -7.699714    560.52297  0.023531611  0.023532362            2 
 1986000   0.93019178   -7.7231121    559.76766  0.023488069  0.023525073            2 
 1987000   0.95452199   -7.7037706    561.91457  0.023566288  0.023517801            2 
 1988000    0.9283031    -7.707655    562.26724  0.023569217  0.023510544            2 
 1989000   0.93186797     -7.67573    561.34314   0.02351865  0.023503315            1 
 1990000    0.9325595   -7.7004024    561.40265  0.023509324  0.023495996            1 
 1991000   0.93147016    -7.730034    560.08701   0.02344245  0.023488704            2 
 1992000   0.93211626   -7.6663208    562.71008  0.023540415  0.023481441            4 
 1993000   0.93770759   -7.6711885    561.52364  0.023478995  0.023474206            3 
 1994000   0.94307451   -7.7514139    561.40361  0.023462203  0.023467036            4 
 1995000   0.93323614   -7.7234727    562.90333  0.023513088  0.023459797            3 
 1996000   0.93433548    -7.681046    563.79433  0.023538507   0.02345257            1 
 1997000   0.93791615   -7.7020265    562.16224  0.023458614  0.023445431            1 
 1998000   0.92021422    -7.702868    562.66919  0.023468018  0.023438292            2 
 1999000    0.9358461   -7.7116787    562.48982    0.0234488  0.023431082            2 
 2000000   0.92598918   -7.6862333    563.69683  0.023487368  0.023423888            3 
 2001000   0.92540718   -7.7084572     564.2341  0.023498005  0.023416643            1 
 2002000   0.94048982   -7.7156851     563.9406  0.023474051  0.023409433            1 
 2003000   0.93475983   -7.7018946    563.44485  0.023441706  0.023402304            1 
 2004000   0.95583013   -7.6851873    563.57308  0.023435341  0.023395193            1 
 2005000   0.92436106   -7.7000695    564.34614  0.023455783  0.023388074            2 
 2006000   0.93673017   -7.7427593    562.13477  0.023352226  0.023380827            1 
 2007000   0.94086522   -7.7274092    562.53032  0.023357014  0.023373573            1 
 2008000   0.91293953   -7.7103146    563.13351  0.023370415  0.023366339            1 
 2009000   0.95928594    -7.743645    562.20111  0.023320106  0.023359056            1 
 2010000   0.92017497   -7.7104681    564.09415  0.023386988   0.02335178            1 
 2011000   0.94723148   -7.6759635    562.31736   0.02330173  0.023344554            2 
 2012000   0.92688024   -7.6946105    563.64079  0.023344963  0.023337369            2 
 2013000   0.93393984   -7.7262746    563.86096  0.023342481  0.023330167            3 
 2014000   0.92580534   -7.7295593    563.09846   0.02329934  0.023322927            1 
 2015000   0.91687415   -7.6855874    565.28899   0.02337837    0.0233157            2 
 2016000   0.93071313   -7.7141249    563.83441  0.023306647  0.023308429            1 
 2017000   0.92703187   -7.7335494    561.86878  0.023213881   0.02330115            1 
 2018000   0.91887791   -7.7478883    563.22376  0.023258331  0.023293732            2 
 2019000   0.91030332   -7.7245464    563.57088  0.023261139  0.023286419            1 
 2020000   0.93323716   -7.7044915    564.17106  0.023274384  0.023279135            4 
 2021000   0.91966465   -7.7351529      563.593  0.023239032  0.023271797            1 
 2022000   0.93344642    -7.701303    563.42279  0.023220524  0.023264515            2 
 2023000   0.91028968   -7.7047201    564.87416  0.023268832  0.023257124            1 
 2024000   0.91076712    -7.755433    562.91254   0.02317657  0.023249668            2 
 2025000   0.91279053   -7.7324675    561.87641  0.023122486  0.023242205            1 
 2026000   0.91254287   -7.7585337    563.77317  0.023189091  0.023234823            2 
 2027000   0.91845402   -7.7167472    565.19686  0.023236181  0.023227455            2 
 2028000   0.91777727   -7.7100773    564.90739  0.023212828   0.02322015            2 
 2029000   0.90193775   -7.7093862    564.79006  0.023196569  0.023212853            2 
 2030000   0.92029437    -7.729644    564.47417  0.023172174  0.023205471            3 
 2031000   0.93772248   -7.7249857    564.90868  0.023178593  0.023198097            2 
 2032000   0.93090107   -7.7735954    564.59022  0.023154126  0.023190742            2 
 2033000   0.92614233   -7.7478458    563.45122  0.023096049  0.023183374            3 
 2034000   0.95085301   -7.7396932    565.92952  0.023186231  0.023175986            2 
 2035000   0.91404906    -7.702765    566.33899  0.023191605  0.023168638            6 
 2036000    0.9243242   -7.7392374    565.88853  0.023161777  0.023161354            1 
 2037000   0.93243784   -7.7462468    564.88647  0.023109412  0.023153968            3 
 2038000   0.93428759   -7.7241916    564.94629  0.023100519  0.023146547            7 
 2039000   0.91767934    -7.698653    565.60241  0.023116005  0.023139138            3 
 2040000   0.90912872   -7.7469366    565.27152  0.023091157   0.02313173            2 
 2041000   0.93142368   -7.7237341    565.90976  0.023105902  0.023124262            4 
 2042000   0.92951357   -7.7404544    565.86431  0.023092732  0.023116828            6 
 2043000   0.92853388   -7.7139206    564.63288  0.023031199  0.023109475            2 
 2044000   0.91943104    -7.706844     566.7364  0.023105691  0.023102099            2 
 2045000    0.9223598   -7.7461009    565.11151  0.023028179  0.023094713            2 
 2046000   0.94123882   -7.7389371    566.24852  0.023063234  0.023087371            1 
 2047000   0.94570081   -7.7370009    566.26136   0.02305249  0.023080032            4 
 2048000   0.92471502   -7.7484499    566.07666  0.023033718  0.023072651            2 
 2049000    0.9159428   -7.7663351    565.25304   0.02298898   0.02306524            3 
 2050000   0.92103535   -7.7294001     566.4528  0.023026537   0.02305795            2 
 2051000   0.93712774   -7.7099354     566.9651  0.023036125  0.023050668            2 
 2052000   0.93006637   -7.7406689    566.58734  0.023009557  0.023043361            1 
 2053000   0.92629555   -7.7327874    565.38202  0.022949424  0.023036027            1 
 2054000   0.92307443    -7.728329    567.48263  0.023023476  0.023028705            3 
 2055000   0.92926703   -7.7371366    567.50972  0.023013371  0.023021327            3 
 2056000   0.92328474   -7.7086553     567.9048  0.023018191  0.023014002            2 
 2057000    0.9096427   -7.7421971    568.26467   0.02302158  0.023006632            1 
 2058000   0.91980978   -7.7466232    568.63009   0.02302519  0.022999316            2 
 2059000   0.92208483   -7.7322933    567.67112  0.022975195  0.022991949            1 
 2060000   0.91068251   -7.7564144     567.6634   0.02296373  0.022984594            2 
 2061000   0.92234429    -7.736974    568.57762  0.022989553  0.022977272            1 
 2062000    0.9279039   -7.7476815    567.72284  0.022943859  0.022969935            1 
 2063000   0.89556601   -7.7692409    566.68066  0.022890639  0.022962521            2 
 2064000   0.93329941   -7.7839256    569.00605  0.022973436  0.022955149            4 
 2065000   0.91874494   -7.7561977    568.44784  0.022939784  0.022947737            2 
 2066000   0.91732901   -7.7419867    569.19581   0.02295885  0.022940362            4 
 2067000   0.93037026   -7.7237555    568.69519   0.02292756  0.022933021            1 
 2068000   0.92936638   -7.7207835     570.4063  0.022985425   0.02292569            4 
 2069000   0.90533714   -7.7453582    568.62235  0.022902463  0.022918268            2 
 2070000   0.92841235   -7.7166094    569.07385  0.022909575  0.022910922            3 
 2071000     0.934354   -7.7428521    568.17666  0.022862412  0.022903593            2 
 2072000   0.94164852   -7.7451189    568.14522  0.022850113  0.022896261            1 
 2073000   0.91397726   -7.7434054    570.11971  0.022918464  0.022888942            1 
 2074000   0.92520728   -7.7330089    568.17223  0.022829164  0.022881632            2 
 2075000   0.91932171   -7.7422018    569.31086   0.02286389  0.022874348            4 
 2076000   0.92472695   -7.7453401    570.21255  0.022889072  0.022867063            2 
 2077000   0.91935145   -7.7382557    570.39958  0.022885555  0.022859759            2 
 2078000   0.91775437   -7.7380399     568.8218  0.022811269  0.022852498            5 
 2079000   0.93693361   -7.7701986    568.91181  0.022803905  0.022845218            2 
 2080000   0.94621255   -7.7457908    570.15667  0.022842815  0.022837873            2 
 2081000   0.91031989   -7.7360581    569.26403  0.022796093  0.022830595            2 
 2082000   0.93605393   -7.7723477    570.78553  0.022846043  0.022823338            2 
 2083000    0.9219584   -7.7340128    571.23525  0.022853067  0.022816111            5 
 2084000   0.91599135   -7.7668438    570.02441  0.022793682   0.02280881            2 
 2085000   0.90885826   -7.7405557    570.69288  0.022809468  0.022801507            2 
 2086000   0.90564374   -7.7560729     570.9377  0.022808313  0.022794248            2 
 2087000   0.91526484   -7.7247312    570.85748  0.022794181  0.022787014            1 
 2088000   0.93894606   -7.7574613    570.75528  0.022779186  0.022779768            2 
 2089000   0.91882638   -7.7677235    571.82127  0.022810805    0.0227725            2 
 2090000   0.92361163   -7.7592124     570.7098  0.022755574  0.022765244            2 
 2091000   0.91293965   -7.7517911    571.53317  0.022777506  0.022757971            2 
 2092000   0.91783534   -7.7676308    570.14958  0.022711503  0.022750765            2 
 2093000   0.90444727   -7.7473979    573.17866  0.022821256  0.022743558            1 
 2094000   0.92690518   -7.7479166    570.67526  0.022710731  0.022736351            1 
 2095000   0.90778856   -7.7866287    570.98543  0.022712229  0.022729108            1 
 2096000   0.92054544   -7.7559942     572.1462  0.022747543  0.022721837            1 
 2097000   0.89859597   -7.7417809    572.17484  0.022737833  0.022714673            2 
 2098000   0.92849985   -7.7522224    572.98724  0.022759264   0.02270746            2 
 2099000   0.93215757   -7.7432917    573.42661  0.022765865   0.02270024            1 
 2100000   0.91545526   -7.7469369    572.70287  0.022726305  0.022693022            1 
 2101000   0.91732913   -7.7583074    571.87113  0.022682498  0.022685819            1 
 2102000   0.91190945   -7.7485457    573.12993  0.022721611  0.022678572            2 
 2103000   0.91917234   -7.7452444     572.6133  0.022690335  0.022671354            3 
 2104000   0.91395623   -7.7717137    572.29903  0.022667104  0.022664137            2 
 2105000    0.9161274   -7.7442462    574.16264  0.022730113  0.022656862            2 
 2106000   0.90573572   -7.7533781    572.58603  0.022656934  0.022649694            1 
 2107000   0.91897404   -7.7655857    573.04093  0.022664172  0.022642535            2 
 2108000   0.91459742   -7.7535064    572.07234  0.022615131   0.02263532            2 
 2109000   0.90263583    -7.764068     573.9436  0.022678347  0.022628124            2 
 2110000   0.90706028   -7.7407906    574.24679  0.022679573  0.022620885            1 
 2111000   0.91894771   -7.7690303    574.67093  0.022685573  0.022613705            2 
 2112000   0.93396375    -7.751168    574.09163  0.022651974   0.02260647            1 
 2113000    0.8944805   -7.7588552    572.23809  0.022568153  0.022599277            1 
 2114000   0.90090708   -7.7545904     575.0876  0.022669804  0.022592061            1 
 2115000   0.90443044   -7.7712341     574.3316  0.022629299  0.022584916            2 
 2116000   0.90675593   -7.7597783    572.90827   0.02256255  0.022577721            2 
 2117000   0.91458971   -7.7649089    576.24186  0.022683115  0.022570524            2 
 2118000   0.92433172   -7.7641014    574.54748   0.02260574  0.022563311            1 
 2119000   0.90673444   -7.7681642    574.25316  0.022583497  0.022556166            1 
 2120000   0.90065661   -7.7613682    574.61804  0.022587187  0.022549009            1 
 2121000    0.9130945   -7.7802388    575.21294  0.022599911  0.022541791            7 
 2122000   0.89501134   -7.7527842     575.6855  0.022607819  0.022534651            2 
 2123000   0.91713937   -7.7440823    575.45964  0.022588304  0.022527557            5 
 2124000   0.92058964   -7.7886899     576.2639  0.022609224  0.022520478            2 
 2125000   0.92026458   -7.7338848    575.54644  0.022570449  0.022513356            5 
 2126000   0.92696884   -7.7549027     576.5412  0.022598824  0.022506222            2 
 2127000   0.91944008   -7.7566579    575.43947  0.022545035  0.022499106            3 
 2128000   0.90446502   -7.7336322    575.95116  0.022554478  0.022491959            3 
 2129000   0.92407189   -7.7678999    574.48143  0.022486356  0.022484826            1 
 2130000   0.90983502   -7.7618553    575.70009  0.022523478  0.022477691            5 
 2131000   0.91817443   -7.7588765    576.33336  0.022537673  0.022470526            2 
 2132000   0.89019661   -7.7536647    576.61798  0.022538226  0.022463403            2 
 2133000   0.88060718   -7.7486146    576.30301  0.022515354  0.022456306            1 
 2134000   0.90847667   -7.7625695    577.39074   0.02254728    0.0224492            1 
 2135000   0.90158305   -7.7866112    576.35622   0.02249634  0.022442059            3 
 2136000    0.9168815   -7.7524894    576.93343  0.022508327  0.022434913            2 
 2137000   0.90440791   -7.7564903    577.46333  0.022518458  0.022427824            1 
 2138000    0.9286955   -7.7413612    575.87712  0.022446099  0.022420731            5 
 2139000   0.91698985   -7.7692098     576.1355  0.022445672  0.022413631            3 
 2140000   0.90102838    -7.757411    578.75654  0.022537248  0.022406562            1 
 2141000   0.87728449   -7.7625605    576.51862  0.022439616  0.022399491            2 
 2142000    0.9179472   -7.7813941     577.7096  0.022475475  0.022392395            2 
 2143000   0.93226365   -7.7895669    576.74282  0.022427392  0.022385356            2 
 2144000   0.90158266   -7.7746331    577.25644  0.022436895  0.022378294            2 
 2145000    0.9268244   -7.7970711    576.36035  0.022391622  0.022371145            2 
 2146000   0.93839253   -7.7628048    578.85638  0.022478114  0.022364029            3 
 2147000   0.91774698   -7.7719526    577.10055  0.022399494  0.022356897            2 
 2148000   0.90210504   -7.7365651    578.80116  0.022455042  0.022349815            2 
 2149000    0.9192049   -7.7311371    577.67457  0.022400906  0.022342758            2 
 2150000   0.88792759   -7.7813239    578.29494  0.022414533  0.022335688            3 
 2151000   0.92074964   -7.8005935    578.10899  0.022396908  0.022328545            3 
 2152000   0.89603385   -7.7633704    578.18125  0.022389299  0.022321458            1 
 2153000   0.89310379    -7.744248    578.25778  0.022381862  0.022314373            4 
 2154000   0.88391925    -7.789511    577.59784  0.022345939  0.022307288            2 
 2155000   0.89989338    -7.768518    579.34396  0.022403092   0.02230019            3 
 2156000   0.90432931   -7.8092825    578.50982   0.02236046  0.022293143            2 
 2157000   0.89732166   -7.8109935    578.30003  0.022341989  0.022286095            4 
 2158000   0.90177026   -7.7894478    579.11515  0.022363112  0.022278995            4 
 2159000   0.91753681    -7.764458    580.12459  0.022391716  0.022271945            3 
 2160000    0.9262432   -7.7682907    578.87995  0.022333332  0.022264895            3 
 2161000   0.90852452   -7.7445823    580.93253  0.022402149  0.022257852            2 
 2162000   0.89656117   -7.8182304    579.90596  0.022352219  0.022250822            3 
 2163000   0.90839511   -7.7919668    580.43205  0.022362153  0.022243758            3 
 2164000   0.91639859   -7.7582158    581.04362   0.02237537  0.022236762            1 
 2165000   0.89997111   -7.7845011    578.96101  0.022284873  0.022229767            2 
 2166000   0.89740186   -7.7755787    582.10913  0.022395704  0.022222799            2 
 2167000   0.90065289   -7.7881948    579.84667  0.022298364  0.022215835            4 
 2168000   0.89445266    -7.773486    581.59346  0.022355222  0.022208886            2 
 2169000   0.89862636   -7.7542933    582.42999  0.022377055   0.02220197            2 
 2170000   0.91474516   -7.7848943    581.74061  0.022340269  0.022195103            4 
 2171000   0.89788982   -7.7577453     581.4356  0.022318271  0.022188192            2 
 2172000   0.90747674   -7.7550492    581.03926  0.022292789  0.022181231            3 
 2173000   0.91095829   -7.7799583    580.48802  0.022261391  0.022174218            3 
 2174000   0.89255922   -7.7958735    579.53858  0.022214757  0.022167204            2 
 2175000   0.89745835   -7.8011875    580.17366  0.022228876  0.022160132            1 
 2176000   0.89353699   -7.8130268    581.32203  0.022262639  0.022153104            1 
 2177000   0.89604311   -7.7584973     580.9246  0.022237199  0.022146098            2 
 2178000    0.8949864   -7.7797868    581.85382  0.022262543  0.022139179            4 
 2179000   0.90183393   -7.8046114     581.8092  0.022250619  0.022132184            2 
 2180000   0.91117551   -7.8130699    580.72646  0.022199024   0.02212518            3 
 2181000   0.91081523   -7.7845967    582.08924  0.022240915  0.022118213            1 
 2182000   0.87447446   -7.7924066    582.26306  0.022237361  0.022111333            2 
 2183000   0.88238583   -7.8025058    581.68497  0.022205106  0.022104429            6 
 2184000   0.88986138   -7.7689554    583.29672  0.022256438  0.022097472            2 
 2185000   0.92974506   -7.7737979    582.18122  0.022203708  0.022090547            2 
 2186000   0.90218536   -7.7777485    583.22978  0.022233523  0.022083624            3 
 2187000   0.90681443    -7.814549     582.2725  0.022186881  0.022076685            3 
 2188000   0.90708917   -7.7914881    582.95117  0.022202589   0.02206976            1 
 2189000   0.90597997   -7.7962296    582.83057  0.022187855  0.022062844            1 
 2190000   0.90696457   -7.7743548    584.28561   0.02223309  0.022055994            2 
 2191000   0.90139378   -7.7901248      583.924  0.022209189  0.022049163            2 
 2192000   0.89712485   -7.8201069    582.11796  0.022130397  0.022042265            2 
 2193000   0.89781653   -7.8091535    584.43148  0.022208219  0.022035363            1 
 2194000   0.89080162   -7.7681919    584.49989  0.022200695   0.02202852            2 
 2195000   0.91365538   -7.7673217     583.3986   0.02214877   0.02202163            3 
 2196000   0.89425637    -7.782388    584.47247  0.022179435  0.022014747            2 
 2197000   0.90659135   -7.8021633    582.12103  0.022080148  0.022007848            2 
 2198000   0.92428827   -7.8195408    583.32403  0.022115712  0.022000961            1 
 2199000    0.8999672   -7.8049471    582.33761  0.022068274   0.02199402            4 
 2200000   0.88503469   -7.8026647    583.69286  0.022109578   0.02198715            3 
 2201000   0.89909432   -7.7741265    584.46044  0.022128595   0.02198031            1 
 2202000    0.9053614   -7.7752973    584.93073  0.022136343  0.021973486            4 
 2203000   0.90663977   -7.7807088    586.03488  0.022168062  0.021966652            2 
 2204000   0.88834797   -7.8000352    584.72647  0.022108532  0.021959787            2 
 2205000   0.91993292   -7.8165459    585.06892  0.022111448  0.021952876            2 
 2206000   0.90465629   -7.7998149    584.14536  0.022066537  0.021945972            1 
 2207000   0.90891119   -7.7822271    585.11569  0.022093177  0.021939232            3 
 2208000   0.89863572   -7.8177825    585.32224  0.022090966  0.021932388            3 
 2209000   0.87170525   -7.8175516    584.16094  0.022037156  0.021925495            2 
 2210000   0.90301623   -7.7995882    585.02387  0.022059724  0.021918571            1 
 2211000     0.905476   -7.7762989    584.71559  0.022038127  0.021911684            4 
 2212000   0.89430516   -7.8010338    584.60162  0.022023871  0.021904838            2 
 2213000   0.89436459   -7.8025888    584.19215  0.021998499  0.021898013            2 
 2214000   0.89295195   -7.8178963    584.63704  0.022005309  0.021891162            3 
 2215000   0.91074209   -7.8161758    585.91412  0.022043421  0.021884285            1 
 2216000   0.89753726    -7.772786    587.42424  0.022090262  0.021877469            1 
 2217000   0.89684969   -7.7830915     586.6645  0.022051741  0.021870668            1 
 2218000   0.89609146   -7.7861811    585.02486  0.021980195  0.021863852            3 
 2219000    0.9054056    -7.803208    586.74293   0.02203481  0.021856992            3 
 2220000   0.90377104   -7.8096947    587.40466  0.022049725  0.021850128            1 
 2221000   0.89527048   -7.7974102     586.0629  0.021989453  0.021843216            1 
 2222000   0.89012158     -7.79476    586.20297   0.02198481  0.021836311            4 
 2223000   0.90521359   -7.7899086    585.63154  0.021953499  0.021829439            3 
 2224000   0.88466835   -7.8208844    588.01109  0.022032789  0.021822576            6 
 2225000   0.91525305   -7.7871389    587.20643   0.02199275  0.021815784            2 
 2226000   0.88572077   -7.8085623    587.91378  0.022009351  0.021808952            1 
 2227000   0.89250284   -7.7838321     588.1473  0.022008206  0.021802145            5 
 2228000   0.88050489   -7.7919398    586.55117  0.021938628   0.02179533            2 
 2229000   0.91665145   -7.7897389    586.58076  0.021929892  0.021788466            4 
 2230000   0.89978084   -7.8160757    587.02229  0.021936558  0.021781596            1 
 2231000   0.88978697   -7.7932153    587.97663  0.021962372  0.021774741            2 
 2232000   0.89145771   -7.8511181    587.66394  0.021940858  0.021767953            3 
 2233000    0.9019526   -7.7642229    588.07422  0.021946344  0.021761159            2 
 2234000   0.89124098   -7.8032144    587.91428  0.021930554  0.021754387            2 
 2235000   0.89549788   -7.8435642    586.74225  0.021877041   0.02174759            2 
 2236000   0.89938109   -7.8276683    587.08883  0.021880174  0.021740738            1 
 2237000   0.89867968   -7.8092012    589.02504  0.021942521  0.021733896            2 
 2238000   0.90548155   -7.8429031    588.65499  0.021918938  0.021727143            1 
 2239000   0.90882544   -7.8177272    588.38063  0.021898937   0.02172041            1 
 2240000   0.89790991   -7.7671574    589.46973  0.021929678  0.021713691            1 
 2241000   0.89272919   -7.7961472    588.87045  0.021897607  0.021706934            2 
 2242000   0.89955377    -7.819202    588.31744  0.021867285  0.021700151            2 
 2243000     0.905571    -7.822831    588.39063  0.021860255   0.02169341            3 
 2244000    0.8925538   -7.7985199    588.86881  0.021868271  0.021686635            2 
 2245000    0.8899454   -7.8046338    588.70122   0.02185231  0.021679911            2 
 2246000   0.89734224   -7.7970184     591.3037   0.02193914  0.021673151            2 
 2247000    0.8855522   -7.8190412    589.09173  0.021847342  0.021666405            1 
 2248000    0.8888069   -7.8431748    588.84526  0.021828487  0.021659657            7 
 2249000   0.88884347   -7.8225898    589.63824  0.021848163  0.021652825            2 
 2250000   0.89369206   -7.8313418    588.23699  0.021786555  0.021646046            2 
 2251000   0.90016303   -7.8185571    587.76642  0.021759456  0.021639192            3 
 2252000   0.89249821   -7.8434696    587.86581  0.021753471  0.021632328            3 
 2253000   0.88369405    -7.793333    590.65456  0.021846966  0.021625465            1 
 2254000    0.8923592   -7.8159445    588.86556  0.021771131  0.021618673            2 
 2255000   0.88355261   -7.8215303    587.66372  0.021717063  0.021611875            2 
 2256000   0.90039712   -7.8064897    588.16603  0.021725991   0.02160508            2 
 2257000    0.8813378   -7.8120942    590.91819  0.021817981  0.021598294            2 
 2258000   0.87888707    -7.807549    589.61708  0.021760299  0.021591501            2 
 2259000   0.90139417   -7.8087762    589.37212   0.02174163  0.021584699            1 
 2260000    0.8827683   -7.8045696    589.09471  0.021721781  0.021577958            2 
 2261000   0.88276221   -7.7835513    590.37263  0.021759274  0.021571232            5 
 2262000   0.87691744   -7.8011752    591.52074  0.021791952  0.021564547            2 
 2263000   0.90725637    -7.788617    591.83996  0.021794077  0.021557851            2 
 2264000   0.86997332   -7.8076823    591.36973  0.021767142  0.021551156            2 
 2265000   0.88553943   -7.8024037    590.31029  0.021718554  0.021544423            1 
 2266000   0.88310823   -7.8079175    591.58448  0.021755828  0.021537687            2 
 2267000    0.8951979   -7.8264967    590.50256  0.021706461  0.021530899            3 
 2268000   0.88551549   -7.8304888     590.2485  0.021687555  0.021524127            2 
 2269000   0.85568312   -7.8500941    590.64918  0.021692713  0.021517386            2 
 2270000   0.86251952   -7.8251453    590.95115  0.021694242    0.0215106            2 
 2271000   0.86559608   -7.8160007    592.46476  0.021740231  0.021503859            2 
 2272000   0.88545879   -7.8208166    593.41401  0.021765479  0.021497121            3 
 2273000   0.88841501   -7.8338929    590.70492  0.021656582  0.021490371            1 
 2274000   0.88785937   -7.7873479    592.44221  0.021710723  0.021483654            2 
 2275000   0.88263138    -7.831261     591.7708  0.021676586  0.021476928            2 
 2276000   0.90379002   -7.8149394    592.13951  0.021680562  0.021470229            1 
 2277000   0.86526882   -7.8371094    591.95657  0.021664345  0.021463531            1 
 2278000   0.86720499   -7.8328158    591.31171  0.021631245  0.021456869            3 
 2279000   0.88563214    -7.832759    593.57028   0.02170434  0.021450184            3 
 2280000      0.89156   -7.8170748    591.66632  0.021625231  0.021443495            2 
 2281000   0.87136574   -7.8524884    591.87854  0.021623503  0.021436803            4 
 2282000   0.85861363   -7.8342408    592.70241  0.021644114  0.021430101            2 
 2283000   0.89399341   -7.8418027    593.61626   0.02166799  0.021423441            2 
 2284000   0.87167324   -7.8369156    593.69926  0.021661532  0.021416796            4 
 2285000   0.87943338   -7.8187438    592.31006  0.021601388  0.021410127            2 
 2286000   0.89040093   -7.8175434    593.31274   0.02162849  0.021403445            1 
 2287000   0.85232502   -7.8325981    590.83371  0.021528703   0.02139669            2 
 2288000   0.90319829   -7.8188337    592.95813  0.021596669  0.021389964            2 
 2289000    0.8917951    -7.815517    593.95853  0.021623654  0.021383222            2 
 2290000   0.88782551   -7.8517996    593.56421  0.021599862  0.021376502            2 
 2291000   0.87962699   -7.8392957    593.52994  0.021589188  0.021369872            3 
 2292000   0.87265216   -7.8380825    592.08804  0.021527343  0.021363154            1 
 2293000   0.88014598   -7.8495625    594.15629   0.02159312  0.021356501            2 
 2294000   0.90476152   -7.8103429    594.81307  0.021607566  0.021349856            2 
 2295000   0.88090814   -7.8031955    593.26345  0.021541883  0.021343207            1 
 2296000   0.89547268   -7.8063272    594.06533  0.021561604  0.021336576            1 
 2297000   0.87099643   -7.7902781    593.35275  0.021526366  0.021329997            2 
 2298000   0.88140689   -7.7896052    593.64457  0.021527581  0.021323418            3 
 2299000   0.88287438   -7.8469334    594.66269  0.021555122  0.021316867            2 
 2300000   0.88795369   -7.7843778    596.37231  0.021607692  0.021310319            2 
 2301000   0.88167469   -7.8085378    596.92647  0.021618371  0.021303773            2 
 2302000   0.87564474   -7.8313221    595.45629  0.021555759  0.021297176            1 
 2303000   0.87951361   -7.8391289    596.10316  0.021569806  0.021290607            3 
 2304000   0.90394592   -7.8330568    595.56897  0.021541123  0.021284033            2 
 2305000    0.8823343   -7.8156041    596.03911  0.021548775  0.021277501            6 
 2306000   0.87671559   -7.8151617    594.26414  0.021475287  0.021270948            2 
 2307000   0.86899485   -7.8267718    595.26801   0.02150224  0.021264472            1 
 2308000   0.88279841   -7.8363904    595.50128  0.021501346  0.021257948            2 
 2309000   0.86968565   -7.8315203    594.91639  0.021470925  0.021251357            1 
 2310000    0.8787703   -7.8294428    597.10541  0.021540599  0.021244748            2 
 2311000   0.85975884   -7.8153767    596.85281   0.02152217  0.021238204            4 
 2312000   0.88402564   -7.8309017    597.86861  0.021549474  0.021231682            1 
 2313000   0.88478182   -7.8622141    597.97576  0.021544018  0.021225202            2 
 2314000    0.8844336    -7.790583    599.11127    0.0215756  0.021218762            3 
 2315000   0.86528425   -7.8375132    596.87421  0.021485753  0.021212338            2 
 2316000   0.87358261   -7.8221093    597.96753  0.021515815  0.021205924            3 
 2317000   0.88202736   -7.8512015    597.30065  0.021482544  0.021199459            2 
 2318000   0.86866517   -7.8630835    596.61469  0.021448615   0.02119297            2 
 2319000   0.87797106   -7.8634751    595.34149  0.021393614  0.021186476            1 
 2320000   0.85815504   -7.8214645    599.34446  0.021528178      0.02118            4 
 2321000   0.85229008   -7.8299328    598.56424  0.021490889   0.02117355            2 
 2322000   0.86775912   -7.8675344    598.21955  0.021469263  0.021167086            2 
 2323000   0.87079597   -7.8473785     595.8858  0.021376302  0.021160594            1 
 2324000   0.87897982   -7.8811391    596.56605  0.021391496   0.02115406            2 
 2325000    0.8619061   -7.8373188    598.63646  0.021456504  0.021147512            1 
 2326000    0.8865389   -7.8404149    597.81682  0.021417914  0.021141023            3 
 2327000   0.88545662   -7.8319379    599.21308  0.021458712  0.021134538            2 
 2328000   0.86051799   -7.8417168    598.15967  0.021411787  0.021128066            3 
 2329000   0.87762023   -7.8721536    598.16352  0.021402731  0.021121611            1 
 2330000   0.88903391   -7.8575708    598.27239  0.021397439   0.02111512            1 
 2331000   0.86977292   -7.8704133    597.51244  0.021361091  0.021108577            2 
 2332000   0.87486569   -7.8743855    597.29921  0.021344311  0.021102051            1 
 2333000   0.86929619   -7.8413071    598.99054  0.021395576  0.021095534            1 
 2334000   0.87564689   -7.8634836     596.9723   0.02131435  0.021088978            3 
 2335000   0.87687199   -7.8441743     598.5888  0.021362912  0.021082472            2 
 2336000   0.87212967    -7.883431     599.4021  0.021382781  0.021075971            3 
 2337000   0.88185251   -7.8472356    600.29656  0.021405525  0.021069414            1 
 2338000   0.88949187   -7.8354748    598.47189  0.021331333  0.021062926            2 
 2339000    0.8867935   -7.8441122    598.83529  0.021335161  0.021056505            1 
 2340000   0.87912639   -7.8392891    601.43407  0.021418592  0.021050075            2 
 2341000   0.89473739   -7.8435503    599.15968  0.021328481  0.021043619            2 
 2342000   0.87594627   -7.8613689    599.49598   0.02133134  0.021037156            2 
 2343000   0.85909279   -7.8704552    600.38346  0.021353801  0.021030708            2 
 2344000   0.87064119   -7.8355465    600.47777  0.021348044  0.021024261            6 
 2345000   0.85319525   -7.8618025    600.40819  0.021336467  0.021017792            2 
 2346000   0.85505923   -7.8254564    601.06508  0.021350706  0.021011334            3 
 2347000   0.88710783   -7.8381647    600.28416  0.021313882  0.021004866            2 
 2348000   0.86637568   -7.8463292    600.29519  0.021305195  0.020998384            5 
 2349000   0.89596576   -7.8569603    600.98874   0.02132073  0.020991896            3 
 2350000   0.87253907    -7.871024    598.94228  0.021239088  0.020985382            2 
 2351000    0.8841408   -7.8352295    599.25146  0.021241013  0.020978888            3 
 2352000   0.88571564   -7.8465343    601.29238  0.021304293  0.020972416            2 
 2353000   0.87742688   -7.8454179    599.35205  0.021226521  0.020965987            2 
 2354000   0.87382557   -7.8789602    600.40083  0.021254631  0.020959569            2 
 2355000   0.86314137   -7.8838329    600.12781  0.021235945  0.020953074            3 
 2356000   0.86889027   -7.8581868    599.73505  0.021213039  0.020946626            1 
 2357000    0.8834442   -7.8694658    598.50378  0.021160507  0.020940168            2 
 2358000    0.8712196    -7.837542    599.86511  0.021199643  0.020933728            2 
 2359000   0.89762623    -7.828002    601.24655  0.021239457  0.020927366            3 
 2360000   0.86547439    -7.867802    601.65693  0.021244948   0.02092096            1 
 2361000   0.89490212   -7.8399197    602.49664  0.021265588   0.02091452            2 
 2362000   0.90493159   -7.8698925    601.82836  0.021233007  0.020908083            4 
 2363000   0.88484365   -7.8661484    600.64617  0.021182331  0.020901646            4 
 2364000    0.8886682   -7.8587145    600.77132  0.021177782  0.020895212            2 
 2365000   0.87185728   -7.8781866    600.60593     0.021163   0.02088879            2 
 2366000   0.86866128   -7.8786641    600.01074  0.021133092  0.020882341            1 
 2367000   0.86962391   -7.8734078    600.73162  0.021149543   0.02087588            5 
 2368000   0.87966463   -7.8624991     602.1613  0.021190924  0.020869457            1 
 2369000   0.86223153   -7.8865964    602.83012  0.021205506   0.02086304            1 
 2370000   0.87718485    -7.863055    601.83094  0.021161426  0.020856671            2 
 2371000   0.88880494   -7.8605816    602.13686  0.021163252   0.02085024            2 
 2372000   0.86869742   -7.8500987    603.08872  0.021187771  0.020843812            2 
 2373000   0.88834957   -7.8605331    603.00031  0.021175738  0.020837377            3 
 2374000   0.87686046   -7.8768193    601.10666  0.021100346  0.020830945            2 
 2375000   0.87764953   -7.8901435    601.41172  0.021102166  0.020824466            2 
 2376000   0.87210904   -7.8562683    601.98131  0.021113262  0.020817993            1 
 2377000   0.86017752   -7.8836038     602.2153  0.021112582  0.020811524            2 
 2378000   0.87551112   -7.8865198    601.45346  0.021077007  0.020804992            2 
 2379000    0.8805344   -7.8926051    601.49652  0.021069655  0.020798415            2 
 2380000   0.88128816   -7.8814998    600.84964  0.021038153  0.020791845            1 
 2381000   0.88200333   -7.8822348    600.68521  0.021023562  0.020785253            2 
 2382000   0.87180108   -7.8962921     600.7179   0.02101588   0.02077871            1 
 2383000   0.87521669   -7.8827443    601.56478  0.021036676  0.020772152            2 
 2384000   0.87441705   -7.9026026     601.4535  0.021023962  0.020765614            1 
 2385000   0.86304042   -7.8821703     602.0333  0.021035405  0.020759097            2 
 2386000   0.85908021   -7.8823777    601.21205  0.020997906  0.020752547            2 
 2387000   0.88226575   -7.9018029    601.32637  0.020993101  0.020745996            2 
 2388000   0.86417417   -7.8507625     602.6946  0.021032056  0.020739456            2 
 2389000   0.88864589   -7.8803579    601.96135  0.020997675   0.02073298            2 
 2390000   0.85913114   -7.8713731    602.71467  0.021015156  0.020726502            3 
 2391000   0.88509439   -7.9085575    602.82053  0.021010056  0.020719981            4 
 2392000   0.87922319   -7.8711552    603.92989  0.021039921  0.020713501            2 
 2393000   0.87444984   -7.9189605    602.81185  0.020992194  0.020707009            2 
 2394000   0.86757891   -7.8983545    603.66267  0.021013042  0.020700512            2 
 2395000    0.8651578   -7.8602831     603.6799  0.021004868  0.020694057            1 
 2396000   0.85542776   -7.8647947    602.91873  0.020969628  0.020687616            2 
 2397000   0.88648036   -7.8683868    602.57387   0.02094889   0.02068118            2 
 2398000   0.86230262   -7.8856783    602.58039  0.020940381  0.020674744            2 
 2399000   0.87995724   -7.8702384    604.72467  0.021006137  0.020668261            2 
 2400000   0.85925979   -7.8784293    604.19342  0.020978938  0.020661863            2 
 2401000    0.8668753   -7.8832643     605.7563  0.021024445  0.020655504            2 
 2402000   0.88384483   -7.8739189    604.02801  0.020955732  0.020649105            1 
 2403000   0.83401532   -7.8408045    605.07751  0.020983406   0.02064274            1 
 2404000   0.84712273   -7.9126916    603.91611  0.020934419  0.020636374            1 
 2405000   0.86584867    -7.884944    603.72947  0.020919247  0.020629941            2 
 2406000   0.87173505   -7.8857097    603.61128  0.020906459  0.020623513            3 
 2407000   0.86493791   -7.8680877    604.87768  0.020941618  0.020617133            2 
 2408000   0.87651427   -7.8713044    605.45813  0.020953008  0.020610784            1 
 2409000   0.87024918   -7.8663749    604.53344  0.020912323  0.020604377            2 
 2410000   0.86088243   -7.8559146    604.44204  0.020900485  0.020598019            1 
 2411000    0.8518392   -7.8963251    604.06749  0.020878871  0.020591608            3 
 2412000   0.85482124   -7.9247602    604.55412  0.020887027  0.020585164            2 
 2413000   0.86371825   -7.8787185    602.75875  0.020816368  0.020578674            6 
 2414000   0.88332172   -7.8999728    604.53172  0.020868949  0.020572184            2 
 2415000   0.86978208   -7.9002898    604.33428  0.020853495  0.020565672            2 
 2416000   0.85715913   -7.8928213    603.68855  0.020822591  0.020559204            3 
 2417000   0.84523947   -7.8757538    605.97632  0.020892853   0.02055279            4 
 2418000   0.84071598   -7.8856055    605.21473  0.020857966  0.020546409            2 
 2419000   0.87006728   -7.8585141    605.26439  0.020851054  0.020540041            2 
 2420000   0.87332592    -7.892501    605.15086  0.020838528  0.020533689            2 
 2421000   0.86701448   -7.8790732    604.76286  0.020816565  0.020527264            4 
 2422000   0.84721892   -7.8702435    605.67156  0.020839236  0.020520873            3 
 2423000   0.85745117   -7.8633734    606.12034   0.02084607  0.020514519            3 
 2424000   0.87334861    -7.893152    605.33354  0.020810421   0.02050815            2 
 2425000   0.85620178   -7.8963118    605.77337  0.020816954  0.020501828            1 
 2426000   0.85536327   -7.9017907    606.12437   0.02082043  0.020495496            3 
 2427000    0.8586199    -7.891007    605.60645  0.020794068   0.02048913            1 
 2428000   0.85694462   -7.8722796    606.59867  0.020819559    0.0204828            2 
 2429000   0.85388005   -7.8788351    605.95482  0.020788899  0.020476426            2 
 2430000   0.86091188    -7.904464    608.58097  0.020870404  0.020470062            2 
 2431000   0.88156365   -7.8949637    606.60832  0.020794197  0.020463706            3 
 2432000   0.85558639   -7.9037113    606.16849  0.020770576  0.020457319            2 
 2433000   0.88131666   -7.9120991    605.45166  0.020737487   0.02045093            1 
 2434000   0.86641674   -7.8782745    607.13286  0.020786526  0.020444549            1 
 2435000   0.87295523   -7.8655301    607.28231  0.020783104  0.020438183            2 
 2436000    0.8564067   -7.9055791    606.42147  0.020745124  0.020431795            3 
 2437000   0.89049254   -7.8743357    606.85745   0.02075152  0.020425403            4 
 2438000   0.86217855   -7.8836909    605.70832   0.02070373  0.020419041            1 
 2439000   0.86042732   -7.8875845    606.97448  0.020738502  0.020412669            2 
 2440000   0.86220089   -7.8893361    606.85968  0.020726082  0.020406322            1 
 2441000   0.86741741   -7.8856879    607.85909   0.02075171  0.020399969            2 
 2442000   0.86632598    -7.873443    607.07621  0.020716496  0.020393665            1 
 2443000   0.87896134   -7.8740713    606.99886  0.020705378  0.020387332            2 
 2444000   0.84333319   -7.8776821    606.63046  0.020684345  0.020380969            2 
 2445000   0.86950601   -7.8998429    606.66457  0.020677048  0.020374573            1 
 2446000   0.86997922   -7.9016939    607.51716  0.020697641  0.020368183            3 
 2447000   0.85808172   -7.8857102    607.65471  0.020693867  0.020361785            1 
 2448000   0.86106939    -7.874857    606.79577  0.020656174   0.02035542            1 
 2449000   0.84126248   -7.9168433    606.92472  0.020652128  0.020349039            2 
 2450000   0.84498775   -7.8908011    606.80471  0.020639616  0.020342626            2 
 2451000   0.84052874   -7.8962675    607.09612  0.020641103  0.020336236            1 
 2452000   0.86190212   -7.8983622    607.40995  0.020643351  0.020329834            4 
 2453000   0.85442886    -7.887623    607.40577  0.020634793  0.020323462            2 
 2454000    0.8669564    -7.876265    608.13809  0.020651253  0.020317074            1 
 2455000   0.87761369   -7.8776234    608.04293  0.020639611  0.020310711            2 
 2456000     0.870224    -7.936739    605.88579  0.020558014  0.020304317            2 
 2457000   0.83834403   -7.9083641     607.4939  0.020604189  0.020297945            2 
 2458000   0.84661824   -7.8938599    606.98785   0.02057865  0.020291558            1 
 2459000    0.8609729   -7.9240842    607.48976   0.02058729  0.020285173            4 
 2460000   0.87216785   -7.8820083    608.36953  0.020608724  0.020278786            2 
 2461000   0.86198852   -7.8891566     608.6438  0.020609637  0.020272407            1 
 2462000   0.84929662   -7.8846011    608.69718  0.020603073  0.020266007            1 
 2463000   0.85628576   -7.8838413    607.58119  0.020556949  0.020259627            2 
 2464000   0.86089125   -7.8799314    608.47681  0.020578897  0.020253255            2 
 2465000   0.87308625   -7.9080801    608.32828  0.020565527  0.020246871            2 
 2466000   0.86570138   -7.9280986    607.61391  0.020533047  0.020240448            1 
 2467000    0.8552289   -7.9136938    606.99403  0.020503784  0.020233998            1 
 2468000   0.84610997   -7.9056164    608.12739  0.020533745  0.020227588            2 
 2469000   0.86083828    -7.889922    608.12876  0.020525475  0.020221152            1 
 2470000   0.85714652   -7.9048882    607.23336  0.020486956  0.020214756            3 
 2471000   0.85093339   -7.8915524     607.7735  0.020496881  0.020208332            3 
 2472000   0.84292564   -7.9228427    608.62926  0.020517437  0.020201907            2 
 2473000   0.86018198   -7.9033976    606.84876  0.020449143  0.020195442            2 
 2474000   0.85884827    -7.909373    608.91181  0.020510368  0.020189014            1 
 2475000   0.84481136   -7.8970889    607.90648  0.020468232  0.020182595            6 
 2476000    0.8668156   -7.8948434    608.80586  0.020490235  0.020176198            2 
 2477000    0.8746148   -7.9290159    609.24022  0.020496576  0.020169801            3 
 2478000   0.84941448   -7.8857637    609.20896  0.020487253    0.0201634            1 
 2479000   0.84430521   -7.9157206    608.62238   0.02045927  0.020156999            2 
 2480000   0.86447302   -7.9478488    607.42028  0.020410628  0.020150529            1 
 2481000   0.85824627   -7.9044109    608.40706  0.020435545  0.020144076            2 
 2482000   0.85741383   -7.9351072    607.99234  0.020413388  0.020137618            1 
 2483000   0.85739658   -7.9372395    607.84641  0.020400269  0.020131197            2 
 2484000   0.86194371   -7.9044759    609.92484  0.020461783  0.020124762            1 
 2485000   0.85396825   -7.9027296    608.80618  0.020416036  0.020118358            3 
 2486000    0.8416137   -7.9130107    609.76698   0.02044003  0.020111938            3 
 2487000   0.85228561   -7.9272559    608.50565  0.020389547  0.020105542            2 
 2488000   0.83284885   -7.9191263    609.43641  0.020412527  0.020099124            1 
 2489000   0.84836431   -7.9169058     608.8628  0.020385121  0.020092703            4 
 2490000   0.85560305   -7.9109596    608.15809   0.02035335  0.020086293            2 
 2491000   0.84602539   -7.9025195    607.89272  0.020336301  0.020079881            1 
 2492000   0.84237236   -7.9170275    608.63787  0.020353059  0.020073456            3 
 2493000   0.86648928   -7.9152525     609.3216   0.02036775  0.020067013            2 
 2494000   0.85118605   -7.8799685    611.18603   0.02042188  0.020060621            1 
 2495000   0.82727959   -7.9129461    609.15232  0.020345769  0.020054227            2 
 2496000   0.85031906   -7.9276506    609.81493   0.02035974  0.020047816            1 
 2497000   0.85972832   -7.9047321    608.72569  0.020315235  0.020041399            2 
 2498000   0.84326681   -7.8825431    609.19876  0.020322884  0.020035025            1 
 2499000   0.85102935   -7.9105781    609.89482  0.020337963  0.020028625            2 
 2500000   0.84856116   -7.9170453    609.73881  0.020324627  0.020022231            2 
 2501000   0.84669456   -7.8643837    609.87123  0.020320913  0.020015856            2 
 2502000   0.84997621   -7.9172506    611.77803    0.0203763  0.020009525            2 
 2503000   0.85093976   -7.9156652    611.44742  0.020357152  0.020003165            3 
 2504000   0.83194209   -7.9241218    610.39568   0.02031402  0.019996788            2 
 2505000   0.83916918   -7.9067723    611.06355  0.020328129  0.019990439            2 
 2506000   0.84977639   -7.9021873    610.55997  0.020303271  0.019984073            2 
 2507000   0.85487157   -7.9045907    611.39572  0.020322953  0.019977711            2 
 2508000   0.85551478   -7.9066617    609.46878  0.020250823  0.019971379            1 
 2509000   0.85273374    -7.899412    610.81562  0.020287486  0.019965021            2 
 2510000   0.84265894   -7.9014015    610.64299  0.020273671  0.019958643            1 
 2511000   0.84836696   -7.9197242    611.22517  0.020284919  0.019952255            1 
 2512000   0.84771703   -7.9295174     611.6233  0.020290051  0.019945899            1 
 2513000   0.84604828   -7.9262835    609.81108  0.020221882  0.019939546            5 
 2514000   0.84734833   -7.9078766    610.99668  0.020253138  0.019933189            3 
 2515000   0.84765786   -7.9196431    610.22302  0.020219451  0.019926808            2 
 2516000   0.84456253     -7.91312    611.12162  0.020241177  0.019920405            2 
 2517000   0.86156099   -7.9168134    609.92473  0.020193508  0.019914025            4 
 2518000   0.84445489   -7.9307142    611.24205  0.020229086  0.019907651            5 
 2519000   0.83706578   -7.8827868    610.77399  0.020205571  0.019901259            1 
 2520000    0.8618916   -7.8908295     610.6837  0.020194567   0.01989492            1 
 2521000   0.86136456   -7.9473599    610.51323  0.020180921  0.019888556            2 
 2522000   0.82441123   -7.9216972    613.48171  0.020271006  0.019882157            3 
 2523000   0.85092655   -7.8943456    612.55371   0.02023232  0.019875789            1 
 2524000   0.87281348   -7.8961692    611.19126   0.02017932  0.019869434            1 
 2525000   0.82308673   -7.9245872    612.34598  0.020209438  0.019863065            3 
 2526000   0.83556129   -7.9162555     613.8713  0.020251758  0.019856696            1 
 2527000   0.85487942   -7.9372664    610.90995  0.020146087  0.019850304            3 
 2528000   0.82829463   -7.9380171    611.35265  0.020152711  0.019843897            4 
 2529000   0.85457467   -7.8929705    611.77274  0.020158585  0.019837536            2 
 2530000   0.82955297   -7.8989315    613.54858   0.02020911  0.019831244            3 
 2531000   0.85301719   -7.9403924    612.62995   0.02017088  0.019824904            2 
 2532000    0.8498162   -7.9543551    611.95012  0.020140538  0.019818513            2 
 2533000    0.8582344   -7.9372767    610.93192  0.020099089  0.019812116            1 
 2534000   0.86229546   -7.9418095    612.58161   0.02014541  0.019805711            2 
 2535000   0.85662749   -7.9376375    613.57375  0.020170077  0.019799325            2 
 2536000   0.83900747   -7.9279938     612.0762  0.020112914  0.019792983            3 
 2537000   0.85141053   -7.9509935    612.50324  0.020119013  0.019786652            3 
 2538000    0.8510259   -7.9213321    612.89325  0.020123892  0.019780378            3 
 2539000   0.84192428   -7.9132263     614.5497  0.020170333  0.019774111            6 
 2540000    0.8327841   -7.9260634    612.35142   0.02009027  0.019767838            1 
 2541000    0.8560364   -7.9385168    613.91219  0.020133549  0.019761535            1 
 2542000   0.85850893   -7.9447498    611.64507  0.020051307  0.019755227            2 
 2543000   0.84611858   -7.9297157    613.93288  0.020118393  0.019748909            3 
 2544000   0.85487944   -7.9067072    614.73934  0.020136902  0.019742657            3 
 2545000   0.82611684   -7.9108045    614.22367  0.020112104   0.01973643            1 
 2546000   0.83860485   -7.9191257    615.11838   0.02013349  0.019730154            3 
 2547000   0.85056018   -7.9666027    612.46015  0.020038612  0.019723875            1 
 2548000    0.8455769   -7.9465276    614.11855  0.020084987  0.019717557            1 
 2549000    0.8455415   -7.9178361     613.6367  0.020061354  0.019711287            2 
 2550000    0.8637573   -7.9306331    613.67791  0.020054834  0.019704991            3 
 2551000   0.85249398   -7.9220187    614.67295  0.020079477  0.019698731            2 
 2552000   0.87816021   -7.9464313    614.36228  0.020061464  0.019692468            2 
 2553000   0.84484482   -7.9303376    613.65973  0.020030674  0.019686239            3 
 2554000   0.84680474   -7.9726838    612.12441  0.019972736  0.019679975            2 
 2555000   0.85818867   -7.9590352    614.32729  0.020036767  0.019673696            2 
 2556000   0.84564667   -7.9423565    613.77688  0.020010983  0.019667444            1 
 2557000   0.83878389   -7.8961873    615.46468  0.020058163  0.019661237            1 
 2558000    0.8465318   -7.9345523     614.5698  0.020021169  0.019655016            1 
 2559000   0.82410224   -7.9607262    614.22789  0.020002211  0.019648775            1 
 2560000   0.81752574   -7.9398337    615.21586  0.020026558  0.019642541            1 
 2561000   0.84942238   -7.9119606    615.23275  0.020019288  0.019636322            3 
 2562000    0.8453647    -7.965129    614.48799  0.019987249  0.019630096            2 
 2563000   0.83362824   -7.9479429    614.76618  0.019988496  0.019623854            1 
 2564000   0.84151351   -7.9365247    615.46419  0.020003386  0.019617622            2 
 2565000   0.83815707   -7.9264328    615.05769  0.019982381  0.019611399            3 
 2566000   0.85206471   -7.9624023    614.30986  0.019950307  0.019605125            1 
 2567000    0.8201959   -7.9424637    614.84207  0.019959813  0.019598881            2 
 2568000   0.82657386   -7.9213905    615.84612  0.019984622  0.019592641            4 
 2569000   0.84093754   -7.9477864    614.01427  0.019917422  0.019586382            1 
 2570000   0.84070516   -7.9520904    613.31501  0.019886998  0.019580106            3 
 2571000   0.83225218   -7.9175481    616.27374  0.019975163  0.019573838            2 
 2572000   0.84834714   -7.9035294    616.55532   0.01997652   0.01956764            2 
 2573000   0.82730837   -7.9279346    616.07144  0.019953085  0.019561389            3 
 2574000   0.83969317   -7.9240612    615.78024  0.019935905  0.019555181            2 
 2575000   0.82466288   -7.9315105    616.13715  0.019939714     0.019549            3 
 2576000   0.83312335   -7.9251223    616.29511  0.019937083  0.019542794            2 
 2577000   0.84313349   -7.9454776    613.31299  0.019832912  0.019536547            2 
 2578000   0.82663082   -7.9557973    615.26153  0.019888206  0.019530272            1 
 2579000   0.83976808   -7.9620205    614.21472  0.019846669  0.019524007            3 
 2580000   0.84387243    -7.962018    615.32522  0.019874846  0.019517742            4 
 2581000   0.84602654    -8.022552    614.21518  0.019831305  0.019511435            1 
 2582000   0.83020084   -7.9735104      615.063  0.019850988   0.01950514            2 
 2583000   0.83607537   -7.9753864    616.10558  0.019876938  0.019498872            4 
 2584000   0.84409515   -7.9888021     616.1208  0.019869737  0.019492626            2 
 2585000   0.83661467   -7.9727923    616.52692  0.019875142  0.019486397            3 
 2586000   0.82650957   -7.9362077    616.93309  0.019880546   0.01948016            2 
 2587000   0.83152833   -7.9587864    615.19874  0.019816993   0.01947391            2 
 2588000    0.8428206   -7.9727782    617.24292  0.019875158  0.019467662            2 
 2589000   0.83473666   -7.9970449     615.5613  0.019813354  0.019461427            2 
 2590000   0.85013339   -7.9335572    616.68486  0.019841855  0.019455201            5 
 2591000   0.86664849   -7.9506878    617.01867  0.019844933  0.019449003            1 
 2592000    0.8366304   -7.9548675    616.99061  0.019836375  0.019442814            1 
 2593000   0.83515998   -7.9568916    615.57321  0.019783173  0.019436598            2 
 2594000   0.84460665   -7.9698512    618.29836  0.019863093  0.019430433            1 
 2595000   0.82088237   -7.9544917    617.50206  0.019829867  0.019424275            2 
 2596000   0.83263762   -8.0007817    616.27756  0.019782921  0.019418098            1 
 2597000   0.83344122   -7.9530626    616.63526  0.019786781  0.019411904            2 
 2598000   0.83855674   -7.9698781    618.07755  0.019825428  0.019405748            1 
 2599000   0.84520143   -7.9269213    616.89367  0.019779841  0.019399594            3 
 2600000    0.7938395   -7.9365978    617.59815  0.019794813  0.019393509            1 
 2601000   0.82908781   -7.9642807    616.23743  0.019743606  0.019387368            2 
 2602000   0.84865256   -7.9617058    617.92971  0.019790216  0.019381197            3 
 2603000   0.83210828   -7.9595658    618.25917  0.019793161  0.019375061            1 
 2604000   0.86578525   -7.9356302    619.02094  0.019809938  0.019368947            4 
 2605000   0.82432285   -7.9323027    619.25611  0.019809856   0.01936287            3 
 2606000   0.83894026   -7.9763581    618.15388  0.019767008  0.019356753            4 
 2607000   0.82552087   -7.9657845    619.59896  0.019805618  0.019350606            3 
 2608000   0.82955658   -7.9341488    619.11279  0.019782489  0.019344462            1 
 2609000   0.83200176   -7.9795743    619.31722  0.019781437  0.019338323            2 
 2610000   0.81779132   -7.9574284    618.26941  0.019740403  0.019332178            1 
 2611000   0.83053067   -7.9529905    619.19666  0.019762436  0.019326036            4 
 2612000   0.82261748   -7.9491814    619.27117  0.019757248  0.019319906            4 
 2613000   0.85010975   -7.9527212    618.83783  0.019735867  0.019313737            2 
 2614000   0.81941708   -7.9705413    619.37599  0.019745473  0.019307576            2 
 2615000   0.82386187   -7.9541202    618.11152  0.019697626  0.019301402            1 
 2616000   0.82580771    -7.954308    618.76177  0.019710811  0.019295251            4 
 2617000   0.85751899   -7.9612271    618.67344  0.019700466  0.019289106            2 
 2618000   0.82257798   -7.9776233     617.9104  0.019668653  0.019282961            3 
 2619000   0.83081453   -7.9412602    618.77685  0.019688712  0.019276826            1 
 2620000   0.84283517   -7.9822612    618.74432  0.019680163  0.019270668            3 
 2621000   0.83654364   -7.9733743    618.25519  0.019657103  0.019264496            2 
 2622000   0.83344152   -7.9924858    618.15422  0.019646396  0.019258324            1 
 2623000   0.81875572    -7.975407    618.03603  0.019635152  0.019252216            3 
 2624000   0.83583876   -7.9552955    619.13604  0.019662603  0.019246078            3 
 2625000   0.84715367   -7.9610729    619.24877  0.019658691  0.019239938            2 
 2626000   0.83762137   -7.9628964    618.54603  0.019628904  0.019233799            2 
 2627000   0.84146204   -7.9531775    620.37273  0.019679379  0.019227691            1 
 2628000   0.83113534   -7.9573164    619.09834  0.019631479   0.01922159            1 
 2629000   0.83141405   -7.9746403    618.81953  0.019615175  0.019215501            1 
 2630000   0.82580683   -7.9579959    618.31193  0.019591633  0.019209402            2 
 2631000   0.83839138   -7.9526554    620.12788  0.019641704  0.019203333            3 
 2632000   0.84167951   -7.9623928    618.95123  0.019596987  0.019197299            1 
 2633000   0.81469161   -7.9792347    618.86057  0.019586675  0.019191203            2 
 2634000   0.83095977   -7.9395628     619.8189  0.019609558  0.019185106            2 
 2635000   0.81395885   -7.9687844    620.44332  0.019621863  0.019179003            2 
 2636000   0.85555413   -7.9677705    619.80361  0.019594196  0.019172907            3 
 2637000   0.83087131   -7.9685507    620.37337  0.019604771  0.019166815            1 
 2638000   0.80885112   -7.9525985     619.6674  0.019575038  0.019160705            2 
 2639000   0.85014414   -7.9381093    620.64599  0.019598522  0.019154628            2 
 2640000   0.85169723   -7.9547366     620.2304   0.01957798  0.019148536            1 
 2641000   0.82492233    -7.919463    621.47577  0.019609863  0.019142432            3 
 2642000   0.84106399   -7.9632341     619.5305  0.019541083  0.019136317            3 
 2643000   0.84033566   -7.9673833    620.64306  0.019568769  0.019130229            2 
 2644000   0.82324334   -7.9529676    621.93179  0.019601985  0.019124164            3 
 2645000   0.83556461   -7.9647987    619.56214  0.019519916   0.01911808            4 
 2646000   0.84065155   -7.9706352      619.637  0.019514897  0.019111944            2 
 2647000   0.83489414   -7.9778329    621.49963  0.019566164   0.01910584            3 
 2648000   0.82433699   -7.9784256    620.55193   0.01952895  0.019099707            2 
 2649000   0.82431486   -7.9584226     620.9621  0.019534482  0.019093622            2 
 2650000   0.83293343   -7.9550923    620.86885  0.019524178  0.019087574            1 
 2651000   0.82107529   -7.9253215    620.73889  0.019512728  0.019081522            1 
 2652000   0.82254759   -7.9587373    620.66481  0.019503042  0.019075458            2 
 2653000   0.82869701   -7.9625769    619.92637  0.019472496  0.019069385            1 
 2654000   0.81745256   -7.9925643    618.91969   0.01943355  0.019063281            2 
 2655000   0.81598516   -7.9827542    620.35903  0.019471407  0.019057166            2 
 2656000   0.83109888   -8.0050863    620.95614  0.019482811  0.019051054            2 
 2657000   0.82942128   -8.0027787    619.58839   0.01943258   0.01904495            1 
 2658000   0.82433298   -8.0025644    619.81784  0.019432463  0.019038796            4 
 2659000   0.82170562   -7.9569409    621.11321  0.019465752  0.019032691            1 
 2660000   0.84076432   -7.9638976     620.4559  0.019437842  0.019026572            2 
 2661000   0.83249456   -7.9780324    619.98242  0.019415709  0.019020485            1 
 2662000   0.84953623   -7.9806444    620.85203  0.019435638  0.019014381            3 
 2663000   0.82369413   -7.9622283    620.67286  0.019422733  0.019008285            2 
 2664000   0.81399749   -7.9757644    620.94205  0.019423863  0.019002204            3 
 2665000   0.84179797   -7.9689139    621.66184  0.019439082  0.018996112            2 
 2666000   0.82895222   -7.9289317    622.86825    0.0194695  0.018990038            3 
 2667000   0.83102606   -7.9523572    620.39042  0.019384777  0.018983966            2 
 2668000   0.82949328   -7.9741245     621.4987  0.019412128  0.018977892            2 
 2669000   0.84556432   -7.9607146    622.39212   0.01943275  0.018971842            3 
 2670000   0.83183739   -7.9672326    621.32565  0.019392186  0.018965793            2 
 2671000   0.83821159   -7.9807758    621.72486  0.019397381  0.018959713            2 
 2672000   0.82042643    -8.000022    619.12979  0.019309187  0.018953601            4 
 2673000   0.83729488   -7.9948439    622.16728  0.019396661  0.018947523            1 
 2674000   0.83449381   -7.9868561     621.0766  0.019355416  0.018941483            2 
 2675000   0.81514744   -7.9839008    621.96338  0.019375806  0.018935433            1 
 2676000   0.81320401   -8.0011934    620.75483   0.01933093  0.018929396            3 
 2677000   0.82665263   -7.9934509     622.4782  0.019377357  0.018923378            4 
 2678000   0.82663044   -8.0069119    622.13629  0.019359481  0.018917347            1 
 2679000   0.80024867   -7.9776406    622.02581  0.019348818  0.018911347            2 
 2680000   0.81588415    -8.018195    621.19517   0.01931577  0.018905323            3 
 2681000   0.80758324   -7.9819735    621.01429  0.019302943  0.018899255            2 
 2682000   0.81581365   -8.0141823    621.83529  0.019321256  0.018893191            2 
 2683000   0.82930475   -8.0162233    623.61852  0.019369441  0.018887145            2 
 2684000   0.83507664   -7.9925639    620.63497   0.01926959  0.018881071            3 
 2685000   0.83071162   -7.9952786    619.87203  0.019238734  0.018874986            2 
 2686000   0.80909512   -7.9635629    622.61627  0.019316712  0.018868928            3 
 2687000   0.83476038   -7.9612254    622.55607  0.019307656  0.018862898            1 
 2688000   0.81343601   -7.9936901    624.10598  0.019348524  0.018856874            2 
 2689000   0.81878062     -7.99422    622.45398  0.019290132  0.018850834            2 
 2690000   0.82127386    -8.006563    621.78853  0.019262346  0.018844785            3 
 2691000   0.82541797   -7.9626822    623.47623  0.019307452  0.018838757            1 
 2692000   0.82477716   -7.9555981    622.68974  0.019275933  0.018832727            1 
 2693000   0.83515416   -7.9674728    623.70203    0.0193001  0.018826697            2 
 2694000    0.8284803    -7.994847     622.1902  0.019246171  0.018820675            2 
 2695000   0.83902705   -7.9452811    622.55216  0.019250221  0.018814646            1 
 2696000   0.81158078   -7.9938004       622.91  0.019254142  0.018808621            3 
 2697000   0.82577308   -7.9777057    623.34159  0.019260338  0.018802574            2 
 2698000   0.82191637   -8.0094748    622.11868  0.019215428  0.018796544            2 
 2699000   0.82213135   -7.9805419    623.68323  0.019256614  0.018790506            2 
 2700000   0.82675178   -7.9705667    623.58321  0.019246395   0.01878448            3 
 2701000   0.82272253   -7.9967354    621.53138  0.019175965  0.018778446            8 
 2702000   0.82706052   -7.9773799    622.61447  0.019202272  0.018772423            2 
 2703000   0.81796468   -8.0210048    622.89271  0.019203746  0.018766356            3 
 2704000   0.83131291    -8.001412     624.8105  0.019255748  0.018760329            6 
 2705000   0.79012519   -7.9813125    622.91955  0.019190374  0.018754305            3 
 2706000   0.83084035   -8.0024243     623.5314  0.019202125  0.018748266            1 
 2707000   0.81951649   -7.9941307    622.91429  0.019176034  0.018742225            2 
 2708000   0.81519942   -8.0007279     623.3976  0.019183826  0.018736195            1 
 2709000   0.81849467   -8.0210062    623.27265    0.0191729  0.018730146            2 
 2710000    0.8238666   -8.0229251    623.23715  0.019164734  0.018724104            2 
 2711000   0.82431775    -7.991745     623.9944  0.019180942  0.018718102            2 
 2712000   0.81370917   -8.0139564    624.07688  0.019176404  0.018712077            2 
 2713000   0.82405494   -8.0194395    623.18918  0.019142069  0.018706043            3 
 2714000   0.83343486   -7.9875998    622.90527  0.019126298  0.018700038            2 
 2715000   0.79370646   -8.0040112     623.1059  0.019125411  0.018693999            2 
 2716000   0.83229801   -8.0097678    622.87707  0.019111348  0.018688005            2 
 2717000   0.82523109   -7.9966807    623.57193  0.019125626  0.018681992            3 
 2718000   0.83145644    -8.011174    623.19251  0.019106957  0.018675993            1 
 2719000   0.81549497   -8.0070708    623.63061  0.019113357   0.01867002            1 
 2720000   0.81455256   -7.9780556    624.34029  0.019128073  0.018664032            3 
 2721000   0.81476764   -8.0091051    625.55914  0.019158371  0.018658066            3 
 2722000   0.81741388   -8.0028899    624.77487  0.019127323  0.018652086            4 
 2723000   0.81632702   -8.0127708    624.94173  0.019125405  0.018646093            2 
 2724000   0.81249564   -7.9706153    625.64344  0.019139851  0.018640107            2 
 2725000   0.80995323   -7.9857383    625.22114  0.019119913  0.018634162            3 
 2726000   0.81383712   -7.9981239    623.76649   0.01906843  0.018628181            4 
 2727000   0.80742533   -8.0029921    623.80549  0.019062629   0.01862221            1 
 2728000   0.80465503   -7.9901913    624.31641  0.019071249  0.018616244            3 
 2729000   0.81863623    -8.003586    625.21925   0.01909183    0.0186103            2 
 2730000   0.79253725   -7.9926992    625.85584  0.019104269  0.018604407            1 
 2731000   0.81631916   -7.9800897    625.71956  0.019093115  0.018598506            2 
 2732000   0.81431383   -7.9856759    627.73479  0.019147596  0.018592606            3 
 2733000   0.81679173   -8.0335631    624.31329  0.019036263  0.018586675            3 
 2734000   0.81141474   -8.0109761    624.46468  0.019033915  0.018580765            2 
 2735000   0.80952448   -7.9965861    626.35112  0.019084434  0.018574862            2 
 2736000   0.79293608   -8.0280344    626.37337  0.019078136  0.018568945            2 
 2737000   0.81905245   -8.0204694    625.45489  0.019043201  0.018563048            2 
 2738000    0.7979343   -8.0118131    625.42876   0.01903545  0.018557126            4 
 2739000   0.80568014   -8.0009752    625.05104  0.019017009  0.018551192            2 
 2740000   0.81839315   -7.9974847    626.18741  0.019044629  0.018545264            6 
 2741000   0.81168013   -7.9937196     625.1282  0.019005479  0.018539336            4 
 2742000   0.81343296   -7.9925316    627.16463  0.019060437  0.018533429            2 
 2743000   0.82336567   -8.0029757    625.17177  0.018992945  0.018527536            2 
 2744000   0.81101988   -8.0169241    626.89417  0.019038331  0.018521645            1 
 2745000   0.80177432   -7.9993185    626.59324   0.01902226  0.018515745            2 
 2746000   0.80122392   -8.0161932    627.43061  0.019040744  0.018509861            2 
 2747000   0.82583669   -8.0091958    626.82513  0.019015445     0.018504            4 
 2748000   0.81433275   -8.0123789    625.41804  0.018965855  0.018498119            3 
 2749000   0.80601299    -8.036936    625.90372  0.018973679  0.018492203            1 
 2750000   0.81173614   -8.0274416    625.66027  0.018959402  0.018486308            3 
 2751000   0.80884293   -8.0255083    627.38613   0.01900479   0.01848041            3 
 2752000   0.81751324   -8.0160895    626.60306  0.018974172  0.018474489            3 
 2753000   0.79880731   -8.0223072    626.92521  0.018977031  0.018468592            3 
 2754000   0.80127748   -8.0219135    626.84011  0.018967566  0.018462681            3 
 2755000   0.81887386   -8.0254031    625.83945  0.018930413  0.018456796            2 
 2756000   0.81236097   -8.0227858    624.22883  0.018874844  0.018450875            2 
 2757000   0.81440333   -8.0108719    625.95002  0.018920022  0.018444964            3 
 2758000   0.81738433   -8.0411554    625.14664  0.018888888  0.018439071            1 
 2759000   0.80693579   -8.0339707    626.79583  0.018931854  0.018433176            2 
 2760000   0.81037761   -8.0262312    626.06844  0.018903033  0.018427283            2 
 2761000   0.80693037   -8.0145412    626.95547  0.018922959  0.018421381            1 
 2762000   0.81880527   -8.0113767    626.66975  0.018907487  0.018415491            1 
 2763000   0.80495177    -8.000959    628.72309  0.018962574  0.018409634            1 
 2764000   0.82036216   -8.0303195    628.23535  0.018941008   0.01840379            3 
 2765000   0.80961788   -8.0190359    627.47727   0.01891131  0.018397913            1 
 2766000   0.81225294   -8.0097273     626.1788  0.018865353   0.01839207            1 
 2767000   0.80191215   -8.0056952    628.27034  0.018921526  0.018386231            3 
 2768000   0.81652104   -7.9902644    628.10948  0.018909847  0.018380416            2 
 2769000   0.79980572   -8.0158239    626.19153  0.018845297   0.01837458            2 
 2770000   0.79845611   -8.0120777    627.56992  0.018879962  0.018368746            2 
 2771000   0.80422922   -7.9765125    629.44272  0.018929469  0.018362921            3 
 2772000     0.800664   -8.0432915    627.71942  0.018870834  0.018357091            3 
 2773000    0.8104937    -8.026013    629.10079  0.018905541  0.018351235            7 
 2774000   0.82723247    -8.011855    627.02197  0.018836276  0.018345407            4 
 2775000   0.81445828   -7.9962548    627.72502  0.018850601  0.018339567            5 
 2776000   0.81711271   -8.0332396    625.87007  0.018788127  0.018333749            3 
 2777000   0.81652167   -8.0361114    627.64383  0.018834589  0.018327872            2 
 2778000   0.79667357    -8.045699    627.32079  0.018818118  0.018321991            4 
 2779000   0.81614267   -8.0223804    627.89588  0.018828592  0.018316134            1 
 2780000   0.82457532   -8.0337289    627.33778  0.018805089  0.018310291            5 
 2781000   0.80369484   -8.0359318     628.2617  0.018826013  0.018304447            4 
 2782000    0.8167358   -8.0706842    627.16302  0.018786335  0.018298598            1 
 2783000   0.80551616   -8.0577539     628.4776  0.018818948  0.018292714            4 
 2784000   0.79996606     -8.07143    627.67597  0.018788194  0.018286829            3 
 2785000   0.79697738   -8.0758339    626.73679  0.018753345   0.01828093            5 
 2786000   0.82185479   -8.0265318    629.54425  0.018830589  0.018275022            2 
 2787000   0.80940177    -8.048324    628.12819  0.018781491  0.018269134            1 
 2788000   0.81167472   -8.0730224    627.38824  0.018752638  0.018263241            2 
 2789000   0.80894665   -8.0445206    626.83785  0.018729468  0.018257349            1 
 2790000   0.78836213    -8.038244    627.82309  0.018752183  0.018251476            3 
 2791000   0.82952018   -8.0646889    628.45073  0.018764204  0.018245623            1 
 2792000   0.78968203   -8.0808081    626.84654  0.018709603  0.018239755            2 
 2793000   0.79971332   -8.0499784    628.68142  0.018757651  0.018233925            3 
 2794000   0.81492585   -8.0570686    628.61829  0.018749054  0.018228116            2 
 2795000   0.80231932   -8.0462929    628.88629  0.018750337  0.018222287            3 
 2796000   0.80049842   -8.0286716      629.521  0.018762548  0.018216514            3 
 2797000   0.81014893   -8.0475318    629.12857  0.018744148  0.018210723            2 
 2798000   0.81435996   -8.0124476    630.46556  0.018777268  0.018204917            1 
 2799000   0.81539853   -8.0509453    628.76187  0.018719837  0.018199135            3 
 2800000   0.79137754   -8.0763353    629.59613   0.01873798   0.01819335            3 
 2801000   0.80274738   -8.0427136    628.99001  0.018713257  0.018187556            3 
 2802000   0.80028218   -8.0686434    627.41523  0.018659744  0.018181747            1 
 2803000   0.82294262   -8.0351828    629.11052  0.018703488  0.018175961            3 
 2804000   0.82365697   -8.0251567    630.45522  0.018736781  0.018170202            1 
 2805000   0.80241426   -8.0471919    630.43098  0.018729382  0.018164455            2 
 2806000   0.80915201   -8.0381213    628.73501  0.018672339  0.018158666            3 
 2807000   0.83379674   -8.0729721    628.99467  0.018673396  0.018152887            3 
 2808000   0.81786164   -8.0704551    628.27089  0.018645266  0.018147104            1 
 2809000   0.80401381   -8.0375672    629.02573  0.018661022  0.018141275            2 
 2810000   0.79475677   -8.0546581    628.81378  0.018648096  0.018135463            1 
 2811000   0.79123333   -8.0598378    628.49171  0.018631914  0.018129637            2 
 2812000   0.79293522   -8.0560727    628.61195  0.018628851  0.018123827            2 
 2813000   0.79297864   -8.0570503    627.59194  0.018592012  0.018117989            1 
 2814000   0.78483401   -8.0386172     629.0257  0.018627864  0.018112179            2 
 2815000   0.78825069   -8.0391123    629.37416  0.018631562  0.018106365            3 
 2816000   0.79260992   -8.0221253    630.51435  0.018658687  0.018100543            1 
 2817000   0.80368465    -8.033889    629.50634  0.018622244  0.018094737            3 
 2818000   0.80034683   -8.0446329    628.42495  0.018583657   0.01808894            2 
 2819000   0.80237992   -8.0676436    628.06127  0.018566314  0.018083123            2 
 2820000   0.82398382   -8.1004184    628.99671  0.018587373   0.01807732            2 
 2821000   0.78968998   -8.0596456    629.17418  0.018586027  0.018071491            2 
 2822000   0.78161437   -8.0371189    629.45093  0.018587613  0.018065632            2 
 2823000   0.79449527     -8.06298    628.96263  0.018566614  0.018059787            2 
 2824000   0.79112363   -8.0839422    628.82447  0.018555963  0.018053964            1 
 2825000   0.78871029   -8.0390347     628.8637  0.018550552  0.018048113            6 
 2826000   0.79926267   -8.0895615    629.38358  0.018559318  0.018042311            2 
 2827000   0.79558291   -8.0378044    631.28355  0.018608759  0.018036508            3 
 2828000   0.79160447   -8.0686298    629.63197  0.018553512  0.018030725            2 
 2829000   0.80730067   -8.0459497     629.7807  0.018551335  0.018024931            1 
 2830000   0.81205614    -8.061434    630.41198  0.018563368  0.018019114            2 
 2831000     0.795089   -8.0360069    629.99882  0.018544649  0.018013317            1 
 2832000    0.8064878   -8.0859033    629.68072  0.018528741  0.018007513            3 
 2833000   0.80217372   -8.0706245    629.37451  0.018513193  0.018001712            2 
 2834000   0.78602952   -8.0571068    628.87344  0.018491927  0.017995927            2 
 2835000    0.7956215    -8.067932    629.49447  0.018503659  0.017990112            1 
 2836000    0.8057017   -8.0716854    629.24022  0.018489663  0.017984271            2 
 2837000   0.82323844   -8.0563269    630.34544   0.01851561  0.017978462            2 
 2838000   0.81228563   -8.0768185    628.37039  0.018451092  0.017972636            3 
 2839000    0.8062754   -8.0893416    629.17191   0.01846812  0.017966775            3 
 2840000    0.7954523   -8.0981977    628.34642  0.018437395   0.01796093            2 
 2841000   0.80522755    -8.098994    629.80807  0.018473779  0.017955078            3 
 2842000   0.79601763   -8.0977606    628.33679  0.018424138  0.017949229            3 
 2843000   0.80334683   -8.0705901    628.60287  0.018425456  0.017943408            1 
 2844000   0.79122592   -8.0885069    628.56369   0.01841783  0.017937599            5 
 2845000   0.79084722   -8.0264901    630.04509  0.018454748  0.017931832            1 
 2846000   0.81256719   -8.0354678    630.80908  0.018470634  0.017926066            4 
 2847000     0.790307   -8.0642942    631.03073  0.018470634  0.017920292            3 
 2848000   0.79441875   -8.0812602    629.65158  0.018423794  0.017914523            3 
 2849000   0.80042731   -8.0675265    629.62105  0.018416434  0.017908753            5 
 2850000   0.79671337   -8.0567571    631.85763  0.018475369  0.017903012            5 
 2851000   0.79573771   -8.0604191    631.28792  0.018452237   0.01789726            4 
 2852000   0.77075368   -8.0692896     631.6191  0.018455443   0.01789149            3 
 2853000   0.78585528    -8.072769    630.83643  0.018426114  0.017885737            2 
 2854000   0.80364708   -8.0777009     630.3104  0.018404298   0.01787997            4 
 2855000   0.81082583   -8.0691887    630.68971  0.018408923  0.017874194            2 
 2856000   0.78676113    -8.074677     630.7681  0.018404765  0.017868426            2 
 2857000   0.78406344   -8.0348218    631.47864  0.018419048  0.017862695            2 
 2858000   0.79803298   -8.0703107    629.34768  0.018350469  0.017856948            2 
 2859000   0.79919899   -8.0518778    631.85275  0.018417067  0.017851184            1 
 2860000   0.79621992   -8.0724282    633.18836  0.018449544  0.017845446            2 
 2861000    0.7937946   -8.0576562    630.42554  0.018362622  0.017839676            2 
 2862000   0.78372581   -8.0630558    631.58927  0.018390091    0.0178339            2 
 2863000   0.76806838   -8.0911365    631.10044  0.018369439  0.017828131            2 
 2864000   0.79259058   -8.0415959    630.77487  0.018353552  0.017822372            1 
 2865000   0.80175799   -8.0431166    631.31102  0.018362741  0.017816609            3 
 2866000   0.79569331   -8.0426123    632.33439   0.01838609   0.01781084            1 
 2867000   0.80183475   -8.0730422    629.77021  0.018305145  0.017805084            1 
 2868000   0.80653508   -8.0594035    630.85911  0.018330402  0.017799308            3 
 2869000   0.78448166   -8.0877841    630.99321  0.018327908  0.017793567            2 
 2870000    0.7944733    -8.063666    632.58765  0.018367818  0.017787825            1 
 2871000   0.79922691   -8.0699261    629.57488  0.018273972  0.017782074            3 
 2872000   0.78685927   -8.0509799    631.39023  0.018320283  0.017776321            2 
 2873000   0.80258597   -8.0737524    632.15283  0.018336026  0.017770584            2 
 2874000   0.80056546   -8.0629066     630.2982   0.01827587  0.017764855            2 
 2875000   0.79573518   -8.0705523    631.43462  0.018302453  0.017759122            1 
 2876000    0.8040025   -8.1008213    629.31856  0.018234775  0.017753366            3 
 2877000   0.81374473   -8.0766625    630.89312  0.018274045  0.017747599            1 
 2878000   0.78784465   -8.0574117     631.0475  0.018272165  0.017741874            2 
 2879000   0.79164503   -8.0366485    632.96181  0.018321229  0.017736162            1 
 2880000   0.79653971   -8.0713333    631.29332  0.018266589  0.017730451            2 
 2881000    0.7968032   -8.0501856    632.28232  0.018288856  0.017724722            1 
 2882000   0.79357899   -8.0750092    631.01586   0.01824589  0.017718993            1 
 2883000   0.80626448   -8.0772281    632.45995  0.018281303  0.017713255            1 
 2884000   0.78476886   -8.0599968    631.28535  0.018241024  0.017707509            3 
 2885000   0.79039289   -8.0882168    630.92712  0.018224354  0.017701754            2 
 2886000   0.77048272    -8.089713    632.19767  0.018254726  0.017696007            2 
 2887000   0.78856612   -8.0931999    631.69224  0.018233814  0.017690279            2 
 2888000   0.78726368   -8.0692577    631.87329  0.018232724  0.017684552            2 
 2889000   0.77895358   -8.0608818    631.42759  0.018213557  0.017678833            3 
 2890000    0.7793947   -8.0701923    632.22341  0.018230202  0.017673109            2 
 2891000   0.76848927   -8.0674495    632.32125  0.018226717  0.017667393            1 
 2892000   0.78103958   -8.0829165    631.76089  0.018204267  0.017661686            1 
 2893000   0.77699095   -8.0678201    632.87244  0.018229993  0.017655971            2 
 2894000   0.79091091   -8.0634892    632.36973  0.018209218  0.017650269            1 
 2895000   0.79399284   -8.0719053    631.98381   0.01819182  0.017644553            2 
 2896000   0.79163831   -8.0724803    632.93339  0.018212862  0.017638818            4 
 2897000   0.77472942   -8.0835261    633.39106  0.018219741  0.017633124            6 
 2898000   0.77752762   -8.0927176    632.48803  0.018187486  0.017627419            3 
 2899000   0.79600238   -8.0957026    632.45822  0.018180356  0.017621711            1 
 2900000   0.79129957   -8.0726378    632.92088  0.018187382  0.017616002            2 
 2901000    0.8016067   -8.1034495    632.15155  0.018159013  0.017610296            4 
 2902000   0.77219578   -8.0706924    634.33914  0.018215574  0.017604578            4 
 2903000   0.78519921   -8.1031564    631.59357  0.018130485  0.017598868            3 
 2904000   0.79190383   -8.0761781    633.46593  0.018177971  0.017593138            3 
 2905000   0.78346831   -8.1073421    632.21521  0.018135835    0.0175874            2 
 2906000   0.79112301   -8.1023747    631.80357   0.01811779  0.017581657            3 
 2907000   0.77325922   -8.1012821    632.11609  0.018120516  0.017575924            2 
 2908000     0.786348    -8.085444    631.48538  0.018096211  0.017570196            1 
 2909000   0.77173637   -8.0997564    632.08266    0.0181071  0.017564479            2 
 2910000   0.79076696   -8.0862385    633.20723  0.018133082  0.017558766            1 
 2911000    0.7892062   -8.0820378    632.70212  0.018112393  0.017553077            3 
 2912000   0.77836165   -8.1199917    632.70798  0.018106341  0.017547364            2 
 2913000   0.80237667   -8.0681399    633.61804   0.01812616   0.01754166            1 
 2914000   0.79294141   -8.0678103    634.16214  0.018135499  0.017535988            4 
 2915000    0.7764463   -8.0665215    633.01378  0.018096449  0.017530303            1 
 2916000   0.79921622   -8.0592523    632.68998  0.018080989  0.017524631            2 
 2917000   0.77567409    -8.084296    632.27405  0.018062908  0.017518924            2 
 2918000   0.79774261   -8.0673799     632.5316  0.018064074  0.017513225            2 
 2919000   0.80061023   -8.1047485    630.67676  0.018004932  0.017507506            1 
 2920000   0.78869851   -8.0965896    633.19912  0.018070751  0.017501788            3 
 2921000   0.77681981   -8.0782055    633.26313  0.018066391  0.017496074            4 
 2922000   0.79135548   -8.0859121    632.36943   0.01803472   0.01749035            2 
 2923000   0.80063896   -8.1175953    632.29451  0.018026414  0.017484621            3 
 2924000   0.81012523    -8.117783    632.48056  0.018025552  0.017478895            2 
 2925000   0.77646422    -8.107164    633.78875   0.01805666  0.017473172            3 
 2926000   0.79813113   -8.1185742    632.92741  0.018025957  0.017467434            4 
 2927000   0.78511957   -8.1092592    632.74717  0.018014667    0.0174617            2 
 2928000   0.77394915   -8.0921736    632.56328  0.018003281  0.017455985            2 
 2929000   0.78447022   -8.0924101    632.56839   0.01799728  0.017450289            2 
 2930000   0.80697869   -8.0831624    633.17536  0.018008401  0.017444587            1 
 2931000   0.76172715   -8.0817975    632.65518  0.017987467  0.017438904            2 
 2932000   0.78373668   -8.0880287     632.3234  0.017971902  0.017433226            3 
 2933000   0.77263327    -8.062985    634.20809  0.018019323  0.017427603            2 
 2934000   0.78081589    -8.078082    632.23249  0.017957069  0.017421949            2 
 2935000   0.77653898   -8.0825356    634.58887  0.018017855  0.017416319            4 
 2936000     0.786041   -8.1069619    632.87193  0.017962986  0.017410644            2 
 2937000    0.7978948   -8.0612561    634.36765  0.017999309  0.017404998            2 
 2938000   0.77536279   -8.0981209    633.33148  0.017963793  0.017399352            2 
 2939000   0.77054933   -8.0769052    633.12182  0.017951736  0.017393699            3 
 2940000   0.79023132   -8.0953051    633.42097  0.017954109  0.017388037            4 
 2941000   0.79950049   -8.1043947    633.53865  0.017951339  0.017382381            2 
 2942000   0.78577472   -8.1107012    633.61821  0.017947491  0.017376719            2 
 2943000   0.76718122   -8.0864444    634.38411  0.017963079  0.017371069            5 
 2944000   0.77972475   -8.0980585    633.42648  0.017929871  0.017365423            2 
 2945000   0.78344087   -8.1220989    633.01442  0.017912123  0.017359754            2 
 2946000   0.77942959   -8.0926619    633.59493  0.017922463  0.017354094            2 
 2947000   0.77656369   -8.1175755    632.78234  0.017893404  0.017348419            2 
 2948000   0.78355706   -8.1142154     633.6379  0.017911519   0.01734276            2 
 2949000   0.76277812   -8.0856609    632.95171  0.017886055  0.017337104            2 
 2950000   0.79732608   -8.1133698    633.15896  0.017885846  0.017331418            3 
 2951000    0.7917562   -8.1287343    632.64622  0.017865306  0.017325742            2 
 2952000   0.78254135   -8.0904672    634.66636  0.017916282  0.017320082            2 
 2953000   0.79196751   -8.0932423     635.5948  0.017936415  0.017314422            2 
 2954000   0.76762637   -8.0894702    633.64724  0.017875402   0.01730878            4 
 2955000   0.77643148   -8.0968006    633.39805  0.017862325  0.017303126            3 
 2956000   0.77273259   -8.1150045    634.02777  0.017874035  0.017297464            2 
 2957000   0.77307412   -8.0959901    635.23155  0.017901915  0.017291814            2 
 2958000   0.79086507   -8.1287856    632.46315  0.017817871  0.017286184            2 
 2959000    0.7730931   -8.1296277    633.12015  0.017830352  0.017280525            3 
 2960000    0.7952327   -8.1270236    633.19768  0.017826511  0.017274866            3 
 2961000    0.7845833   -8.1190981    632.61843  0.017804189  0.017269208            3 
 2962000   0.76749209   -8.1331104    634.24523  0.017843946  0.017263556            1 
 2963000    0.7963194   -8.1265349     634.0535  0.017832532  0.017257914            4 
 2964000   0.78022235   -8.0937701    634.77648  0.017846842  0.017252277            4 
 2965000   0.79506143    -8.119204    634.18841  0.017824295  0.017246661            2 
 2966000   0.77274152   -8.1092701    634.37919  0.017823646  0.017241041            1 
 2967000   0.77033357   -8.1131953    634.44995  0.017819626  0.017235401            5 
 2968000   0.77755663   -8.1113946    634.07936  0.017803217  0.017229783            3 
 2969000   0.78562439   -8.1159817    634.58519  0.017811418  0.017224133            2 
 2970000   0.79274988   -8.1253677    634.54432  0.017804274  0.017218487            1 
 2971000   0.77699656   -8.1297152    633.22507  0.017761278  0.017212846            2 
 2972000   0.75936038   -8.1088589    632.60743  0.017737983  0.017207184            2 
 2973000   0.77924463   -8.1213755    635.07864  0.017801285  0.017201524            2 
 2974000   0.76875089    -8.143561    633.80164  0.017759517   0.01719586            2 
 2975000   0.77506369   -8.1319777    633.95126  0.017757738  0.017190215            3 
 2976000   0.78675392   -8.1226804    634.37488  0.017763634  0.017184555            2 
 2977000   0.79384897   -8.1337127    633.36689  0.017729451  0.017178903            2 
 2978000   0.79707138   -8.1285372    633.56652  0.017729083  0.017173259            3 
 2979000   0.78349881   -8.1280907    634.29697  0.017743565  0.017167612            6 
 2980000   0.78249288   -8.1337662    633.13666  0.017705164  0.017161941            2 
 2981000    0.7691227   -8.1203695    632.52648  0.017682167  0.017156289            3 
 2982000   0.77004844   -8.1463831    632.36919  0.017671842  0.017150633            2 
 2983000   0.77665616   -8.1000753    633.26644  0.017690983  0.017144981            2 
 2984000   0.76952762   -8.1185836    633.86016  0.017701635  0.017139359            1 
 2985000   0.77497384    -8.091753      634.612  0.017716694  0.017133744            2 
 2986000    0.7532403   -8.1256605    633.48005  0.017679171  0.017128129            3 
 2987000   0.76840201   -8.1046682    635.35131  0.017725458  0.017122491            2 
 2988000   0.76621448   -8.1084045    633.81354  0.017676638  0.017116851            4 
 2989000   0.77663868   -8.1354057    635.21238  0.017709724  0.017111237            1 
 2990000   0.77136258   -8.1143323    633.84542  0.017665703  0.017105592            1 
 2991000   0.76307301   -8.0967282     635.1527  0.017696219  0.017099977            2 
 2992000   0.77451857   -8.0908937    635.26151  0.017693335  0.017094373            2 
 2993000   0.78282869   -8.0986935    636.04085  0.017709123  0.017088782            2 
 2994000   0.76804844   -8.1334476    634.71404  0.017666278  0.017083188            3 
 2995000   0.76676413   -8.1214285    635.36059  0.017678369  0.017077558            1 
 2996000   0.79217766   -8.1500358    633.87906   0.01763126  0.017071931            2 
 2997000   0.77045537   -8.0995179    636.40641  0.017695652  0.017066333            2 
 2998000   0.75979417   -8.1067632     634.1371  0.017626671  0.017060754            4 
 2999000   0.77189835   -8.1410796    634.70213  0.017636494  0.017055166            2 
 3000000   0.76977432   -8.1339727     635.0431  0.017640086   0.01704954            2 
 3001000   0.76286857   -8.1310159    636.07084  0.017662747  0.017043933            2 
 3002000   0.76572293   -8.1654566    635.47367  0.017640286  0.017038335            1 
 3003000   0.77442105   -8.1421344    634.71823  0.017613448  0.017032694            1 
 3004000   0.76652382   -8.1508413    634.67576  0.017606407  0.017027081            1 
 3005000   0.76869996   -8.1332108    634.33162  0.017591004  0.017021465            3 
 3006000   0.76963371   -8.1219224    635.61103  0.017620621   0.01701586            2 
 3007000   0.78060278   -8.1179907    635.28524  0.017605732  0.017010257            1 
 3008000   0.76973543   -8.1184749    635.21314  0.017597882  0.017004651            2 
 3009000   0.78196378    -8.154898    635.24494  0.017592914  0.016999042            2 
 3010000   0.76810597   -8.1189459    634.73353  0.017572911  0.016993414            2 
 3011000    0.7380475   -8.1256248    636.36679  0.017612277  0.016987815            2 
 3012000   0.77222892   -8.1497755    634.63077  0.017558399  0.016982215            2 
 3013000   0.76548899   -8.1085929    634.32927  0.017544232   0.01697661            1 
 3014000   0.76654446   -8.1253364    635.83157  0.017579948  0.016971012            3 
 3015000   0.76723014   -8.1054255    636.03544  0.017579752   0.01696542            4 
 3016000   0.77470199   -8.1489975    635.38457   0.01755594  0.016959826            2 
 3017000   0.74840304   -8.1406449    635.65241  0.017557519  0.016954221            3 
 3018000   0.78455844    -8.119533    635.29788  0.017541912  0.016948605            1 
 3019000   0.74844042   -8.1298002    634.74639  0.017520879  0.016942997            3 
 3020000     0.753565   -8.1309242    634.90157  0.017519359  0.016937378            1 
 3021000   0.76094717   -8.1157279    636.10636  0.017546794  0.016931767            2 
 3022000    0.7618413   -8.1689967    633.61844  0.017472381  0.016926171            3 
 3023000   0.75970502   -8.1518109    633.54217  0.017464499  0.016920558            1 
 3024000   0.78729447   -8.1292232    635.42597  0.017510636  0.016914957            2 
 3025000   0.74362979   -8.1385903    634.48677  0.017478974  0.016909354            8 
 3026000   0.77313168    -8.152153    634.76888  0.017480967  0.016903742            7 
 3027000   0.76184362   -8.1593596    634.67933  0.017472727  0.016898148            1 
 3028000   0.76465193   -8.1286496    635.91246  0.017500893  0.016892535            1 
 3029000   0.75499367   -8.1483555     634.4403  0.017454614  0.016886924            1 
 3030000   0.77290551   -8.1606904    634.89569  0.017461378  0.016881328            2 
 3031000   0.77800693   -8.1201644    636.18121   0.01749096  0.016875763            1 
 3032000   0.75860351   -8.1530742    635.81862  0.017475226  0.016870188            3 
 3033000    0.7661699   -8.1408196    636.58527  0.017490528  0.016864622            4 
 3034000   0.77808599   -8.1197177    635.98936  0.017468396  0.016859056            2 
 3035000    0.7645503   -8.1504635    637.45261  0.017502817  0.016853479            2 
 3036000   0.76955565   -8.1514235     635.8844  0.017454008  0.016847887            2 
 3037000   0.76829332   -8.1475071    635.47206  0.017436946  0.016842307            2 
 3038000   0.76298248   -8.1516635    634.95604  0.017417052  0.016836717            2 
 3039000   0.75852666   -8.1183063     635.8685  0.017436341  0.016831121            1 
 3040000   0.77386267   -8.1319911    634.78916  0.017401019  0.016825539            5 
 3041000   0.74370876   -8.1578442    634.49175  0.017387147  0.016819941            1 
 3042000   0.75864694    -8.167067    634.94823  0.017393936  0.016814342            2 
 3043000   0.76030603    -8.139989    634.41792  0.017373697  0.016808757            1 
 3044000   0.76775574   -8.1452223    635.70317  0.017403175   0.01680316            1 
 3045000   0.75084849   -8.1328785    636.08182  0.017407822  0.016797597            2 
 3046000   0.76490013   -8.1416102    634.81564  0.017367467  0.016792013            4 
 3047000   0.77447897    -8.130389    635.19755  0.017372212  0.016786444            2 
 3048000   0.76064464   -8.1359658    635.58578  0.017377127  0.016780881            3 
 3049000   0.78188513   -8.1584819     635.6052  0.017371958  0.016775332            3 
 3050000   0.76324139   -8.1397513    635.57783  0.017365515  0.016769773            5 
 3051000   0.76388588     -8.17725    635.84737  0.017367185   0.01676421            3 
 3052000   0.77426121   -8.1632719    636.35719  0.017375415  0.016758638            1 
 3053000   0.75034672   -8.1394898    637.00635  0.017387443  0.016753107            1 
 3054000    0.7587737    -8.155645    636.18025  0.017359208  0.016747561            2 
 3055000   0.76665966    -8.150877     636.0997  0.017351328  0.016742014            8 
 3056000   0.75910476   -8.1479934    636.69102  0.017361775  0.016736479            3 
 3057000   0.75693332   -8.1460137    637.05781  0.017366095  0.016730942            1 
 3058000   0.76304472   -8.1591288    636.86118  0.017355057  0.016725405            1 
 3059000   0.77183292     -8.13873    637.49636  0.017366687  0.016719875            3 
 3060000   0.75578296   -8.1686907    636.31115  0.017328735  0.016714335            2 
 3061000   0.77552061   -8.1740681    636.45862  0.017327089  0.016708792            1 
 3062000   0.76060576   -8.1386787    635.57744  0.017297448  0.016703273            1 
 3063000   0.76617349    -8.147516    635.65805  0.017293994  0.016697777            3 
 3064000   0.76925562    -8.125555    637.47982  0.017337898  0.016692245            3 
 3065000   0.76711433   -8.1298124    637.35674  0.017328895  0.016686731            4 
 3066000   0.77350105   -8.1370284    637.04312  0.017314718  0.016681201            6 
 3067000   0.76393265   -8.1288848    636.48525  0.017293915  0.016675685            3 
 3068000   0.76297393   -8.1363704    637.31527  0.017310823  0.016670173            1 
 3069000   0.76656534   -8.1474646    636.79375  0.017291022  0.016664651            2 
 3070000   0.77117499   -8.1499911    636.22251  0.017269884  0.016659109            3 
 3071000    0.7686038   -8.1581114      636.518  0.017272278  0.016653575            3 
 3072000   0.76736076    -8.142632    636.27682  0.017260113  0.016648048            1 
 3073000   0.74580693     -8.15443     635.1495  0.017223926  0.016642503            2 
 3074000   0.76923793    -8.155149    635.52982  0.017228633  0.016636954            3 
 3075000   0.75555799   -8.1489942    634.17519  0.017186319  0.016631365            2 
 3076000   0.76170733   -8.1410171    635.43281  0.017214803  0.016625792            1 
 3077000   0.76719639   -8.1774439     636.0439  0.017225758  0.016620218            1 
 3078000   0.74552781   -8.1658325    635.16803  0.017196449  0.016614637            4 
 3079000   0.76225799   -8.1697692    634.61688  0.017175947  0.016609072            5 
 3080000   0.75735056   -8.1654261    635.91414  0.017205469  0.016603515            2 
 3081000   0.74996037   -8.1426443    637.44167  0.017241201  0.016597968            2 
 3082000    0.7883014   -8.1755594    635.07966  0.017171741  0.016592427            2 
 3083000    0.7663443   -8.1836586    635.68216  0.017182456  0.016586866            2 
 3084000   0.75877254   -8.1611065    636.22694  0.017191606  0.016581314            2 
 3085000   0.76980363   -8.1474708    636.81507   0.01720192  0.016575766            4 
 3086000    0.7680599   -8.1534943    635.83824  0.017169968  0.016570219            4 
 3087000   0.76873879   -8.1814768    636.55007  0.017183621  0.016564632            2 
 3088000   0.74501104    -8.173184    635.17982  0.017141079  0.016559073            3 
 3089000   0.75640927   -8.1665503    636.70522  0.017176681  0.016553539            1 
 3090000   0.75996993    -8.153132    636.11325  0.017155158  0.016548019            2 
 3091000   0.76592503   -8.1678029    637.05896  0.017175104  0.016542491            1 
 3092000   0.76072044   -8.1869029    636.42711   0.01715252  0.016536958            3 
 3093000   0.75696022   -8.1370872    637.98958  0.017189072  0.016531425            3 
 3094000   0.74909391   -8.1719078    636.51353   0.01714376  0.016525882            5 
 3095000   0.75017204   -8.1908197    636.36985  0.017134352  0.016520324            3 
 3096000   0.76712968   -8.1501463    637.29609  0.017153749  0.016514776            3 
 3097000   0.76029705   -8.1934537    636.67613  0.017131529   0.01650923            3 
 3098000   0.76330639   -8.1731107    635.78321   0.01710198  0.016503689            2 
 3099000   0.76452524   -8.1867722    636.56285  0.017117426  0.016498147            2 
 3100000   0.75585317   -8.1582585    637.40888  0.017134647   0.01649264            1 
 3101000   0.74592112   -8.1543444    637.04855  0.017119438  0.016487131            4 
 3102000   0.75591168   -8.1497923    636.22704   0.01709185  0.016481602            2 
 3103000   0.76945262   -8.1921263    636.75754  0.017100589   0.01647608            3 
 3104000   0.74978595   -8.1625641    637.14723  0.017105542  0.016470549            4 
 3105000   0.73285701     -8.18735    635.29404  0.017050296  0.016465031            2 
 3106000   0.76583895   -8.1730391    636.14349  0.017067597  0.016459501            3 
 3107000   0.74871157   -8.2163219    638.06837  0.017113732  0.016453993            1 
 3108000   0.74795683   -8.1815145    636.83483  0.017075151  0.016448467            3 
 3109000   0.77188561   -8.2191473    635.73663  0.017040223  0.016442942            2 
 3110000   0.75084422   -8.1860187    636.48234  0.017054725  0.016437405            3 
 3111000   0.76639599   -8.1968471    637.00839  0.017063334  0.016431885            1 
 3112000   0.75390756   -8.2030651    636.78757  0.017051938  0.016426348            2 
 3113000   0.74804621   -8.2272801    636.15063   0.01702941  0.016420807            2 
 3114000   0.74582983   -8.1885806    636.90833  0.017044218  0.016415277            1 
 3115000   0.74873181   -8.1863105    635.90613  0.017011935  0.016409771            1 
 3116000   0.75916593   -8.1764694    636.35624  0.017018513  0.016404273            2 
 3117000     0.744825   -8.1783183    636.51907  0.017017407  0.016398784            1 
 3118000   0.76949408   -8.1815855    636.75513  0.017018258   0.01639329            1 
 3119000   0.77188183   -8.1916667    636.25492  0.016999437  0.016387786            3 
 3120000   0.73338488   -8.1908757    637.27425  0.017021214  0.016382261            2 
 3121000   0.75143341   -8.1955872    637.45602  0.017020614   0.01637676            4 
 3122000    0.7388806   -8.1794126    635.38586  0.016959905  0.016371265            2 
 3123000   0.74235579   -8.1845471    637.30966  0.017005808  0.016365766            2 
 3124000   0.75351458   -8.1777981    635.81053  0.016960375  0.016360278            1 
 3125000   0.73819559   -8.1825824    636.18329  0.016964888  0.016354769            1 
 3126000   0.73206412   -8.1818357    636.71577  0.016973656  0.016349274            2 
 3127000   0.75818207   -8.2047362    636.01857  0.016949648   0.01634377            2 
 3128000   0.77964048   -8.1815758    636.28483  0.016951322  0.016338294            2 
 3129000   0.76090727   -8.1654726    637.76789  0.016985402  0.016332819            1 
 3130000   0.75869407   -8.1668997    635.90368  0.016930343  0.016327357            1 
 3131000    0.7651718   -8.1652393    637.40589  0.016964918  0.016321911            3 
 3132000    0.7529528   -8.2320358    636.03103   0.01692292   0.01631643            1 
 3133000   0.72372975   -8.1965105    636.53728  0.016930984  0.016310945            4 
 3134000   0.73561404   -8.1607386    638.76735  0.016984879  0.016305481            2 
 3135000   0.73370899   -8.1955566    638.00693  0.016959248  0.016300032            2 
 3136000   0.74663176   -8.2083445    637.12383  0.016930374   0.01629456            2 
 3137000   0.74552334   -8.1897899    637.97066  0.016947473  0.016289077            1 
 3138000   0.75388359   -8.2084673    636.77191  0.016910238  0.016283619            2 
 3139000   0.75280944   -8.1678082    637.00756  0.016911106  0.016278137            2 
 3140000   0.73321389   -8.1891753    637.11429  0.016908553  0.016272665            6 
 3141000   0.75051089   -8.1737757    638.72357  0.016945866  0.016267196            4 
 3142000    0.7465352   -8.1619058    637.90235  0.016918692  0.016261736            2 
 3143000   0.74076602   -8.1740203    637.82113  0.016911155   0.01625626            2 
 3144000   0.76918941   -8.2181442    636.98089  0.016883505  0.016250802            1 
 3145000   0.74214441   -8.2163906    636.04942  0.016853456  0.016245335            2 
 3146000   0.74664479   -8.1967832    637.32932  0.016882002  0.016239844            2 
 3147000   0.74700891   -8.1889794    636.70693  0.016860156  0.016234376            1 
 3148000   0.74996868   -8.1926445    637.48028  0.016875272  0.016228926            4 
 3149000   0.76749314   -8.1688346    637.79117   0.01687814  0.016223487            5 
 3150000   0.76986194   -8.1526879    638.65636  0.016895671  0.016218031            1 
 3151000   0.75237973   -8.1879676    636.49928  0.016833261  0.016212577            2 
 3152000   0.75004568   -8.2038767    635.43292  0.016799728  0.016207108            3 
 3153000   0.76298213   -8.1975643    636.24543  0.016815875  0.016201625            2 
 3154000   0.72429878   -8.2077788    636.54912  0.016818567  0.016196148            4 
 3155000   0.74283031   -8.2027635    636.07859  0.016800808  0.016190653            5 
 3156000   0.73857058   -8.2084878    635.95884  0.016792323  0.016185177            1 
 3157000   0.74429002   -8.2001751    638.58787    0.0168564  0.016179693            2 
 3158000   0.75457104   -8.1997197    636.49605  0.016795864  0.016174204            2 
 3159000   0.75572488   -8.1795833    638.04594  0.016831432  0.016168752            3 
 3160000   0.73551158   -8.1939304    638.09757  0.016827468  0.016163291            1 
 3161000   0.74907543   -8.1830467    636.29403  0.016774597  0.016157829            1 
 3162000   0.74399836   -8.1911184    636.48728  0.016774385  0.016152375            2 
 3163000   0.74211499     -8.20558    635.97926  0.016755698  0.016146907            1 
 3164000   0.73147714   -8.1869091    636.33012  0.016759643  0.016141445            3 
 3165000   0.75419625   -8.1987097     637.6835  0.016789982  0.016136001            2 
 3166000   0.74590438   -8.1848916    637.82552  0.016788417  0.016130572            4 
 3167000   0.74480489   -8.1666534    638.39221  0.016798027  0.016125148            2 
 3168000    0.7660912   -8.2035568    638.02125  0.016782966  0.016119731            2 
 3169000   0.75773613   -8.2159584    637.46073  0.016762931    0.0161143            1 
 3170000   0.76935433   -8.1875401    637.20348   0.01675088  0.016108868            2 
 3171000   0.74142678   -8.1875784     638.4942  0.016779517   0.01610343            2 
 3172000   0.74289628   -8.1933953    637.62079  0.016751282  0.016097996            2 
 3173000   0.73844286   -8.1701953    638.49595  0.016768987   0.01609257            2 
 3174000   0.72931004   -8.1729722    636.18087  0.016702921  0.016087139            1 
 3175000    0.7427983   -8.1799161    638.34091  0.016754355  0.016081701            4 
 3176000   0.75671981   -8.1938595    637.32363  0.016722387   0.01607626            1 
 3177000   0.74399032    -8.241652    636.91854  0.016706498  0.016070806            6 
 3178000   0.73301048   -8.2070863    636.78679  0.016697787  0.016065361            6 
 3179000   0.74570297   -8.1717734    639.02652  0.016751246  0.016059908            2 
 3180000   0.73246075   -8.2224505    637.13072  0.016696298  0.016054452            2 
 3181000   0.73870203    -8.204978    637.26391  0.016694538  0.016048999            1 
 3182000    0.7495232   -8.2018451    637.24028  0.016688673  0.016043566            3 
 3183000    0.7480917   -8.2064999    637.28723  0.016684659  0.016038132            1 
 3184000   0.74458321   -8.1999468    637.94548  0.016696647  0.016032729            2 
 3185000   0.73241511   -8.1923313    638.49084  0.016705674  0.016027321            2 
 3186000   0.74464267   -8.2118426    637.33434   0.01667018  0.016021911            2 
 3187000   0.73173626   -8.2099044    636.93539  0.016654518  0.016016488            3 
 3188000   0.73922207   -8.2059139    637.76125  0.016670882   0.01601107            1 
 3189000    0.7376045   -8.1851623    638.32685  0.016680434  0.016005666            1 
 3190000   0.74588135   -8.2015187    637.28238   0.01664792  0.016000275            1 
 3191000   0.75243024   -8.2232855    636.99408  0.016635174  0.015994868            3 
 3192000   0.74563121   -8.2283934    637.00928  0.016630359  0.015989462            2 
 3193000   0.73873966   -8.2159726    637.40368  0.016635444  0.015984067            2 
 3194000   0.74365165   -8.2183414    638.04365  0.016646933  0.015978664            4 
 3195000   0.74001069   -8.2042064    635.84004  0.016584247  0.015973247            1 
 3196000   0.76259904   -8.1989773    638.36472  0.016644887  0.015967835            5 
 3197000   0.76339171   -8.2317319    637.32975  0.016612703  0.015962417            2 
 3198000    0.7397778   -8.2037423    636.32839  0.016581415  0.015956997            3 
 3199000   0.71647223   -8.2049897     638.4953  0.016632679  0.015951598            7 
 3200000   0.74068752   -8.1802261    639.09107  0.016642997  0.015946211            2 
 3201000   0.72388152   -8.2131421    637.97104  0.016608639  0.015940821            9 
 3202000   0.73896859   -8.2313326    637.46463  0.016590272  0.015935442            2 
 3203000   0.73099956   -8.2036846    636.59513  0.016562471  0.015930055            2 
 3204000   0.73623438   -8.1984992    637.99664  0.016593754  0.015924675            2 
 3205000   0.72599094   -8.1900887    638.86496  0.016611153  0.015919294            2 
 3206000   0.74345594   -8.2085637    638.04514  0.016584663  0.015913915            4 
 3207000   0.73932011   -8.2017559    639.34761  0.016613336  0.015908533            4 
 3208000   0.74237881   -8.2028539    638.99772  0.016599068  0.015903175            4 
 3209000   0.73625009   -8.2189608    638.06586  0.016569696  0.015897786            1 
 3210000   0.72732687   -8.1840614    639.06964  0.016590593  0.015892382            2 
 3211000    0.7546173   -8.2241445    637.77944  0.016551942  0.015886983            1 
 3212000   0.73904576    -8.214386    637.47497   0.01653889  0.015881572            3 
 3213000   0.73701613   -8.2195679    636.81542  0.016516636  0.015876168            2 
 3214000   0.74530769   -8.2077736    638.27935  0.016549454  0.015870746            1 
 3215000   0.72540943   -8.2328824    636.97718  0.016510554  0.015865343            4 
 3216000   0.73380703   -8.1861387     637.2687  0.016512974  0.015859948            2 
 3217000   0.74661052   -8.1999967    637.79419  0.016521454  0.015854577            2 
 3218000   0.74692693   -8.1965198    637.04269  0.016496859  0.015849186            2 
 3219000   0.73749667    -8.217939    636.95124  0.016489366  0.015843796            2 
 3220000   0.72950552   -8.1996867     638.8941  0.016534526  0.015838424            1 
 3221000   0.75377372   -8.2201715    637.14791  0.016484216  0.015833042            2 
 3222000    0.7502831   -8.2427428    635.52119  0.016437027  0.015827657            1 
 3223000   0.72604069   -8.2360794    637.69095  0.016488027  0.015822243            2 
 3224000   0.71816986   -8.2047321    637.05627  0.016466508  0.015816825            1 
 3225000   0.73322111    -8.194132    637.53594  0.016473797  0.015811446            2 
 3226000   0.72525594   -8.1906849    638.75095  0.016500076  0.015806067            2 
 3227000   0.72992879   -8.2067885    638.27222    0.0164826  0.015800697            1 
 3228000   0.74466489   -8.2268682    636.44051  0.016430207  0.015795346            1 
 3229000   0.72148632   -8.2262686    638.01295    0.0164657  0.015789983            5 
 3230000   0.74787576   -8.2184879    638.95399  0.016484881  0.015784613            1 
 3231000   0.73995969   -8.2177939    638.52729  0.016468774  0.015779239            2 
 3232000   0.72189525   -8.2261241    638.45741  0.016461876  0.015773853            3 
 3233000    0.7181882   -8.1871815    637.56169  0.016433697  0.015768479            1 
 3234000   0.74432195   -8.2166491    636.79366  0.016408825  0.015763132            2 
 3235000   0.74131143   -8.1945215    639.67071  0.016477865  0.015757791            3 
 3236000   0.73387586   -8.1880311    638.91386  0.016453282   0.01575246            2 
 3237000   0.71949199   -8.1717826    638.07138  0.016426511  0.015747129            2 
 3238000   0.72137877   -8.1969331    638.15241  0.016423523  0.015741798            4 
 3239000   0.73429132   -8.2103796     638.6518  0.016431301  0.015736459            1 
 3240000   0.73843192   -8.2017027    638.09405  0.016411884   0.01573112            2 
 3241000   0.74266023   -8.1947014    639.02526  0.016430764  0.015725785            3 
 3242000   0.72506424   -8.2174983    638.63079  0.016415556  0.015720442            3 
 3243000   0.74517547   -8.2242119    638.21731  0.016399869  0.015715111            2 
 3244000   0.72710982    -8.188021    638.31359  0.016397287  0.015709783            2 
 3245000   0.72812624   -8.2150155    638.77766  0.016404151  0.015704449            3 
 3246000   0.73617386    -8.227626    638.74043  0.016398142  0.015699108            3 
 3247000   0.74194163    -8.207142    638.52616  0.016387593  0.015693772            1 
 3248000   0.73925665    -8.210689    638.73785  0.016387978  0.015688428            3 
 3249000   0.73511512   -8.2083519    637.13624  0.016341855  0.015683089            2 
 3250000    0.7296321   -8.2375183    637.00001  0.016333334  0.015677728            6 
 3251000   0.72448014   -8.2226987    637.53798  0.016342099   0.01567236            2 
 3252000   0.74007627   -8.2305811    638.28471  0.016356209  0.015666982            2 
 3253000   0.71180422   -8.2321629    636.39099  0.016302669  0.015661615            1 
 3254000   0.73498389   -8.2333409    636.42385  0.016298501  0.015656254            3 
 3255000   0.73854647   -8.2507858    637.60993  0.016323859  0.015650903            3 
 3256000   0.73621906   -8.2343929    637.59915   0.01631857  0.015645533            4 
 3257000   0.71166616   -8.2349752    637.14219  0.016301868  0.015640185            2 
 3258000   0.74878749   -8.2392793    637.63965  0.016309588  0.015634833            2 
 3259000   0.72315026    -8.247078    637.06462   0.01628988  0.015629487            1 
 3260000   0.71299927   -8.2179983    637.61137  0.016298859   0.01562416            2 
 3261000   0.72692929    -8.242542    638.55195  0.016317897   0.01561882            1 
 3262000   0.75166964   -8.2284165    638.74253  0.016317763  0.015613501            2 
 3263000   0.73907143   -8.2000593    638.67481  0.016311033  0.015608175            2 
 3264000   0.73151045   -8.2179752    639.84441  0.016335897  0.015602861            2 
 3265000   0.71918101   -8.1952477    638.21968  0.016289425  0.015597536            3 
 3266000   0.74060612   -8.2478146    639.27431  0.016311347  0.015592233            3 
 3267000   0.73713869   -8.2053901    638.69172  0.016291494  0.015586945            1 
 3268000   0.73445245   -8.1815193    639.52112  0.016307658  0.015581664            1 
 3269000   0.72433424    -8.229794    638.52369  0.016277243  0.015576359            3 
 3270000   0.72225574   -8.2280056    639.87745  0.016306765  0.015571066            2 
 3271000   0.72994507   -8.2398787    638.39099   0.01626391  0.015565766            3 
 3272000    0.7363801   -8.2137092     638.5238  0.016262322   0.01556048            2 
 3273000    0.7247225   -8.2405153    638.73465  0.016262722  0.015555185            2 
 3274000   0.72880471   -8.2407462    637.91493   0.01623689  0.015549907            2 
 3275000   0.72066414   -8.2260396    638.17671  0.016238593  0.015544623            2 
 3276000   0.71615766   -8.2285901    638.41366  0.016239664  0.015539335            1 
 3277000   0.71700541   -8.2062989     637.6235  0.016214614   0.01553404            3 
 3278000   0.71571218   -8.2214523    637.37371  0.016203318  0.015528721            4 
 3279000   0.73103948   -8.2115822     639.0501   0.01624098  0.015523421            2 
 3280000   0.71665438   -8.2271158    638.50475  0.016222174  0.015518121            3 
 3281000   0.72511903   -8.2394491    638.10376  0.016207045  0.015512814            2 
 3282000   0.72180571    -8.220178    638.50226  0.016212225  0.015507526            1 
 3283000   0.74510143   -8.2300209    639.19501  0.016224871  0.015502255            2 
 3284000   0.72444986   -8.2597426    638.09914  0.016192122  0.015496972            2 
 3285000   0.72029085   -8.2014891    639.56445  0.016224365  0.015491682            2 
 3286000   0.72080544   -8.2520413    636.96599   0.01615353  0.015486388            5 
 3287000   0.73866889    -8.237631    639.12317  0.016203305  0.015481096            2 
 3288000   0.71866865   -8.2285704     638.2822  0.016177063  0.015475788            2 
 3289000   0.71120762   -8.2364529    638.52796  0.016178371  0.015470493            1 
 3290000   0.72563014   -8.2351541     637.3778  0.016144321  0.015465199            1 
 3291000   0.72955248   -8.2344249    637.45919  0.016141476  0.015459887            2 
 3292000   0.71842826   -8.1915637    638.96381  0.016174661  0.015454585            2 
 3293000   0.72648111   -8.2524014    637.99276  0.016145176  0.015449301            3 
 3294000   0.71384513     -8.25186    638.15535  0.016144387  0.015443999            3 
 3295000   0.73156216   -8.2398715    638.78334   0.01615537  0.015438698            1 
 3296000   0.71964074   -8.2557602    639.48764  0.016168276  0.015433395            3 
 3297000   0.72848185   -8.2538773    638.12916  0.016129036  0.015428101            3 
 3298000   0.73171672    -8.229019    638.03312  0.016121718  0.015422812            2 
 3299000   0.73012069   -8.2776027    638.38968  0.016125838  0.015417532            4 
 3300000   0.73185575   -8.2594958    637.22546  0.016091552  0.015412254            3 
 3301000   0.72419195   -8.2387106    637.55101  0.016094896  0.015406966            2 
 3302000   0.71873346   -8.2566405    636.93835   0.01607456   0.01540168            2 
 3303000   0.72584435   -8.2895479      636.919  0.016069205  0.015396386            3 
 3304000   0.70909193   -8.2508705    638.26514  0.016098293  0.015391095            1 
 3305000   0.72095381    -8.262355     638.7989  0.016106881  0.015385792            7 
 3306000   0.72586714   -8.2414941    636.82574  0.016052272  0.015380493            3 
 3307000   0.71521921   -8.2402962    638.97409  0.016101555  0.015375201            4 
 3308000   0.71590258   -8.2573831    639.03392  0.016098194  0.015369911            2 
 3309000   0.71145091   -8.2625111    638.75245  0.016086241   0.01536462            2 
 3310000   0.71007298   -8.2497189    638.23345  0.016068314  0.015359332            3 
 3311000   0.72487982   -8.2689548    638.35952  0.016066634   0.01535404            2 
 3312000   0.72318634   -8.2632596    638.62928  0.016068571  0.015348763            1 
 3313000   0.71847496   -8.2704984    638.23657  0.016053843  0.015343486            2 
 3314000   0.71840053   -8.2762368    639.09822  0.016070665   0.01533821            3 
 3315000   0.73089351   -8.2566166    639.59433  0.016078289  0.015332946            2 
 3316000   0.73694495   -8.2351134    638.86263  0.016055052    0.0153277            1 
 3317000   0.69990537   -8.2803307    638.28292  0.016035648  0.015322445            4 
 3318000   0.71914015   -8.2541222    638.92795  0.016047015  0.015317197            4 
 3319000   0.72337692   -8.2745073    638.59751  0.016033883  0.015311941            3 
 3320000   0.72382914   -8.2840213    638.18864  0.016018791  0.015306681            3 
 3321000   0.71859461    -8.237361    638.90289   0.01603189   0.01530144            2 
 3322000   0.72571522   -8.2735989    638.31449  0.016012304  0.015296188            2 
 3323000   0.70968957   -8.2496841    637.24368  0.015980632  0.015290949            3 
 3324000   0.71990543   -8.2557643    637.73336  0.015988101  0.015285725            2 
 3325000   0.71053131    -8.262936    637.98292  0.015989547  0.015280509            1 
 3326000   0.71416047   -8.2962283    638.88979  0.016007461  0.015275279            2 
 3327000   0.74053982    -8.257312    637.94418  0.015978965  0.015270051            2 
 3328000    0.7090932   -8.2713632    639.60297  0.016015699  0.015264828            2 
 3329000   0.73556363   -8.2695219    639.47978  0.016007805  0.015259599            3 
 3330000   0.72872345    -8.294685    638.71937  0.015983968   0.01525436            1 
 3331000   0.70935709   -8.3027629    638.01631  0.015961581  0.015249107            2 
 3332000    0.7214834   -8.2995229    639.10879  0.015984113  0.015243856            2 
 3333000   0.72372132   -8.2823592    638.89875  0.015974066  0.015238614            1 
 3334000   0.72464857   -8.2794242    637.68398  0.015938912  0.015233389            3 
 3335000   0.71217266   -8.2852723    638.02833  0.015942737  0.015228135            2 
 3336000   0.74224167    -8.303043    637.21572  0.015917659    0.0152229            1 
 3337000   0.71435381     -8.26132     638.4876  0.015944651  0.015217689            3 
 3338000   0.71887191   -8.2863583    638.77199  0.015946974  0.015212476            2 
 3339000   0.72999618   -8.2552518    639.37528  0.015957255  0.015207266            1 
 3340000     0.706799    -8.265712      638.197  0.015923079  0.015202065            6 
 3341000   0.72734049   -8.2669138    638.70952  0.015931097  0.015196887            1 
 3342000   0.72710111   -8.2690228    639.91559  0.015956403  0.015191703            1 
 3343000    0.7207041   -8.2764203    639.11596  0.015931697  0.015186519            1 
 3344000   0.72333076   -8.2507966    638.96864  0.015923262  0.015181332            2 
 3345000   0.72495989   -8.2582987    639.90262  0.015941769   0.01517615            1 
 3346000   0.70430847   -8.2610469    639.51002  0.015927227  0.015170962            2 
 3347000   0.72163314   -8.2752357    639.40426  0.015919835  0.015165783            1 
 3348000   0.72278881   -8.2833092    638.27234  0.015886906   0.01516059            4 
 3349000   0.70726206   -8.3029743    638.43739  0.015886269  0.015155387            5 
 3350000   0.71273334   -8.2847303     639.4546  0.015906831  0.015150186            2 
 3351000   0.70538756   -8.3198756    639.00676  0.015890947  0.015144984            3 
 3352000   0.71731602   -8.2710473    639.43386  0.015896824  0.015139803            2 
 3353000   0.72907665   -8.2681455    639.96998  0.015905408  0.015134636            3 
 3354000   0.70917842   -8.2862613    640.41826  0.015911803  0.015129472            1 
 3355000   0.71900592   -8.2943906    638.20279  0.015852032    0.0151243            2 
 3356000    0.7356496   -8.2926163    639.49605  0.015879421  0.015119129            1 
 3357000   0.69628945   -8.3051705    638.36189  0.015846537  0.015113944            3 
 3358000   0.71294287   -8.3031377    639.42742   0.01586826  0.015108775            6 
 3359000   0.72118822   -8.2854787    639.28618  0.015860032  0.015103607            1 
 3360000   0.70046483   -8.2960238    639.67918  0.015865059  0.015098433            3 
 3361000   0.72079863   -8.2937909    639.28547  0.015850577  0.015093265            5 
 3362000   0.70436806   -8.2988457     638.4551   0.01582528  0.015088102            3 
 3363000   0.71186749   -8.2908867    639.47759  0.015845911  0.015082933            2 
 3364000    0.7015979   -8.2882752    639.65448  0.015845583  0.015077781            2 
 3365000   0.70319514   -8.3022376    638.59759    0.0158147  0.015072626            4 
 3366000   0.71031665   -8.3251867    639.10591  0.015822586  0.015067479            4 
 3367000   0.71361464   -8.2878132    639.51004  0.015827889   0.01506232            2 
 3368000    0.7083031   -8.3072735    638.68771  0.015802843  0.015057166            2 
 3369000   0.69878897   -8.2859051    638.94411  0.015804495  0.015052025            1 
 3370000    0.7139043   -8.2683924    639.74573  0.015819627  0.015046884            7 
 3371000    0.7101165   -8.3038522    639.82728   0.01581695  0.015041736            2 
 3372000   0.72316984   -8.3138598    640.22112  0.015821993  0.015036591            3 
 3373000   0.70867468   -8.2936374    639.74208  0.015805467  0.015031441            3 
 3374000   0.70459771   -8.2987536    637.64395  0.015748961  0.015026306            2 
 3375000   0.71550532    -8.280287    639.57254  0.015791915  0.015021165            3 
 3376000   0.72301459   -8.3153093    639.75008  0.015791619  0.015016023            2 
 3377000   0.70588977   -8.3151612    639.37941  0.015777796  0.015010896            2 
 3378000   0.72579748   -8.2699712    641.16575  0.015817193  0.015005772            1 
 3379000   0.71714156   -8.3256931    639.78483  0.015778456  0.015000642            1 
 3380000   0.73458517   -8.3019245    639.14737  0.015758071  0.014995501            2 
 3381000   0.70170855   -8.2913411    637.98767  0.015724827  0.014990378            1 
 3382000   0.71203853   -8.2924898     639.1633  0.015749145  0.014985254            3 
 3383000   0.70329195   -8.2959482    639.71503   0.01575808  0.014980134            3 
 3384000   0.72321044   -8.2795304    640.96918  0.015784308  0.014975027            1 
 3385000   0.70949495   -8.2967065    639.67738  0.015747843  0.014969913            2 
 3386000   0.70940997   -8.2950501    639.32605  0.015734546  0.014964794            3 
 3387000   0.70284429   -8.2986482    639.97341  0.015745827  0.014959682            2 
 3388000   0.70266482   -8.3324005    638.92595  0.015715416  0.014954572            4 
 3389000   0.71768807   -8.2969264    639.48857  0.015724613  0.014949455            1 
 3390000   0.71026344   -8.3073416    640.28903  0.015739652  0.014944327            3 
 3391000   0.70202262   -8.3064105    639.58351  0.015717672  0.014939212            4 
 3392000   0.70560582    -8.297637    639.38595  0.015708185  0.014934107            1 
 3393000    0.6975864   -8.3079345    637.25443  0.015651204  0.014929006            3 
 3394000   0.72113079   -8.2981113    639.41425  0.015699623  0.014923901            1 
 3395000   0.70443457   -8.3235688    638.28948   0.01566739  0.014918788            4 
 3396000    0.7161567   -8.3024689    638.29934  0.015663019  0.014913669            2 
 3397000   0.71921976    -8.316107    639.26628  0.015682128   0.01490855            3 
 3398000   0.72827187    -8.300627    638.96749  0.015670186  0.014903426            2 
 3399000   0.70457091   -8.3038652    639.90592  0.015688583  0.014898298            4 
 3400000   0.72303702   -8.3019617    639.56441  0.015675598  0.014893192            4 
 3401000   0.70476297   -8.3176155     638.5471  0.015646063  0.014888079            1 
 3402000   0.71188421   -8.3129112    638.72653  0.015645859  0.014882955            1 
 3403000   0.70594188   -8.3200054    639.76532  0.015666699  0.014877826            2 
 3404000   0.70861768    -8.317341    637.53027   0.01560738  0.014872703            2 
 3405000   0.70586106   -8.3481555    638.00775  0.015614482  0.014867583            1 
 3406000   0.71711072   -8.3027252     639.0158  0.015634562  0.014862474            1 
 3407000   0.70868721   -8.2922045    639.22399  0.015635065  0.014857373            2 
 3408000   0.70691975   -8.3186978    638.75139  0.015618921  0.014852249            2 
 3409000   0.72896571   -8.3227585    639.55537  0.015633993  0.014847129            1 
 3410000   0.71212368   -8.3341143    639.46767  0.015627265  0.014842016            2 
 3411000   0.69847636   -8.3225771    639.15079  0.015614941  0.014836912            2 
 3412000   0.68678914   -8.3370371     638.5212  0.015594988  0.014831808            1 
 3413000   0.70196627   -8.3044106    641.28421  0.015657882    0.0148267            2 
 3414000   0.70409913   -8.3311897    640.90002  0.015643918  0.014821606            1 
 3415000   0.71270766    -8.315443    640.09367   0.01561966  0.014816514            3 
 3416000   0.69130844   -8.3266832    639.16639  0.015592467  0.014811427            2 
 3417000   0.71990279   -8.3147542    639.94738   0.01560695  0.014806343            4 
 3418000   0.68962084    -8.335247    639.66537  0.015595508  0.014801261            4 
 3419000   0.69277645   -8.3340673    639.49713  0.015586846  0.014796177            8 
 3420000   0.69941395    -8.304976    638.41732  0.015555978  0.014791092            1 
 3421000   0.70424846   -8.3451525    639.56926  0.015579491   0.01478599            2 
 3422000   0.70742779   -8.3440654    637.80062  0.015531868  0.014780898            1 
 3423000   0.70540689   -8.3382032    640.32395  0.015588761  0.014775826            2 
 3424000     0.705647   -8.3157901    639.51921  0.015564622  0.014770751            1 
 3425000   0.70702688   -8.3312164    640.06987  0.015573476  0.014765681            5 
 3426000   0.70242282   -8.3273264    640.78801  0.015586398   0.01476062            2 
 3427000   0.69709697    -8.305495    640.59196  0.015577083  0.014755561            1 
 3428000   0.72139303   -8.3047576    639.67561  0.015550263   0.01475051            2 
 3429000   0.70259676     -8.35591    639.55401  0.015542773  0.014745456            2 
 3430000   0.71804091   -8.3287466    639.63965  0.015540322  0.014740394            2 
 3431000   0.70344738   -8.3091844    639.48637   0.01553207  0.014735343            2 
 3432000    0.7032678   -8.3163626    639.51434  0.015528223  0.014730283            1 
 3433000   0.69880028   -8.3120961     638.7171  0.015504348   0.01472524            1 
 3434000   0.70419108   -8.3481162    639.68926  0.015523424  0.014720169            2 
 3435000   0.71010195   -8.3374478    640.61284  0.015541311   0.01471511            3 
 3436000   0.70817802   -8.3267679    638.22565  0.015478891  0.014710046            2 
 3437000   0.69065134   -8.3516459    638.35993  0.015477643     0.014705            2 
 3438000   0.70751294   -8.3283283    639.85237  0.015509317  0.014699961            2 
 3439000   0.72012175   -8.2988194    640.18904  0.015512965  0.014694922            2 
 3440000   0.69926016   -8.3523391    639.84239  0.015500058  0.014689885            3 
 3441000   0.70981776   -8.3465777    638.81922  0.015470774  0.014684844            2 
 3442000   0.69388287   -8.3091205    640.78878  0.015513964   0.01467981            1 
 3443000   0.69837327    -8.346977    640.08283  0.015492372   0.01467477            2 
 3444000   0.72575993   -8.3540934     639.6817  0.015478167  0.014669725            3 
 3445000   0.70009291   -8.3469035      639.453  0.015468142  0.014664672            4 
 3446000   0.70961445   -8.3289732    640.27952  0.015483641  0.014659625            2 
 3447000   0.70851503   -8.3678337    639.68366  0.015464744  0.014654563            2 
 3448000   0.69827842   -8.3232215     640.2015  0.015472774   0.01464952            2 
 3449000    0.7149802   -8.3588432    639.70215  0.015456223  0.014644471            2 
 3450000    0.6809092   -8.3443159    640.60526  0.015473557  0.014639423            2 
 3451000   0.69533402   -8.3641907    640.25651  0.015460652  0.014634376            3 
 3452000   0.69663115   -8.3565825    638.41305  0.015411671  0.014629325            6 
 3453000   0.68541013    -8.366073    638.05121  0.015398475   0.01462428            4 
 3454000    0.7085053    -8.351208    639.81588  0.015436592  0.014619239            2 
 3455000   0.69819517   -8.3378536    639.86114  0.015433216  0.014614205            2 
 3456000   0.70268176    -8.322401    639.86515  0.015428847  0.014609172            2 
 3457000   0.70984917   -8.3491794    638.97167  0.015402846  0.014604154            2 
 3458000   0.68036655   -8.3422026    638.66278  0.015390948  0.014599116            3 
 3459000   0.69235018    -8.348632     639.4683  0.015405905  0.014594087            1 
 3460000   0.70383973   -8.3565012    639.06646  0.015391774  0.014589061            1 
 3461000   0.70809411   -8.3484756    639.85956  0.015406423  0.014584042            1 
 3462000   0.71181083   -8.3180694    641.16928  0.015433499  0.014579025            3 
 3463000   0.70348857   -8.3453716    640.35773  0.015409513  0.014574017            3 
 3464000   0.70199389   -8.3404587    640.05382  0.015397754  0.014569001            1 
 3465000   0.69724927   -8.3294235    640.85665  0.015412618  0.014564002            5 
 3466000   0.69883853   -8.3507969    638.84688   0.01535985  0.014558989            2 
 3467000   0.69610138   -8.3314383    640.26638  0.015389539  0.014553979            5 
 3468000   0.71126625   -8.3517851     639.9736  0.015378066  0.014548967            3 
 3469000   0.70523676   -8.3429006    639.55479  0.015363572  0.014543959            3 
 3470000   0.69175671   -8.3660636    639.51989  0.015358307  0.014538939            1 
 3471000   0.69738259   -8.3523637    638.76149  0.015335674  0.014533928            3 
 3472000   0.69746318   -8.3625397    638.11236  0.015315677  0.014528913            4 
 3473000   0.68114589   -8.3369154     640.0383  0.015357479  0.014523898            2 
 3474000   0.69011653   -8.3553121    638.31985  0.015311837  0.014518868            1 
 3475000   0.69417478   -8.3428515    639.32509  0.015331537  0.014513846            3 
 3476000   0.71453243   -8.3496013    639.42805  0.015329595  0.014508842            1 
 3477000   0.69789483   -8.3248682    639.39595  0.015324416  0.014503851            3 
 3478000   0.68806571   -8.3451753    640.10767  0.015337063  0.014498857            6 
 3479000   0.70223733   -8.3380634    640.55423  0.015343351  0.014493861            3 
 3480000   0.68725181   -8.3531291    640.01118  0.015325938   0.01448887            3 
 3481000   0.71072893   -8.3618065    638.59263  0.015287576  0.014483881            3 
 3482000   0.67896583    -8.347944    638.77102  0.015287455  0.014478891            1 
 3483000   0.68235064   -8.3208833     640.6177  0.015327249  0.014473909            2 
 3484000   0.68772186   -8.3501519    640.11343  0.015310788  0.014468937            1 
 3485000   0.69013434   -8.3643607    639.15768  0.015283541   0.01446395            2 
 3486000   0.70302856   -8.3366039     639.8487  0.015295676  0.014458963            1 
 3487000   0.70268772   -8.3427739     639.6874  0.015287434  0.014453976            2 
 3488000   0.69433378   -8.3481231     639.3247  0.015274386  0.014448991            3 
 3489000   0.70503832   -8.3815653    638.09204  0.015240567  0.014443992            1 
 3490000   0.68990316   -8.3533893    639.80225  0.015277036  0.014439009            2 
 3491000   0.70119526   -8.3317828    640.74954  0.015295272  0.014434026            2 
 3492000    0.7030915   -8.3386715    640.21156  0.015278054  0.014429033            4 
 3493000   0.69791565   -8.3437403    638.81538  0.015240371  0.014424056            1 
 3494000   0.70461093   -8.3673407    638.71987  0.015233731  0.014419076            1 
 3495000   0.69289392   -8.3579953    639.36412  0.015244733  0.014414099            1 
 3496000   0.69544258   -8.3590973    639.69188  0.015248186  0.014409122            2 
 3497000   0.68641268   -8.3243815    638.18721  0.015207969   0.01440414            4 
 3498000   0.68047863   -8.3369059    640.57807  0.015260579   0.01439917            1 
 3499000   0.70783782   -8.3262671      638.661   0.01521056  0.014394213            2 
 3500000    0.6881836   -8.3534223    639.81391  0.015233664  0.014389249            2 
 3501000    0.6950601   -8.3465154     638.7971   0.01520511  0.014384274            3 
 3502000   0.69159488    -8.352928    639.15589  0.015209306  0.014379289            3 
 3503000   0.70188748    -8.380311    639.08538  0.015203287   0.01437432            2 
 3504000   0.70472118    -8.365214    638.60794  0.015187594  0.014369346            3 
 3505000   0.70008372   -8.3625326    639.79101  0.015211389  0.014364369            1 
 3506000   0.68788008   -8.3681782    639.12863  0.015191306  0.014359398            1 
 3507000    0.6768876   -8.3585934    639.03305  0.015184703  0.014354438            2 
 3508000   0.70015467   -8.3511866    638.85537  0.015176154  0.014349479            2 
 3509000   0.68223873   -8.3453616    640.20619  0.015203909  0.014344526            5 
 3510000   0.66505498   -8.3498609    639.35573  0.015179386  0.014339577            1 
 3511000   0.68110367   -8.3388264    638.83473  0.015162696  0.014334631            1 
 3512000   0.69501407   -8.3601117    640.73805  0.015203541   0.01432968            1 
 3513000    0.6925095   -8.3425031    639.82126  0.015177466  0.014324738            1 
 3514000   0.66955742   -8.3521848    639.74656  0.015171376    0.0143198            1 
 3515000   0.67513223    -8.358504    640.27979  0.015179701  0.014314872            1 
 3516000    0.6619225   -8.3450574    639.81325  0.015164326  0.014309946            3 
 3517000   0.67855896    -8.345211    640.27723  0.015171008  0.014305012            3 
 3518000   0.70993155   -8.3376636    640.19497  0.015164747  0.014300081            8 
 3519000    0.6844498   -8.3562991    639.94017  0.015154404  0.014295151            1 
 3520000   0.69378044   -8.3577886    640.00785  0.015151701  0.014290222            1 
 3521000   0.68457118   -8.3762947    639.07377   0.01512529  0.014285291            1 
 3522000   0.68562842    -8.362751    639.14942  0.015122786  0.014280366            1 
 3523000   0.68573619   -8.3749248      639.788  0.015133598  0.014275448            1 
 3524000   0.70099946   -8.3643183    640.44223  0.015144775   0.01427053            2 
 3525000   0.67652316   -8.3445814    638.60637  0.015097077  0.014265616            3 
 3526000   0.66449613   -8.3547715    639.86353  0.015122507   0.01426071            1 
 3527000   0.69157675   -8.3734436     640.5711  0.015134938  0.014255796            2 
 3528000   0.68332778   -8.3681847    640.50975  0.015129199  0.014250882            1 
 3529000   0.70285028   -8.3573686    638.69322  0.015082016  0.014245971            2 
 3530000   0.67650598   -8.3473555      641.314  0.015139613  0.014241073            3 
 3531000   0.68666768   -8.3762429    640.29405  0.015111254   0.01423617            3 
 3532000   0.70741927   -8.3905153    638.91562  0.015074453  0.014231265            3 
 3533000   0.68381264   -8.3716536     638.9455  0.015070891  0.014226342            2 
 3534000     0.688922   -8.3665334    639.55593  0.015081021  0.014221415            3 
 3535000   0.68641951   -8.4040134    638.29153  0.015046948  0.014216478            2 
 3536000   0.68414213   -8.3968787    640.05358  0.015084219   0.01421154            1 
 3537000   0.70407212   -8.3708358    639.42276  0.015065092  0.014206617            3 
 3538000   0.69067748   -8.3440552    640.39185   0.01508366  0.014201696            3 
 3539000   0.67044447   -8.3974065    639.06051  0.015048048  0.014196782            2 
 3540000   0.68450848   -8.3962824    638.62419  0.015033526  0.014191865            2 
 3541000   0.68807557   -8.3961876    639.96805  0.015060907  0.014186943            2 
 3542000   0.68803639   -8.4091113    639.57006  0.015047291  0.014182014            1 
 3543000   0.67932741   -8.3879165     637.6092  0.014996923   0.01417709            1 
 3544000   0.67927756    -8.390431    639.29697  0.015032378  0.014172162            3 
 3545000   0.69218627   -8.3628423    639.82043  0.015040443  0.014167233            3 
 3546000   0.67252405   -8.3743067    639.38232  0.015025905  0.014162323            2 
 3547000   0.69773991   -8.3940249    639.91736  0.015034239  0.014157413            1 
 3548000   0.68999669    -8.364538    639.11148  0.015011074  0.014152498            1 
 3549000   0.67709185   -8.3940373    639.14368    0.0150076  0.014147584            4 
 3550000   0.67711386   -8.3861123    639.77819  0.015018267  0.014142682            1 
 3551000   0.69030522   -8.3861954    639.45701  0.015006501  0.014137781            2 
 3552000   0.68249633   -8.3881224    639.38742  0.015000643  0.014132872            2 
 3553000    0.6845919   -8.4073778    639.23412  0.014992826  0.014127957            2 
 3554000   0.67685683    -8.428272    638.61276  0.014974038  0.014123048            2 
 3555000   0.68596996   -8.4117094    638.49878  0.014967154  0.014118138            1 
 3556000   0.68294965   -8.3794513    639.44893  0.014985211  0.014113235            2 
 3557000   0.66016192   -8.3810114     639.1077  0.014973004  0.014108331            2 
 3558000   0.68906221   -8.3959067    639.30756  0.014973477  0.014103419            2 
 3559000   0.68599125   -8.4022718    639.12423  0.014964977  0.014098507            2 
 3560000    0.6744628   -8.3737625    639.93486  0.014979749   0.01409361            1 
 3561000   0.67296822   -8.3869931    638.42389  0.014940183  0.014088728            1 
 3562000    0.6872113   -8.3883142     639.5542  0.014962432   0.01408383            3 
 3563000   0.68866951   -8.3894671    639.97885  0.014968165  0.014078939            2 
 3564000   0.67741791   -8.3915443    639.88972  0.014961881  0.014074056            1 
 3565000   0.67261372   -8.3838845    639.45174  0.014947446  0.014069174            3 
 3566000    0.6710131   -8.3858807    639.65695   0.01494805  0.014064305            1 
 3567000   0.68764356   -8.4029532    638.48477  0.014916474  0.014059411            2 
 3568000    0.6771878   -8.4106785    639.42413  0.014934233  0.014054514            3 
 3569000   0.68226336   -8.4035204    639.69433  0.014936358  0.014049633            1 
 3570000   0.69311156   -8.3995227     638.5637  0.014905782  0.014044748            1 
 3571000   0.67660062   -8.4130542    638.68261  0.014904383  0.014039873            1 
 3572000   0.67736398   -8.3894198    639.76419  0.014925443  0.014034988            2 
 3573000    0.6895349   -8.4057761    637.93023  0.014878492  0.014030097            2 
 3574000   0.68822314   -8.4121809    639.74101   0.01491655  0.014025209            2 
 3575000   0.67225546   -8.4145364    639.13705    0.0148983  0.014020317            2 
 3576000   0.67917095   -8.4413675    639.06235  0.014892392  0.014015422            4 
 3577000   0.66731111   -8.4098915    639.38901  0.014895839  0.014010527            1 
 3578000   0.69570785   -8.3864822    638.90417  0.014880384  0.014005643            1 
 3579000   0.69021898    -8.411018      638.408  0.014864673  0.014000752            2 
 3580000   0.66865075    -8.415534    638.72222  0.014867836   0.01399588            1 
 3581000   0.68121037   -8.4035087      637.738   0.01484078  0.013991002            3 
 3582000   0.67955007   -8.4167192    638.08606  0.014844734  0.013986113            2 
 3583000   0.68607375   -8.4232174    639.05678  0.014863168  0.013981215            2 
 3584000   0.68529771   -8.4154147    638.39661  0.014843671  0.013976322            2 
 3585000   0.67655813   -8.4257544    638.46828  0.014841197   0.01397143            1 
 3586000    0.6876354   -8.4142193    639.12676   0.01485236  0.013966548            2 
 3587000   0.68893495   -8.4175486    638.27267  0.014828377  0.013961668            1 
 3588000    0.6802726    -8.430297    638.10214  0.014820284  0.013956785            1 
 3589000   0.68518116   -8.4066884    638.15819  0.014817456   0.01395191            3 
 3590000    0.6701313   -8.4064735    637.53448  0.014798851  0.013947027            2 
 3591000   0.69540111   -8.4198138    638.41172  0.014815087  0.013942156            6 
 3592000   0.66784279   -8.3986981    637.09226  0.014780351  0.013937293            1 
 3593000    0.6756078   -8.4013196    637.91571  0.014795336  0.013932421            2 
 3594000   0.67755049   -8.4055791    639.13697  0.014819536  0.013927546            3 
 3595000   0.68154466   -8.3972495    639.15867  0.014815917  0.013922684            5 
 3596000   0.67699377   -8.3992071    638.82672  0.014804105  0.013917821            3 
 3597000   0.68697395    -8.416014    638.07929  0.014782673  0.013912968            2 
 3598000   0.65493025   -8.4210224    637.79042  0.014771874  0.013908109            1 
 3599000   0.67505567   -8.4248338    638.13492  0.014775746  0.013903249            1 
 3600000   0.68051658    -8.424451    638.76735  0.014786281  0.013898399            1 
 3601000   0.67817086   -8.4015844    639.29996  0.014794501  0.013893557            2 
 3602000   0.66859692   -8.4056919    638.95679  0.014782454  0.013888717            1 
 3603000   0.67083471   -8.3991946    638.67012  0.014771721  0.013883875            1 
 3604000   0.67974447   -8.4139727    637.82323   0.01474804  0.013879039            4 
 3605000   0.69478639   -8.4180536    638.46507  0.014758786  0.013874201            2 
 3606000    0.6587073   -8.4051184    639.33076  0.014774699  0.013869352            4 
 3607000   0.67824183   -8.3970405    637.47808    0.0147278  0.013864502            1 
 3608000   0.69421199   -8.4251243    637.28539  0.014719267  0.013859657            2 
 3609000   0.66998525   -8.3911511    638.63341  0.014746315  0.013854818            3 
 3610000   0.66934938   -8.4288639    639.22917  0.014755983  0.013849976            2 
 3611000   0.68367758    -8.409579    639.44681  0.014756919  0.013845137            1 
 3612000   0.67009232   -8.3893671    637.92528   0.01471773  0.013840302            2 
 3613000   0.67799952   -8.4148499    639.11403  0.014741075  0.013835473            2 
 3614000   0.67375479   -8.4150709    639.23887  0.014739874  0.013830643            3 
 3615000   0.67556913   -8.4276024     638.0277  0.014707877  0.013825826            2 
 3616000   0.67214161   -8.4098446    638.55735  0.014716016  0.013820998            1 
 3617000   0.69207597   -8.4275133    637.85539  0.014695774  0.013816186            2 
 3618000   0.66864522    -8.393839    639.09187  0.014720192  0.013811375            2 
 3619000    0.6695152   -8.4086466    639.26161  0.014720033  0.013806569            2 
 3620000   0.67297311   -8.4045576    639.29946  0.014716838  0.013801756            1 
 3621000   0.67260924    -8.418614      638.168  0.014686735  0.013796946            6 
 3622000   0.67999597   -8.4226611    638.46168  0.014689437  0.013792137            2 
 3623000   0.66907328   -8.4127729    639.61609  0.014711935  0.013787328            2 
 3624000   0.66012712   -8.4152028    638.26551  0.014676819  0.013782512            2 
 3625000   0.67364417   -8.4313953    637.81519  0.014662418  0.013777702            1 
 3626000   0.66632917   -8.4319982    638.60508  0.014676528  0.013772894            1 
 3627000   0.66205561   -8.4309769    638.27807  0.014664968  0.013768079            1 
 3628000   0.67713516   -8.4157778    639.68438  0.014693228  0.013763265            2 
 3629000   0.66130818   -8.4193383    638.73837  0.014667456   0.01375845            1 
 3630000   0.67481031    -8.424436    638.95103  0.014668297  0.013753638            5 
 3631000   0.66265594   -8.4310808    637.79861  0.014637809  0.013748826            1 
 3632000   0.67278276   -8.4173252     638.1169  0.014641082  0.013744013            2 
 3633000   0.67372728   -8.4089755    638.67235  0.014649792  0.013739212            2 
 3634000   0.65779653   -8.4116513    639.24258  0.014658837  0.013734408            3 
 3635000   0.66764012   -8.4483667    638.83845   0.01464554  0.013729602            2 
 3636000   0.67234712   -8.4077811     638.9918  0.014645027  0.013724795            2 
 3637000   0.67285681   -8.3967814    638.54232  0.014630701  0.013719999            3 
 3638000   0.68511859   -8.4057282     637.5302  0.014603496  0.013715202            2 
 3639000   0.66337477    -8.451169    638.12277  0.014613052  0.013710407            3 
 3640000   0.66328234   -8.4273325    637.97242  0.014605596   0.01370561           13 
 3641000    0.6657198   -8.4448633    639.32614  0.014632567   0.01370082            5 
 3642000   0.67570077   -8.4165733    637.89255  0.014595748  0.013696031            3 
 3643000   0.67797921   -8.4311195    637.13522  0.014574417  0.013691246            4 
 3644000   0.66332078   -8.4229969    637.88986  0.014587675  0.013686459            1 
 3645000   0.66000325   -8.4094853    638.10992  0.014588704  0.013681677            2 
 3646000   0.66199551   -8.4170802    638.50172  0.014593658  0.013676898            2 
 3647000   0.67290976   -8.4372243    638.31334  0.014585352  0.013672113            2 
 3648000   0.67922229   -8.4075768    638.99319  0.014596884  0.013667324            2 
 3649000   0.66161288   -8.4174036    639.79009  0.014611083  0.013662544            3 
 3650000   0.67468322   -8.4266182    637.65113  0.014558245  0.013657765            2 
 3651000   0.67643091    -8.419216    637.33543  0.014547052   0.01365299            2 
 3652000   0.67193489   -8.4270275    638.37087  0.014566696  0.013648213            3 
 3653000   0.66105955    -8.440654    638.92707  0.014575396  0.013643449            2 
 3654000   0.66238822   -8.4251258     638.6347   0.01456474  0.013638681            3 
 3655000   0.65465175   -8.3954784    639.37914  0.014577728  0.013633922            1 
 3656000   0.65926701   -8.4285859    637.69236  0.014535293  0.013629175            2 
 3657000   0.66840529   -8.4229069    639.46293  0.014571665  0.013624415            3 
 3658000   0.66620736   -8.4219047    636.84458  0.014508032  0.013619654            2 
 3659000   0.65528853   -8.4384741    637.81139  0.014526086  0.013614894            2 
 3660000   0.67345736   -8.4113548    638.37163  0.014534873  0.013610137            1 
 3661000   0.65675127   -8.4167598    637.37561  0.014508231  0.013605388            2 
 3662000   0.66136376   -8.4190443    637.68101  0.014511219  0.013600635            3 
 3663000   0.65620312   -8.4306888    638.63864  0.014529044  0.013595886            3 
 3664000   0.66992432   -8.4209526    638.64111  0.014525134  0.013591143            4 
 3665000    0.6679283   -8.4402282    637.08796  0.014485856  0.013586396            4 
 3666000   0.67146346   -8.3962086    638.40616  0.014511869  0.013581654            3 
 3667000   0.64863987   -8.4301233     639.2208  0.014526425  0.013576914            2 
 3668000   0.69011111   -8.4452364    639.09118   0.01451952  0.013572178            5 
 3669000   0.64901777   -8.4016469    638.16998  0.014494639  0.013567435            3 
 3670000   0.65897707   -8.4382129    637.54296  0.014476452  0.013562686            2 
 3671000   0.66288917   -8.3915313    639.82228   0.01452425  0.013557956            3 
 3672000   0.66610441   -8.4375198    639.02607  0.014502226  0.013553219            3 
 3673000   0.65493899   -8.4199473    639.17654  0.014501691  0.013548494            1 
 3674000   0.66528348   -8.4082716    639.65621  0.014508624  0.013543772            2 
 3675000   0.67224286   -8.4297816    638.44328  0.014477172  0.013539058            2 
 3676000   0.65895049   -8.4020802    637.82124  0.014459132  0.013534343            3 
 3677000   0.65149852   -8.4186898    638.47534  0.014470024  0.013529626            1 
 3678000   0.66237012   -8.4292607    638.58992  0.014468686  0.013524895            6 
 3679000   0.67421104   -8.4011804    638.98512  0.014473705  0.013520174            4 
 3680000   0.66349654   -8.4440509    638.95279   0.01446904  0.013515458            2 
 3681000   0.66733372   -8.4129984    637.35132  0.014428854  0.013510733            2 
 3682000   0.66475013   -8.4144116    639.24148  0.014467714  0.013506017            2 
 3683000   0.65877217   -8.4389648    638.21086  0.014440467  0.013501294            1 
 3684000   0.66536432   -8.4248799    638.65392  0.014446569  0.013496571            4 
 3685000   0.66874054   -8.4385521    638.73871  0.014444566  0.013491855            1 
 3686000   0.64757106   -8.4109479    637.96947  0.014423256  0.013487135            1 
 3687000   0.66826979   -8.4656266    638.70065   0.01443587  0.013482421            2 
 3688000   0.65120153    -8.441879    637.89958  0.014413855  0.013477705            1 
 3689000   0.66762502   -8.4320174    638.50641  0.014423656  0.013472984            3 
 3690000   0.66632154   -8.4304752    637.92188  0.014406547  0.013468275            2 
 3691000   0.65694577   -8.4188678     637.2708  0.014387944  0.013463566            5 
 3692000   0.65564856   -8.4083595    638.23532  0.014405817  0.013458855            2 
 3693000   0.64814818   -8.4423994    636.45758  0.014361801  0.013454143            2 
 3694000   0.65351561   -8.4071399    639.24396  0.014420772  0.013449442            2 
 3695000   0.66864413    -8.427727    637.80186  0.014384345  0.013444735            2 
 3696000   0.66689799   -8.4219347    638.45796  0.014395246   0.01344003            2 
 3697000   0.64223587   -8.4545934    638.03452  0.014381808  0.013435318            3 
 3698000    0.6681139    -8.449691    638.04052  0.014378054  0.013430611            2 
 3699000   0.65551764   -8.4599744    637.57903   0.01436377  0.013425894            3 
 3700000   0.66506849   -8.4329208     638.5449  0.014381642  0.013421179            3 
 3701000   0.65525867   -8.4563253    637.71985  0.014359179  0.013416477            1 
 3702000    0.6760276    -8.432081    638.18767  0.014365831  0.013411774            2 
 3703000    0.6764357   -8.4542456    638.64513  0.014372246   0.01340707            1 
 3704000   0.66140244   -8.4380852    637.79409  0.014349219  0.013402369            2 
 3705000   0.66269027   -8.4412611    637.53258  0.014339464  0.013397661            3 
 3706000   0.66520153    -8.469535    637.73138  0.014340065  0.013392956            2 
 3707000   0.65090249   -8.4240263    637.91391    0.0143403  0.013388254            8 
 3708000   0.66610938   -8.4527626    637.40708  0.014325042  0.013383549            2 
 3709000   0.65663146   -8.4437906    637.51146  0.014323525  0.013378845            1 
 3710000   0.66334337   -8.4596575    636.76035  0.014302793  0.013374143            2 
 3711000   0.64938204   -8.4555915    636.92395  0.014302613  0.013369447            4 
 3712000    0.6557446    -8.455158    637.74937   0.01431729   0.01336475            2 
 3713000   0.66036098   -8.4615046    637.46324  0.014307012  0.013360057            2 
 3714000   0.66107356    -8.450661    637.54254  0.014304939  0.013355374            4 
 3715000   0.66510187   -8.4617344    638.97058  0.014333122  0.013350687            5 
 3716000    0.6524667   -8.4436088    638.26039  0.014313338  0.013346004            2 
 3717000     0.670545    -8.433435     636.8169  0.014277125  0.013341321            2 
 3718000   0.66624481   -8.4409035    637.92229  0.014298061  0.013336641            7 
 3719000   0.64322512   -8.4645237    638.50303  0.014307229  0.013331967            1 
 3720000   0.67565856   -8.4516545    637.71296  0.014285685   0.01332729            2 
 3721000   0.66368786   -8.4470481    637.10305  0.014268186  0.013322616            3 
 3722000   0.66380562    -8.449507    638.14793  0.014287747  0.013317932            7 
 3723000   0.65796972   -8.4678798    638.07328  0.014282238  0.013313249            2 
 3724000   0.66018992   -8.4571844    637.00863  0.014254579  0.013308566            3 
 3725000   0.66198327   -8.4557584    636.78894  0.014245838  0.013303886            1 
 3726000    0.6627742    -8.466845    638.47357  0.014279691  0.013299212            4 
 3727000   0.64828441    -8.463307    637.50221  0.014254141  0.013294538            1 
 3728000   0.64885233   -8.4690293    638.90986  0.014281783  0.013289854            3 
 3729000   0.65239112   -8.4638347    637.12584  0.014238085  0.013285174            4 
 3730000   0.65088327   -8.4625175    636.61275  0.014222805  0.013280493            2 
 3731000   0.64777977   -8.4498503    637.46313  0.014237986  0.013275831            3 
 3732000   0.63933509   -8.4527016    637.65253  0.014238401  0.013271159            2 
 3733000   0.64956205   -8.4300697    637.63858  0.014234275  0.013266496            4 
 3734000   0.66165652   -8.4359305    639.02348   0.01426137  0.013261837            3 
 3735000   0.65568776   -8.4745429     637.3907  0.014221122  0.013257176            3 
 3736000   0.64765639   -8.4491773    639.40677  0.014262285  0.013252522            4 
 3737000   0.67632658   -8.4728284     638.1564  0.014230586  0.013247867            3 
 3738000   0.64909304   -8.4520664    637.78336  0.014218463  0.013243216            2 
 3739000   0.65032513   -8.4712881    637.68133  0.014212386  0.013238569            1 
 3740000   0.66265247     -8.46602     637.5956  0.014206676  0.013233925            4 
 3741000   0.64946846   -8.4461857    636.86362  0.014186573  0.013229273            2 
 3742000   0.65108636   -8.4873173    637.33818   0.01419335  0.013224617            2 
 3743000   0.64923562   -8.4674283    636.56621  0.014172371  0.013219964            3 
 3744000   0.66514809   -8.4627191     636.8517   0.01417494  0.013215316            3 
 3745000   0.65918055   -8.4579741    637.52323  0.014186098  0.013210669            4 
 3746000   0.64914531   -8.4689354    636.99125  0.014170476   0.01320602            5 
 3747000   0.65928246   -8.4560281    637.37304  0.014175185  0.013201377            1 
 3748000   0.63847002   -8.4654244     636.6565  0.014155472  0.013196727            3 
 3749000   0.67146952   -8.4764972    639.04884  0.014204873   0.01319209            1 
 3750000   0.64264673   -8.4629121    637.44145  0.014165366  0.013187455            2 
 3751000   0.65017474   -8.4482594    636.93385  0.014150312   0.01318282            1 
 3752000    0.6466089   -8.4559403    637.05787  0.014149295  0.013178185            2 
 3753000    0.6469785   -8.4710871    636.26941  0.014128018  0.013173554            2 
 3754000   0.65496929   -8.4877005    636.57334  0.014131001  0.013168922            2 
 3755000    0.6437546   -8.4697978    636.88294  0.014134109  0.013164295            2 
 3756000   0.64716138    -8.475405      636.633    0.0141248  0.013159669            3 
 3757000   0.64170091   -8.4700603    638.95876  0.014172628  0.013155049            1 
 3758000   0.65390817   -8.4759924    636.81794  0.014121384  0.013150425            4 
 3759000   0.65543307   -8.4799439    636.71382  0.014115319  0.013145805            4 
 3760000   0.64917557   -8.4615181    637.79851  0.014135605  0.013141182            2 
 3761000   0.64411589   -8.4715934    637.95622  0.014135341  0.013136571            2 
 3762000   0.63056032   -8.4653083    637.58612  0.014123386  0.013131964            2 
 3763000   0.64495999   -8.4661079    637.81061  0.014124604  0.013127357            1 
 3764000   0.64601599   -8.4768303    636.75147  0.014097402  0.013122741            2 
 3765000   0.64281127   -8.4762529    637.55045  0.014111342  0.013118126            3 
 3766000   0.65479944   -8.4564043    637.17706  0.014099333  0.013113518            2 
 3767000   0.65137793   -8.4681204    638.26833  0.014119731  0.013108923            3 
 3768000   0.63785571   -8.4665657    637.64966  0.014102301  0.013104318            2 
 3769000   0.65555576   -8.4735465    637.56044  0.014096587  0.013099707            4 
 3770000   0.64209444   -8.4572946    637.31267  0.014087371    0.0130951            1 
 3771000   0.64670459   -8.4661218    638.44024  0.014108553  0.013090496            4 
 3772000   0.65538269   -8.4608403    637.95831  0.014094166  0.013085903            1 
 3773000   0.64691955    -8.475244    638.11173  0.014093819  0.013081304            1 
 3774000    0.6370377   -8.4821523    637.17918  0.014069493  0.013076709            3 
 3775000   0.64103527   -8.4692893    636.80222  0.014057444   0.01307212            1 
 3776000   0.66103303   -8.4497321    638.04483  0.014081145  0.013067533            1 
 3777000   0.63811209   -8.4623564    637.20144  0.014058809  0.013062949            2 
 3778000   0.65549044   -8.4846007    637.95656  0.014071743  0.013058361            1 
 3779000   0.64581885   -8.4734797    638.43293  0.014078525  0.013053775            3 
 3780000   0.63802946   -8.4833545    638.18871  0.014069416  0.013049191            1 
 3781000   0.64755312   -8.4860624    636.79826  0.014035049  0.013044606            2 
 3782000   0.64951607   -8.4812116    637.65343  0.014050181  0.013040015            1 
 3783000   0.64557999   -8.4766799    638.54561  0.014066121  0.013035425            1 
 3784000   0.65065253   -8.4676676    638.28959  0.014056765  0.013030843            1 
 3785000    0.6578329   -8.4599159    638.34676   0.01405431  0.013026259            2 
 3786000    0.6274116   -8.4734352    636.93213  0.014019461  0.013021673            2 
 3787000   0.63944468   -8.4728143    636.78334  0.014012484  0.013017094            2 
 3788000   0.63955456   -8.4716572     636.8538  0.014010335  0.013012515            3 
 3789000   0.63685809   -8.4655251    636.64302  0.014002002  0.013007934            1 
 3790000   0.64467568   -8.4806765    636.83067  0.014002433  0.013003361            2 
 3791000   0.65825441   -8.4672786    637.46051  0.014012585  0.012998788            4 
 3792000   0.63328154   -8.4628453     638.3488  0.014028411  0.012994223            1 
 3793000   0.63899664   -8.4616564    638.10543  0.014019365  0.012989648            1 
 3794000   0.64478578   -8.4679409    636.12966  0.013972273  0.012985074            2 
 3795000   0.65351015   -8.4798349    636.16784   0.01396943  0.012980502            4 
 3796000   0.63392162   -8.4795044    636.64139  0.013976146  0.012975935            3 
 3797000   0.64804658   -8.4904124    638.36823  0.014010364  0.012971364            1 
 3798000   0.63995878   -8.4561327    638.79039  0.014015938  0.012966804            1 
 3799000   0.64868272   -8.4842372     637.0751  0.013974623  0.012962237            2 
 3800000   0.64928232   -8.4655459    636.30307  0.013954015  0.012957668            2 
 3801000   0.63027511    -8.481525    637.53829  0.013977425  0.012953104            2 
 3802000    0.6320085   -8.4822819    637.19386  0.013966199  0.012948544            2 
 3803000   0.65724193    -8.487621    637.06793  0.013959767  0.012943991            2 
 3804000   0.64169535   -8.4833554    638.26115  0.013982237  0.012939434            5 
 3805000   0.64017302   -8.4889577     635.8513  0.013925784  0.012934873            1 
 3806000   0.63490687   -8.4906302    637.20932  0.013951859   0.01293032            3 
 3807000   0.61716051   -8.4787698    636.70459  0.013937146  0.012925762            2 
 3808000   0.62970656   -8.4749091    637.76833  0.013956765  0.012921209            1 
 3809000   0.62634061   -8.4767632    636.75897  0.013931018  0.012916663            3 
 3810000   0.64360667   -8.4883941    637.94087  0.013953212    0.0129121            1 
 3811000   0.64520723   -8.4696761    637.55716  0.013941161  0.012907556            2 
 3812000   0.64775572   -8.4866068    637.27708  0.013931381  0.012903014            2 
 3813000   0.66495307   -8.4593766    636.84562  0.013918298  0.012898466            2 
 3814000   0.64572012   -8.4795881    635.30243   0.01388093  0.012893915            2 
 3815000   0.63877277   -8.4704709    637.57903  0.013927021  0.012889369            2 
 3816000   0.63827953   -8.4940531    636.56627  0.013901255  0.012884822            2 
 3817000   0.64549448   -8.5067764    636.53262  0.013896878  0.012880279            1 
 3818000   0.64503809   -8.4969041    637.03588  0.013904223  0.012875743            2 
 3819000   0.63168051   -8.4893873    638.43467  0.013931105  0.012871201            2 
 3820000   0.63481918   -8.4882986    637.09261  0.013898181  0.012866666            1 
 3821000   0.65907408   -8.4727121    637.78061  0.013909548  0.012862141            1 
 3822000   0.63181171   -8.4860351    636.55175  0.013879115  0.012857607            3 
 3823000   0.62616535   -8.4793624    636.69731  0.013878658  0.012853082            1 
 3824000   0.63868622   -8.4792712    636.42616   0.01386912  0.012848555            2 
 3825000   0.62610633   -8.4859104    635.87027  0.013853383  0.012844034            3 
 3826000   0.63318555   -8.4869788     636.2894  0.013858891  0.012839513            1 
 3827000   0.64019283   -8.4753766    636.95723  0.013869812  0.012834986            1 
 3828000   0.63721045   -8.4730568     637.3023    0.0138737  0.012830468            1 
 3829000   0.63225673   -8.4970338    637.15514  0.013866874  0.012825951            3 
 3830000   0.64886704   -8.4987404     635.4736  0.013826667  0.012821432            1 
 3831000   0.64576947   -8.4872388    636.77439  0.013851353  0.012816903            1 
 3832000   0.63163425   -8.4851433    636.51232  0.013842039  0.012812384            4 
 3833000   0.62519849   -8.4915223     637.1655  0.013852629  0.012807866            2 
 3834000   0.63976387   -8.4725366    637.34394  0.013852894   0.01280335            2 
 3835000   0.63801675   -8.4891613    637.62899  0.013855476  0.012798829            4 
 3836000   0.64084639   -8.4728712    636.16118  0.013819977  0.012794306            3 
 3837000   0.63620376   -8.5013702    635.79306   0.01380838  0.012789791            1 
 3838000   0.63272228   -8.4826985    636.86537  0.013828065  0.012785271            2 
 3839000   0.62404491   -8.4873622    636.60071  0.013818718  0.012780747            1 
 3840000   0.63100054   -8.4814064    636.20274  0.013806483  0.012776236            2 
 3841000   0.63697009   -8.4827361    636.43938  0.013808023  0.012771723            1 
 3842000     0.642862   -8.4958868    637.22217  0.013821407  0.012767215            2 
 3843000   0.63198047   -8.4853235     636.1702     0.013795   0.01276272            2 
 3844000   0.63004498   -8.4741393    638.11405  0.013833551   0.01275823            1 
 3845000   0.64240915   -8.5102193     637.1906  0.013809939  0.012753736            2 
 3846000   0.63116347   -8.5022971    636.56443  0.013792781  0.012749247            1 
 3847000   0.64956704   -8.4859148    636.45832  0.013786897  0.012744755            3 
 3848000   0.62478056   -8.4899138    637.50466  0.013805974  0.012740265            4 
 3849000   0.62910029   -8.5006228    636.98659  0.013791171  0.012735783            2 
 3850000   0.63242258   -8.5038539    637.91289  0.013807638  0.012731294            1 
 3851000   0.64348457   -8.5059429    636.47949  0.013773035  0.012726812            1 
 3852000   0.62985671   -8.5019209    636.01037   0.01375931  0.012722333            1 
 3853000   0.64109579    -8.500776    635.71015  0.013749246  0.012717853            2 
 3854000   0.63741845   -8.4870664    636.83513  0.013770004  0.012713376            1 
 3855000   0.63684907   -8.5100271    636.00126  0.013748406  0.012708895            1 
 3856000   0.62376308   -8.4758621    636.78873  0.013761859  0.012704418            3 
 3857000   0.63116893   -8.5134415     636.3232  0.013748233  0.012699944            1 
 3858000   0.63137085   -8.4889253    637.11455  0.013761762  0.012695476            2 
 3859000   0.63457488   -8.5050758    637.32949  0.013762838  0.012691005            1 
 3860000   0.63776531   -8.5009444    636.58795  0.013743263  0.012686545            2 
 3861000   0.64335896   -8.4948544    636.97325   0.01374802  0.012682078            2 
 3862000   0.63449658    -8.486983    636.70086  0.013738582  0.012677607            2 
 3863000   0.63672885   -8.4991535    636.70003  0.013735008  0.012673139            3 
 3864000    0.6393657    -8.493651    635.94061  0.013715075  0.012668686            1 
 3865000   0.63340678   -8.4978547    636.14594  0.013715954  0.012664229            2 
 3866000   0.63250325   -8.4921588    637.53285  0.013742302  0.012659771            3 
 3867000    0.6357109   -8.4994384    637.87766  0.013746178  0.012655314            2 
 3868000   0.63882842   -8.5096937    636.78005  0.013718977  0.012650863            3 
 3869000   0.61688804   -8.5042044    636.15321   0.01370193  0.012646405            2 
 3870000   0.62298063   -8.4943964    637.86399  0.013735228  0.012641957            2 
 3871000   0.64410498    -8.511555    636.44585  0.013701151  0.012637504            4 
 3872000   0.62446508   -8.4946382    637.66044  0.013723752   0.01263306            2 
 3873000   0.62512954   -8.4886587    637.36419  0.013713835  0.012628621            1 
 3874000   0.62900804   -8.4950109    636.38754  0.013689286  0.012624184            1 
 3875000   0.62956961   -8.4930136    636.76574  0.013693887  0.012619749            1 
 3876000   0.62589364    -8.491382    636.95083  0.013694333  0.012615304            2 
 3877000   0.63849306   -8.5036867    636.06148  0.013671685  0.012610863            3 
 3878000   0.63154194   -8.5017438    634.96679  0.013644636  0.012606416            2 
 3879000   0.63514982   -8.5185205    636.51516  0.013674383  0.012601967            3 
 3880000    0.6335966   -8.5165348    637.00767  0.013681436  0.012597524            1 
 3881000   0.63434154   -8.5092045    636.52252  0.013667494  0.012593079            1 
 3882000   0.63001851   -8.5353533    634.98221  0.013630908   0.01258863            1 
 3883000   0.63189215   -8.5006137    635.31134  0.013634461  0.012584184            5 
 3884000    0.6320008   -8.4959503     636.9028  0.013665096  0.012579744            1 
 3885000    0.6414378   -8.5183191    635.95058  0.013641154  0.012575309            1 
 3886000   0.62004744   -8.5205369    636.21474  0.013643308  0.012570876            1 
 3887000   0.63347754   -8.5145175    635.04779   0.01361478  0.012566445            1 
 3888000   0.62131968   -8.5298255    634.89879  0.013608084   0.01256201            1 
 3889000   0.62845331   -8.5130814    636.17065  0.013631839  0.012557576            1 
 3890000   0.61783555   -8.4868849    636.70171  0.013639711   0.01255315            2 
 3891000   0.63197815   -8.5264252    634.61679  0.013591553  0.012548721            1 
 3892000    0.6265135   -8.5282526    635.56812   0.01360843  0.012544295            4 
 3893000   0.62071021   -8.4963941    635.97879  0.013613725  0.012539874            2 
 3894000   0.63826914   -8.5198501    637.11534  0.013634552  0.012535456            3 
 3895000    0.6202149   -8.5159891    636.66602  0.013621438  0.012531037            2 
 3896000   0.62343256   -8.5167871    635.49669  0.013592931  0.012526623            2 
 3897000   0.62652116    -8.484772    635.79603  0.013595844  0.012522217            3 
 3898000     0.642727     -8.51239    635.75165  0.013591407  0.012517805            2 
 3899000   0.64530509   -8.5211292    635.96341  0.013592447  0.012513393            3 
 3900000   0.63273125   -8.5137103    635.82799  0.013586068  0.012508987            3 
 3901000   0.63139858   -8.5169335     636.2694  0.013592015  0.012504588            2 
 3902000   0.63966995   -8.5116873    636.05448  0.013583942  0.012500186            5 
 3903000   0.62660061   -8.5337132    636.46385  0.013589202  0.012495775            2 
 3904000   0.63777322   -8.5282962    636.14888  0.013578998  0.012491358            2 
 3905000   0.62594592   -8.5210587    636.54391   0.01358395   0.01248695            4 
 3906000   0.62231694   -8.5187284    636.13326  0.013571711  0.012482544            2 
 3907000   0.62865116   -8.5095827     636.1306  0.013568181  0.012478137            3 
 3908000   0.61205619   -8.5198964    635.74743  0.013556539  0.012473734            3 
 3909000   0.61854953   -8.5560735    636.77602  0.013574998  0.012469332            2 
 3910000   0.63610781   -8.5206451    637.03985  0.013577149  0.012464919            1 
 3911000   0.61666143   -8.5102949    636.03371   0.01355224  0.012460522            3 
 3912000   0.62454571   -8.5485174    635.97581  0.013547542  0.012456121            3 
 3913000   0.63142419   -8.5210914    636.43932  0.013553951  0.012451725            3 
 3914000   0.61827423   -8.5492635    634.67488  0.013512921   0.01244733            1 
 3915000   0.61483385   -8.5251484    634.97643  0.013515888  0.012442935            3 
 3916000   0.62986345   -8.5270248     635.1712  0.013516582  0.012438544            2 
 3917000   0.63398376    -8.522422    635.98966  0.013530543  0.012434158            3 
 3918000   0.64694984   -8.5322278    636.00024  0.013527315  0.012429771            2 
 3919000   0.61971313   -8.5123552     636.7009  0.013538762  0.012425383            2 
 3920000   0.61539333   -8.5174423    635.50654  0.013509918     0.012421            1 
 3921000   0.61708109   -8.5332491     636.0407  0.013517825  0.012416614            3 
 3922000   0.62785327   -8.4989907    636.29416  0.013519764  0.012412232            1 
 3923000   0.61368137   -8.5229802    636.08256  0.013511823  0.012407853            3 
 3924000   0.62093648   -8.5259646    635.95966  0.013505769  0.012403468            2 
 3925000   0.62227199   -8.5082547    637.99326  0.013545504  0.012399094            6 
 3926000   0.62194147   -8.5265213    636.18175  0.013503603  0.012394716            2 
 3927000   0.61182944   -8.5205976     635.3544  0.013482608  0.012390341            2 
 3928000   0.61605966   -8.5068876    635.89231  0.013490587  0.012385968            3 
 3929000   0.63441876   -8.5316631    636.12496  0.013492088  0.012381602            2 
 3930000   0.62144739   -8.5201947    635.21309  0.013469319  0.012377232            2 
 3931000   0.61507939   -8.5349648    636.64453  0.013496238  0.012372861            2 
 3932000   0.61975657   -8.5175224    634.96418  0.013457193  0.012368494            2 
 3933000   0.61479972   -8.5122445    636.67256  0.013489969  0.012364125            2 
 3934000   0.62271954   -8.5047973    636.02228  0.013472765  0.012359761            3 
 3935000   0.62555082   -8.5142156    634.56837  0.013438551  0.012355398            1 
 3936000   0.62046754   -8.5377623    634.92683  0.013442726  0.012351033            4 
 3937000   0.61554796   -8.5281032    636.15652   0.01346534  0.012346664            2 
 3938000   0.62865538   -8.5263503    635.15653  0.013440759  0.012342303            3 
 3939000   0.62512241   -8.5143277    635.65798  0.013447956  0.012337946            1 
 3940000    0.6257831   -8.5399085    635.70778  0.013445596  0.012333586            2 
 3941000   0.61165264   -8.5373025    634.50592  0.013416771  0.012329226            2 
 3942000   0.61585243   -8.5211021    635.10777   0.01342609  0.012324863            2 
 3943000   0.61183882   -8.5307963     634.4123  0.013407987  0.012320503            2 
 3944000   0.62114294   -8.5426477    634.96847  0.013416338  0.012316145            2 
 3945000   0.60711154   -8.5291343    635.21223  0.013418087  0.012311794            3 
 3946000   0.60512585   -8.5444669    635.76976   0.01342646  0.012307434            2 
 3947000   0.62289294   -8.5310046    635.19494  0.013410923  0.012303081            2 
 3948000    0.6367842   -8.5370817    635.43618  0.013412618  0.012298733            1 
 3949000    0.6143734     -8.52698    636.00374  0.013421198  0.012294389            1 
 3950000   0.63157946   -8.5611112    636.78867   0.01343436  0.012290046            2 
 3951000   0.61449435   -8.5223763     636.4205  0.013423194    0.0122857            1 
 3952000   0.62656855    -8.515805    636.36754  0.013418681  0.012281368            3 
 3953000   0.61283967   -8.5371006    635.64333   0.01340002  0.012277033            2 
 3954000   0.61604095   -8.5387184    635.98535  0.013403839  0.012272698            3 
 3955000   0.61113666    -8.544808    635.43084  0.013388766   0.01226836            1 
 3956000   0.63470428   -8.5209793    636.50873  0.013408088  0.012264023            2 
 3957000   0.63424845   -8.5267587    635.85097  0.013390847  0.012259688            2 
 3958000   0.61924781   -8.5143204    634.88584  0.013367143  0.012255356            2 
 3959000   0.61679952   -8.5413982     635.0637  0.013367511  0.012251024            1 
 3960000   0.62795242   -8.5352684    633.49012  0.013331021  0.012246689            3 
 3961000   0.61517565   -8.5319266    635.80444  0.013376345  0.012242359            5 
 3962000    0.6109746   -8.5472885    635.40137  0.013364491  0.012238033            3 
 3963000   0.60992126   -8.5386038    634.61208  0.013344522  0.012233705            2 
 3964000   0.59987057   -8.5307239    634.07314  0.013329826  0.012229383            3 
 3965000   0.62099021   -8.5408195    634.32122  0.013331678  0.012225058            2 
 3966000   0.60979036   -8.5357302    634.81369  0.013338664   0.01222074            2 
 3967000   0.59847748   -8.5296198    636.37089  0.013368013  0.012216421            1 
 3968000   0.61301811   -8.5367336     635.7514  0.013351634  0.012212106            2 
 3969000   0.61367323   -8.5434688    635.62912  0.013345703  0.012207791            3 
 3970000   0.59631842   -8.5583549    636.29774  0.013356376  0.012203472            2 
 3971000   0.63074631    -8.541659    635.97637  0.013346268  0.012199156            1 
 3972000   0.61690191   -8.5585261    635.50148  0.013332945  0.012194841            2 
 3973000   0.61728483   -8.5313069     634.7495  0.013313816  0.012190534            1 
 3974000   0.62294564    -8.554496    635.00827  0.013315892  0.012186224            2 
 3975000   0.60272098    -8.556707    635.22792  0.013317147  0.012181916            3 
 3976000   0.62165117   -8.5428837     635.4444  0.013318335  0.012177612            2 
 3977000   0.60550048   -8.5659199    635.04132   0.01330654  0.012173309            3 
 3978000   0.61584804   -8.5418565    634.97232   0.01330175  0.012169005            3 
 3979000   0.61875493   -8.5398799    634.83443  0.013295519    0.0121647            1 
 3980000   0.61925359   -8.5353641    635.67507  0.013309779  0.012160397            3 
 3981000   0.61655812   -8.5162403    635.28118  0.013298191  0.012156099            3 
 3982000   0.60722224   -8.5315898    634.53706  0.013279279  0.012151799            3 
 3983000   0.60661714   -8.5674203    635.34083  0.013292762  0.012147505            3 
 3984000    0.6175407   -8.5433982    635.57063  0.013294232  0.012143211            2 
 3985000   0.60077425   -8.5468685     633.8565   0.01325505  0.012138921            2 
 3986000   0.61934662   -8.5430811    634.93793  0.013274334  0.012134627            1 
 3987000   0.61342517   -8.5347609    635.59245  0.013284685  0.012130347            4 
 3988000   0.61636766   -8.5379329    634.51169   0.01325877  0.012126066            2 
 3989000   0.60987582   -8.5474244    634.86149  0.013262754  0.012121791            2 
 3990000   0.62292991    -8.556832     635.5817  0.013274472  0.012117518            2 
 3991000   0.61110344   -8.5481383    634.95977  0.013258159  0.012113239            1 
 3992000   0.61158511   -8.5587705    634.86551   0.01325287  0.012108962            3 
 3993000   0.61621665   -8.5442495      635.231  0.013257179  0.012104684            1 
 3994000   0.61321632   -8.5365213    635.73909  0.013264461  0.012100411            2 
 3995000   0.61533415   -8.5572755    635.27572  0.013251475   0.01209614            2 
 3996000   0.59973946   -8.5438694    635.75462  0.013258146  0.012091871            1 
 3997000   0.61383739   -8.5449124    634.44669   0.01322756  0.012087598            2 
 3998000   0.60632645   -8.5265387    635.68272  0.013250015  0.012083331            2 
 3999000   0.60313689   -8.5583572    634.62034  0.013224563  0.012079068            4 
 4000000   0.61212163   -8.5254186    634.97648  0.013228677  0.012074805            2 
 4001000    0.6141337   -8.5466436     635.4707  0.013235664  0.012070545            1 
 4002000   0.61134678   -8.5780036    635.51704  0.013233322  0.012066287            1 
 4003000   0.61078611   -8.5531098     634.3369  0.013205448  0.012062027            3 
 4004000   0.61877619   -8.5554005     634.7976  0.013211738  0.012057769            2 
 4005000   0.61309016    -8.558273    634.33818   0.01319888  0.012053513            2 
 4006000   0.62671836   -8.5520789    635.64085  0.013222684  0.012049263            2 
 4007000   0.61256834   -8.5674638    635.03902  0.013206868  0.012045017            1 
 4008000   0.60452294   -8.5653717    634.54992  0.013193403  0.012040771            2 
 4009000   0.60613657   -8.5373012    634.85248  0.013196401  0.012036532            4 
 4010000   0.60039907   -8.5470071    634.70057  0.013189954  0.012032288            5 
 4011000   0.60818747   -8.5362136    634.93233   0.01319148  0.012028051            2 
 4012000   0.61257682   -8.5466798    635.82009  0.013206632  0.012023812            3 
 4013000   0.60619659   -8.5362971    634.64357   0.01317891  0.012019571            1 
 4014000   0.61978632   -8.5427013    634.45267  0.013171663  0.012015326            1 
 4015000   0.61348552   -8.5425851    635.50318  0.013190186  0.012011088            3 
 4016000   0.61045674   -8.5511041    634.92078  0.013174817  0.012006851            1 
 4017000   0.60123641   -8.5459034    634.24431  0.013157504  0.012002617            1 
 4018000   0.60149219   -8.5695707    633.53105  0.013139436  0.011998376            1 
 4019000     0.615407   -8.5408022    634.77305  0.013161919  0.011994136            3 
 4020000   0.60456958   -8.5701656    634.67017  0.013156513  0.011989901            3 
 4021000   0.60624902   -8.5655676    633.56803  0.013130399  0.011985667            4 
 4022000   0.61926488    -8.558589    634.67222  0.013150013   0.01198144            1 
 4023000   0.58459547    -8.542361    635.81223  0.013170359   0.01197722            4 
 4024000    0.6175545    -8.539691    635.40268  0.013158604  0.011972998            2 
 4025000   0.60874304   -8.5480589    633.92659  0.013124774  0.011968773            3 
 4026000   0.60736436   -8.5534102    634.72819  0.013138106  0.011964551            2 
 4027000   0.61967718   -8.5275454    634.90321  0.013138466  0.011960332            5 
 4028000   0.59810692     -8.57218    634.87956  0.013134715  0.011956111            3 
 4029000   0.61228944   -8.5690362    633.08354  0.013094307  0.011951896            2 
 4030000   0.61120134   -8.5549833     634.9646  0.013129954  0.011947679            2 
 4031000   0.61671893   -8.5426282    635.10794  0.013129661  0.011943468            2 
 4032000   0.61611601   -8.5651248    633.56121  0.013094436  0.011939264            2 
 4033000   0.60525462   -8.5567307    633.61499  0.013092301  0.011935057            3 
 4034000   0.62071557   -8.5387834    634.64983  0.013110433  0.011930848            3 
 4035000   0.60606829   -8.5616773    633.84731  0.013090609  0.011926641            2 
 4036000   0.60224799   -8.5564983    635.09114  0.013113048  0.011922437            3 
 4037000   0.61033852   -8.5522477     634.5749  0.013099143  0.011918228            3 
 4038000   0.61177974   -8.5765507    634.52187  0.013094805  0.011914024            2 
 4039000   0.60548211   -8.5544838    634.72318  0.013095716   0.01190982            1 
 4040000   0.60124553   -8.5620532    635.79738  0.013114632  0.011905627            2 
 4041000   0.59386795   -8.5492611    634.77114  0.013090224  0.011901429            4 
 4042000   0.61684416   -8.5501369     634.2805   0.01307687  0.011897237            2 
 4043000   0.60015712    -8.546955    635.02245  0.013088928  0.011893041            2 
 4044000   0.60330562    -8.558483    633.59412  0.013056259  0.011888846            1 
 4045000   0.60915766   -8.5601387     634.3445   0.01306849  0.011884652            2 
 4046000   0.61137857   -8.5549417    636.26203  0.013104754  0.011880462            1 
 4047000   0.61257289   -8.5453512    635.15175  0.013078654   0.01187627            5 
 4048000   0.60864503   -8.5526653    634.98545  0.013071999  0.011872087            2 
 4049000    0.6051112   -8.5936147    633.17188  0.013031446  0.011867904            3 
 4050000   0.59862972   -8.5602245    635.86476  0.013083637  0.011863719            2 
 4051000   0.59878704   -8.5580875    635.44606  0.013071794  0.011859541            2 
 4052000   0.59591736   -8.5624232    633.82378  0.013035204  0.011855364            2 
 4053000     0.607052   -8.5372428    635.41828  0.013064773  0.011851184            3 
 4054000   0.60389235   -8.5740965    634.66051  0.013045973  0.011847004            2 
 4055000   0.61090726   -8.5685933    634.94663  0.013048636  0.011842825            1 
 4056000   0.60313692   -8.5809637    634.10511  0.013028129  0.011838648            3 
 4057000   0.60692801   -8.5807513    634.32511  0.013029437   0.01183447            3 
 4058000   0.58823378   -8.5734895    634.52904  0.013030414  0.011830293            2 
 4059000   0.60250815   -8.5760613    632.95729  0.012994935  0.011826114            2 
 4060000   0.60914671   -8.5822529    634.99856  0.013033632  0.011821946            3 
 4061000   0.60918312   -8.5723858    634.16649  0.013013348  0.011817777            1 
 4062000    0.5954443   -8.5688322    633.60575  0.012998641  0.011813611            2 
 4063000   0.61222342   -8.5716096    634.93058  0.013022614  0.011809448            3 
 4064000   0.61173926   -8.5540353     634.0858  0.013002087   0.01180529            3 
 4065000   0.60147231   -8.5740811    634.28679  0.013003009  0.011801131            2 
 4066000   0.60000495    -8.560914    633.81893  0.012990222  0.011796975            2 
 4067000    0.6038993   -8.5873915    633.62725  0.012983101  0.011792822            2 
 4068000   0.60499225   -8.5647623    634.59008  0.012999633  0.011788665            6 
 4069000   0.60570278   -8.5797526    633.49804  0.012974073  0.011784511            5 
 4070000   0.59604559   -8.5837701    633.18516  0.012964479  0.011780351            6 
 4071000   0.60514982   -8.5840754    633.82428  0.012974377  0.011776196            2 
 4072000    0.6042731   -8.5691305    633.37198  0.012961935  0.011772043            2 
 4073000   0.60260782   -8.5744423     634.9372  0.012990777  0.011767885            3 
 4074000   0.60213763   -8.5895385    634.78389  0.012984452  0.011763732            2 
 4075000    0.5966704   -8.5823943     633.9993  0.012965221  0.011759588            2 
 4076000   0.59271636   -8.5795751    635.14017  0.012985365  0.011755445            2 
 4077000   0.60329711   -8.5835185    634.26047  0.012964199  0.011751301            2 
 4078000   0.59442773   -8.5762282    634.30264  0.012961882  0.011747154            4 
 4079000   0.61750681   -8.5800148    633.25649  0.012937331  0.011743008            2 
 4080000   0.59228006   -8.5790186    632.53878  0.012919501  0.011738863            1 
 4081000   0.59254889   -8.5776233    634.34681  0.012953255  0.011734717            2 
 4082000   0.59982615   -8.5777538    633.10999  0.012924832  0.011730575            3 
 4083000   0.59963857   -8.5832041    633.80543  0.012935861  0.011726429            2 
 4084000   0.59692271   -8.5588876    633.70231  0.012930589  0.011722289            3 
 4085000   0.58460081   -8.5635891    634.07568   0.01293504  0.011718149            1 
 4086000   0.58641871    -8.583292    634.65066  0.012943601  0.011714017            1 
 4087000   0.60838578   -8.5948051    634.68957  0.012941228   0.01170988            2 
 4088000   0.59288156   -8.5813815    634.02497  0.012924514  0.011705747            4 
 4089000   0.59634958   -8.5648237    633.47491  0.012910143  0.011701617            2 
 4090000   0.60228501   -8.5864797    634.11712  0.012920072  0.011697486            2 
 4091000   0.61376855   -8.5735552     634.8528  0.012931899  0.011693357            1 
 4092000   0.59947528   -8.5727883    634.10605  0.012913531   0.01168923            1 
 4093000   0.59701638   -8.5796492    633.34017  0.012894783  0.011685104            1 
 4094000   0.58944127   -8.5898759    634.63371  0.012917963  0.011680979            1 
 4095000   0.58212613   -8.5750412    635.09149  0.012924125  0.011676851            2 
 4096000   0.59987129   -8.5893188    634.09115  0.012900618  0.011672733            3 
 4097000   0.59241261   -8.5814755    634.65435  0.012908924  0.011668611            2 
 4098000   0.58701597   -8.5938881    633.68627  0.012886088  0.011664495            1 
 4099000   0.58591296   -8.5879653    633.33732   0.01287585  0.011660381            1 
 4100000   0.60085333   -8.5833468    634.15103  0.012889249  0.011656273            1 
 4101000   0.59642156   -8.5811073    633.87392  0.012880475   0.01165216            2 
 4102000    0.6023865    -8.586727    633.51718  0.012870087  0.011648053            1 
 4103000   0.59172886   -8.5655985    632.79319  0.012852246  0.011643942            1 
 4104000   0.59041819    -8.579528    633.40826  0.012861604  0.011639831            1 
 4105000   0.58993015   -8.5893455    634.50485  0.012880732  0.011635729            3 
 4106000    0.6012019   -8.5848757    633.56966  0.012858615  0.011631628            2 
 4107000   0.60497058   -8.5751723    632.98649  0.012843651   0.01162753            3 
 4108000   0.58532749   -8.5878067    633.81333  0.012857297  0.011623424            1 
 4109000   0.59104153   -8.5757478    633.74043   0.01285269  0.011619326            3 
 4110000   0.58401255   -8.6034061    634.36422   0.01286221   0.01161523            2 
 4111000    0.6037336   -8.5918957    633.83163  0.012848286  0.011611139            3 
 4112000   0.59530462   -8.5713181    633.01436  0.012828598   0.01160705            2 
 4113000   0.58847689   -8.5938545    632.95778  0.012824333  0.011602962            3 
 4114000   0.60471635   -8.5873219    633.64505  0.012835137  0.011598874            4 
 4115000   0.58982768   -8.5815756    632.90151  0.012816961  0.011594784            3 
 4116000   0.60207541   -8.5806699    634.15555  0.012839236    0.0115907            2 
 4117000   0.59424937   -8.5933133    633.81097  0.012829143  0.011586611            2 
 4118000   0.59010131   -8.5990373    634.63602  0.012842723  0.011582528            2 
 4119000   0.59667855   -8.6032349    633.90716   0.01282486  0.011578449            1 
 4120000    0.6111276   -8.5844711    633.31696  0.012809809  0.011574369            1 
 4121000    0.5926531   -8.5845779    633.95071  0.012819516  0.011570296            2 
 4122000   0.58725617   -8.5831749    633.57685  0.012808848   0.01156622            2 
 4123000   0.59405704   -8.5984207    634.32719  0.012820907  0.011562145            1 
 4124000   0.58678876   -8.5917513    634.35305  0.012818321  0.011558067            2 
 4125000   0.60135966   -8.5956502    633.30358  0.012794012  0.011553994            1 
 4126000   0.59812237   -8.5780035    635.16224   0.01282845  0.011549924            1 
 4127000    0.5808211    -8.589461    633.23257  0.012786378   0.01154586            1 
 4128000   0.58153257   -8.6084482    633.96471   0.01279806  0.011541792            1 
 4129000   0.60035987   -8.5940266    633.44682  0.012784508  0.011537726            1 
 4130000   0.58295706   -8.5946516    634.67807  0.012806256  0.011533669            3 
 4131000   0.60299196    -8.626551    633.28508  0.012775056  0.011529614            3 
 4132000    0.5820449   -8.5991544    634.44749  0.012795408  0.011525558            2 
 4133000   0.58742733   -8.5881227    634.60804  0.012795549  0.011521504            1 
 4134000   0.59211308   -8.5865558    634.03022  0.012780806  0.011517447            1 
 4135000   0.58408481   -8.5800317    633.43237  0.012765666  0.011513393            2 
 4136000   0.58053048   -8.5899858    633.66983  0.012767364  0.011509342            3 
 4137000   0.59076108   -8.5958613    633.87816  0.012768475  0.011505287            2 
 4138000    0.5939038   -8.5819291    632.70964  0.012741857  0.011501232            1 
 4139000   0.58997092   -8.6163668    633.45997  0.012753885  0.011497178            2 
 4140000   0.57608486   -8.5860095     634.1246  0.012764183  0.011493126            1 
 4141000   0.58794602   -8.6020028    634.74064  0.012773498  0.011489081            3 
 4142000   0.58748584   -8.5969746     633.6253  0.012747974  0.011485029            2 
 4143000   0.57807419   -8.5975638    634.15332  0.012755518  0.011480986            1 
 4144000   0.58650181   -8.5842725    633.13617  0.012731985  0.011476943            1 
 4145000   0.58272573   -8.6096203    633.99278  0.012746135  0.011472898            2 
 4146000   0.58849484   -8.6090644    633.68167  0.012736808  0.011468857            1 
 4147000   0.58038094   -8.6182528    634.00244  0.012740182  0.011464817            2 
 4148000   0.58840559   -8.6004786    633.49283  0.012726873  0.011460778            2 
 4149000   0.58253259   -8.5884687    633.12486  0.012716415  0.011456738            4 
 4150000   0.58267259   -8.6165454    633.06104  0.012712069  0.011452706            2 
 4151000   0.60442243   -8.5970867    633.42352  0.012716284   0.01144867            1 
 4152000   0.56101536   -8.5995483    634.10086  0.012726816  0.011444638            2 
 4153000   0.59544217   -8.5885406    633.12415  0.012704153  0.011440602            1 
 4154000   0.58498652   -8.6072235    633.67479  0.012712141  0.011436577            2 
 4155000   0.57316306   -8.5892046    634.31922  0.012722006  0.011432549            1 
 4156000   0.59389878   -8.5992578    633.51123  0.012702744  0.011428523            2 
 4157000   0.59304383     -8.60111    632.63831  0.012682189  0.011424504            2 
 4158000    0.5815874   -8.6008701    632.13379  0.012669027  0.011420481            2 
 4159000   0.59008483   -8.6093889    633.27599  0.012688867  0.011416458            1 
 4160000   0.58781403   -8.5910828    632.62544  0.012672785  0.011412436            2 
 4161000   0.58471062   -8.5891247    634.51553  0.012707593  0.011408418            2 
 4162000    0.5879848   -8.5964734    633.03298  0.012674855    0.0114044            2 
 4163000   0.60012345   -8.5999679     633.0002  0.012671155  0.011400382            1 
 4164000   0.59763947   -8.6077804    633.91823  0.012686484  0.011396371            1 
 4165000   0.59126781   -8.6112214    632.30744  0.012651209  0.011392353            3 
 4166000   0.58171422   -8.6144602    633.09345  0.012663895  0.011388341            1 
 4167000   0.56399558   -8.5838088    633.27689  0.012664525  0.011384328            1 
 4168000   0.57890621   -8.6312709    632.87591  0.012653469  0.011380315            1 
 4169000   0.57964752   -8.5819135    632.60212  0.012644961  0.011376301            1 
 4170000   0.58595198    -8.605022    632.52545  0.012640397  0.011372298            2 
 4171000   0.59141075   -8.6092343    633.66026  0.012660039  0.011368294            2 
 4172000   0.59302666   -8.6245312    632.48791  0.012633587  0.011364296            1 
 4173000     0.572615   -8.6126371     633.3497  0.012647769  0.011360291            4 
 4174000   0.58098193   -8.6052368    632.92598   0.01263628  0.011356289            1 
 4175000   0.57791257   -8.6164026    633.22556  0.012639233   0.01135229            3 
 4176000   0.57311257   -8.6193578    632.40443   0.01261982  0.011348295            4 
 4177000   0.57590288   -8.6124778    633.36737   0.01263601  0.011344302            2 
 4178000   0.57904584    -8.590098    633.57257  0.012637078  0.011340308            4 
 4179000   0.58053306   -8.6071582    632.61497  0.012614959   0.01133632            2 
 4180000   0.57934034   -8.6122848    633.04054  0.012620425  0.011332328            1 
 4181000   0.59170914   -8.6120372    633.36146  0.012623803  0.011328339            3 
 4182000   0.58204863   -8.6049077    633.81405  0.012629803  0.011324353            2 
 4183000   0.57266509   -8.6098282    633.77043  0.012625915  0.011320375            1 
 4184000   0.58871384   -8.6028621    633.21235  0.012611782  0.011316394            2 
 4185000   0.60656608    -8.615254    634.09508  0.012626346  0.011312413            1 
 4186000    0.5934736   -8.6108514    632.12155  0.012584041  0.011308436            3 
 4187000   0.58992712   -8.6158119    632.23862  0.012583366  0.011304458            2 
 4188000   0.58362695   -8.6020686    633.68528  0.012609147  0.011300487            2 
 4189000   0.58091989   -8.6112198    631.81908  0.012569012  0.011296513            2 
 4190000   0.57753257   -8.6222458    633.00474  0.012589593  0.011292544            2 
 4191000   0.58388978   -8.6222373    633.49724  0.012596382   0.01128858            3 
 4192000   0.58726114   -8.6153051    634.01693  0.012603708  0.011284616            3 
 4193000   0.57103249   -8.6074189    633.28222    0.0125861  0.011280655            2 
 4194000   0.58125818   -8.5999913    632.00915  0.012557804  0.011276695            1 
 4195000    0.5766831   -8.6168543    632.90436  0.012572593  0.011272734            2 
 4196000   0.57571833   -8.6015915    632.71417   0.01256582  0.011268772            1 
 4197000   0.58585557    -8.605255     633.0851  0.012570191  0.011264813            1 
 4198000   0.57147156    -8.608716     632.8758  0.012563042  0.011260861            2 
 4199000   0.59052056   -8.6045276     633.3694  0.012569846   0.01125691            4 
 4200000     0.575299   -8.6063934    633.70453  0.012573503  0.011252962            3 
 4201000   0.56869561    -8.602409    633.03167  0.012557162  0.011249017            2 
 4202000   0.56095305   -8.6148998    633.02137   0.01255397  0.011245069            2 
 4203000   0.58731585   -8.6141691    633.77719  0.012565969  0.011241126            1 
 4204000   0.56551966   -8.6217684    633.86784  0.012564776  0.011237187            2 
 4205000   0.56949242    -8.634571    632.52937  0.012535263  0.011233243            2 
 4206000   0.57785865   -8.6144087    632.96504  0.012540915  0.011229305            1 
 4207000   0.57976627   -8.6015518    634.58581  0.012570038   0.01122537            2 
 4208000   0.58075594   -8.6190646    632.60753  0.012527874  0.011221436            2 
 4209000   0.58436506   -8.6327899    632.91524   0.01253099  0.011217501            3 
 4210000   0.57321272   -8.6023373    632.94595  0.012528621   0.01121357            2 
 4211000   0.58514451   -8.5948198    633.07648  0.012528229  0.011209648            3 
 4212000   0.57680247    -8.633302    634.72529  0.012557876  0.011205727            1 
 4213000   0.57705647   -8.6154398    634.13556   0.01254323  0.011201803            3 
 4214000    0.5822048   -8.6043639    633.02897  0.012518371   0.01119788            2 
 4215000   0.58886278   -8.6125887    634.26044  0.012539748   0.01119396            2 
 4216000   0.57804231   -8.6056948    633.62125  0.012524139  0.011190046            2 
 4217000   0.56558373   -8.6222437     633.4411  0.012517609  0.011186134            1 
 4218000    0.5889465   -8.6170288    632.04579  0.012487075  0.011182225            1 
 4219000   0.57073885   -8.6211489    632.42869  0.012491678  0.011178311            1 
 4220000   0.58501854   -8.5986536    632.35608  0.012487284  0.011174402            2 
 4221000   0.56442821    -8.618496     632.5496  0.012488147  0.011170491            1 
 4222000   0.58121872   -8.6008126    634.63239  0.012526299  0.011166588            4 
 4223000   0.56840954   -8.6272493    634.07808  0.012512394  0.011162683            2 
 4224000   0.58560668   -8.6281369    632.98446  0.012487856  0.011158779            3 
 4225000   0.56871257   -8.6261193    633.46961   0.01249447   0.01115487            2 
 4226000   0.57355365   -8.6199364    632.93266  0.012480925  0.011150968            3 
 4227000   0.56477725   -8.6181195    632.98015  0.012478908  0.011147061            2 
 4228000   0.57758149   -8.6246983    632.51616  0.012466812  0.011143153            3 
 4229000    0.5684423   -8.6171998    632.95208  0.012472454  0.011139251            2 
 4230000   0.58565693   -8.6183078    632.79836  0.012466477  0.011135354            3 
 4231000   0.57502678   -8.6224279    632.55709  0.012458778  0.011131453            1 
 4232000   0.58621724   -8.6409257    632.80544  0.012460725  0.011127555            2 
 4233000   0.58317776   -8.6188768    632.45518  0.012450885  0.011123654            1 
 4234000   0.56549847   -8.6326934     631.9616   0.01243823  0.011119755            4 
 4235000   0.57692679   -8.6096894    633.55093  0.012466567  0.011115865            1 
 4236000   0.56744583   -8.6047234    633.25514  0.012457805  0.011111972            1 
 4237000   0.56743731   -8.6290004    632.29116  0.012435905  0.011108079            2 
 4238000   0.56841802   -8.6001062     633.8301  0.012463232  0.011104187            2 
 4239000   0.57930276   -8.6479552    632.44685  0.012433098  0.011100299            1 
 4240000   0.57263904   -8.6243987    632.44649  0.012430159  0.011096407            2 
 4241000   0.57203233   -8.6243606    631.63002  0.012411185  0.011092521            1 
 4242000   0.57030646   -8.6212208    632.57837  0.012426889  0.011088633            1 
 4243000   0.57916335   -8.6166948    633.59171  0.012443863   0.01108475            3 
 4244000   0.57634273   -8.6356736    632.71322  0.012423681   0.01108087            2 
 4245000    0.5662474   -8.6326135    632.35327  0.012413688  0.011076991            2 
 4246000   0.56418307   -8.6165387     632.5442  0.012414512  0.011073114            3 
 4247000   0.56318612   -8.6069586    632.81009  0.012416806  0.011069242            2 
 4248000    0.5673236   -8.6434782    633.07918  0.012419162  0.011065371            1 
 4249000   0.57502447   -8.6100374    632.55909  0.012406038    0.0110615            2 
 4250000   0.57125336   -8.6369373    632.29846  0.012398009  0.011057627            2 
 4251000   0.57299646   -8.6175621    632.96331  0.012408126  0.011053761            1 
 4252000   0.57488268   -8.6215319    632.02226  0.012386764  0.011049895            2 
 4253000   0.56899656   -8.6242278    632.99115  0.012402836  0.011046032            3 
 4254000    0.5566327    -8.611742    632.64404  0.012393121  0.011042165            4 
 4255000   0.57539929    -8.615628    632.79803  0.012393224  0.011038298            4 
 4256000   0.56773245   -8.6243467    633.04222  0.012395094  0.011034435            2 
 4257000   0.56379739   -8.6437893    632.90361  0.012389468  0.011030573            2 
 4258000   0.56466105   -8.6172378    632.35421  0.012375807  0.011026714            3 
 4259000   0.57372493   -8.6069106    632.55189  0.012376769  0.011022859            4 
 4260000   0.56908344   -8.6455296    631.83048  0.012359751  0.011019004            4 
 4261000    0.5792527   -8.6147785    632.40624  0.012368111  0.011015149            2 
 4262000   0.57788251   -8.6287862    632.78138  0.012372544  0.011011295            3 
 4263000   0.56109146    -8.632405    632.00945  0.012354552  0.011007445            3 
 4264000   0.55278571   -8.6281908    632.52805   0.01236179  0.011003596            3 
 4265000    0.5726259   -8.6554118    632.64588  0.012361193  0.010999746            3 
 4266000   0.57702648   -8.6302103    632.33643  0.012352251  0.010995897            4 
 4267000   0.55864178   -8.6571274    633.48689  0.012371824   0.01099205            1 
 4268000   0.57634731   -8.6325129    632.56659  0.012350957  0.010988202            4 
 4269000    0.5657367   -8.6422779    633.25305  0.012361463   0.01098436            4 
 4270000   0.56863387    -8.645903    633.38676  0.012361178  0.010980519            3 
 4271000    0.5666763   -8.6457736    632.16969  0.012334537  0.010976674            3 
 4272000    0.5694685   -8.6427857    631.69256  0.012322342  0.010972832            5 
 4273000   0.56784729   -8.6336056    632.75304   0.01234014  0.010968997            4 
 4274000   0.57090978      -8.6288    632.48268  0.012331982  0.010965165            3 
 4275000    0.5569383   -8.6454196    633.59012  0.012350685  0.010961333            5 
 4276000   0.56788792   -8.6236956    632.38247  0.012324261  0.010957501            2 
 4277000   0.57462233   -8.6238301    632.73963  0.012328338  0.010953675            2 
 4278000   0.57550875   -8.6335107    632.27922  0.012316488  0.010949847            3 
 4279000   0.56739647   -8.6286877    632.26288  0.012313291  0.010946016            1 
 4280000   0.56126808    -8.624243    632.62312  0.012317428   0.01094219            4 
 4281000   0.55910454   -8.6363529    631.14124  0.012285705  0.010938365            4 
 4282000   0.58778513    -8.627034    632.63435  0.012311894  0.010934545            1 
 4283000   0.56538271   -8.6290868    632.67394  0.012309789  0.010930725            1 
 4284000   0.56209304   -8.6297431    631.84575  0.012290806  0.010926906            1 
 4285000   0.57206054   -8.6410587    632.28685  0.012296516  0.010923088            2 
 4286000   0.56479029   -8.6185474    632.65136  0.012300734  0.010919271            7 
 4287000   0.55363266   -8.6500428    631.96168  0.012284458  0.010915457            4 
 4288000   0.57148881   -8.6415661    631.95756  0.012281513  0.010911639            2 
 4289000   0.55892356   -8.6363983    632.55682  0.012290293  0.010907826            5 
 4290000   0.56888485   -8.6479524    634.34083  0.012322083  0.010904014            1 
 4291000   0.55871632   -8.6339882    632.07701  0.012275247  0.010900205            6 
 4292000   0.57227474   -8.6445057    633.18056  0.012293813    0.0108964            3 
 4293000   0.55854202   -8.6398783    632.24012  0.012272694  0.010892595            4 
 4294000   0.56049514   -8.6293584    633.46365  0.012293581  0.010888798            6 
 4295000   0.55942996   -8.6376386    632.33875  0.012268893  0.010885001            3 
 4296000   0.56462875    -8.647972    632.08258  0.012261068  0.010881206            2 
 4297000   0.57207293   -8.6439192    632.56646  0.012267599  0.010877402            5 
 4298000    0.5535236   -8.6349455    632.78629  0.012269007  0.010873603            3 
 4299000   0.56467015   -8.6588168    632.44774   0.01225959  0.010869806            3 
 4300000   0.55990477   -8.6350522    633.58925  0.012278861   0.01086601            3 
 4301000   0.56078948   -8.6309679    633.12972  0.012267103  0.010862213            4 
 4302000    0.5541647   -8.6381988    632.77822  0.012257443  0.010858424            2 
 4303000   0.56696989   -8.6508392    631.86505  0.012236909  0.010854635            3 
 4304000   0.57626009    -8.639349    631.54875  0.012227942  0.010850848            2 
 4305000   0.55516111   -8.6586283    632.82998  0.012249903   0.01084706            2 
 4306000   0.56311248   -8.6384997    632.54224  0.012241489  0.010843271            2 
 4307000   0.56392568   -8.6396316    633.17317  0.012250855  0.010839488            1 
 4308000   0.55761763   -8.6377247    632.86117  0.012241976  0.010835703            1 
 4309000   0.55725309   -8.6245613    632.10389  0.012224489  0.010831921            2 
 4310000   0.55580055   -8.6457392    631.87332  0.012217195  0.010828139            2 
 4311000   0.57682555   -8.6391174     631.8602  0.012214107  0.010824357            1 
 4312000   0.55037702   -8.6391892    632.66131  0.012226757  0.010820577            3 
 4313000   0.57119036   -8.6444973      632.566  0.012222081  0.010816797            4 
 4314000   0.54480266   -8.6376633    631.85499  0.012205513  0.010813017            2 
 4315000   0.56356169   -8.6207716    632.24632  0.012210242  0.010809244            1 
 4316000   0.55926643   -8.6465791    631.63779  0.012195663  0.010805474            3 
 4317000   0.56275213   -8.6316958    632.20429  0.012203774  0.010801703            2 
 4318000    0.5554139   -8.6345104    632.41906  0.012205092  0.010797936            1 
 4319000   0.56120389   -8.6481932    631.67547  0.012187919  0.010794161            2 
 4320000   0.57463185   -8.6477219    632.48657  0.012200744  0.010790393            3 
 4321000   0.56707289   -8.6458207    632.12527  0.012190953  0.010786626            2 
 4322000   0.55162983   -8.6423405    632.22223  0.012190001  0.010782861            6 
 4323000    0.5534179   -8.6501764    631.64477   0.01217605  0.010779093            1 
 4324000   0.57598487   -8.6357874     631.9391  0.012178907  0.010775331            3 
 4325000   0.56813748   -8.6504775     631.4324  0.012166328  0.010771565            2 
 4326000   0.56951501   -8.6555928    632.23923  0.012179057  0.010767805            2 
 4327000   0.55347052    -8.650922    632.16099  0.012174736  0.010764048            3 
 4328000   0.56944543   -8.6588473     631.8471  0.012165879  0.010760293            2 
 4329000   0.56566834   -8.6411724    631.18041  0.012150235  0.010756538            2 
 4330000   0.56407686   -8.6598478    631.66058   0.01215667  0.010752783            2 
 4331000    0.5596848   -8.6273808    631.39386  0.012148731  0.010749027            3 
 4332000   0.55015351   -8.6483869     632.4405  0.012166061  0.010745274            1 
 4333000   0.55438525   -8.6513509    632.74259  0.012169063  0.010741528            1 
 4334000   0.56991045   -8.6435843    632.52788  0.012162127  0.010737778            2 
 4335000   0.55963542   -8.6654903    632.20032  0.012153024  0.010734032            3 
 4336000   0.55973595   -8.6353675    630.13767  0.012110579  0.010730282            2 
 4337000   0.56075574   -8.6614097    632.08801  0.012145262  0.010726537            1 
 4338000   0.55408214   -8.6628313    631.86529  0.012138184  0.010722795            1 
 4339000    0.5553338    -8.646572    631.50351  0.012128438  0.010719053            3 
 4340000   0.54760996    -8.655745    632.52015  0.012145164  0.010715319            1 
 4341000   0.56148184   -8.6530861    630.79912  0.012109328   0.01071158            2 
 4342000   0.55290545   -8.6468938    632.48135  0.012138825  0.010707846            3 
 4343000   0.54757571   -8.6446213    632.43449  0.012135131  0.010704112            3 
 4344000   0.56723249   -8.6544586    632.78291  0.012139021  0.010700379            2 
 4345000   0.54947089   -8.6537062    631.82676  0.012117889  0.010696647            3 
 4346000   0.56576222   -8.6642358    631.43763   0.01210764  0.010692919            2 
 4347000   0.55955481   -8.6527486    631.70775  0.012110033  0.010689192            2 
 4348000   0.55214047    -8.658807     632.8476  0.012129094  0.010685462            2 
 4349000    0.5487357   -8.6356679    631.36203  0.012097839  0.010681736            2 
 4350000   0.54708118   -8.6562916    631.34137  0.012094662  0.010678015            3 
 4351000   0.55878066   -8.6610822    632.12286   0.01210685  0.010674294            1 
 4352000   0.55557558   -8.6462928    633.37763  0.012128095  0.010670578            3 
 4353000   0.54771212   -8.6622186    632.18123  0.012102405  0.010666864            2 
 4354000   0.56363422    -8.647811     631.4543  0.012085712  0.010663149            1 
 4355000   0.55379308   -8.6491189    632.32688  0.012099634   0.01065944            3 
 4356000   0.55454277   -8.6302178    631.69037   0.01208468  0.010655736            1 
 4357000   0.55073914   -8.6606695     631.5457  0.012079139  0.010652025            4 
 4358000   0.56113955   -8.6534792    631.85772  0.012082334  0.010648314            2 
 4359000   0.55326869   -8.6432479    631.88245  0.012080035  0.010644604            1 
 4360000   0.55294981   -8.6576258    631.44886  0.012068977  0.010640899            2 
 4361000   0.55912614   -8.6485469        631.6  0.012069097  0.010637195            1 
 4362000   0.54526401   -8.6556583    631.45148  0.012063493  0.010633494            2 
 4363000   0.54560948   -8.6408558     632.5022  0.012080797  0.010629796            2 
 4364000   0.55486639   -8.6472257    631.70401  0.012062787  0.010626098            1 
 4365000   0.55017293   -8.6703275    631.65629  0.012059112  0.010622401            2 
 4366000   0.54748844   -8.6614148     631.3484  0.012050473    0.0106187            2 
 4367000    0.5643237   -8.6836537     632.3676  0.012067163     0.010615            1 
 4368000    0.5555619   -8.6720124    632.02343  0.012057834  0.010611302            1 
 4369000   0.55049948   -8.6521927    630.71507  0.012030119  0.010607606            2 
 4370000   0.55837228   -8.6733066    632.04907  0.012052804  0.010603908            4 
 4371000   0.55672642   -8.6400617    630.63801  0.012023145  0.010600217            2 
 4372000   0.55869761   -8.6606987    631.28044   0.01203264  0.010596526            2 
 4373000   0.55338993   -8.6492685    632.15066  0.012046472  0.010592836            2 
 4374000   0.55582722   -8.6710923    631.24834  0.012026527  0.010589145            2 
 4375000   0.55820048   -8.6680618    630.66332  0.012012635  0.010585458            2 
 4376000   0.54861928    -8.662206    632.09471  0.012037148  0.010581772            3 
 4377000   0.54297477    -8.669346    631.32003  0.012019649  0.010578083            3 
 4378000   0.55892714   -8.6396928     631.6282  0.012022769  0.010574399            2 
 4379000   0.55701271   -8.6495653     632.0302  0.012027674   0.01057072            2 
 4380000   0.55643773   -8.6550867    631.09687   0.01200717  0.010567038            1 
 4381000   0.54818327   -8.6782921    631.43463  0.012010854  0.010563359            4 
 4382000   0.55268955   -8.6723098    631.01927  0.012000214  0.010559677            2 
 4383000   0.55104699   -8.6724453    630.25343  0.011982916  0.010555996            2 
 4384000   0.55691528   -8.6757398    630.44916  0.011983903   0.01055232            2 
 4385000   0.54895276   -8.6735061    631.42885  0.011999788  0.010548642            3 
 4386000   0.54416671   -8.6637567    631.42853  0.011997046   0.01054497            2 
 4387000    0.5374346   -8.6774955    630.99338  0.011986045  0.010541296            2 
 4388000    0.5549201   -8.6680582    630.84137  0.011980427  0.010537622            2 
 4389000    0.5409983   -8.6709667    630.93954  0.011979561  0.010533948            2 
 4390000   0.53166898   -8.6736549     630.7309  0.011972872  0.010530275            2 
 4391000    0.5476893   -8.6589317    631.51691  0.011985062  0.010526605            2 
 4392000   0.53617755   -8.6713004    631.16624   0.01197568   0.01052294            1 
 4393000   0.55017874   -8.6593601    630.49575  0.011960235  0.010519274            4 
 4394000   0.55103912   -8.6677202    631.14693  0.011969863  0.010515606            2 
 4395000   0.54008396   -8.6681553    631.03923  0.011965097  0.010511944            2 
 4396000   0.55570633   -8.6777513    630.77572   0.01195738  0.010508284            1 
 4397000   0.54862252    -8.683228    631.08933  0.011960604  0.010504628            1 
 4398000   0.53574726   -8.6650421    630.72002  0.011950887  0.010500971            2 
 4399000   0.55139953   -8.6575099    630.30539  0.011940316  0.010497318            3 
 4400000   0.53795358   -8.6742208    630.81258  0.011947208  0.010493668            2 
 4401000   0.55039271   -8.6821073    630.91347  0.011946404  0.010490015            2 
 4402000   0.55433727   -8.6670762    630.28441  0.011931781  0.010486365            1 
 4403000   0.54284624   -8.6727056    631.71385  0.011956126  0.010482713            2 
 4404000   0.55048162    -8.657825    630.14283  0.011923684  0.010479069            3 
 4405000   0.54311882     -8.68754    630.86081  0.011934559  0.010475423            1 
 4406000   0.55836402   -8.6666376     630.5199  0.011925403  0.010471778            2 
 4407000   0.54409413   -8.6687966    631.89887  0.011948772  0.010468134            1 
 4408000   0.55587922   -8.6613545    631.27619   0.01193429  0.010464493            1 
 4409000   0.54746744   -8.6737255    631.75397  0.011940613  0.010460849            2 
 4410000   0.54235048   -8.6575716    630.64195  0.011916893  0.010457211            2 
 4411000   0.54536962   -8.6846278    630.65946  0.011914522  0.010453574            1 
 4412000   0.54608923   -8.6868007     630.3104  0.011905228  0.010449939            1 
 4413000   0.52754281   -8.6632212    631.00191  0.011915589  0.010446305            2 
 4414000   0.53968414   -8.6687695    631.01446  0.011913126  0.010442671            2 
 4415000   0.54027678    -8.697228     631.4054  0.011917807  0.010439042            2 
 4416000   0.53777511   -8.6658306    632.02223  0.011926748   0.01043541            1 
 4417000    0.5476515   -8.6813951    631.09363  0.011906528  0.010431785            3 
 4418000   0.54588909   -8.6880805    629.86546  0.011880667  0.010428158            2 
 4419000   0.53750956    -8.693012    629.84609  0.011877613  0.010424531            1 
 4420000   0.55234256   -8.6850006    630.66487  0.011890363  0.010420906            2 
 4421000   0.54230061   -8.6818575    630.50326  0.011884628  0.010417289            2 
 4422000   0.55570426   -8.6993994    630.49523  0.011881789  0.010413669            5 
 4423000   0.52924514   -8.6747166    630.67038  0.011882402  0.010410047            2 
 4424000   0.54216674   -8.7016138    631.33746  0.011892282  0.010406425            4 
 4425000   0.56060852   -8.6845449    631.03244   0.01188385  0.010402806            1 
 4426000   0.54696489   -8.6851087    630.54193   0.01187193   0.01039919            3 
 4427000    0.5332124   -8.6736658    630.46783  0.011867853   0.01039557            1 
 4428000    0.5400411   -8.6784549    630.11977  0.011858623  0.010391956            6 
 4429000    0.5325756   -8.6785868    630.21206  0.011857682  0.010388343            6 
 4430000   0.54611431   -8.6769827    631.39413  0.011877241  0.010384731            2 
 4431000   0.53642703   -8.6798005    630.70828  0.011861662  0.010381121            1 
 4432000   0.55360744   -8.6964084     631.7038  0.011877704  0.010377513            1 
 4433000   0.54924955   -8.6837082    630.86185  0.011859197  0.010373908            2 
 4434000   0.52909867   -8.6696971    630.09346  0.011842081  0.010370299            2 
 4435000   0.54280197   -8.6788241    630.49896   0.01184703  0.010366692            3 
 4436000   0.53091544   -8.6891285    629.78812  0.011831006  0.010363087            1 
 4437000   0.54664973   -8.6765005    630.31983  0.011838326  0.010359486            4 
 4438000   0.54467613   -8.6969887    630.13688  0.011832223  0.010355887            4 
 4439000   0.53458393   -8.6831575    630.68818  0.011839907  0.010352287            2 
 4440000   0.54625414   -8.6876828    630.43886  0.011832561  0.010348691            2 
 4441000   0.53538727   -8.6811949      630.492  0.011830894  0.010345094            2 
 4442000   0.52733659   -8.6816647    630.21492  0.011823032  0.010341501            4 
 4443000   0.54198325   -8.6995059    631.36516  0.011841945  0.010337912            1 
 4444000   0.55514909   -8.6684863     630.1712  0.011816892   0.01033432            2 
 4445000   0.54203165   -8.6806754    629.56244   0.01180282  0.010330733            1 
 4446000   0.53558283   -8.6975969    631.11672  0.011829298  0.010327142            2 
 4447000   0.54146654    -8.689656     629.8494   0.01180289  0.010323555            3 
 4448000   0.52706503   -8.6976379    628.97528  0.011783859  0.010319969            2 
 4449000   0.53189422   -8.6830127    630.01035  0.011800598  0.010316386            2 
 4450000   0.53848378   -8.6764135    630.87107  0.011814065  0.010312806            2 
 4451000   0.53625171   -8.6956624    630.89008  0.011811767  0.010309224            4 
 4452000   0.53704178   -8.6747903    631.10358   0.01181311  0.010305644            2 
 4453000   0.54419383   -8.6969957    630.23751  0.011794249  0.010302065            1 
 4454000   0.53560453    -8.687597    629.97331  0.011786658  0.010298488            2 
 4455000   0.53900694   -8.6698218    630.07477   0.01178591  0.010294915            1 
 4456000   0.54031479   -8.6864282    629.57061  0.011773837  0.010291343            2 
 4457000    0.5380801    -8.687252    630.19766  0.011782919  0.010287774            3 
 4458000    0.5494475   -8.6788404    630.74595  0.011790525  0.010284204            2 
 4459000   0.52957995   -8.6901402    630.64761  0.011786043  0.010280638            2 
 4460000   0.54533486   -8.6862253    630.83911  0.011786979  0.010277065            5 
 4461000   0.53969866   -8.6817173    629.90824  0.011766948  0.010273502            3 
 4462000   0.52992484   -8.6882465    631.32503  0.011790771  0.010269938            2 
 4463000   0.53797255    -8.710233    629.70043  0.011757794  0.010266374            1 
 4464000   0.53601347   -8.7057839    630.20647  0.011764607  0.010262814            3 
 4465000   0.52933135   -8.6898046       630.93  0.011775476  0.010259258            2 
 4466000   0.53927151   -8.6952918    630.16031  0.011758477  0.010255703            1 
 4467000   0.54269155   -8.7067014    630.41317  0.011760562   0.01025215            2 
 4468000   0.53948185   -8.7008761    629.69486  0.011744533  0.010248595            4 
 4469000   0.54169917   -8.6797009    630.71799  0.011760983  0.010245046            1 
 4470000   0.54050332   -8.6908435    631.82434  0.011778977    0.0102415            3 
 4471000   0.54477865   -8.6978316     630.7544  0.011756401  0.010237958            2 
 4472000   0.53516123   -8.7040591    628.33306  0.011708651  0.010234414            3 
 4473000   0.52660256   -8.6946152    631.26872  0.011760726   0.01023087            1 
 4474000   0.52882459   -8.7015651    630.59565   0.01174556  0.010227325            3 
 4475000    0.5408507   -8.6857633    629.33861  0.011719527   0.01022378            1 
 4476000   0.53998005   -8.6946669     630.8446  0.011744947  0.010220242            4 
 4477000   0.53488763   -8.7100583    630.20107  0.011730345  0.010216701            1 
 4478000   0.53380466   -8.6968674    630.96089  0.011741866  0.010213163            1 
 4479000   0.53962859   -8.7144409    630.35551  0.011727981  0.010209626            1 
 4480000   0.53352556   -8.6933625    629.55209  0.011710418  0.010206088            2 
 4481000   0.52695698   -8.6739116    629.91796  0.011714609  0.010202553            2 
 4482000   0.54473382    -8.689912    630.35423  0.011720107  0.010199019            4 
 4483000   0.54079131   -8.7087405    628.85618  0.011689646  0.010195488            2 
 4484000   0.53816578   -8.6886926    630.50876  0.011717751  0.010191956            1 
 4485000   0.52958548   -8.7066275    630.52011  0.011715349  0.010188428            3 
 4486000   0.53435859   -8.7036058    630.41319  0.011710752  0.010184903            2 
 4487000   0.54159611   -8.7072639     630.1403  0.011703074  0.010181377            1 
 4488000   0.52950861   -8.7007313    630.69289  0.011710727  0.010177855            2 
 4489000   0.52849265   -8.6924275    630.38411  0.011702386  0.010174337            1 
 4490000   0.53500895   -8.6856884    630.27799   0.01169781  0.010170816            3 
 4491000   0.53261263   -8.6980121    631.25024  0.011713246  0.010167297            3 
 4492000   0.53839317   -8.7008287    630.46104  0.011695997  0.010163777            5 
 4493000    0.5281588    -8.691336    630.22698  0.011689053   0.01016026            2 
 4494000   0.52904959   -8.6904236    630.51977  0.011691881  0.010156745            1 
 4495000   0.53117515    -8.700927     630.2334  0.011683971  0.010153233            2 
 4496000   0.53284748   -8.7013831    630.05406  0.011678048  0.010149719            1 
 4497000   0.52760296    -8.692694    630.47967  0.011683338  0.010146208            1 
 4498000   0.52593635   -8.6903891    630.73144  0.011685405  0.010142698            2 
 4499000   0.52990153   -8.7110646    630.48124  0.011678174  0.010139186            3 
 4500000   0.52830989   -8.7029909      630.719  0.011679981  0.010135679            3 
 4501000    0.5253216   -8.7030056    629.89174   0.01166207   0.01013217            3 
 4502000   0.53395469   -8.7098553    629.89767   0.01165959  0.010128666            3 
 4503000    0.5277869   -8.6935133    629.65986  0.011652599  0.010125164            2 
 4504000   0.52947864   -8.7140636    630.46914  0.011664986   0.01012166            3 
 4505000   0.53471654   -8.7139082    629.51331  0.011644715  0.010118161            1 
 4506000   0.53822481   -8.6963698    630.19734  0.011654781  0.010114661            2 
 4507000   0.53266734   -8.6964901    630.05723  0.011649605  0.010111164            4 
 4508000   0.52981793   -8.7073281    629.74502  0.011641249  0.010107669            2 
 4509000   0.53760851    -8.711092    630.35227   0.01164989  0.010104177            2 
 4510000    0.5298867   -8.7089324    629.89368  0.011638834  0.010100688            3 
 4511000   0.54002552   -8.7101025    630.73327  0.011651764  0.010097197            2 
 4512000   0.53135757   -8.7000618    629.76938  0.011631379  0.010093707            3 
 4513000   0.53660463    -8.706989    630.08158  0.011634566   0.01009022            2 
 4514000   0.53164762   -8.7062725    629.61472   0.01162337  0.010086736            1 
 4515000   0.53232771   -8.7072115    629.84652  0.011625074  0.010083252            2 
 4516000   0.53710965   -8.7096031    630.74471  0.011639074  0.010079769            3 
 4517000   0.52078917   -8.6986127    629.99397  0.011622647  0.010076288            3 
 4518000   0.51648539   -8.7192099     629.8069  0.011616624  0.010072808            3 
 4519000   0.52821539   -8.7023104    630.15561  0.011620484  0.010069329            2 
 4520000   0.53418468   -8.7166038    629.89716  0.011613148  0.010065851            2 
 4521000   0.51748677   -8.7149346    629.38292  0.011601101  0.010062375            5 
 4522000   0.53634313   -8.7162471    630.44559  0.011618119  0.010058902            2 
 4523000    0.5259312   -8.7084138    630.57346  0.011617906  0.010055426            3 
 4524000   0.52603884   -8.7054807    629.43397  0.011594348  0.010051953            3 
 4525000   0.52763706   -8.7265839     629.6511  0.011595784  0.010048482            3 
 4526000   0.52931303    -8.700544    629.98749  0.011599416  0.010045012            1 
 4527000   0.53161779   -8.7159157    629.98617   0.01159683  0.010041547            2 
 4528000     0.529406   -8.7092891    628.95221  0.011575239   0.01003808            4 
 4529000   0.52697723   -8.7294516    629.36922  0.011580357  0.010034615            3 
 4530000   0.52837201    -8.733025    629.34101  0.011577281  0.010031147            3 
 4531000   0.52144496   -8.7110859    629.55234  0.011578613  0.010027685            1 
 4532000   0.52941561    -8.715871    630.68117  0.011596815  0.010024223            2 
 4533000   0.52599954   -8.7153961    628.78247  0.011559351  0.010020763            6 
 4534000   0.53573941   -8.7384876    629.42489  0.011568609  0.010017304            3 
 4535000   0.52156994   -8.6982189    629.53235  0.011568033  0.010013847            3 
 4536000   0.53200147   -8.7138987    630.42449  0.011581873  0.010010393            2 
 4537000   0.53789941   -8.7247258    629.74144  0.011566774  0.010006937            2 
 4538000   0.52747491   -8.7043916    630.35127  0.011575424  0.010003486            3 
 4539000   0.53547548   -8.7221266    629.68975  0.011560728  0.010000037            2 
 4540000   0.51593092   -8.7066539    630.50648  0.011573173 0.0099965902            2 
 4541000   0.52828395   -8.7068566    630.36117  0.011567958 0.0099931469            2 
 4542000   0.50829827   -8.7195392    630.37703  0.011565702 0.0099897063            2 
 4543000   0.52369533   -8.7127427    629.82975  0.011553117 0.0099862635            5 
 4544000   0.52061435   -8.7088663    630.23954   0.01155809 0.0099828225            6 
 4545000   0.52765583   -8.7078981    630.07522  0.011552534 0.0099793797            2 
 4546000    0.5153051   -8.7000514    630.39359  0.011555829 0.0099759424            3 
 4547000   0.52288562   -8.7056592    629.76395  0.011541748 0.0099725064            6 
 4548000   0.52910038   -8.7014672     629.8416  0.011540633 0.0099690703            3 
 4549000   0.53548559   -8.7087075    630.60197  0.011552026 0.0099656366            2 
 4550000   0.52699493    -8.727497    630.37651  0.011545357 0.0099622043            1 
 4551000   0.52763591   -8.7267939      629.996  0.011535853 0.0099587725            2 
 4552000   0.51767094   -8.7204557    630.19142  0.011536896 0.0099553402            1 
 4553000   0.51500099   -8.7258872    630.06657  0.011532077 0.0099519126            3 
 4554000   0.52309955   -8.6973736    629.97627  0.011527893 0.0099484855            2 
 4555000   0.52501115   -8.7016753    630.45345  0.011534092 0.0099450585            2 
 4556000   0.50324216   -8.7020503    629.29309  0.011510336 0.0099416348            2 
 4557000   0.52581611    -8.730979    629.35576  0.011508956 0.0099382143            4 
 4558000   0.52995709   -8.7236217    629.83117  0.011515123  0.009934793            2 
 4559000   0.52115676   -8.7190231    629.47924  0.011506164 0.0099313753            2 
 4560000    0.5128636    -8.713183    629.28094  0.011500017 0.0099279551            4 
 4561000   0.52549264    -8.728648    629.79167  0.011506827 0.0099245365            2 
 4562000    0.5192913   -8.7228064    630.47909  0.011516862 0.0099211194            2 
 4563000   0.52726653   -8.7127534    629.49384  0.011496344 0.0099177044            1 
 4564000   0.52945382   -8.7241046    629.03369  0.011485424 0.0099142915            2 
 4565000   0.51144418   -8.7147706    629.83041  0.011497452 0.0099108742            5 
 4566000   0.52584064   -8.7309426    629.94749   0.01149707 0.0099074615            1 
 4567000   0.51992256   -8.7309119     629.0578  0.011478319 0.0099040483            2 
 4568000   0.50982408   -8.7404475    628.76118  0.011470395 0.0099006374            3 
 4569000   0.51819875   -8.7230696    629.60073  0.011483197 0.0098972292            1 
 4570000   0.51150207   -8.7320842     629.6294  0.011481207 0.0098938243            2 
 4571000   0.52681612   -8.7384736    631.08808  0.011505288 0.0098904196            5 
 4572000   0.52606889   -8.7124752    629.67068  0.011476937 0.0098870174            3 
 4573000   0.52656906   -8.7284621    628.49946  0.011453084  0.009883618            2 
 4574000   0.52143998   -8.7343963    630.25319  0.011482531 0.0098802179            5 
 4575000   0.53392592   -8.7193225    629.42233  0.011464888 0.0098768197            4 
 4576000   0.50653432   -8.7328775    630.09189  0.011474576 0.0098734255            2 
 4577000   0.52427573   -8.7117689    628.93637   0.01145103 0.0098700299            3 
 4578000   0.51355487   -8.7127506    629.63239  0.011461198 0.0098666364            6 
 4579000   0.51480366   -8.6993884     629.8463  0.011462588 0.0098632413            2 
 4580000   0.52137971    -8.712737    630.54466  0.011472792 0.0098598484            2 
 4581000   0.51726625   -8.7398273    628.90953  0.011440543 0.0098564616            2 
 4582000   0.51627679   -8.7311713     629.3591  0.011446223 0.0098530729            2 
 4583000   0.50639826   -8.7313252    629.73486  0.011450557  0.009849684            3 
 4584000   0.51399716   -8.7321316     629.0537  0.011435677 0.0098462934            2 
 4585000   0.52155052   -8.7308569    629.74144  0.011445682 0.0098429074            1 
 4586000   0.52500142   -8.7219094    629.36184  0.011436289 0.0098395226            2 
 4587000    0.5103788   -8.7213069    628.66679  0.011421168 0.0098361403            5 
 4588000   0.52128662   -8.7048718    628.72468   0.01141973 0.0098327657            2 
 4589000   0.53430074     -8.72971    629.15316  0.011425023 0.0098293877            3 
 4590000   0.51904773   -8.7346164    628.77229  0.011415619 0.0098260098            3 
 4591000   0.51254109   -8.7413843    629.10072  0.011419094 0.0098226328            8 
 4592000   0.50546069   -8.7306498    628.41346  0.011404135 0.0098192594            3 
 4593000   0.52116733   -8.7238007    629.61931  0.011423531 0.0098158865            3 
 4594000   0.50925886   -8.7198835    629.44141  0.011417817 0.0098125152            3 
 4595000   0.51398619   -8.7245416    629.76401  0.011421183 0.0098091431            3 
 4596000   0.52109355   -8.7255303     629.5161  0.011414203 0.0098057754            2 
 4597000   0.51642479   -8.7330393    630.08126  0.011421965 0.0098024042            3 
 4598000   0.51733847   -8.7388324    628.54657  0.011391666 0.0097990383            3 
 4599000   0.51443109   -8.7492912    628.00037  0.011379292 0.0097956718            1 
 4600000   0.53335553   -8.7153279    629.25541  0.011399555 0.0097923086            2 
 4601000     0.509475    -8.724441    628.17974  0.011377594 0.0097889476            2 
 4602000   0.51962817   -8.7456956     629.3507  0.011396326 0.0097855851            3 
 4603000   0.50851942   -8.7329161    629.19894  0.011391103 0.0097822239            3 
 4604000   0.51909561   -8.7147353    630.01825  0.011403458 0.0097788662            3 
 4605000   0.52395959   -8.7260488    627.86739  0.011362059 0.0097755076            5 
 4606000   0.53352435   -8.7207982    629.66283  0.011392076  0.009772151            2 
 4607000   0.51889449   -8.7296095    628.95988  0.011376888 0.0097687979            4 
 4608000    0.5200996   -8.7400497    628.15744  0.011359907  0.009765442            4 
 4609000   0.52408957   -8.7265559    628.63785  0.011366129 0.0097620885            1 
 4610000   0.52284547    -8.732848    629.27579  0.011375195 0.0097587372            3 
 4611000    0.5163058   -8.7538896    629.51797  0.011377105 0.0097553882            2 
 4612000   0.52281714   -8.7316158    628.73259  0.011360447 0.0097520385            3 
 4613000   0.51897383   -8.7393077    629.48177  0.011371518 0.0097486965            4 
 4614000    0.5175768   -8.7493156    627.69667  0.011336813  0.009745351            2 
 4615000   0.50065985   -8.7390594    628.81833   0.01135461 0.0097420078            3 
 4616000   0.51164659   -8.7460566    628.23851  0.011341683 0.0097386635            2 
 4617000   0.51548929   -8.7260433    628.34356  0.011341123 0.0097353228            4 
 4618000    0.5188241   -8.7566035    628.61138    0.0113435 0.0097319823            2 
 4619000   0.51285081   -8.7392294    628.68592  0.011342389 0.0097286407            3 
 4620000   0.49853643   -8.7333867    629.66348  0.011357566 0.0097253024            2 
 4621000   0.51431002   -8.7302179    628.92636  0.011341816 0.0097219684            2 
 4622000   0.50315264   -8.7340265    629.92046  0.011357285 0.0097186357            1 
 4623000   0.51693964   -8.7211132    629.10919  0.011340205  0.009715305            4 
 4624000   0.52860241   -8.7306006    629.41967  0.011343348 0.0097119766            2 
 4625000   0.50867213   -8.7316753    630.48495  0.011360089 0.0097086514            2 
 4626000    0.5075461   -8.7238403    628.67953   0.01132511 0.0097053257            3 
 4627000   0.51287736    -8.761806    629.50626  0.011337552 0.0097020045            3 
 4628000    0.4993707    -8.735513    629.26311  0.011330724 0.0096986789            2 
 4629000   0.51529868   -8.7274667    628.55001  0.011315439 0.0096953594            2 
 4630000    0.5087132   -8.7457016    628.19636   0.01130663 0.0096920388            2 
 4631000   0.51328282   -8.7586336     629.1211  0.011320829 0.0096887199            2 
 4632000   0.50427403   -8.7374509    629.01216  0.011316425 0.0096854022            2 
 4633000   0.50780758   -8.7666658    629.39268  0.011320827 0.0096820856            1 
 4634000   0.51612149    -8.747544    629.53555  0.011320953 0.0096787717            2 
 4635000   0.52182115   -8.7340833    628.69914  0.011303473 0.0096754595            4 
 4636000   0.50118866   -8.7488758    628.61329  0.011299491  0.009672149            4 
 4637000   0.51184233   -8.7432468    628.86145  0.011301514 0.0096688368            3 
 4638000   0.51022886   -8.7420926    628.73428  0.011296792 0.0096655283            7 
 4639000   0.50703002    -8.737427    629.30196  0.011304555 0.0096622198            2 
 4640000   0.50537461   -8.7373072    629.09703  0.011298438 0.0096589127            1 
 4641000   0.49602704    -8.725088    628.38472  0.011283213 0.0096556066            2 
 4642000   0.51323887   -8.7384378    628.25213  0.011278402 0.0096523015            3 
 4643000   0.50438011   -8.7433881    628.88551  0.011287341 0.0096489963            2 
 4644000   0.50750018   -8.7251028    629.42844  0.011294653 0.0096456929            3 
 4645000   0.52175439    -8.745964    629.32004  0.011290277 0.0096423916            3 
 4646000   0.49936441   -8.7408426    628.44799  0.011272205 0.0096390922            2 
 4647000   0.52134549   -8.7427085    628.13796   0.01126422 0.0096357978            1 
 4648000   0.50448139   -8.7338667    630.70984  0.011307907 0.0096325031            3 
 4649000   0.51119259    -8.745806    628.49888  0.011265843 0.0096292097            1 
 4650000   0.49359848    -8.736079    628.99769   0.01127236 0.0096259184            4 
 4651000   0.50102076   -8.7331449    629.38012  0.011276789 0.0096226311            3 
 4652000    0.5118754   -8.7632736    629.75929  0.011281157 0.0096193431            3 
 4653000   0.49558091   -8.7288115    629.04132  0.011265874 0.0096160563            3 
 4654000   0.51798169    -8.747852    629.83939  0.011277743 0.0096127716            2 
 4655000   0.50236236   -8.7435276    628.94985  0.011259396  0.009609488            2 
 4656000   0.50669549   -8.7289512    628.53702  0.011249589 0.0096062019            2 
 4657000   0.50054855   -8.7317017    629.38426  0.011262334 0.0096029199            1 
 4658000   0.49298127   -8.7476506    629.18863  0.011256416 0.0095996363            2 
 4659000   0.51116445   -8.7370563     629.2039  0.011254273 0.0095963557            3 
 4660000   0.50058522   -8.7436461    628.69794   0.01124281 0.0095930761            2 
 4661000   0.51190196   -8.7437227    628.93652  0.011244663 0.0095897984            2 
 4662000   0.49693315   -8.7528128    629.79601  0.011257615 0.0095865257            4 
 4663000   0.51389318   -8.7551431    628.79043   0.01123723  0.009583253            1 
 4664000   0.50722596   -8.7521309    628.59401  0.011231311 0.0095799811            2 
 4665000   0.50634682   -8.7433199     628.5743  0.011228551 0.0095767081            1 
 4666000   0.51513222   -8.7362949    629.12886  0.011236049 0.0095734402            1 
 4667000   0.49957434   -8.7487708      628.594  0.011224091  0.009570174            2 
 4668000   0.50720663   -8.7443199    628.93617  0.011227795 0.0095669079            2 
 4669000   0.50068922   -8.7514737    628.91857  0.011225076 0.0095636447            2 
 4670000   0.49549057   -8.7538427     628.2447  0.011210648 0.0095603801            2 
 4671000   0.50704298   -8.7462114    628.64129  0.011215323 0.0095571174            2 
 4672000   0.50177964   -8.7501365    628.45832  0.011209659 0.0095538594            2 
 4673000    0.5012819   -8.7426825    628.38112  0.011205883 0.0095505994            3 
 4674000   0.50408944   -8.7428944    628.89281  0.011212609 0.0095473448            2 
 4675000    0.4931854   -8.7404411     628.1415  0.011196818 0.0095440883            1 
 4676000   0.50545144   -8.7365375    628.63321  0.011203187 0.0095408314            2 
 4677000   0.50683786   -8.7336467    629.51302  0.011216467 0.0095375795            1 
 4678000   0.51004863   -8.7491163    627.81299  0.011183786 0.0095343268            1 
 4679000   0.51300491   -8.7563036    628.43478   0.01119247 0.0095310772            1 
 4680000    0.5095641   -8.7499538     628.2607  0.011186978 0.0095278299            3 
 4681000   0.49459938    -8.745319    628.54688  0.011189683  0.009524582            3 
 4682000   0.49683371   -8.7347527    628.34355  0.011183674 0.0095213363            3 
 4683000   0.51321497   -8.7525056    628.89429  0.011191086 0.0095180929            3 
 4684000   0.50849606    -8.746388    628.64567  0.011184274 0.0095148471            1 
 4685000   0.49463516   -8.7522472    628.08597  0.011171931 0.0095116015            1 
 4686000   0.50175395   -8.7397502    629.86644   0.01120121 0.0095083584            3 
 4687000   0.50097056   -8.7507762    628.14543  0.011168221 0.0095051161            6 
 4688000    0.4978427   -8.7557013    629.57041  0.011191169 0.0095018774            3 
 4689000   0.49298778   -8.7502962    628.62786  0.011172031 0.0094986357            3 
 4690000   0.49612039   -8.7571195    629.53104  0.011185697 0.0094953985            2 
 4691000    0.5061845   -8.7555407    628.14184  0.011158634 0.0094921638            2 
 4692000   0.49908316   -8.7401457    628.72634  0.011166637 0.0094889294            1 
 4693000   0.51039719   -8.7630336    628.12611  0.011153599 0.0094856983            1 
 4694000   0.49085278   -8.7528473    629.40646  0.011173954 0.0094824674            2 
 4695000   0.50369265   -8.7527042    628.42629  0.011154176 0.0094792354            2 
 4696000   0.49591468   -8.7501302    627.62672  0.011137612 0.0094760047            3 
 4697000   0.49990122   -8.7602457    628.97177  0.011159105 0.0094727765            2 
 4698000   0.50232906   -8.7257584    628.53229  0.011148934 0.0094695488            2 
 4699000   0.50246233   -8.7588234    628.59511  0.011147675 0.0094663234            2 
 4700000   0.50662241   -8.7576706    629.64662  0.011163947 0.0094631006            2 
 4701000   0.50334353   -8.7398124    628.46611  0.011140646 0.0094598776            1 
 4702000   0.49707434   -8.7638062    627.59193  0.011122783 0.0094566532            1 
 4703000   0.50597881   -8.7644304    628.07124  0.011128911 0.0094534308            3 
 4704000   0.50779535   -8.7602357    628.87633  0.011140808 0.0094502152            3 
 4705000   0.49503422   -8.7821036    628.45713  0.011131015 0.0094469979            1 
 4706000   0.50701731   -8.7718111     627.9217  0.011119169 0.0094437785            2 
 4707000   0.49476225   -8.7716628    627.99878  0.011118171 0.0094405615            3 
 4708000   0.51466906   -8.7476727    628.96893  0.011132982 0.0094373482            4 
 4709000   0.50534378   -8.7554746    628.44603  0.011121364 0.0094341371            2 
 4710000   0.49285107   -8.7454222    628.09208   0.01111274 0.0094309266            2 
 4711000   0.50508871   -8.7583031    628.46638  0.011117002 0.0094277131            4 
 4712000   0.49778079   -8.7561688    627.76473  0.011102234 0.0094245048            3 
 4713000   0.50380198   -8.7520148    627.83827  0.011101179 0.0094212969            2 
 4714000   0.49623352   -8.7505717    628.17896  0.011104847 0.0094180925            2 
 4715000    0.4806646   -8.7394301    629.11397  0.011119017 0.0094148863            1 
 4716000   0.49148485   -8.7725744    627.98675  0.011096741 0.0094116831            2 
 4717000   0.50177753   -8.7364477    629.05022  0.011113176 0.0094084795            3 
 4718000   0.48665161   -8.7597303    629.08474   0.01111143 0.0094052801            2 
 4719000   0.50229678   -8.7569149    627.96443  0.011089292 0.0094020807            1 
 4720000   0.49593127   -8.7747859    628.03426  0.011088175 0.0093988835            2 
 4721000   0.49406514   -8.7625491    628.86163  0.011100431 0.0093956885            3 
 4722000   0.49684271   -8.7643623    628.40162  0.011089962 0.0093924931            2 
 4723000   0.49220728   -8.7645755    628.12924  0.011082808 0.0093892992            1 
 4724000   0.49063605   -8.7650212    627.92363  0.011076835 0.0093861047            2 
 4725000   0.49036591   -8.7577218    627.21292  0.011061956 0.0093829129            2 
 4726000   0.49143348   -8.7603792    628.34804  0.011079631 0.0093797242            3 
 4727000   0.49866545   -8.7735966      628.743   0.01108425 0.0093765373            3 
 4728000   0.49186616   -8.7678274    628.71727  0.011081452 0.0093733518            3 
 4729000   0.48761656   -8.7650607    628.26356  0.011071114 0.0093701658            3 
 4730000   0.49572321    -8.773615    627.92277  0.011062769 0.0093669856            1 
 4731000   0.49668243   -8.7579017    628.48653  0.011070361  0.009363805            1 
 4732000   0.49408071   -8.7688062    628.15137  0.011062119 0.0093606249            3 
 4733000   0.49926592   -8.7534504    627.95296  0.011056288 0.0093574437            2 
 4734000   0.49754163   -8.7608691    628.45393  0.011062772  0.009354264            1 
 4735000   0.48987074   -8.7565751     628.7252  0.011065209 0.0093510856            2 
 4736000   0.50193725    -8.746822    628.68294  0.011062129 0.0093479078            1 
 4737000   0.48370621   -8.7572842    629.03358  0.011065963 0.0093447336            2 
 4738000   0.48633171   -8.7628305    627.53406  0.011037253 0.0093415604            3 
 4739000   0.50561763   -8.7461669    627.81218  0.011039815 0.0093383892            3 
 4740000   0.48883043   -8.7683027    628.30919  0.011046223 0.0093352178            3 
 4741000   0.49749012   -8.7688788    628.59158  0.011048857 0.0093320485            1 
 4742000   0.50016822   -8.7565624    627.33642   0.01102447  0.009328879            3 
 4743000   0.48855021   -8.7748794    628.51222  0.011042804 0.0093257141            2 
 4744000   0.49034817   -8.7666055    629.30065  0.011054326 0.0093225501            3 
 4745000   0.48502061   -8.7831268    627.99949  0.011029145 0.0093193842            1 
 4746000   0.49673295   -8.7546552    628.69748  0.011039076 0.0093162209            1 
 4747000   0.49497851   -8.7643994    627.07528  0.011008273 0.0093130597            2 
 4748000   0.49497176   -8.7477988    628.08821  0.011023733 0.0093099009            2 
 4749000   0.48012748   -8.7573976    627.87915  0.011017743 0.0093067434            2 
 4750000   0.49231846   -8.7728908    627.68214  0.011011967 0.0093035867            2 
 4751000   0.48993635   -8.7620548    628.43087  0.011022782 0.0093004337            1 
 4752000   0.49397911   -8.7530803    628.05678  0.011013903 0.0092972818            2 
 4753000   0.50515705   -8.7732835    629.30771  0.011033518 0.0092941303            3 
 4754000   0.49126828   -8.7708422    628.32463  0.011013964 0.0092909839            2 
 4755000   0.48643916    -8.755132    628.32314  0.011011622 0.0092878366            4 
 4756000   0.48415993   -8.7541611    628.48646  0.011012168 0.0092846926            2 
 4757000   0.50144125     -8.75919    627.78963  0.010997646 0.0092815462            2 
 4758000   0.49020787   -8.7637687    629.16973  0.011019506 0.0092784018            1 
 4759000   0.48150706   -8.7776947    627.98392  0.010996426 0.0092752573            3 
 4760000   0.49793621   -8.7657992    627.87294  0.010992173 0.0092721127            2 
 4761000   0.49592958   -8.7614684    628.07023  0.010993318 0.0092689711            3 
 4762000   0.49970314   -8.7526764    628.45343  0.010997715 0.0092658332            1 
 4763000   0.49723988   -8.7809461    629.36568  0.011011367 0.0092626948            2 
 4764000   0.50154957   -8.7766885    628.96274  0.011002007 0.0092595584            1 
 4765000   0.49132653   -8.7733059    628.12911  0.010985119 0.0092564236            3 
 4766000   0.49224112   -8.7618231    628.37012  0.010987028 0.0092532861            2 
 4767000   0.48975189   -8.7721239     627.9607  0.010977566 0.0092501526            1 
 4768000   0.48973026   -8.7589028     627.8006  0.010972466 0.0092470221            2 
 4769000   0.49564321   -8.7630165    627.67322  0.010967939 0.0092438954            3 
 4770000   0.49420842     -8.75374    627.07001  0.010955101 0.0092407663            2 
 4771000   0.48004289   -8.7702244    628.05846   0.01097007 0.0092376418            2 
 4772000   0.47785307   -8.7798836    628.08974  0.010968318 0.0092345176            2 
 4773000    0.4719234   -8.7723154    627.49193  0.010955582 0.0092313899            2 
 4774000   0.48508276   -8.7790613    628.41081  0.010969327 0.0092282673            1 
 4775000   0.49003029   -8.7807267     628.6936  0.010971965 0.0092251442            2 
 4776000   0.48332521   -8.7657167    628.32729  0.010963276 0.0092220225            2 
 4777000   0.48693033   -8.7660654     628.1634  0.010958122 0.0092189023            2 
 4778000   0.48992334   -8.7755459    627.99342  0.010952864 0.0092157845            1 
 4779000   0.47978458   -8.7592047    627.67776  0.010945068 0.0092126647            2 
 4780000   0.48424485   -8.7733765    627.89086  0.010946493 0.0092095457            3 
 4781000   0.48664846   -8.7793946     627.2308  0.010932699 0.0092064308            2 
 4782000    0.4823407   -8.7695355    627.88401  0.010941796 0.0092033151            2 
 4783000   0.49425473   -8.7606726    628.48381  0.010949958 0.0092002021            3 
 4784000   0.49729597   -8.7936954    628.80125  0.010953199 0.0091970883            3 
 4785000   0.47774232   -8.7727333    628.17404  0.010939987 0.0091939751            2 
 4786000   0.48077544     -8.78688    626.65027  0.010911169 0.0091908648            2 
 4787000    0.4842765   -8.7808635    627.97947  0.010932029 0.0091877562            3 
 4788000   0.48497479   -8.7725039    627.48439  0.010921129 0.0091846499            3 
 4789000   0.48057795   -8.7893214    628.32533  0.010933482 0.0091815438            2 
 4790000   0.49008638   -8.7783815    628.02946  0.010926052 0.0091784381            2 
 4791000   0.49681437   -8.7645712    628.16162   0.01092607 0.0091753354            5 
 4792000   0.48760464   -8.7698631    628.72197  0.010933535 0.0091722345            2 
 4793000     0.488661   -8.7774088    628.81078  0.010932797 0.0091691345            4 
 4794000    0.4885723   -8.7704992    627.43718   0.01090664  0.009166033            2 
 4795000   0.48255291   -8.7725084    627.02073  0.010897128 0.0091629349            3 
 4796000   0.49772637   -8.7808568    627.15581  0.010897203 0.0091598376            5 
 4797000   0.47331407   -8.7725531    627.78386  0.010905841 0.0091567423            1 
 4798000   0.49165941   -8.7740645    627.11691  0.010891985 0.0091536483            2 
 4799000    0.4864873   -8.7762218    627.52752  0.010896845 0.0091505534            2 
 4800000   0.49109464   -8.7807973     627.5999  0.010895832  0.009147462            4 
 4801000   0.49364531   -8.7780713    626.76057  0.010878993 0.0091443745            3 
 4802000   0.47271436   -8.7697614    627.92381  0.010896915 0.0091412857            3 
 4803000   0.48047254   -8.7820017    627.23603  0.010882713 0.0091382013            3 
 4804000   0.48481144   -8.7845385    626.84827  0.010873721 0.0091351187            2 
 4805000   0.48400631   -8.7764233    627.02643  0.010874548 0.0091320359            2 
 4806000   0.48584873   -8.7830801    627.20082  0.010875309 0.0091289523            3 
 4807000   0.48891617   -8.7799587    626.81828  0.010866415 0.0091258711            5 
 4808000   0.48437851   -8.7997519    627.95647  0.010883882 0.0091227903            4 
 4809000   0.49064047   -8.7879865    627.44265  0.010872715 0.0091197128            4 
 4810000   0.48689661   -8.7651651    626.60721  0.010855981 0.0091166327            2 
 4811000   0.48816471   -8.7787729    628.13313  0.010880155 0.0091135562            3 
 4812000   0.47751174   -8.7743386    627.01917  0.010858603   0.00911048            5 
 4813000   0.47402951   -8.7712029     628.3812  0.010879929 0.0091074076            3 
 4814000   0.48297095   -8.7815052    627.74179  0.010866601 0.0091043338            2 
 4815000   0.47937328   -8.7994771    627.77181  0.010864863 0.0091012618            3 
 4816000   0.48900267   -8.8002613    628.57664  0.010876534 0.0090981921            2 
 4817000   0.47636776   -8.7825622    627.86156  0.010861905 0.0090951212            1 
 4818000   0.47033957   -8.7793865    627.44969  0.010852527 0.0090920538            2 
 4819000   0.48578698   -8.7807135    627.67059  0.010854095 0.0090889892            2 
 4820000   0.47583498   -8.7646913    627.67899  0.010851988 0.0090859254            3 
 4821000    0.4763541   -8.7777901    627.04723  0.010838817 0.0090828615            5 
 4822000   0.47228457   -8.7884693    627.62415  0.010846539 0.0090798023            2 
 4823000    0.4825336   -8.7798061    628.27019  0.010855453 0.0090767426            2 
 4824000   0.48045151   -8.7671599    627.34699  0.010837255 0.0090736837            3 
 4825000   0.47207482   -8.7957023    627.31817  0.010834511 0.0090706256            4 
 4826000   0.47699615   -8.7817175    627.42516  0.010834113 0.0090675704            3 
 4827000   0.48022994   -8.7901731    628.61861  0.010852472  0.009064516            3 
 4828000    0.4751027   -8.7906256    627.16708   0.01082517  0.009061465            3 
 4829000   0.48171201   -8.7905766    628.24707  0.010841566 0.0090584132            3 
 4830000   0.47236483   -8.7910133    626.50619  0.010809286 0.0090553605            3 
 4831000   0.47040553   -8.7937934    627.58112   0.01082559  0.009052311            3 
 4832000     0.470055   -8.7822209     628.0065  0.010830686 0.0090492629            1 
 4833000   0.48426322   -8.7941049    627.80609  0.010824989 0.0090462174            3 
 4834000   0.48130507   -8.7996394    628.68183  0.010837847 0.0090431729            4 
 4835000   0.48896518   -8.7902032    626.40623  0.010796384 0.0090401287            2 
 4836000   0.48283955   -8.7930754    628.20011  0.010825064 0.0090370876            2 
 4837000   0.47943342   -8.7747944    626.78395  0.010798428 0.0090340476            4 
 4838000   0.46839583   -8.7956231    627.00056  0.010799927 0.0090310069            5 
 4839000   0.48227837   -8.7964057    627.76196  0.010810807 0.0090279687            2 
 4840000   0.47791851   -8.7950166    627.06128   0.01079651 0.0090249298            3 
 4841000   0.46254427   -8.7931487    628.29706  0.010815552 0.0090218926            2 
 4842000   0.47290567   -8.7871175    627.69289   0.01080292 0.0090188597            3 
 4843000   0.47553547   -8.7857013    626.38565  0.010778196 0.0090158249            1 
 4844000   0.47840076   -8.7940794    627.91327  0.010802251 0.0090127918            3 
 4845000   0.47969029   -8.7933339    627.11217  0.010786243 0.0090097591            3 
 4846000   0.47204762    -8.783596    627.40412  0.010789038 0.0090067317            4 
 4847000   0.47335127    -8.797963    626.65126  0.010773868 0.0090037026            2 
 4848000   0.47397255    -8.793346    627.45208  0.010785411 0.0090006749            3 
 4849000   0.47291984   -8.7920296    627.04934  0.010776266 0.0089976474            3 
 4850000   0.46363055   -8.7976406    627.39971  0.010780064 0.0089946226            3 
 4851000   0.47503793   -8.7889294    627.43469  0.010778442 0.0089915977            3 
 4852000   0.48508698   -8.7993063    627.69197   0.01078064 0.0089885761            3 
 4853000   0.48343648   -8.7933494    626.38952  0.010756053 0.0089855569            4 
 4854000   0.47926501   -8.7908811    628.56341  0.010791159 0.0089825365            4 
 4855000   0.47987857   -8.7733936    627.05619  0.010763065 0.0089795184            2 
 4856000   0.47258303    -8.791302    628.32756  0.010782667 0.0089765017            3 
 4857000   0.46721616   -8.7795439    627.49937  0.010766237 0.0089734855            2 
 4858000   0.46566397   -8.8001389    626.91063  0.010753922 0.0089704718            2 
 4859000   0.47855654   -8.7823656    627.28176  0.010758074 0.0089674578            2 
 4860000   0.46625996   -8.7967309    627.39887  0.010757868 0.0089644454            4 
 4861000   0.46836201   -8.7857155    626.79236  0.010745257 0.0089614341            3 
 4862000    0.4845188   -8.7879859    628.69682  0.010775689 0.0089584257            3 
 4863000   0.46917448    -8.805405    627.15515  0.010747055 0.0089554192            2 
 4864000   0.47997006   -8.7998064    627.36166  0.010748384 0.0089524108            2 
 4865000   0.48205789   -8.7934008    627.61987  0.010750597 0.0089494047            2 
 4866000   0.47915578   -8.7905134    627.34476  0.010743676 0.0089463995            4 
 4867000   0.47182428   -8.7975963    628.01461  0.010752938 0.0089433967            3 
 4868000    0.4640313   -8.8112749    627.39185  0.010740069 0.0089403942            2 
 4869000   0.46866451   -8.7847493    627.43581  0.010738615 0.0089373939            4 
 4870000   0.46947898   -8.7883953    627.15839  0.010731663 0.0089343944            3 
 4871000    0.4636771   -8.8151975    627.56691  0.010736449 0.0089313985            2 
 4872000   0.47623048   -8.7854635    627.04204  0.010725268 0.0089284001            3 
 4873000   0.47339715   -8.7836491    626.82909  0.010719425 0.0089254065            2 
 4874000   0.47090894   -8.8075247    628.13034  0.010739474 0.0089224129            2 
 4875000   0.48755529   -8.7990395    627.34996  0.010723931 0.0089194214            2 
 4876000   0.47242114   -8.7992682    626.26975   0.01070327 0.0089164297            2 
 4877000   0.46581005   -8.7881055    626.67661  0.010708028 0.0089134403            1 
 4878000   0.46777788   -8.7954472    628.87407  0.010743373   0.00891045            1 
 4879000   0.46844718   -8.7868325    627.16898  0.010712048 0.0089074617            2 
 4880000   0.48258452   -8.7884154    627.55531   0.01071645 0.0089044759            2 
 4881000   0.47434707   -8.8114967    627.58867  0.010714824 0.0089014891            2 
 4882000   0.46017794   -8.7858122    626.95808  0.010701865 0.0088985052            2 
 4883000   0.47751654   -8.7844279    626.15882  0.010686033 0.0088955193            3 
 4884000    0.4645849   -8.8149849    626.87342  0.010696038 0.0088925365            2 
 4885000   0.46465338   -8.8034224    626.98666  0.010695781  0.008889558            2 
 4886000   0.47624022   -8.8040925     627.3756  0.010700225 0.0088865805            5 
 4887000   0.47960427   -8.7986638    627.48532  0.010699907 0.0088836052            4 
 4888000   0.46650563   -8.7920198    627.46828  0.010697427 0.0088806311            2 
 4889000   0.46161859   -8.8010129    627.59048  0.010697322 0.0088776562            3 
 4890000   0.47477057   -8.7969818    628.46112  0.010709971 0.0088746839            1 
 4891000    0.4660915    -8.789213     627.7609  0.010695851 0.0088717129            2 
 4892000   0.46648214   -8.7948572    627.01972  0.010681039 0.0088687454            2 
 4893000    0.4677454   -8.7963221    627.96161  0.010694898 0.0088657756            2 
 4894000   0.47168487   -8.8121451    627.15846  0.010679037  0.008862809            2 
 4895000   0.46360295   -8.8072256    628.01769  0.010691483 0.0088598447            2 
 4896000   0.47375598   -8.7983773    627.65841  0.010683184 0.0088568798            3 
 4897000   0.46925143    -8.790774    627.02814  0.010670277 0.0088539165            3 
 4898000   0.46640783   -8.7964034     627.7329  0.010680089  0.008850954            1 
 4899000   0.47669076   -8.7848893     627.7194  0.010677679 0.0088479931            2 
 4900000   0.46927659    -8.799792    627.49222  0.010671636 0.0088450333            4 
 4901000    0.4678418   -8.8047702    626.84234  0.010658409 0.0088420759            1 
 4902000   0.46840402   -8.8067001    627.58815  0.010668913 0.0088391195            4 
 4903000   0.45987456   -8.8034803    627.54937  0.010666078 0.0088361631            1 
 4904000   0.47211392   -8.8077419    627.40407  0.010661434 0.0088332089            3 
 4905000   0.46904483     -8.80483    626.78331  0.010648714 0.0088302542            3 
 4906000   0.45919472   -8.8100462    626.73216  0.010645675 0.0088272998            2 
 4907000   0.46419855    -8.791765     626.3632  0.010637239 0.0088243477            2 
 4908000   0.46649348   -8.7983715    627.43356  0.010653246 0.0088213978            2 
 4909000   0.47046637   -8.7835038    626.16713  0.010629577 0.0088184492            2 
 4910000   0.47039963   -8.8185392    626.81226  0.010638362 0.0088155021            3 
 4911000   0.46911481   -8.7968255    626.38641  0.010628969  0.008812555            3 
 4912000   0.45805885   -8.8099817    627.58743  0.010647181   0.00880961            1 
 4913000   0.46855129   -8.7963144    627.53919  0.010644195 0.0088066668            3 
 4914000   0.46400839   -8.8013885    627.15696  0.010635547 0.0088037234            2 
 4915000   0.46995965   -8.8125319    628.46634  0.010655584 0.0088007819            2 
 4916000   0.47604868    -8.806288    627.29413  0.010633546 0.0087978422            3 
 4917000   0.45941418   -8.7988378    626.52164  0.010618291 0.0087949041            3 
 4918000   0.47417367   -8.7886782    626.76652  0.010620281 0.0087919657            3 
 4919000   0.47052573   -8.8006099     626.6441  0.010616048 0.0087890308            1 
 4920000   0.46097753    -8.805604    627.57537  0.010629664 0.0087860948            4 
 4921000   0.46833464   -8.8023658    627.01491  0.010618013 0.0087831606            5 
 4922000   0.47061101   -8.8221887    627.08978  0.010617123 0.0087802257            3 
 4923000    0.4685765   -8.7972327    627.98263   0.01063008 0.0087772938            2 
 4924000   0.46570212   -8.8109822    626.53081  0.010603351 0.0087743627            2 
 4925000   0.46711728   -8.8237285    627.07227   0.01061036 0.0087714336            2 
 4926000    0.4651054   -8.8345549    628.18867  0.010627092 0.0087685051            3 
 4927000   0.46547382   -8.8127103    626.35949  0.010593997 0.0087655766            3 
 4928000   0.45673657   -8.8119762    626.87663  0.010600592 0.0087626484            2 
 4929000   0.46509139   -8.7983599    626.75713  0.010596421 0.0087597217            3 
 4930000   0.46869208   -8.8119749    626.51296  0.010590145 0.0087567974            6 
 4931000   0.46567346    -8.797333    625.88917  0.010577455 0.0087538761            2 
 4932000   0.46554228    -8.810092     627.4584  0.010601825 0.0087509531            2 
 4933000   0.46005866   -8.8116661    627.44122  0.010599385  0.008748034            3 
 4934000   0.46500587   -8.8100921    626.28368  0.010577687 0.0087451139            6 
 4935000   0.46516746    -8.813814    627.35736  0.010593674  0.008742195            3 
 4936000   0.46450384   -8.8054615    626.55595  0.010577997 0.0087392785            3 
 4937000   0.45755388   -8.8275145    626.72787  0.010578757  0.008736365            4 
 4938000   0.46018718   -8.8011575    626.15646  0.010566972 0.0087334506            4 
 4939000   0.46413402     -8.81677    627.32846  0.010584606 0.0087305395            2 
 4940000   0.46365697    -8.818117    626.52328  0.010568881 0.0087276269            3 
 4941000   0.45247095   -8.8061811    627.36433  0.010580927 0.0087247161            4 
 4942000   0.45549306   -8.8141079    626.85689  0.010570229 0.0087218076            3 
 4943000   0.46681456   -8.8012852    626.03587   0.01055425 0.0087189015            3 
 4944000   0.46912635   -8.8082987    626.92579  0.010567115 0.0087159955            2 
 4945000   0.45989017   -8.8079728    627.20178  0.010569629 0.0087130889            1 
 4946000    0.4633539   -8.7929356    626.53576   0.01055627 0.0087101859            2 
 4947000   0.45835587   -8.8116673     626.2515  0.010549348 0.0087072842            2 
 4948000   0.45574372   -8.8134897    626.22274  0.010546732 0.0087043857            2 
 4949000   0.45893586   -8.8190364    627.06367   0.01055876 0.0087014826            3 
 4950000   0.46346261   -8.8122749    626.00108  0.010538739 0.0086985848            4 
 4951000   0.45510643   -8.8201145    626.54894  0.010545832 0.0086956866            3 
 4952000   0.45739772   -8.8180985    626.43362  0.010541761 0.0086927901            2 
 4953000   0.45508204   -8.8210058    627.27701  0.010553823 0.0086898938            2 
 4954000   0.45337238   -8.8167228    626.45737  0.010537905 0.0086869997            1 
 4955000   0.45347367   -8.8163844    626.40024  0.010534817 0.0086841069            2 
 4956000    0.4479123   -8.8054694    626.32377  0.010531406 0.0086812151            3 
 4957000   0.45838308   -8.8077236    626.72483  0.010536024  0.008678325            2 
 4958000   0.45509353   -8.8194791    625.96108  0.010521062 0.0086754345            3 
 4959000   0.45166058   -8.8203399    626.36843  0.010525785 0.0086725444            4 
 4960000   0.46316308   -8.8215054    626.31294  0.010522731 0.0086696571            2 
 4961000   0.46341849   -8.8173169    625.93992  0.010514344 0.0086667716            2 
 4962000   0.45984906   -8.8131071    625.98918  0.010513052 0.0086638849            3 
 4963000   0.45683555   -8.8226133    626.60795  0.010521324 0.0086610004            4 
 4964000   0.45241829   -8.8137022    626.55307  0.010518283  0.008658116            3 
 4965000   0.45459619   -8.8157702    626.86777  0.010521446 0.0086552348            5 
 4966000   0.45618472   -8.8091017     625.9169  0.010503371 0.0086523529            4 
 4967000   0.46566552   -8.8114588    626.73312  0.010514951 0.0086494735            4 
 4968000   0.45631717   -8.8213633    627.35244  0.010523223 0.0086465971            2 
 4969000   0.45701829   -8.8159782    626.40554  0.010505225 0.0086437208            4 
 4970000   0.45712079   -8.8233245    626.89752   0.01051136 0.0086408471            2 
 4971000   0.45717192   -8.8124218    626.24289  0.010498271 0.0086379722            4 
 4972000   0.46646791   -8.8085123    625.49396  0.010483608 0.0086350984            1 
 4973000   0.46053104   -8.8254101    627.16889  0.010509566 0.0086322273            3 
 4974000   0.46162801   -8.8203989    626.34507  0.010493651 0.0086293557            2 
 4975000   0.45747641   -8.8109708    626.84754  0.010499959 0.0086264863            3 
 4976000   0.45592818   -8.8101492     626.5243  0.010492435 0.0086236178            2 
 4977000   0.45357733   -8.8162203    626.74209  0.010493974 0.0086207534            2 
 4978000   0.44318986   -8.8030147     625.6239  0.010473147 0.0086178876            5 
 4979000   0.46010574    -8.831748    626.91508  0.010492654 0.0086150219            4 
 4980000   0.45579541   -8.8235154    626.20826  0.010478719 0.0086121563            3 
 4981000   0.46165947   -8.8291426    626.64232  0.010483877 0.0086092933            1 
 4982000   0.44945498   -8.8125067    625.53347  0.010463225 0.0086064302            2 
 4983000   0.45984176    -8.832032    626.04247  0.010469638 0.0086035693            3 
 4984000   0.45469978   -8.8193301     625.3733  0.010456349 0.0086007098            3 
 4985000   0.44405698   -8.8183185    626.74653  0.010477207  0.008597853            8 
 4986000   0.45440104   -8.8164397    626.43186  0.010469847 0.0085949974            2 
 4987000   0.45817907    -8.825019    626.43524  0.010467804 0.0085921425            3 
 4988000    0.4568797   -8.8051985    624.96204  0.010441093 0.0085892883            2 
 4989000   0.45230244   -8.8160592    626.82462  0.010470111 0.0085864362            1 
 4990000    0.4461438    -8.831727    626.61826  0.010464567 0.0085835839            5 
 4991000   0.45530926   -8.8233409    627.41366  0.010475751 0.0085807347            4 
 4992000   0.45208399   -8.8226747    626.12021   0.01045206 0.0085778878            3 
 4993000     0.451889   -8.8258709    626.88346  0.010462706 0.0085750436            2 
 4994000   0.45660933   -8.8120331    626.31372  0.010451103 0.0085721976            5 
 4995000   0.44578147   -8.8349177    626.37919  0.010450103 0.0085693538            2 
 4996000    0.4582459   -8.8137873    625.88673  0.010439797 0.0085665089            3 
 4997000   0.45594547   -8.8280554    626.11587  0.010441529 0.0085636652            3 
 4998000   0.45816441   -8.8314456    625.79413  0.010434076 0.0085608217            2 
 4999000   0.45037748   -8.8314722    626.88561  0.010450184 0.0085579828            9 
 5000000   0.44567891   -8.8328334    626.00694  0.010433449  0.008555144            3 
 5001000   0.45684847   -8.8302448    626.75883  0.010443892 0.0085523053            2 
 5002000   0.45904532   -8.8269366    626.60894  0.010439307 0.0085494688            6 
 5003000   0.44792094   -8.8285322     626.7272   0.01043919 0.0085466323            5 
 5004000   0.45820104   -8.8467042    625.74134  0.010420686 0.0085437975            3 
 5005000   0.45882345   -8.8211682    625.49835  0.010414558 0.0085409643            5 
 5006000   0.46219319   -8.8230568    625.99717  0.010420781 0.0085381316            4 
 5007000   0.44984297   -8.8176813     625.4277  0.010409222 0.0085353003            3 
 5008000   0.44310479   -8.8242611    626.65466   0.01042756 0.0085324738            1 
 5009000   0.45978903   -8.8336199    626.30056  0.010419587 0.0085296472            2 
 5010000    0.4523899   -8.8259381    627.06437  0.010430212 0.0085268202            3 
 5011000   0.43813016    -8.836459    626.01227  0.010410634 0.0085239943            2 
 5012000   0.46249887   -8.8214687    627.70934  0.010436774 0.0085211726            2 
Loop time of 12143.6 on 48 procs for 5000000 steps with 4000 atoms

Performance: 71148.556 tau/day, 411.739 timesteps/s
99.4% CPU use with 48 MPI tasks x no OpenMP threads

MPI task timing breakdown:
Section |  min time  |  avg time  |  max time  |%varavg| %total
---------------------------------------------------------------
Pair    | 791.54     | 846.64     | 907.81     |  95.2 |  6.97
Neigh   | 79.473     | 83.082     | 87.832     |  20.9 |  0.68
Comm    | 763.39     | 828.12     | 898.78     | 107.9 |  6.82
Output  | 14.111     | 14.117     | 14.212     |   0.4 |  0.12
Modify  | 10239      | 10263      | 10284      |  11.7 | 84.52
Other   |            | 108.2      |            |       |  0.89

Nlocal:        83.3333 ave          90 max          74 min
Histogram: 2 0 2 6 3 10 12 6 1 6
Nghost:        2101.21 ave        2118 max        2088 min
Histogram: 1 6 7 7 6 9 2 6 2 2
Neighs:        13807.9 ave       15511 max       11892 min
Histogram: 2 0 4 6 9 12 5 3 4 3
FullNghs:      27615.4 ave       30150 max       24159 min
Histogram: 2 0 3 5 5 8 14 4 2 5

Total # of neighbors = 1325541
Ave neighs/atom = 331.38525
Neighbor list builds = 267405
Dangerous builds = 2

#clear
#
#next RN
#
#jump SELF
Total wall time: 3:22:26
