
units lj                  # Use reduced LJ style units
atom_style atomic         # Uncharged point particles
atom_modify map hash      # Needed for indexing of clusters etc
                          # Used to be able to find where atoms are in relation to each other.

lattice fcc 1.0 spacing 1 1 1
Lattice spacing in x,y,z = 1.5874011 1.5874011 1.5874011
region box block 0 10 0 10 0 10 units lattice
create_box 2 box
Created orthogonal box = (0.0000000 0.0000000 0.0000000) to (15.874011 15.874011 15.874011)
  3 by 4 by 4 MPI processor grid
create_atoms 1 box
Created 4000 atoms
  using lattice units in orthogonal box = (0.0000000 0.0000000 0.0000000) to (15.874011 15.874011 15.874011)
  create_atoms CPU = 0.003 seconds
set type 1 type/fraction 2 0.87 78393
Setting atom values ...
  3472 settings made for type/fraction
mass 1 1.0
mass 2 1.0
pair_style lj/cut  3.5
pair_modify tail  yes
pair_coeff 1  1  1.0  1.0   # Intearaction between 1 and 1 set with epsilon = 1 and sigma = 1
pair_coeff 1  2  1.5  0.8
pair_coeff 2  2  0.5  0.88

write_data data.0
System init for write_data ...
Neighbor list info ...
  update every 1 steps, delay 10 steps, check yes
  max neighbors/atom: 2000, page size: 100000
  master list distance cutoff = 3.8
  ghost atom cutoff = 3.8
  binsize = 1.9, bins = 9 9 9
  1 neighbor lists, perpetual/occasional/extra = 1 0 0
  (1) pair lj/cut, perpetual
      attributes: half, newton on
      pair build: half/bin/atomonly/newton
      stencil: half/bin/3d
      bin: standard
WARNING: Not all mixed pair coeffs generated from mixing. Use write_data with 'pair ij' option to store all pair coeffs. (../write_data.cpp:312)


#############################
#   M E L T   S Y S T E M   #
#############################

velocity all create 2.4 9622624 mom yes dist gaussian # Assign velocities
                                                    # Temperature 2.4, random number seed, zero linear momentum
                                                                                # Gaussian distribution

timestep 0.002   # simulation timestep
thermo 1000       # output thermodynamic data every 1000 steps bf 100

# Define a fix  in this case with index 1 applied to all
# particles in the simulation. This fix is for simulations
# in the anisotropic NPT ensemble. Note that we use the MTK
# correction.
fix 1 all npt temp 2.4 2.4 0.1 iso 5.68 5.68 0.5 mtk yes tchain 5 pchain 5 # Use NPT ensemble
                                                                         # Set temperature and pressure and damping
                                                                         # Numbers of thermostats in chain and in barostat
run 10000          # run for 10000 steps
Per MPI rank memory allocation (min/avg/max) = 3.642 | 3.644 | 3.648 Mbytes
Step Temp E_pair E_mol TotEng Press Volume 
       0          2.4   -3.3406884            0   0.25841159    -2.808294         4000 
    1000    2.3913683   -2.4484633            0    1.1376923    5.8711731    3922.1397 
    2000    2.4577937   -2.4577424            0    1.2280264    6.1944179    3895.3933 
    3000    2.3551948   -2.4420153            0    1.0898937    5.9457889    3906.1075 
    4000    2.3642331   -2.4718453            0    1.0736178    5.5547943    3943.3729 
    5000    2.3794509   -2.5319149            0    1.0363692    5.3842769    3929.1691 
    6000    2.4037832    -2.492301            0    1.1124723      5.68779    3928.8192 
    7000    2.3845838   -2.4806996            0    1.0952819    5.9047023    3902.0153 
    8000    2.4394866   -2.4747582            0    1.1835569    5.8399547    3923.0128 
    9000    2.3999717   -2.4814483            0    1.1176092     5.680013     3923.272 
   10000    2.3966093   -2.5044309            0    1.0895843    5.5794277    3927.5855 
Loop time of 2.56362 on 48 procs for 10000 steps with 4000 atoms

Performance: 674048.133 tau/day, 3900.742 timesteps/s
99.6% CPU use with 48 MPI tasks x no OpenMP threads

MPI task timing breakdown:
Section |  min time  |  avg time  |  max time  |%varavg| %total
---------------------------------------------------------------
Pair    | 1.0964     | 1.178      | 1.3286     |   4.3 | 45.95
Neigh   | 0.20967    | 0.217      | 0.24423    |   1.4 |  8.46
Comm    | 0.75565    | 0.89403    | 0.9946     |   5.6 | 34.87
Output  | 0.00024676 | 0.00025084 | 0.00031179 |   0.0 |  0.01
Modify  | 0.21211    | 0.25889    | 0.31264    |   5.0 | 10.10
Other   |            | 0.01541    |            |       |  0.60

Nlocal:        83.3333 ave          91 max          73 min
Histogram: 1 4 2 3 3 13 6 10 2 4
Nghost:        1661.52 ave        1690 max        1632 min
Histogram: 3 4 4 4 3 13 8 3 3 3
Neighs:        9715.73 ave       10951 max        8554 min
Histogram: 5 0 7 6 6 9 6 4 1 4

Total # of neighbors = 466355
Ave neighs/atom = 116.58875
Neighbor list builds = 904
Dangerous builds = 183

# Equilibrate just above the melting temperature to avoid step fn in T

fix 1 all npt temp 1.25 1.25 0.1 iso 5.68 5.68 0.5 mtk yes tchain 5 pchain 5
run 2000
Per MPI rank memory allocation (min/avg/max) = 3.643 | 3.645 | 3.649 Mbytes
Step Temp E_pair E_mol TotEng Press Volume 
   10000    2.3966093   -2.5044309            0    1.0895843    5.5794277    3927.5855 
   11000    1.2483763   -3.6604944            0   -1.7883981    5.8291424    3041.9147 
   12000    1.2255636   -3.6467769            0   -1.8088911    5.7736664    3044.9338 
Loop time of 0.627571 on 48 procs for 2000 steps with 4000 atoms

Performance: 550694.315 tau/day, 3186.888 timesteps/s
99.6% CPU use with 48 MPI tasks x no OpenMP threads

MPI task timing breakdown:
Section |  min time  |  avg time  |  max time  |%varavg| %total
---------------------------------------------------------------
Pair    | 0.27623    | 0.2993     | 0.35025    |   2.2 | 47.69
Neigh   | 0.039828   | 0.042122   | 0.047309   |   0.6 |  6.71
Comm    | 0.18402    | 0.23493    | 0.25846    |   2.6 | 37.43
Output  | 7.7774e-05 | 7.9368e-05 | 9.433e-05  |   0.0 |  0.01
Modify  | 0.038982   | 0.046225   | 0.05151    |   1.7 |  7.37
Other   |            | 0.004913   |            |       |  0.78

Nlocal:        83.3333 ave          90 max          77 min
Histogram: 5 2 3 8 3 8 11 3 2 3
Nghost:        1971.27 ave        1990 max        1948 min
Histogram: 2 1 6 4 5 12 4 3 7 4
Neighs:        12533.4 ave       14033 max       11081 min
Histogram: 5 3 4 3 7 9 7 7 2 1

Total # of neighbors = 601605
Ave neighs/atom = 150.40125
Neighbor list builds = 143
Dangerous builds = 14

#############################
# L I N E A R  Q U E N C H  #
#############################

# Define solid atoms. This closely follows ten Wolde  Ruiz-Montero and Frenkel  Faraday Discuss  1996  104  93-110
# Compute components of the per-atom q6 vector
compute q6 all orientorder/atom degrees 1 6 components 6 nnn NULL cutoff 1.3 # compute the Q6 parameter.
                                                                             # Use all neighbours within 1.3 unit cell.

# get number of connections
compute coord_number all coord/atom orientorder q6 0.5

# An atom is solid if it has 8 or more connections (of a possible 14)
variable is_solid atom c_coord_number>=8
group solid dynamic all var is_solid    # Must be dynamic to update
dynamic group solid defined

# do clustering
compute cluster solid cluster/atom 1.3 # Create a cluster where all atoms within are solid and max 1.3 units from another member

# define chunks one chunk per cluster
compute clus_chunks solid chunk/atom c_cluster nchunk every compress yes  # Says which atoms are in which chunk

# count the size of each chunk
compute size_chunks solid property/chunk clus_chunks count


# Find the maximum entry in the vector of chunk sizes
variable max_n equal max(c_size_chunks)


# Thermo style which includes this variable
# thermo_style custom step temp pe vol v_max_n

thermo ${N}  # Print the thermo information every 100 steps
thermo 1000  

# Reset the npt fix at a lower temperature (below freezing)
fix 1  all npt temp  ${temp} ${temp}  0.1  iso  5.68  5.68  0.5  mtk yes tchain  5  pchain  5
fix 1  all npt temp  0.45 ${temp}  0.1  iso  5.68  5.68  0.5  mtk yes tchain  5  pchain  5
fix 1  all npt temp  0.45 0.45  0.1  iso  5.68  5.68  0.5  mtk yes tchain  5  pchain  5

dump dmp2 all dcd ${N} traj.dcd
dump dmp2 all dcd 1000 traj.dcd


compute msd all msd com yes
variable twopoint equal c_msd[4]/6/(step*dt+1.0e-6)
fix 9 all vector 10 c_msd[4]
variable fit equal slope(f_9)/6/(10*dt)
thermo_style custom step temp pe c_msd[4] v_twopoint v_fit v_max_n

fix 1 all npt temp 1.25 ${temp} 0.1 iso 5.68 5.68 0.5 mtk yes tchain 5 pchain 5
fix 1 all npt temp 1.25 0.45 0.1 iso 5.68 5.68 0.5 mtk yes tchain 5 pchain 5
run 2000000 # 5000000  # Run for this many steps
Neighbor list info ...
  update every 1 steps, delay 10 steps, check yes
  max neighbors/atom: 2000, page size: 100000
  master list distance cutoff = 3.8
  ghost atom cutoff = 3.8
  binsize = 1.9, bins = 8 8 8
  4 neighbor lists, perpetual/occasional/extra = 1 3 0
  (1) pair lj/cut, perpetual
      attributes: half, newton on
      pair build: half/bin/atomonly/newton
      stencil: half/bin/3d
      bin: standard
  (2) compute orientorder/atom, occasional
      attributes: full, newton on
      pair build: full/bin/atomonly
      stencil: full/bin/3d
      bin: standard
  (3) compute coord/atom, occasional
      attributes: full, newton on
      pair build: full/bin/atomonly
      stencil: full/bin/3d
      bin: standard
  (4) compute cluster/atom, occasional
      attributes: full, newton on
      pair build: full/bin/atomonly
      stencil: full/bin/3d
      bin: standard
Per MPI rank memory allocation (min/avg/max) = 9.826 | 9.832 | 9.835 Mbytes
Step Temp PotEng c_msd[4] v_twopoint v_fit v_max_n 
   12000    1.2255636   -3.6467769  1.88025e-30 1.3057291e-32 8.3333333e+20            1 
   13000    1.2640826   -3.6781551   0.92557405 0.0059331667  0.078017547            2 
   14000    1.2671119   -3.6698419    1.9231292  0.011447197  0.081164615            1 
   15000    1.2745499   -3.7124517    2.8686692  0.015937051  0.080817914            2 
   16000    1.2595723     -3.72146    3.7918401  0.019749166  0.079997097            4 
   17000    1.2432805    -3.677733    4.8243926  0.023648983  0.079597803            1 
   18000    1.2406477   -3.7101884    5.8641048  0.027148633  0.080849314            1 
   19000    1.2495116   -3.7086254      6.92994  0.030394473  0.082009184            4 
   20000    1.2420708   -3.6817854    7.9677976  0.033199156  0.082988216            3 
   21000    1.2299392   -3.7084887    8.9779647  0.035626843  0.083616942            2 
   22000    1.2222315   -3.6870319    10.157697  0.038476123  0.084403486            1 
   23000    1.2289894    -3.694475    11.197504  0.040570665   0.08512267            2 
   24000    1.2476492   -3.7202651    12.077919  0.041937217  0.085207982            3 
   25000    1.2215363   -3.6753538    13.184412   0.04394804  0.085297874            1 
   26000    1.2038841   -3.7087381    14.079731  0.045127342  0.085257506            1 
   27000    1.2276543   -3.6791073      15.0441  0.046432405  0.085071323            1 
   28000    1.2470344   -3.6849193    16.141327  0.048039664  0.084904824            3 
   29000    1.2513905   -3.7226625    17.214832  0.049467907  0.084928266            3 
   30000    1.2440446   -3.6612752    18.434266  0.051206295  0.085190341            2 
   31000     1.273606   -3.7091238    19.407477  0.052170636  0.085428412            3 
   32000    1.2221761   -3.6823784     20.31284  0.052898021  0.085524646            2 
   33000    1.2323668   -3.7220451    21.283049  0.053745072  0.085480001            2 
   34000    1.2559654   -3.6807068     22.24649  0.054525711  0.085432474            2 
   35000    1.2750025   -3.7091441    23.299485  0.055474964  0.085331809            2 
   36000    1.2440951   -3.6624213    24.420486  0.056528902  0.085308403            4 
   37000    1.2462867   -3.7164548    25.337692  0.057066873  0.085282029            2 
   38000    1.2401167   -3.6869511    26.335654  0.057753627   0.08521448            1 
   39000    1.2546144   -3.6799715    27.311203   0.05835727  0.085132002            7 
   40000     1.240254   -3.7123304    28.032837  0.058401743  0.084948838            2 
   41000    1.2150291   -3.6988533    29.006943    0.0589572  0.084789099            1 
   42000    1.2186631   -3.6986541    30.081121  0.059684763  0.084605992            3 
   43000    1.2199288   -3.7073133    31.162504  0.060392449  0.084499014            1 
   44000    1.2440604   -3.7000942    32.048318  0.060697571  0.084372529            6 
   45000    1.2532005   -3.7199692    33.090696  0.061279065  0.084270625            2 
   46000     1.224029   -3.7151836     33.96332  0.061527754  0.084161502            3 
   47000    1.2195971   -3.7245541    34.875991  0.061836863  0.084017398            2 
   48000    1.2344748   -3.7275372    35.766482  0.062094587  0.083873841            3 
   49000    1.2303061   -3.7304969    36.926299  0.062799827  0.083778901            2 
   50000    1.2447517   -3.6967109    37.826361  0.063043934  0.083695626            4 
   51000    1.2370518   -3.6892774    38.860461  0.063497484   0.08361737            1 
   52000    1.2317329   -3.6865924    39.701176  0.063623678  0.083488154            1 
   53000    1.2308935   -3.7267072    40.512351  0.063698665  0.083315659            2 
   54000    1.2413389   -3.7293717    41.303216   0.06373953  0.083089527            3 
   55000    1.2353016   -3.7088434    41.989446  0.063620372  0.082887154            2 
   56000    1.2485326   -3.7240195     43.23074  0.064331457  0.082713676            2 
   57000    1.2152397   -3.7007025    44.465294   0.06500774   0.08257484            2 
   58000    1.2214987   -3.7013276    45.212018  0.064959795  0.082486769            1 
   59000    1.2385312   -3.6964049    46.334264  0.065443876  0.082383693            1 
   60000    1.2099596   -3.7503528    47.145195  0.065479438  0.082276662            2 
   61000    1.2470228   -3.7183263    47.963566  0.065523996  0.082168661            2 
   62000    1.2017832   -3.7120437    49.003328  0.065864687  0.082061414            2 
   63000    1.2162011   -3.7151982    49.992053  0.066127054   0.08193037            1 
   64000     1.230282   -3.7284268    50.761115  0.066095201  0.081819388            1 
   65000    1.2200136   -3.7189972     51.47814  0.065997615  0.081677528            2 
   66000    1.2297966   -3.7118414    52.751915  0.066605953  0.081553794            1 
   67000    1.2377913    -3.719928    53.607968  0.066676576  0.081467149            4 
   68000    1.2084872   -3.6913663    54.538188  0.066836015  0.081366955            4 
   69000    1.2204755   -3.7356781    55.552693  0.067092624  0.081272559            2 
   70000    1.2295525   -3.7248594    56.731102  0.067537026  0.081208851            1 
   71000    1.2117692   -3.7466738    57.885943  0.067941247  0.081177105            3 
   72000    1.2184301   -3.7215884    58.966204  0.068247921  0.081158544            1 
   73000    1.2138234   -3.7103917    59.799567  0.068264345   0.08113733            2 
   74000    1.2343648   -3.6696011    60.743269  0.068404582  0.081115338            1 
   75000    1.2175149    -3.766256    61.387486  0.068208317  0.081078775            1 
   76000     1.222907   -3.7322374    62.503115  0.068534117  0.081046667            2 
   77000    1.2382323   -3.7113316    63.341045  0.068550914  0.080991392            1 
   78000    1.2248435   -3.7082285    64.342593  0.068742086  0.080952801            2 
   79000    1.2264963   -3.7318745    65.002368  0.068567899  0.080895261            1 
   80000    1.1950704   -3.7206479     65.63409  0.068368843   0.08081746            1 
   81000    1.2531007   -3.7433887    66.768039  0.068691398  0.080737582            4 
   82000    1.2200415    -3.763086    67.483797  0.068581094  0.080663963            1 
   83000    1.2243072   -3.7023686    68.619468  0.068895048   0.08058836            1 
   84000    1.2316966   -3.7342262    69.572442  0.069020279  0.080511315            4 
   85000    1.2176359   -3.6891788    70.734293  0.069347346  0.080450265            3 
   86000     1.241607   -3.7324837    71.306845  0.069095779  0.080388383            2 
   87000    1.2231919   -3.7063498    71.999519  0.068965056  0.080298493            1 
   88000    1.2239096   -3.7203744    73.127689  0.069249705  0.080201615            2 
   89000    1.2462233   -3.7328638     73.43605  0.068760346  0.080106969            2 
   90000     1.209071   -3.7076542    74.854567  0.069309784  0.080009922            2 
   91000     1.236882     -3.73739    75.654375  0.069280563  0.079922611            1 
   92000    1.2168768   -3.7146886    76.391377  0.069195088  0.079857426            1 
   93000     1.196539   -3.7620905    77.483962  0.069430073  0.079793343            1 
   94000    1.2203879   -3.7526762    78.342848  0.069452879  0.079725093            6 
   95000    1.2390802   -3.7479796    79.461444   0.06970302  0.079675636            3 
   96000    1.2281808   -3.7636353    80.479217  0.069860431  0.079622644            3 
   97000    1.1881201   -3.7728237    81.232192  0.069787106  0.079573774            2 
   98000    1.2107569    -3.756833    82.331627  0.070009887  0.079539348            2 
   99000    1.2271894   -3.7531148    83.562559  0.070338854  0.079507413            2 
  100000    1.2248861    -3.733145    84.585996   0.07048833  0.079478751            2 
  101000     1.205351   -3.7468812    85.261476  0.070347752  0.079448677            1 
  102000    1.2260331   -3.7238253    85.964752   0.07023264  0.079411484            4 
  103000    1.1977073   -3.7421016    86.890843  0.070300034  0.079375458            1 
  104000    1.1944123   -3.7414801    87.665331  0.070244656  0.079335246            2 
  105000    1.2017202   -3.7203872    88.875083   0.07053578  0.079288506            3 
  106000    1.2204956   -3.7359683    89.424461  0.070302249   0.07924002            2 
  107000    1.2410967   -3.7267996    90.645273  0.070596006  0.079193756            3 
  108000     1.236382   -3.7314965    91.924476  0.070929379  0.079161899            1 
  109000    1.2092001   -3.7258733    92.673815   0.07085154  0.079134197            2 
  110000     1.229183   -3.7340397    93.482072  0.070819751  0.079103353            1 
  111000    1.1841607   -3.7273555    94.335602  0.070822524  0.079054118            1 
  112000     1.212577   -3.7466202    94.549846  0.070349588  0.078995064            3 
  113000    1.1969868   -3.7318035    95.731922  0.070598762  0.078944615            2 
  114000    1.2199891   -3.7193442    96.710752  0.070694994  0.078887916            2 
  115000    1.2448071   -3.7136971    97.182085    0.0704218  0.078829843            1 
  116000    1.2154814   -3.7567074    97.955645  0.070370434  0.078775394            3 
  117000    1.1981518   -3.7448056    99.654914  0.070979283  0.078716469            1 
  118000    1.2052902   -3.7378297    100.59654  0.071042752  0.078672207            1 
  119000    1.1878207   -3.7447058    101.92269  0.071374436  0.078635288            2 
  120000    1.1999328   -3.7788635    102.19381  0.070967926  0.078597164            2 
  121000    1.2023113   -3.7345755    103.32369  0.071159566  0.078557841            3 
  122000    1.1941904   -3.7141016    104.21934  0.071188074  0.078526598            1 
  123000    1.2304801   -3.7504366    105.45835  0.071448749  0.078497741            2 
  124000    1.2119919   -3.7566307    106.02918  0.071256166  0.078472252            1 
  125000     1.213634    -3.748085    107.01127  0.071340845  0.078445817            3 
  126000    1.2171379   -3.7683119    107.76241  0.071271432  0.078417295            3 
  127000    1.2184545   -3.7188954    108.74702  0.071356311  0.078382747            3 
  128000    1.1788744   -3.7476835    109.51098  0.071296211   0.07834921            3 
  129000     1.196651   -3.7116978    110.36399  0.071294569  0.078307709            2 
  130000    1.2307194   -3.7905678    110.72375  0.070976765  0.078268728            2 
  131000    1.1911533   -3.7718433    112.00471  0.071249814  0.078229606            4 
  132000     1.154295   -3.7637657    113.12717  0.071418668    0.0781956            1 
  133000    1.2188559   -3.7381279     113.5385  0.071139409  0.078152405            3 
  134000    1.2177714   -3.7966009    114.44223   0.07117054  0.078114681            3 
  135000    1.1968174   -3.7524832    115.68857  0.071412699   0.07806936            2 
  136000    1.2126629   -3.7850829    116.59113  0.071440641  0.078029069            2 
  137000    1.2208019    -3.754525    117.27124  0.071332873  0.077986197            1 
  138000    1.1782035   -3.7687196    117.77434  0.071119768  0.077941936            3 
  139000    1.1732394    -3.761186    118.43467  0.071003998  0.077891281            2 
  140000    1.1788634   -3.7289154    119.24202  0.070977393  0.077835338            1 
  141000    1.2286637    -3.755757      119.806  0.070807326  0.077778689            2 
  142000    1.2026001   -3.7617684    121.44486  0.071270455  0.077715818            2 
  143000    1.2124934   -3.7769029    122.45579   0.07136118  0.077660417            2 
  144000    1.2260085   -3.7845884    122.49781  0.070889939  0.077609298            3 
  145000    1.1984902   -3.7396351    123.73127  0.071109925  0.077553018            2 
  146000    1.2105761   -3.7453924    125.25094  0.071490259  0.077507134            3 
  147000    1.1886322   -3.7506223    126.46036  0.071689545   0.07746295            1 
  148000     1.178347    -3.771471    127.64099  0.071869925   0.07743154            3 
  149000    1.2109622   -3.7612069    127.86971  0.071515495  0.077400897            2 
  150000    1.1858338   -3.7752737    128.76732  0.071537398  0.077371281            3 
  151000    1.2036991   -3.7704818    130.19997  0.071854286  0.077339271            1 
  152000    1.1985901   -3.7696842    131.51846  0.072104417  0.077314991            1 
  153000    1.1818103   -3.7863023    131.80249  0.071787846  0.077303831            2 
  154000    1.2163818   -3.7499338    133.99447  0.072507833  0.077302003            2 
  155000    1.1528445   -3.7276251    135.35906   0.07277369  0.077305827            3 
  156000    1.2068705   -3.7725446    136.10553  0.072705947  0.077312599            2 
  157000    1.1836355   -3.7708389    136.73015  0.072574392  0.077324916            2 
  158000    1.2139925    -3.754265    138.34625   0.07296743  0.077333675            1 
  159000    1.2254048   -3.7655135    138.96622   0.07283345  0.077341617            1 
  160000    1.1917069   -3.7452951    139.61587    0.0727166  0.077348014            3 
  161000    1.1897829     -3.77848    140.30082  0.072619472  0.077348564            3 
  162000    1.1754747   -3.7558405    141.72599  0.072904314  0.077350879            3 
  163000    1.1863672   -3.7189859    143.29887   0.07326118  0.077358455            1 
  164000    1.1927213   -3.7445676    143.82688  0.073082763   0.07736297            1 
  165000    1.1871063   -3.7285705    144.41079   0.07293474  0.077361416            5 
  166000    1.1918367   -3.7792141     143.9976  0.072287952  0.077351497            2 
  167000    1.2066568   -3.7776279     145.5932  0.072651298  0.077345193            1 
  168000    1.1706834   -3.7837692    146.62043  0.072728386  0.077338086            1 
  169000     1.193818   -3.7879606    147.04342  0.072506615  0.077325604            4 
  170000    1.1709394   -3.7649623    147.24309  0.072177986   0.07731429            2 
  171000    1.1800819   -3.7838488    148.51802  0.072377201  0.077297611            1 
  172000    1.1842441    -3.756239    149.45317  0.072409481  0.077276103            2 
  173000    1.1619728   -3.7585788    150.00486  0.072256675  0.077249149            3 
  174000    1.1576009   -3.8039125    150.58988  0.072121591   0.07721768            1 
  175000      1.18796    -3.733142    151.56256  0.072172645  0.077183608            2 
  176000    1.2009068   -3.7879956    151.87094  0.071908588  0.077151853            4 
  177000     1.168439   -3.7783201     152.7931  0.071936486  0.077120094            2 
  178000    1.1952408   -3.7697647    153.44979  0.071839789  0.077086395            4 
  179000    1.1628982   -3.7525322    154.92024  0.072123017  0.077049794            1 
  180000    1.1583858   -3.7482786    156.03882  0.072240195  0.077015912            4 
  181000    1.2058752   -3.7756559    156.50849  0.072057316   0.07697769            1 
  182000    1.1667945   -3.7797324    157.13102  0.071946439  0.076941403            3 
  183000    1.1870045   -3.7753206    158.21505  0.072046927  0.076908079            3 
  184000    1.1693526   -3.7551595     159.1169  0.072063812   0.07687292            2 
  185000    1.1914027   -3.7733663    159.74308  0.071956341  0.076840795            2 
  186000    1.1655038   -3.7506946    160.90348  0.072089371  0.076797618            2 
  187000    1.1922634   -3.7945119    160.39008  0.071475079  0.076748499            1 
  188000     1.168925   -3.7630691    161.34863  0.071519783  0.076703937            2 
  189000    1.1902065   -3.7647555    162.53153  0.071662931  0.076661546            1 
  190000    1.2042143   -3.7380629       164.42  0.072114035  0.076616352            2 
  191000    1.1717503   -3.7852686      164.481  0.071763088  0.076574083            1 
  192000    1.2003127   -3.8225571    164.32034  0.071319593  0.076526231            2 
  193000    1.1899114   -3.7932605    165.63896  0.071519415  0.076477766            1 
  194000    1.1822098   -3.7755439    166.05771  0.071330632  0.076433931            1 
  195000    1.1674778   -3.7875934    167.45128  0.071560376  0.076384254            2 
  196000    1.2043668   -3.8027615    167.53344  0.071230203  0.076329917            1 
  197000      1.17818   -3.7954326    168.33252  0.071206649  0.076276947            3 
  198000    1.2047653   -3.7680795    169.38289  0.071289095  0.076218892            1 
  199000     1.172993   -3.7777533    169.85787  0.071129761  0.076159637            2 
  200000    1.1779145   -3.7788698    171.03521   0.07126467  0.076102861            1 
  201000    1.1583875    -3.817823    170.95123    0.0708753  0.076043858            2 
  202000    1.1766668   -3.7800724    172.82161  0.071296045  0.075987447            2 
  203000    1.1586051   -3.7905165    172.52187  0.070821786  0.075927246            1 
  204000    1.1780363   -3.8063457    173.80153  0.070997355  0.075873132            1 
  205000     1.164477   -3.7876749    174.42467  0.070904338  0.075815325            2 
  206000    1.1554186   -3.8243396     174.8348  0.070726053  0.075757369            2 
  207000    1.1567956   -3.8064335    175.59423  0.070690108  0.075693369            2 
  208000    1.1814923    -3.810803    176.76635  0.070819851  0.075634904            4 
  209000    1.1816265   -3.7755448    177.44518  0.070751667  0.075578382            3 
  210000    1.1683314   -3.7983293    178.92697  0.071002766  0.075526829            1 
  211000    1.1765734   -3.8209965    178.93658  0.070670057  0.075474107            1 
  212000    1.1666836   -3.8325913    179.39865  0.070518338  0.075419889            4 
  213000    1.1656806   -3.8332651    180.16048   0.07048532  0.075364266            1 
  214000    1.1519407   -3.8536817    180.86067  0.070428611  0.075307612            2 
  215000    1.1886296   -3.7790625    182.03266  0.070555296  0.075252073            3 
  216000    1.1881884    -3.781798    183.96094  0.070972583   0.07519813            3 
  217000    1.1748372   -3.7980525    184.65918  0.070913663  0.075149221            2 
  218000    1.1874019   -3.7852598    185.74186  0.071002239  0.075103013            6 
  219000     1.137884   -3.7793944    186.62012  0.071012223  0.075059719            3 
  220000    1.2131966   -3.7934883    186.50218  0.070644766  0.075015458            1 
  221000    1.1756524   -3.7981748    188.30967  0.071006661  0.074972816            2 
  222000    1.1508378   -3.7718499    189.01498  0.070951568  0.074932139            2 
  223000    1.1702533   -3.8293722    190.03499   0.07101457  0.074890855            2 
  224000    1.1732301   -3.8193873    192.12219  0.071474029  0.074850391            3 
  225000    1.1644861   -3.7877659    191.90881  0.071077338  0.074816834            1 
  226000    1.1658359   -3.8133385    194.10764  0.071573615  0.074786573            1 
  227000    1.1686356   -3.8034386    194.58334  0.071432943   0.07475732            3 
  228000    1.1657361   -3.7978617    195.41664  0.071424211  0.074727721            2 
  229000     1.146525   -3.7636842    196.66301   0.07156587   0.07470084            2 
  230000    1.1518098   -3.8075188    197.10279  0.071414055  0.074677038            3 
  231000    1.1509663   -3.8133105    197.21202  0.071144306  0.074647821            2 
  232000    1.1821974   -3.8291463    197.86117  0.071070822  0.074615042            2 
  233000    1.1791545   -3.8073703    198.84064  0.071116108  0.074585879            2 
  234000    1.1567713   -3.8369298     199.6256  0.071091739  0.074558574            3 
  235000     1.189077   -3.7904977    199.88542  0.070881355  0.074534108            3 
  236000    1.1499292   -3.8097169    201.68561   0.07121667   0.07450609            1 
  237000    1.1518051   -3.8267991     201.8872  0.070987059  0.074476361            1 
  238000    1.1323666   -3.8354291     202.7866  0.071003711  0.074442081            2 
  239000    1.1440375   -3.8507755    203.61469   0.07099536  0.074409213            2 
  240000    1.1347509   -3.8057618    205.17592  0.071241637  0.074378902            1 
  241000    1.1517935   -3.8271513    204.87616  0.070842377  0.074347082            1 
  242000    1.1548663   -3.7950494    205.22406  0.070669442  0.074312224            3 
  243000    1.1471337   -3.8323611    205.73299  0.070553152  0.074272906            1 
  244000     1.177815   -3.7900203    206.94936  0.070679427  0.074235868            3 
  245000    1.1617412    -3.799784    208.57607   0.07094424  0.074197665            3 
  246000    1.1621312   -3.8109795    209.08937  0.070829731  0.074160075            2 
  247000    1.1388755   -3.8201143    210.24726  0.070933623  0.074124967            2 
  248000    1.1619359   -3.8205845    210.90489  0.070868577  0.074089439            2 
  249000    1.1492284   -3.8151424    211.84476  0.070898516  0.074058654            2 
  250000     1.146281   -3.8224438    212.60027  0.070866757  0.074027028            2 
  251000    1.1585061   -3.8192702    212.99944  0.070716947  0.073998861            1 
  252000    1.1562322   -3.8343025    213.45359  0.070586504   0.07396367            5 
  253000    1.1460916   -3.8139149    214.81892  0.070757222  0.073928119            2 
  254000     1.153961   -3.8346381    215.20222  0.070604401  0.073892128            1 
  255000    1.1664621   -3.8208124    216.58232  0.070778535  0.073858989            3 
  256000    1.1724006   -3.8711195    217.24333  0.070717229  0.073825447            4 
  257000    1.1447443   -3.8529803    217.24909  0.070443934  0.073790737            1 
  258000    1.1545522   -3.8026853    219.38853  0.070861928  0.073758465            3 
  259000    1.1502987   -3.8218701    219.66612  0.070677644  0.073728894            4 
  260000    1.1390928   -3.8347669    220.30373   0.07061017  0.073701168            2 
  261000    1.1498346   -3.8431495    221.76208   0.07080526  0.073672124            2 
  262000    1.1688441   -3.8259965    222.93936  0.070909465  0.073643193            3 
  263000    1.1353634   -3.8384741     222.8745  0.070619296  0.073610953            1 
  264000    1.1528576   -3.8211615    224.77427  0.070951473  0.073582348            3 
  265000    1.1305265   -3.8105174    225.54678  0.070926659  0.073556046            1 
  266000    1.1591026    -3.813402    227.07091  0.071137504   0.07353198            1 
  267000    1.1265694   -3.8180456     227.0409  0.070861703  0.073503985            2 
  268000    1.1563672   -3.8331073     227.0364  0.070595895  0.073475894            4 
  269000    1.1621334   -3.7885991    228.56834  0.070808036  0.073450199            1 
  270000    1.1601686   -3.8550422    228.95925  0.070666436  0.073419084            2 
  271000    1.1562557   -3.8026426    230.39029  0.070845724  0.073391983            2 
  272000    1.1296159   -3.8150557    231.06387  0.070791627  0.073364117            3 
  273000    1.1587857   -3.8317146    231.65536  0.070712868  0.073338967            2 
  274000    1.1594676   -3.8409376    230.97586  0.070248133   0.07331263            2 
  275000    1.1452217   -3.8105061    233.47885  0.070751167  0.073291636            2 
  276000    1.1588752   -3.8575254    233.83103  0.070601156  0.073271343            2 
  277000    1.1372778   -3.8450177    235.76983   0.07092955  0.073251274            2 
  278000    1.1453852   -3.8393346    236.08742  0.070769611  0.073232311            1 
  279000    1.1306495     -3.84256    237.24461  0.070861591  0.073212426            2 
  280000    1.1540477    -3.830714    237.94674  0.070817483  0.073192423            5 
  281000    1.1445063   -3.8131639    238.37407  0.070692193   0.07317366            2 
  282000    1.1333867   -3.8488119    239.61091  0.070807006  0.073154035            2 
  283000    1.1457967   -3.8039873    240.81754  0.070912115  0.073134241            2 
  284000    1.1308591   -3.8218091    242.21435  0.071072284  0.073115416            2 
  285000    1.1318207   -3.8392214    241.89877  0.070730635  0.073097888            3 
  286000    1.1338401   -3.8456089    242.98869    0.0708009  0.073078654            4 
  287000    1.1315102   -3.8239688    243.81964   0.07079548  0.073061819            3 
  288000    1.1611495   -3.8311971    245.89069  0.071148927  0.073045541            2 
  289000    1.1421518   -3.8577719    245.23927  0.070714899  0.073025845            3 
  290000    1.1528019   -3.8414376    245.77549  0.070625142  0.073004814            1 
  291000    1.1425951   -3.8467151    247.79208  0.070959931   0.07298398            2 
  292000    1.1320299   -3.8526391    246.94644  0.070475582  0.072959918            4 
  293000    1.1501943   -3.8443815    247.06103  0.070267643  0.072935472            3 
  294000    1.1508199   -3.8262844    248.91056   0.07055288  0.072910413            1 
  295000    1.1194597   -3.8308952    248.95136  0.070325243  0.072884888            2 
  296000    1.1262979   -3.8379876    251.23649  0.070730993  0.072862434            1 
  297000    1.1220217   -3.8460316    250.82469  0.070377297  0.072838682            4 
  298000    1.1424776   -3.8513397    251.55249  0.070344655  0.072815856            2 
  299000    1.1352332    -3.831099    252.61809   0.07040638   0.07279137            2 
  300000     1.146989    -3.880728    253.57071  0.070436307  0.072772001            2 
  301000    1.1344921   -3.8320426    254.44835   0.07044528  0.072752238            3 
  302000    1.0993575    -3.887045    255.16438  0.070409596  0.072728723            2 
  303000    1.1320747   -3.8756876    254.72294  0.070055813  0.072705106            2 
  304000    1.1229263   -3.8628239     256.0784  0.070196929  0.072683662            2 
  305000    1.1386897   -3.8814957    256.83186  0.070172639  0.072661354            6 
  306000    1.1379972   -3.8750557    258.50652   0.07039938  0.072638704            4 
  307000    1.1257227   -3.8814834    259.53673  0.070449709  0.072614888            3 
  308000    1.1220016   -3.8594595    258.89617  0.070047665  0.072590233            5 
  309000    1.1153094   -3.8275309    260.66239    0.0702973  0.072567674            3 
  310000    1.1341239   -3.8599677    261.72071  0.070355029   0.07254704            3 
  311000    1.1501311   -3.8685722    263.33091  0.070560264  0.072525168            2 
  312000    1.1290003   -3.8532358    262.59741  0.070138198  0.072502511            4 
  313000    1.1231794   -3.8642688    262.73581  0.069950961  0.072478417            2 
  314000    1.1320209   -3.8123329    264.49988  0.070196358  0.072453601            3 
  315000    1.1131779   -3.8281434    263.91091    0.0698177  0.072428778            1 
  316000    1.1424543   -3.8477489    265.45338  0.070003529  0.072402064            2 
  317000    1.1376868   -3.8523403    265.42356  0.069774859  0.072374131            2 
  318000    1.1423205   -3.8801872    266.85541  0.069930664  0.072346229            1 
  319000    1.1153743   -3.8633099    268.40509  0.070116272  0.072320694            1 
  320000    1.1174463   -3.8634117     268.8607  0.070015808  0.072295803            1 
  321000    1.1409864   -3.8312355    269.36128  0.069927643  0.072268451            2 
  322000    1.0922593   -3.8491015    270.61345  0.070034537  0.072242225            2 
  323000    1.1164143   -3.8713861    270.24875   0.06972362  0.072216016            2 
  324000    1.1276514   -3.8471754    272.16896  0.070002304   0.07218984            2 
  325000    1.1374691   -3.8549185    273.12479  0.070031997  0.072162491            4 
  326000    1.1302612   -3.8747667    272.87611  0.069753607  0.072134878            3 
  327000    1.1393918   -3.8457341    273.23326   0.06963131  0.072106507            3 
  328000    1.1182091   -3.8760598    274.63695  0.069775648    0.0720793            2 
  329000    1.1433779   -3.8774843    273.61979  0.069305923  0.072047243            2 
  330000    1.1048102   -3.8794868    276.17159    0.0697403  0.072016143            4 
  331000    1.1103248   -3.8604551    275.30755  0.069312072  0.071988312            1 
  332000    1.0946593   -3.8616208    278.03677  0.069788345  0.071961384            4 
  333000    1.1458455   -3.8992626    276.77128  0.069262082  0.071935347            3 
  334000    1.1405764   -3.8926153    277.88667  0.069333001  0.071905124            1 
  335000    1.1545326   -3.8695871    279.50511  0.069528635  0.071877194            1 
  336000    1.1318667   -3.9007949    279.73262   0.06937813  0.071846143            3 
  337000    1.1356628   -3.8727337    280.30983  0.069314993  0.071813756            3 
  338000    1.1449465   -3.8624763    281.38433  0.069374834  0.071781546            4 
  339000     1.123146   -3.8838884    280.95755  0.069065278  0.071750772            3 
  340000    1.1358593   -3.8482964    283.45395  0.069474006  0.071719395            1 
  341000    1.1161635   -3.8629874    283.51499  0.069285189  0.071688182            1 
  342000    1.1160035   -3.8518342    285.53601  0.069575051  0.071656554            1 
  343000    1.1243917   -3.8775398    285.44599  0.069350337  0.071627161            2 
  344000    1.1277185   -3.8644747    285.81847  0.069238971  0.071597553            3 
  345000    1.1185532   -3.8753023    285.86608  0.069049777  0.071564698            2 
  346000     1.120052   -3.9215857    286.36945  0.068971447  0.071533099            1 
  347000    1.1309682   -3.8802651    288.48491  0.069280719  0.071502674            1 
  348000    1.1329996   -3.8627003    289.12772  0.069235566   0.07147226            2 
  349000    1.1085485    -3.898645    289.26346  0.069069595  0.071442261            6 
  350000    1.1208714    -3.881397    290.27351  0.069112739  0.071413432            3 
  351000    1.1094741    -3.854683    290.33708   0.06893093  0.071382336            2 
  352000    1.1115998   -3.8729416    291.27378   0.06895686  0.071352628            2 
  353000    1.0832899   -3.8716777    292.82039  0.069126628  0.071322149            3 
  354000    1.1116623   -3.8707885     293.9914  0.069207014  0.071292999            3 
  355000    1.1362887   -3.8868883    296.05537  0.069496565  0.071264176            1 
  356000    1.0995489   -3.8761581    295.80303  0.069242283  0.071236523            2 
  357000    1.1101595   -3.8954821    295.56825  0.068993522  0.071208629            4 
  358000    1.1218473   -3.8539254     298.3814  0.069455632  0.071180158            1 
  359000    1.1029496   -3.8485815    297.45266  0.069046577  0.071151754            3 
  360000    1.1045041   -3.8982279    298.78677  0.069163604  0.071122312            1 
  361000    1.0929686   -3.8508518    299.65054  0.069171408  0.071092272            2 
  362000    1.1084069   -3.8833498     299.3964  0.068921823  0.071061113            1 
  363000    1.1025653   -3.8831393    299.93854  0.068856414  0.071031251            2 
  364000    1.1154513   -3.8868176    301.22656  0.068962125  0.070999932            2 
  365000    1.1142319   -3.8832156    301.83214  0.068911446  0.070968441            1 
  366000    1.0824967   -3.9081146     302.9041  0.068967236  0.070937922            4 
  367000    1.1024965   -3.8938775    301.27348  0.068409055  0.070908793            4 
  368000    1.0905264   -3.8953534     303.1256  0.068642573  0.070878187            1 
  369000    1.1058727   -3.9322883    303.67835  0.068581379  0.070845553            2 
  370000    1.0973328   -3.8989363    304.41151  0.068561151  0.070813883            2 
  371000    1.1069611   -3.9075224    305.07848  0.068526164  0.070781255            3 
  372000    1.0888528   -3.8943304    306.66599  0.068697579  0.070752041            2 
  373000    1.0906065   -3.9385703    307.01875  0.068592214  0.070722037            2 
  374000    1.0899503   -3.8775735    308.87796  0.068823075  0.070692559            3 
  375000    1.1181407   -3.8831004    309.71453  0.068825451  0.070663473            2 
  376000    1.1167354   -3.9077879    308.38423  0.068347568  0.070632562            2 
  377000    1.1059532   -3.8792971    309.83053  0.068485971  0.070603303            3 
  378000    1.0684502   -3.8943723    312.69441  0.068936158  0.070573716            1 
  379000    1.0766335   -3.8601938     313.5073  0.068933002  0.070544992            1 
  380000    1.0779669   -3.9246236    313.05399   0.06865219  0.070518405            3 
  381000    1.0954806   -3.8610598     315.3235  0.068968395   0.07049219            1 
  382000    1.1009812   -3.9171938    314.92287  0.068700451  0.070466554            6 
  383000    1.0906842   -3.9245712    314.73364  0.068479903  0.070440545            3 
  384000    1.1069133   -3.9211151    315.81617  0.068536495  0.070415249            4 
  385000    1.1024388   -3.9088551    317.48035  0.068718691  0.070390178            2 
  386000    1.0923678   -3.9211823    317.66599  0.068580739   0.07036306            1 
  387000    1.1149931   -3.8876382    318.56536  0.068597192  0.070334762            1 
  388000    1.0795777   -3.9028562    318.82323   0.06847578    0.0703069            2 
  389000    1.0768775   -3.8886566    319.40599   0.06842459  0.070279635            2 
  390000    1.0855408    -3.908545    319.33357  0.068233669   0.07025243            3 
  391000    1.1035225   -3.9332012    321.20849  0.068458758  0.070225361            3 
  392000    1.0849475   -3.9227552    322.41957  0.068541574   0.07020037            4 
  393000    1.1188206   -3.8823012    323.58559  0.068614416  0.070173587            1 
  394000    1.1123655   -3.8798898    326.19767  0.068992739  0.070148673            1 
  395000     1.088997   -3.9205327    323.57126  0.068263978  0.070124596            3 
  396000    1.0978365   -3.9184713    325.09466  0.068412175  0.070100805            2 
  397000    1.0988489   -3.9043128    327.08175  0.068656958  0.070077462            2 
  398000     1.105017    -3.908817    326.24679  0.068309629  0.070055489            3 
  399000    1.0679863   -3.9321347    326.80225  0.068254438  0.070033625            3 
  400000    1.0787419   -3.9236401    328.46279  0.068429749  0.070010064            1 
  401000    1.1119124   -3.9041719    328.81348  0.068331979  0.069986035            2 
  402000    1.0968303   -3.8916087    330.89048  0.068592553  0.069962652            3 
  403000    1.1045451   -3.9066179    329.89441   0.06821638  0.069940454            1 
  404000    1.1017472   -3.9410673    329.81699  0.068031557  0.069915355            2 
  405000    1.1149272    -3.933023    331.78804  0.068269144  0.069889202            4 
  406000    1.1208771   -3.9410539    330.18981  0.067772949   0.06986241            2 
  407000    1.1149485   -3.9250647    332.64313  0.068108749  0.069837612            3 
  408000    1.1061946   -3.9219707    334.00073  0.068219104  0.069812336            4 
  409000    1.1026905   -3.9303109     334.0752  0.068067481  0.069786156            5 
  410000    1.0904606   -3.9350833    334.40703  0.067968908  0.069759998            3 
  411000     1.068547   -3.9302024    335.69415  0.068064508  0.069733372            2 
  412000    1.0864551   -3.9178878    336.15766  0.067993054   0.06970749            1 
  413000    1.0872391   -3.8757394    338.96682  0.068395243  0.069683166            5 
  414000    1.0863623   -3.8831358    339.38194  0.068313595  0.069660462            4 
  415000    1.0635549   -3.9242619    339.23238  0.068118952   0.06963736            5 
  416000    1.0947634   -3.9766337    339.50329  0.068009472  0.069612901            5 
  417000    1.0704228   -3.9461635    340.75374   0.06809627  0.069589825            3 
  418000    1.0815054   -3.9232366    341.09638   0.06800167   0.06956562            5 
  419000    1.0946777   -3.9083615    342.63683  0.068145749  0.069541532            3 
  420000    1.1001599   -3.9093596    343.55368  0.068165412  0.069519059            2 
  421000    1.1018857    -3.929385    343.15203  0.067923995  0.069496916            3 
  422000    1.1025972   -3.9568614    343.15155  0.067762945  0.069471481            2 
  423000    1.0794424   -3.9392605    343.91109  0.067752381  0.069446376            3 
  424000    1.0868478   -3.8961494    346.33844  0.068069663  0.069420799            1 
  425000    1.0675056   -3.8919185    346.31991  0.067905864  0.069397207            2 
  426000    1.0596317   -3.9278631    346.75183  0.067830953   0.06937356            5 
  427000    1.1025727   -3.9316054    348.51321  0.068015848  0.069350151            3 
  428000    1.0736266   -3.9434113    346.97937  0.067558288  0.069327383            2 
  429000    1.0600302   -3.9382273     348.0487  0.067608528   0.06930332            2 
  430000    1.0901792   -3.9180489    349.07416  0.067650032  0.069279612            2 
  431000     1.096323   -3.9357204    351.86816  0.068033287  0.069254675            2 
  432000    1.0679521   -3.9289097    350.45211  0.067602644  0.069229647            3 
  433000    1.0992235   -3.9529371    349.97974  0.067355608   0.06920352            4 
  434000    1.0680031   -3.9331806    351.76824  0.067543825   0.06917597            2 
  435000    1.0856651   -3.9450323    352.78497  0.067583327  0.069149453            2 
  436000    1.0794213   -3.9350048    352.79046  0.067429369  0.069122287            3 
  437000    1.0949728   -3.9357436    354.32209  0.067567141  0.069096408            2 
  438000    1.0783027   -3.9210256    355.01132  0.067544011  0.069069046            2 
  439000    1.0867663   -3.9459377    354.10952  0.067218968  0.069041162            2 
  440000     1.083241   -3.9404024    355.92563  0.067410157  0.069012058            4 
  441000      1.09718   -3.9315963    356.13367  0.067296612  0.068983314            2 
  442000    1.0779967   -3.9287049    356.97301  0.067302603   0.06895334            2 
  443000    1.0681353   -3.9737722    355.09653  0.066797691  0.068923087            2 
  444000    1.0788413   -3.9414191    356.01538  0.066819703   0.06889148            2 
  445000    1.0476077   -3.9051733     358.2472  0.067087491  0.068859626            3 
  446000    1.0729868   -3.9494907    358.36014  0.066958172  0.068828958            2 
  447000    1.0706842   -3.9351581    357.54559  0.066656522  0.068797646            4 
  448000    1.0929333   -3.9393675    360.93998  0.067139134  0.068767114            2 
  449000    1.0776122   -3.9165885    361.35455  0.067066546  0.068737028            1 
  450000     1.064703   -3.9056492    362.10307  0.067056125  0.068705809            2 
  451000    1.0614813   -3.9074738    361.46231  0.066789045  0.068674162            3 
  452000    1.0833326   -3.9434489    363.49289   0.06701565   0.06864396            2 
  453000    1.0592863   -3.9508649    363.46543  0.066862662  0.068611856            2 
  454000    1.0904414   -3.9542089    363.92988  0.066800639   0.06858107            4 
  455000    1.0592176   -3.9682989     363.8903  0.066646575  0.068550084            3 
  456000    1.0619363    -3.950696    364.85882  0.066677416  0.068517636            2 
  457000    1.0635246   -3.9362789    365.03423  0.066563499  0.068484689            1 
  458000    1.0659983   -3.9538545    364.38731  0.066300456  0.068451053            2 
  459000    1.0720398     -3.93884    365.37271  0.066334914  0.068416828            4 
  460000    1.0861818   -3.9274542    365.56421    0.0662254  0.068381727            4 
  461000    1.0756771   -3.9177976    367.01358  0.066343741  0.068347948            2 
  462000    1.0473908    -3.945229    367.98541  0.066375435  0.068314057            2 
  463000    1.0575705   -3.9572524    368.59553  0.066341887  0.068279214            3 
  464000    1.0850142   -3.9447052    370.06746  0.066463265  0.068247632            3 
  465000    1.0858522   -3.9686333    370.04784  0.066316817  0.068214624            3 
  466000     1.072058   -3.9481314    369.51977  0.066080074  0.068181078            2 
  467000    1.0630896   -3.9468508    372.09028  0.066397266  0.068148724            1 
  468000    1.0741245    -3.966674    371.69269  0.066184596  0.068113986            4 
  469000       1.0439   -3.9709708    371.89807   0.06607997  0.068080349            2 
  470000    1.0435067    -3.929431    373.77565  0.066272278  0.068046933            2 
  471000    1.0582966   -3.9178678     374.9543   0.06634011   0.06801478            2 
  472000    1.0726533   -3.9668335    374.31272  0.066086285  0.067981435            2 
  473000    1.0554211   -3.9550145    373.43667  0.065792225  0.067949228            2 
  474000    1.0496996   -3.9500064    376.19828  0.066138937  0.067916394            2 
  475000    1.0575572    -3.957432     376.2746  0.066013088  0.067883866            1 
  476000    1.0765758   -3.9536588    376.44474  0.065904191  0.067852326            1 
  477000    1.0496724   -3.9645488    375.79194  0.065651982  0.067818994            3 
  478000    1.0896922    -3.963109    378.14588  0.065925014  0.067784984            3 
  479000    1.0581099   -3.9583027    378.20949   0.06579845  0.067750806            2 
  480000    1.0621212   -3.9486678     379.2522  0.065842396  0.067717335            2 
  481000    1.0748168    -3.952688    380.21546  0.065872394  0.067682687            3 
  482000    1.0696605   -3.9806868    380.36112  0.065760912  0.067648507            2 
  483000    1.0838364   -3.9402209    380.00333  0.065563032  0.067613284            2 
  484000     1.067096    -3.992706     379.7831  0.065389652  0.067579751            1 
  485000     1.062174   -3.9885872    382.30486   0.06568812  0.067547442            2 
  486000    1.0544736   -3.9419819     384.1368  0.065867079  0.067516324            3 
  487000    1.0795338   -3.9933328    385.22191  0.065917507  0.067486021            4 
  488000    1.0543009   -3.9840001    386.09051  0.065930756  0.067455083            6 
  489000    1.0443875   -3.9617578    386.60226  0.065883139  0.067423182            3 
  490000    1.0619395   -3.9575164    386.46411  0.065725189  0.067391766            2 
  491000    1.0413659   -3.9722208    387.08047  0.065695938  0.067360502            4 
  492000    1.0461553   -3.9702915    388.18283  0.065749124  0.067328332            3 
  493000    1.0515311   -4.0104476    388.43704  0.065658729  0.067297622            3 
  494000    1.0782799   -3.9557769    388.58353  0.065550527  0.067266516            1 
  495000    1.0612018   -3.9936131    390.49364   0.06573967  0.067235583            1 
  496000    1.0604956   -3.9588327    390.05164   0.06553287  0.067202855            4 
  497000    1.0630272   -3.9821541    390.77122  0.065521667  0.067170748            2 
  498000    1.0389832    -3.956148    391.19008  0.065460187  0.067138931            4 
  499000    1.0513366   -3.9838532    392.46934  0.065542642  0.067106561            2 
  500000     1.053264   -3.9825117    391.97967  0.065329945  0.067074571            4 
  501000    1.0554896   -3.9550064    392.49997   0.06528609  0.067043444            8 
  502000     1.037013   -3.9968992    392.45417  0.065148434  0.067010028            3 
  503000    1.0363919   -3.9609603    395.14374  0.065464503  0.066977581            3 
  504000    1.0346129   -3.9496822    395.34851  0.065368471  0.066946129            4 
  505000    1.0422584   -4.0091881    394.99133  0.065180087  0.066912904            4 
  506000    1.0276799   -3.9804935    395.11153  0.065071068  0.066879811            6 
  507000    1.0716196   -3.9744443    394.82371  0.064895416  0.066845949            3 
  508000    1.0525074   -3.9756638    396.05106  0.064969006  0.066811866            2 
  509000    1.0399882   -3.9755447      394.825  0.064640635  0.066776511            3 
  510000     1.061171   -3.9894363    397.36865  0.064929518  0.066741659            3 
  511000    1.0638453   -3.9829492    396.62039  0.064680429  0.066707011            2 
  512000    1.0511999   -3.9810238    398.45962  0.064853454  0.066672047            3 
  513000    1.0427353   -4.0186622    398.96699  0.064809453  0.066637658            2 
  514000    1.0320282   -3.9745821    398.32847  0.064579842  0.066601852            3 
  515000    1.0682641   -3.9964372     399.5594  0.064653625  0.066566335            3 
  516000    1.0384568   -3.9533191     400.4004  0.064664147  0.066529947            2 
  517000    1.0422148   -4.0009948    399.61186   0.06441197  0.066493782            5 
  518000    1.0283352   -4.0032696    401.69252  0.064622349  0.066457108            2 
  519000     1.033097   -3.9794376    401.55755  0.064476163   0.06642031            1 
  520000    1.0339331   -4.0183242    400.76142  0.064224587  0.066381965            2 
  521000    1.0652243   -3.9820741    401.51648  0.064222086   0.06634454            3 
  522000     1.069948    -3.975081    403.04952  0.064343794  0.066306504            2 
  523000    1.0713754   -3.9876344    402.91518   0.06419936   0.06626945            2 
  524000    1.0322135    -3.968328      405.446  0.064479326  0.066233383            3 
  525000     1.059546   -3.9573814    406.14968  0.064468204  0.066197186            3 
  526000    1.0346976   -3.9967462    405.24918  0.064202975  0.066162053            2 
  527000    1.0303393    -3.968913    406.59691  0.064294262  0.066126281            3 
  528000    1.0597625   -4.0149408    406.99085  0.064234667  0.066091163            6 
  529000    1.0220048     -3.97058    408.12534  0.064291957  0.066055264            2 
  530000    1.0436023   -3.9815156    409.88282  0.064446984  0.066021587            4 
  531000    1.0604169   -3.9941731    409.98719  0.064341994  0.065987436            4 
  532000    1.0512835   -3.9533177    412.21307  0.064569717  0.065954318            1 
  533000    1.0644659   -3.9866591    413.85963  0.064706008  0.065922289            2 
  534000    1.0263501   -4.0158481    411.33973  0.064191593  0.065888411            4 
  535000    1.0477733   -3.9741182    412.25899  0.064214795  0.065855189            2 
  536000    1.0603818   -4.0071262    411.68145    0.0640052  0.065820492            6 
  537000    1.0401518   -3.9914741    414.00055  0.064245895  0.065787882            2 
  538000     1.030405   -4.0116117    413.06444  0.063981481  0.065753305            2 
  539000    1.0329852   -4.0261676    413.15804  0.063877248  0.065720397            3 
  540000    1.0463176   -3.9885486    415.19411  0.064073165  0.065685969            2 
  541000    1.0270079    -3.990661    416.93761  0.064223291  0.065652881            2 
  542000    1.0153088   -4.0160018     417.4911  0.064189899  0.065620769            2 
  543000    1.0592354   -4.0128839    416.17561  0.063869798  0.065587243            4 
  544000    1.0343592   -4.0164194    417.51742  0.063957938  0.065554839            2 
  545000    1.0317534   -3.9993731    419.37924  0.064125266  0.065522786            2 
  546000    1.0457988    -3.989929    420.69918  0.064209276  0.065491569            2 
  547000    1.0505164   -4.0162224    420.69855  0.064091796  0.065459834            3 
  548000    1.0341335   -4.0211343    421.43701  0.064087136  0.065428408            4 
  549000    1.0281717   -3.9862771    421.83503  0.064030819  0.065396475            2 
  550000    1.0389291   -4.0354429     421.4521  0.063856379  0.065363795            2 
  551000    1.0607104   -4.0197876    421.61083  0.063764493  0.065331225            4 
  552000    1.0226461   -4.0122444    422.54908  0.063790622  0.065298286            5 
  553000    1.0189554   -3.9700081    424.02198  0.063897224  0.065264959            2 
  554000    1.0238928   -3.9685313    426.59555  0.064169006  0.065232242            4 
  555000    1.0606884   -3.9686889    425.43364  0.063878925  0.065199793            2 
  556000    1.0205883   -4.0385412    423.58133  0.063486411  0.065167193            2 
  557000    1.0167663   -3.9982845    426.94191  0.063875211  0.065132717            3 
  558000    1.0405953   -4.0450886    424.18416  0.063348889  0.065099634            4 
  559000    1.0250541   -4.0052377    425.55698  0.063440218   0.06506748            2 
  560000    1.0342101   -4.0193459    426.80949  0.063513316  0.065034639            3 
  561000    1.0402376   -3.9811758    427.69934  0.063532285   0.06500086            1 
  562000    1.0364756   -4.0387277    428.96799  0.063607353  0.064968619            2 
  563000    1.0418309   -3.9903797    430.00387  0.063647702  0.064936606            5 
  564000    1.0387117   -3.9938568     430.8435   0.06365891  0.064904911            3 
  565000    1.0480882   -4.0182855    430.15336  0.063444449  0.064872201            2 
  566000    1.0300812   -3.9869207     431.3342  0.063506213  0.064839821            7 
  567000    1.0469051   -4.0562903    428.86994  0.063032031  0.064806593            1 
  568000    1.0291569   -4.0214597    432.34707  0.063431201  0.064773656            2 
  569000    1.0429412   -4.0028006    431.35218  0.063174016  0.064740614            3 
  570000    1.0354442   -4.0217513    431.76084   0.06312293   0.06470694            5 
  571000    1.0144144   -4.0064442    434.25672  0.063376638  0.064674311            4 
  572000    1.0175542   -4.0159457    433.45159  0.063148542  0.064641085            1 
  573000    1.0223448   -4.0329164    436.13785  0.063429006  0.064607957            2 
  574000    1.0382977    -4.018339     436.2715  0.063337907  0.064574302            2 
  575000    1.0326607   -4.0393853    433.72034   0.06285802  0.064541128            2 
  576000    1.0090545   -4.0405708    436.72583  0.063183714  0.064507791            5 
  577000    1.0002398   -4.0167106    437.22287  0.063145995  0.064476435            3 
  578000    1.0472792   -3.9968423     438.2971  0.063191623  0.064443828            1 
  579000    1.0015689   -4.0250818    437.79876  0.063010759  0.064412199            2 
  580000    1.0335731   -4.0230131    439.42609  0.063135933  0.064380709            3 
  581000    1.0316788   -4.0387143    440.20361  0.063138786  0.064349424            9 
  582000    1.0299568   -4.0141195    440.94151  0.063135955  0.064317787            3 
  583000    1.0182274   -4.0069391    442.78493  0.063291157  0.064286152            5 
  584000    1.0035281    -3.989106    442.37459  0.063124227  0.064254925            1 
  585000   0.99506187   -4.0043344    441.75354  0.062927854  0.064223695            4 
  586000    1.0266299   -4.0614575    441.33666  0.062761185  0.064192134            6 
  587000    1.0065651   -3.9959392    443.89499  0.063017461  0.064160756            2 
  588000    1.0352369   -4.0334474    442.82263   0.06275831  0.064130134            2 
  589000    1.0270814   -4.0257966    444.33382  0.062865565   0.06409855            2 
  590000    1.0141179   -4.0091838    443.22778  0.062602794   0.06406743            3 
  591000    1.0211247   -4.0451466    446.33042  0.062934351  0.064035552            4 
  592000    1.0152026   -4.0306265    445.53195  0.062715647  0.064002898            2 
  593000    1.0241931   -4.0558013    444.80377  0.062507556  0.063969629            4 
  594000    1.0337781   -4.0544413    444.47006  0.062355508   0.06393583            4 
  595000    1.0231417    -4.021601    444.27181  0.062222942  0.063902346            3 
  596000    1.0249891   -4.0378104    447.35795  0.062550049  0.063868951            2 
  597000    1.0178196   -4.0368572     449.0601  0.062682873  0.063836418            2 
  598000    1.0014801    -4.040007    449.59016  0.062651917  0.063803102            3 
  599000    1.0042874   -4.0493739    448.76417  0.062432411  0.063770621            2 
  600000     1.005793   -4.0602136    448.64886  0.062312342  0.063737822            2 
  601000   0.99754346   -4.0244772    449.24085  0.062290744  0.063704648            2 
  602000    1.0068283   -4.0455742    451.19604  0.062457924  0.063672833            2 
  603000   0.99555255   -4.0746107    451.08948  0.062339619  0.063641191            4 
  604000     1.004327   -4.0266193    451.26079  0.062260043  0.063608178            3 
  605000    1.0217587   -4.0226119    452.18148   0.06228395  0.063575588            3 
  606000    1.0254215   -4.0335008    453.07408  0.062303916   0.06354429            2 
  607000    1.0109469   -4.0183698     454.2542   0.06236329   0.06351218            3 
  608000    1.0147046   -4.0660047    454.38942  0.062279251  0.063480121            5 
  609000     1.004344   -4.0432132    455.39666  0.062314814  0.063448236            4 
  610000    1.0251868   -4.0293677    454.28804  0.062061207  0.063416762            3 
  611000    1.0028199   -4.0210358    457.03551  0.062334357  0.063384944            3 
  612000    1.0086037   -4.0302654    456.49568  0.062158998  0.063353247            3 
  613000    1.0229251   -4.0387578    458.16073   0.06228395  0.063321444            2 
  614000   0.98798066   -4.0347775    456.87623  0.062008174  0.063289716            2 
  615000   0.99890934   -4.0408348    457.48699  0.061990107   0.06325969            4 
  616000    1.0099363   -4.0688518    456.58864  0.061767944  0.063227966            3 
  617000    1.0044091   -4.0369836    459.90674  0.062115984  0.063197332            3 
  618000    1.0219149   -4.0324839    459.33207  0.061937982  0.063166613            5 
  619000   0.99652615   -4.0608063    460.89234  0.062047972  0.063136025            2 
  620000    1.0191788   -4.0528276    460.46856  0.061890936  0.063105624            6 
  621000     1.021141   -4.0629799    460.59938  0.061808827  0.063074265            2 
  622000    1.0172336   -4.0270871    461.84315  0.061876092  0.063043395            4 
  623000    1.0141347    -4.069769    463.60201   0.06201204  0.063012701            2 
  624000   0.99972095   -4.0839708    462.87493  0.061815563  0.062981384            4 
  625000    1.0501742   -4.0634121    463.87459  0.061849945  0.062950832            4 
  626000   0.99374498    -4.083618    463.54429  0.061707174  0.062920416            3 
  627000    1.0056556   -4.0372951     464.2185  0.061698366  0.062889351            2 
  628000    1.0387318   -4.0714979    464.80846  0.061678405  0.062858117            2 
  629000   0.99077695   -4.0418849    465.06307  0.061614079  0.062826057            3 
  630000    1.0027691   -4.0773582    465.20239  0.061534708  0.062793604            5 
  631000     1.008081   -4.0811794    466.08355   0.06155356   0.06276131            3 
  632000   0.98355112   -4.0702421    466.01194  0.061446722  0.062729352            4 
  633000   0.99827556   -4.0772844    467.43683  0.061537234  0.062697361            3 
  634000   0.99429464   -4.0486025    467.74399  0.061480546  0.062664834            3 
  635000   0.99705631   -4.0458972    466.71963  0.061249296  0.062632071            2 
  636000    1.0129847   -4.0362845    469.65741   0.06153792  0.062599624            5 
  637000   0.98076586   -4.0333554    470.49948  0.061551476  0.062568175            2 
  638000   0.97245173   -4.0635724    469.88278  0.061374448  0.062536385            2 
  639000   0.99908835   -4.0476111    470.75226  0.061391791  0.062503479            8 
  640000   0.99952469   -4.0332376     470.8506  0.061308672  0.062471782            3 
  641000   0.99829405   -4.0570636    471.32814  0.061275109  0.062440915            5 
  642000    1.0227601   -4.0438101    471.51651  0.061204116  0.062409248            9 
  643000   0.97839406    -4.028563     471.9305  0.061162584  0.062376971            2 
  644000    1.0054351   -4.0862974    473.45597  0.061265007  0.062345481            7 
  645000    1.0047701   -4.0587121    474.51633  0.061307019  0.062314845           11 
  646000    1.0068094   -4.0601545    476.51668   0.06147016  0.062285354            4 
  647000   0.99825968   -4.1094065    475.12882  0.061196396  0.062255603            3 
  648000    1.0080491   -4.0915142    475.78639  0.061186521  0.062225543            7 
  649000   0.99249238   -4.0711889    475.10239  0.061004416  0.062195622            2 
  650000     1.002162   -4.0922877    477.57994  0.061228198  0.062165856            2 
  651000   0.98060761   -4.0653295    478.02487    0.0611911  0.062137077            1 
  652000   0.99744923   -4.0712284     478.2433  0.061125166  0.062107723            2 
  653000   0.99176304   -4.1052973     478.8502   0.06110901  0.062078133            2 
  654000   0.98114259   -4.0745222    478.67846  0.060993687  0.062048661            2 
  655000   0.99434235   -4.1040361     479.6491  0.061024058  0.062019345            3 
  656000   0.98242753   -4.0978132    479.55381  0.060918929  0.061990027            4 
  657000    1.0181394   -4.0722951    483.10421  0.061276536  0.061961019            3 
  658000   0.99494913   -4.0773213    482.97501  0.061167047  0.061932058            2 
  659000   0.98757271   -4.0553191    485.94866  0.061450261  0.061903076            2 
  660000   0.99534539   -4.0743861    483.98175  0.061108807  0.061874912            3 
  661000   0.98814715   -4.0971297    484.46662  0.061077486  0.061846996            3 
  662000     1.006141   -4.0813829    485.93295  0.061169807  0.061819289            4 
  663000   0.97547545   -4.0926837     484.5057  0.060898153  0.061791569            3 
  664000    0.9898576   -4.0459536    486.26223  0.061026886  0.061764594            2 
  665000    1.0122184   -4.0872116    488.19547  0.061177377  0.061737171            2 
  666000    1.0059887   -4.0864374    487.70159  0.061023723  0.061710433            4 
  667000   0.99252029   -4.0551636    489.85479  0.061201248   0.06168417            3 
  668000   0.98120882   -4.0844733    488.82783  0.060981515  0.061658038            2 
  669000   0.99322924   -4.0819026    490.62292  0.061113967   0.06163199            4 
  670000   0.97246218   -4.1048757     488.8525   0.06080255  0.061604745            3 
  671000   0.97946747   -4.0708674    491.88233  0.061088217  0.061578292            2 
  672000   0.95858194   -4.0977443    490.68959  0.060849403  0.061551704            5 
  673000   0.98851987   -4.1041808    492.91285   0.06103428  0.061525119            2 
  674000   0.98148915   -4.1141341    491.63007  0.060785123  0.061498725            3 
  675000   0.97069036    -4.075995    492.93098  0.060855676  0.061471662            4 
  676000   0.97334152   -4.0780151    495.61711  0.061096783  0.061444915            2 
  677000   0.96801986   -4.0785524    494.68242  0.060891485  0.061418094            3 
  678000    1.0105015   -4.1024326    493.35612  0.060638658  0.061391734            4 
  679000   0.98611083   -4.1160795    492.81538  0.060482987  0.061365124            5 
  680000   0.98738337   -4.1082017    493.94459  0.060532425  0.061337485            4 
  681000    0.9821591   -4.0795779     494.9664  0.060568576  0.061310166            5 
  682000    0.9901266   -4.1046799     495.7913   0.06058056  0.061283304            2 
  683000   0.96863014   -4.0786023    498.00141  0.060761518  0.061256228            2 
  684000    0.9627729   -4.1010199    497.72175  0.060638615  0.061228977            4 
  685000    0.9966785   -4.0904509    498.29842  0.060620245  0.061201909            2 
  686000   0.96214086   -4.1094459    500.79828  0.060835554  0.061175529            4 
  687000   0.98836449    -4.115307    500.16812  0.060670562  0.061148712            2 
  688000   0.96583671   -4.1084427    499.02541  0.060443969  0.061121991           10 
  689000   0.99362942   -4.0874662    502.06929  0.060724394  0.061095797            6 
  690000   0.96289265   -4.1083683    501.61802  0.060581886  0.061070688            2 
  691000   0.97284302   -4.0820173    502.13706  0.060556809  0.061045429            4 
  692000   0.96182837   -4.0862332    505.02871  0.060817523  0.061020225            5 
  693000   0.95691329   -4.1323932     502.9843  0.060483922   0.06099429            3 
  694000   0.97188346   -4.0508082    504.79677  0.060614406  0.060969704            4 
  695000   0.98013016   -4.0924083    505.32947  0.060591063  0.060945461            4 
  696000   0.97104143   -4.0847464    506.97616  0.060701169  0.060920855            2 
  697000    0.9823124   -4.1232926      506.678  0.060578432  0.060895495            3 
  698000    0.9677829   -4.0818496      509.054   0.06077531  0.060871159            6 
  699000   0.96470634    -4.121966     506.9802   0.06044113  0.060846901            3 
  700000   0.98011384   -4.1265065    508.28261  0.060509835  0.060821366            2 
  701000   0.98134287   -4.0785123    510.07116  0.060636134  0.060796568            3 
  702000   0.98854271   -4.1142736    509.44058  0.060474902  0.060771992            3 
  703000   0.95181359   -4.1343564    507.95663  0.060212972  0.060746956            3 
  704000   0.98290213   -4.0867865    508.05763  0.060139398  0.060721522            4 
  705000   0.99322298   -4.1267579    509.70347  0.060248637  0.060695475            2 
  706000   0.97297833    -4.126884    509.41755   0.06012955   0.06067017            2 
  707000   0.96572596   -4.1115101     509.6378  0.060070462   0.06064401            8 
  708000   0.95676949   -4.1174065    510.65402  0.060105228  0.060618314            3 
  709000   0.97646375    -4.129725    511.65835    0.0601385  0.060592345            2 
  710000   0.98371905   -4.1065114     511.3602  0.060018803  0.060566752            3 
  711000    0.9731692   -4.0995527    512.72547  0.060094406  0.060541056            4 
  712000   0.99422489   -4.1087817    512.94118   0.06003525  0.060515685            2 
  713000   0.96949901   -4.1305325    513.15686  0.059976258   0.06048971            4 
  714000   0.97602512   -4.1250212    512.34336  0.059797311  0.060463717            5 
  715000   0.98008767    -4.113516    514.18415  0.059928222  0.060436878            4 
  716000   0.96138114   -4.0845462    513.93864   0.05981595   0.06041002            4 
  717000   0.98083735   -4.1192077    515.84673  0.059954292  0.060383934            4 
  718000   0.98476942   -4.1146908    516.31466    0.0599251  0.060357859            3 
  719000   0.96873185   -4.1483896    514.50222   0.05963169  0.060331513            6 
  720000   0.95227116   -4.1021296    518.91007  0.060059036  0.060305377            2 
  721000   0.98854616   -4.1076381     515.9953  0.059638847  0.060278553            5 
  722000   0.94710818    -4.127231    516.97189  0.059668962  0.060251905            3 
  723000   0.96222769   -4.1339259    519.59643  0.059888938  0.060225355            5 
  724000   0.96781719   -4.1325616    517.07354  0.059515831  0.060198679            3 
  725000   0.96699076   -4.1348844    520.00804  0.059771039  0.060171997            4 
  726000   0.95706984   -4.1278224    518.82362  0.059552757   0.06014516            6 
  727000   0.98746412   -4.1422322    518.46914  0.059430208  0.060118398            5 
  728000    0.9553043   -4.1352799    520.64904  0.059598105  0.060091854            5 
  729000   0.96793709   -4.1046829    522.55962  0.059734753  0.060065077            3 
  730000   0.97718251   -4.1303659     521.9325  0.059581335  0.060038403            3 
  731000   0.95649747   -4.1235041    521.82904  0.059488035  0.060011003            2 
  732000   0.95030816    -4.115234    522.27473  0.059457506  0.059982992            6 
  733000    0.9703178   -4.1291161    521.95683  0.059340249  0.059954822            3 
  734000   0.96196286   -4.1614062    521.14919   0.05916771  0.059927366            4 
  735000   0.97909639   -4.0997315    523.35224  0.059336989  0.059900408            3 
  736000   0.95022203   -4.1440703    524.18804  0.059351001  0.059873067            3 
  737000   0.97030979   -4.1413023    524.69372  0.059327649  0.059845544            2 
  738000   0.99057158   -4.1471976    524.44231   0.05921887   0.05981864            4 
  739000   0.93883968   -4.1494726    524.83427  0.059182935  0.059792141            3 
  740000   0.94025981   -4.1366311    526.52165  0.059292979  0.059765478            5 
  741000   0.93398156   -4.1357486    527.36814  0.059308158  0.059739285            7 
  742000   0.95566141   -4.1317802     529.2295  0.059437275  0.059713976            6 
  743000   0.94958804    -4.151194    526.78764  0.059083405   0.05968741            6 
  744000   0.95739949   -4.1186053    530.12206   0.05937747  0.059661247            4 
  745000   0.95012514   -4.1180681    530.03156  0.059287646  0.059635913            2 
  746000   0.95460217   -4.0819892    532.28123  0.059459476   0.05961056            2 
  747000   0.95578301   -4.1723801    530.79903  0.059214528  0.059585498            6 
  748000   0.96078824   -4.1668715    531.12675  0.059171875    0.0595606            5 
  749000   0.95202071     -4.12328    531.58061   0.05914337  0.059535738            3 
  750000   0.96382118   -4.1801506    532.41172  0.059156858  0.059510399            2 
  751000   0.95686637   -4.1480443    533.62747   0.05921299  0.059485785            4 
  752000   0.95067321   -4.1609588    535.25585  0.059314699  0.059461841            2 
  753000   0.95013357   -4.1437803    536.76357  0.059402786  0.059438197            4 
  754000   0.95269583   -4.1369878    536.66257  0.059312839  0.059415106            9 
  755000   0.95255426   -4.1267012    537.23926  0.059297932  0.059391364            2 
  756000   0.94887875   -4.1764547    536.72751  0.059163086  0.059368038            3 
  757000   0.96414788    -4.174552    536.70294  0.059082226  0.059343685            5 
  758000    0.9600835   -4.1673095    538.56441  0.059208928  0.059319712            4 
  759000   0.93613129   -4.1280059    537.53991  0.059018435  0.059295509            5 
  760000   0.96738304   -4.1409509    539.83942  0.059192919  0.059271347            2 
  761000   0.96032669   -4.1297352    540.20366  0.059155022  0.059247194            3 
  762000   0.93448175   -4.1724909    538.45346  0.058885986  0.059223003            3 
  763000   0.95847051   -4.1242027    539.84371   0.05896065  0.059198239            2 
  764000    0.9657819   -4.1555632    539.16127  0.058809039  0.059173386            4 
  765000   0.94117333   -4.1523303     541.7918  0.059018714   0.05914915            5 
  766000   0.95579929   -4.1572925    540.29099  0.058778393  0.059124906            3 
  767000   0.92975895   -4.1616154    542.25058  0.058914665  0.059100345            3 
  768000   0.96616088   -4.1427946    542.64754  0.058881026  0.059075955            3 
  769000   0.94934215   -4.1366942    545.32592  0.059094704  0.059052018            3 
  770000   0.95984255   -4.1445258    544.72915  0.058953371  0.059029115            2 
  771000   0.94802538   -4.1091045    546.54523  0.059073198  0.059005037            5 
  772000   0.95962082   -4.1710184    544.89156  0.058818173  0.058981095            5 
  773000   0.95880337    -4.171838    544.88285  0.058741144  0.058957808            4 
  774000   0.93569306   -4.1320677    545.44166  0.058725415  0.058933974            4 
  775000   0.92484576   -4.1376062    546.39048  0.058751664  0.058910235            7 
  776000   0.93302735   -4.1195639    547.88883  0.058836859  0.058886319            4 
  777000   0.94089134   -4.1464084    548.02005  0.058775209   0.05886266            4 
  778000    0.9531841   -4.1555264    549.26844  0.058833381  0.058838958            2 
  779000   0.93477089    -4.177207    547.75286  0.058595728  0.058814976            6 
  780000   0.94042574   -4.1254454    549.38615  0.058695102   0.05879155            2 
  781000   0.94337706   -4.1651935    546.88045  0.058352588  0.058768252            2 
  782000   0.96900313   -4.1641222     550.4131  0.058654422  0.058745162            2 
  783000   0.95505024   -4.1862769    551.21991   0.05866538  0.058721979            5 
  784000   0.93332037   -4.1143037    554.11274  0.058898038  0.058698554            3 
  785000   0.93369295   -4.1775275    552.47707  0.058649371  0.058676223            3 
  786000   0.94956179   -4.1839441    550.15958  0.058329048  0.058653467            3 
  787000   0.92833764   -4.1528953    554.54233   0.05871901  0.058629774            5 
  788000   0.93407496   -4.1563686     552.8993  0.058470738   0.05860636            2 
  789000   0.95452173   -4.1649491    552.64585  0.058369861  0.058582656            3 
  790000   0.94644676   -4.1692635    553.71143  0.058408378  0.058558767            4 
  791000   0.93780951   -4.1700285    555.52922  0.058526045  0.058533919            2 
  792000   0.95004241   -4.1291271    555.93002   0.05849432  0.058509998            2 
  793000    0.9477359   -4.1505396    555.59654  0.058385513  0.058486084            4 
  794000   0.95110153   -4.1485056    556.71976  0.058429866  0.058461949            2 
  795000   0.94876666   -4.1652412     556.6929  0.058353553  0.058437979            4 
  796000   0.89753087   -4.1519091    557.58197  0.058373322  0.058413736            3 
  797000   0.93549394   -4.1519689    558.20718  0.058365452    0.0583896            6 
  798000   0.93650299   -4.1777914    556.77919   0.05814319  0.058365632            3 
  799000   0.92003894   -4.1732837    556.87598  0.058080516  0.058341087            6 
  800000   0.93675003   -4.1908504    554.89769  0.057801843  0.058316124            2 
  801000   0.92721392   -4.2003408    558.03453  0.058056027  0.058290774            3 
  802000   0.93855443   -4.1728706    558.02689  0.057982844  0.058265243            2 
  803000   0.93879489   -4.1734716    558.38309  0.057947602  0.058239126            3 
  804000   0.93175779   -4.1832596    555.63193  0.057590374  0.058212645            3 
  805000    0.9115961    -4.171791      558.172   0.05778178  0.058186317            2 
  806000   0.94837136   -4.1984181    557.96112  0.057688288  0.058159541            1 
  807000   0.92630042   -4.1555058    561.55759  0.057988186  0.058133829            4 
  808000   0.94871819    -4.138523    562.01385  0.057963475  0.058108623            2 
  809000   0.91950966   -4.2023956    558.66068  0.057546424  0.058082524            5 
  810000   0.93053981   -4.1640118    562.57301  0.057877882  0.058056002            2 
  811000   0.91069369   -4.1671045    560.97187  0.057641992  0.058028469            2 
  812000   0.92623134   -4.1784676    559.73249   0.05744381  0.058001522            3 
  813000   0.93034122    -4.166708     559.7739  0.057377399  0.057974068            6 
  814000   0.90962786   -4.1698924    561.21156  0.057454091  0.057946549            3 
  815000    0.9189821   -4.1659775    562.17967  0.057482584  0.057919353            2 
  816000   0.93368498   -4.1516689    563.46943  0.057543855  0.057892019            3 
  817000      0.92873   -4.1642943    562.70953  0.057395913  0.057864797            4 
  818000   0.91808531   -4.1725177    561.55413  0.057208041  0.057837303            4 
  819000   0.95796172   -4.1609004    562.44883  0.057229226  0.057810142            4 
  820000   0.89868703   -4.2050117    560.92946  0.057005027  0.057782423            5 
  821000   0.94794511    -4.187245     561.1482  0.056957795  0.057754516            2 
  822000   0.94050736   -4.2000065     562.1698  0.056992072   0.05772655            6 
  823000   0.92756798   -4.1913745    561.92824  0.056898363  0.057698499            2 
  824000   0.90837534   -4.1822478    563.51958  0.056990249  0.057670291            4 
  825000    0.9121542   -4.1585894    566.36414  0.057208499   0.05764253            4 
  826000   0.93206317   -4.1848799    564.85292  0.056986776  0.057615132            7 
  827000   0.92395668   -4.2162944    564.70776  0.056903241  0.057586863            3 
  828000   0.93010136   -4.2128852    563.18042  0.056680799  0.057559125            6 
  829000   0.90800634   -4.2013382    567.59101  0.057055791  0.057530942            4 
  830000   0.92666698   -4.1934628    565.87804  0.056815064  0.057503089           12 
  831000    0.9161588   -4.1833968    566.89042  0.056848217  0.057475189            2 
  832000   0.91204291   -4.2052146    564.70003  0.056560499  0.057446839            4 
  833000   0.90241045   -4.1872957    567.80265  0.056802986  0.057418795            4 
  834000   0.92591121   -4.2060749    566.58208  0.056612918  0.057390589            7 
  835000   0.90975542   -4.1884427    567.58339  0.056645049  0.057361938            3 
  836000   0.94005672   -4.1880019    567.84043  0.056602914  0.057334115            4 
  837000   0.93087195   -4.2132678    569.88958  0.056739305   0.05730632            3 
  838000   0.91975589    -4.193623    568.52911  0.056536308  0.057278752            8 
  839000   0.92754313   -4.1847578    572.47153  0.056860501  0.057251567            3 
  840000    0.9160957   -4.2238052    573.02284  0.056847504  0.057224529            6 
  841000   0.91470645   -4.1935709    570.48544  0.056528482  0.057196995            7 
  842000   0.92392485   -4.1877578    571.62314  0.056573945  0.057169041            4 
  843000   0.92813137   -4.1835904    571.44321  0.056489048   0.05714086            6 
  844000   0.92100366   -4.1862988    572.10657  0.056487615  0.057113331            4 
  845000   0.91885837   -4.2113465      572.595  0.056468935  0.057085145            3 
  846000   0.90986979   -4.2112683    573.28678  0.056470329  0.057057544            3 
  847000   0.91811127   -4.2297339    574.32278  0.056505586  0.057029604            3 
  848000   0.90638705   -4.1854624    573.43213  0.056351428  0.057001937            1 
  849000   0.91638158   -4.1973691    574.32921  0.056373106  0.056974156            5 
  850000   0.92097565   -4.2095675    574.13248  0.056287498  0.056946564            5 
  851000   0.89121651   -4.2224033    574.35452  0.056243099  0.056919335            3 
  852000   0.91873277   -4.2057605    576.33204  0.056370504  0.056892251            6 
  853000   0.90530456    -4.217226    576.98976  0.056368676  0.056865019            4 
  854000   0.92399786   -4.2067882    577.49562  0.056352031  0.056837947            3 
  855000   0.91479108   -4.1945414    578.21834  0.056356563  0.056810998            1 
  856000    0.9146897   -4.1985736    578.19598  0.056288549   0.05678389            3 
  857000   0.90279695   -4.2058056    578.37818  0.056240585  0.056756745            5 
  858000    0.9246952   -4.2287339     578.3522  0.056172513   0.05672957            4 
  859000   0.91502851   -4.1946782    579.03051  0.056172925  0.056703488            3 
  860000   0.90063791   -4.2030074    582.28646  0.056423107  0.056676703            3 
  861000   0.90396099   -4.2142161    579.15459  0.056054451  0.056650022            2 
  862000   0.91097558   -4.1943936    581.52748   0.05621882  0.056623252            4 
  863000   0.90276707   -4.2115053    581.54825  0.056155682  0.056596884            5 
  864000   0.92151388   -4.2279877    583.73524  0.056301625  0.056570303            2 
  865000   0.89887937   -4.2095856    582.88128  0.056154266  0.056544124            5 
  866000   0.88222334   -4.1784964    583.95903  0.056193132  0.056517573            3 
  867000    0.9332926   -4.2279352    583.43437   0.05607789  0.056490556            6 
  868000   0.90729898   -4.1939066    586.08891  0.056268137  0.056464076            5 
  869000   0.91737467   -4.2041078    585.24798  0.056122745  0.056438191            4 
  870000    0.8953248   -4.2134479    585.81148  0.056112211  0.056412034            5 
  871000   0.90861863   -4.2224158     586.9604  0.056157711  0.056385672            3 
  872000   0.90450488   -4.2359285    586.63166  0.056061895  0.056358824            4 
  873000   0.89884176   -4.2349709    585.42743  0.055882725  0.056332065            3 
  874000   0.89914263   -4.2610684    586.32906  0.055904754  0.056305762            2 
  875000   0.90164267   -4.2391269    585.14347   0.05572795  0.056278882            4 
  876000   0.91203516   -4.2253142    586.60386   0.05580326  0.056251939            4 
  877000   0.91566013   -4.2302807    588.09585    0.0558814  0.056226109            4 
  878000   0.89791015   -4.1971826    587.73852  0.055783839  0.056200042            3 
  879000   0.92982178   -4.1996435     592.6592  0.056186879  0.056174348            6 
  880000   0.89613116   -4.2205156    589.28486   0.05580349  0.056148288            3 
  881000   0.89869965   -4.2140085    588.35346  0.055652049  0.056122328            2 
  882000   0.90258373   -4.2437756    589.28438  0.055676906  0.056096202            3 
  883000   0.90670503   -4.2321551    589.38301  0.055623161  0.056069675            2 
  884000   0.92112409   -4.2271791    590.61955  0.055676805  0.056042952            4 
  885000   0.90636175    -4.226094    589.83263  0.055539795  0.056016447            3 
  886000   0.90140295   -4.2368884    591.31039  0.055616102  0.055989335            5 
  887000   0.89933865   -4.2452325    588.72566  0.055310566  0.055962348            8 
  888000   0.90027332   -4.1777094    593.16071  0.055664481   0.05593577            3 
  889000   0.89918947     -4.22443    591.19912   0.05541799  0.055908951            3 
  890000    0.8834431    -4.225104    593.12054  0.055535631  0.055882448            6 
  891000   0.88033954   -4.2428431    591.85626  0.055355056  0.055855758            3 
  892000   0.89659678   -4.2197548    594.91479  0.055578736  0.055828377            6 
  893000   0.91193883   -4.2299666    592.91994  0.055330341  0.055801177            7 
  894000   0.90926065   -4.2413224    593.13175  0.055288194  0.055773984            4 
  895000   0.89672949   -4.2112957    595.56753  0.055453215   0.05574679            2 
  896000   0.89774734   -4.2356003    594.78518  0.055318563  0.055719843            5 
  897000   0.90229918   -4.2449626    594.84661  0.055262598  0.055692394            4 
  898000     0.892788   -4.2279583    596.65369  0.055368754  0.055665545            5 
  899000   0.91594147   -4.2355352    597.89899  0.055422599  0.055639159            4 
  900000   0.89410097   -4.2647052    598.74208  0.055439081  0.055613298            5 
  901000   0.92034507   -4.2186958    598.78624  0.055381635  0.055587536            5 
  902000   0.92109679    -4.194327    600.54883  0.055483077  0.055561889            2 
  903000   0.88951569   -4.2524458    597.51908  0.055142034   0.05553572            5 
  904000   0.89386824   -4.2215805    597.51458  0.055080621  0.055509159            2 
  905000   0.89990185    -4.194655     600.5636  0.055300515  0.055483462            5 
  906000   0.88172174   -4.2337702    599.50371   0.05514199  0.055457694            3 
  907000   0.90350317   -4.2742437    597.82917   0.05492734  0.055431766            5 
  908000   0.88208158   -4.2458201    598.42695  0.054921709  0.055405864            3 
  909000   0.89868763   -4.2615694    600.67582  0.055067456   0.05537969            4 
  910000   0.90653277    -4.259702    601.14426  0.055049841  0.055353754            3 
  911000   0.89144879     -4.26152     600.4898  0.054929546  0.055327576            8 
  912000   0.87949151   -4.2744258    600.29769  0.054851762  0.055301777            2 
  913000   0.86985686   -4.2502274    604.10192  0.055138912  0.055275966            8 
  914000   0.88040699   -4.2448087    604.20999  0.055088438  0.055250613            6 
  915000   0.89382195   -4.2291601    603.18676  0.054935042  0.055224834            3 
  916000   0.91459054   -4.2555921    603.02741  0.054860572  0.055199089            5 
  917000   0.91378052   -4.2416036    605.32429  0.055009478  0.055173242            3 
  918000   0.88126043   -4.2136342    605.58962   0.05497364  0.055147523            1 
  919000   0.87555929   -4.2371953    606.11937  0.054961858  0.055121819            5 
  920000   0.88794861   -4.2367808    606.90863  0.054973608  0.055096164            5 
  921000    0.8923222   -4.2294083    606.63272  0.054888954  0.055070569            4 
  922000   0.88515415   -4.2669421    606.18523  0.054788976  0.055045154            3 
  923000   0.88523707   -4.2705008    605.08442  0.054630229  0.055018906            6 
  924000   0.89049409   -4.2205071    609.13194  0.054936142  0.054992925            4 
  925000    0.8761707   -4.2580061    607.64661  0.054742938  0.054967074            4 
  926000   0.87994245   -4.2163303    608.27156  0.054740061  0.054941233            3 
  927000   0.88508355   -4.2901182    606.99283  0.054566058  0.054915191            5 
  928000   0.89287683   -4.2695802    607.77342  0.054577355  0.054889279            2 
  929000   0.87618184   -4.2564668    609.57369  0.054680094  0.054863544            5 
  930000   0.89203688   -4.2504971    609.55531  0.054619651  0.054837974            5 
  931000   0.84969579   -4.2205088    611.48589  0.054733788  0.054812128            5 
  932000   0.88684139   -4.2681559    609.80119  0.054524427  0.054786266            4 
  933000   0.87539853    -4.266033    610.13435  0.054495744  0.054760473            3 
  934000   0.88185809   -4.2703165    612.49129  0.054647688  0.054734505            2 
  935000   0.89460016   -4.2384975    611.66746  0.054515817  0.054708484            4 
  936000   0.89775231   -4.2595646    611.86825  0.054475449  0.054682986            8 
  937000     0.889748   -4.2539939    611.73001  0.054405017  0.054657406            5 
  938000   0.89554698   -4.2836874    611.53917  0.054330061  0.054631045            1 
  939000   0.86184283   -4.2939671    614.16434  0.054505178  0.054605421            2 
  940000   0.88643237   -4.2722164    613.44263  0.054383211  0.054579909            4 
  941000   0.89955295   -4.2861926    613.57406  0.054337058  0.054553869            3 
  942000    0.8557351   -4.2255093    613.45806  0.054269114  0.054528123            2 
  943000    0.8693232   -4.2819646    614.82995  0.054332799   0.05450267            3 
  944000   0.87842225   -4.2870526    615.84364  0.054364728  0.054477426            5 
  945000    0.8891398   -4.2696664    614.94857  0.054228269  0.054452164            4 
  946000   0.86071424   -4.2445473    616.07968  0.054270585  0.054427159            3 
  947000    0.8721398   -4.2810439    616.21982  0.054225609  0.054402071            3 
  948000   0.89357442   -4.2739888    617.32639  0.054265681  0.054377262            8 
  949000   0.86727783   -4.2427083    618.82369   0.05433998  0.054352712            2 
  950000   0.84919611   -4.2908997    619.00292  0.054298502  0.054328039            5 
  951000   0.88677685    -4.269589    619.94126  0.054323629  0.054303097            7 
  952000   0.87145385   -4.2742056    619.14602  0.054196955  0.054278538            7 
  953000   0.87959627   -4.2908862    620.62037  0.054269007   0.05425443            4 
  954000   0.85925318   -4.2899619    621.75924  0.054311604  0.054230034            6 
  955000   0.87721545   -4.2866515    619.14241  0.054026388  0.054205255            4 
  956000   0.88359101   -4.2890307    618.28971  0.053895547  0.054180132            2 
  957000   0.85268581   -4.2810424    621.12868   0.05408644  0.054155201            9 
  958000   0.86784177    -4.281202    619.40827  0.053880329  0.054130164            3 
  959000   0.87739714   -4.2764508    621.69967  0.054023259  0.054105342            2 
  960000   0.85823424   -4.2882228    620.96907  0.053903565  0.054080727            3 
  961000   0.84820428     -4.24671    623.84336  0.054096718  0.054055762            3 
  962000   0.88113828    -4.269027    623.27892  0.053991591  0.054031221            6 
  963000   0.87396046   -4.2956785    623.05076  0.053915781   0.05400658            3 
  964000   0.88463192   -4.2804212    623.58744  0.053906245  0.053982077            3 
  965000   0.84782911   -4.2923805    623.38272  0.053832704  0.053957065            4 
  966000   0.88190281   -4.2656904    626.28361  0.054027226  0.053932069            6 
  967000   0.87251427   -4.2710814     622.0806  0.053609152  0.053907021            5 
  968000   0.85662765   -4.2464987    625.21244  0.053823385  0.053881898            4 
  969000   0.86906561   -4.2969935    623.51669  0.053622006  0.053856958            3 
  970000   0.88009235   -4.2787666    624.89405  0.053685056  0.053831807            4 
  971000   0.84826362    -4.299537    625.06689  0.053644601  0.053806648            4 
  972000   0.84802121   -4.2887207    626.42063  0.053705473  0.053781295            3 
  973000   0.88257554   -4.2598331    627.40811   0.05373485   0.05375581            6 
  974000    0.8800343   -4.2738993    627.32735  0.053672771  0.053730818            3 
  975000   0.86280529   -4.2987038    625.81915  0.053488816  0.053705825            9 
  976000   0.86301531   -4.2717143    630.47434  0.053831484  0.053680678            5 
  977000     0.857187   -4.2692368    628.07428  0.053571672  0.053655626            5 
  978000   0.86641298   -4.2749854    628.81781   0.05358025  0.053630603            3 
  979000   0.86140799   -4.2743982    629.03374    0.0535439  0.053605931            3 
  980000    0.8639926   -4.3097996    628.00321  0.053401633  0.053581411            4 
  981000   0.88736124   -4.2899412    629.08411  0.053439017  0.053556153            4 
  982000   0.84622383   -4.2657051    628.55365  0.053339583  0.053531185            4 
  983000   0.86702283   -4.3247392    629.31122  0.053349544  0.053506183            3 
  984000   0.86589754   -4.3195297    628.55123  0.053230965  0.053480713            3 
  985000   0.85183198   -4.2947973    631.60958  0.053435667  0.053455678            2 
  986000   0.87272185   -4.3057971    628.41473  0.053111455  0.053430068            6 
  987000    0.8537556   -4.3042618    629.69658  0.053165871  0.053404585            4 
  988000   0.87357166   -4.3151325    631.60435  0.053272972  0.053378765            5 
  989000   0.86037965   -4.3156811    629.95732  0.053080327  0.053353051            7 
  990000   0.85638676   -4.3022469    630.58276  0.053079357  0.053327323            5 
  991000   0.85857784   -4.2941985    631.56879  0.053108711  0.053301738            3 
  992000   0.86908736   -4.3202316    632.28939  0.053115708  0.053276183            7 
  993000   0.85703899   -4.3014674    634.20283  0.053222796    0.0532511            7 
  994000   0.86893725   -4.3309718    632.85254  0.053056048  0.053225559            6 
  995000    0.8633533   -4.3283052    633.31157   0.05304117    0.0532004            3 
  996000   0.84736543   -4.2897417    635.14989  0.053141725  0.053175221            5 
  997000   0.83646741   -4.2932266    634.65716  0.053047238  0.053150446            5 
  998000   0.87752111    -4.304429     635.7816  0.053087976  0.053125552            4 
  999000   0.84956965   -4.3079581    634.45217  0.052923938  0.053100247            3 
 1000000   0.86409038   -4.2864445    634.77797  0.052898164  0.053075128            4 
 1001000   0.84093896   -4.2795163    637.79595  0.053096566  0.053050119            4 
 1002000   0.84987341   -4.3056209    636.83904  0.052963992  0.053025366            7 
 1003000   0.85251707   -4.3317122    635.54042  0.052803292  0.053000694            2 
 1004000    0.8495378   -4.2974108    638.77074   0.05301882  0.052975985            5 
 1005000   0.86869909   -4.3343562     639.2306  0.053004195   0.05295133            7 
 1006000   0.85478314   -4.2986018    640.11045  0.053024391  0.052927071            5 
 1007000   0.84507788   -4.3000631    639.03135  0.052882435  0.052902617            4 
 1008000   0.86468855   -4.3003789    638.64884   0.05279835  0.052878498            7 
 1009000   0.85629133   -4.3136221    640.46477     0.052896  0.052854251           11 
 1010000   0.86166865   -4.3069549     640.7004  0.052863069  0.052829787            3 
 1011000   0.85896713   -4.3090746    639.01305  0.052671699   0.05280515            6 
 1012000   0.84134196   -4.3147033    639.76256  0.052681371  0.052780325            3 
 1013000    0.8298862   -4.3051649    639.60845  0.052616687  0.052755797            6 
 1014000    0.8413798   -4.3047578    642.15292  0.052773909  0.052731164            2 
 1015000    0.8636197   -4.3106941    642.00022  0.052709378  0.052706503            5 
 1016000   0.85771759   -4.3056052    641.39126  0.052607551  0.052682095            3 
 1017000   0.85365421   -4.3119185    641.74874  0.052585114  0.052657427            4 
 1018000   0.84677043   -4.3025715    642.42971  0.052589204  0.052632454            3 
 1019000   0.84928946   -4.3123584    643.01473  0.052585438  0.052608145            2 
 1020000   0.85309914   -4.3461494     641.9187  0.052444338  0.052583554           13 
 1021000   0.84472043   -4.2935386    644.19029  0.052578378  0.052559488            4 
 1022000   0.84092531   -4.3287311     642.1623  0.052361571  0.052535177            4 
 1023000   0.85716896   -4.3311305    643.53344  0.052422079  0.052510571            2 
 1024000   0.83510509   -4.3131325    645.12842  0.052500685  0.052485507            4 
 1025000   0.85683728   -4.3338992    645.75095  0.052500077  0.052460891            3 
 1026000   0.83693849   -4.3262061    644.52335    0.0523492  0.052435657            4 
 1027000   0.84905079   -4.3075719    645.59568  0.052385239  0.052410789            7 
 1028000   0.84637112   -4.3412654    645.81066  0.052351707  0.052385955            6 
 1029000   0.83639608   -4.3234975    644.47951  0.052193028  0.052360647            2 
 1030000   0.83143794   -4.3164136    647.59235  0.052394203  0.052335233            3 
 1031000   0.83995591   -4.3582051    645.07262   0.05213972  0.052310015            4 
 1032000   0.83723162   -4.3512745    646.06299  0.052169169  0.052284639            5 
 1033000   0.83693327   -4.3639503    645.25825  0.052053747  0.052259023            4 
 1034000   0.84212251   -4.3185479     649.0858   0.05231188  0.052233332            4 
 1035000   0.82915483   -4.3392943     645.1102   0.05194124  0.052208091            4 
 1036000   0.83550823   -4.3296749    645.67879  0.051936839  0.052182556            4 
 1037000    0.8410536   -4.3306698     647.7178  0.052050611  0.052156646            7 
 1038000   0.84888089   -4.3499529    648.10557  0.052031597  0.052130905            5 
 1039000   0.84944782   -4.3434072    647.32792  0.051919147  0.052105039            4 
 1040000   0.84682048   -4.3327599    647.08498  0.051849758  0.052079226            8 
 1041000   0.82980391   -4.3212808    646.57472  0.051759103  0.052053553            2 
 1042000   0.84070555   -4.3379887    647.03123   0.05174594  0.052027468            8 
 1043000   0.84478195   -4.3218212    647.63189  0.051744318   0.05200143            6 
 1044000   0.84021077   -4.3335178    649.35665  0.051832428  0.051975404            5 
 1045000   0.82972963    -4.337225    649.38499  0.051785087   0.05194956            5 
 1046000   0.85184488   -4.3514146    648.62961  0.051675399   0.05192377            7 
 1047000   0.82872608   -4.3075972      648.792  0.051638969  0.051898271            5 
 1048000   0.83886562   -4.3468162    649.73703   0.05166484  0.051872602            5 
 1049000   0.84471963   -4.3406484    648.87957  0.051547471  0.051846767            5 
 1050000    0.8629913    -4.334228     651.7037  0.051722516  0.051821152            3 
 1051000   0.83410377   -4.3363736    648.91009  0.051451799  0.051795092            5 
 1052000   0.83297642   -4.3334969    651.22976  0.051586641  0.051769052            3 
 1053000   0.84158837    -4.339868    650.43789  0.051474983  0.051743019            5 
 1054000   0.85449664   -4.3555965    650.54418  0.051434549  0.051717167            3 
 1055000   0.84910364   -4.3531421    651.80578  0.051485449  0.051691013            3 
 1056000   0.84537669   -4.3330725     653.3392  0.051557702  0.051664926            4 
 1057000   0.84264891   -4.3797578    649.20775  0.051183203  0.051638651            8 
 1058000    0.8295505    -4.354164    652.28679  0.051377347  0.051612435            3 
 1059000   0.83213444   -4.3685277     653.4198  0.051417989  0.051585825            2 
 1060000   0.81958611   -4.3300276    654.01719  0.051416445  0.051559864            6 
 1061000   0.82869959   -4.3512704    651.09412  0.051138401  0.051533639            6 
 1062000   0.82428878   -4.3618914    653.67528  0.051292787  0.051507759            7 
 1063000   0.83240981   -4.3475745    653.58913   0.05123778  0.051481651            4 
 1064000   0.83368684   -4.3725772    654.75478  0.051280919  0.051455999            3 
 1065000   0.81636825   -4.3509463    653.80739  0.051158637  0.051430006            4 
 1066000    0.8165668   -4.3678029    652.26061  0.050989728   0.05140416            3 
 1067000   0.85517029   -4.3575379    653.51144  0.051039631  0.051377921            5 
 1068000   0.84523324   -4.3612026    653.68885  0.051005684  0.051351506            4 
 1069000   0.82564968   -4.3481329     653.5859  0.050949945  0.051325243            4 
 1070000   0.85161842   -4.3874576    652.71438  0.050834454  0.051299068            9 
 1071000   0.82780329    -4.370234    654.76811  0.050946787  0.051272528            4 
 1072000   0.81803938   -4.3773182    655.28342   0.05093932  0.051246124            5 
 1073000   0.83068761   -4.3841117    657.10276  0.051033144  0.051219811            4 
 1074000   0.85466135   -4.3727974    654.83223  0.050809453  0.051193671            7 
 1075000    0.8293168   -4.3569886    656.85706  0.050919152  0.051167774            5 
 1076000   0.83171523   -4.3487066    657.80941  0.050945586   0.05114177            6 
 1077000   0.81809031   -4.3587835    658.38182  0.050942573  0.051115631            5 
 1078000   0.81188312   -4.3689162    660.77496  0.051080316  0.051089517            2 
 1079000   0.82717528   -4.3624565    656.65071  0.050714451  0.051063348            6 
 1080000   0.83630532   -4.3877106    656.97963  0.050692873  0.051037024            4 
 1081000   0.80950954   -4.3999694    659.30845  0.050825505  0.051010795           11 
 1082000   0.82374685   -4.3660018    660.17321  0.050845133   0.05098473            6 
 1083000    0.8295912   -4.3568558    659.88117  0.050775714  0.050958966            5 
 1084000   0.82745911   -4.3679231    658.59346  0.050629878  0.050933076            2 
 1085000   0.81732192   -4.3781082     659.8829   0.05068225  0.050907126            8 
 1086000   0.81697074   -4.3753084    660.30493  0.050667966  0.050881037            5 
 1087000   0.85787149   -4.3901836    660.31642  0.050622234  0.050855163            5 
 1088000   0.83212469   -4.3936425    660.71621  0.050606328  0.050829283            4 
 1089000   0.84095616   -4.3523508    662.29333  0.050680542  0.050803411            4 
 1090000    0.8032914   -4.3573886    664.16906  0.050777451  0.050777369            5 
 1091000   0.81581241   -4.3634674    660.63934    0.0504613  0.050751515            3 
 1092000   0.81931898   -4.3837658    662.18449  0.050533004  0.050725329            3 
 1093000   0.82352082   -4.3664077    662.04896  0.050476438   0.05069902            4 
 1094000   0.80613432   -4.3912531    662.80427  0.050487833  0.050673161            7 
 1095000   0.81058534   -4.3507565    662.30107   0.05040343   0.05064725            9 
 1096000   0.82924379   -4.4075701    661.84104  0.050322463   0.05062078            9 
 1097000   0.83518623   -4.3707105    662.35497  0.050315631   0.05059448            4 
 1098000   0.82643311   -4.4066005    661.68866  0.050219237  0.050568276            3 
 1099000   0.81450769   -4.3880051     662.5753  0.050240772  0.050541539            4 
 1100000   0.82131552   -4.3760131    662.74975  0.050208314  0.050515514            3 
 1101000    0.8197564   -4.3656172    664.00749  0.050257909  0.050489054            4 
 1102000   0.80306512   -4.4103017    664.06022   0.05021629  0.050462475            7 
 1103000   0.81259004   -4.3796353    663.04634  0.050094163  0.050435721            7 
 1104000   0.81408298   -4.3886763    660.71201  0.049872585  0.050409094            3 
 1105000   0.81183367   -4.4242116    664.25453   0.05009461  0.050382452            4 
 1106000   0.81332673   -4.3991726    663.13603  0.049965041   0.05035609            4 
 1107000    0.8134293   -4.3896044    664.52799  0.050024691  0.050329697            5 
 1108000   0.83126752   -4.3786572    664.33269  0.049964854  0.050303281            3 
 1109000    0.7970275   -4.4007342    663.47953   0.04985569  0.050276969            7 
 1110000   0.81165671   -4.3664502    665.85503  0.049989116  0.050250554            4 
 1111000   0.81916669    -4.383048    666.23304  0.049972476  0.050224192            9 
 1112000   0.80756784   -4.3812387    666.92594  0.049979462  0.050197811           10 
 1113000   0.80687175   -4.4045357     666.9212  0.049934202  0.050171744            2 
 1114000   0.80001615   -4.3939068    666.67283  0.049870798  0.050145408            3 
 1115000   0.79903237   -4.3710794    669.83575  0.050062462  0.050119583            5 
 1116000   0.81222736   -4.4279712    666.10796  0.049739244  0.050093455            6 
 1117000   0.80614207   -4.4034754    667.36508  0.049788502  0.050067222            5 
 1118000   0.80453367   -4.3833994    668.55873   0.04983294  0.050041094            7 
 1119000   0.80713557   -4.4154784    667.56697   0.04971455  0.050014807            5 
 1120000   0.81655948   -4.4031373     666.6277  0.049600275  0.049988278            6 
 1121000     0.803369   -4.4018829    669.74665  0.049787887  0.049961728            3 
 1122000   0.78659226   -4.4041825    668.18014  0.049627164  0.049935362            7 
 1123000   0.81373305   -4.3943658    669.46835  0.049678565  0.049908941            6 
 1124000   0.80418614   -4.3957035    668.72079  0.049578944  0.049882444           11 
 1125000   0.81193568   -4.3920807    669.63476  0.049602575  0.049856049            6 
 1126000   0.81339578   -4.3861577    671.74544  0.049714731  0.049830103            5 
 1127000   0.80844852   -4.4050173    673.16406  0.049775514  0.049804245            9 
 1128000   0.79204811   -4.4123652    670.36168  0.049524356  0.049778139            6 
 1129000   0.80284245   -4.4097888     673.7315  0.049729222  0.049752639            6 
 1130000   0.80888285   -4.3901671    673.07216   0.04963659  0.049727068           10 
 1131000   0.79900589   -4.4148919    673.82348  0.049648061  0.049701489           15 
 1132000   0.80345828   -4.3871493    672.50761  0.049507333  0.049676093            6 
 1133000   0.80144381   -4.3861003    673.31671  0.049523147  0.049650353            4 
 1134000   0.79072226   -4.4570829    672.18332  0.049396188  0.049624317            4 
 1135000   0.80737299   -4.4086806    673.23551   0.04942992  0.049598477            5 
 1136000   0.79145364   -4.3933273    674.87878  0.049506953  0.049573092            7 
 1137000   0.79462278   -4.3953529    672.54971  0.049292708  0.049547551            4 
 1138000   0.80187921   -4.3997576    675.82487  0.049489226  0.049522203            6 
 1139000    0.7913999   -4.4154147    674.65885  0.049360466  0.049496773            4 
 1140000   0.78545498    -4.407723    674.83415  0.049329982  0.049471235            4 
 1141000   0.78126973   -4.4101289    677.39235  0.049473587  0.049445759            4 
 1142000   0.80414952   -4.4135309    675.59834  0.049299354  0.049420118            8 
 1143000   0.79520015   -4.4352849    674.80159  0.049198133  0.049394237            7 
 1144000   0.79911457   -4.4015958    676.19531  0.049256651  0.049368499            9 
 1145000   0.78554511    -4.422235    677.04924  0.049275782  0.049342955            5 
 1146000    0.7780127    -4.409287    677.64868  0.049276373  0.049317419            8 
 1147000    0.7873481   -4.3909613    676.26521  0.049132898  0.049292033            3 
 1148000   0.79310742   -4.3995322    676.00777  0.049071412  0.049266532            4 
 1149000   0.78360819   -4.4166547    675.74989  0.049010001  0.049241054            3 
 1150000    0.7984474   -4.4266717    677.06085   0.04906238  0.049215476            7 
 1151000   0.78540687   -4.4250097    679.21973  0.049176059  0.049190253            6 
 1152000   0.79324523     -4.42203    677.38439  0.049000607   0.04916483            8 
 1153000   0.78802338   -4.4308087    679.23882  0.049092138  0.049139278            6 
 1154000   0.79480567   -4.3934966    680.66174   0.04915235  0.049113953            4 
 1155000   0.78564675   -4.4165401    680.59814  0.049105205  0.049088664            6 
 1156000   0.78535411   -4.4654426    676.40568  0.048760502  0.049062738            5 
 1157000   0.79496438   -4.4249939    681.37779  0.049076476  0.049036804            3 
 1158000   0.79622604   -4.4311116    680.60227  0.048978286  0.049011411            6 
 1159000   0.77702627   -4.4125167    679.68503  0.048870077   0.04898611            5 
 1160000   0.78972662   -4.4264675    681.28113   0.04894261  0.048960746            9 
 1161000   0.78155856   -4.3968617     681.8841  0.048943734  0.048935328            5 
 1162000   0.80097451   -4.3953675    681.84882  0.048899084  0.048909964            3 
 1163000   0.78731609   -4.4182518    684.01194  0.049012033  0.048884425            4 
 1164000   0.80676336   -4.4183463    681.50756  0.048790633  0.048859262            5 
 1165000   0.78860654   -4.4463519    681.21472  0.048727805  0.048833848            4 
 1166000     0.805399   -4.4423207    681.51198   0.04870726  0.048808189            5 
 1167000   0.79384871   -4.4432082    681.90348  0.048693479  0.048782874            4 
 1168000   0.78220888   -4.4345762     680.6096  0.048559475   0.04875741            5 
 1169000   0.81345585    -4.423691    681.88094  0.048608564  0.048732117            8 
 1170000   0.77647871   -4.4520458    683.69728  0.048696387  0.048706621            4 
 1171000   0.78583942   -4.4402239    685.41205  0.048776832  0.048681312           11 
 1172000   0.78530265   -4.4152497    684.38166   0.04866195  0.048655945            3 
 1173000   0.77067023   -4.4165764     683.8417  0.048582104  0.048630569            7 
 1174000   0.79461879   -4.4531963    682.80053  0.048466818   0.04860521            8 
 1175000   0.77941228   -4.4447647    683.56542  0.048479817  0.048579879            5 
 1176000   0.79401826   -4.4462121    685.85427  0.048600784  0.048554609            6 
 1177000   0.78757806   -4.4619915    683.67231  0.048405006  0.048529509            9 
 1178000   0.78686465    -4.425638    686.81911  0.048586525   0.04850447            4 
 1179000   0.80161149   -4.4457188    684.97265  0.048414804  0.048479451            5 
 1180000   0.77268403    -4.450153    684.04312   0.04830813  0.048454209           10 
 1181000   0.80494413   -4.4554387    684.74779  0.048316948  0.048429015            4 
 1182000    0.7788704   -4.4187278    686.97214  0.048432892  0.048403789            6 
 1183000   0.78221417   -4.4679037    684.41715  0.048211972  0.048378369            3 
 1184000   0.79547608   -4.4282829    685.19629   0.04822609  0.048352882            8 
 1185000   0.78067915   -4.4553542    686.62254  0.048285692  0.048327381            4 
 1186000   0.77531346   -4.4429153    685.82408  0.048188876  0.048301958            4 
 1187000   0.78562695    -4.441977    685.09155  0.048096851  0.048276365            9 
 1188000   0.78689518   -4.4401385    686.78146  0.048174906  0.048250567            8 
 1189000   0.77424745   -4.4506036    686.45268  0.048111346  0.048224798            3 
 1190000   0.77636878   -4.4601361    686.79424  0.048094835  0.048198773            3 
 1191000   0.78494617   -4.4529486    685.38698  0.047955988  0.048172981           14 
 1192000   0.77679149   -4.4371705    687.71642  0.048078609  0.048147091            4 
 1193000   0.77973649   -4.4497717    686.14101  0.047928263  0.048121244            3 
 1194000   0.78508036   -4.4681904    687.51087  0.047983729  0.048095345            4 
 1195000   0.76020093   -4.4453906    687.55066   0.04794635  0.048069726            5 
 1196000   0.76936421   -4.4558345    685.62421  0.047772032  0.048043716            7 
 1197000   0.78737678   -4.4567613     686.7838  0.047812852  0.048017639           11 
 1198000   0.77062131   -4.4402921    688.17598  0.047869781  0.047991866            7 
 1199000   0.76336256   -4.4442545    688.20302  0.047831736  0.047966203            5 
 1200000    0.7683002    -4.460325    688.15961  0.047788862  0.047940292            6 
 1201000   0.77847944   -4.4765899    689.40004   0.04783514  0.047914278            4 
 1202000   0.74355285   -4.4732455    687.78291   0.04768323  0.047888424            6 
 1203000     0.765227   -4.4548067    690.09399  0.047803685  0.047862629            4 
 1204000   0.76682576   -4.4554099    688.85338  0.047678113  0.047837079            3 
 1205000    0.7562121   -4.4558558    687.90164  0.047572728  0.047811096            7 
 1206000   0.76769382   -4.4625688    691.05332  0.047751059  0.047785291           12 
 1207000   0.77949716    -4.424865    691.23156  0.047723803   0.04775962            4 
 1208000   0.77303145   -4.4620077    689.04204  0.047533253  0.047734079            8 
 1209000   0.76717006   -4.4867556    689.81732  0.047547375  0.047708405            4 
 1210000   0.76087652   -4.4722198    689.88551  0.047512776  0.047682628            4 
 1211000   0.78224979    -4.472986    689.48285  0.047445833  0.047656701            5 
 1212000   0.77559076   -4.4586892     690.4584  0.047473762  0.047630998           10 
 1213000   0.76481471    -4.471519    691.67819  0.047518424  0.047605401            5 
 1214000    0.7812891   -4.4556967    691.63516  0.047476329  0.047579588            4 
 1215000   0.77455246    -4.463015     692.3028  0.047483045  0.047553919            4 
 1216000   0.79490146   -4.4530347     692.1032  0.047430318   0.04752795            3 
 1217000   0.78317598   -4.4436985    690.89393  0.047308541  0.047501776            8 
 1218000   0.75883698   -4.4515219    692.06053  0.047349516  0.047475795            7 
 1219000   0.77322076   -4.4723797    691.04019  0.047240921  0.047449604            7 
 1220000   0.77558618   -4.4868065    693.22508   0.04735144  0.047423524           13 
 1221000   0.75697959   -4.4886047    691.54372  0.047197906  0.047397253            4 
 1222000   0.77705293   -4.4532036    691.55997  0.047160391  0.047371102            6 
 1223000   0.77028075   -4.4615251    692.04783  0.047155072  0.047345129            3 
 1224000   0.75874187    -4.467534    692.85701  0.047171638  0.047319294            2 
 1225000   0.76501598   -4.4857272    692.01535  0.047075874    0.0472933            8 
 1226000   0.75712046   -4.4832737    693.71325  0.047152885  0.047267324            6 
 1227000   0.76151679   -4.4810521    695.46763  0.047233607   0.04724144            5 
 1228000   0.77985234   -4.4780434    695.32561  0.047185506  0.047215711            4 
 1229000   0.77254077   -4.4845366    694.28035  0.047076237  0.047190082            6 
 1230000   0.76545309    -4.507052     693.1659  0.046962459  0.047164455            3 
 1231000   0.75250872   -4.4710497      695.363  0.047073044   0.04713872            3 
 1232000   0.77726244   -4.4635367    695.57625  0.047049259  0.047113263            9 
 1233000   0.78191215   -4.4674196     698.3065  0.047195627  0.047087884            4 
 1234000   0.77093434   -4.4908149    696.02069  0.047003018  0.047062347            5 
 1235000   0.75193022   -4.4648114    696.03767  0.046966105  0.047036821            7 
 1236000   0.74883829   -4.4817585    695.57815  0.046897124  0.047011316           10 
 1237000    0.7429076   -4.4597021    696.46719  0.046919105  0.046985572            3 
 1238000   0.77161933   -4.4987107    695.17293  0.046794085  0.046959621            5 
 1239000   0.76535023   -4.4761223    694.89425  0.046737574  0.046933678           10 
 1240000   0.74925734    -4.526378    695.45535  0.046737591  0.046907494            6 
 1241000    0.7584143   -4.4830381    697.26983  0.046821772  0.046881367            5 
 1242000   0.77057366    -4.495815    693.71493  0.046545553  0.046855188            6 
 1243000   0.75594372   -4.5020437    694.65849  0.046571366  0.046828729           12 
 1244000   0.76073045   -4.4670246    695.18791  0.046569394  0.046802726            5 
 1245000   0.75476894   -4.4660732    696.68053  0.046631896  0.046776869           21 
 1246000   0.76661437   -4.4895401     697.9334  0.046678264  0.046751106           10 
 1247000   0.75889402   -4.5137279    697.06365  0.046582708  0.046725005            6 
 1248000   0.74904651   -4.5064408    696.64699  0.046517561   0.04669914            6 
 1249000   0.75297522   -4.4980824    698.18498  0.046582931  0.046673309            6 
 1250000   0.74029191   -4.4827334    697.11058  0.046474038  0.046647406            8 
 1251000   0.76268094   -4.5000331    697.42313  0.046457709  0.046621587            3 
 1252000    0.7691509   -4.5252973    697.72304  0.046440565  0.046595823            5 
 1253000    0.7542983   -4.5064805    696.76772  0.046339966  0.046570105            4 
 1254000   0.75684068   -4.4898528    697.88457  0.046377231   0.04654415            3 
 1255000   0.73686578   -4.4840197    699.77749  0.046465969  0.046518462            6 
 1256000   0.74339864   -4.5231359    696.68425  0.046223742  0.046492439           14 
 1257000   0.73196655    -4.503669    698.62516  0.046315643   0.04646626            4 
 1258000   0.74277565   -4.4963438    699.42517  0.046331821  0.046440277            4 
 1259000   0.73308274   -4.4930032    698.47787  0.046232319  0.046414349            7 
 1260000   0.73473466   -4.4836316    700.40032  0.046322772  0.046388312            9 
 1261000    0.7631158   -4.5024797    696.26191   0.04601255  0.046362373            8 
 1262000    0.7577944   -4.5104811    698.27301  0.046108889    0.0463367            9 
 1263000   0.74893078   -4.5184734    698.82442  0.046108763  0.046311072           11 
 1264000   0.75318579    -4.507765    701.50337  0.046248904  0.046285295            3 
 1265000   0.74055769    -4.498517    699.28762  0.046066378  0.046259618            3 
 1266000    0.7414164   -4.4891638     702.4857  0.046240501  0.046234095            6 
 1267000   0.72639162   -4.4925138    703.61293  0.046278146  0.046208576            4 
 1268000   0.73908068   -4.5393169    701.20097  0.046083134  0.046182981            7 
 1269000   0.73140637   -4.4819231    701.87895  0.046091342   0.04615749           17 
 1270000   0.75412875   -4.5289452    702.28639  0.046081784  0.046131955            8 
 1271000    0.7595863   -4.5097638    702.17245  0.046038057  0.046106674            5 
 1272000   0.74350742   -4.5120432    701.67174  0.045969061  0.046081261            4 
 1273000   0.73941571   -4.4995956    703.62842  0.046061038  0.046055853            5 
 1274000   0.74312491   -4.5287427     702.4704  0.045949137  0.046030459           23 
 1275000   0.75137715   -4.5238767    703.41114  0.045974584  0.046004934           15 
 1276000   0.75232891     -4.48184     705.5985  0.046081406  0.045979913            8 
 1277000     0.736972    -4.505106    705.66598  0.046049724  0.045954985            6 
 1278000   0.73668596   -4.5385201    706.22214  0.046049957  0.045930033            7 
 1279000   0.74332393   -4.5088848    704.03429  0.045871403   0.04590518            7 
 1280000   0.74229217   -4.5132889    708.01212  0.046094539  0.045879955            4 
 1281000   0.72406529   -4.5209649     705.3651  0.045886358  0.045854736            4 
 1282000   0.73373161   -4.5008527    706.80767  0.045944337  0.045829873            5 
 1283000   0.74662601   -4.5208492    703.48437  0.045692672   0.04580466            6 
 1284000   0.74411379   -4.5337607    703.84571  0.045680537  0.045779168            7 
 1285000   0.74022834   -4.5177715    706.04488  0.045787606  0.045753933            4 
 1286000   0.75371464   -4.5030106    705.09892  0.045690702  0.045728533            4 
 1287000   0.73801684   -4.5041518    705.48077  0.045679925  0.045703482            6 
 1288000   0.73201131   -4.5087431    708.19518  0.045820082  0.045678226            7 
 1289000   0.75932286   -4.4828999     705.9436  0.045638971  0.045653015            3 
 1290000   0.72617411   -4.5263077    705.57139  0.045579547   0.04562755           10 
 1291000   0.73475644   -4.5597406    705.81689  0.045560088  0.045601885            4 
 1292000   0.73620355   -4.5474607    707.14356  0.045610395  0.045576391            4 
 1293000   0.72255609   -4.5378456    706.90639  0.045559835  0.045550955            3 
 1294000   0.73049528   -4.5425887    703.56202  0.045309249  0.045525203            6 
 1295000   0.74452554   -4.5214443    704.20482  0.045315625  0.045499487            3 
 1296000   0.74470355    -4.512991    705.70277  0.045376978  0.045473725            5 
 1297000   0.73749629    -4.515527    707.55192  0.045460802  0.045448091            2 
 1298000   0.73797321   -4.5019151    707.03622  0.045392669  0.045422387            6 
 1299000   0.72092272   -4.5279514     706.9511  0.045352265  0.045396921           10 
 1300000   0.72689006   -4.5418541    705.51909  0.045225582  0.045371196            6 
 1301000   0.71373574   -4.5477494    706.48834  0.045252904  0.045345343            5 
 1302000   0.73557496   -4.5244829    708.23863  0.045330173   0.04531973            5 
 1303000   0.73803207   -4.5082393    709.88397  0.045400612   0.04529423           11 
 1304000   0.73178501   -4.5482623    705.98198  0.045116435  0.045268516            9 
 1305000   0.74008511   -4.5285844    708.05745  0.045214397  0.045242934            5 
 1306000   0.73966704   -4.5576278     705.6857  0.045028439  0.045217277            9 
 1307000   0.74589427   -4.5679027    706.85598  0.045068604  0.045191777            7 
 1308000   0.72941083   -4.5547506    708.37612  0.045130997  0.045166058            4 
 1309000   0.72223433   -4.5378434     706.8915  0.045002006  0.045140351            5 
 1310000   0.73329253   -4.5223409    707.80372  0.045025682  0.045114583            4 
 1311000   0.72183461   -4.5483018    708.02064  0.045005126  0.045088763            2 
 1312000   0.72795871   -4.5465308    706.74387  0.044889728  0.045063091           13 
 1313000   0.71997725   -4.5647581    709.75687  0.045046768  0.045037422           10 
 1314000   0.73105626   -4.5572215    709.34144  0.044986139  0.045011602            4 
 1315000   0.72589364   -4.5373376    709.38418  0.044954637  0.044985988           14 
 1316000     0.718956   -4.5254919     706.0725  0.044710771  0.044960073            5 
 1317000   0.74344961   -4.5546542    709.63416  0.044902187  0.044933865            7 
 1318000   0.72698129   -4.5316418    709.75394  0.044875691  0.044907918            8 
 1319000   0.73001389   -4.5355725    708.36293  0.044753786  0.044881942            6 
 1320000   0.72933264   -4.5519387    706.66236  0.044612523  0.044855981            6 
 1321000   0.74513979   -4.5591924    707.98266   0.04466204  0.044829739            9 
 1322000   0.71326212   -4.5453746    706.48748  0.044534007   0.04480334            6 
 1323000    0.7359547   -4.5637864    707.17869  0.044543883  0.044777023            3 
 1324000   0.70898427   -4.5534098    706.92384  0.044494199  0.044750843            9 
 1325000   0.73853003   -4.5428117    708.09707  0.044534407  0.044724653            9 
 1326000   0.73283116   -4.5444772    708.09361  0.044500604  0.044698515            6 
 1327000   0.73507214   -4.5376799    710.61832  0.044625617  0.044672526            6 
 1328000   0.71548896   -4.5584078    708.72848  0.044473423  0.044646576            9 
 1329000   0.72269446   -4.5669364     709.7786  0.044505806  0.044620466            6 
 1330000   0.70565204   -4.5720959      707.637  0.044338158   0.04459436            5 
 1331000   0.73063709   -4.5565114     707.8447   0.04431785  0.044568043            8 
 1332000   0.72187737   -4.5494441    708.02508  0.044295863   0.04454198            6 
 1333000   0.71428839   -4.5522184    711.50569  0.044480226  0.044515984            5 
 1334000   0.71217447   -4.5455635      711.401  0.044440342   0.04448985           10 
 1335000   0.71693854   -4.5488505    710.91445  0.044376682  0.044464059            6 
 1336000   0.70895462   -4.5395338    712.26713   0.04442784    0.0444384           10 
 1337000   0.72569421   -4.5745019    709.49118  0.044221589  0.044412621            8 
 1338000   0.71518882    -4.573379    709.92775  0.044215729  0.044386878            8 
 1339000    0.7158275   -4.5695372     711.3227  0.044269523  0.044361133           11 
 1340000    0.7240473   -4.5358574    710.41105  0.044179791  0.044335725            5 
 1341000   0.72150657   -4.5580291    709.44143  0.044086591  0.044309775            3 
 1342000   0.70261136   -4.5379392    712.53017  0.044245539  0.044284075            6 
 1343000   0.72210576   -4.5576053    712.01282  0.044180493  0.044258428           11 
 1344000   0.71954638     -4.59837    710.84793  0.044075392  0.044232817            9 
 1345000   0.71502685   -4.5645558    711.47089   0.04408122  0.044206777           14 
 1346000   0.70693212   -4.5664576    710.94941  0.044016184   0.04418075            8 
 1347000   0.71052102   -4.5724325    712.54188  0.044082027  0.044154962            6 
 1348000   0.71555459   -4.5501077    710.71982  0.043936685   0.04412937            3 
 1349000   0.71167522   -4.5608502     713.3113  0.044064202  0.044103723            5 
 1350000   0.72973223   -4.5436239    713.78006  0.044060498   0.04407812            6 
 1351000   0.72646426   -4.5706834    713.36828  0.044002485  0.044052419            9 
 1352000   0.70946529   -4.5674279    713.66133  0.043988001    0.0440266            7 
 1353000   0.72871884   -4.5838272    712.79195  0.043901943  0.044000841           10 
 1354000   0.70500026   -4.5795954    714.71112  0.043987637  0.043975304            3 
 1355000    0.7065428   -4.5932344    713.98834  0.043910722  0.043949799            7 
 1356000   0.70745462   -4.6133928    711.32676  0.043714771  0.043924289            6 
 1357000   0.73046752   -4.5876537    715.16747  0.043918415  0.043898656            7 
 1358000   0.71878313   -4.5810453    715.49317  0.043906061  0.043873273            6 
 1359000   0.71897566    -4.573982    716.20636  0.043917486  0.043847883            5 
 1360000   0.70843844   -4.5901923    717.41401  0.043959192  0.043822481            6 
 1361000   0.71545811   -4.5704652    715.95132  0.043837333  0.043797196           11 
 1362000   0.71874996   -4.6016794    714.47082  0.043714563  0.043771954           11 
 1363000   0.71170349   -4.5826036    717.36172  0.043859239  0.043746452            4 
 1364000   0.72271572    -4.592922    714.70801  0.043664956  0.043721056           16 
 1365000   0.72684866   -4.5776725    715.23985  0.043665437  0.043695864            6 
 1366000   0.70451949   -4.5691941    718.29349  0.043819759  0.043670609           10 
 1367000   0.70179338   -4.5884928    715.21604    0.0436001  0.043645079            9 
 1368000    0.6998432   -4.5937116    715.38002  0.043578217  0.043619506            4 
 1369000   0.70915362    -4.573433    716.47513  0.043613047  0.043594201           11 
 1370000   0.72038337    -4.579093    713.27606  0.043386622  0.043568883            5 
 1371000   0.69718769   -4.5797087     717.5402  0.043614162   0.04354348           11 
 1372000   0.71652468   -4.5678443    717.55288  0.043583144  0.043518223            7 
 1373000     0.712081   -4.5893342    717.02784  0.043519534  0.043492918            7 
 1374000   0.69874579   -4.5659149    716.85472  0.043477361  0.043467471           10 
 1375000   0.69173105   -4.5823782     719.1046  0.043582097  0.043442095           27 
 1376000   0.70085967   -4.5897887    717.51728  0.043454293  0.043416536            5 
 1377000   0.68407547    -4.605412    715.55949  0.043304254  0.043391209            5 
 1378000   0.69676559   -4.5990091    717.54131  0.043392677   0.04336565            6 
 1379000   0.70758986   -4.6050269    719.14686  0.043458234  0.043340269            8 
 1380000   0.71028361   -4.6059713    717.18986  0.043308567  0.043314891            8 
 1381000   0.69423534   -4.5796196    718.54624  0.043359054  0.043289609            7 
 1382000   0.70048862   -4.5870123    720.05318  0.043418547  0.043264631            8 
 1383000   0.69549658   -4.6216382     718.9564  0.043321065  0.043239539            5 
 1384000   0.68684803     -4.58931     720.5302  0.043384526  0.043214464           13 
 1385000    0.7025019   -4.5934592    719.40072  0.043285242  0.043189512            8 
 1386000   0.71865244   -4.5957804     720.7881  0.043337428  0.043164522            8 
 1387000    0.6793788   -4.5884446    719.05109   0.04320182  0.043139637            4 
 1388000   0.69726852   -4.6131385    719.95461  0.043224941  0.043114593            6 
 1389000   0.69366756    -4.594323    719.31856  0.043155661   0.04308952           10 
 1390000   0.70973592   -4.6024723    720.79204  0.043212952  0.043064383           14 
 1391000   0.70187002   -4.6027999    721.48106  0.043223164  0.043039427            8 
 1392000   0.69818902   -4.6415633    719.72499  0.043086984  0.043014509            6 
 1393000   0.69404014   -4.6079709    720.50425  0.043102671   0.04298943            7 
 1394000   0.69602036   -4.5988678    720.50081  0.043071545  0.042964489           10 
 1395000   0.69465121   -4.5811274     719.8516  0.043001888  0.042939755            4 
 1396000   0.69748177   -4.6168702    719.46072  0.042947751  0.042914839            5 
 1397000   0.67884536   -4.6047433    720.89006  0.043002271  0.042889982            9 
 1398000   0.70917211    -4.623618    718.71526  0.042841873  0.042865172           15 
 1399000   0.69981273   -4.6001906    720.14945  0.042896679  0.042840051            6 
 1400000   0.68412295   -4.6142778    721.84138  0.042966749  0.042815097            7 
 1401000   0.69351951   -4.6116439    721.40401  0.042910065  0.042789867           10 
 1402000   0.70429974   -4.5819944    722.37317  0.042937064  0.042764803            7 
 1403000   0.71227749   -4.6148889    721.72784   0.04286813   0.04273994            4 
 1404000   0.68946668   -4.6048438    721.72379  0.042837357  0.042714989           11 
 1405000   0.69884561   -4.6280046    721.39834  0.042787565  0.042689943           11 
 1406000   0.70002674   -4.6024441    720.96028  0.042731169  0.042664586           11 
 1407000   0.68229401   -4.6168966    721.62763  0.042740324  0.042639375           15 
 1408000   0.68251759   -4.5961565    722.98259  0.042790163   0.04261446            7 
 1409000   0.70359343    -4.617952    720.70041  0.042624817  0.042589189            8 
 1410000   0.71403181   -4.6038822     722.2579  0.042686637  0.042564026            7 
 1411000   0.69290622   -4.6205097    720.50752  0.042553007  0.042538954            7 
 1412000   0.68782773    -4.617532    721.21255   0.04256448  0.042513855            6 
 1413000   0.70514678   -4.6516846    721.56147  0.042554934  0.042488754            9 
 1414000   0.67539979   -4.6149615    720.66035  0.042471732  0.042463631           15 
 1415000   0.69544129   -4.6254817    721.98391  0.042519665  0.042438613            8 
 1416000   0.69414049   -4.6258661    723.39266  0.042572544  0.042413615            5 
 1417000   0.69743113   -4.6352193    721.59049  0.042436515  0.042388425           13 
 1418000   0.68336978   -4.6526812    721.13477  0.042379805  0.042363462           11 
 1419000   0.68602567    -4.609685    724.79011  0.042564606  0.042338539           10 
 1420000   0.66800413   -4.6197876    723.85274  0.042479621  0.042313659            8 
 1421000   0.66579835   -4.6349613    723.55319   0.04243216  0.042288846            6 
 1422000   0.67740702    -4.627929    725.36999   0.04250879  0.042263923           12 
 1423000   0.69072618   -4.6366052    723.08051  0.042344841  0.042239272           13 
 1424000   0.69049627   -4.6224727     723.6285  0.042347173  0.042214757            4 
 1425000   0.69439758   -4.6541355    726.50498  0.042485671  0.042190277            7 
 1426000   0.67677163   -4.6085428    726.29165  0.042443411  0.042165879           11 
 1427000   0.69671696   -4.6280566     725.0938  0.042343716  0.042141328           17 
 1428000   0.67861727   -4.6481311    727.52996   0.04245623  0.042116702            9 
 1429000   0.67984233   -4.6366267    726.02606  0.042338819  0.042092063           13 
 1430000   0.68456374   -4.6363657    724.65465  0.042229292  0.042067436            9 
 1431000   0.67603022   -4.6319409    727.45001  0.042362568  0.042042743           10 
 1432000    0.6863238   -4.6439554    726.03963  0.042250909  0.042018101            5 
 1433000   0.68361513   -4.6482124    724.62303  0.042139045  0.041993636           13 
 1434000   0.67355682    -4.607531    726.21287   0.04220205  0.041969129           14 
 1435000   0.68986447   -4.6238695    724.38378  0.042066421  0.041944629            7 
 1436000   0.68022502   -4.6311077    725.06878  0.042076879  0.041920023            5 
 1437000   0.68603456   -4.6582896    725.18995  0.042054625  0.041895219            8 
 1438000   0.67115662   -4.6436637    726.30787  0.042090164  0.041870713            3 
 1439000   0.68835059   -4.6449846    724.72033  0.041968979  0.041846229            5 
 1440000   0.68630358   -4.6461473    726.21148  0.042026128  0.041821672           12 
 1441000   0.67385575    -4.627234    724.73394  0.041911516  0.041796954           15 
 1442000    0.6671296   -4.6568323    726.17484  0.041965721  0.041772233            5 
 1443000   0.67586356   -4.6385379    727.32118   0.04200284  0.041747658           10 
 1444000   0.67562128   -4.6399722    727.72227  0.041996899  0.041723207           10 
 1445000   0.69063803   -4.6378163    726.88719  0.041919677  0.041698702            4 
 1446000   0.66553371   -4.6491989    723.98615  0.041723499  0.041674119           17 
 1447000   0.67961559   -4.6449353    728.42578  0.041950344  0.041649542            9 
 1448000   0.67953027    -4.634738     726.8474  0.041830536  0.041625012            8 
 1449000   0.66542637   -4.6388775    726.56393  0.041785365  0.041600405            9 
 1450000   0.66496675   -4.6406311    728.34205  0.041858738  0.041575821            8 
 1451000   0.67989005   -4.6609074      727.498  0.041781415  0.041551426            8 
 1452000    0.6706747   -4.6301466    726.30972  0.041684442  0.041526954            7 
 1453000   0.68468985   -4.6576362    726.53301   0.04166856  0.041502364            5 
 1454000   0.67954274    -4.645277    727.42085  0.041690787  0.041477698            8 
 1455000   0.67724961    -4.663867    726.68357  0.041619907  0.041453097            8 
 1456000    0.6883461   -4.6447638    726.98495  0.041608571   0.04142851           10 
 1457000    0.6570761   -4.6417443    727.64799  0.041617936  0.041403901            3 
 1458000   0.67721677   -4.6329111    726.53143  0.041525573  0.041379457            7 
 1459000   0.66261837   -4.6609444    727.41887  0.041547799  0.041354859           10 
 1460000   0.66731378   -4.6467334     729.4189  0.041633499   0.04133045           11 
 1461000   0.65583766   -4.6546654    728.51742  0.041553583  0.041305954            6 
 1462000   0.66858942   -4.6708954    727.71018  0.041479148  0.041281358           10 
 1463000   0.67442548   -4.6850245    728.88698  0.041517828  0.041256831           15 
 1464000     0.677538   -4.6741343    726.03516  0.041327138  0.041232228           12 
 1465000   0.65009339   -4.6485155    729.70204  0.041507511  0.041207698            7 
 1466000   0.66908625   -4.6340857    729.91554  0.041491333  0.041183198           10 
 1467000   0.66996201   -4.6471442    729.01187  0.041411717  0.041158685            8 
 1468000   0.67115699   -4.6700724     727.1663  0.041278741  0.041134104           11 
 1469000   0.67764423   -4.6767766    727.62285   0.04127654  0.041109592            7 
 1470000   0.66544896   -4.6840773    727.91705  0.041265139  0.041085041            5 
 1471000   0.65925927   -4.6785561    726.99928  0.041185094  0.041060406            5 
 1472000   0.66564103    -4.671782    726.48168  0.041127813  0.041035743            9 
 1473000   0.67580805   -4.6526005    727.64455   0.04116568   0.04101114            8 
 1474000   0.65837197   -4.6806508    728.42546    0.0411819  0.040986375           10 
 1475000   0.67241809   -4.6733829    729.24332  0.041200187  0.040961658            7 
 1476000   0.65766585   -4.6785043    727.06442  0.041049256  0.040937003            5 
 1477000    0.6601649   -4.6527493    728.50128  0.041102532  0.040912365           10 
 1478000   0.67286111   -4.6846444    728.05226  0.041049406  0.040887782           10 
 1479000   0.65936149   -4.6906924    728.21461  0.041030799  0.040862895            7 
 1480000   0.65740715   -4.6799831    728.90178  0.041041767  0.040838223            4 
 1481000   0.66279192   -4.6796167    727.58161  0.040939771  0.040813538           12 
 1482000   0.65364305   -4.6908948    727.76242  0.040922313    0.0407889           12 
 1483000    0.6576467   -4.6981435    728.12822  0.040915274  0.040764277            4 
 1484000   0.65448411    -4.684883    728.66341  0.040917757  0.040739645            5 
 1485000    0.6644635   -4.6719168    729.42704  0.040933055  0.040715049            7 
 1486000   0.64356099   -4.6667102    731.97285  0.041048276  0.040690554            5 
 1487000   0.66121859   -4.6762772    729.09194  0.040859221  0.040666068            3 
 1488000   0.66118463   -4.7113742    729.81717  0.040872377  0.040641342           16 
 1489000   0.65434759   -4.6889492    729.40398  0.040821803   0.04061675            7 
 1490000   0.63872155   -4.6954378    729.02622  0.040773278  0.040592008           19 
 1491000   0.65411351   -4.6817806    728.59205  0.040721666  0.040567405           10 
 1492000   0.65412651   -4.6877922    728.57195   0.04069325  0.040542771            5 
 1493000   0.66043492   -4.6774054    729.69588  0.040728727  0.040518035            8 
 1494000   0.65890124   -4.6909965    728.92952  0.040658719  0.040493485           10 
 1495000   0.65708247   -4.6679596    730.82492  0.040737175  0.040468902            3 
 1496000    0.6716431   -4.7056029    730.76683  0.040706708  0.040444451           18 
 1497000   0.66643314   -4.7085653    729.96832  0.040635066  0.040420048           17 
 1498000   0.65448367   -4.7200448    729.11721  0.040560592  0.040395471           16 
 1499000   0.67358536   -4.6660137     732.0176  0.040694774  0.040370999            7 
 1500000   0.65796605   -4.6804017    729.36617  0.040520343   0.04034676           11 
 1501000   0.64517543   -4.6847219    730.05435  0.040531554  0.040322194           10 
 1502000   0.65697109   -4.6932368    729.53785  0.040475913  0.040297776            8 
 1503000   0.63756885   -4.6855664    731.24981  0.040543902  0.040273325           22 
 1504000    0.6599582   -4.6872693    732.36312   0.04057863  0.040248941            8 
 1505000   0.67228473   -4.6875315    732.30146  0.040548254  0.040224646            4 
 1506000   0.65443584   -4.6824538    732.46673  0.040530474  0.040200322            5 
 1507000   0.64407172   -4.6994287    731.25653  0.040436658  0.040176064           10 
 1508000   0.66159214   -4.6891932     730.7264  0.040380548  0.040151862            6 
 1509000   0.65689561   -4.7335359    728.72256  0.040243128   0.04012744            6 
 1510000   0.64511455   -4.6896072    733.52513  0.040481519  0.040102976           13 
 1511000    0.6476246   -4.7081018    729.89557  0.040254554  0.040078785            8 
 1512000   0.62604542   -4.6760864    732.19252  0.040354526  0.040054604           13 
 1513000   0.64543465   -4.7078147    731.08483  0.040266844  0.040030369            9 
 1514000    0.6542878   -4.6959094    731.41001  0.040258147  0.040005956            7 
 1515000   0.64601869   -4.7249818     731.1612  0.040217888  0.039981738            9 
 1516000   0.65101361   -4.6828619    733.14906   0.04030063  0.039957653            5 
 1517000   0.65863316   -4.6903857    731.07759  0.040160272  0.039933539            6 
 1518000   0.62989639   -4.7049287    731.74061  0.040170214  0.039909291           15 
 1519000   0.65077921   -4.6955448    732.47107  0.040183842  0.039885241           13 
 1520000   0.65042815   -4.6981067    732.14682  0.040139628   0.03986111            7 
 1521000   0.64042249    -4.723604    731.00945  0.040050923   0.03983704            9 
 1522000   0.66031198   -4.7224311     731.8728  0.040071879  0.039812938           10 
 1523000   0.65605024   -4.7067928    733.20766  0.040118607  0.039788694            3 
 1524000   0.64824093   -4.7056514    732.84673  0.040072546  0.039764587           26 
 1525000   0.64880697   -4.7489716     730.4205  0.039913689  0.039740397           23 
 1526000    0.6432395   -4.7145186    734.33082  0.040101071   0.03971629           11 
 1527000   0.64436989   -4.7195205    735.17535  0.040120899  0.039692383           13 
 1528000   0.63288657    -4.733008     733.9416  0.040027356  0.039668334           14 
 1529000   0.64555539   -4.7138948    734.47925   0.04003048  0.039644238           10 
 1530000    0.6501841   -4.7229611    733.64454  0.039958853  0.039620218            5 
 1531000   0.63717535   -4.6866175    732.77195  0.039885257  0.039596316           11 
 1532000   0.65965206   -4.6992026    736.56396   0.04006549  0.039572544           17 
 1533000   0.64969865   -4.7212831    733.72054  0.039884787  0.039548814           14 
 1534000   0.63508181   -4.7163667    736.62927  0.040016801  0.039525024           15 
 1535000    0.6441173    -4.701681    736.18342  0.039966526  0.039501209            6 
 1536000   0.63918962   -4.7206641    731.95525  0.039711114  0.039477409            9 
 1537000    0.6284918   -4.7091779    733.71333  0.039780597  0.039453538           13 
 1538000   0.63310987   -4.7262399    736.09797  0.039883939  0.039429652            7 
 1539000   0.64114829   -4.7365675    734.30113  0.039760728  0.039405748            6 
 1540000   0.65119428   -4.7113318    736.00703   0.03982722  0.039381991           10 
 1541000   0.63949011   -4.7293167    734.51733  0.039720816  0.039358129            8 
 1542000   0.64489508   -4.7310603    734.25993  0.039681146  0.039334092           14 
 1543000   0.63249983   -4.7235575    733.32519  0.039604946  0.039310138            9 
 1544000   0.64483844   -4.7498604    732.62205  0.039541345  0.039286136            7 
 1545000   0.63342296   -4.7260068    736.61386  0.039731061  0.039262497           15 
 1546000   0.62105517    -4.720305    736.12062  0.039678774  0.039238799            7 
 1547000   0.62035183   -4.7139336    735.21973  0.039604597  0.039215091            7 
 1548000   0.63625854   -4.7367931    734.41135  0.039535495  0.039191284            6 
 1549000   0.63620456   -4.7111259    733.52696  0.039462393    0.0391673           18 
 1550000   0.64655464   -4.7242139    734.27868  0.039477349  0.039143267            6 
 1551000   0.63671783   -4.7156293    735.18383  0.039500528  0.039119252            8 
 1552000   0.63546205   -4.6965413    736.33199  0.039536726  0.039095414           11 
 1553000   0.63480246   -4.7193393    734.46209   0.03941093  0.039071655            8 
 1554000   0.64268169   -4.7284436    736.77581  0.039509642  0.039047777            6 
 1555000   0.62982336   -4.7250855    734.46386  0.039360335  0.039023859            6 
 1556000   0.62616485    -4.723205    735.91835  0.039412937  0.039000102           13 
 1557000   0.62487077   -4.7392339    735.65152  0.039373342  0.038976345           14 
 1558000   0.62341373   -4.7220565    734.86508  0.039306005  0.038952498            4 
 1559000   0.63527195   -4.7300826    733.85484  0.039226793  0.038928579           25 
 1560000   0.61657328   -4.7467034    734.44197  0.039233011  0.038904785           42 
 1561000   0.64205209   -4.7596653    735.02033  0.039238754  0.038880955           10 
 1562000   0.61707104   -4.7545553    735.48882  0.039238627  0.038857105            8 
 1563000   0.63897696   -4.7650858    735.75579  0.039227756  0.038833413           22 
 1564000   0.62142503   -4.7554291    736.07319  0.039219586  0.038809584            5 
 1565000   0.63606746   -4.7168183    735.57519  0.039168008  0.038785891           10 
 1566000   0.62658999    -4.743267    735.97488  0.039164266  0.038762301           15 
 1567000   0.62053774   -4.7470273    734.99532  0.039087179  0.038738571            5 
 1568000   0.62100644   -4.7600541    737.40184  0.039190149   0.03871484            6 
 1569000   0.63431197   -4.7388488    736.07146  0.039094511  0.038691077           10 
 1570000   0.62547711   -4.7648413    736.22841  0.039077941  0.038667489           13 
 1571000   0.62349638   -4.7679122    737.19052  0.039104101  0.038643998           19 
 1572000   0.62181064   -4.7271579    736.27075  0.039030468  0.038620522            6 
 1573000   0.61857772     -4.74864    737.55224  0.039073545   0.03859691           15 
 1574000   0.63592922    -4.768895    736.44864  0.038990292  0.038573285            9 
 1575000   0.62227799    -4.770685    736.98092  0.038993699  0.038549674           15 
 1576000   0.63427988   -4.7473258    736.34741  0.038935459  0.038526035           33 
 1577000   0.62689241   -4.7596386    738.28452  0.039013133  0.038502425           24 
 1578000   0.62959546   -4.7542269    738.17388  0.038982567  0.038478888            6 
 1579000   0.62340933   -4.7669781    735.93483   0.03883971  0.038455361            9 
 1580000    0.6272852   -4.7632814    736.88177  0.038865072  0.038431786           18 
 1581000   0.62600556   -4.7758731    735.99604  0.038793803  0.038408168           26 
 1582000   0.61671768   -4.7659131    738.22016  0.038886439  0.038384671            7 
 1583000   0.61754021   -4.7528815    739.13654  0.038910115  0.038361372            8 
 1584000    0.6238635   -4.7491131    739.57639  0.038908691  0.038338081            9 
 1585000   0.61652142   -4.7695919    737.10916  0.038754425  0.038314746            9 
 1586000   0.63720323   -4.7596913    738.53863  0.038805098  0.038291414            7 
 1587000   0.61349498    -4.778819    737.19644  0.038710168  0.038268052            8 
 1588000   0.61446187   -4.7532891     739.3802  0.038800388  0.038244711           14 
 1589000   0.62080087   -4.7580477    737.25116  0.038664315  0.038221264           14 
 1590000   0.62318387   -4.7883291    739.00483  0.038731909  0.038197918           10 
 1591000   0.61894957   -4.7694388    738.60697  0.038686726   0.03817461            4 
 1592000   0.62400616    -4.769861    738.04812  0.038633172  0.038151258           12 
 1593000   0.62097325   -4.7668385    738.59455  0.038637505  0.038128015            7 
 1594000   0.60922177   -4.7692505    738.21961  0.038593664  0.038104728           11 
 1595000   0.61577009    -4.772575    738.13744  0.038565174  0.038081496           27 
 1596000   0.61076078   -4.7914818    738.76553  0.038573806  0.038058203           16 
 1597000   0.61849453   -4.7775527    739.89895  0.038608795  0.038034957            6 
 1598000   0.61298481   -4.7936058    739.36943  0.038557021  0.038011873           13 
 1599000   0.60678717   -4.7617112    739.60195  0.038545026  0.037988609           28 
 1600000   0.60407704   -4.7658372    737.98827  0.038436889  0.037965379           19 
 1601000   0.62282508   -4.7876514    739.13389  0.038472511  0.037942035            7 
 1602000   0.61657653   -4.8029338    738.44668  0.038412749  0.037918647           10 
 1603000   0.62023565   -4.7884908    736.13754  0.038268743  0.037895078           10 
 1604000   0.61162169   -4.7706447    739.11242   0.03839944  0.037871609            6 
 1605000   0.60174917    -4.783036    739.52566  0.038396971  0.037848431            8 
 1606000   0.61808262    -4.804165    738.79423  0.038335109  0.037825094           14 
 1607000    0.6093686   -4.7974583    738.38731  0.038290153  0.037801648            7 
 1608000   0.60839486   -4.7861803    739.37181  0.038317361  0.037778231            9 
 1609000   0.62840439   -4.7701471    738.67678   0.03825755  0.037754872            9 
 1610000   0.61335092    -4.782433    740.25793  0.038315628  0.037731599           11 
 1611000   0.61032798   -4.7792105    739.35425  0.038245099  0.037708349           24 
 1612000   0.62478767   -4.7696527     740.1306  0.038261507  0.037685083           12 
 1613000   0.61023568   -4.7861757    739.20004  0.038189711  0.037661997           14 
 1614000   0.60054588   -4.7790474    739.15141  0.038163538  0.037638826           11 
 1615000   0.60475456   -4.7950742    741.07357   0.03823909  0.037615793            7 
 1616000   0.61174201   -4.7950564    740.56012   0.03818895  0.037592591           10 
 1617000   0.60085092    -4.783963    739.75966   0.03812408  0.037569377           15 
 1618000   0.60697127   -4.8068575    738.64547  0.038043133  0.037546174            9 
 1619000   0.59858507   -4.7669245     741.8476  0.038184456  0.037522998           15 
 1620000   0.60683336   -4.7881472    741.01845  0.038118233  0.037499834           19 
 1621000   0.60704906   -4.7834689    738.76401   0.03797882  0.037476731           11 
 1622000   0.62070451   -4.7832087     740.2831  0.038033451  0.037453618           11 
 1623000   0.59713884   -4.7900331    741.92772  0.038094461  0.037430591            5 
 1624000   0.59504775   -4.7705967    739.17081  0.037929536  0.037407573            8 
 1625000   0.60838384   -4.8196275    741.27783  0.038014248  0.037384472           14 
 1626000    0.6119736   -4.7788067    741.34099  0.037994106  0.037361379            9 
 1627000   0.58742505   -4.7891086    740.55042  0.037930261  0.037338349            9 
 1628000   0.59870178    -4.808732    742.08541  0.037985535  0.037315239            9 
 1629000   0.62658906   -4.8031562    739.59492  0.037834813  0.037292212            7 
 1630000   0.59643282   -4.7843851    740.57636  0.037861777  0.037269344            7 
 1631000   0.62427315   -4.7922654    741.83116  0.037902675  0.037246476           14 
 1632000   0.60661246   -4.8091934    740.17775  0.037795024  0.037223453            7 
 1633000   0.60599601   -4.7903986     740.8544   0.03780641  0.037200461            5 
 1634000   0.61720901   -4.7955973    742.03347  0.037843404  0.037177527           13 
 1635000   0.59301101   -4.8212226    742.36694  0.037837255  0.037154657            7 
 1636000   0.59292719   -4.7998915    740.92262  0.037740557  0.037131713            8 
 1637000   0.60614811   -4.7994273    739.04694  0.037622019  0.037108898           12 
 1638000    0.6009748   -4.8262466    741.25335  0.037711302  0.037086063           14 
 1639000   0.60091953   -4.8077397    739.83436  0.037616146  0.037063289           14 
 1640000   0.58555129    -4.800466    741.32172  0.037668787  0.037040412           11 
 1641000   0.60324684   -4.8013164    740.70694  0.037614612    0.0370175           14 
 1642000   0.58391168   -4.8026114    741.08098  0.037610687  0.036994582            8 
 1643000     0.592474   -4.7882557     742.5102  0.037660286  0.036971688           17 
 1644000   0.59640506   -4.8027786    741.28447  0.037575247  0.036948877           13 
 1645000   0.60147311   -4.8066226    742.44068  0.037610977  0.036926091           11 
 1646000   0.59594466   -4.8278243    739.46869  0.037437662  0.036903194           12 
 1647000   0.59560067   -4.8017058    743.74436  0.037631267  0.036880384            6 
 1648000   0.59042213      -4.8257    742.57741  0.037549424  0.036857631           19 
 1649000   0.60815799   -4.8267135    741.62067  0.037478304  0.036834861            6 
 1650000    0.5864283   -4.8260472     741.6944  0.037459313  0.036812084           12 
 1651000   0.59324562   -4.8104022    741.25176  0.037414282  0.036789317           10 
 1652000   0.58315715   -4.8304274    742.70306  0.037464843  0.036766598           13 
 1653000   0.60303675   -4.8019333    742.10407  0.037411982  0.036743945           10 
 1654000   0.59142349   -4.8086171    742.57194  0.037412935  0.036721237           17 
 1655000   0.59616618   -4.8118051     741.4156  0.037332105  0.036698598           10 
 1656000   0.59585389   -4.8319777    741.33511  0.037305511  0.036675972            7 
 1657000   0.59295536   -4.8051401    742.19444  0.037326214  0.036653238           12 
 1658000   0.58709313   -4.8262088    741.81733  0.037284747  0.036630627           16 
 1659000    0.5890226   -4.8138881    742.78851  0.037311056  0.036608002           15 
 1660000   0.59905542   -4.8181711    742.58968  0.037278598  0.036585257           12 
 1661000   0.58809436   -4.7978054    741.76043  0.037214551  0.036562616            5 
 1662000   0.58871936   -4.8145282    742.77948  0.037243255   0.03654003            6 
 1663000   0.58217866   -4.8355274    743.27788  0.037245835  0.036517445            8 
 1664000    0.6000068   -4.8253764    742.39945  0.037179459  0.036494825            9 
 1665000    0.5770229   -4.8304538    743.00518  0.037187446  0.036472178           16 
 1666000    0.5937296   -4.8392063     743.5417  0.037191962   0.03644957           16 
 1667000   0.58621413    -4.833829    741.62862  0.037074016  0.036426895           12 
 1668000   0.57681171   -4.8156085    743.47529  0.037144049  0.036404388            7 
 1669000    0.5899333   -4.8010139    741.63658  0.037029987    0.0363818           15 
 1670000   0.59840533   -4.8337831     741.6238  0.037007176  0.036359187           34 
 1671000   0.57549544   -4.8248953    741.78711  0.036993173  0.036336609           12 
 1672000   0.58051106   -4.8305054    742.20977  0.036992114  0.036314032           12 
 1673000   0.60155993   -4.8411738    743.23535  0.037021087  0.036291413            7 
 1674000    0.5967851   -4.8268931    742.25752  0.036950295  0.036268886           13 
 1675000   0.58022344   -4.8372822    741.96331  0.036913598  0.036246224            6 
 1676000   0.59063312    -4.826764    742.16436  0.036901569  0.036223611           10 
 1677000    0.5988843   -4.8245096    743.34181  0.036938074  0.036201089           10 
 1678000   0.58818218   -4.8232583    742.34917  0.036866764  0.036178568            7 
 1679000   0.57293889   -4.8592078    739.91243  0.036723865  0.036155869           18 
 1680000   0.58272127   -4.8336498    742.88446  0.036849428  0.036133277           16 
 1681000   0.58187105    -4.851502    742.75841  0.036821258  0.036110744            8 
 1682000   0.58417865   -4.8502375     744.0913  0.036865403  0.036088156           11 
 1683000   0.59065517   -4.8276126      744.556  0.036866508  0.036065726           13 
 1684000   0.59642013   -4.8286314    742.92867  0.036764087  0.036043252            7 
 1685000   0.57951553    -4.857809    741.71643  0.036682316  0.036020892           12 
 1686000   0.58803875    -4.846934    743.38432  0.036742997  0.035998469           13 
 1687000    0.5744613    -4.846683    743.30836  0.036717465  0.035975964            7 
 1688000   0.56887879   -4.8466455    741.02882  0.036583176  0.035953561            8 
 1689000    0.5799932   -4.8481069    744.16647  0.036716325  0.035931165            8 
 1690000   0.57884266   -4.8403678    742.45149  0.036610034  0.035908742           14 
 1691000   0.59826652   -4.8416599    743.81147  0.036655405  0.035886357           20 
 1692000   0.57997642   -4.8302438    745.08927  0.036696674  0.035864043           22 
 1693000   0.59147132   -4.8436087    741.82691  0.036514418  0.035841759           12 
 1694000   0.56918245   -4.8538886    743.42646   0.03657155  0.035819417           17 
 1695000    0.5857242   -4.8481436    742.40886  0.036499944  0.035796986           12 
 1696000   0.57120195   -4.8631088    745.35223  0.036623046  0.035774602           14 
 1697000   0.58087237   -4.8781252    743.32517  0.036501924  0.035752252           27 
 1698000   0.58145382   -4.8479774    742.95301  0.036462162  0.035729902           15 
 1699000   0.57176077   -4.8671891    743.52544  0.036468778  0.035707668            8 
 1700000   0.58871216   -4.8513549    743.24194  0.036433429  0.035685346            8 
 1701000   0.58570664    -4.869617    743.39904  0.036419706  0.035663095           12 
 1702000   0.57101527   -4.8525133    744.53181  0.036453771  0.035640898           14 
 1703000   0.57846188   -4.8608491    742.81107  0.036348163  0.035618581           11 
 1704000   0.57495007   -4.8622593     743.9513  0.036382595  0.035596214           14 
 1705000   0.56162851   -4.8610294    743.65159  0.036346608  0.035573984            8 
 1706000   0.57678084   -4.8653557    743.46539  0.036316207  0.035551733           16 
 1707000   0.57125933   -4.8751808    742.87533  0.036266126  0.035529535           28 
 1708000   0.56801182   -4.8519538    743.72303  0.036286253  0.035507285           11 
 1709000   0.57096004   -4.8939339    742.70476  0.036215368  0.035485146           14 
 1710000    0.5648107   -4.8723182    744.17188  0.036265686  0.035463038           28 
 1711000    0.5648643   -4.8634651    743.44413  0.036209046  0.035440813           16 
 1712000   0.56494286   -4.8669862    745.82811  0.036303938  0.035418708           10 
 1713000   0.57175572   -4.8769034    744.41566  0.036214033  0.035396666            7 
 1714000   0.57764432   -4.8658558     743.8178  0.036163837  0.035374625           16 
 1715000   0.57739994   -4.8672819    744.69109  0.036185184  0.035352513           30 
 1716000   0.54718701   -4.8952148    743.45627  0.036104131  0.035330485           15 
 1717000   0.55803472   -4.8494232    745.06811  0.036161333  0.035308392            8 
 1718000   0.56674374   -4.8574745    745.92077  0.036181644  0.035286404           11 
 1719000   0.56590511   -4.8890456    745.56702  0.036143447  0.035264312            4 
 1720000   0.57657228   -4.8498545    744.16085  0.036054305  0.035242257            4 
 1721000    0.5663399   -4.8773202    745.67796  0.036106816  0.035220395            7 
 1722000   0.55858852   -4.8706711    744.59068  0.036033231  0.035198377            6 
 1723000   0.56264679   -4.8652038    744.75815  0.036020418  0.035176357            9 
 1724000   0.56628887   -4.8737138    744.61017  0.035992371  0.035154365            9 
 1725000   0.57826953   -4.8826794    745.80061  0.036029015  0.035132426           23 
 1726000   0.56047853   -4.8856467    744.44936  0.035942901   0.03511048           11 
 1727000    0.5693658   -4.8859586    744.22144  0.035911091  0.035088442           10 
 1728000   0.57645521   -4.8802274    744.00745  0.035879989  0.035066395           14 
 1729000   0.56950229   -4.8990719    743.88545  0.035853357  0.035044348           17 
 1730000   0.56383455   -4.8494746    745.87317   0.03592838  0.035022475           13 
 1731000    0.5622059   -4.8720588    744.00185  0.035817536  0.035000615           12 
 1732000   0.56532289   -4.8805798    745.72271  0.035879653  0.034978625            8 
 1733000   0.56106119   -4.8801566    744.68287  0.035808947  0.034956715           25 
 1734000   0.55810639   -4.8746958    744.40076  0.035774739  0.034934733            9 
 1735000   0.55947739   -4.9088692    744.16601  0.035742844  0.034912797           11 
 1736000   0.55585396    -4.882044    744.74654  0.035750122  0.034890872           18 
 1737000   0.56326667   -4.8874504    744.61274  0.035723121  0.034868942           10 
 1738000    0.5641898   -4.9044057    743.66745  0.035657242  0.034847047            7 
 1739000   0.56932637   -4.8858314    744.57852  0.035680397  0.034825213           10 
 1740000   0.54349041   -4.8815513    746.03731  0.035729756    0.0348034           32 
 1741000   0.55881765   -4.8908591    744.73688  0.035646988  0.034781598           54 
 1742000   0.56069684   -4.8988905    745.33162  0.035654976  0.034759793           52 
 1743000   0.56186384   -4.8971588    745.51116  0.035643104  0.034738012           16 
 1744000   0.55291492   -4.9004577    744.02967  0.035551876  0.034716131           18 
 1745000   0.55036311   -4.9101532    745.83579  0.035617755  0.034694297           20 
 1746000   0.54796098   -4.8827656    744.58111  0.035537472  0.034672485           15 
 1747000   0.54911438   -4.9053759    745.77244  0.035573957  0.034650777           12 
 1748000   0.55133707   -4.8911225    745.91217  0.035560267  0.034629141           19 
 1749000   0.56498926   -4.8973599    744.50999  0.035473127  0.034607486           17 
 1750000   0.55148083   -4.8765969    746.60087  0.035552422  0.034585938           11 
 1751000   0.54835054   -4.9040024    743.59148  0.035388896  0.034564318           12 
 1752000   0.55321618   -4.8981042    746.44586  0.035504464  0.034542751           15 
 1753000   0.54800557   -4.8889463    747.17873   0.03551905  0.034521213           15 
 1754000   0.55985102   -4.8926793    746.63426  0.035472932  0.034499669           17 
 1755000   0.56107736   -4.8937241    746.46956  0.035444898  0.034478065            9 
 1756000   0.54961298   -4.8981161     746.4143  0.035422091  0.034456469           13 
 1757000   0.55762921   -4.8989025    744.92939  0.035331502  0.034434825           15 
 1758000   0.54771233    -4.894599    746.27948  0.035375402  0.034413172            9 
 1759000   0.55923624   -4.8965922    744.06886  0.035250562  0.034391514            9 
 1760000    0.5337914   -4.9067184    743.84723  0.035220039  0.034369856           12 
 1761000   0.53783499   -4.9012061    745.71241  0.035288302    0.0343482           36 
 1762000    0.5483419   -4.9040331    745.22532  0.035245238  0.034326605           17 
 1763000    0.5468029    -4.890606    746.80282  0.035299812   0.03430496           22 
 1764000    0.5506749    -4.920414    745.83894  0.035234266  0.034283383           11 
 1765000   0.55011522   -4.9145218    744.52731  0.035152375  0.034261689            8 
 1766000   0.54805532   -4.9066542    745.93758  0.035199017  0.034239918           15 
 1767000   0.55288827   -4.9187516     745.0343  0.035136498  0.034218159           13 
 1768000   0.55378171    -4.930234    745.82132   0.03515372  0.034196433           10 
 1769000   0.55228263   -4.8999095    745.78233  0.035132011  0.034174729           14 
 1770000   0.53837228   -4.9090279     744.0496  0.035030584  0.034153088           29 
 1771000   0.53754639   -4.9391164    744.97614  0.035054401  0.034131394           28 
 1772000   0.54960929   -4.9065632     745.1151  0.035041154  0.034109706           17 
 1773000   0.53876256   -4.9221178    744.38549  0.034987098  0.034088045           86 
 1774000   0.54048167    -4.916245     744.1263    0.0349552  0.034066411           44 
 1775000   0.55335425   -4.8953289    746.75819   0.03505907  0.034044866           22 
 1776000   0.54618945   -4.9098557    745.35219  0.034973357  0.034023237           21 
 1777000    0.5546319    -4.913947     745.7289  0.034971342  0.034001615           12 
 1778000   0.53920013   -4.9227513    744.03405  0.034872237   0.03398006           37 
 1779000   0.53075893   -4.9074854    745.59193   0.03492561  0.033958492           25 
 1780000   0.53673357   -4.9099283    744.47223  0.034853569  0.033936933           10 
 1781000   0.53796294    -4.915035    747.76141    0.0349879  0.033915447           26 
 1782000   0.54182956   -4.9188927    746.58566  0.034913284   0.03389396           25 
 1783000   0.53576901   -4.9299733    744.40792   0.03479192  0.033872506           13 
 1784000   0.53645084   -4.9334371    744.98681  0.034799459   0.03385099           17 
 1785000   0.54953895   -4.9348273    745.31814  0.034795431  0.033829523           14 
 1786000   0.53414412   -4.9261542    745.09285  0.034765437  0.033808002           21 
 1787000   0.53111921   -4.9196038    745.42813  0.034761618   0.03378652           10 
 1788000   0.53026865   -4.9436849    744.77156  0.034711575  0.033764989           28 
 1789000   0.53857993    -4.963339    745.46925  0.034724672  0.033743468           24 
 1790000   0.53749079   -4.9414939    744.23803  0.034647953  0.033721975           13 
 1791000    0.5407587   -4.9342087    744.96775   0.03466256  0.033700481           31 
 1792000   0.53988803   -4.9349787    746.38565  0.034709154  0.033679067           28 
 1793000   0.55352487   -4.9343863    744.46171  0.034600377   0.03365766           24 
 1794000   0.52622532   -4.9368465    745.86161  0.034646117  0.033636277           39 
 1795000   0.53067246   -4.9188479    746.38382   0.03465106  0.033614988           33 
 1796000   0.53639255    -4.939804    746.74108  0.034648342  0.033593684           23 
 1797000   0.53422872   -4.9316515    745.89248  0.034589709  0.033572383           41 
 1798000   0.52574346   -4.9381229     745.6196  0.034557823   0.03355109           31 
 1799000   0.52888374   -4.9347118    745.28622  0.034523171  0.033529658           39 
 1800000   0.53332363   -4.9337396    747.66891  0.034614301  0.033508384           56 
 1801000   0.54216492   -4.9218734      746.765  0.034553257  0.033487155           26 
 1802000   0.53538564   -4.9674792    746.41741  0.034518008  0.033465842           15 
 1803000   0.52979702   -4.9543171    744.14745  0.034393948  0.033444491           40 
 1804000   0.53721168   -4.9266747    746.10639  0.034465373  0.033423226           26 
 1805000   0.52524181   -4.9408134    746.63116  0.034470506  0.033402034           16 
 1806000   0.53753125    -4.948299    746.76892  0.034457776  0.033380772           49 
 1807000   0.54393823   -4.9554797    745.84821  0.034396246  0.033359571           33 
 1808000   0.53553192   -4.9402016    745.32233  0.034352983  0.033338293           43 
 1809000    0.5191412    -4.942795    745.12465  0.034324887  0.033316998           48 
 1810000   0.52924368   -4.9488232    746.68439  0.034377734  0.033295779           46 
 1811000   0.54109047   -4.9317817    748.23829  0.034430255  0.033274578           27 
 1812000   0.52085974   -4.9449854    744.91253  0.034258302   0.03325333           24 
 1813000   0.52916433   -4.9240852    747.46489  0.034356724  0.033232158           11 
 1814000   0.52289648   -4.9551311    747.39002  0.034334345  0.033211089           15 
 1815000   0.52074907   -4.9533403    744.81979  0.034197419  0.033189983           18 
 1816000   0.52560739   -4.9542238    745.96272  0.034231035  0.033168838           22 
 1817000   0.52104961   -4.9627662    746.72175  0.034247007  0.033147748           12 
 1818000    0.5276151   -4.9523924    746.87231  0.034235071  0.033126631           79 
 1819000   0.52067336   -4.9478122    745.81969  0.034168027  0.033105562           32 
 1820000   0.51967854   -4.9473337    745.25934  0.034123596  0.033084569           21 
 1821000   0.53565694   -4.9452663    746.30111  0.034152531  0.033063561            9 
 1822000   0.52821505   -4.9584092    744.61857  0.034056832  0.033042493           17 
 1823000   0.51943985     -4.95598    744.86312  0.034049329  0.033021446           21 
 1824000   0.52779148   -4.9676553    747.91943  0.034170295  0.033000394           16 
 1825000   0.51974548   -4.9590187    745.52388  0.034042186  0.032979273           24 
 1826000   0.52593415   -4.9602466     745.8449  0.034038194  0.032958157           38 
 1827000   0.52274594   -4.9555645    746.56978  0.034052626  0.032937069           13 
 1828000   0.52290567   -4.9476941    745.12771  0.033968258  0.032916015           14 
 1829000   0.51587681   -4.9587799    744.12448  0.033903977  0.032894845           21 
 1830000   0.52213668    -4.969543    745.56664  0.033951122  0.032873661           23 
 1831000   0.52417896   -4.9652636    744.81288  0.033898274  0.032852502           22 
 1832000   0.51291511   -4.9818783    743.76276  0.033832003  0.032831294           14 
 1833000   0.52651486   -4.9616867    745.57026   0.03389572  0.032810119           29 
 1834000   0.51426259   -4.9782413    742.96633  0.033758921  0.032788887           30 
 1835000    0.5145285   -4.9736315    744.31908  0.033801956   0.03276767           30 
 1836000   0.52112802   -4.9693574    744.50571  0.033792016  0.032746383            7 
 1837000   0.52490163   -4.9799484    743.23319  0.033715895  0.032725188           24 
 1838000   0.51491833    -4.980125    745.12072   0.03378313  0.032703968           23 
 1839000   0.50979407   -4.9723223    744.14502  0.033720546  0.032682813           19 
 1840000   0.51293563   -4.9666254    744.85764  0.033734494  0.032661713           20 
 1841000   0.50424316   -4.9586058    745.83239  0.033760293  0.032640642           11 
 1842000   0.51145885   -4.9880027    744.88965  0.033699314  0.032619588           13 
 1843000   0.51272037   -4.9790754    743.66567  0.033625686  0.032598585           26 
 1844000   0.52885781    -4.976552    746.43105  0.033732423  0.032577564           15 
 1845000   0.50716791   -4.9616531    746.54383  0.033719233  0.032556617           15 
 1846000   0.50465695   -4.9791621    744.85255  0.033624618  0.032535663           12 
 1847000   0.51847489   -4.9865875    745.86206  0.033651961  0.032514689           19 
 1848000   0.51965575   -4.9881719    743.20515  0.033513941  0.032493755           13 
 1849000   0.51531683    -4.991077    745.73025   0.03360962  0.032472799           21 
 1850000   0.52409214   -4.9582562    746.09048  0.033607679  0.032452023           14 
 1851000   0.51237733   -4.9814476    747.09871  0.033634914  0.032431216           13 
 1852000   0.51409438   -4.9835184    744.65037  0.033506586   0.03241034           15 
 1853000   0.50877484   -4.9937249    743.42652  0.033433465  0.032389456           15 
 1854000   0.50920174   -4.9747712    744.71992  0.033473567  0.032368572           13 
 1855000   0.50847014   -4.9859081    746.79829   0.03354889  0.032347697           16 
 1856000   0.52342594   -4.9845736    746.14988  0.033501701  0.032326947           11 
 1857000    0.5125689   -4.9735537    746.25153  0.033488222  0.032306175            6 
 1858000   0.51692202    -4.993271    744.62854  0.033397405  0.032285392           14 
 1859000    0.5217344   -4.9958741    745.37934  0.033413096  0.032264595           14 
 1860000     0.500745   -5.0160688    746.27123  0.033435091   0.03224376           19 
 1861000   0.51835602   -5.0056517    745.55752  0.033385166  0.032222938           10 
 1862000   0.51173408   -5.0022566    746.55155  0.033411723  0.032202169           26 
 1863000    0.5067412   -4.9856846    746.45008   0.03338925  0.032181447           15 
 1864000   0.51834287   -4.9999918    745.37433  0.033323245  0.032160717           12 
 1865000   0.50483323   -5.0044508    744.90912   0.03328459  0.032139973           42 
 1866000   0.49866174   -5.0146863    744.52189  0.033249459  0.032119258           27 
 1867000    0.5070018   -5.0047116    744.52586  0.033231827  0.032098515           23 
 1868000   0.50821554    -5.018745    744.78246  0.033225485  0.032077697           12 
 1869000   0.51665343   -5.0216646    745.47367  0.033238526  0.032057004           16 
 1870000   0.50063764   -5.0044404    744.82897  0.033192022  0.032036288           33 
 1871000   0.49817129   -4.9981759    744.40105  0.033155222  0.032015657           26 
 1872000   0.48923258   -4.9856038    744.71322  0.033151408  0.031995056           11 
 1873000   0.50404126   -4.9844476    746.66145  0.033220389  0.031974482           25 
 1874000   0.51321385   -5.0068988    745.77901  0.033163421  0.031953889           39 
 1875000   0.49852451   -5.0001035    744.49355  0.033088602  0.031933311           48 
 1876000   0.49567158   -5.0112349    745.30113  0.033106838  0.031912763           33 
 1877000   0.50230187    -4.999651    745.15822  0.033082855   0.03189211           47 
 1878000   0.49093342   -5.0022478    743.89918  0.033009371  0.031871446           45 
 1879000   0.50950361   -5.0049349    745.36341  0.033056741   0.03185085           16 
 1880000    0.4951183   -4.9996622    744.55014  0.033003109  0.031830276           20 
 1881000   0.50762152   -5.0004632    745.00219  0.033005591  0.031809735           28 
 1882000   0.49236839   -5.0179749     744.6746  0.032973548  0.031789236           45 
 1883000   0.50049569    -4.990932    744.52479  0.032949407  0.031768669           17 
 1884000   0.50002068   -5.0125827    746.12881  0.033002867  0.031748159           50 
 1885000   0.50243386   -5.0197468    744.13174  0.032897071  0.031727612           24 
 1886000   0.50030323   -5.0244779    744.70408  0.032904917  0.031707016           18 
 1887000   0.50191217   -5.0179036    744.24737   0.03286731  0.031686389           16 
 1888000   0.50033631   -5.0190484     745.3912  0.032900389  0.031665833           18 
 1889000   0.49447419    -5.016264     743.4892  0.032799065  0.031645175           29 
 1890000    0.4938036   -5.0389392     743.5909  0.032786195   0.03162442           11 
 1891000   0.50625679   -5.0322709    742.69362  0.032729315   0.03160378           15 
 1892000   0.51985982   -5.0585204    742.72536  0.032713414  0.031583077           17 
 1893000   0.49757278   -5.0289043    743.24735  0.032719112  0.031562364           19 
 1894000   0.49435173   -5.0300664    744.50347  0.032757105  0.031541682           20 
 1895000   0.49830569   -5.0339019    744.54158  0.032741494  0.031521061           31 
 1896000   0.49588126   -5.0224726    743.66452  0.032685677  0.031500509           19 
 1897000   0.49025975   -5.0199376    744.31558  0.032697047  0.031479987           19 
 1898000   0.48847573   -5.0281073    742.94322  0.032619565  0.031459453           21 
 1899000   0.49791853   -5.0394915    743.23445  0.032615168  0.031438882           23 
 1900000   0.49150786   -5.0096869    743.70913  0.032618822  0.031418335           20 
 1901000   0.48735498   -5.0209497     742.0918  0.032530764  0.031397756           16 
 1902000   0.49201568   -5.0365452     743.8802  0.032592017  0.031377218           45 
 1903000   0.49897485   -5.0281567    742.07625  0.032495895  0.031356735           22 
 1904000   0.50471875   -5.0264408    745.05775   0.03260932  0.031336207           20 
 1905000   0.50124238   -5.0341447     745.1737  0.032597275  0.031315739           13 
 1906000   0.49103762   -5.0409718    743.83367  0.032521584  0.031295249           14 
 1907000   0.49521551   -5.0399157    743.36885  0.032484218  0.031274781           22 
 1908000   0.49017987   -5.0433517    745.43079   0.03255725  0.031254377           18 
 1909000   0.48961869   -5.0464902    743.17115  0.032441555  0.031233883           59 
 1910000   0.49378765   -5.0430058    744.75052  0.032493478  0.031213457           23 
 1911000   0.48154905    -5.051515    743.60142  0.032426366  0.031193052           55 
 1912000   0.49171818   -5.0427694    745.62414  0.032497565  0.031172675           14 
 1913000   0.48769253   -5.0395053    744.59165  0.032435601  0.031152316           42 
 1914000   0.48854919   -5.0363091    744.06917  0.032395906  0.031132027           42 
 1915000   0.49875794    -5.048761    743.39706  0.032349741  0.031111731           31 
 1916000   0.48478356     -5.04326    745.18972  0.032410827  0.031091472           35 
 1917000   0.48038248   -5.0612741    742.42162  0.032273588  0.031071159           33 
 1918000   0.48975785    -5.051338    745.11695  0.032373868  0.031050892           25 
 1919000   0.48874016   -5.0345643    744.07936   0.03231194   0.03103065           13 
 1920000    0.4852231   -5.0467145    744.81902  0.032327214  0.031010377           23 
 1921000   0.48745899    -5.048602     745.8524  0.032355214  0.030990112           32 
 1922000   0.48898595   -5.0556416    743.73903   0.03224675  0.030969917           57 
 1923000   0.48421448   -5.0492083    742.80533  0.032189519  0.030949685           48 
 1924000   0.48645573   -5.0592317    745.42978   0.03228646  0.030929474           29 
 1925000    0.4898784    -5.040616     742.5147  0.032143494   0.03090926           32 
 1926000   0.48119715   -5.0576961    743.94657  0.032188758  0.030889052           33 
 1927000   0.49132872   -5.0507369    744.02289  0.032175354  0.030868796           43 
 1928000   0.48733939   -5.0657359    743.45487  0.032134114  0.030848576           24 
 1929000   0.49129737   -5.0525459    743.16509  0.032104937  0.030828408           38 
 1930000   0.48859216   -5.0596973    744.39932  0.032141594  0.030808155           55 
 1931000   0.49165504   -5.0521629    743.17413  0.032072075  0.030787943           55 
 1932000   0.48599873   -5.0611623    743.99251  0.032090774   0.03076776           24 
 1933000   0.48537376    -5.046807    744.10829  0.032079164  0.030747643           13 
 1934000   0.48187025   -5.0769046     743.5426  0.032038203  0.030727468           37 
 1935000   0.48377621   -5.0342078     744.7187  0.032072295  0.030707297           39 
 1936000   0.47607579   -5.0505339    743.31341   0.03199524  0.030687185           46 
 1937000   0.47655717   -5.0730963     743.9586  0.032006479  0.030667072           33 
 1938000   0.48847657   -5.0490901    742.60162  0.031931614    0.0306469           37 
 1939000   0.48034802    -5.063095    742.91136  0.031928458  0.030626731           43 
 1940000   0.48855903   -5.0657819    741.28107   0.03184197  0.030606607           50 
 1941000   0.47657475   -5.0705279    743.44649  0.031918534  0.030586463           75 
 1942000   0.47754327    -5.074907     743.1279  0.031888427  0.030566311           27 
 1943000   0.47464862    -5.063064    743.45795   0.03188617  0.030546168           42 
 1944000    0.4769091   -5.0747177    743.22523  0.031859792  0.030526016           48 
 1945000   0.47231776    -5.081109    740.67171  0.031734006  0.030505845           26 
 1946000   0.47115374   -5.0604091    742.74554  0.031806506  0.030485686           29 
 1947000   0.47508768   -5.0456989    743.33523  0.031815409  0.030465556           42 
 1948000   0.47177969   -5.0875725      742.424  0.031760096  0.030445433           28 
 1949000   0.47870637   -5.0916204     740.6107  0.031666269  0.030425309           71 
 1950000   0.47210329   -5.0790477    741.21369  0.031675799  0.030405131           33 
 1951000   0.47301732   -5.0811783    741.32225    0.0316642  0.030384961           31 
 1952000   0.47363476   -5.0820904    743.27503  0.031731345  0.030364827           12 
 1953000   0.47097611   -5.0923914    741.59526  0.031643423  0.030344729           18 
 1954000   0.45745772   -5.0729266    743.04869  0.031689214  0.030324654           20 
 1955000   0.45878957    -5.058987    740.84211  0.031578948  0.030304624           37 
 1956000   0.48139151   -5.0917184    741.88005  0.031607023  0.030284602           56 
 1957000   0.47365594   -5.0849984     742.5171     0.031618  0.030264578           89 
 1958000   0.45977225   -5.0801827     741.5954  0.031562623   0.03024453           26 
 1959000    0.4720957   -5.0837122    742.60036  0.031589262  0.030224496           43 
 1960000   0.47306598   -5.0812665    741.07483  0.031508284  0.030204467           17 
 1961000    0.4770177   -5.0827369    741.89427  0.031527038  0.030184464           22 
 1962000   0.46988369   -5.0737825    742.74893   0.03154727  0.030164446           22 
 1963000   0.46283417   -5.0935015    740.85181  0.031450663  0.030144441           35 
 1964000   0.45927928    -5.083987    739.16624  0.031363129  0.030124419           25 
 1965000    0.4723588   -5.0883115    743.10217  0.031514087  0.030104415           33 
 1966000   0.46557129   -5.0914339    740.73657  0.031397786  0.030084391           41 
 1967000   0.46532846   -5.0801328    741.32683  0.031406831  0.030064393           47 
 1968000   0.46505457   -5.0948693    742.69796  0.031448931  0.030044412           17 
 1969000   0.46950423   -5.0920307     740.7374  0.031349983  0.030024423           35 
 1970000   0.46794324   -5.0893592    742.13189  0.031393058  0.030004456           51 
 1971000   0.46556977   -5.0917771    741.33503  0.031343439  0.029984513           31 
 1972000   0.46541749   -5.0903643    741.17097  0.031320612   0.02996462           77 
 1973000   0.46709885   -5.0912187    741.61705  0.031323579  0.029944764           43 
 1974000   0.47215689   -5.0819315    741.30364   0.03129448  0.029924935           33 
 1975000   0.46564638   -5.0783022    742.00672    0.0313083  0.029905138           63 
 1976000   0.47611314   -5.0811775    741.67816    0.0312786  0.029885334           66 
 1977000    0.4558011   -5.0898326    741.97193  0.031275161   0.02986549           23 
 1978000   0.45509706   -5.1020148     741.5838  0.031242998  0.029845611           23 
 1979000   0.46484982   -5.0898138    740.40282  0.031177481  0.029825806           51 
 1980000   0.46012679   -5.1172329    741.06286  0.031189514  0.029806004           51 
 1981000   0.46226912   -5.1036004    739.65616  0.031114595  0.029786168           47 
 1982000   0.46509245   -5.0970936    741.46518  0.031174957  0.029766367           31 
 1983000   0.45673672   -5.1097158     739.7661  0.031087834   0.02974656           30 
 1984000   0.45336092   -5.0995973    741.73787  0.031154984  0.029726763           22 
 1985000   0.46963946   -5.0962051    740.98498  0.031107682  0.029707045           21 
 1986000   0.45720918   -5.1029986    739.83193  0.031043636  0.029687371           31 
 1987000   0.45413928   -5.1005187    742.54397  0.031141753   0.02966774           63 
 1988000    0.4486856   -5.0835736    742.15151  0.031109638  0.029648061           31 
 1989000   0.45278233   -5.1005192     741.3012  0.031058371  0.029628448           31 
 1990000   0.45705048   -5.0967655    740.56206  0.031011811  0.029608779          112 
 1991000   0.45840955    -5.098077    742.22494  0.031065835  0.029589139           93 
 1992000   0.46464213   -5.1175878    740.69149   0.03098609  0.029569494           38 
 1993000   0.45888897    -5.115998    741.30388  0.030996148  0.029549818           54 
 1994000    0.4442432   -5.1059087    740.85486  0.030961838  0.029530168           34 
 1995000   0.47072237   -5.1173636    741.74893  0.030983664  0.029510523           49 
 1996000   0.45341312   -5.1097265    742.72902  0.031009061  0.029490933           28 
 1997000    0.4539366   -5.1053107    740.91405  0.030917795  0.029471361           31 
 1998000   0.45661696   -5.0996964    741.81181  0.030939765   0.02945184           39 
 1999000   0.46797603   -5.1052945    741.70161  0.030919694  0.029432305           63 
 2000000   0.45631299   -5.1159474    741.44816  0.030893673  0.029412765           41 
 2001000   0.45197429   -5.1040046    741.91964  0.030897869  0.029393164           70 
 2002000   0.45177003   -5.1342002    739.84054  0.030795893  0.029373605          106 
 2003000    0.4552636   -5.1168453    741.79254   0.03086173  0.029354131           64 
 2004000    0.4666163   -5.1255068    742.52695  0.030876869  0.029334677           67 
 2005000   0.45727422   -5.1200717     741.1522  0.030804331  0.029315209           89 
 2006000   0.45418269   -5.1199165    740.96583  0.030781232  0.029295732           82 
 2007000   0.44611098   -5.1210125    742.51357   0.03083016  0.029276272           38 
 2008000   0.45713382   -5.1353586    740.62659  0.030736495  0.029256821           47 
 2009000   0.46026494   -5.1365488    742.46368  0.030797398  0.029237367           23 
 2010000   0.44851865   -5.1258946    740.13881  0.030685689  0.029217878           27 
 2011000   0.45042185   -5.1226726    740.25481  0.030675237  0.029198442           23 
 2012000   0.45201017   -5.1125228    739.31569  0.030621094  0.029179005           28 
Loop time of 4993.77 on 48 procs for 2000000 steps with 4000 atoms

Performance: 69206.213 tau/day, 400.499 timesteps/s
99.4% CPU use with 48 MPI tasks x no OpenMP threads

MPI task timing breakdown:
Section |  min time  |  avg time  |  max time  |%varavg| %total
---------------------------------------------------------------
Pair    | 342.78     | 371.11     | 396.75     |  72.3 |  7.43
Neigh   | 33.821     | 35.143     | 37.008     |  12.8 |  0.70
Comm    | 316.28     | 349.42     | 379.26     |  84.1 |  7.00
Output  | 4.2087     | 4.2106     | 4.2427     |   0.2 |  0.08
Modify  | 4177.1     | 4187.5     | 4197.5     |   7.8 | 83.85
Other   |            | 46.41      |            |       |  0.93

Nlocal:        83.3333 ave          89 max          76 min
Histogram: 1 2 2 11 5 4 10 2 4 7
Nghost:        2297.46 ave        2318 max        2275 min
Histogram: 1 4 3 9 5 6 8 8 2 2
Neighs:        15528.2 ave       16993 max       14051 min
Histogram: 6 4 3 5 3 8 6 4 5 4
FullNghs:      31056.4 ave       33312 max       28430 min
Histogram: 3 1 4 9 5 6 6 5 2 7

Total # of neighbors = 1490705
Ave neighs/atom = 372.67625
Neighbor list builds = 107972
Dangerous builds = 0

#clear
#
#next RN
#
#jump SELF
Total wall time: 1:23:17
