
units lj                  # Use reduced LJ style units
atom_style atomic         # Uncharged point particles
atom_modify map hash      # Needed for indexing of clusters etc
                          # Used to be able to find where atoms are in relation to each other.

lattice fcc 1.0 spacing 1 1 1
Lattice spacing in x,y,z = 1.5874011 1.5874011 1.5874011
region box block 0 10 0 10 0 10 units lattice
create_box 2 box
Created orthogonal box = (0.0000000 0.0000000 0.0000000) to (15.874011 15.874011 15.874011)
  3 by 4 by 4 MPI processor grid
create_atoms 1 box
Created 4000 atoms
  using lattice units in orthogonal box = (0.0000000 0.0000000 0.0000000) to (15.874011 15.874011 15.874011)
  create_atoms CPU = 0.005 seconds
set type 1 type/fraction 2 0.11 78393
Setting atom values ...
  470 settings made for type/fraction
mass 1 1.0
mass 2 1.0
pair_style lj/cut  3.5
pair_modify tail  yes
pair_coeff 1  1  1.0  1.0   # Intearaction between 1 and 1 set with epsilon = 1 and sigma = 1
pair_coeff 1  2  1.5  0.8
pair_coeff 2  2  0.5  0.88

write_data data.0
System init for write_data ...
Neighbor list info ...
  update every 1 steps, delay 10 steps, check yes
  max neighbors/atom: 2000, page size: 100000
  master list distance cutoff = 3.8
  ghost atom cutoff = 3.8
  binsize = 1.9, bins = 9 9 9
  1 neighbor lists, perpetual/occasional/extra = 1 0 0
  (1) pair lj/cut, perpetual
      attributes: half, newton on
      pair build: half/bin/atomonly/newton
      stencil: half/bin/3d
      bin: standard
WARNING: Not all mixed pair coeffs generated from mixing. Use write_data with 'pair ij' option to store all pair coeffs. (../write_data.cpp:312)


#############################
#   M E L T   S Y S T E M   #
#############################

velocity all create 2.4 5833274 mom yes dist gaussian # Assign velocities
                                                    # Temperature 2.4, random number seed, zero linear momentum
                                                                                # Gaussian distribution

timestep 0.002   # simulation timestep
thermo 1000       # output thermodynamic data every 1000 steps bf 100

# Define a fix  in this case with index 1 applied to all
# particles in the simulation. This fix is for simulations
# in the anisotropic NPT ensemble. Note that we use the MTK
# correction.
fix 1 all npt temp 2.4 2.4 0.1 iso 5.68 5.68 0.5 mtk yes tchain 5 pchain 5 # Use NPT ensemble
                                                                         # Set temperature and pressure and damping
                                                                         # Numbers of thermostats in chain and in barostat
run 10000          # run for 10000 steps
Per MPI rank memory allocation (min/avg/max) = 3.642 | 3.644 | 3.648 Mbytes
Step Temp E_pair E_mol TotEng Press Volume 
       0          2.4   -7.6169122            0   -4.0178122   -3.1065461         4000 
    1000    2.4323276   -4.6291306            0  -0.98155132    5.5660737    4819.4805 
    2000    2.3836671   -4.6453221            0   -1.0707153    5.5130645    4809.4478 
    3000    2.3743071   -4.7198535            0   -1.1592832    5.5292954    4762.8038 
    4000    2.3492668   -4.6696754            0   -1.1466562    5.3653331     4821.414 
    5000    2.3968218   -4.6352196            0   -1.0408858    5.7826396    4778.1589 
    6000    2.3954721   -4.6340518            0    -1.041742    5.9183706    4774.2866 
    7000    2.3729545   -4.6253492            0   -1.0668074    5.6257566    4803.7825 
    8000    2.3777895   -4.5600111            0   -0.9942185    5.6506597     4843.135 
    9000    2.3887272   -4.6519544            0   -1.0697593    5.5256915    4816.0388 
   10000    2.3513948   -4.6480248            0   -1.1218144    5.5255099    4805.0016 
Loop time of 2.21798 on 48 procs for 10000 steps with 4000 atoms

Performance: 779085.713 tau/day, 4508.598 timesteps/s
99.6% CPU use with 48 MPI tasks x no OpenMP threads

MPI task timing breakdown:
Section |  min time  |  avg time  |  max time  |%varavg| %total
---------------------------------------------------------------
Pair    | 0.91191    | 0.96267    | 1.026      |   2.4 | 43.40
Neigh   | 0.18905    | 0.19704    | 0.20554    |   0.9 |  8.88
Comm    | 0.69648    | 0.75191    | 0.81943    |   3.1 | 33.90
Output  | 0.0002435  | 0.00024766 | 0.00031587 |   0.0 |  0.01
Modify  | 0.25076    | 0.29154    | 0.31722    |   3.4 | 13.14
Other   |            | 0.01457    |            |       |  0.66

Nlocal:        83.3333 ave          93 max          76 min
Histogram: 4 6 5 6 10 7 4 2 1 3
Nghost:        1458.12 ave        1501 max        1417 min
Histogram: 1 3 2 7 11 13 6 4 0 1
Neighs:        7941.40 ave        9155 max        6968 min
Histogram: 2 3 9 11 5 7 3 4 0 4

Total # of neighbors = 381187
Ave neighs/atom = 95.296750
Neighbor list builds = 903
Dangerous builds = 185

# Equilibrate just above the melting temperature to avoid step fn in T

fix 1 all npt temp 1.25 1.25 0.1 iso 5.68 5.68 0.5 mtk yes tchain 5 pchain 5
run 2000
Per MPI rank memory allocation (min/avg/max) = 3.642 | 3.644 | 3.648 Mbytes
Step Temp E_pair E_mol TotEng Press Volume 
   10000    2.3513948   -4.6480248            0   -1.1218144    5.5255099    4805.0016 
   11000    1.2362257   -6.2422533            0   -4.3883783    5.4811344    3956.9149 
   12000    1.2428451   -6.2698113            0   -4.4060097    5.5033498    3949.5189 
Loop time of 0.549158 on 48 procs for 2000 steps with 4000 atoms

Performance: 629327.633 tau/day, 3641.942 timesteps/s
99.2% CPU use with 48 MPI tasks x no OpenMP threads

MPI task timing breakdown:
Section |  min time  |  avg time  |  max time  |%varavg| %total
---------------------------------------------------------------
Pair    | 0.20256    | 0.22485    | 0.25332    |   1.9 | 40.94
Neigh   | 0.031642   | 0.033106   | 0.035054   |   0.5 |  6.03
Comm    | 0.15479    | 0.18581    | 0.21661    |   4.2 | 33.83
Output  | 5.136e-05  | 5.3553e-05 | 0.00010815 |   0.0 |  0.01
Modify  | 0.080154   | 0.10094    | 0.12717    |   5.6 | 18.38
Other   |            | 0.004403   |            |       |  0.80

Nlocal:        83.3333 ave          90 max          77 min
Histogram: 1 4 2 14 3 7 10 3 2 2
Nghost:        1652.90 ave        1671 max        1625 min
Histogram: 1 3 3 5 4 5 7 4 12 4
Neighs:        9654.50 ave       10606 max        8854 min
Histogram: 5 1 5 12 5 8 3 5 2 2

Total # of neighbors = 463416
Ave neighs/atom = 115.85400
Neighbor list builds = 143
Dangerous builds = 13

#############################
# L I N E A R  Q U E N C H  #
#############################

# Define solid atoms. This closely follows ten Wolde  Ruiz-Montero and Frenkel  Faraday Discuss  1996  104  93-110
# Compute components of the per-atom q6 vector
compute q6 all orientorder/atom degrees 1 6 components 6 nnn NULL cutoff 1.3 # compute the Q6 parameter.
                                                                             # Use all neighbours within 1.3 unit cell.

# get number of connections
compute coord_number all coord/atom orientorder q6 0.5

# An atom is solid if it has 8 or more connections (of a possible 14)
variable is_solid atom c_coord_number>=8
group solid dynamic all var is_solid    # Must be dynamic to update
dynamic group solid defined

# do clustering
compute cluster solid cluster/atom 1.3 # Create a cluster where all atoms within are solid and max 1.3 units from another member

# define chunks one chunk per cluster
compute clus_chunks solid chunk/atom c_cluster nchunk every compress yes  # Says which atoms are in which chunk

# count the size of each chunk
compute size_chunks solid property/chunk clus_chunks count


# Find the maximum entry in the vector of chunk sizes
variable max_n equal max(c_size_chunks)


# Thermo style which includes this variable
# thermo_style custom step temp pe vol v_max_n

thermo ${N}  # Print the thermo information every 100 steps
thermo 1000  

# Reset the npt fix at a lower temperature (below freezing)
fix 1  all npt temp  ${temp} ${temp}  0.1  iso  5.68  5.68  0.5  mtk yes tchain  5  pchain  5
fix 1  all npt temp  0.45 ${temp}  0.1  iso  5.68  5.68  0.5  mtk yes tchain  5  pchain  5
fix 1  all npt temp  0.45 0.45  0.1  iso  5.68  5.68  0.5  mtk yes tchain  5  pchain  5

dump dmp2 all dcd ${N} traj.dcd
dump dmp2 all dcd 1000 traj.dcd


compute msd all msd com yes
variable twopoint equal c_msd[4]/6/(step*dt+1.0e-6)
fix 9 all vector 10 c_msd[4]
variable fit equal slope(f_9)/6/(10*dt)
thermo_style custom step temp pe c_msd[4] v_twopoint v_fit v_max_n

fix 1 all npt temp 1.25 ${temp} 0.1 iso 5.68 5.68 0.5 mtk yes tchain 5 pchain 5
fix 1 all npt temp 1.25 0.45 0.1 iso 5.68 5.68 0.5 mtk yes tchain 5 pchain 5
run 5000000 # 5000000  # Run for this many steps
Neighbor list info ...
  update every 1 steps, delay 10 steps, check yes
  max neighbors/atom: 2000, page size: 100000
  master list distance cutoff = 3.8
  ghost atom cutoff = 3.8
  binsize = 1.9, bins = 9 9 9
  4 neighbor lists, perpetual/occasional/extra = 1 3 0
  (1) pair lj/cut, perpetual
      attributes: half, newton on
      pair build: half/bin/atomonly/newton
      stencil: half/bin/3d
      bin: standard
  (2) compute orientorder/atom, occasional
      attributes: full, newton on
      pair build: full/bin/atomonly
      stencil: full/bin/3d
      bin: standard
  (3) compute coord/atom, occasional
      attributes: full, newton on
      pair build: full/bin/atomonly
      stencil: full/bin/3d
      bin: standard
  (4) compute cluster/atom, occasional
      attributes: full, newton on
      pair build: full/bin/atomonly
      stencil: full/bin/3d
      bin: standard
Per MPI rank memory allocation (min/avg/max) = 9.749 | 9.758 | 9.763 Mbytes
Step Temp PotEng c_msd[4] v_twopoint v_fit v_max_n 
   12000    1.2428451   -6.2698113 4.2783871e-30 2.971102e-32 8.3333333e+20            4 
   13000    1.2528362   -6.2310689   0.55051352 0.0035289327  0.045324154            2 
   14000    1.2677474     -6.23405    1.1020741 0.0065599646  0.044721615            1 
   15000     1.243716   -6.2658393     1.671504 0.0092861328  0.045956046            2 
   16000    1.2636597   -6.2429012    2.2341757  0.011636331  0.046404168            2 
   17000    1.2709416   -6.2683287    2.7949885  0.013700924  0.046615135            2 
   18000    1.2680821   -6.1978695    3.3520818  0.015518897  0.046474833            2 
   19000    1.2485127   -6.2883117    3.8685862  0.016967483  0.046423732            5 
   20000    1.2466292   -6.2175873     4.475748   0.01864895  0.046440939            2 
   21000    1.2327165   -6.2763393    5.0507427  0.020042629  0.046569756            4 
   22000     1.215904   -6.2754576    5.6213891   0.02129314  0.046909318            3 
   23000    1.2704695   -6.2411828    6.1451679  0.022265101  0.046850812            1 
   24000    1.2160537   -6.2560006    6.7142304    0.0233133  0.046854436            3 
   25000    1.2382609   -6.2580263    7.1903018  0.023967672  0.046754677            2 
   26000    1.2794793   -6.2346088    7.6688131  0.024579529  0.046474788            1 
   27000    1.2704035   -6.2186279      8.19506  0.025293395  0.046128117            2 
   28000     1.251426   -6.2701102    8.6815471  0.025837937  0.045869463            2 
   29000    1.2420748   -6.2460616    9.2162188  0.026483387  0.045605919            2 
   30000    1.2681942   -6.2627103    9.8332838  0.027314677  0.045479796            1 
   31000    1.2158587   -6.2478676    10.411717  0.027988485   0.04545071            3 
   32000    1.2416663   -6.2261796     11.12969  0.028983568  0.045513278            2 
   33000    1.2536064   -6.2842827    11.670963  0.029472128   0.04566347            2 
   34000    1.2529918   -6.2524895    12.376722  0.030335103  0.045869422            4 
   35000    1.2252847   -6.2900465    12.925613  0.030775268  0.046101874            2 
   36000    1.2563886   -6.2978382    13.343283  0.030887228  0.046256462            3 
   37000    1.2268622   -6.2219117    13.812546  0.031109337  0.046258749            2 
   38000    1.2534287   -6.2743217    14.325542  0.031415662   0.04620006            4 
   39000    1.2441042    -6.225655    14.918268  0.031876641  0.046168717            1 
   40000    1.2488136   -6.2652164    15.289184  0.031852465  0.046074015            2 
   41000    1.2811676   -6.2718088    15.851396  0.032218283    0.0459717            2 
   42000    1.2547971   -6.2697157    16.330141  0.032401074  0.045876095            2 
   43000    1.2353103   -6.2791243    16.918581  0.032787947  0.045777933            1 
   44000    1.2522233   -6.2732265    17.468771  0.033084794  0.045710056            2 
   45000    1.2362967    -6.280777    17.932072   0.03320754  0.045634623            1 
   46000    1.2445588   -6.2838953    18.216996  0.033001805  0.045511682            1 
   47000    1.2477453   -6.2747599    18.652796  0.033072334  0.045319261            2 
   48000    1.2149044   -6.2516982    19.038924  0.033053686  0.045098944            3 
   49000    1.2612394   -6.2377732     19.48768  0.033142312  0.044876297            3 
   50000    1.2536576   -6.2823025     20.19749  0.033662483  0.044702611            3 
   51000    1.2314295   -6.2045558    20.770049  0.033937988  0.044569689            2 
   52000    1.2162373   -6.2173545    21.374693  0.034254316  0.044475466            2 
   53000    1.2507887   -6.2584541    21.804035  0.034283073  0.044378119            2 
   54000    1.2525448   -6.2316445    22.429897  0.034614039  0.044307486            2 
   55000    1.2580413    -6.258511     23.02563  0.034887318  0.044259873            3 
   56000    1.2678434   -6.2935588    23.421747   0.03485379  0.044221164            2 
   57000    1.2434273   -6.2733371    24.010229  0.035102674  0.044185496            3 
   58000    1.2387028   -6.2434948    24.718508  0.035515098  0.044172062            2 
   59000    1.2602335   -6.2568554    25.027099  0.035349009  0.044171173            4 
   60000    1.2345099   -6.2481242    25.536352  0.035467156  0.044136134            2 
   61000    1.2306906   -6.2599076    26.046997  0.035583329  0.044111727            2 
   62000     1.227203   -6.2807182    26.572322  0.035715486   0.04408203            1 
   63000     1.232704   -6.2700075    27.096663  0.035842147  0.044051235            3 
   64000    1.2365404   -6.2585011    27.615809  0.035958085  0.044013593            3 
   65000    1.2481749   -6.2544107    28.175218  0.036122075  0.043978071            1 
   66000    1.2056636   -6.2975218    28.445971   0.03591663  0.043939194            2 
   67000    1.2311023   -6.2644202    29.181133  0.036294941  0.043906696            3 
   68000    1.2430773   -6.2668893    29.458265  0.036100814  0.043868544            3 
   69000    1.2517872   -6.2500279    29.976723  0.036203771   0.04381929            4 
   70000     1.235558   -6.2307401    30.706471  0.036555323  0.043775481            4 
   71000    1.2364776   -6.2811576    31.309392  0.036748112  0.043751538            3 
   72000     1.242969   -6.2731643    31.904735  0.036926776  0.043744812            8 
   73000    1.2217141   -6.2360228    32.296193    0.0368678  0.043733609            4 
   74000    1.2371484   -6.2809342    32.793506  0.036929624  0.043718943            2 
   75000    1.2490832   -6.2859819    33.359995  0.037066661  0.043704049            2 
   76000    1.2371262   -6.2890406    33.815481  0.037078379  0.043694979            2 
   77000    1.2626958   -6.2964142    34.507059  0.037345302  0.043690131            2 
   78000     1.251785   -6.2741362    35.222975  0.037631384  0.043698198            2 
   79000    1.2513112   -6.2789924     35.48557  0.037432035   0.04371192            2 
   80000     1.272127   -6.2520554    35.953033  0.037451075  0.043708967            1 
   81000    1.2592902   -6.2853127    36.495432  0.037546741  0.043696186            2 
   82000    1.2439291   -6.2445675     36.97255   0.03757373  0.043693601            1 
   83000    1.2284255    -6.251367    37.650639  0.037801846  0.043684222            2 
   84000    1.2070358   -6.2638972    38.333917   0.03802968   0.04368784            2 
   85000     1.243175   -6.2831888    38.824682  0.038063413  0.043703303            3 
   86000    1.2343166   -6.2375738    39.442275  0.038219258  0.043718626            2 
   87000     1.256377   -6.2600923    40.017052  0.038330509  0.043740219            5 
   88000    1.2357224   -6.2598372    40.539215  0.038389408  0.043770308            2 
   89000    1.2630286   -6.2849755    41.097252  0.038480573   0.04379704            1 
   90000    1.2517991   -6.2802483    41.373219  0.038308536  0.043817258            2 
   91000    1.2451173   -6.2745338     42.02292  0.038482527  0.043830148            2 
   92000    1.2528701   -6.2995069    42.744208   0.03871758  0.043839997            1 
   93000    1.2491284   -6.3044705    43.120893  0.038638793  0.043851286            1 
   94000    1.2467325   -6.2960713    43.693872  0.038735702  0.043865911            3 
   95000    1.2347413   -6.2928108    44.172164  0.038747512  0.043884215            2 
   96000    1.2301027   -6.2648913    44.895707  0.038971968  0.043903246            6 
   97000    1.2295171   -6.2740606    45.347213  0.038958087  0.043924204            4 
   98000    1.2320591   -6.2324812    46.090008  0.039192184  0.043946666            2 
   99000    1.2120656   -6.2570235    46.277934   0.03895449  0.043961909            2 
  100000    1.2244388   -6.2532753    47.014387  0.039178655  0.043974731            2 
  101000    1.2452832   -6.2621394    47.569489  0.039248753  0.043989604            4 
  102000    1.2173153   -6.2514252    48.115339  0.039309918  0.044004534            5 
  103000    1.2466532   -6.2795467    48.430966   0.03918363  0.044013194            2 
  104000     1.228593   -6.2356572    49.072403  0.039320836  0.044027447            2 
  105000     1.248203   -6.2635487    49.976334  0.039663757  0.044048291            3 
  106000    1.2312586   -6.2853669    50.350472  0.039583704  0.044069701            1 
  107000    1.2240069   -6.2603833    51.023214  0.039737705  0.044090449            1 
  108000    1.2554089   -6.2975096    51.311154   0.03959194  0.044113857            4 
  109000    1.2523252   -6.2723633    52.016368  0.039767865  0.044141326            3 
  110000    1.2471723   -6.3372776    52.811168  0.040008461  0.044169541            4 
  111000    1.2208103   -6.3011154    53.167305  0.039915394  0.044193743            2 
  112000    1.2355113    -6.249791    53.632555  0.039905175   0.04421363            2 
  113000     1.236297   -6.2962089    54.103569  0.039899387  0.044231207            3 
  114000    1.2193996   -6.2755266    54.896308   0.04012888  0.044250132            4 
  115000    1.2441733   -6.2763436    55.189848  0.039992644  0.044266368            2 
  116000    1.2205841    -6.302829     55.35311  0.039765165  0.044268222            2 
  117000    1.2515021   -6.2573806    56.162762  0.040001967   0.04427034            2 
  118000     1.236915   -6.2848528    56.675777  0.040025266  0.044273086            6 
  119000    1.2365771   -6.2951818    57.052027    0.0399524  0.044276088            3 
  120000    1.2388303   -6.2590126    57.441759   0.03989011  0.044274827            4 
  121000     1.234713   -6.3022829    58.239238  0.040109668  0.044281909            4 
  122000    1.2463037   -6.2703003    58.836359  0.040188769  0.044284626            3 
  123000    1.2208424   -6.2695863    59.463098  0.040286651  0.044286987            3 
  124000    1.2390588   -6.2789113    60.124822  0.040406466  0.044294825            2 
  125000     1.233936   -6.2821455    60.537805  0.040358537  0.044308259            1 
  126000    1.2218054   -6.2732395    61.113385  0.040418905   0.04432009            3 
  127000     1.234186   -6.2719462    61.670667  0.040466317   0.04433192            7 
  128000    1.2230793   -6.2911656    61.997863  0.040363192  0.044338914            2 
  129000    1.2627819   -6.2653792    62.694953  0.040500616  0.044343299            2 
  130000     1.225494   -6.2973971     63.08343  0.040438096  0.044346178            3 
  131000    1.2257066   -6.2834417    63.710642  0.040528398  0.044351849            7 
  132000    1.2481162     -6.26789    64.145738  0.040496046  0.044357314            4 
  133000    1.2313964   -6.2830325    64.415495  0.040360586  0.044355407            2 
  134000    1.2211268   -6.3184322     65.00588  0.040426542  0.044355286            2 
  135000    1.2159987   -6.2698439    65.441369  0.040395907  0.044350162            4 
  136000    1.2209439   -6.2983252    65.721812  0.040270718  0.044344189            1 
  137000    1.2291479    -6.264155    66.527114  0.040466614  0.044336045            2 
  138000    1.2148612   -6.2609337    67.030093  0.040477109  0.044327969            2 
  139000    1.2301651    -6.288832    67.266304   0.04032752  0.044317123            2 
  140000    1.2234339   -6.2824688    67.772769  0.040340934  0.044309417            3 
  141000    1.2192121   -6.3267858    68.530455  0.040502633  0.044302543            2 
  142000    1.2339416   -6.2637641    68.581421  0.040247313  0.044292942            3 
  143000    1.2426656   -6.3194039    69.611564  0.040566179  0.044284806            5 
  144000    1.2346818   -6.2742538    70.153115  0.040597867  0.044277547            2 
  145000    1.2158483   -6.2954467    70.816868  0.040699349    0.0442743            2 
  146000    1.2102301   -6.2530952    71.338973  0.040718592  0.044270944            2 
  147000    1.2323071   -6.3255803    71.514564  0.040541136  0.044267025            2 
  148000    1.2594265    -6.273855    72.337456  0.040730549  0.044263896            5 
  149000    1.1882906    -6.267511    72.867428  0.040753595  0.044261334            2 
  150000    1.2460158   -6.2601231    73.213118  0.040673954   0.04425542            3 
  151000    1.2292517   -6.2704539    73.694978  0.040670518  0.044247206            2 
  152000     1.216859   -6.3092222    74.053257  0.040599373  0.044236673            5 
  153000    1.2345008   -6.2775365    74.686784  0.040679076  0.044224172            3 
  154000    1.2288358   -6.2851725    75.059377  0.040616546  0.044211401            6 
  155000    1.2143544   -6.2930159    75.490489  0.040586284  0.044198643            1 
  156000    1.2001914   -6.3057394    75.894663  0.040542021  0.044183522            2 
  157000    1.2256802   -6.2791781    76.559409  0.040636629  0.044168047            1 
  158000     1.224267   -6.3095972      77.1519   0.04069193  0.044154515            2 
  159000    1.2276422   -6.3309909    77.681136  0.040713384  0.044144028            4 
  160000    1.2274493   -6.2979241    78.281745  0.040771742   0.04413492            3 
  161000     1.234585   -6.2817129    78.628202  0.040697827  0.044126174            3 
  162000    1.2276448   -6.2993499    79.339915  0.040812713   0.04411553            2 
  163000    1.2028422   -6.3151333    79.447901  0.040617536   0.04410289            3 
  164000    1.2384873   -6.3008456    80.105799  0.040704166   0.04408811            2 
  165000    1.2091304      -6.3078    80.211832  0.040511026  0.044071393            3 
  166000    1.2080493   -6.3062176    81.015364  0.040670364  0.044054003            2 
  167000    1.2083056   -6.3206362    81.330008  0.040583836  0.044036922            1 
  168000    1.2177264   -6.2794233    82.008078   0.04067861  0.044020771            2 
  169000     1.212149   -6.2948738    82.060773  0.040463892  0.044002119            1 
  170000    1.2256081   -6.2825889    82.771957  0.040574489  0.043981918            1 
  171000    1.2195711   -6.2905806    83.192057  0.040541938  0.043962169            1 
  172000    1.2131695   -6.2867776    83.677497  0.040541423    0.0439419            1 
  173000     1.242187   -6.2519874    84.106082  0.040513527  0.043921857            2 
  174000    1.2204195   -6.2879713    84.834772   0.04062968  0.043901418            3 
  175000    1.2350367   -6.2965815    84.880567  0.040419317   0.04388015            2 
  176000    1.2493581   -6.2710604    85.614007  0.040536935  0.043857586            4 
  177000    1.2110526   -6.2514598    86.416929  0.040685936  0.043837635            1 
  178000    1.2436507   -6.2804303    86.336266    0.0404196  0.043815946            2 
  179000    1.2152659   -6.2541792    86.992017  0.040499077  0.043792952            4 
  180000    1.2217784   -6.3024429    86.990653   0.04027345  0.043764128            1 
  181000    1.2004366   -6.3078554    87.631769  0.040346118  0.043735648            3 
  182000    1.2429852   -6.3066106    87.952236   0.04027117  0.043706575            2 
  183000     1.220509   -6.2980701    88.746454  0.040412775  0.043679723            3 
  184000    1.2309354   -6.2362761    89.313805  0.040450093  0.043656637            3 
  185000    1.2143729    -6.294507    89.793943  0.040447722  0.043631913            2 
  186000    1.2236968   -6.2771996    90.195161  0.040410018  0.043608211            2 
  187000    1.2184843   -6.3107652    90.573438  0.040362494  0.043582335            2 
  188000     1.235487     -6.30532    91.111743  0.040386411  0.043557984            2 
  189000    1.2160477   -6.3113252    91.706367  0.040434906  0.043532666            2 
  190000    1.2415117   -6.3155829    92.154813  0.040418778  0.043508603            3 
  191000    1.2192425    -6.279988    93.037049  0.040592081  0.043484385            1 
  192000    1.2248824   -6.3296042    92.777743  0.040268118  0.043460822            3 
  193000    1.2011427   -6.3032982    93.521975  0.040380818  0.043434973            2 
  194000    1.1933554    -6.269985    93.954093  0.040358287  0.043411077            2 
  195000    1.2374018   -6.2988357    94.615533  0.040433988  0.043387829            3 
  196000     1.211571   -6.3021113    95.046148  0.040410777  0.043366735            2 
  197000    1.2097598   -6.2840928    95.767312  0.040510707  0.043346428            2 
  198000    1.2170541   -6.3177035    96.225371  0.040498893  0.043327302            3 
  199000    1.2319987   -6.3197052    96.795764   0.04053424  0.043307872            1 
  200000    1.2299241   -6.3092422     97.50642  0.040627675  0.043291074            5 
  201000    1.2090952   -6.2594043    98.338228   0.04077041  0.043275929            2 
  202000    1.2276137   -6.2478355    98.514776  0.040641409  0.043262814            2 
  203000    1.2309331   -6.2720408    99.326963  0.040774615  0.043250803            3 
  204000    1.2070081   -6.3359861    99.616636   0.04069307  0.043241806            2 
  205000    1.2315668   -6.2533219    100.57027  0.040882225   0.04323316            2 
  206000    1.2283245   -6.2823193    101.18431  0.040932165  0.043225726            3 
  207000     1.224828   -6.2824789    101.86487    0.0410084  0.043220243            2 
  208000    1.2495421   -6.2895531    102.25835   0.04096889  0.043216132            1 
  209000     1.214778   -6.3216012    102.57713   0.04089997  0.043212961            3 
  210000     1.226912   -6.3153776     102.8556  0.040815714    0.0432067            3 
  211000    1.2079959    -6.296611     103.4383  0.040852409  0.043198606            1 
  212000    1.2016784   -6.2504222    103.91673  0.040847769  0.043189913            2 
  213000    1.1808885   -6.2781883    104.28905  0.040801661  0.043181309            3 
  214000    1.2058609   -6.2972949    104.84487   0.04082744  0.043171707            1 
  215000    1.1998586   -6.3289161    105.24627  0.040793127  0.043160695            4 
  216000    1.1974764   -6.3186919    105.30921  0.040628554  0.043148314            2 
  217000    1.2169424   -6.2777521    105.86976  0.040656589  0.043134111            2 
  218000    1.2088782    -6.311448    106.02472  0.040529328  0.043120302            4 
  219000    1.2337643   -6.3206397    106.82339   0.04064817  0.043106631            2 
  220000    1.1973415   -6.3246581    107.12128  0.040576241  0.043093988            1 
  221000    1.2204443   -6.2954436    108.30105  0.040837499  0.043081481            5 
  222000    1.1933291   -6.2809753    108.74485  0.040820138   0.04306971            1 
  223000    1.2088648   -6.3176913    109.40656  0.040884364  0.043057291            3 
  224000    1.2227103    -6.309324    109.46859  0.040724923  0.043044336            8 
  225000    1.2202097   -6.3165604    109.62409  0.040601513  0.043032165            5 
  226000    1.2201901   -6.3222163    110.52992  0.040755868  0.043018963            2 
  227000    1.2015207   -6.2857388    110.93611  0.040725443  0.043006878            1 
  228000    1.2267349   -6.3159222    111.45501  0.040736482  0.042994237            3 
  229000     1.196356   -6.3531125    111.85203  0.040703068  0.042981855            3 
  230000    1.2110316    -6.311564    112.42579  0.040733983  0.042969007            2 
  231000    1.2271929   -6.3243694    112.98685  0.040760048  0.042957259            2 
  232000    1.1991401   -6.3099269    113.59276  0.040801999  0.042946107            1 
  233000     1.166869   -6.3476066    113.68974  0.040661566   0.04293327            1 
  234000    1.1977921   -6.2555546     114.1297  0.040644481  0.042919732            2 
  235000    1.2069565   -6.3019639    114.70951   0.04067713  0.042905058            2 
  236000    1.2140466   -6.3025701    114.93286  0.040583638  0.042890933            1 
  237000     1.224741   -6.3244598    115.75283  0.040700715  0.042878379            5 
  238000    1.1953608   -6.3126896    116.21308  0.040690853  0.042865216            1 
  239000    1.2076281   -6.3059594    116.84791  0.040741949  0.042854705            1 
  240000    1.2116105   -6.2826575    116.54841  0.040468198  0.042841229            4 
  241000     1.224039   -6.3217735    117.38832  0.040590705  0.042826486            2 
  242000    1.2120134    -6.301428    118.00443  0.040635135  0.042811557            5 
  243000    1.2511017   -6.2917578     118.1922  0.040532304  0.042797115            1 
  244000    1.1964099   -6.3325874    118.69928  0.040539373  0.042781513            2 
  245000    1.2241208   -6.3305867    118.73434   0.04038583  0.042763969            1 
  246000     1.200751   -6.3276549    119.11855  0.040351811  0.042746449            1 
  247000    1.1774649   -6.3165352    120.11268  0.040523846  0.042727637            1 
  248000    1.1678362   -6.3022322    120.21535  0.040394941  0.042710794            2 
  249000    1.2144812   -6.3019896    121.01699  0.040500999  0.042695497            3 
  250000     1.209675   -6.3172822    121.57431   0.04052477  0.042680232            1 
  251000    1.2010537   -6.3459842    122.13426  0.040549222  0.042666322            6 
  252000    1.1824208   -6.3258575    122.49963  0.040509135  0.042652363            5 
  253000    1.2041301   -6.2931725    123.50564  0.040680383  0.042639501            5 
  254000    1.2191719   -6.3459601    123.59699  0.040550195  0.042624734            4 
  255000    1.2205765    -6.294112    124.25783  0.040607135  0.042610377            3 
  256000    1.1662037   -6.2737086    124.96364   0.04067827   0.04259903            2 
  257000    1.2129802   -6.3032991    125.26705   0.04061837   0.04258922            1 
  258000    1.2357657   -6.3424525    125.73224  0.040611187  0.042578039            1 
  259000    1.2037412   -6.3361682    126.18293  0.040599399  0.042566769            2 
  260000    1.2297389   -6.3157332    126.56465  0.040565593  0.042554717            2 
  261000    1.1996469   -6.3048948    127.09417  0.040579236  0.042542669            5 
  262000    1.1967726   -6.3249747    127.30031   0.04048992  0.042530528            4 
  263000    1.2402623   -6.3192087    127.89868  0.040525565   0.04251778            3 
  264000     1.184236   -6.3121041    128.13184  0.040445655  0.042503229            2 
  265000    1.1794329   -6.2771718    129.13563  0.040608688  0.042489272            2 
  266000    1.1865145   -6.3285762    129.27812  0.040500664  0.042476881            2 
  267000    1.2208403   -6.3061658    130.15184  0.040621674  0.042464082            2 
  268000    1.2230117   -6.3104745    130.41275   0.04055123  0.042452092            2 
  269000     1.194064   -6.3131505    131.07114  0.040604443  0.042439527            3 
  270000    1.2141239   -6.2865932    131.67373   0.04064004  0.042428721            3 
  271000    1.1934073   -6.3027189    132.36455  0.040702506  0.042418263            2 
  272000    1.2291104   -6.3298943    132.39483  0.040562141  0.042407555            1 
  273000    1.2281113   -6.3047722    133.51856  0.040756582  0.042396398            4 
  274000    1.2346403   -6.3206887    133.28749  0.040537557   0.04238522            3 
  275000    1.2125301   -6.3593093    133.77974  0.040539315  0.042372696            2 
  276000    1.2153626   -6.3394264    134.39646  0.040578641  0.042360056            4 
  277000    1.2209653   -6.3429909    134.81653  0.040558522  0.042352048            4 
  278000    1.2119024   -6.2834285     135.9853  0.040762978  0.042344149            2 
  279000    1.1942585   -6.3253905    136.35567    0.0407275  0.042335846            2 
  280000    1.2072446   -6.3199538    137.10496  0.040805047  0.042328327            3 
  281000     1.195798   -6.3009412     137.3512  0.040732857  0.042321359            3 
  282000    1.1809695    -6.334799    137.75177  0.040706787   0.04231472            3 
  283000    1.2098397   -6.3442716    138.15259  0.040680974  0.042306258            2 
  284000    1.2168108   -6.3223077    138.30575  0.040582673  0.042297062            3 
  285000    1.2379844   -6.3339681    138.41427  0.040472009  0.042287471            4 
  286000    1.1939376   -6.2997954    138.84653  0.040456448  0.042275914            2 
  287000    1.2072831   -6.2969926    139.86274  0.040610552  0.042266523            2 
  288000    1.1904523   -6.3348537    140.78307  0.040735841  0.042258388            1 
  289000    1.2208321   -6.3363256    141.30358  0.040744978  0.042251659            3 
  290000    1.1927655   -6.3118836    140.88338  0.040483731  0.042242863            4 
  291000     1.211155   -6.3544949    141.51497  0.040525478  0.042232519            3 
  292000     1.220969   -6.3149235    142.13169  0.040562696  0.042220844            2 
  293000    1.1812848   -6.3262524     142.5183  0.040534214  0.042209451            1 
  294000    1.1997961   -6.2936657    143.36855  0.040637345  0.042199286            2 
  295000    1.2171682   -6.2916632    143.74139  0.040604912  0.042190338            3 
  296000    1.1985239   -6.3379909    143.83981  0.040495443  0.042179492            2 
  297000    1.1609679   -6.3343058    144.10293  0.040432922  0.042168275            3 
  298000     1.184762   -6.3165996    144.95303  0.040534963  0.042157818            3 
  299000    1.2127261   -6.3109479    145.60523  0.040581169  0.042147081            2 
  300000    1.2038852   -6.3431273    145.94276  0.040539656  0.042136502            2 
  301000    1.1745728   -6.3593357    145.85703  0.040381237  0.042125026            3 
  302000    1.2190337   -6.3319883    146.58203  0.040447581  0.042113678            2 
  303000    1.2104587   -6.2883255     147.4763  0.040560039  0.042103151            2 
  304000    1.2179061   -6.3516432    148.02275  0.040576413  0.042093397            2 
  305000     1.201185   -6.3157294    148.56304  0.040590994  0.042083592            2 
  306000    1.2120554   -6.3512077     148.9124  0.040553485  0.042073475            3 
  307000     1.207499   -6.3235507    149.23274  0.040508345   0.04206479            2 
  308000    1.2154915   -6.3432213    149.56095  0.040465626  0.042056081            2 
  309000    1.1969081   -6.3340184    150.38823  0.040557776   0.04204772            1 
  310000    1.2004981   -6.3018101    151.25914   0.04066106  0.042040714            3 
  311000    1.2140139   -6.3255888    151.47879  0.040589171  0.042033802            2 
  312000    1.2018561   -6.2933398    152.26172  0.040668195  0.042026725            4 
  313000    1.1902926   -6.3681189    152.68525  0.040651026  0.042021361            2 
  314000    1.1859259    -6.286089     153.4955  0.040736597  0.042014777            2 
  315000    1.1939294   -6.3466879     153.7236  0.040667619  0.042008786            3 
  316000    1.1846549   -6.3332288    153.93787  0.040595429  0.042001105            4 
  317000    1.1871799   -6.3476887    154.76736  0.040685426  0.041994439            4 
  318000     1.158311   -6.3474841    154.82487  0.040572555   0.04198721            4 
  319000    1.2394496   -6.3302715    155.15227  0.040530896  0.041977558            3 
  320000    1.1923872   -6.3539391    154.71852  0.040291281  0.041967628            2 
  321000    1.1976318   -6.3381336    156.46937  0.040620293   0.04195987            4 
  322000    1.1942634   -6.3376889    156.37356  0.040469347  0.041952179            3 
  323000    1.2122468   -6.3035129    157.29644  0.040582158  0.041942603            4 
  324000    1.2133431   -6.3096133    157.24104  0.040442655  0.041934465            1 
  325000    1.1909037   -6.3453965    158.05616   0.04052722  0.041927402            2 
  326000    1.2057137   -6.3363395    158.86609  0.040609941   0.04191882            1 
  327000    1.2125458   -6.3230368    158.98015   0.04051482  0.041910165            2 
  328000      1.19274   -6.3357871    159.63247  0.040557029  0.041899408            3 
  329000     1.194798   -6.3709353    158.71058  0.040200248  0.041888072            1 
  330000    1.2041925   -6.3574121    159.86828  0.040370779  0.041877544            2 
  331000    1.1900596   -6.3382511    160.83638  0.040492543  0.041865929            2 
  332000    1.2251789   -6.3702426    161.30641  0.040488557  0.041854851            4 
  333000    1.2056432   -6.3236378    160.71167  0.040218134  0.041842638            2 
  334000    1.1861491   -6.3554745    161.41127  0.040272273  0.041830587            1 
  335000    1.1880778   -6.3407436    161.35171  0.040137242   0.04181841            4 
  336000    1.2421463   -6.3369316    162.45052  0.040290307  0.041805371            5 
  337000    1.1739417   -6.3104047     162.9707  0.040299383  0.041792212            3 
  338000    1.2082513    -6.330432    163.08425  0.040208149  0.041779201            2 
  339000    1.2162486   -6.3479911     163.1776  0.040112488  0.041766215            3 
  340000    1.1729636   -6.3483785    163.82138  0.040152298  0.041752708            4 
  341000    1.2016546   -6.3553671    164.80812  0.040275689  0.041739938            1 
  342000    1.1882276   -6.3366232    165.17524  0.040247379   0.04172844            2 
  343000    1.1893419   -6.3611126     165.4311  0.040192201  0.041715931            3 
  344000     1.172383   -6.3415388    166.04205  0.040223364    0.0417043            3 
  345000    1.2000756    -6.363125    165.90561  0.040073818  0.041692039            2 
  346000    1.2117822   -6.3457133    167.26389  0.040285137  0.041679961            2 
  347000    1.2241359   -6.3166132    167.12437  0.040135536   0.04166724            1 
  348000    1.1888426   -6.3346665     167.1377  0.040023395  0.041653891            5 
  349000    1.1909971   -6.3249137    167.41942  0.039975984  0.041639791            3 
  350000     1.166639   -6.3440745    168.72059  0.040171569  0.041625059            3 
  351000    1.2212211   -6.3495168     168.4613   0.03999556  0.041610474            6 
  352000    1.1849236   -6.3226145    169.05027  0.040021371  0.041595504            2 
  353000    1.2200444   -6.3825368    169.46746  0.040006483  0.041580065            3 
  354000    1.2063143   -6.3262681    169.95396  0.040007995  0.041566283            1 
  355000    1.2045795   -6.3309565    170.72868  0.040077156  0.041553378            5 
  356000    1.2066399   -6.3251351    171.55451  0.040157892  0.041540119            2 
  357000    1.1987492   -6.3474468    171.09379   0.03993786  0.041527035            1 
  358000    1.1887484   -6.3394598    171.59359  0.039942642  0.041513314            4 
  359000     1.190833   -6.3579007     172.1488   0.03996026  0.041499959            3 
  360000    1.1796515   -6.3743942     172.2912  0.039882223  0.041486114            2 
  361000    1.2145356   -6.3512345    173.16878  0.039974326  0.041473655            5 
  362000    1.1680329   -6.3505531    174.23132  0.040108498  0.041462364            5 
  363000    1.1776668   -6.3595733    174.61768  0.040086702  0.041451539            4 
  364000    1.1512027    -6.371833    175.28343   0.04012899  0.041440698            3 
  365000    1.1869353   -6.3382338    175.58478  0.040087849  0.041429752            3 
  366000    1.1923702   -6.3501994    176.44166   0.04017342  0.041419059            2 
  367000    1.1895582   -6.3040062    176.92123   0.04017285  0.041408814            3 
  368000    1.2061986   -6.3709313    176.76737  0.040028842  0.041398873            2 
  369000    1.1939552   -6.3349493    177.91016  0.040178447  0.041388745            1 
  370000    1.2259829   -6.3779986    177.25339  0.039921934  0.041377678            4 
  371000    1.2060186   -6.3364006    178.17452   0.04002123  0.041367278            4 
  372000    1.1908214   -6.3575255    178.84667  0.040064218  0.041356576            3 
  373000    1.2047731    -6.355523    179.84544  0.040179946  0.041346043            3 
  374000    1.1907668   -6.3343273    179.89743  0.040084098   0.04133669            6 
  375000    1.1862605   -6.3477976    180.60422  0.040134271  0.041327619            2 
  376000    1.1902382   -6.3651249    181.53732  0.040234334  0.041318426            3 
  377000    1.1624627   -6.3641456    181.37456  0.040091635  0.041309137            2 
  378000    1.1924989   -6.3735073     182.1564  0.040157937  0.041300411            2 
  379000    1.2003322   -6.3499546    182.58871  0.040147033  0.041291915            3 
  380000    1.1992008   -6.3347993     182.5291  0.040028312  0.041283687            3 
  381000    1.1673984   -6.3606462    183.69874  0.040179076  0.041276228            2 
  382000    1.1975949   -6.3542929    184.11373  0.040164427  0.041268471            3 
  383000    1.1906612   -6.3202639    184.95732  0.040243107  0.041260485            3 
  384000     1.216562   -6.3221331     185.3772  0.040229426  0.041252184            6 
  385000    1.1966108   -6.3597337    185.33171  0.040115088  0.041243488            3 
  386000    1.1902614   -6.3734734    185.99878  0.040155176  0.041234761            2 
  387000    1.1833186   -6.3294565    185.65531  0.039977456  0.041225533            4 
  388000    1.1966211   -6.3747493    186.26559  0.040005497  0.041217226            2 
  389000    1.1822708   -6.3670774    187.41513  0.040148914  0.041209211            3 
  390000    1.1915621   -6.3459325    188.28255  0.040231313  0.041200775            2 
  391000    1.1911812   -6.3798172    187.89717  0.040046286  0.041191896            3 
  392000    1.1888666   -6.3346812    188.86412  0.040149684  0.041183442            3 
  393000    1.2147057   -6.3462874    189.44798  0.040171326   0.04117477            2 
  394000    1.2196296   -6.3444326    189.57086  0.040095359  0.041165865            4 
  395000    1.1705799   -6.3780251    189.73162  0.040027768  0.041157677            2 
  396000    1.1891016   -6.3457957    190.43776  0.040075286  0.041148996            3 
  397000    1.2177047   -6.3541824    191.14649  0.040123109  0.041140768            2 
  398000    1.1907125   -6.3626833    191.12517  0.040017832  0.041132936            4 
  399000    1.2064525   -6.3683084    191.98967  0.040098093  0.041124841            1 
  400000    1.1951689   -6.3457838    191.91783  0.039982882  0.041117197            2 
  401000    1.1791263   -6.3928504     192.1945   0.03994067  0.041108327            3 
  402000    1.1711312   -6.3737387    193.12245  0.040033675   0.04110041            4 
  403000    1.1902898   -6.3436767    193.89592  0.040094276  0.041091493            4 
  404000    1.1622777   -6.3375166    193.34312  0.039881007  0.041082337            2 
  405000    1.1800138   -6.3933593    193.43315  0.039801059   0.04107129            2 
  406000    1.1923122   -6.3521892    195.09373  0.040043869  0.041061723            2 
  407000    1.1769225    -6.356364    195.71119  0.040071906  0.041053963            4 
  408000    1.1816081   -6.3570841    195.92847   0.04001807  0.041046148            3 
  409000    1.1917178   -6.4014122    196.46783   0.04003012  0.041037957            2 
  410000    1.1974627   -6.3990849    197.24571  0.040090591  0.041029717            3 
  411000     1.174387   -6.3887781    196.44809  0.039831324  0.041020753            2 
  412000    1.1738066   -6.3189522    197.42755  0.039932757  0.041011567            2 
  413000    1.1784936   -6.3551485      197.991  0.039949757  0.041002924            1 
  414000    1.1792489   -6.3616241    198.45188   0.03994603  0.040994682            1 
  415000     1.207634   -6.3456123    199.25991   0.04001203  0.040986298            2 
  416000    1.2141325    -6.345436    199.92527  0.040049132  0.040978772            2 
  417000    1.1783178   -6.3833886    200.04887  0.039977791  0.040971508            2 
  418000    1.2010714   -6.3800631    201.23811   0.04011924  0.040965502            1 
  419000    1.1730303   -6.3387577    202.05828  0.040186611  0.040959472            2 
  420000    1.1524525   -6.3619646    201.13945   0.03990862  0.040952897            4 
  421000    1.1772341   -6.3634641    201.65323  0.039915524  0.040944917            3 
  422000    1.1730898   -6.3677129    202.22788  0.039934415  0.040936986            2 
  423000    1.1811302   -6.3790567    202.59631  0.039912591  0.040928537            2 
  424000    1.1804834   -6.3563403    203.79638   0.04005432  0.040922389            3 
  425000    1.1740467   -6.3422015    204.16131  0.040031629  0.040916132            4 
  426000    1.1862533    -6.327856    204.26116   0.03995719  0.040909737            3 
  427000    1.1583065   -6.3379333     205.3704  0.040080093  0.040903464            4 
  428000    1.1811731   -6.4090486    205.77002  0.040064255  0.040897626            1 
  429000    1.1848266   -6.4131895    205.60171  0.039938171  0.040890946            3 
  430000    1.1811175   -6.3840436    206.55751  0.040030525  0.040884091            2 
  431000    1.1822701    -6.381151    207.07693  0.040038077  0.040877633            2 
  432000    1.1584175    -6.363167    207.51754  0.040030389  0.040871076            2 
  433000    1.1898581   -6.3740358    207.12631  0.039862647  0.040864024            1 
  434000    1.1620753   -6.3294022    208.42266  0.040019711  0.040857174            3 
  435000    1.1864712   -6.3211809    208.40939  0.039925171  0.040851113            5 
  436000    1.1961498   -6.3646883    209.39401   0.04002179  0.040844951            3 
  437000    1.1541599   -6.4125834    209.20166  0.039893528  0.040838203            2 
  438000    1.1840844   -6.3715675    210.40866   0.04003209  0.040831981            4 
  439000    1.2046541   -6.3661985    210.30022  0.039920315  0.040825035            2 
  440000    1.1841638   -6.4389126    210.60782  0.039887846  0.040818527            2 
  441000    1.1821772   -6.3798856    211.28016  0.039924444  0.040812199            3 
  442000    1.1766962   -6.3772835    211.44704   0.03986558  0.040805815            2 
  443000    1.1862346   -6.4099885    212.26923  0.039930254  0.040798775            4 
  444000    1.1701788   -6.3519876    212.99402  0.039976355  0.040791884            2 
  445000    1.1396824   -6.3656126     213.8244  0.040042023  0.040785255            5 
  446000    1.1982593   -6.3821745     213.6339  0.039916647  0.040778599            5 
  447000    1.1830026   -6.4198891    214.25617  0.039943358  0.040772156            1 
  448000    1.1953072   -6.3759511    214.92143  0.039977944   0.04076581            2 
  449000    1.1866351   -6.4040754    214.26836  0.039767699  0.040758595            2 
  450000    1.1706858   -6.4101612    215.05015  0.039824103  0.040750727            2 
  451000    1.1769057   -6.3502454    216.01982  0.039914971  0.040742891            2 
  452000    1.1703601   -6.3555613    216.48326  0.039912105  0.040735287            6 
  453000    1.1594887   -6.3615369    217.30288  0.039974776  0.040728551            4 
  454000    1.1882886   -6.3901722    217.70869  0.039961214  0.040722539            7 
  455000    1.1706491   -6.3633573    218.56928  0.040031004  0.040717014            3 
  456000    1.1745394    -6.371021    218.03095  0.039844838  0.040711067            2 
  457000    1.1494875   -6.3238598    219.48445  0.040022694  0.040704997            2 
  458000    1.1850994   -6.3629283     219.8753  0.040006422  0.040699168            2 
  459000    1.1845364   -6.3419497    219.92278  0.039927883  0.040693291            2 
  460000    1.1986574   -6.3806617    221.01053   0.04003814  0.040687397            2 
  461000    1.1817073   -6.4134232    220.50226   0.03985941  0.040681271            3 
  462000    1.1880477   -6.3914339    221.65149  0.039980427   0.04067569            2 
  463000     1.192863   -6.3561132    221.71482  0.039905476  0.040670253            1 
  464000    1.1608559   -6.4249695    221.59874  0.039798623  0.040664378            2 
  465000    1.1868789   -6.3819281    222.36171  0.039849769   0.04065726            8 
  466000    1.2087235   -6.3858621    223.07522  0.039891849  0.040650751            2 
  467000    1.1923944   -6.3662235    224.06112  0.039982356  0.040644252            3 
  468000     1.198203   -6.3772257    223.72874  0.039837738  0.040638514            4 
  469000    1.1606264   -6.3837858    225.24598  0.040022385  0.040633646            2 
  470000    1.1828733   -6.4102876    225.28864  0.039944794  0.040628174            2 
  471000    1.1816083   -6.4059473     225.7419   0.03994018  0.040623285            2 
  472000     1.182956   -6.3847434    225.59558  0.039829728  0.040618262            4 
  473000     1.183514   -6.3555122    226.10546  0.039835352  0.040612378            4 
  474000    1.1834907    -6.411372    226.35178  0.039794617  0.040607036            4 
  475000    1.1647183   -6.4177747    226.25721  0.039694248  0.040600822            2 
  476000    1.1591294   -6.3927419    227.71951  0.039866862  0.040594701            2 
  477000    1.1528149   -6.3869612    227.59284  0.039761153  0.040587764            4 
  478000    1.1744421   -6.3919441    227.62621  0.039683788  0.040580423            2 
  479000    1.1702655   -6.4117354    228.14102  0.039690504   0.04057311            2 
  480000    1.1760479    -6.352836     229.1128  0.039776527  0.040566485            2 
  481000    1.1804594   -6.3486558    229.74792  0.039803867  0.040559961            2 
  482000    1.1464506   -6.4072863    230.12903  0.039787177  0.040553322            3 
  483000    1.2066311   -6.3895318    230.25439   0.03972643  0.040546895            2 
  484000    1.1562777   -6.3682789    231.43895  0.039848305  0.040541847            2 
  485000     1.139911   -6.4176071     231.7763  0.039824106  0.040536015            4 
  486000     1.199365   -6.4412287    231.24107   0.03965039  0.040529216            1 
  487000    1.1811513   -6.3296025    233.17705  0.039900247  0.040522522            2 
  488000    1.1773481   -6.4165136    232.54941  0.039711307  0.040515711            1 
  489000    1.1815357   -6.3541744    233.28662  0.039755729  0.040508524            1 
  490000    1.1579744   -6.3130039    233.58654  0.039725603  0.040501476            2 
  491000    1.1808007   -6.4043042      234.382  0.039779701  0.040494481            3 
  492000    1.1556149   -6.3861878    233.66355   0.03957716  0.040487209            2 
  493000    1.1703937     -6.42085    234.31877  0.039607635  0.040479595            1 
  494000    1.1664057   -6.3930884    235.09824  0.039658947  0.040472434            4 
  495000    1.1536674   -6.3604652    236.32062  0.039784616  0.040466009            4 
  496000    1.1431013    -6.349014    236.01599  0.039653224  0.040458928            2 
  497000    1.1765397   -6.3837511    236.41851  0.039640931  0.040451543            1 
  498000    1.1743869   -6.3870324    237.38641  0.039723295  0.040444268            2 
  499000     1.145622   -6.4106449    237.27104  0.039624422  0.040436239            5 
  500000    1.1767583   -6.4215338    237.87637  0.039646062  0.040428498            2 
  501000      1.18651   -6.3959193    237.52575  0.039508608   0.04042005            2 
  502000    1.1717248   -6.3783615     238.7626  0.039635226  0.040411988            5 
  503000    1.1616024   -6.4158785    238.93423  0.039584862  0.040404478            8 
  504000    1.1686151   -6.3968003    239.49668  0.039599319  0.040396991            3 
  505000    1.1778885   -6.3656371    239.78225  0.039568028  0.040389397            3 
  506000    1.1840029   -6.3960672    239.47263  0.039438839  0.040380986            3 
  507000    1.1657335   -6.4024062    239.62745  0.039386498  0.040372262            3 
  508000    1.1825867   -6.3880113    241.62719  0.039637006  0.040364472            1 
  509000    1.1964074   -6.4288059    240.98658  0.039454253  0.040356605            2 
  510000    1.1465993     -6.44702    240.79465  0.039345531  0.040348169            1 
  511000    1.1649107   -6.4107546    241.68818  0.039414249  0.040339324            4 
  512000     1.154232   -6.4026345    242.54857  0.039477306   0.04033086            2 
  513000    1.1759148   -6.4172871    243.29318  0.039521309  0.040323023            3 
  514000    1.1789821   -6.3801433    243.41434  0.039464063  0.040314538            3 
  515000    1.1418298   -6.3769004    243.94597  0.039473457  0.040306135            4 
  516000    1.1484612   -6.3858533    244.38761  0.039468283  0.040297654            2 
  517000    1.1958654   -6.3885668    245.37486  0.039551073  0.040289612            3 
  518000    1.1570816   -6.3837955     244.9878  0.039412452    0.0402814            7 
  519000     1.149884   -6.4102297    244.88876   0.03932061  0.040272168            3 
  520000    1.1727886   -6.3864925    245.65168  0.039367257  0.040263071            4 
  521000    1.1617268   -6.3643737     246.1262  0.039367595  0.040254106            2 
  522000    1.1719004    -6.369126    246.91494  0.039418094  0.040245865            7 
  523000    1.1759367   -6.3708885    247.15547   0.03938105  0.040237309            1 
  524000    1.1496754   -6.4315729    247.78877  0.039406611  0.040229006            2 
  525000    1.1682408   -6.4156048     248.1734  0.039392603  0.040220393            5 
  526000    1.1631755   -6.4246365    248.77257  0.039412638  0.040211982            5 
  527000    1.1684624   -6.3921787    249.02386  0.039377588  0.040203239            5 
  528000    1.1605649   -6.3877308    249.99547  0.039456356  0.040194725            3 
  529000    1.1460257   -6.4316587    249.05928  0.039234292   0.04018552            1 
  530000    1.1585178   -6.3767664    249.31652  0.039200711  0.040175969            3 
  531000    1.1873223   -6.3923128    250.48061  0.039309574  0.040166137            3 
  532000    1.1696996   -6.4142933    249.22897  0.039039626  0.040156562            2 
  533000    1.1762283   -6.4204258    249.58719  0.039022387  0.040145887            2 
  534000    1.1643013    -6.374682     250.8279  0.039142931  0.040134956            3 
  535000    1.1541061   -6.4306168    251.27217  0.039138967  0.040124245            3 
  536000    1.1566286   -6.3945343    251.13469  0.039044573  0.040113608            4 
  537000    1.1687548    -6.381602    252.22857  0.039141616  0.040103373            3 
  538000    1.1706724   -6.3837502    252.81061  0.039159016  0.040093459            2 
  539000    1.1487108   -6.3838365    252.89463  0.039099356  0.040084397            3 
  540000    1.1741619   -6.3944079    254.50311  0.039275172  0.040074808            3 
  541000     1.143408   -6.3997638    254.74477  0.039239798  0.040065203            3 
  542000    1.1799882   -6.3691736    254.86787  0.039186328  0.040055833            2 
  543000    1.1640464   -6.3880149    255.10029  0.039149829  0.040046249            6 
  544000    1.1647759   -6.4455419    255.41175  0.039125574  0.040036194            5 
  545000    1.1677914   -6.4048738    255.67254   0.03909366  0.040026151            2 
  546000     1.159415   -6.3939471    256.41249  0.039134995  0.040015676            1 
  547000    1.1880212     -6.38394    256.68964  0.039105674  0.040005956            3 
  548000    1.1860613   -6.4279037    257.14424  0.039103443  0.039995887            5 
  549000    1.1824467   -6.4103198    256.74799  0.038972069  0.039985507            3 
  550000    1.1752118   -6.3786055    257.70747  0.039046587  0.039975601            2 
  551000    1.1878308   -6.4107715    258.10576  0.039035959  0.039965961            3 
  552000    1.1706327   -6.4226888    259.39309  0.039159585  0.039956735            2 
  553000    1.1743341   -6.3917619    260.01629  0.039182684  0.039948336            5 
  554000    1.1472271   -6.3759114    259.69788  0.039064061  0.039939542            3 
  555000    1.1768322   -6.4057251    260.57229  0.039124969  0.039931112            2 
  556000    1.1583283   -6.3681669    261.46215  0.039187973  0.039922323            2 
  557000    1.1537194   -6.3711944      262.122  0.039216337  0.039913727            3 
  558000    1.1573593    -6.402141    261.29346  0.039022321  0.039905026            2 
  559000    1.1470777   -6.4106202    262.95372  0.039200018  0.039895735            2 
  560000    1.1440129   -6.4195771    262.42657  0.039051572   0.03988585            3 
  561000    1.1534886   -6.3672238    262.48949  0.038991308  0.039876368            8 
  562000    1.1549048   -6.4209112    263.76087   0.03911045  0.039867031            6 
  563000    1.1730317   -6.3933199    263.97486  0.039072655  0.039857476            2 
  564000    1.1877244   -6.4197608    263.99761  0.039006738  0.039848449            7 
  565000    1.1457581   -6.3948998    264.25358  0.038975454  0.039839114            3 
  566000    1.1476424   -6.4048334    265.05914  0.039025197  0.039830356            3 
  567000     1.177588   -6.4652732    263.97092  0.038796432  0.039821357            3 
  568000    1.1695198   -6.4118185    265.14751  0.038900749  0.039811827            2 
  569000    1.1439917   -6.4229089    265.39606  0.038868784  0.039801808            3 
  570000    1.1604406   -6.4148642    266.40897  0.038948679  0.039791306            4 
  571000    1.1851259   -6.4252147    266.09264  0.038834303  0.039780903            5 
  572000    1.1557667   -6.3769622    266.99467  0.038897825  0.039770868            3 
  573000    1.1318841   -6.3879252    267.85084  0.038954456  0.039761853            3 
  574000    1.1479788   -6.4376009    267.44578  0.038827785  0.039751931            3 
  575000     1.188931   -6.4403432    267.90795  0.038827239  0.039741977            6 
  576000    1.1645158   -6.3613935     269.3032  0.038961689  0.039732461            2 
  577000    1.1265047   -6.3962059    269.43612  0.038913362  0.039723357            3 
  578000    1.1357153   -6.4374584    270.04963   0.03893449  0.039714334            6 
  579000    1.1617086   -6.3805807    270.13816  0.038879989  0.039705139            3 
  580000    1.1443123   -6.4182294    271.16595  0.038960625  0.039696189            2 
  581000    1.1630522   -6.3824982     271.6273  0.038959738   0.03968743            2 
  582000    1.1918597   -6.4211835    271.64151  0.038894832  0.039678462            7 
  583000    1.1395749   -6.4187242    272.08191  0.038891068  0.039668852            2 
  584000    1.1510272   -6.4156034    272.84657  0.038933586  0.039659954            3 
  585000    1.1581454   -6.4017717    273.12561  0.038906782  0.039651052            2 
  586000    1.1514349    -6.392628    274.31201  0.039009103  0.039642635            2 
  587000    1.1684559   -6.4050879    273.86564  0.038879279  0.039633713            4 
  588000    1.1459828   -6.4366899    274.29671  0.038874251  0.039625108            2 
  589000    1.1604121    -6.402186    275.14121  0.038927732  0.039616457            1 
  590000    1.1466891   -6.4457437    273.80759  0.038673389  0.039607404            3 
  591000     1.174766    -6.389813    275.03871  0.038781544  0.039598238            4 
  592000    1.1523315   -6.4535478    275.10894   0.03872592  0.039588498            6 
  593000    1.1646134   -6.4207388    275.77605  0.038754364  0.039579145            3 
  594000    1.1289996   -6.3794679     276.2079  0.038749706  0.039569747            2 
  595000    1.1717471   -6.4070518    276.86234  0.038776238  0.039560231            6 
  596000    1.1640163    -6.400819    277.65734  0.038822334  0.039551068            2 
  597000    1.1811102   -6.4634606    277.67199  0.038759351  0.039541867            3 
  598000    1.1699361   -6.4140563    278.38043  0.038793259  0.039533225            2 
  599000    1.1491232   -6.4164912    277.53584  0.038610996  0.039524549            2 
  600000    1.1599229   -6.4316153    279.52208  0.038822511  0.039515865            3 
  601000    1.1812473   -6.3986766     279.6551  0.038776359  0.039507584            1 
  602000    1.1543682   -6.4282096    280.59438  0.038841969  0.039499089            2 
  603000    1.1656046   -6.4043356    281.31247  0.038876793  0.039490919            2 
  604000    1.1517938   -6.4353587    281.26396  0.038805734  0.039482488            2 
  605000    1.1165836   -6.4273001    281.28443  0.038744412  0.039474157            2 
  606000    1.1808586   -6.4213942    282.09092  0.038791381  0.039465671            2 
  607000    1.1431882   -6.3769753     282.7044  0.038811697  0.039457422            4 
  608000    1.1481767   -6.4473357    282.19901  0.038678592  0.039449033            2 
  609000    1.1410895    -6.435553    284.11846  0.038877731  0.039440727            3 
  610000    1.1201514   -6.4224155    283.95564  0.038791755  0.039432628            6 
  611000    1.1495639    -6.392457     283.7229  0.038696522  0.039424242            6 
  612000    1.1704157   -6.4149126     284.6322  0.038757108  0.039415635            2 
  613000    1.1641152   -6.4575162    284.92768  0.038734051  0.039407019            3 
  614000    1.1351552   -6.4575221     285.0708  0.038690391  0.039398736            4 
  615000    1.1401182    -6.433658     284.4172  0.038538916  0.039389927            2 
  616000     1.130567   -6.3990026    286.52797  0.038761901  0.039381665            4 
  617000    1.1656695   -6.4351999     285.9235  0.038617437  0.039373219            5 
  618000    1.1584396   -6.4054452    287.52668  0.038771127   0.03936487            4 
  619000    1.1457334   -6.4535187    287.05505  0.038644998  0.039356725            2 
  620000     1.159551   -6.4346563    288.86294  0.038825664  0.039348904            2 
  621000    1.1161427   -6.4188428    289.01083  0.038782989  0.039340889            6 
  622000    1.1513038   -6.4083184    288.15832   0.03860642  0.039333002            3 
  623000    1.1524205   -6.4411892    289.30655   0.03869804  0.039324672            4 
  624000     1.157743   -6.3970593    290.36038  0.038776759   0.03931632            2 
  625000    1.1561935   -6.4248612    290.98623  0.038798164  0.039308087            3 
  626000    1.1610136    -6.408433    290.19453  0.038630795  0.039299901            2 
  627000    1.1537729   -6.4023131     291.0529  0.038683267  0.039291798            5 
  628000    1.1371207   -6.4553464    291.81928  0.038723365  0.039283742            4 
  629000    1.1745461   -6.4451177    290.77343  0.038523242  0.039275469            3 
  630000    1.1373591   -6.4113333    291.73574  0.038589384  0.039267127            7 
  631000    1.1515416   -6.4450092    292.46651  0.038624737  0.039259128            3 
  632000    1.1332308   -6.4018761    293.78928  0.038738038  0.039251454            3 
  633000    1.1331147   -6.4415311    293.38093  0.038623082  0.039243571            3 
  634000     1.148279   -6.4128484    294.39485  0.038695433  0.039235895            1 
  635000    1.1602689   -6.4456615    294.00392  0.038583192  0.039228006            4 
  636000    1.1519283   -6.4378301    294.87777  0.038637025  0.039220315            7 
  637000    1.1563916   -6.4333042    296.61508  0.038803647   0.03921322            2 
  638000    1.1602102    -6.451226    295.83023  0.038640313  0.039206394            2 
  639000    1.1623274   -6.4493422    296.14369  0.038620721  0.039198953            1 
  640000    1.1262934    -6.421394    297.02241  0.038674793  0.039191814            3 
  641000    1.1695702   -6.4193925    298.27338   0.03877709   0.03918499            2 
  642000    1.1506342   -6.4224678    297.71506  0.038644219  0.039178115            1 
  643000    1.1562921   -6.3868425    298.30448  0.038660508  0.039171899            6 
  644000    1.1497138   -6.4125501    297.62642  0.038512735  0.039164998            2 
  645000    1.1547595   -6.4362035    299.81945  0.038736363  0.039158505            6 
  646000    1.1362809   -6.4294088     300.6011  0.038777232  0.039152036            5 
  647000    1.1615952   -6.3931915     301.2348  0.038798918  0.039146019            5 
  648000    1.1490739   -6.4529427    300.61975  0.038659947  0.039139598            2 
  649000    1.1207726   -6.4560739    301.27798  0.038684898  0.039133426            3 
  650000    1.1350484   -6.4483489    301.26798    0.0386241  0.039127321            6 
  651000    1.1592066    -6.437601    303.01799  0.038788785  0.039120942            2 
  652000    1.1330519   -6.3815895    303.80011  0.038829258  0.039114772            2 
  653000    1.1303453   -6.4165088    302.96088  0.038662695  0.039109223            2 
  654000    1.1505749   -6.4704223    302.29209  0.038518361  0.039103234            3 
  655000    1.1400298   -6.4055324    303.40291  0.038600879  0.039097008            2 
  656000    1.1338319   -6.4435268    304.23442  0.038647666  0.039090802            4 
  657000    1.1384034   -6.4350195    304.14638  0.038577673  0.039084352            4 
  658000    1.1255074   -6.4030237    306.04239  0.038759167  0.039078189            5 
  659000    1.1314257   -6.4510901    306.55453  0.038765115  0.039072233            1 
  660000    1.1598918   -6.3939685    305.91866  0.038626094  0.039066126            3 
  661000    1.1268025   -6.4351797    305.33303  0.038493826   0.03905995            2 
  662000    1.1311276    -6.425366    306.53285  0.038586713  0.039053391            4 
  663000    1.1440017   -6.4026408    307.66373  0.038670655  0.039047053            4 
  664000    1.1726225   -6.4482221    307.76235  0.038624792  0.039040682            5 
  665000    1.1650991   -6.4430753    307.74612  0.038564677  0.039034284            2 
  666000    1.1462852    -6.428705    308.12523  0.038554208  0.039028077            3 
  667000    1.1359585   -6.4496089    308.76181  0.038575938  0.039021733            3 
  668000    1.1207754   -6.4376816    309.01549  0.038549837  0.039015536            4 
  669000     1.142959   -6.4624937    310.26801  0.038648233  0.039008826            2 
  670000     1.165148   -6.4135751     310.2115   0.03858352  0.039002089            2 
  671000    1.1408241   -6.4233421     311.5299  0.038689754  0.038995618            3 
  672000    1.1133272   -6.4938897    310.33354  0.038483822  0.038989426            3 
  673000    1.1303155   -6.4509537    311.95771   0.03862775  0.038983215            3 
  674000    1.1616582   -6.4391466    312.55345  0.038644096  0.038977572            2 
  675000    1.1550537   -6.4283799    312.62085  0.038595167  0.038972011            2 
  676000    1.1523136    -6.444361    312.96226   0.03858016  0.038966279            2 
  677000    1.1570752   -6.4419828    313.33973  0.038569637  0.038960177            6 
  678000    1.1546622   -6.4230233    314.50019  0.038655382  0.038954106            3 
  679000     1.143505   -6.4243549    315.01787  0.038661987  0.038948454            3 
  680000    1.1314769   -6.4225408    314.48048  0.038539275  0.038942831            3 
  681000    1.1608392   -6.4382821     315.4138  0.038596892  0.038937332            1 
  682000    1.1502774   -6.4108308    316.04972  0.038618001  0.038932126            5 
  683000    1.1328998   -6.4277431    316.74081   0.03864578  0.038926883            2 
  684000    1.1179327    -6.405203    317.37054  0.038666002  0.038921762            2 
  685000    1.1356963   -6.4467495    317.49661  0.038624892  0.038916165            2 
  686000    1.1577834   -6.4282971    318.97534   0.03874822   0.03891117            9 
  687000    1.1395712   -6.4530649    318.01847  0.038575749  0.038905812            2 
  688000    1.1415646   -6.4153922    319.26274   0.03867039  0.038900518            2 
  689000    1.1240403   -6.4926463    317.57769  0.038410461  0.038894588            2 
  690000    1.1301604    -6.399961    318.06305  0.038413412  0.038888452            3 
  691000    1.1206832   -6.4464363    319.82997  0.038570908   0.03888254            2 
  692000    1.1410999   -6.4597984    319.95719   0.03853049  0.038876619            7 
  693000     1.141278   -6.4122842    320.31955  0.038518465  0.038870693            2 
  694000    1.1262363   -6.4249362    319.57716  0.038373818  0.038864599            5 
  695000    1.1574168   -6.4306238    321.02238  0.038491892  0.038858551            2 
  696000    1.1595538   -6.4620632     321.8339  0.038533752  0.038852744            4 
  697000    1.1321759   -6.4397761    321.97137  0.038494903  0.038846488            2 
  698000    1.1293609   -6.4648702    322.36553  0.038486811  0.038840439            5 
  699000    1.1137724   -6.4432869     323.0219  0.038510003  0.038834119            3 
  700000    1.1734914   -6.4588239    323.07205  0.038460959  0.038828288            3 
  701000    1.1407592   -6.4114338    323.92962  0.038508039  0.038822259            1 
  702000    1.1398566   -6.4611872    324.73963  0.038549338  0.038816205            2 
  703000    1.1581511   -6.4465412    324.63296  0.038481859  0.038810254            3 
  704000    1.1543017   -6.4565535    324.85946  0.038454008   0.03880434            2 
  705000    1.1535791   -6.4223746    325.60999  0.038488179  0.038798118            2 
  706000    1.1386166   -6.4477949    324.49893  0.038302517  0.038792053            5 
  707000    1.1370583   -6.4508262    325.71767  0.038391993  0.038786087            2 
  708000    1.1398379   -6.4225152    326.94786  0.038482563  0.038780579            2 
  709000     1.152347   -6.4510113    327.92743  0.038543422  0.038775112            2 
  710000    1.1325077   -6.4378159    327.40823  0.038428196  0.038769621            6 
  711000    1.1463323   -6.4617725    326.94206  0.038319511  0.038763855            8 
  712000    1.1554503   -6.4402151     328.0702  0.038397729  0.038758018            2 
  713000    1.1395183   -6.4496148    329.58459  0.038520873  0.038752004            2 
  714000    1.1646498   -6.4548491    328.23902  0.038309876  0.038746197            2 
  715000    1.1172975    -6.449927    329.80839  0.038439206  0.038740562            3 
  716000    1.1393752   -6.4626008    330.28146  0.038440579  0.038734818            3 
  717000    1.1423188   -6.4431927    331.17986  0.038491383  0.038729414            3 
  718000    1.1306679   -6.4486759    331.17609  0.038437336  0.038723711            3 
  719000     1.118871    -6.491265    331.59474  0.038432399  0.038718658            4 
  720000    1.1566968   -6.4372834    332.79786  0.038518271  0.038713694            3 
  721000    1.1241608   -6.4762427    333.04857  0.038493824  0.038708983            2 
  722000    1.1444284   -6.4329103    333.00106  0.038435025  0.038704386            5 
  723000    1.1326305   -6.4743121    333.99097  0.038495963  0.038699749            2 
  724000    1.1276689   -6.4763513    334.32493  0.038481231  0.038694832            5 
  725000    1.1412761    -6.431556    335.48664  0.038561682  0.038690062            3 
  726000    1.1158497   -6.4180536    335.00985   0.03845384  0.038685532            3 
  727000    1.1361939   -6.4680377    334.81066  0.038378113  0.038680946            3 
  728000    1.1318528   -6.4637676    335.42303  0.038395493  0.038675909            5 
  729000    1.1363311   -6.4617389    336.27009  0.038439654  0.038670744            3 
  730000     1.130982   -6.4339099    336.73482  0.038440048  0.038665482            4 
  731000    1.1541935   -6.4971857    335.96616  0.038299836  0.038659766            4 
  732000    1.1306061   -6.4788612    337.97048  0.038475693  0.038653886            4 
  733000    1.1246718    -6.455713    337.22267  0.038338184  0.038648047            3 
  734000    1.1445347   -6.4294314     337.4312  0.038309628  0.038642416            3 
  735000    1.1441372   -6.4281757    339.85631  0.038532462  0.038637326            8 
  736000    1.1505308   -6.4359613    338.78755  0.038359097  0.038632129            2 
  737000    1.1211737   -6.4752358    338.81515  0.038310171  0.038627196            4 
  738000    1.1347406   -6.4645552    340.16717  0.038410927  0.038621712            6 
  739000    1.1400583   -6.4738846    339.19108  0.038248881  0.038616112            1 
  740000    1.1330475   -6.4712776     340.4264  0.038336306  0.038610758            4 
  741000    1.1269427   -6.4980887    341.01259  0.038350494  0.038605727            1 
  742000    1.1355111   -6.4615002    342.06016   0.03841646  0.038600224            5 
  743000    1.1313236   -6.4828466    342.10718  0.038370029   0.03859471            2 
  744000    1.1225443   -6.4427061    342.19675  0.038328489  0.038589165            4 
  745000    1.1346448   -6.4688721    342.92905  0.038358954  0.038583804            4 
  746000    1.1554453   -6.4750714    341.78094  0.038179283   0.03857789            4 
  747000    1.1344703   -6.4527932    343.12511  0.038278124  0.038572499            7 
  748000    1.1254041   -6.4820065    344.25065  0.038352345   0.03856664            3 
  749000    1.1380223   -6.4525843    343.35761  0.038201781  0.038560809            5 
  750000    1.1391304   -6.4343098    344.22846  0.038247606  0.038555249            3 
  751000    1.1377073   -6.4750292    344.89989  0.038271182  0.038549432            2 
  752000    1.1618642   -6.4267906    346.00629  0.038342895  0.038543778            3 
  753000    1.1239659   -6.4417989    345.40953  0.038225933  0.038538101            4 
  754000     1.149622    -6.451726    346.61217  0.038308153  0.038532342            3 
  755000    1.1340247   -6.5063182    346.57492  0.038253303  0.038527038            4 
  756000    1.1458429   -6.4381284     347.1305  0.038263944  0.038521606            3 
  757000    1.1317327   -6.4384063    348.28729  0.038340741  0.038516443            6 
  758000     1.135345   -6.4399825    348.85863  0.038352972   0.03851138            5 
  759000    1.1131453   -6.4781739     348.5252  0.038265833  0.038505715            4 
  760000    1.1129312   -6.4974386    348.02896   0.03816107  0.038500463            2 
  761000    1.1332514   -6.4856069    349.67701  0.038291394  0.038495039            7 
  762000    1.1390139   -6.4839294    349.11869  0.038180084  0.038490047            2 
  763000    1.1276655   -6.4804946    350.26854  0.038255629  0.038484904            1 
  764000    1.1045696     -6.47924    351.16148  0.038302953  0.038479721            2 
  765000    1.1197474   -6.4795148    351.49661  0.038289391  0.038474701            6 
  766000    1.1444329   -6.4479215    352.45992  0.038344204  0.038470134            4 
  767000    1.1255356   -6.4712333    353.01614  0.038354644  0.038465553            2 
  768000    1.1270928   -6.4941835    353.31966  0.038337637  0.038461557            5 
  769000    1.1221888   -6.4487987     353.4952  0.038306805  0.038457117            4 
  770000    1.1272181   -6.4695292    354.22889   0.03833646  0.038452839            2 
  771000    1.1255448     -6.51182    354.18111  0.038281573  0.038448112            3 
  772000    1.1075712   -6.4689578    355.37654  0.038361026   0.03844357            5 
  773000    1.1273324   -6.4627944    355.55379  0.038330508  0.038438745            2 
  774000     1.102591   -6.4764454     354.3405  0.038150356  0.038434116            3 
  775000    1.1267854   -6.4839035    355.87891  0.038266549  0.038429095            2 
  776000    1.1134284   -6.4956979    355.56971  0.038184032  0.038424096            3 
  777000    1.1129656   -6.4969733    355.45306  0.038122379  0.038419187            3 
  778000    1.1242149   -6.4850344    357.03353  0.038242666  0.038414004            4 
  779000    1.1374221   -6.4099764    357.42715  0.038235682  0.038408606            4 
  780000    1.1130363   -6.4832218    357.50061  0.038194509  0.038403617            9 
  781000    1.1329444   -6.4548143    356.83153  0.038074213  0.038398454            6 
  782000    1.1577231    -6.459921    357.73807   0.03812213  0.038393024            4 
  783000    1.1137052   -6.4865099    358.94402   0.03820179  0.038388224            2 
  784000    1.1456532   -6.4288861    360.08648  0.038274499  0.038383491            8 
  785000    1.1471924   -6.4914376    358.47628  0.038054807  0.038378383            3 
  786000    1.0995862   -6.5075035    359.92915  0.038160427   0.03837301            2 
  787000    1.1692633   -6.4631591     359.2513  0.038040163  0.038367715            3 
  788000    1.1412918   -6.5130213    360.30721  0.038103555  0.038361945            2 
  789000    1.1323134   -6.4677006    360.26223  0.038050511  0.038356158            5 
  790000    1.1053337   -6.4583323    361.35763  0.038117894  0.038350513            3 
  791000    1.1276433   -6.4589235    361.42785  0.038077101  0.038345189            2 
  792000    1.1409187   -6.4602455    362.99756  0.038194188  0.038339775            4 
  793000    1.1402624    -6.474392    362.78738  0.038123937  0.038334152            7 
  794000    1.1404747   -6.4819935    362.40451  0.038035738  0.038328275            4 
  795000    1.0973282   -6.4731073    363.05666  0.038056254  0.038322615            2 
  796000    1.1227929   -6.4837658    362.90445  0.037992509  0.038316706            3 
  797000    1.1342661   -6.4364799    364.03946  0.038063515  0.038310762            3 
  798000    1.1125538   -6.5214712    363.15593  0.037923551  0.038304843            1 
  799000    1.1195977   -6.5065971    363.62586    0.0379251  0.038298869            3 
  800000    1.1157731   -6.4911432    364.24975  0.037942682  0.038292503            3 
  801000     1.125395   -6.4921777    363.25912  0.037792252  0.038286128            4 
  802000    1.1270488   -6.4558892    364.59346  0.037883776  0.038279669            2 
  803000    1.1329613   -6.4955552    364.95418  0.037874033  0.038273153            6 
  804000    1.1154452   -6.4501796    365.07205  0.037839143   0.03826653            2 
  805000    1.1031674   -6.4720928    365.50752  0.037837217  0.038259874            4 
  806000    1.1289056   -6.4328721    367.29867  0.037975462  0.038253159            7 
  807000    1.1474783   -6.4487061    366.50808  0.037846765  0.038246295            6 
  808000     1.114075   -6.4552698    366.98189  0.037848793  0.038239807            6 
  809000    1.1520877   -6.4549802    367.37496  0.037842497  0.038233083            3 
  810000    1.1330306    -6.443946    368.63702   0.03792562   0.03822637            3 
  811000     1.111167   -6.4983911    369.09821  0.037926244  0.038220032            3 
  812000    1.1165003   -6.4880386    368.33055  0.037800755  0.038213999            2 
  813000    1.1243052   -6.5001605    368.91491  0.037814157  0.038207915            2 
  814000    1.1383492   -6.4747888    369.82473  0.037860845  0.038201582            2 
  815000    1.1271329   -6.5047041    369.96077  0.037828299  0.038195409            2 
  816000    1.1061595   -6.5021337    370.36797  0.037823526  0.038189379            7 
  817000    1.1129807   -6.5043164    370.80273  0.037821576  0.038183458            2 
  818000    1.1406273   -6.4947593    372.31168  0.037929062  0.038177531            5 
  819000    1.1264905   -6.4814249    373.11021  0.037964002  0.038171895            4 
  820000    1.1395516   -6.4503637    373.21493  0.037928347    0.0381665            4 
  821000     1.117356   -6.4707689    373.52191  0.037913308  0.038161223            2 
  822000    1.1254583   -6.5004153    373.31013  0.037845715  0.038155994            2 
  823000    1.1269676   -6.4383341    375.98016  0.038070085  0.038150834            5 
  824000    1.0990976   -6.4484838    376.23266  0.038049419  0.038145796            4 
  825000    1.1129222   -6.5384817    375.43454  0.037922681  0.038140734            4 
  826000    1.1355533   -6.4954519    375.05465  0.037838443  0.038135298            4 
  827000    1.1360965     -6.46123    376.81899  0.037970475  0.038129909            4 
  828000    1.0913785   -6.5028166    377.07422  0.037950304   0.03812478            4 
  829000    1.1115432   -6.4596475    378.06797   0.03800442  0.038120102            4 
  830000    1.1068516   -6.5170312    377.52358  0.037903974  0.038114817            3 
  831000    1.1088298   -6.4579404    377.44663  0.037850645  0.038109636            3 
  832000    1.1234502   -6.4696713     377.4629  0.037806781  0.038104464            6 
  833000    1.1147229    -6.470166    379.30693  0.037945871  0.038099082            2 
  834000    1.1058362   -6.4862417    378.13786  0.037783559  0.038093631            3 
  835000    1.1317403   -6.4949132    380.16416  0.037940535    0.0380883            2 
  836000    1.0979587   -6.4726436    380.53002  0.037931621  0.038083218            2 
  837000    1.1176627   -6.4637762    380.74772  0.037907977  0.038078164            4 
  838000    1.1337533   -6.4670586     381.3353  0.037921171  0.038072862            3 
  839000    1.1322392   -6.5022994    381.83791  0.037925895  0.038067823            3 
  840000    1.1329206    -6.495738    381.61517  0.037858648  0.038062608            7 
  841000    1.1432642   -6.4714928    382.53075  0.037904355  0.038057428            2 
  842000    1.1322586   -6.4833698    382.71083  0.037877161  0.038052105            2 
  843000     1.112145   -6.5027888    382.73181  0.037834303   0.03804703            1 
  844000    1.1074577   -6.5137284    382.29737  0.037746581   0.03804155            3 
  845000    1.1089538   -6.4870247    383.87189  0.037857189  0.038035865            3 
  846000    1.0931657   -6.5099136    382.18521  0.037646297  0.038030244            4 
  847000     1.133959   -6.4710939    383.87357  0.037767963  0.038024398            5 
  848000    1.1334306   -6.4846515    383.14946  0.037652266  0.038018477            3 
  849000    1.1050495   -6.5358764    383.87475  0.037679108  0.038012369            1 
  850000    1.1382146   -6.5203558    384.48144  0.037694259  0.038006137            3 
  851000    1.1257876   -6.4807385    384.82813  0.037683914  0.038000219            2 
  852000    1.1338926   -6.4894281    386.15304  0.037769273  0.037994491            3 
  853000    1.1313283   -6.5079344    386.33797  0.037743061    0.0379886            4 
  854000    1.1171616    -6.535237    386.40972  0.037705866  0.037982703            1 
  855000    1.1055494   -6.4938434    388.26101  0.037842203   0.03797718            3 
  856000    1.0998119    -6.495118    386.54711  0.037631144  0.037971591            2 
  857000    1.1060417   -6.4865118    386.47997  0.037580705  0.037965702            4 
  858000    1.1244467   -6.4968391    387.46473  0.037632549  0.037959871            1 
  859000    1.1172643   -6.5194875     386.5525  0.037500243  0.037953561            4 
  860000    1.1178691   -6.4938317    387.51117  0.037549532  0.037947413            5 
  861000    1.1180195   -6.4609853     390.2535  0.037771341  0.037941571            4 
  862000    1.0864313   -6.4986875    389.83957  0.037687507  0.037935818            2 
  863000    1.0864593   -6.5041416    389.72685  0.037632952  0.037929794            3 
  864000    1.1166629   -6.4609212    389.97164  0.037613005  0.037923774            1 
  865000    1.1224376   -6.4943243    389.75416  0.037548571   0.03791752            3 
  866000    1.1287117   -6.4852459    391.17197  0.037641645  0.037911351            2 
  867000    1.1200445    -6.515553    391.95426   0.03767342  0.037905301            3 
  868000    1.1118494    -6.527364    391.68538  0.037604203  0.037898995            2 
  869000     1.102478   -6.5375624    391.82708  0.037574518  0.037892885            4 
  870000    1.0735305   -6.4787072    393.35446  0.037677631  0.037886701            2 
  871000    1.1049813    -6.513204    391.81061  0.037486664  0.037880873            3 
  872000    1.0960635   -6.5100987    393.09286  0.037566214  0.037875123            3 
  873000    1.1219985   -6.4929654    394.44615  0.037652363  0.037869506            6 
  874000    1.1236005   -6.4841746    395.03759  0.037665674  0.037863887            2 
  875000     1.100952    -6.485272    394.37592  0.037559611  0.037858808            2 
  876000    1.1502048   -6.5044904      395.711   0.03764374  0.037853464            2 
  877000    1.0855493   -6.4945817     396.0704  0.037634967  0.037848502            2 
  878000    1.1160605   -6.5024846    395.91183  0.037577053  0.037842944            7 
  879000    1.1044924   -6.5009612    396.10629  0.037552739   0.03783741            4 
  880000    1.1393526   -6.5453584    397.72081  0.037662955  0.037831843            3 
  881000    1.1189731   -6.5203301    396.21347  0.037477627  0.037826055            1 
  882000    1.1235975   -6.4800456    397.17611  0.037526087  0.037820355            4 
  883000    1.0827173   -6.4604433    398.55692  0.037613904  0.037814961            4 
  884000    1.1169707   -6.5165601    399.59371   0.03766909  0.037809506            3 
  885000    1.1146928    -6.518367    398.27249  0.037502118  0.037803828            3 
  886000    1.1208732   -6.4719064    398.76111  0.037505747  0.037798366            4 
  887000    1.0799678   -6.4933226    399.50569  0.037533417  0.037792598            4 
  888000    1.1184885   -6.4820266    399.64041  0.037503792  0.037786859            2 
  889000    1.1057895   -6.4934325    400.62601  0.037553994    0.0377808            3 
  890000    1.1202262   -6.5010451    399.24892  0.037382858  0.037774252            3 
  891000    1.1201583   -6.4712705    400.98778  0.037503533  0.037767841            3 
  892000    1.0996792   -6.5273279    400.28791  0.037396105  0.037761563            2 
  893000    1.0923915   -6.5206052    401.90514  0.037505145  0.037755144            1 
  894000    1.1170204   -6.5173946    401.12829  0.037390781  0.037748912            1 
  895000    1.1041968   -6.5180281    401.92717  0.037423387  0.037742195            4 
  896000    1.1060625   -6.5042577    403.31262  0.037510475   0.03773573            4 
  897000    1.1075768   -6.4696383    401.65536  0.037314693  0.037729007            2 
  898000    1.0971922   -6.5046729    402.28746  0.037331799  0.037722189            3 
  899000    1.1328738   -6.5656363    401.77724  0.037242977    0.0377153            3 
  900000    1.1087872   -6.4960595     403.4262  0.037354278   0.03770855            3 
  901000    1.1101764   -6.5019539    404.37349  0.037400434  0.037702286            3 
  902000     1.096504    -6.521587    404.82373  0.037400567  0.037695728            2 
  903000    1.0911833   -6.4920505    405.54861  0.037426044  0.037689391            5 
  904000    1.1073008   -6.4900815    406.29586  0.037453527  0.037683208            3 
  905000    1.1220713   -6.5056599    406.60817    0.0374409  0.037677294            4 
  906000    1.1154493   -6.5084279    407.24474  0.037458125  0.037671496            3 
  907000    1.0979615   -6.5127625    406.28533  0.037328678  0.037665367            3 
  908000    1.1257051   -6.5337812     406.6715  0.037323008   0.03765917            3 
  909000    1.0903229   -6.5551229    407.56231  0.037363614  0.037652936            2 
  910000     1.077685   -6.4961311     407.3272  0.037301026  0.037646834            3 
  911000    1.1165788   -6.5265978     407.2229  0.037250539  0.037640513            2 
  912000    1.0909137   -6.5067076    409.13302  0.037384231   0.03763445            4 
  913000    1.1215925   -6.5074137    408.30015  0.037267265   0.03762836            4 
  914000    1.0994742   -6.5401748    409.15199  0.037304157  0.037621893            3 
  915000    1.1116151   -6.5188892    409.59797  0.037304005  0.037615595            2 
  916000    1.0914403   -6.5596776    407.40621  0.037063884  0.037609367            3 
  917000    1.1162934     -6.50599    410.70251   0.03732302  0.037603219            2 
  918000    1.1074932   -6.5203081    410.94822  0.037304667  0.037596983            1 
  919000    1.1164124   -6.5486196    410.91987  0.037261505  0.037591083            3 
  920000    1.0950681   -6.5301103     411.4097  0.037265371  0.037584839            3 
  921000    1.1165552   -6.5217369    410.18509  0.037114105  0.037578189            2 
  922000    1.1076131   -6.4951674    411.35388  0.037179491   0.03757143            2 
  923000    1.0957237   -6.5348505    410.98511  0.037105914  0.037565135            2 
  924000    1.0781253   -6.5067423    412.11852  0.037167976  0.037558549            2 
  925000    1.0963457   -6.5029566    412.58984  0.037170256  0.037552292            4 
  926000    1.1221264   -6.5118666    413.59509  0.037220581   0.03754598            3 
  927000    1.1085842   -6.5141327    413.12889   0.03713852   0.03753942            4 
  928000    1.1115267   -6.5200419    415.03831  0.037269963  0.037533093            3 
  929000    1.0924967   -6.5295445    415.87464  0.037304865  0.037526618            3 
  930000    1.1179641   -6.4967867    416.23272  0.037296838  0.037520382            4 
  931000    1.0939467   -6.5238361    414.11465   0.03706719  0.037514158            3 
  932000    1.0750488   -6.4759326     416.6674  0.037255669  0.037507952            3 
  933000    1.1061216   -6.5182629    415.90316  0.037147478  0.037501777            5 
  934000    1.1065813   -6.5296492    417.14544  0.037218544  0.037495574            4 
  935000    1.1136812   -6.5431537    416.54283  0.037125029   0.03748913            4 
  936000    1.0970658   -6.5210062    417.51387  0.037171819  0.037482536            4 
  937000    1.0746318   -6.5117803    417.73956   0.03715222  0.037475874            3 
  938000    1.1037345   -6.5112617    418.14186  0.037148353  0.037469625            4 
  939000    1.1118632   -6.5137658    417.27138  0.037031539  0.037463255            2 
  940000    1.0925406   -6.4948326    418.67319  0.037116418  0.037456937            2 
  941000    1.0925633    -6.541417    418.11771  0.037027782   0.03745056            2 
  942000     1.112656   -6.5302477    417.03791   0.03689295  0.037443723            3 
  943000    1.1102373   -6.5266024    418.83684    0.0370128  0.037437077            4 
  944000    1.1029117   -6.5324795    420.18457  0.037092565  0.037430683            8 
  945000    1.1129351   -6.5089716    420.40075  0.037072377  0.037424076            3 
  946000    1.1197403   -6.5377026     421.9553  0.037170129  0.037417625            2 
  947000    1.1108468   -6.5093661    422.09855  0.037143484  0.037411393            4 
  948000    1.0862938   -6.5148498    421.98458  0.037094285  0.037404919            2 
  949000    1.0948203   -6.5471982    421.93192  0.037050572   0.03739864            3 
  950000    1.1240536   -6.5368991    423.56919  0.037155192   0.03739266            4 
  951000    1.1165995   -6.5332268    423.99891  0.037153778  0.037386748            2 
  952000    1.1213168   -6.5189594    424.38531  0.037148574  0.037381014            2 
  953000    1.0721743   -6.4869419    425.05705  0.037168333  0.037375525            3 
  954000    1.1053252   -6.5244882    424.45134  0.037076462  0.037369827            2 
  955000    1.1058994   -6.5515141     425.0875   0.03709315  0.037363969            2 
  956000    1.0988694   -6.5257998    427.54812  0.037268839  0.037358217            3 
  957000    1.1149198   -6.5224007    427.06585    0.0371879  0.037352493            2 
  958000    1.0933643   -6.5016058    425.68418  0.037028895  0.037346396           10 
  959000    1.0934884   -6.4837919    426.93938  0.037099355  0.037340753            2 
  960000    1.1077986   -6.5323658    427.33762  0.037095279  0.037334813            9 
  961000    1.0640858   -6.4979687    428.08733   0.03712169  0.037328487            3 
  962000    1.0812549   -6.5279728    426.22066  0.036921401   0.03732224            2 
  963000    1.0696746   -6.5424612     425.8502  0.036851004  0.037315542            1 
  964000    1.0866143   -6.5119785    426.71349  0.036887404  0.037308609            8 
  965000    1.0740184   -6.5552919    426.56788  0.036836605  0.037301819            3 
  966000    1.0905948   -6.5194782    427.50334   0.03687917  0.037294685            3 
  967000    1.0754459   -6.5581639    426.96882  0.036794969  0.037287603            3 
  968000    1.0888903   -6.5378176    426.97556  0.036757538  0.037280084            3 
  969000     1.114047   -6.5453811    428.24421  0.036828708  0.037272828            3 
  970000    1.0687108    -6.570807    428.28523  0.036794264  0.037265423            3 
  971000    1.1028857    -6.504033    429.91983  0.036896655  0.037258361            3 
  972000    1.1048453   -6.5416993    430.27072  0.036888779  0.037251508            2 
  973000    1.0771941    -6.529038    429.81818  0.036812109  0.037244237            3 
  974000    1.1020605   -6.5281889    430.12914  0.036800919  0.037236699            2 
  975000    1.0894382   -6.5470358    429.15474  0.036679892  0.037229424            4 
  976000    1.0759954   -6.5517864     430.8443  0.036786569  0.037221982            2 
  977000    1.0786562   -6.5044811    432.21552  0.036865875  0.037214563            3 
  978000    1.1265624    -6.519287    433.11035  0.036904426  0.037207526            3 
  979000    1.0675686   -6.5205803     431.2594  0.036709176  0.037200166            4 
  980000    1.0965616   -6.4677964    432.84412  0.036806473   0.03719324            3 
  981000    1.1008454    -6.531266    433.00975  0.036783024  0.037186116            5 
  982000    1.0783093   -6.5276112    434.07764  0.036836188  0.037178959            5 
  983000    1.1082823   -6.5376223      434.606  0.036843506  0.037171867            5 
  984000    1.0805385   -6.5054751    433.91264  0.036747344  0.037164997            3 
  985000    1.0888214   -6.5269614     434.3155   0.03674412   0.03715797            3 
  986000    1.0869165   -6.5696295    433.66332  0.036651734  0.037150902            5 
  987000    1.1499383   -6.5199895    435.27667  0.036750816  0.037143934            2 
  988000    1.0877218   -6.5138995    437.27384  0.036882072  0.037137143            2 
  989000    1.0946494   -6.4985418    437.24349  0.036842222  0.037130588            3 
  990000    1.0940171   -6.5345462    436.49736  0.036742202  0.037123723            2 
  991000    1.0997982   -6.5371049    435.94937  0.036659045  0.037116943            5 
  992000    1.1004841   -6.5397832    437.05964   0.03671536  0.037109821            3 
  993000    1.0815359   -6.5079161    437.91969  0.036750561   0.03710283            2 
  994000     1.092762   -6.5386364    438.27496  0.036743373  0.037096002            2 
  995000    1.0754483   -6.5311138    439.26244  0.036789149  0.037089303            4 
  996000    1.1116286   -6.5127625    438.78146  0.036711969  0.037082672            3 
  997000     1.092731   -6.5360102    439.35998  0.036723502   0.03707613            5 
  998000    1.0923491   -6.5484513    440.14408  0.036752177  0.037069869            4 
  999000    1.1090701   -6.5155741    441.51662  0.036829882  0.037063549            4 
 1000000    1.1004233   -6.5173427    442.03609   0.03683634  0.037057467            4 
 1001000    1.1182284   -6.5195124    442.00897  0.036797283  0.037051067            3 
 1002000    1.0943571   -6.5553304     441.9809  0.036758225  0.037044961            6 
 1003000    1.1073601    -6.502506    443.01487  0.036807483  0.037038972            4 
 1004000    1.0884973   -6.5521763    442.96856  0.036766979    0.0370332            5 
 1005000    1.1000941   -6.5324954    443.38722  0.036765109  0.037027032            3 
 1006000    1.1148121   -6.5562739    443.84827  0.036766755  0.037020751            7 
 1007000     1.115759   -6.5348118    444.42852  0.036778262  0.037014504            3 
 1008000    1.0900609   -6.5358585    446.04919   0.03687576  0.037008318            2 
 1009000    1.0934615   -6.5572891    444.07952  0.036676538   0.03700215            5 
 1010000    1.1075612   -6.5492801    444.63452  0.036686017  0.036996016            2 
 1011000      1.07472   -6.5379616    446.81656  0.036829588  0.036990003            4 
 1012000    1.0801425   -6.5600353    446.00273   0.03672618  0.036983812            3 
 1013000    1.0837295   -6.5146185    448.02728  0.036856473  0.036977643            3 
 1014000    1.0920294   -6.5630451    447.33418  0.036763164  0.036971879            4 
 1015000    1.1063925    -6.567859    447.30207  0.036724308   0.03696589            2 
 1016000    1.1039594   -6.5103897    448.99662  0.036827151  0.036960016            3 
 1017000    1.0775906   -6.5496751     448.1498  0.036721551  0.036954297            3 
 1018000    1.0739336     -6.52609    449.71738    0.0368138  0.036948436            5 
 1019000    1.0890125   -6.5289911    449.14962  0.036731241  0.036942666            4 
 1020000    1.0798234   -6.5575981    450.02191  0.036766496  0.036936819            3 
 1021000    1.1012601   -6.5467442    450.07737  0.036735012  0.036931148            2 
 1022000    1.0814531   -6.5668515    451.11314  0.036783524  0.036925193            1 
 1023000    1.0712121   -6.5392652    450.14818  0.036668963  0.036919426            2 
 1024000    1.1176546   -6.5084124    449.72132  0.036598415  0.036913375            5 
 1025000     1.090404    -6.538264     452.3444  0.036775968   0.03690728            3 
 1026000     1.093042   -6.5442036    451.16036  0.036643954   0.03690132            3 
 1027000    1.0870634   -6.5507661    450.67864  0.036569185  0.036895456            3 
 1028000    1.0853434   -6.5749484    451.75557  0.036620912  0.036889318            3 
 1029000    1.0797702   -6.5338965    452.09006  0.036612412  0.036883218            3 
 1030000    1.0889551   -6.5435011    453.83946  0.036718403  0.036876979            3 
 1031000    1.1075469    -6.541823    453.25671  0.036635686  0.036870692            2 
 1032000    1.0456305   -6.5698234    452.50881  0.036539794  0.036864384            6 
 1033000     1.095333   -6.5259991     453.3977   0.03657613  0.036857967            3 
 1034000    1.0633897   -6.5424702    454.38507  0.036620331   0.03685188            5 
 1035000     1.072185    -6.548017    456.09995  0.036723024  0.036845768            2 
 1036000    1.1086825   -6.5426113    455.89401  0.036671011  0.036839567            7 
 1037000    1.0933211   -6.5852049    452.96866  0.036400567   0.03683322            2 
 1038000    1.0692904   -6.5790335    454.34218  0.036475769  0.036826616            7 
 1039000     1.082501   -6.5412065    456.15143  0.036585774  0.036820235            3 
 1040000    1.0921091   -6.5561279     457.0508   0.03662266  0.036813828            2 
 1041000    1.0865882   -6.5291613    456.37905  0.036533706  0.036807647            2 
 1042000    1.0968696    -6.543671    456.42361  0.036502208  0.036801187            2 
 1043000    1.0705848   -6.5463027    457.81288   0.03657821  0.036794778            2 
 1044000    1.0835925   -6.5704364     457.7755   0.03654019  0.036788365            7 
 1045000    1.0808496   -6.5616574    456.33773  0.036390569  0.036781666            3 
 1046000     1.083552   -6.5569179     458.0374  0.036491188  0.036775273            4 
 1047000    1.1168847   -6.5432436    458.72224  0.036510844  0.036768795            4 
 1048000    1.0911238   -6.5602403    457.86143  0.036407556  0.036762261            2 
 1049000     1.080159    -6.567947    458.30445  0.036408043  0.036755421            2 
 1050000    1.0921936   -6.5808404    456.39183  0.036221574  0.036748572            5 
 1051000    1.0884185   -6.5243056    459.95144   0.03646935  0.036741777            8 
 1052000    1.0697347   -6.5514788    459.34435  0.036386593  0.036735161            6 
 1053000    1.0738968   -6.5914385    459.25119  0.036344665  0.036728545            4 
 1054000    1.0963896   -6.5596945    459.36118  0.036318879  0.036721894            2 
 1055000    1.1063328   -6.5377871    461.92041  0.036486604  0.036715112            4 
 1056000    1.0982187   -6.5438666    460.58291  0.036346505  0.036708351            7 
 1057000    1.0986736   -6.5521962    460.93054  0.036339525  0.036701598            4 
 1058000    1.0837549   -6.5338794    462.74971  0.036448465  0.036695078            1 
 1059000    1.0568421   -6.5699774    461.76719  0.036336732  0.036688635            3 
 1060000    1.0766054   -6.5389528    463.51768  0.036440069  0.036682493            2 
 1061000    1.0961394   -6.5249886      463.435   0.03639923  0.036675987            2 
 1062000    1.0779568   -6.5595877    463.21273  0.036347515   0.03666941            3 
 1063000    1.0905531   -6.5768916    463.11291  0.036305496  0.036662882            5 
 1064000    1.0811453   -6.5696039    462.91194  0.036255635  0.036656356            3 
 1065000    1.1005028   -6.5492691    464.38594  0.036336928  0.036649783            5 
 1066000    1.0715633   -6.5362432    464.72394  0.036329264  0.036643342            2 
 1067000     1.080643   -6.5590838    465.84017  0.036382394  0.036636922            6 
 1068000    1.0580123   -6.5494757    466.88857  0.036430132  0.036630617            2 
 1069000     1.092604    -6.550824    466.99526   0.03640437  0.036624178            5 
 1070000    1.0756073   -6.5362302    467.58209  0.036416051  0.036617662            4 
 1071000    1.0722586   -6.5363191    467.31617  0.036361357  0.036611123            7 
 1072000    1.1019094   -6.5418453    467.01906  0.036304342  0.036604378            1 
 1073000    1.0732692   -6.5421117    468.12912  0.036356719  0.036597747            2 
 1074000    1.0774353   -6.5445461    467.87565    0.0363032  0.036591215            8 
 1075000    1.0743946   -6.5475948    465.25635  0.036066384  0.036584394           11 
 1076000    1.0734221   -6.5475531    466.87189  0.036157984   0.03657762            3 
 1077000    1.0980734   -6.5832777    466.59786  0.036103208   0.03657063            4 
 1078000    1.0708581   -6.5560756    467.77047  0.036160364  0.036563662            4 
 1079000    1.1050622   -6.5606037    468.89573  0.036213757  0.036556585            6 
 1080000    1.0559355   -6.5750856     468.3756  0.036140093  0.036549387            4 
 1081000    1.0697755   -6.5390427    468.06013  0.036082342  0.036542076            5 
 1082000    1.0810628   -6.5825406    468.05677  0.036048735  0.036535004            3 
 1083000    1.0702323   -6.5609101    469.31384  0.036112176  0.036527973            4 
 1084000    1.0691603    -6.549637    470.31488  0.036155818  0.036521039            3 
 1085000    1.0680217   -6.5358885    469.58012  0.036066061  0.036514203            3 
 1086000    1.0897477   -6.5732736    471.22795  0.036159297  0.036507503            2 
 1087000    1.0635656   -6.5680683    471.64518  0.036158017  0.036500544            7 
 1088000    1.0853678   -6.5175219    472.02847  0.036154141  0.036493761            5 
 1089000    1.0654344   -6.6138606    473.00118  0.036195376  0.036487182            6 
 1090000    1.0642037   -6.5346477    473.72239  0.036217308  0.036480839            3 
 1091000    1.1011775   -6.5575862    475.59866  0.036327426  0.036474681            4 
 1092000    1.0928994   -6.6048123    472.95344  0.036092295   0.03646847            3 
 1093000    1.0539366   -6.5465274    473.52126  0.036102566  0.036462047            2 
 1094000    1.0691969   -6.5748444    473.81383  0.036091852  0.036455625            8 
 1095000    1.0589192   -6.5351193    474.91565  0.036142744  0.036449099            5 
 1096000    1.0736886   -6.5514811    475.24399  0.036134731  0.036442646            5 
 1097000    1.1022461   -6.5668644    476.63891  0.036207757   0.03643641            3 
 1098000    1.0796138   -6.5503041    476.66719  0.036176927  0.036430028            4 
 1099000    1.0276608   -6.5840604    476.37517  0.036121866  0.036423699            6 
 1100000    1.0653443   -6.5138816    477.41856  0.036168073  0.036417407            4 
 1101000    1.0783477   -6.5551432    477.83891  0.036167038  0.036411091            5 
 1102000    1.0767003   -6.5577734    479.49109  0.036259157  0.036404843            6 
 1103000    1.0739694    -6.566189    476.91703  0.036031809  0.036398504            5 
 1104000    1.0699511   -6.5432184    479.52132  0.036195752  0.036392198            2 
 1105000    1.0709379   -6.5413281    479.48805  0.036160487  0.036386064            5 
 1106000    1.0610555   -6.5683684    479.58177  0.036134853  0.036379915            3 
 1107000    1.0928473    -6.575175    480.58713  0.036177893  0.036374009            4 
 1108000     1.060802   -6.5589019    480.15809  0.036112973  0.036367706            3 
 1109000    1.0908465    -6.575772    480.79458  0.036128237  0.036361481            2 
 1110000    1.0880788   -6.5663578    480.44814   0.03606968  0.036355157            3 
 1111000    1.0756817   -6.5834666    482.01866  0.036155015  0.036348812            2 
 1112000    1.0632251   -6.5301312    481.65805  0.036095477  0.036342616            2 
 1113000    1.0744756    -6.558804    482.85379  0.036152575  0.036336057            2 
 1114000    1.0775667   -6.5822592    482.71194  0.036109511  0.036329735            1 
 1115000     1.079223   -6.5625042    483.70135  0.036151073   0.03632349            5 
 1116000    1.0661337   -6.5538479    481.82522  0.035978585  0.036317098            4 
 1117000    1.0672654    -6.575267    483.00642  0.036034498  0.036310553            4 
 1118000    1.0680201   -6.5504745    484.16291   0.03608847  0.036304219            4 
 1119000    1.0599296   -6.5693558    485.41465  0.036149437  0.036298103            3 
 1120000    1.0725848   -6.5379375     485.0255  0.036088207  0.036291901            4 
 1121000    1.0746952   -6.5553632     485.2293  0.036071164  0.036285778            2 
 1122000    1.0504357   -6.5502007    485.08582  0.036028358   0.03627959            4 
 1123000    1.0681608   -6.5448357    486.28741  0.036085442  0.036273387            3 
 1124000    1.0820924   -6.5677174     486.1768  0.036045136  0.036267189            3 
 1125000    1.0704547   -6.6057535    485.91986  0.035994064  0.036260941            2 
 1126000    1.0641702   -6.5897041    486.52875   0.03600716  0.036254816            3 
 1127000    1.0687504   -6.5740567    487.49764  0.036046853  0.036248674            3 
 1128000    1.0744063   -6.5456146    488.40183  0.036081695  0.036242637            6 
 1129000    1.0658889   -6.5523597     488.3585  0.036046538  0.036236625            2 
 1130000    1.0878353   -6.5758582    488.07509  0.035993738  0.036230516            2 
 1131000    1.0587356   -6.6175162    488.51163  0.035994079  0.036224419            3 
 1132000    1.0834019   -6.6300669     487.7206  0.035904049  0.036218541            4 
 1133000    1.0576437   -6.5842398    489.95102  0.036036409   0.03621236            4 
 1134000     1.068142   -6.5632049    489.19081  0.035948766  0.036206384            4 
 1135000    1.0636757   -6.5549495     491.3306  0.036074199  0.036200223            3 
 1136000    1.0754872   -6.6138882    491.40166  0.036047657   0.03619396            3 
 1137000    1.0805379   -6.5335773    491.23462   0.03600371  0.036187696            2 
 1138000    1.0530738   -6.5900617    490.78512  0.035939156  0.036181444            4 
 1139000    1.0539837   -6.5663565    492.05147  0.036000254  0.036175277            4 
 1140000    1.0885832    -6.584124    490.99766  0.035891642  0.036169063            4 
 1141000    1.0971467   -6.5601352    492.61124  0.035978034  0.036162824            4 
 1142000    1.0754362   -6.5802089    492.16441  0.035913924  0.036156547            6 
 1143000    1.0727277   -6.5948657    492.41574  0.035900827  0.036150225            4 
 1144000    1.0718609   -6.5661957    491.68153  0.035815962  0.036143984            4 
 1145000    1.0809936   -6.6135359    492.40806  0.035837559  0.036137444            5 
 1146000    1.0776468   -6.5753423    492.81861  0.035836141  0.036130904            4 
 1147000     1.057987   -6.5877026    493.40889  0.035847784  0.036124262            7 
 1148000    1.0660023   -6.5859691    494.27099  0.035879137  0.036117908            5 
 1149000    1.0628836   -6.5844832    493.37044  0.035782596  0.036111454            3 
 1150000    1.0812903   -6.5743329    494.80275  0.035855272  0.036104836            4 
 1151000    1.0553999   -6.6003167     495.2126  0.035853794  0.036098362            3 
 1152000    1.0708866   -6.5778836    496.65072  0.035926702   0.03609196            4 
 1153000    1.0754401   -6.5936312    496.05253  0.035852308   0.03608558            4 
 1154000    1.0710997   -6.5618036    496.02086  0.035818953  0.036079022            3 
 1155000    1.0774463   -6.6170351     497.0577  0.035862749  0.036072683            3 
 1156000    1.0510682   -6.5814195    495.70599  0.035734284  0.036066354            3 
 1157000    1.0457538    -6.619544    496.67689  0.035773328  0.036059847            5 
 1158000    1.0569343   -6.5847137    497.96958  0.035835462  0.036053603            2 
 1159000    1.0586937   -6.6008634     498.3451  0.035831543   0.03604717            3 
 1160000    1.0732386   -6.6027342    497.66532  0.035751819  0.036040728            6 
 1161000    1.0675078    -6.607511    498.82575  0.035804317  0.036034214            2 
 1162000    1.0425392   -6.6221617    498.88851  0.035778005  0.036027688            2 
 1163000    1.0648788   -6.5871813    498.04227  0.035686606  0.036021239            3 
 1164000    1.0721264   -6.6090174    498.83348  0.035712592  0.036014547            3 
 1165000    1.0601291   -6.5998123    499.07289  0.035699062  0.036007947            4 
 1166000    1.0534219   -6.5943702    498.95796  0.035660231  0.036001241            2 
 1167000    1.0738168   -6.5562168    500.97521  0.035773722  0.035994698            2 
 1168000    1.0496519   -6.5508138    500.91811   0.03573902  0.035988029            4 
 1169000    1.0496483   -6.6048165    498.90165  0.035564702  0.035981505            4 
 1170000    1.0275223   -6.6135162    501.17462  0.035696198  0.035974796            3 
 1171000    1.0800124   -6.6039056    500.36202  0.035607886  0.035967967            2 
 1172000    1.0535856   -6.6208452    499.25924  0.035499092  0.035961087            2 
 1173000    1.0632791   -6.5904596    501.46228  0.035625339  0.035954336            2 
 1174000    1.0562896   -6.5735236    502.51537  0.035669745  0.035947333            4 
 1175000    1.0387504    -6.613053    502.30635  0.035624564  0.035940279            4 
 1176000    1.1096803   -6.5699129    502.68794  0.035621311  0.035933528            5 
 1177000    1.0827461   -6.5929671     502.1251  0.035551197  0.035926626            2 
 1178000    1.0584059   -6.6030473     503.0204  0.035584352  0.035919685            3 
 1179000     1.046597   -6.6200149    503.03719  0.035555357  0.035912798            2 
 1180000    1.0559721   -6.5645901     503.0368  0.035525198  0.035905807            2 
 1181000    1.0805176   -6.5737975     503.1789  0.035505144  0.035898794            2 
 1182000        1.071   -6.5907829    504.24474   0.03555025  0.035891693            3 
 1183000    1.0464265    -6.569041    502.16676  0.035373821  0.035884376            4 
 1184000    1.0815592   -6.5671981    504.49791  0.035508018  0.035877195            2 
 1185000    1.0696438   -6.5933534    503.92104  0.035437485  0.035869828            3 
 1186000    1.0514283    -6.588261    504.56594  0.035452919  0.035862508            3 
 1187000    1.0601355   -6.5798847    504.42078   0.03541286  0.035855095            2 
 1188000    1.0460356   -6.6105246    503.78013  0.035338113  0.035847621            6 
 1189000    1.0609774   -6.6078223    504.10074  0.035330862  0.035839948            6 
 1190000    1.0642634   -6.5782947    505.83549  0.035422654  0.035832437            3 
 1191000    1.0702683   -6.5941476    504.16094  0.035275744  0.035824963            3 
 1192000    1.0326449   -6.5702594    507.39128  0.035471986  0.035817513            4 
 1193000    1.0520969   -6.6363017    505.45651  0.035307105   0.03581021            6 
 1194000    1.0588248    -6.582074     507.2883  0.035405381  0.035802837            4 
 1195000    1.0522119   -6.5960428    508.53664  0.035462806  0.035795596            2 
 1196000    1.0736386   -6.5857581    508.37393  0.035421818  0.035788385            5 
 1197000     1.088392   -6.5602977    508.43022  0.035396144  0.035781455            2 
 1198000    1.0524153   -6.5876845    507.12712  0.035275955  0.035774353            6 
 1199000    1.0727404   -6.5992713    509.79046  0.035431642  0.035767353            6 
 1200000    1.0453164   -6.6108827    509.17467  0.035359352  0.035760109            2 
 1201000    1.0661778   -6.6019174    510.00324  0.035387402  0.035752851            3 
 1202000    1.0602757   -6.6015784    510.02992  0.035359812  0.035745438            3 
 1203000    1.0682655   -6.5844197    509.27445  0.035278086  0.035738121           10 
 1204000    1.0590517    -6.608202    510.90555   0.03536168   0.03573063            4 
 1205000     1.092136   -6.6100925     510.5308  0.035306418  0.035723193            3 
 1206000    1.0649361   -6.5851301    512.05326  0.035382343  0.035715787            6 
 1207000    1.0605934   -6.5853349    512.22484  0.035364875  0.035708477            3 
 1208000    1.0620341   -6.5758331    512.03142  0.035322256   0.03570117            2 
 1209000    1.0646702   -6.5941123     513.5492  0.035397657  0.035693945            4 
 1210000    1.0589564   -6.6194479    511.48876  0.035226499  0.035686672            8 
 1211000    1.0693639    -6.621154    511.80973  0.035219497  0.035679437            2 
 1212000    1.0547135   -6.6010337    513.24609  0.035289197  0.035672214            2 
 1213000    1.0662326    -6.617387    512.53859    0.0352115  0.035664876            7 
 1214000    1.0572895   -6.5854002    513.14448  0.035224086  0.035657539            3 
 1215000    1.0648238   -6.5936229    513.32722  0.035207628  0.035650504            4 
 1216000    1.0324894   -6.6233142    513.85122  0.035214585  0.035643246            5 
 1217000    1.0528777   -6.6155922       515.95  0.035329362  0.035635902            5 
 1218000    1.0589003   -6.5936549    514.71496  0.035215856  0.035628732            2 
 1219000    1.0487174   -6.6032453    514.96111  0.035203795  0.035621399            4 
 1220000    1.0577004   -6.6088631    514.50099   0.03514351   0.03561414            4 
 1221000     1.060045   -6.6257243    514.93456  0.035144319  0.035606943            2 
 1222000    1.0603412   -6.6040625    517.21887  0.035271336  0.035600018            8 
 1223000    1.0409906   -6.5961768    516.49068  0.035192878  0.035592853            3 
 1224000    1.0606071   -6.6320649    516.94082  0.035194773  0.035585491            2 
 1225000    1.0401557   -6.6291509    518.56824  0.035276751  0.035578084            1 
 1226000    1.0672462   -6.6319982    516.94754  0.035137816  0.035570579            2 
 1227000     1.050026   -6.5729596    519.28507  0.035267935  0.035563098            2 
 1228000    1.0726891    -6.567819    516.31584   0.03503772  0.035555622            4 
 1229000    1.0529928   -6.6059558    517.48497  0.035088484  0.035548019            3 
 1230000    1.0382236   -6.6470714    516.09302  0.034965652   0.03554032            8 
 1231000    1.0184959   -6.6151192    516.50585  0.034965194  0.035532377            7 
 1232000    1.0593985   -6.6140082     518.0147  0.035038873   0.03552452            2 
 1233000    1.0378872   -6.6373868    517.93657  0.035005175  0.035516527            5 
 1234000    1.0473949   -6.5821843    517.89149  0.034973763  0.035508476            3 
 1235000    1.0392381   -6.6331213    519.04352   0.03502318  0.035500489            5 
 1236000    1.0360323   -6.6803529    518.26622  0.034942437  0.035492444            5 
 1237000     1.068404   -6.5676528    519.85835  0.035021446  0.035484752            5 
 1238000    1.0640376   -6.6267592    519.23995  0.034951531  0.035477063            4 
 1239000    1.0757508   -6.6132562    521.27815  0.035060408  0.035469311            5 
 1240000    1.0784789   -6.6282781    519.81645  0.034933901  0.035461583            3 
 1241000    1.0464304   -6.6141513    520.23373  0.034933772  0.035453748            5 
 1242000    1.0555712   -6.5827371    521.41445  0.034984866  0.035445999            3 
 1243000    1.0447472   -6.6241846    520.71732  0.034909984  0.035438465            4 
 1244000    1.0301257   -6.5913927    521.66165   0.03494518  0.035430952            5 
 1245000    1.0767108    -6.644006    521.69951  0.034919646  0.035423268            3 
 1246000    1.0453725   -6.6003997    523.39433  0.035004971  0.035415696            3 
 1247000    1.0517188   -6.6047139    523.20043  0.034963942  0.035407893            8 
 1248000    1.0767146   -6.5982645    522.67512   0.03490085  0.035400086            4 
 1249000    1.0726389   -6.6151829    522.14957  0.034837842  0.035392338            2 
 1250000    1.0476347     -6.61038    522.76976  0.034851317  0.035384635            4 
 1251000    1.0532275   -6.6559823     523.5962   0.03487851  0.035376738            4 
 1252000    1.0429026   -6.5876176    523.66358  0.034855137  0.035368728            4 
 1253000    1.0467049   -6.6061272    525.66981  0.034960748  0.035360974            3 
 1254000    1.0751133   -6.6500024    525.29708    0.0349081  0.035352922            4 
 1255000    1.0740502   -6.5964821    524.05026  0.034797494  0.035344921            3 
 1256000    1.0647063   -6.6229619    525.15023   0.03484277  0.035336895            2 
 1257000     1.067489    -6.616495    525.87696   0.03486323  0.035328922            5 
 1258000    1.0438183   -6.5767381    525.68049  0.034822502  0.035320919            3 
 1259000    1.0289871   -6.6367903    522.81196  0.034604975  0.035312735            6 
 1260000    1.0442814   -6.6445011    525.03556  0.034724574  0.035304535            4 
 1261000    1.0504951   -6.6036065    525.95953  0.034758098  0.035296226            8 
 1262000    1.0605916   -6.6223479    525.39037  0.034692972  0.035288076            3 
 1263000    1.0436024    -6.614928    524.71883  0.034621195   0.03527961            5 
 1264000    1.0422536   -6.5897279    525.40811  0.034639248  0.035271024            6 
 1265000    1.0407821   -6.5914789     527.0426  0.034719539  0.035262436            1 
 1266000    1.0488047   -6.6456145    526.23355  0.034638859  0.035254081            5 
 1267000    1.0228072   -6.5974588    526.48848  0.034628287  0.035245661            8 
 1268000    1.0169661   -6.5904369    528.39357  0.034726181  0.035237089            4 
 1269000    1.0132192   -6.6055468    528.76811  0.034723412  0.035228564            3 
 1270000    1.0355637   -6.6049342    527.68197  0.034624801  0.035220088            1 
 1271000    1.0277195   -6.6083012    526.67883  0.034531788   0.03521149            2 
 1272000    1.0521484   -6.6014672    526.99269  0.034525202  0.035202919            7 
 1273000    1.0519268    -6.650955    528.44798  0.034593347  0.035194544            2 
 1274000    1.0287253   -6.6247979    527.53221  0.034506293  0.035186223            6 
 1275000     1.039724   -6.6461148    527.52866  0.034478998  0.035177848            3 
 1276000    1.0468758   -6.5913671    529.24013   0.03456375  0.035169458            4 
 1277000    1.0680048   -6.5879546    529.63094  0.034562186  0.035161052            4 
 1278000    1.0642779   -6.6501715    530.65331  0.034601807  0.035152757            4 
 1279000    1.0468408   -6.6496373    528.75403  0.034451005  0.035144292            7 
 1280000    1.0734612   -6.6071812    529.71676  0.034486768  0.035135799            3 
 1281000    1.0553374   -6.6225249    530.57497  0.034515676  0.035127217            3 
 1282000     1.024899   -6.6267171    531.61056  0.034556069  0.035118887            5 
 1283000    1.0261393   -6.6338555    531.95439  0.034551467  0.035110721           13 
 1284000    1.0379448    -6.588308    533.86948   0.03464885  0.035102617            4 
 1285000     1.049724   -6.6118399    533.20558  0.034578831  0.035094537            4 
 1286000    1.0389249   -6.5972177    532.69012   0.03451854  0.035086354            3 
 1287000    1.0467141    -6.606125    533.37058   0.03453578  0.035078177            3 
 1288000    1.0632353   -6.6484329     533.4435  0.034513684  0.035070061            3 
 1289000    1.0472011   -6.6303908    533.79196  0.034509436  0.035061795            2 
 1290000    1.0636504    -6.623295    534.29299  0.034515051  0.035053626            4 
 1291000    1.0586313   -6.6308193    534.65621  0.034511761  0.035045391            4 
 1292000    1.0529075   -6.6332179    534.93498   0.03450303  0.035037197            4 
 1293000    1.0611407   -6.6085085    536.20427  0.034558151  0.035029169            6 
 1294000    1.0293406   -6.6338144    536.63266  0.034559033  0.035021116            3 
 1295000    1.0592335   -6.5969482     536.5963  0.034530007  0.035013119            4 
 1296000    1.0469878   -6.6049509    537.27127  0.034546764  0.035004923            5 
 1297000     1.063673   -6.6267492    535.97907  0.034437103  0.034996826            9 
 1298000    1.0456971   -6.5791336    536.99544  0.034475824  0.034988766            4 
 1299000    1.0436343   -6.6049247      536.749  0.034433475  0.034980593            4 
 1300000    1.0671177   -6.6187442    537.02199  0.034424486  0.034972366            3 
 1301000     1.034713    -6.621722    536.78495  0.034382844  0.034964367            2 
 1302000    1.0246474   -6.6248631    539.25147  0.034514303  0.034956189            4 
 1303000    1.0566049   -6.6309459     538.8984  0.034465234  0.034948236            4 
 1304000    1.0449162   -6.6138595    539.84861  0.034499528  0.034940152            2 
 1305000    1.0288858   -6.6685196    537.81228  0.034343057  0.034932066            5 
 1306000    1.0480869    -6.610831    539.56858  0.034428827  0.034924136            4 
 1307000    1.0381025   -6.6546767     540.7943  0.034480636  0.034916201            5 
 1308000     1.034702   -6.5895681    540.00295  0.034403858  0.034908221            6 
 1309000    1.0313674   -6.6450451    538.71444  0.034295546   0.03490015            4 
 1310000    1.0327847   -6.6376395    539.99679  0.034350941  0.034892224            5 
 1311000    1.0271179   -6.6427634    541.81716   0.03444045  0.034884391            3 
 1312000    1.0599123   -6.6207008    542.31328  0.034445712  0.034876368            2 
 1313000    1.0410634   -6.6272128    540.85635  0.034327009  0.034868225            4 
 1314000    1.0473171   -6.6084315    540.89971  0.034303635  0.034860122            2 
 1315000    1.0541443   -6.6352081    541.79748  0.034334441  0.034851912            1 
 1316000    1.0445078   -6.6109622    541.63218  0.034297884  0.034843628            5 
 1317000     1.048632   -6.6382278    542.83262  0.034347799  0.034835368            2 
 1318000    1.0538179   -6.6452241    541.63748  0.034246174  0.034827217            2 
 1319000    1.0223927   -6.6120825    543.46936  0.034335947  0.034819181            6 
 1320000    1.0467569    -6.639254    543.38481  0.034304597  0.034811186            3 
 1321000    1.0660156   -6.6226162    543.35043  0.034276459  0.034802978            2 
 1322000    1.0613015   -6.6443206    541.26466  0.034119053  0.034794698            3 
 1323000    1.0475204   -6.6201855    543.77654  0.034251483  0.034786642            2 
 1324000    1.0252579   -6.6353954    545.46053  0.034331604  0.034778627            4 
 1325000    1.0223017   -6.6166324    544.91513  0.034271392  0.034770717            2 
 1326000    1.0371879   -6.6139105    547.21765  0.034390249  0.034762965            2 
 1327000    1.0223982   -6.6019983    547.36242  0.034373425  0.034755153            4 
 1328000    1.0456307    -6.581346    548.14917  0.034396911  0.034747434            2 
 1329000    1.0510142   -6.6064436    546.68711  0.034279352  0.034739852            2 
 1330000    1.0357038   -6.6118634    547.83455  0.034325473  0.034732147            5 
 1331000    1.0387378   -6.6477485    547.57774  0.034283605  0.034724364            4 
 1332000    1.0479706   -6.6503786    546.58514  0.034195767  0.034716492            4 
 1333000    1.0281897   -6.6529061    548.08872  0.034264111  0.034708563            5 
 1334000    1.0503502    -6.585856    549.57242  0.034331111  0.034700762            2 
 1335000    1.0422724   -6.6336133    548.90917  0.034263993  0.034692949            3 
 1336000    1.0458569   -6.6524482    548.13218  0.034189881  0.034685033            8 
 1337000    1.0279958   -6.6361707    549.57012  0.034253934  0.034677186            4 
 1338000    1.0618349   -6.6347129    549.65172  0.034233415  0.034669126            2 
 1339000    1.0218401   -6.6372561    549.13292  0.034175562   0.03466126            3 
 1340000    1.0534894   -6.6613497    547.90794  0.034073877  0.034653129            3 
 1341000    1.0411544    -6.625746    549.99645  0.034178253  0.034645022            5 
 1342000    1.0478461   -6.6684164    549.07548  0.034095596  0.034637011            4 
 1343000    1.0583818   -6.6702844     550.3706  0.034150571     0.034629            4 
 1344000    1.0245897   -6.6555141    550.55944   0.03413687  0.034621035            3 
 1345000    1.0454308   -6.6589778    550.39382  0.034101228  0.034612995            4 
 1346000    1.0117124   -6.5884306    551.07789  0.034118244  0.034604999            3 
 1347000    1.0534199   -6.6618614     551.6914  0.034130871  0.034597202            9 
 1348000    1.0116513   -6.6251667    552.11825  0.034131939  0.034589394            5 
 1349000    1.0356438   -6.6376511    553.89664  0.034216496  0.034581667            3 
 1350000     1.022701   -6.6365811    552.81466  0.034124362  0.034573829            5 
 1351000    1.0287244   -6.6364859    552.89104  0.034103814  0.034565902            6 
 1352000    1.0221289   -6.6311258    553.44825  0.034112935  0.034557845            2 
 1353000    1.0108941   -6.6640603    552.12365  0.034006138  0.034549741            5 
 1354000    1.0560761   -6.6178292    552.20222  0.033985858  0.034541594            3 
 1355000    1.0371751   -6.6381014    553.92508  0.034066733  0.034533368            2 
 1356000    1.0138098   -6.6082869    554.00046  0.034046242  0.034525255            2 
 1357000    1.0565422   -6.6315078    553.82496  0.034010376  0.034517193            2 
 1358000    1.0209817   -6.6536968    554.11325  0.034003022  0.034508986            2 
 1359000    1.0417148    -6.648104    554.39777  0.033995448  0.034500908            1 
 1360000    1.0186995   -6.6323977    554.99886  0.034007283  0.034492896            3 
 1361000    1.0334895   -6.6355504    555.23885  0.033996991  0.034484795            2 
 1362000    1.0440186   -6.6268562    554.64511  0.033935702  0.034476735            6 
 1363000    1.0462753   -6.6520336    555.44532  0.033959729  0.034468478            7 
 1364000    1.0303991   -6.6393945    554.46198  0.033874754  0.034460108            3 
 1365000    1.0300211   -6.6224518    555.76057  0.033929216  0.034451894            2 
 1366000    1.0366913   -6.6265603    555.72227  0.033902042  0.034443773            2 
 1367000    1.0204937   -6.6290776    557.63693  0.033993961  0.034435499            2 
 1368000    1.0306843   -6.6461493    557.34985  0.033951623  0.034427286            3 
 1369000    1.0398543   -6.6768032    556.70713  0.033887699  0.034419129            4 
 1370000    1.0383696   -6.6259596    558.65085  0.033981195   0.03441104            3 
 1371000    1.0431366    -6.649666     559.1349  0.033985831  0.034403132            7 
 1372000    1.0162766   -6.6561067    557.48103  0.033860607  0.034395161            2 
 1373000     1.031568    -6.650305    557.95843  0.033864921  0.034387289            2 
 1374000    1.0520228   -6.6499586    559.32424   0.03392311  0.034379319            3 
 1375000    1.0252422   -6.6636498    558.40603   0.03384279  0.034371283            2 
 1376000    1.0280215   -6.6721798    558.06404  0.033797483  0.034363105            5 
 1377000    1.0430317    -6.665123      558.535   0.03380144  0.034354906            4 
 1378000    1.0486163   -6.6361686    559.36191  0.033826918  0.034346708            3 
 1379000    1.0342367   -6.6616424    560.78025  0.033888099  0.034338578            4 
 1380000     1.014069   -6.6512434    561.50497  0.033907305  0.034330467            3 
 1381000    1.0206558   -6.6466918    561.16519  0.033862249  0.034322534            4 
 1382000    1.0414113    -6.661895    561.51095  0.033858596  0.034314569            4 
 1383000    1.0307442   -6.6376829    562.05983  0.033867186  0.034306836            2 
 1384000    1.0361249   -6.6545492    565.32247  0.034039166  0.034298911            3 
 1385000    1.0577487   -6.6355671    562.03437  0.033816749  0.034291048            4 
 1386000    1.0544921   -6.6696733    563.91631  0.033905502  0.034283299            3 
 1387000     1.043545    -6.648742    564.59248  0.033921682   0.03427553            3 
 1388000    1.0494058   -6.6516443    562.37692  0.033764225  0.034267818            8 
 1389000    1.0357801   -6.6691623    563.67831  0.033817993  0.034259873            3 
 1390000    1.0291662   -6.6788808    564.17387  0.033823373  0.034251977            4 
 1391000    1.0216881   -6.6422831     563.7891  0.033776006  0.034244158            4 
 1392000    1.0280407   -6.6385485     564.9819   0.03382315  0.034236259            2 
 1393000    1.0281828   -6.7024108    563.36584  0.033702192  0.034228235            3 
 1394000    1.0295862   -6.6555025    565.41183  0.033800325  0.034220239            2 
 1395000    1.0322778   -6.6651818    566.21226  0.033823911  0.034212162            2 
 1396000    1.0406968   -6.6432221    565.30233  0.033745363  0.034204366            2 
 1397000    1.0380408   -6.6484122    565.60257  0.033739118  0.034196507            5 
 1398000    1.0283511   -6.6553615    566.70188  0.033780512  0.034188777            3 
 1399000    1.0074306   -6.6827963    566.50867  0.033744858  0.034180949            2 
 1400000    1.0199951   -6.6690028    565.66147  0.033670326   0.03417311            4 
 1401000    1.0348708   -6.6428059    567.06976  0.033730059  0.034165275            5 
 1402000    1.0493749   -6.6807225    567.35707  0.033723078   0.03415736            3 
 1403000    1.0279586   -6.6654038     568.0483  0.033740099  0.034149573            4 
 1404000    1.0230195   -6.6797323    567.20635  0.033666094  0.034141529            4 
 1405000     1.033667    -6.635023    567.89576  0.033683023  0.034133644            4 
 1406000    1.0316169   -6.6529848    569.77532  0.033770467  0.034125893            3 
 1407000    1.0524978   -6.6222172    569.17074  0.033710657  0.034118166            5 
 1408000    1.0404025   -6.6599163    569.09484  0.033682223  0.034110359            3 
 1409000    1.0340813   -6.6656742    568.36116  0.033614925  0.034102394            3 
 1410000    1.0319498   -6.6629253    569.21308  0.033641435   0.03409422            4 
 1411000    1.0085992   -6.6657387    569.00136  0.033605089  0.034086221            4 
 1412000    1.0002666    -6.661867    568.90195  0.033575422  0.034078185            6 
 1413000    1.0129312   -6.7001013    569.06951  0.033561542  0.034070042            3 
 1414000    1.0327348   -6.6749549    568.84079  0.033524328  0.034061886            2 
 1415000     1.001717   -6.6846779    569.83002  0.033558894  0.034053654            6 
 1416000    1.0165474   -6.6547218    570.11696  0.033552081  0.034045475            7 
 1417000   0.98919954   -6.6748943    569.73172  0.033505747  0.034037236            6 
 1418000    1.0181907   -6.6598162    569.97875  0.033496636  0.034029048            2 
 1419000    1.0202128   -6.6985727    571.40509  0.033556794  0.034020941            3 
 1420000    1.0271235   -6.6459075    571.15497  0.033518484  0.034012814            3 
 1421000    1.0205142   -6.6600158    572.02198  0.033545741  0.034004841           11 
 1422000    1.0257653   -6.6759645    572.17652  0.033531207  0.033996757            2 
 1423000    1.0200804    -6.684309     570.4849   0.03340858  0.033988665            2 
 1424000    1.0330586   -6.6271214    573.42983  0.033557457  0.033980679            7 
 1425000    1.0150005   -6.6582009    571.87113  0.033442756  0.033972551            7 
 1426000    1.0383958   -6.6701896    573.29913  0.033502754  0.033964248            4 
 1427000    1.0472927   -6.6694745    572.88715  0.033455218     0.033956            6 
 1428000    1.0013756   -6.6563972    572.24174  0.033394126   0.03394769            4 
 1429000    1.0502106    -6.672297    573.38456  0.033437401  0.033939451            5 
 1430000    1.0340513   -6.6338606    574.45793  0.033476569  0.033931094            3 
 1431000    1.0268629   -6.6449315    573.34415  0.033388316  0.033922757            6 
 1432000    1.0175338   -6.6467551    574.47838  0.033431004  0.033914505            2 
 1433000    1.0305382   -6.6800122    573.41102  0.033345605  0.033905886            3 
 1434000    1.0253841   -6.6646402    573.23644  0.033312206  0.033897394            3 
 1435000    1.0139753   -6.6603349    574.52699  0.033363937  0.033888867            6 
 1436000   0.98626588   -6.6572986    574.71125  0.033351396  0.033880301            7 
 1437000    1.0248256   -6.6632889     573.9465  0.033283838  0.033871821            4 
 1438000    1.0164565   -6.6712977    575.37671  0.033343574  0.033863326            4 
 1439000    1.0274234   -6.6629038    575.16181  0.033307958  0.033854779            3 
 1440000    1.0087756   -6.6441166     576.1755   0.03334349  0.033846307            2 
 1441000    1.0283649   -6.6824729    577.42469  0.033392592  0.033837837            4 
 1442000     1.021133   -6.6705119    576.00419  0.033287343  0.033829415            2 
 1443000    1.0154536   -6.6457079    575.86317  0.033256131  0.033820939            2 
 1444000    1.0202752   -6.6586383    577.31959  0.033317151  0.033812479            4 
 1445000    1.0314261   -6.6183659    576.56328  0.033250477  0.033804062            4 
 1446000    1.0387694   -6.6674671    575.39656  0.033160245  0.033795566            3 
 1447000    1.0150459    -6.687245    578.20707  0.033299186  0.033787018            4 
 1448000    1.0132367   -6.6454881    578.48748  0.033292327  0.033778486            2 
 1449000    1.0037592   -6.7135094    575.61055  0.033103896  0.033769931            4 
 1450000    1.0379578   -6.6687915    576.86971  0.033153432  0.033761494            5 
 1451000    1.0175237   -6.7008807    577.45617  0.033164265  0.033753013            3 
 1452000    1.0197751   -6.6887596    578.15302  0.033181417   0.03374454            4 
 1453000    1.0104659   -6.6889109    579.89303  0.033258375  0.033736155            9 
 1454000    1.0120443   -6.6965137    579.36776  0.033205397   0.03372763            3 
 1455000    1.0000849   -6.6858889    578.33916  0.033123663  0.033719306            5 
 1456000   0.99225161   -6.6650675    581.12535  0.033260379  0.033710893            7 
 1457000    1.0188211   -6.6508935    579.80151  0.033161834  0.033702426            5 
 1458000    1.0197883   -6.6604026    579.91666  0.033145671  0.033694071            5 
 1459000     1.003034   -6.6698966    581.45013   0.03321054  0.033685786            3 
 1460000    1.0151755   -6.6808096    581.39677  0.033184747   0.03367737            3 
 1461000    1.0130372    -6.676745    581.78701  0.033184292  0.033669154            4 
 1462000    1.0328333   -6.6936033    582.23595  0.033187184  0.033660792            6 
 1463000    1.0374558   -6.6651389    582.16837   0.03316065  0.033652605            4 
 1464000    1.0034868   -6.7269706     583.4787  0.033212585  0.033644355            3 
 1465000    1.0138285   -6.7066287     581.9323  0.033101951  0.033636146            4 
 1466000    1.0065565   -6.6680771    583.41502  0.033163655  0.033627895            2 
 1467000    1.0069352   -6.6584514    584.56087  0.033206139  0.033619672            3 
 1468000    1.0212125   -6.6920419    584.01545  0.033152557   0.03361139            4 
 1469000   0.98168019   -6.7195622    583.98607  0.033128323  0.033602861            7 
 1470000   0.99175505   -6.6970149    584.06687  0.033110367  0.033594431            3 
 1471000    1.0194695   -6.7407618    583.25956  0.033042124  0.033585946            5 
 1472000    1.0159911   -6.6863561    582.62791  0.032983917  0.033577457            4 
 1473000    1.0286108   -6.6726905    582.93591  0.032978949  0.033568946            3 
 1474000    1.0146584   -6.6571899    585.72146  0.033114058  0.033560423            3 
 1475000    1.0219642   -6.6874661    584.60852   0.03302873  0.033551896            4 
 1476000    1.0403158   -6.6910275    585.34214  0.033047772  0.033543317            2 
 1477000    1.0266153   -6.7136073     583.8916  0.032943557  0.033534766            6 
 1478000    1.0104484   -6.6874855    584.40902  0.032950441  0.033526072            2 
 1479000    1.0093849   -6.6540274    584.00387  0.032905334  0.033517382            2 
 1480000    1.0376257   -6.7048096    584.68247   0.03292131  0.033508619            5 
 1481000    1.0160529   -6.7114221    584.15483  0.032869392  0.033499971            4 
 1482000    1.0088239   -6.6719645    585.15048  0.032903199  0.033491314            6 
 1483000    1.0381857   -6.6851682    584.57526  0.032848688  0.033482705            4 
 1484000      1.02329   -6.6699677    587.30853  0.032980039  0.033473923            5 
 1485000    1.0070809    -6.679708    584.96116  0.032826103  0.033465191            4 
 1486000    1.0538025   -6.6895752    583.54192  0.032724423  0.033456284           12 
 1487000     1.021903   -6.6843509    585.30035  0.032800961  0.033447458            3 
 1488000    1.0152821   -6.6842477    586.11946  0.032824791  0.033438511            4 
 1489000    1.0505505   -6.6820866    587.02516  0.032853434  0.033429616            2 
 1490000   0.99141223   -6.6614752    585.81493  0.032763698  0.033420664            7 
 1491000    1.0093383   -6.6993923    585.07824   0.03270055  0.033411732            2 
 1492000    1.0137016   -6.7079765    586.21884  0.032742339  0.033402575            6 
 1493000     1.030453   -6.6991952    584.62188  0.032631273   0.03339349            7 
 1494000   0.98636181   -6.7139541    586.42954   0.03271026  0.033384288            4 
 1495000   0.98002294   -6.6979861    586.19134  0.032675103  0.033375009            3 
 1496000    1.0158241    -6.643014    586.85446  0.032690199  0.033365899            3 
 1497000    1.0011594   -6.7265526    586.11702  0.032627311  0.033356753            5 
 1498000    1.0114362   -6.7055899    587.21831  0.032666795  0.033347631            6 
 1499000    1.0135849   -6.6955321    587.20339  0.032644173  0.033338515            7 
 1500000   0.99763798   -6.6930031    586.15994  0.032564441  0.033329512            6 
 1501000    1.0279543    -6.702928    587.38864  0.032610962  0.033320373            5 
 1502000    1.0026985   -6.7034317    589.09781  0.032684077  0.033311452            2 
 1503000    1.0213745   -6.6656888    588.06817  0.032605243  0.033302594            3 
 1504000    1.0117231   -6.6962051    590.92622  0.032741922  0.033293763            7 
 1505000    1.0085831   -6.6736565    589.82021  0.032658926  0.033284778            2 
 1506000    1.0321336   -6.6751487    590.53106  0.032676575  0.033275868            3 
 1507000    1.0216637   -6.6854121    591.11615  0.032687246  0.033267025            9 
 1508000    1.0081131   -6.7254012    587.38854  0.032459579  0.033258143            8 
 1509000    1.0273534    -6.667612    591.24024  0.032650775  0.033249304            8 
 1510000    1.0174845   -6.7101055    592.05688  0.032674221   0.03324042            3 
 1511000    1.0073425    -6.717335     590.1654  0.032548279  0.033231611            2 
 1512000   0.98528723   -6.7086717    592.78977  0.032671394  0.033222715            9 
 1513000    1.0004986   -6.7106496    591.90251  0.032600932   0.03321389            2 
 1514000   0.99000715   -6.6750169       594.28   0.03271026  0.033205124            5 
 1515000    1.0017465   -6.6876702    593.64988  0.032654009  0.033196411            3 
 1516000   0.99232169   -6.7083555    591.91769  0.032537252  0.033187465            5 
 1517000    1.0089656   -6.6825007    593.69531  0.032613454  0.033178651            3 
 1518000    1.0085676   -6.7155565    592.82974  0.032544452  0.033169677            5 
 1519000    1.0166271    -6.694709    593.12198   0.03253906  0.033160748            3 
 1520000    1.0267579   -6.6971033    594.79754  0.032609514  0.033151777            4 
 1521000    1.0139745   -6.6888576    594.14588  0.032552371  0.033142973            6 
 1522000    1.0070782   -6.7155736    594.02873  0.032524569  0.033134055            2 
 1523000    1.0062382   -6.6992814    592.60041  0.032425061   0.03312518            3 
 1524000   0.99915233   -6.6863628    593.60871  0.032458919   0.03311633            4 
 1525000    1.0127519   -6.6985086    594.04421  0.032461432  0.033107361            3 
 1526000   0.98385582   -6.7200545    593.96554  0.032435864  0.033098482            4 
 1527000    1.0295212    -6.694258    594.73339  0.032456527  0.033089522            2 
 1528000    1.0150715   -6.6880243    595.75226  0.032490852  0.033080751            4 
 1529000    1.0150911   -6.7228481    595.24688  0.032442058  0.033071823            4 
 1530000    1.0026512   -6.7293059    597.53831  0.032545659  0.033062974            6 
 1531000    1.0152094   -6.6962159    597.78805  0.032537995  0.033054145            3 
 1532000    1.0076287   -6.7085498    597.25297  0.032487651  0.033045482            7 
 1533000    1.0031331   -6.6981386    598.12704  0.032513973  0.033036695            2 
 1534000    1.0063941   -6.7039762    597.17075  0.032440827  0.033027947            5 
 1535000     0.993115   -6.6859836     597.5268  0.032439023  0.033019253            8 
 1536000    1.0042942   -6.7070226    595.75446  0.032321748  0.033010442            5 
 1537000    1.0156391   -6.7140389     598.4046  0.032444405   0.03300167            7 
 1538000   0.98969564   -6.7076983    598.71369  0.032440057   0.03299297            4 
 1539000    1.0264134   -6.6828541    598.75168  0.032421035   0.03298425            5 
 1540000    1.0070426   -6.7483661     598.1918  0.032369686  0.032975572            6 
 1541000    1.0143585   -6.7501273    598.63003  0.032372379  0.032966842            3 
 1542000   0.99357709   -6.6778748    599.85643  0.032417663  0.032958043            5 
 1543000   0.99781626   -6.7062072    600.82188  0.032448795  0.032949486            3 
 1544000    1.0075433    -6.718556    598.17419  0.032284876  0.032940782            2 
 1545000   0.99112775   -6.7334933    598.98515  0.032307721  0.032932025            3 
 1546000    1.0003044   -6.7082959    600.78518   0.03238385  0.032923225            3 
 1547000    1.0021403   -6.6907356    601.02404  0.032375783  0.032914534            5 
 1548000   0.99730889   -6.7299435    602.19841  0.032418088  0.032905949            3 
 1549000    1.0101853   -6.7021314    601.99472  0.032386202  0.032897361            3 
 1550000    1.0107052   -6.6765568    601.69598  0.032349246  0.032888758            7 
 1551000     1.009521   -6.7006757    602.72456  0.032383653  0.032880303            3 
 1552000    1.0000611    -6.681037    605.19947  0.032495676  0.032871979            5 
 1553000    1.0055447   -6.7111876    603.22949  0.032369043  0.032863539            4 
 1554000    1.0211784   -6.7051452    604.47397  0.032414949  0.032855138           11 
 1555000    1.0226391   -6.7266464    604.16611  0.032377605  0.032846575            3 
 1556000    0.9956112   -6.6979687    604.45584  0.032372314  0.032838221            7 
 1557000    1.0050402   -6.7225045    604.46953  0.032352255  0.032829815            2 
 1558000   0.99815208    -6.716849    603.51017  0.032280176   0.03282131            8 
 1559000    1.0025019   -6.6864543     604.5402  0.032314529  0.032812918            3 
 1560000    1.0080276    -6.699736    604.63365  0.032298806  0.032804467            4 
 1561000    1.0128991   -6.7117305    605.92805  0.032347216  0.032795932            4 
 1562000    1.0206992   -6.7205358    604.58706  0.032254965  0.032787554            7 
 1563000    1.0144561   -6.7092946    607.55248  0.032392433  0.032779121            5 
 1564000    1.0009011   -6.7051572     604.5091  0.032209564  0.032770667            6 
 1565000     1.002005   -6.7413751    606.59332  0.032299964   0.03276224            3 
 1566000   0.99122191   -6.7191747    606.79611  0.032290129   0.03275391            6 
 1567000     1.009388   -6.7050254    607.16866  0.032289335  0.032745495            2 
 1568000    1.0172943   -6.6831572    607.86547  0.032305776  0.032737116            4 
 1569000   0.99443105   -6.7027621     608.4756  0.032317591  0.032728851            4 
 1570000    1.0219221   -6.7215682    608.37896  0.032291877  0.032720678            7 
 1571000     1.003812   -6.7052426    609.82089  0.032347809  0.032712454            4 
 1572000   0.99721472   -6.6992535    611.33689  0.032407596  0.032704358            3 
 1573000    1.0184234   -6.6963485    611.05389  0.032372001   0.03269622            2 
 1574000   0.99185984   -6.6983408    608.91459  0.032238172  0.032687971            9 
 1575000    1.0142281   -6.6818798    610.19211  0.032285297  0.032679815            2 
 1576000   0.97934692   -6.7236423    610.85055  0.032299627  0.032671748            5 
 1577000    1.0104172   -6.7022614    609.77187  0.032222145  0.032663678            8 
 1578000    1.0148587   -6.7401575    610.18603  0.032223597  0.032655661            5 
 1579000    1.0006119   -6.7331648    611.33481  0.032263817  0.032647625            4 
 1580000    1.0033078   -6.6951222    611.24415  0.032238615  0.032639549            3 
 1581000     1.031329   -6.7054332    610.00312  0.032152811  0.032631474            3 
 1582000    1.0191826   -6.6978411     610.8166  0.032175337  0.032623356            4 
 1583000    1.0250101   -6.7041485    611.11494  0.032170717  0.032615316            3 
 1584000   0.99651635   -6.7101297     612.0593  0.032200089  0.032607254            3 
 1585000    1.0057838   -6.7071416    612.39928  0.032197649  0.032599102            8 
 1586000   0.98782508   -6.7383102    611.12251  0.032110262  0.032590992            6 
 1587000    1.0023954   -6.7061535    614.20712  0.032252002  0.032582906            3 
 1588000   0.99719788   -6.7015794    614.66465  0.032255701  0.032574784            2 
 1589000    1.0076587   -6.6866227     616.0354   0.03230729  0.032566734            4 
 1590000   0.98116485    -6.708975    613.07139  0.032131624   0.03255857            5 
 1591000    0.9735785   -6.7371463     612.3726  0.032074827  0.032550346            4 
 1592000    1.0044423   -6.7215359    611.92046  0.032031012  0.032542211            6 
 1593000   0.97613534   -6.6848291    616.41722   0.03224614  0.032534155            3 
 1594000    0.9873683   -6.7397404    614.11112  0.032105349  0.032526159            2 
 1595000   0.99797372   -6.7356463    615.13556  0.032138744  0.032518073            5 
 1596000   0.97382647   -6.7112003    614.67952  0.032094795   0.03250988            3 
 1597000   0.99854885   -6.7094644    616.50401  0.032169902  0.032501889            3 
 1598000   0.99435543   -6.7483416      616.111  0.032129276  0.032493773           14 
 1599000    1.0018443   -6.7040369    616.60114  0.032134727  0.032485609            4 
 1600000     0.988487   -6.7094603    617.92512    0.0321836   0.03247754            6 
 1601000    1.0085174   -6.6894234    617.97904  0.032166304  0.032469538           14 
 1602000   0.98658738   -6.7147034    616.32662  0.032060269  0.032461417            5 
 1603000   0.99721949   -6.7425302    615.68552  0.032006941  0.032453222            2 
 1604000   0.98949895    -6.702301    616.50666  0.032029648  0.032445096            2 
 1605000   0.98548565    -6.760041    616.05253  0.031986113  0.032436909            3 
 1606000   0.99402913   -6.7233124    617.09392  0.032020232  0.032428791            3 
 1607000   0.97670956   -6.7404267    616.62716  0.031976103  0.032420677            4 
 1608000   0.97497583   -6.7198242    616.21921  0.031935075  0.032412565            3 
 1609000    1.0058617   -6.7046415     619.2599  0.032072711  0.032404464            4 
 1610000   0.98724856   -6.7302531    618.60294  0.032018785  0.032396356            3 
 1611000    1.0030045   -6.7178721    616.29018  0.031879277  0.032388079            2 
 1612000   0.97307645   -6.7135365    618.64041  0.031980997  0.032379879            3 
 1613000   0.99625806   -6.7095935    618.01647  0.031928935  0.032371746            4 
 1614000   0.99136471   -6.6934228     619.2575  0.031973229  0.032363502           10 
 1615000    1.0034839   -6.7073719    621.25171  0.032056332  0.032355445            2 
 1616000   0.98529262   -6.7329611    618.47084  0.031893092  0.032347374            5 
 1617000    1.0008529   -6.7262548    620.91832  0.031999501  0.032339284            3 
 1618000   0.97887834    -6.678563    622.08689   0.03203991  0.032331205            9 
 1619000    1.0075072   -6.7349456    620.81857  0.031954837  0.032323148            2 
 1620000    1.0004955    -6.754674    620.94703   0.03194172  0.032315145            6 
 1621000   0.99207678    -6.691451    622.99176  0.032027132  0.032307159            3 
 1622000   0.98800451   -6.7102616    621.76374  0.031944294  0.032299255            4 
 1623000   0.98982279   -6.7333148    622.59624  0.031967357   0.03229125            3 
 1624000    1.0039307   -6.7122303    624.19902  0.032029917  0.032283254            5 
 1625000   0.99802636   -6.7401351    624.58557  0.032030029  0.032275301            2 
 1626000   0.98584522   -6.7559043    622.84484  0.031921117  0.032267365            3 
 1627000    1.0007756   -6.7187689    624.62595  0.031992724  0.032259432            5 
 1628000    1.0099343   -6.7508363    623.85853   0.03193379  0.032251546            7 
 1629000    1.0006169   -6.7425995    623.54739   0.03189827  0.032243578            2 
 1630000   0.98130406   -6.7195014    624.66328  0.031935751   0.03223557            5 
 1631000   0.99509734   -6.7047074     625.8963  0.031979169  0.032227659            4 
 1632000   0.95614405   -6.7188244    623.79741  0.031852401  0.032219586            2 
 1633000    1.0154546   -6.7257213    624.33881  0.031860523  0.032211605            5 
 1634000   0.99910151   -6.7185104    624.42436  0.031845388  0.032203659            3 
 1635000   0.97119829   -6.7489318    624.28315  0.031818713   0.03219563            3 
 1636000   0.99521865   -6.7373375    622.24695  0.031695545  0.032187636            5 
 1637000   0.98636176    -6.732253     625.8955  0.031861917  0.032179709            3 
 1638000   0.99768829   -6.7299949    625.81314  0.031838275  0.032171671            5 
 1639000   0.98361826   -6.7429409     624.7515  0.031764872  0.032163627            4 
 1640000   0.98804554   -6.7465084    626.41945  0.031830257   0.03215554           16 
 1641000   0.98899327   -6.7107921    626.11719   0.03179551  0.032147461            2 
 1642000   0.98773449   -6.7280542    625.01865  0.031720394  0.032139252            3 
 1643000   0.99346035    -6.728568    623.96896  0.031647847  0.032131102            3 
 1644000   0.99733217   -6.7677937    627.13267  0.031788963  0.032122981            5 
 1645000   0.95719517   -6.7441543     628.7317  0.031850643  0.032114819            5 
 1646000     1.001882    -6.737784    626.62176  0.031724472  0.032106653            2 
 1647000    0.9942614   -6.7276412    627.12495  0.031730669  0.032098544            4 
 1648000   0.99090917   -6.7352914    628.35896  0.031773815  0.032090472            9 
 1649000   0.98893419   -6.7595836    627.89869  0.031731286  0.032082459            3 
 1650000    0.9757133   -6.7511506    627.05351  0.031669369  0.032074436            6 
 1651000   0.98362416   -6.7433731    627.01775  0.031648382  0.032066377            4 
 1652000   0.97257433   -6.7680159    627.63356  0.031660289  0.032058239            5 
 1653000   0.97692648   -6.7583738    627.80733  0.031649896  0.032050013            3 
 1654000   0.97472112   -6.7204923    629.55056  0.031718589  0.032041909            2 
 1655000   0.97297789    -6.730279    630.07987  0.031726076  0.032033947            4 
 1656000   0.97999123   -6.7247273    628.48917  0.031626871  0.032025913            3 
 1657000   0.97610188    -6.733743    630.10179  0.031688885  0.032017923            5 
 1658000   0.99859586     -6.73819    630.83791  0.031706771   0.03200992            3 
 1659000    1.0081861   -6.7618939    630.95096  0.031693337  0.032002021            3 
 1660000   0.97496944   -6.7590397    631.09928  0.031681691   0.03199402            4 
 1661000   0.95650899   -6.7464674     632.2092  0.031718302  0.031986096            5 
 1662000   0.97369738   -6.7482151    632.75602  0.031726635  0.031978175            2 
 1663000    0.9953526    -6.732243    632.84664  0.031712099  0.031970196            3 
 1664000   0.98872923   -6.7447583    633.58282  0.031729909  0.031962287            5 
 1665000   0.96707078   -6.7291729    631.70487  0.031616861  0.031954409            4 
 1666000   0.98329145   -6.7251547    631.73597  0.031599438  0.031946416            5 
 1667000    1.0002572   -6.7540736    632.63032  0.031625191  0.031938425            3 
 1668000   0.97988328   -6.7149198    633.35126  0.031642249   0.03193035           14 
 1669000    1.0029351   -6.7321288    632.20865   0.03156624  0.031922247            3 
 1670000   0.97943711   -6.7298143    632.17875  0.031545846  0.031914142            6 
 1671000   0.96091419   -6.7491417    631.80699  0.031508427  0.031906097            4 
 1672000    0.9654796   -6.7302728    632.21053  0.031509696  0.031898078            3 
 1673000   0.97790649   -6.7426342    631.42731  0.031451849  0.031889936            5 
 1674000   0.98397486   -6.7278596    632.94961  0.031508842  0.031881702            3 
 1675000   0.99535738   -6.7609393    632.58495  0.031471888   0.03187356            3 
 1676000   0.99152995   -6.7422989    633.87352   0.03151718  0.031865412            6 
 1677000    0.9820582    -6.764868    632.81817  0.031445944  0.031857302            8 
 1678000   0.95478899   -6.7543634    634.68774  0.031520051   0.03184921            5 
 1679000   0.97488132   -6.7196905    634.63318  0.031498569  0.031841115            8 
 1680000   0.98303727   -6.7403694    634.80731  0.031488458  0.031833042            4 
 1681000   0.98964285   -6.7377706      635.239  0.031491126  0.031824982            3 
 1682000   0.98382339    -6.735033    633.30739  0.031376704  0.031816851            5 
 1683000   0.97919233   -6.7187015    633.95009  0.031389884  0.031808763            4 
 1684000   0.96457288   -6.7109998    636.77519  0.031511044  0.031800724            6 
 1685000   0.98788565   -6.7470602    636.44403  0.031475966  0.031792692            5 
 1686000    1.0005147   -6.7509532    635.83935   0.03142741  0.031784631            4 
 1687000   0.97841071   -6.7423918    636.04192  0.031418787   0.03177662            5 
 1688000   0.98012955   -6.7346194    635.82714  0.031389571  0.031768658            4 
 1689000   0.99693705   -6.7309124    639.41141   0.03154783  0.031760665            3 
 1690000   0.98008685   -6.7341818    638.27737  0.031473243  0.031752838            3 
 1691000   0.97052975   -6.7379692     638.2408  0.031452829  0.031744907            6 
 1692000   0.98171177   -6.7119788    639.76967  0.031509539  0.031736993            6 
 1693000    0.9737264   -6.7507413    639.50001  0.031477653  0.031729083            3 
 1694000   0.97924177   -6.7429011    638.72458  0.031420926  0.031721049            3 
 1695000   0.99419562   -6.7372993     639.4158  0.031436372  0.031713089            5 
 1696000   0.97874102   -6.7423804    638.91122  0.031393043  0.031705128            4 
 1697000   0.96248066   -6.7386766    639.74685  0.031415579  0.031697304            5 
 1698000   0.99268957   -6.7429099    638.90919  0.031355967   0.03168947            5 
 1699000   0.96625555   -6.7282301     640.6821   0.03142447  0.031681695           11 
 1700000    0.9776822   -6.7947369    641.58332  0.031450163  0.031673973            3 
 1701000   0.98551755    -6.748083     642.3113  0.031467338  0.031666144            4 
 1702000   0.98473394   -6.7691958    640.22981  0.031346936  0.031658324            5 
 1703000   0.97979742    -6.793155     641.3111  0.031381439  0.031650631            5 
 1704000   0.97347222   -6.7767715    642.28372  0.031410589  0.031642776            5 
 1705000   0.97493727   -6.7648839    641.42215  0.031350056  0.031635075            5 
 1706000   0.98517986    -6.732608    643.96843  0.031456058   0.03162756            4 
 1707000   0.98322841   -6.7721389    643.19552  0.031399899  0.031620029            2 
 1708000    0.9833023   -6.7308987    644.16876  0.031428999  0.031612412            3 
 1709000   0.98465173   -6.7469145    643.59254  0.031382511  0.031604764            9 
 1710000   0.95675623   -6.7525024    644.42502  0.031404728  0.031597191            5 
 1711000   0.98758684   -6.7828436    643.33876  0.031333468  0.031589591            3 
 1712000   0.97315497   -6.7952045    644.00067  0.031347385  0.031581953            4 
 1713000     0.972616   -6.7393526    645.39783  0.031397053  0.031574479            2 
 1714000   0.96558958   -6.7436636    643.39388  0.031281305  0.031566949            3 
 1715000   0.96756267    -6.751212    646.16263  0.031397601  0.031559364            3 
 1716000    1.0035979   -6.7847084    646.15707  0.031379034  0.031551787            3 
 1717000   0.97646033   -6.7300298    646.80483  0.031392197  0.031544392            9 
 1718000   0.97624652   -6.7536727    647.23344  0.031394715  0.031536905            8 
 1719000   0.98081008   -6.7431204    647.14116  0.031371978  0.031529544            3 
 1720000   0.96681958   -6.7698981    646.06913  0.031301799  0.031522152            5 
 1721000   0.98468791   -6.7768458    645.11066    0.0312372  0.031514664            4 
 1722000   0.96831239   -6.7624548    647.25081  0.031322629  0.031507256            4 
 1723000   0.96904422    -6.746389    648.53152  0.031366392  0.031499793            2 
 1724000   0.97806747    -6.765495    648.20066  0.031332205  0.031492227            2 
 1725000   0.98985563   -6.7931177    646.97754  0.031254953  0.031484701            5 
 1726000   0.97789402   -6.7667799    649.38542  0.031353101  0.031477259            4 
 1727000   0.98228752   -6.7481286    649.31711   0.03133165  0.031469884            4 
 1728000   0.97812656   -6.7554157    650.06627  0.031349646  0.031462372            3 
 1729000   0.97310345   -6.7921991    650.56924  0.031355757  0.031454917            7 
 1730000   0.95480148   -6.7511292    649.76124  0.031298711  0.031447385            5 
 1731000   0.95801285      -6.7602    650.79586  0.031330438  0.031440004            2 
 1732000   0.95063283   -6.7752594    647.56594  0.031156945  0.031432541            4 
 1733000   0.96426578   -6.7708755    652.21687  0.031362612  0.031425114            6 
 1734000    0.9651073   -6.7508102    650.75766  0.031274398   0.03141773            3 
 1735000    1.0098705   -6.7437313    650.61895   0.03124971   0.03141034            2 
 1736000   0.97751703   -6.7368198    650.90921  0.031245642  0.031402816            7 
 1737000   0.98717002   -6.7571615    650.12603   0.03119008  0.031395301            6 
 1738000   0.96454534    -6.806421    651.16475  0.031221939  0.031387788            4 
 1739000   0.96289871    -6.756608     650.9315  0.031192807  0.031380373            5 
 1740000   0.96911794   -6.7665034    651.67957  0.031210707  0.031372885            6 
 1741000   0.98985701    -6.775871    652.65497  0.031239468  0.031365367            4 
 1742000   0.98189841   -6.7471477    651.97497  0.031189005  0.031357968            4 
 1743000   0.97473154   -6.7704012     650.9914  0.031124087  0.031350427            2 
 1744000   0.97617483   -6.7758953    650.98669  0.031106015  0.031342902            3 
 1745000   0.95292164   -6.7806179    652.72174  0.031171048  0.031335177            4 
 1746000   0.96970923   -6.7629081    653.39275  0.031185221  0.031327534            7 
 1747000   0.95493005   -6.7844145    650.62874  0.031035525  0.031319913            2 
 1748000   0.96175095   -6.7773328     652.3281  0.031098784  0.031312295            4 
 1749000   0.97400553   -6.7973831    652.76866  0.031101995  0.031304784            5 
 1750000   0.97526217   -6.7602468    653.18539  0.031104066  0.031297229            7 
 1751000   0.96829129   -6.7495533    655.15227   0.03117991  0.031289767           12 
 1752000   0.98689325    -6.781659     655.2149  0.031165092  0.031282432            6 
 1753000   0.97465563   -6.7496749    656.17466  0.031192939  0.031275105            3 
 1754000   0.97348692   -6.7836844    653.85922  0.031065147  0.031267708            3 
 1755000    0.9901047    -6.771507    654.52052  0.031078847  0.031260237            7 
 1756000   0.95014884   -6.8069422    655.42024  0.031103846  0.031252695            5 
 1757000   0.96486834   -6.7630868    655.08519  0.031070252  0.031245083            5 
 1758000   0.99534077   -6.7591446    655.82339   0.03108757  0.031237494            7 
 1759000   0.98000609   -6.7770963    656.81859  0.031117045   0.03123001            3 
 1760000   0.98454079   -6.8062649    655.24936  0.031025064  0.031222492            3 
 1761000   0.97083349    -6.811672    654.65682  0.030979407  0.031214813           10 
 1762000   0.98416193    -6.776776    656.66183  0.031056651  0.031207164            5 
 1763000   0.95986113   -6.7782028    654.44267   0.03093414  0.031199575            3 
 1764000   0.96803809   -6.7943018    656.58282  0.031017707  0.031192123            5 
 1765000   0.96468802   -6.7809406    656.76669  0.031008814  0.031184643           10 
 1766000   0.94707124   -6.7805787    656.38769  0.030973372  0.031177094            4 
 1767000   0.95860988   -6.7896693    657.06781  0.030987918  0.031169524            2 
 1768000   0.96726852   -6.7551702    659.34314  0.031077637  0.031162107            5 
 1769000   0.96287513   -6.7774636    659.65999  0.031074995  0.031154714            3 
 1770000   0.97108626   -6.7802261    657.99109  0.030978865  0.031147234            4 
 1771000   0.97169931   -6.7646048    657.82794  0.030953696  0.031139856            4 
 1772000   0.95151047   -6.7675464    660.54014  0.031063776  0.031132514            6 
 1773000    0.9675953   -6.7778587    658.19072   0.03093583  0.031125031            6 
 1774000   0.98480441   -6.7993813    659.30548  0.030970757   0.03111759            3 
 1775000   0.97376364    -6.766748    658.79889  0.030929525  0.031110106            5 
 1776000    0.9517993   -6.7462901    657.60009   0.03085586  0.031102645            4 
 1777000   0.97286767   -6.7805781    660.87206  0.030991937  0.031095307            4 
 1778000   0.95011347   -6.7413917    661.00958  0.030980952  0.031087884            3 
 1779000   0.94546337   -6.7954677    660.03402  0.030917839  0.031080534            2 
 1780000   0.95989992   -6.7921975    660.89712  0.030940876  0.031073159            3 
 1781000   0.95428033   -6.7850784    661.66243  0.030959313  0.031065821            8 
 1782000   0.96142504   -6.7760142     661.3787  0.030928671  0.031058438            4 
 1783000   0.96090336   -6.7760728    663.10177  0.030991857  0.031051024            3 
 1784000   0.96726389    -6.768196    662.34467  0.030939119  0.031043695            2 
 1785000   0.96060617   -6.8027948    660.79229  0.030849313  0.031036184            4 
 1786000   0.97913778   -6.7676549      664.393  0.031000047  0.031028725            5 
 1787000   0.94306473   -6.8216237    661.30471  0.030838682  0.031021379            4 
 1788000   0.98034092   -6.7546797    663.83446  0.030939339  0.031013956            5 
 1789000   0.95965033   -6.8097896    662.58525  0.030863855  0.031006624            7 
 1790000   0.95632287    -6.788889    662.78855  0.030856078  0.030999332            4 
 1791000   0.97752373   -6.7758761    662.91016  0.030844508  0.030992091            6 
 1792000   0.95558229   -6.8093645    663.78796  0.030868116  0.030984867            5 
 1793000   0.95831786   -6.7855975    664.54605  0.030886134  0.030977595            4 
 1794000   0.97480322   -6.7902136    663.36992  0.030814285  0.030970377            3 
 1795000   0.96997462   -6.7783137    665.82841  0.030911254  0.030963112            4 
 1796000   0.97383142   -6.7606036    665.23543  0.030866529  0.030955854            6 
 1797000   0.96295142   -6.8081006    666.51074  0.030908493  0.030948777            3 
 1798000   0.96426274   -6.7819429    667.29246  0.030927533  0.030941639            4 
 1799000   0.95411395   -6.8106956    665.46635  0.030825753  0.030934483            5 
 1800000   0.95630082     -6.82035    666.55403  0.030858983  0.030927333            5 
 1801000   0.96743296   -6.7856598    667.42097  0.030881963  0.030920168            4 
 1802000   0.97922229   -6.7930192    667.22322   0.03085568  0.030913114            5 
 1803000   0.95351061   -6.7927904        668.3  0.030888334  0.030905934            5 
 1804000   0.95056219   -6.8110019    666.77716  0.030800867  0.030898781           11 
 1805000   0.95287354   -6.7980811     667.1654  0.030801727   0.03089161            4 
 1806000   0.95425037   -6.7961095    666.83731  0.030769533  0.030884438            6 
 1807000   0.96638568   -6.7873409    668.07463  0.030809566  0.030877301            8 
 1808000   0.97130832   -6.8054706    669.10594   0.03084006   0.03087021            5 
 1809000    0.9694913   -6.7901467    668.40205  0.030790586  0.030863111            4 
 1810000    0.9506282   -6.7913771    667.13262   0.03071513  0.030856038            4 
 1811000   0.97254474   -6.7944749    669.01474  0.030784775  0.030848813            7 
 1812000    0.9665449   -6.7724101    668.46297  0.030742411  0.030841619            3 
 1813000   0.96067226   -6.7686994    668.62409  0.030732859  0.030834481            5 
 1814000   0.95137168   -6.8124291     670.0601  0.030781886  0.030827298            4 
 1815000   0.95072078   -6.8338587    669.07366  0.030719636   0.03082008            7 
 1816000   0.93528417   -6.8015413    669.47092  0.030720949  0.030812782            4 
 1817000   0.96937916   -6.7946259    670.36306  0.030744958  0.030805561            7 
 1818000   0.96086842   -6.7850579    669.61672  0.030693836  0.030798358            4 
 1819000   0.97433625   -6.7995702    671.10428  0.030745111  0.030791206            3 
 1820000   0.95841736   -6.7777773    670.66076   0.03070791  0.030783967            6 
 1821000   0.96031812   -6.7890838    670.79824  0.030697338  0.030776824            4 
 1822000   0.93045301   -6.7888105     671.8924  0.030730534   0.03076966            5 
 1823000   0.97679874   -6.7742465    670.65025  0.030656896  0.030762485            3 
 1824000   0.97811718   -6.8183923    671.71337  0.030688659  0.030755199            4 
 1825000   0.96112285   -6.8113951    670.57804  0.030620002  0.030747991            3 
 1826000   0.96212783   -6.7810848    670.33542   0.03059216  0.030740694            3 
 1827000   0.95817162   -6.8115648    670.24668  0.030571368  0.030733334            5 
 1828000   0.95641686   -6.8038084    671.31648  0.030603414  0.030725923            2 
 1829000   0.97874558    -6.807198    670.27115  0.030539054  0.030718639            4 
 1830000    0.9715405   -6.7674517    671.65478  0.030585372  0.030711278            7 
 1831000   0.95771045    -6.810452    671.34761  0.030554688    0.0307039            2 
 1832000   0.95556816   -6.7914189    672.71572  0.030600242  0.030696525            6 
 1833000   0.94757731    -6.784722     672.0273   0.03055225  0.030689201            3 
 1834000   0.94986195   -6.8080995    672.07283   0.03053766  0.030681808            4 
 1835000    0.9644623   -6.7882103    672.48244   0.03053962  0.030674378            3 
 1836000   0.96892035   -6.8126883    672.59248  0.030527981  0.030667068            5 
 1837000    0.9684826    -6.786772    673.99183  0.030574843  0.030659781            5 
 1838000   0.96073406   -6.8128271    673.36379  0.030529733  0.030652439            5 
 1839000   0.96967785   -6.7968268    673.35884  0.030512907  0.030644983            3 
 1840000   0.95491523   -6.7947269    674.83655  0.030563249  0.030637636            5 
 1841000   0.96040574   -6.7576092     674.9805  0.030553164   0.03063033            6 
 1842000   0.98542401    -6.775896     673.9213  0.030488658   0.03062305            5 
 1843000   0.92636119   -6.8046954    673.69649   0.03046195  0.030615708            4 
 1844000   0.96389906   -6.7778576    673.34258  0.030429437  0.030608364            8 
 1845000   0.93854411   -6.7884812    675.25715   0.03049942  0.030601026            8 
 1846000   0.95026336   -6.7935818    676.98627  0.030560955  0.030593851            4 
 1847000   0.95125701   -6.8120116    675.30189  0.030468412  0.030586697            6 
 1848000   0.92670066   -6.7542347    676.87817  0.030523005  0.030579511            6 
 1849000   0.95414314   -6.8025438    676.00869  0.030467311  0.030572319            5 
 1850000   0.97001559   -6.7942479    676.22382  0.030460532  0.030565089            3 
 1851000   0.96450444   -6.8092686    677.01263  0.030479589  0.030557961            5 
 1852000   0.95562493   -6.8228796    674.90254  0.030368185  0.030550804            5 
 1853000   0.95493317   -6.8004127    677.32574  0.030460773  0.030543562            3 
 1854000   0.95215123     -6.83257    678.05873  0.030477289  0.030536294            5 
 1855000   0.98104033   -6.7766198    681.20105  0.030602024  0.030529099            6 
 1856000   0.96324991   -6.7864127    678.29145  0.030454896  0.030522061            5 
 1857000   0.93655174   -6.8331791    678.14286  0.030431828  0.030514962            3 
 1858000   0.93942135   -6.7955302    678.39912  0.030426943  0.030507778            3 
 1859000   0.96455961   -6.8232919    679.00572  0.030437768  0.030500665            4 
 1860000   0.96628717   -6.8131878    677.76258  0.030365707  0.030493594            3 
 1861000    0.9638564   -6.7675296    682.11607  0.030544334   0.03048648            8 
 1862000   0.96700269   -6.8210177    679.34851  0.030404068  0.030479319            3 
 1863000   0.95811862   -6.8108249     679.1518   0.03037895  0.030472059            3 
 1864000    0.9598713   -6.8010321    679.27865  0.030368323  0.030464839            5 
 1865000   0.96043917   -6.8123038    681.13234  0.030434868   0.03045775            4 
 1866000   0.94924606   -6.8151826     679.4285  0.030342466  0.030450585            3 
 1867000    0.9181998   -6.8413364    680.56918  0.030377128  0.030443434            7 
 1868000   0.95580287   -6.8015882    681.21899  0.030389855   0.03043626            2 
 1869000   0.95285546   -6.8020638     682.1164  0.030413608  0.030429212            2 
 1870000   0.95983505   -6.8173962    680.35587  0.030318889  0.030422104            9 
 1871000   0.94362778    -6.840618    682.58571     0.030402   0.03041499           14 
 1872000   0.94346427    -6.804386    680.70029  0.030301829  0.030407806            7 
 1873000   0.94982974   -6.7905328    682.60733  0.030370499  0.030400653            4 
 1874000   0.94512234   -6.7972033    682.23945  0.030337933  0.030393529            8 
 1875000   0.96098198   -6.8084831    683.30476  0.030369101  0.030386304            4 
 1876000   0.93544374   -6.8231685    681.65362  0.030279567  0.030379005            6 
 1877000   0.95377587   -6.8102394    682.20231  0.030287796  0.030371753            5 
 1878000   0.95231437     -6.82307    681.61238  0.030245491  0.030364445            7 
 1879000   0.94714659   -6.8218709    681.54291  0.030226313  0.030357155            5 
 1880000    0.9640051   -6.8088668     682.0111  0.030230989  0.030349882            5 
 1881000   0.93256229   -6.8001652    683.39715  0.030276323   0.03034266            8 
 1882000   0.95729625   -6.8250865    682.97177    0.0302414  0.030335398            6 
 1883000   0.93974027   -6.8285574    683.20179  0.030235519  0.030328157            3 
 1884000   0.95174773   -6.8334524    681.90436  0.030162082  0.030320835            6 
 1885000   0.97371143   -6.7871129     686.1959  0.030335804  0.030313547            5 
 1886000   0.92904773   -6.7849872    685.97359  0.030309897  0.030306307            5 
 1887000   0.94994363   -6.8062654    686.03631  0.030296604  0.030299149            3 
 1888000   0.97114699   -6.8197594    684.54886  0.030214904  0.030291926            3 
 1889000   0.92218922   -6.8282248    683.46172  0.030150949  0.030284608            3 
 1890000   0.94579135   -6.8223016     683.1536  0.030121411  0.030277313            5 
 1891000    0.9395296   -6.8299966    683.40324  0.030116483  0.030269954            5 
 1892000   0.93137015   -6.8279243    683.48371   0.03010411  0.030262524            3 
 1893000   0.94129738    -6.826771    684.22917  0.030121024  0.030255125            5 
 1894000   0.95516673   -6.8152742    683.65026  0.030079649   0.03024769            5 
 1895000   0.94837726    -6.801443    685.38319  0.030139982  0.030240305           11 
 1896000   0.96300048   -6.8144535    685.00258  0.030107357  0.030232906            5 
 1897000   0.94667413   -6.7961371     684.7901  0.030082152  0.030225619           11 
 1898000   0.94985247   -6.7987416    684.92666  0.030072298  0.030218333            5 
 1899000   0.93894541   -6.8247404    683.72051  0.030003533  0.030210891            3 
 1900000   0.94866577   -6.8181529    685.26631   0.03005554  0.030203536            5 
 1901000   0.98167724   -6.8317417    684.76794  0.030017883  0.030196108            3 
 1902000   0.93238391   -6.8149369     685.3683  0.030028404   0.03018874            4 
 1903000   0.94151119   -6.7941206    686.95001  0.030081889  0.030181316            6 
 1904000   0.92994102    -6.813538    687.49887  0.030090111  0.030174034            4 
 1905000   0.95956943   -6.8157623    686.91833  0.030048921  0.030166672            5 
 1906000   0.92789235   -6.8315681    687.03305  0.030038171  0.030159337            3 
 1907000   0.95605425   -6.8321513    685.73738  0.029965801  0.030151927            5 
 1908000   0.94791972   -6.7975438     688.2281  0.030058879  0.030144513            4 
 1909000   0.95388379   -6.8177931    686.17157   0.02995336  0.030137075           13 
 1910000   0.93794789   -6.8182595    686.69235  0.029960399  0.030129604            5 
 1911000   0.96611787   -6.8025349    688.00245  0.030001851  0.030122154            8 
 1912000   0.93400599   -6.8120147    686.52273  0.029921667  0.030114741            7 
 1913000   0.93588039   -6.8047494    686.91045  0.029922915  0.030107229            4 
 1914000   0.93651632   -6.8259886    687.03087  0.029912525  0.030099768            2 
 1915000   0.95380688   -6.8337819    688.54365  0.029962735  0.030092297            5 
 1916000   0.93671595   -6.8444934    687.08394  0.029883609  0.030084786            8 
 1917000   0.93410037   -6.7944639    688.81134  0.029943111  0.030077457            4 
 1918000   0.95457932   -6.8406219     686.8625  0.029842827  0.030070076           17 
 1919000   0.98094522   -6.7819342    689.98807  0.029963005  0.030062833            3 
 1920000   0.95411136   -6.8105409    689.47068  0.029924943  0.030055475            5 
 1921000   0.92327432   -6.8168134    689.10136  0.029893344  0.030048171            5 
 1922000   0.95918256     -6.80919    691.08782  0.029963919  0.030040788            6 
 1923000   0.94078616   -6.8308799    690.54606   0.02992486   0.03003346            4 
 1924000   0.94387418    -6.821295    690.93328  0.029926078  0.030026129            6 
 1925000   0.93852871   -6.8191867    691.66484  0.029942201  0.030018842            7 
 1926000   0.93823322   -6.8166219    690.19471  0.029863045  0.030011571            9 
 1927000   0.94574759   -6.8257351    690.90099  0.029878091  0.030004255            5 
 1928000   0.94982982   -6.8702599    693.09727  0.029957524  0.029997001            2 
 1929000   0.92968611   -6.8165799    692.77677  0.029928148  0.029989763            3 
 1930000    0.9434606   -6.8140766    692.82153  0.029914574  0.029982612            8 
 1931000   0.93911413   -6.8463897    693.21119  0.029915898  0.029975451            2 
 1932000   0.92622039   -6.8184924    693.90824  0.029930479   0.02996823            5 
 1933000   0.95953833    -6.844388    691.21877   0.02979905  0.029960981            4 
 1934000   0.91989542   -6.8455376    692.81817  0.029852558  0.029953776            3 
 1935000   0.93687584   -6.7728154    694.67656  0.029917164  0.029946606            6 
 1936000   0.92186743   -6.8387579    694.75977  0.029905293  0.029939516            4 
 1937000   0.92722331   -6.8174342    695.24105   0.02991056  0.029932385            4 
 1938000   0.92335987   -6.8179845    696.33092   0.02994199  0.029925322            6 
 1939000   0.93959371   -6.8409568    695.87033  0.029906753  0.029918226            3 
 1940000   0.94995622    -6.853845    695.65231  0.029881972  0.029911135            3 
 1941000   0.92838166   -6.8341332    694.82875  0.029831219  0.029903956            8 
 1942000    0.9391358   -6.8254612    695.43045  0.029841678  0.029896843            3 
 1943000   0.93593212   -6.8596585     695.2763  0.029819707  0.029889711           10 
 1944000   0.93275951   -6.8622089    696.29396  0.029847992  0.029882578            3 
 1945000   0.94593993   -6.8337808    697.10434  0.029867367  0.029875449            6 
 1946000   0.95511799   -6.8388315    695.44682  0.029781039  0.029868365            6 
 1947000   0.94689362   -6.8546899    696.65179  0.029817317  0.029861279            3 
 1948000   0.93916614   -6.8404195    695.56751  0.029755626  0.029854148            4 
 1949000   0.92456556    -6.831542    695.86606  0.029753124  0.029846866            3 
 1950000    0.9433268   -6.8529155    697.96745  0.029827669  0.029839757            3 
 1951000   0.95240506   -6.8493477    696.20731    0.0297372  0.029832652            6 
 1952000   0.94438844   -6.7817621    697.84276  0.029791784  0.029825599            7 
 1953000   0.92922239   -6.8311213    696.95948  0.029738841  0.029818513            7 
 1954000   0.95554455   -6.8286288    698.55999  0.029791879  0.029811423            7 
 1955000    0.9382069   -6.8190321    698.13523  0.029758535  0.029804288            6 
 1956000   0.91317471    -6.827098    698.13328  0.029743238   0.02979717            7 
 1957000   0.93963969   -6.8176933    699.58463  0.029789841  0.029790048            3 
 1958000    0.9459745   -6.8496241    698.98947  0.029749296  0.029782935            3 
 1959000   0.95321856   -6.8335629    699.16048  0.029741385  0.029775821            3 
 1960000   0.91670932   -6.8320067    699.45685  0.029738812  0.029768676            7 
 1961000   0.93581268   -6.8595069    697.91362  0.029658067  0.029761476            3 
 1962000   0.93090235   -6.8437414    699.96639  0.029730139  0.029754319            5 
 1963000   0.93078496   -6.8229919    698.69493  0.029661017  0.029747227            4 
 1964000   0.92212306   -6.8418023    700.79627  0.029735076  0.029740085            6 
 1965000   0.94025588   -6.8452614    699.08126  0.029647212  0.029732993            7 
 1966000   0.91784733   -6.8220596    700.10164  0.029675383  0.029725825            5 
 1967000   0.92678008   -6.8373061    701.10414  0.029702768  0.029718766            5 
 1968000   0.92015205   -6.8685234    701.10315  0.029687633   0.02971169            4 
 1969000   0.92516196   -6.8490289    701.85862  0.029704529  0.029704563            7 
 1970000   0.94648937    -6.835161    701.51669  0.029674987  0.029697459            3 
 1971000    0.9370641   -6.8406478    700.63084  0.029622478  0.029690414            4 
 1972000   0.93964538   -6.8133384    702.68325  0.029694187  0.029683327            6 
 1973000   0.93954442   -6.8640539    700.48352  0.029586227  0.029676147            4 
 1974000    0.9306885   -6.8269411     701.1096   0.02959767  0.029668907            4 
 1975000    0.9457424   -6.8101735    702.53853  0.029642976  0.029661753            5 
 1976000   0.94089479   -6.8041776    702.38822  0.029621636  0.029654766            4 
 1977000   0.95107953   -6.8526224    703.40744  0.029649614  0.029647675            5 
 1978000    0.9597033   -6.8336847    704.25107  0.029670166  0.029640612            3 
 1979000   0.92493403     -6.85087    701.20591  0.029526946  0.029633514            8 
 1980000   0.93805154   -6.8383891      701.558  0.029526852  0.029626332            8 
 1981000   0.93560469   -6.8305235    702.70506  0.029560199  0.029619202            7 
 1982000   0.92546068   -6.8584954    701.96751  0.029514275  0.029612094            5 
 1983000   0.93904408    -6.841459     702.7229  0.029531136  0.029604937            4 
 1984000   0.92350729   -6.8075825    703.65113  0.029555239  0.029597761            5 
 1985000   0.91561978   -6.8229706    703.07097  0.029515994  0.029590599            8 
 1986000   0.94871622   -6.8307122    702.60851  0.029481727  0.029583347            3 
 1987000   0.95411047   -6.8677265    701.56943  0.029423311  0.029576065            7 
 1988000   0.94078275   -6.8243981    702.54579  0.029449438  0.029568782            6 
 1989000   0.95005877   -6.8310886    703.96598  0.029494133  0.029561638            4 
 1990000   0.94145348   -6.8682637    704.45075  0.029499612  0.029554423            4 
 1991000   0.92762875   -6.8294236    704.24873  0.029476341  0.029547199            5 
 1992000   0.94994345   -6.8958023    703.41964  0.029426859  0.029539948            6 
 1993000   0.94652456   -6.8334546    704.80313  0.029469942  0.029532711            8 
 1994000   0.94282328   -6.8265503    705.52793  0.029485453  0.029525522            3 
 1995000   0.93261377   -6.8659458    703.76962  0.029397227  0.029518421            7 
 1996000    0.9189137    -6.846973    706.80448  0.029509205  0.029511327            3 
 1997000   0.94815353   -6.8685531    706.36064  0.029475907  0.029504278            5 
 1998000   0.90840924   -6.8230698    706.56729  0.029469774  0.029497297            4 
 1999000   0.94608299   -6.8522247    706.73752  0.029462128  0.029490303           10 
 2000000   0.92067096   -6.8431828    707.31683  0.029471535  0.029483251            4 
 2001000   0.93716938   -6.8232389    706.94731  0.029441417  0.029476204            5 
 2002000   0.92139682    -6.818334    707.74419  0.029459881    0.0294691            3 
 2003000   0.94605577   -6.8540395    707.42336  0.029431825  0.029461888            4 
 2004000   0.90381234   -6.8512918    706.88687   0.02939483  0.029454681            9 
 2005000   0.92935684   -6.8173725    708.19386  0.029434491  0.029447487            3 
 2006000   0.94146563   -6.8522661    707.91657  0.029408299  0.029440306            4 
 2007000   0.94761509   -6.8747206    707.74529  0.029386534  0.029433141            5 
 2008000   0.95027924   -6.8637574    706.33259  0.029313272  0.029425901            4 
 2009000   0.91570684   -6.8734261    706.00732  0.029285188   0.02941863            5 
 2010000   0.91685242    -6.850437    707.68978  0.029340372  0.029411323            5 
 2011000   0.92264124   -6.8726028    709.60292  0.029405061  0.029404236            8 
 2012000   0.90819177   -6.8276683    707.33795  0.029296635  0.029397083            4 
 2013000   0.90832802   -6.8455544     709.1415  0.029356744  0.029390012            7 
 2014000   0.91580692   -6.8560075    707.66586   0.02928111  0.029382911            5 
 2015000   0.93452113   -6.8923073    709.11837  0.029326649  0.029375715            6 
 2016000   0.91539875    -6.805586    709.45042  0.029325828  0.029368523            5 
 2017000   0.94148914   -6.8328374    709.20289  0.029301062  0.029361352           14 
 2018000   0.91696611   -6.8489937    709.28071  0.029289755  0.029354239            5 
 2019000   0.90041503   -6.8521294    710.97655  0.029345243  0.029347076            2 
 2020000   0.92920937    -6.872831    710.70584  0.029319548  0.029339932            4 
 2021000   0.92373865   -6.8591464    711.45806  0.029336057  0.029332868            9 
 2022000   0.91984731    -6.894176    709.23352  0.029229868  0.029325833            3 
 2023000   0.94625324   -6.8418275    710.38184  0.029262722  0.029318738            6 
 2024000   0.94343615   -6.8750448     712.0106  0.029315325  0.029311706            4 
 2025000   0.94050373   -6.8151837    711.63513  0.029285396  0.029304688            7 
 2026000   0.93442409   -6.8169773    711.90395  0.029281999  0.029297618            9 
 2027000   0.92012858   -6.8232316    711.22319  0.029239565  0.029290559            6 
 2028000   0.93660027   -6.8508464    711.48314  0.029235829  0.029283499            5 
 2029000   0.90705543   -6.8568038    711.07785  0.029204775  0.029276361            6 
 2030000   0.91847237    -6.852754    712.32421  0.029241552  0.029269258            3 
 2031000   0.91237816   -6.8675445    712.05491  0.029216105  0.029262118            4 
 2032000   0.93400071   -6.8413791    711.26374  0.029169281  0.029255008            5 
 2033000   0.94041857   -6.8282564    715.47286  0.029327466  0.029247913            6 
 2034000   0.92677653   -6.8948724    713.26744  0.029222691  0.029240865            3 
 2035000   0.92290279   -6.8375927    713.76857  0.029228852  0.029233751           14 
 2036000   0.95247088   -6.8685779    713.21388  0.029191793  0.029226601            5 
 2037000   0.92311658    -6.867101    712.42165  0.029145052  0.029219436            4 
 2038000   0.93316314   -6.8700599    712.75266  0.029144286  0.029212298            5 
 2039000   0.90464635   -6.8419773    713.49442  0.029160308  0.029205093            4 
 2040000   0.90871516   -6.8267809    713.07084  0.029128711  0.029198036            6 
 2041000   0.95022964   -6.8325122    713.67285  0.029139019  0.029190966            4 
 2042000   0.92063132   -6.8566044    715.92515  0.029216665  0.029183859            3 
 2043000   0.92036615   -6.8731511    715.36368  0.029179461  0.029176771            3 
 2044000   0.93752756   -6.8780848     714.4024  0.029125995  0.029169601            3 
 2045000   0.93240416   -6.8979893     713.5977  0.029078961  0.029162474            7 
 2046000   0.91848168   -6.8803629    713.51173  0.029061247  0.029155377            5 
 2047000     0.911772   -6.8757826    714.99051  0.029107251   0.02914824            3 
 2048000   0.93994101   -6.8646124    714.11041  0.029057227  0.029141107            4 
 2049000    0.9218563   -6.8883697    711.39091  0.028932443  0.029134003           13 
 2050000   0.91524884   -6.8725916    716.12356  0.029110714  0.029126835            8 
 2051000   0.92092018   -6.8370506    716.68543  0.029119349  0.029119693            8 
 2052000   0.90511186   -6.8632012    716.62217   0.02910259   0.02911258            4 
 2053000    0.9164971   -6.8546955    715.56246    0.0290454  0.029105448            5 
 2054000   0.91046186   -6.8850812    715.17276  0.029015448  0.029098242            8 
 2055000   0.90111104   -6.8655939    717.03437   0.02907682  0.029091107           14 
 2056000   0.92101883   -6.8527327    717.51252  0.029082057  0.029084032            4 
 2057000   0.91474418   -6.8613124    717.90176  0.029083688  0.029076954            4 
 2058000   0.93140264   -6.8734237    717.23709  0.029042642  0.029069877            6 
 2059000   0.90614916   -6.8621439    716.80972   0.02901124  0.029062797            6 
 2060000   0.93416574   -6.8462075    716.60269  0.028988782  0.029055687            7 
 2061000    0.9239086   -6.8503689    719.54962  0.029093871  0.029048541            5 
 2062000   0.91305381   -6.8426589    718.61482  0.029041983  0.029041375            5 
 2063000   0.93579372   -6.8663416    718.98784  0.029042973  0.029034235            2 
 2064000   0.90471292   -6.8914542    716.76794  0.028939274  0.029027132            4 
 2065000   0.90665412   -6.8624002    718.61459  0.028999782  0.029020029            2 
 2066000   0.92320123   -6.8511597    719.01461   0.02900188  0.029012909            4 
 2067000   0.92238795   -6.8465314    718.80212  0.028979283  0.029005851           12 
 2068000   0.90889418   -6.8582045    719.33018  0.028986548  0.028998752            4 
 2069000   0.92873254    -6.835242    720.26145  0.029010047  0.028991635            3 
 2070000     0.921385   -6.8385827     720.0394  0.028987093  0.028984551            4 
 2071000   0.90566276   -6.8472654    721.11295  0.029016295  0.028977501            6 
 2072000    0.9266005   -6.8479658     720.4901   0.02897724  0.028970397            9 
 2073000   0.92067807   -6.8964636    719.08943  0.028906956  0.028963269            3 
 2074000   0.94489737   -6.8831837    719.29077  0.028901108  0.028956073            9 
 2075000   0.92237134   -6.8754173    721.21336  0.028964392  0.028948916            5 
 2076000   0.92353035   -6.8712072    721.10547  0.028946109   0.02894179            4 
 2077000   0.93733334   -6.8840382    719.83004     0.028881  0.028934697            5 
 2078000   0.92781403   -6.8837044     720.0402  0.028875529  0.028927507            4 
 2079000   0.91521479   -6.8652326      720.026  0.028861071  0.028920341            8 
 2080000   0.93644051   -6.8934946    720.55517  0.028868396  0.028913201            5 
 2081000   0.91505181   -6.8920039    720.33458   0.02884569  0.028906063            3 
 2082000   0.90672053   -6.8708015    720.97721  0.028857557  0.028898891            5 
 2083000   0.90966658   -6.8589613    722.50055  0.028904647   0.02889172            3 
 2084000   0.93322869   -6.8599722    723.07809  0.028913871  0.028884596            6 
 2085000   0.91529274   -6.8987593    721.22337  0.028825874  0.028877458            5 
 2086000   0.91464324   -6.8695008    721.50007  0.028823109  0.028870275            2 
 2087000    0.9203273   -6.8431852    724.27183  0.028919974  0.028863115            7 
 2088000   0.91285779   -6.8858767    722.28284  0.028826742  0.028856051            5 
 2089000   0.91710082   -6.8600551    724.21079  0.028889851  0.028849036            7 
 2090000   0.90631002   -6.8882093    721.42737  0.028765046  0.028841944            4 
 2091000   0.92947917   -6.8616891    722.40087  0.028790087  0.028834842            5 
 2092000   0.90549534   -6.8786279     720.2611  0.028691089  0.028827745            7 
 2093000   0.90288085   -6.8561031    723.24639  0.028796241  0.028820673            5 
 2094000   0.89030981   -6.8847568    723.80034  0.028804535  0.028813553            3 
 2095000   0.91347757   -6.8981605    723.01185  0.028759421  0.028806403            6 
 2096000   0.90372626   -6.8551419    724.20211  0.028793023  0.028799266            5 
 2097000   0.94029239   -6.8596216    723.59887   0.02875532   0.02879212            9 
 2098000   0.89378819   -6.9012717    722.77241  0.028708786  0.028784921            6 
 2099000   0.92274503   -6.8776488    724.07686  0.028746898  0.028777761            5 
 2100000   0.91720671   -6.9163189    721.95271  0.028648917  0.028770566            4 
 2101000   0.93994053   -6.8920534    724.47528  0.028735336  0.028763342            4 
 2102000   0.91720221   -6.8777103    723.17663   0.02867018  0.028756131           23 
 2103000   0.92022549   -6.8634201    725.02119   0.02872964  0.028748991            7 
 2104000    0.9127135   -6.8849332    723.72921  0.028664813  0.028741787           11 
 2105000   0.90155249   -6.8696043    723.35502  0.028636382  0.028734569            3 
 2106000   0.91648724   -6.8801155    723.89599  0.028644191  0.028727398            3 
 2107000   0.91168634   -6.8516103    726.93375  0.028750742  0.028720263            6 
 2108000   0.91101558   -6.8882534    726.22385  0.028709039  0.028713106            5 
 2109000   0.91818063   -6.9277215    726.05424  0.028688725  0.028705946            7 
 2110000   0.90600859   -6.8793325    726.08194  0.028676222  0.028698754            5 
 2111000   0.92276077   -6.8504208    726.24518  0.028669082  0.028691641            9 
 2112000    0.9212284   -6.8872727    727.96296  0.028723286  0.028684569            3 
 2113000   0.89534312   -6.8755063    726.74632   0.02866171  0.028677491            5 
 2114000   0.92309062   -6.8660182     728.0855  0.028700942  0.028670388            5 
 2115000   0.90972125   -6.9045251    724.11118  0.028530779   0.02866322            5 
 2116000   0.91060064   -6.8865571     726.2745  0.028602493  0.028656164            8 
 2117000   0.91721067   -6.8846459    728.84124  0.028690019  0.028649151            5 
 2118000     0.922097   -6.9215699    726.89892  0.028600052  0.028642158            4 
 2119000   0.91804619   -6.9007005    726.89797  0.028586518  0.028635067            4 
 2120000   0.91041116   -6.9025107     729.1447  0.028661348  0.028627971           11 
 2121000   0.92826663   -6.8727654    727.38823  0.028578824  0.028620878            4 
 2122000   0.92343038   -6.8909599    728.20717  0.028597517  0.028613786            3 
 2123000   0.91964425    -6.931697    728.05631  0.028578125   0.02860666            3 
 2124000   0.89836852   -6.8861477    727.94395  0.028560262  0.028599613            7 
 2125000   0.92501075    -6.878997    727.19717  0.028517536  0.028592514            6 
 2126000   0.91576946   -6.8884818    728.93309  0.028572166  0.028585452            7 
 2127000    0.9085041   -6.8669757    728.33697  0.028535377  0.028578391           10 
 2128000   0.89960232   -6.8786168    729.23719  0.028557221  0.028571255            3 
 2129000    0.9105639   -6.8839514     729.1138  0.028538978   0.02856421            4 
 2130000   0.90460675   -6.9148621     728.1251  0.028486897  0.028557062            5 
 2131000   0.91572925   -6.8940699    729.26505  0.028518108  0.028549891            4 
 2132000    0.9092473   -6.9035127    728.06764  0.028457928  0.028542686           12 
 2133000   0.90077315   -6.8676947    730.63573  0.028544918  0.028535483            8 
 2134000   0.91847606   -6.9116843    729.31277   0.02847988  0.028528286            7 
 2135000   0.89291762   -6.8868982     730.1249   0.02849824  0.028521147            8 
 2136000   0.90790446   -6.8760256    730.29004   0.02849134  0.028514031            5 
 2137000    0.9213278   -6.8974772    729.83878  0.028460411  0.028506944            8 
 2138000   0.89918089    -6.897695    728.99058  0.028414039  0.028499871           15 
 2139000    0.9341205   -6.9010079    730.77091  0.028470115  0.028492684            4 
 2140000   0.90038889   -6.8771461    730.84095  0.028459539  0.028485591            4 
 2141000   0.93273588   -6.8615281    732.67489  0.028517628  0.028478501            5 
 2142000   0.91013421   -6.8850801    730.70207  0.028427563  0.028471461            8 
 2143000   0.91069623   -6.9004637     731.4076  0.028441733  0.028464403            5 
 2144000    0.9081841   -6.8982511    730.92567  0.028409735  0.028457321            3 
 2145000   0.89943462   -6.9093695    731.11062  0.028403676  0.028450243            4 
 2146000   0.90980442   -6.8836699    731.18795  0.028393443  0.028443122            2 
 2147000   0.89702053   -6.8929533    732.63901   0.02843654  0.028436037            5 
 2148000   0.89921339   -6.8579833    732.61093  0.028422212  0.028429048            6 
 2149000   0.88955955   -6.9125883    734.02279  0.028463735  0.028422155            4 
 2150000   0.90931653   -6.8781036    734.56933   0.02847168  0.028415147            3 
 2151000   0.94330816   -6.8928893    733.38533  0.028412573  0.028408175            5 
 2152000   0.91251579   -6.8672521    732.09541   0.02834942  0.028401143            4 
 2153000    0.8853393   -6.9107227    735.40709  0.028464433  0.028394099            3 
 2154000   0.92444854   -6.9006885    734.38777  0.028411783  0.028387103            7 
 2155000   0.89823462   -6.8705257    735.90513  0.028457275  0.028380158            5 
 2156000   0.91695017   -6.8677801    735.46042  0.028426887  0.028373206            6 
 2157000   0.91978731   -6.8787337    736.23935  0.028443801  0.028366328            4 
 2158000   0.92803057   -6.8849109    736.32268  0.028433838  0.028359447            6 
 2159000   0.91787216   -6.9016941    735.04561  0.028371376  0.028352571            6 
 2160000   0.89606399   -6.8984136    737.98141  0.028471505   0.02834571            5 
 2161000   0.88801339   -6.8864517    736.18015  0.028388869  0.028338929            3 
 2162000   0.89468075   -6.9144069    735.63243  0.028354627  0.028332016            4 
 2163000   0.90282866   -6.8877682    736.09693  0.028359413  0.028325204            4 
 2164000   0.89813409   -6.9460988    734.48365  0.028284183  0.028318306            5 
 2165000   0.90596557    -6.879502    737.13994  0.028373362  0.028311446            5 
 2166000   0.91451738   -6.9010157    736.93272   0.02835229  0.028304613            5 
 2167000   0.90356273   -6.9353165    735.62818  0.028289039  0.028297749            5 
 2168000    0.8931048   -6.9333233     737.7978  0.028359386  0.028290822            5 
 2169000   0.90432863   -6.8554963    738.49853  0.028373234   0.02828395           13 
 2170000   0.90545048   -6.8971775    738.83415  0.028373047  0.028277102           13 
 2171000   0.89706339   -6.8938972    739.29601  0.028377706   0.02827029            3 
 2172000   0.89691937   -6.9395716    739.78707  0.028383482  0.028263469            5 
 2173000    0.9180461   -6.8852504    740.09118  0.028382082  0.028256633            3 
 2174000   0.90083819   -6.8815366    741.53937  0.028424539  0.028249839            4 
 2175000   0.91852793   -6.8824572    739.86082  0.028347158  0.028243066            5 
 2176000   0.90218983   -6.9383301    740.97812  0.028376919  0.028236231            7 
 2177000   0.90975444   -6.9291793    737.35696   0.02822527  0.028229352            6 
 2178000   0.91282902    -6.880804    739.51162  0.028294751  0.028222545            7 
 2179000   0.90679799   -6.8979942    738.83751  0.028255986  0.028215799            3 
 2180000   0.89278534   -6.9122025    740.14601  0.028293043  0.028209079            4 
 2181000   0.93497982   -6.8770096    742.04042  0.028352454  0.028202275            5 
 2182000   0.90056193   -6.9050032    741.50584  0.028319044  0.028195495            4 
 2183000   0.91091873     -6.91236    739.76647  0.028239673  0.028188742            6 
 2184000   0.89773593    -6.912791    739.84207  0.028229627  0.028181881            5 
 2185000   0.90243465   -6.9140778    741.51327  0.028280445  0.028175028            3 
 2186000   0.89105049   -6.9223398    740.79131  0.028239986   0.02816819            4 
 2187000   0.88445391   -6.9404471    740.22109  0.028205346   0.02816143            7 
 2188000   0.89574434   -6.8807506    742.57522  0.028282115  0.028154585            3 
 2189000   0.91240577   -6.9001579     741.8193  0.028240418  0.028147781            5 
 2190000   0.89329226   -6.9130006    740.86799  0.028191324  0.028140921            5 
 2191000   0.90319972   -6.8981645    742.25964  0.028231387  0.028134125            2 
 2192000   0.91123828   -6.8865724    742.35999  0.028222323  0.028127371            6 
 2193000   0.87599204   -6.9055339    740.54645   0.02814054  0.028120593           10 
 2194000   0.89447403   -6.9107177    742.23055   0.02819168  0.028113793            6 
 2195000   0.89218295   -6.9026463    742.43417  0.028186567  0.028106921            5 
 2196000    0.8917113   -6.9160441    741.47211  0.028137223  0.028100084            6 
 2197000   0.90446514   -6.9021542    741.35735  0.028120063  0.028093173            5 
 2198000   0.91021595   -6.8947765    741.97906  0.028130841  0.028086349            4 
 2199000   0.87915871   -6.9139853    741.37865  0.028095295  0.028079542            3 
 2200000   0.89306227   -6.9338469    742.65838  0.028130999   0.02807274            3 
 2201000   0.88414011   -6.9190227    743.49269  0.028149806  0.028065938            5 
 2202000   0.89636518   -6.9106676     743.8698  0.028151294   0.02805923            5 
 2203000   0.87712871   -6.8990821    744.87234  0.028176439  0.028052542            6 
 2204000   0.91715956   -6.8866861    744.86585  0.028163409  0.028045827            7 
 2205000   0.90719536   -6.8738076     747.6839  0.028257139  0.028039139            5 
 2206000   0.89192877   -6.8662158     746.1599   0.02818676  0.028032412            3 
 2207000   0.90003065   -6.9107297    744.07285  0.028095184  0.028025636            8 
 2208000   0.88438607   -6.9151135    744.75383  0.028108161  0.028018859            9 
 2209000   0.89589278   -6.9282156    745.45643  0.028121942  0.028012083            4 
 2210000   0.88769757   -6.9218561    745.92892  0.028127033  0.028005302            8 
 2211000   0.90096798   -6.8944099     743.9261  0.028038825   0.02799858            4 
 2212000   0.90034148   -6.9199302    745.61235  0.028089675  0.027991851           10 
 2213000   0.91421452   -6.8845447     745.2999  0.028065217  0.027985113            3 
 2214000   0.89764923   -6.8969706    744.70119  0.028030006  0.027978272            3 
 2215000   0.90469161   -6.9325131    745.91993  0.028063203  0.027971454            9 
 2216000   0.90157223   -6.9360815    743.86341  0.027973203  0.027964609            4 
 2217000   0.90159691    -6.913277    745.29508  0.028014399  0.027957812            2 
 2218000   0.89622947   -6.8829046    747.61819  0.028089051  0.027951071            8 
 2219000   0.85851418   -6.9080603     746.8948  0.028049227  0.027944276            5 
 2220000   0.87979773   -6.9243786    747.26441  0.028050466  0.027937453            4 
 2221000   0.91888126   -6.8770626    747.70431  0.028054341  0.027930664            4 
 2222000    0.8965464   -6.8847893    749.25315  0.028099803  0.027923941            3 
 2223000   0.90507292   -6.8912283    748.02339  0.028041063   0.02791724            2 
 2224000   0.89684128   -6.9279123     746.5779  0.027974292  0.027910505            7 
 2225000   0.89936129   -6.9016287    748.21298  0.028022958  0.027903798            8 
 2226000    0.8800485   -6.9355937    747.09423  0.027968487  0.027897092           10 
 2227000   0.87967234   -6.9253808     746.9685  0.027951224  0.027890347            9 
 2228000   0.89126297   -6.9055276    747.54572  0.027960268  0.027883538            4 
 2229000    0.8959679   -6.9641524    748.71101   0.02799129  0.027876646           11 
 2230000   0.90340179   -6.9377824    746.95511  0.027913121   0.02786973            4 
 2231000    0.9106045   -6.9154081    747.17382  0.027908779  0.027862871            9 
 2232000   0.89589911   -6.9401841    747.06177  0.027892091  0.027856034            9 
 2233000    0.8968944   -6.8908078    749.74923  0.027979894  0.027849245            7 
 2234000   0.88208611    -6.959906    749.17892  0.027946095  0.027842446            7 
 2235000   0.88686894   -6.9015393    748.11544  0.027893939  0.027835587            9 
 2236000   0.89033136   -6.9233343    747.74911  0.027867811    0.0278288            5 
 2237000   0.90944817   -6.9443421    746.81983  0.027820736  0.027821947            4 
 2238000   0.90249272   -6.9038927    747.32707  0.027827192  0.027815061            5 
 2239000   0.88122262   -6.8905455     750.6339   0.02793784  0.027808293            6 
 2240000   0.89978636   -6.8933706    748.92481  0.027861786  0.027801533            8 
 2241000   0.89647951   -6.9286685    749.68741  0.027877711  0.027794751           10 
 2242000    0.9052513   -6.9062368    748.73373  0.027829829  0.027787933            3 
 2243000    0.8823749   -6.9042822    749.97365  0.027863488  0.027781176            4 
 2244000   0.87748957   -6.9327494    748.26398  0.027787581  0.027774354            6 
 2245000   0.89921869   -6.9259871    753.94191  0.027985965  0.027767575            6 
 2246000   0.91622168   -6.9507699    749.65115  0.027814305   0.02776087            4 
 2247000   0.89818652   -6.9268205    750.77045  0.027843437  0.027754075            3 
 2248000   0.90297436   -6.9328638    749.48453  0.027783383  0.027747252            9 
 2249000   0.90619934    -6.931212    750.52808  0.027809696  0.027740468            8 
 2250000   0.87703374   -6.9277204    750.79807  0.027807336  0.027733744            4 
 2251000   0.88461707   -6.9472457    751.06673  0.027804929  0.027726986            4 
 2252000   0.85599057   -6.9134127    750.29157  0.027763898  0.027720153            3 
 2253000   0.88660495   -6.9366581    752.12257  0.027819299  0.027713382            5 
 2254000   0.90223448   -6.9496078    751.13377    0.0277704  0.027706662           13 
 2255000   0.89381873   -6.8972856    753.35337   0.02784011  0.027699918            3 
 2256000    0.8859305   -6.9561223    752.73267  0.027804842  0.027693243            8 
 2257000   0.89003834   -6.9137526    753.11481  0.027806632  0.027686551           10 
 2258000   0.87992028   -6.9264198    751.65145  0.027740311  0.027679839            4 
 2259000   0.87240902   -6.9198162    751.80742  0.027733784  0.027673127            8 
 2260000   0.91580023   -6.8970874    754.21672  0.027810351  0.027666486            4 
 2261000   0.88614549   -6.8913502    754.93157  0.027824398  0.027659827            7 
 2262000    0.9162146   -6.9127511    754.65562  0.027801931  0.027653206            8 
 2263000   0.89460144   -6.9227834    754.14302   0.02777077  0.027646527            4 
 2264000   0.88344755   -6.9444328    755.87944  0.027822418  0.027639863            9 
 2265000   0.88981941   -6.9280362    755.29779  0.027788734  0.027633263            5 
 2266000   0.89239567   -6.9303882    755.99972  0.027802284  0.027626562            2 
 2267000   0.88367236    -6.915737    755.39774  0.027767892  0.027619875            5 
 2268000   0.88755508   -6.9138944    758.38383  0.027865367  0.027613216            6 
 2269000   0.87275061    -6.940788    754.90449  0.027725301  0.027606569            5 
 2270000   0.89379343    -6.940473    754.07016  0.027682458  0.027599962            5 
 2271000   0.86772101   -6.9080876    756.32112  0.027752867  0.027593332            5 
 2272000   0.88250077   -6.9349923    756.54086  0.027748711  0.027586676            4 
 2273000   0.86982374   -6.9260935    755.45127  0.027696556  0.027579995            4 
 2274000   0.87811524   -6.9244038    756.26701   0.02771427  0.027573345            9 
 2275000   0.88476699    -6.919142    756.23708  0.027700992  0.027566665            3 
 2276000   0.88432407   -6.9051892    755.96806  0.027678971  0.027559992            7 
 2277000   0.89785885   -6.9308902    757.02682  0.027705564  0.027553377            3 
 2278000   0.91067297   -6.9382986    755.58445  0.027640637   0.02754668            5 
 2279000   0.88549583   -6.9398476    755.06722  0.027609595  0.027539958            4 
 2280000   0.89831805   -6.9430235    756.18422  0.027638312  0.027533258            4 
 2281000   0.89947621   -6.9620884    753.74624  0.027537127  0.027526464            4 
 2282000   0.90400715    -6.952497    756.39569  0.027621812  0.027519652            7 
 2283000   0.90255507   -6.9627725    755.14693  0.027564131  0.027512874            6 
 2284000   0.89903968   -6.9465627    755.74554  0.027573903  0.027506065            8 
 2285000   0.88483139   -6.9566931    754.97169  0.027533614  0.027499194           11 
 2286000   0.88215012    -6.926478    756.71121  0.027584981  0.027492348            6 
 2287000   0.88864412   -6.9307555     756.0646  0.027549359   0.02748552            4 
 2288000   0.88782322   -6.9644984    758.62243  0.027630479  0.027478701            5 
 2289000   0.88301789   -6.9278012    757.91001  0.027592471  0.027471862            4 
 2290000   0.87240587   -6.9466721    757.15803  0.027553058   0.02746504            6 
 2291000   0.89990266    -6.935298     756.5684  0.027519584  0.027458166            8 
 2292000   0.87992888   -6.9388332    755.64716  0.027474082  0.027451249            8 
 2293000   0.88060685   -6.9486469    755.81056  0.027468039  0.027444376            4 
 2294000    0.8778787   -6.9380832    755.29331  0.027437275  0.027437467            5 
 2295000   0.89269271    -6.916786    757.99419  0.027523391  0.027430684            9 
 2296000   0.88121083   -6.9464358    756.45995  0.027455718  0.027423817            6 
 2297000   0.89815658   -6.9628745    755.44289  0.027406867  0.027416981            8 
 2298000    0.8833917   -6.9275286    758.38724  0.027501713  0.027410069            6 
 2299000   0.89262489   -6.9574601    756.97808  0.027438672  0.027403231            3 
 2300000   0.86533094    -6.914886    758.15545    0.0274694  0.027396349            4 
 2301000   0.87624282   -6.9102355    758.27598  0.027461828  0.027389513            5 
 2302000    0.8841922   -6.9531434    757.62881   0.02742647  0.027382675            6 
 2303000   0.88338521   -6.9295305    757.73277  0.027418323  0.027375807           12 
 2304000    0.8687628   -6.9576249    756.71598  0.027369646  0.027368913            7 
 2305000   0.88401803   -6.9875573    758.81053  0.027433497   0.02736201            6 
 2306000   0.86534138   -6.9434657    756.22468  0.027328154  0.027355059            7 
 2307000   0.89649411   -6.9596336    759.34877  0.027429156  0.027348136            4 
 2308000   0.89305633   -6.9361844    758.06966  0.027371088  0.027341261            4 
 2309000   0.88040978   -6.9495123     757.9983  0.027356659  0.027334357            5 
 2310000   0.88502676   -6.9420155    756.96237  0.027307445  0.027327377            6 
 2311000   0.87874876   -6.9694476    758.00738  0.027333311  0.027320435            6 
 2312000   0.87544128   -6.9740112     756.6351  0.027272026  0.027313471            6 
 2313000   0.91869694   -6.9829955    757.23772  0.027281947  0.027306465            5 
 2314000   0.88109603   -6.9332428    760.74672  0.027396526  0.027299507            4 
 2315000   0.88042637   -6.9637384    758.95658  0.027320251  0.027292586            5 
 2316000   0.88762399   -6.9357133    757.78681  0.027266365   0.02728564            5 
 2317000   0.88169817   -6.9524427    760.16306  0.027340061  0.027278704            3 
 2318000   0.87649163   -6.9729477    759.84436  0.027316809  0.027271785            3 
 2319000   0.86012701   -6.9302783    758.74879   0.02726566   0.02726486            9 
 2320000    0.8768107   -6.9608077    759.67578  0.027287205   0.02725797            7 
 2321000   0.85881275   -6.9502281    758.50539  0.027233426  0.027251006            8 
 2322000   0.90195611   -6.9346797    758.99914  0.027239418   0.02724403            8 
 2323000   0.90309179   -6.9785606     758.3508  0.027204434  0.027237075            7 
 2324000   0.87401896   -6.9237062    759.68922  0.027240721  0.027230175            5 
 2325000   0.87864044   -6.9739719     759.9298  0.027237627  0.027223293            7 
 2326000   0.88129409   -6.9387156    762.77631  0.027327899  0.027216387            3 
 2327000   0.87398468   -6.9543979    759.83275  0.027210742  0.027209504            5 
 2328000   0.89409577    -6.929852    762.21579  0.027284357  0.027202603            5 
 2329000   0.88554247   -6.9282855    760.91737  0.027226183  0.027195697           12 
 2330000   0.87112606   -6.9396034    761.93071  0.027250741  0.027188825            4 
 2331000   0.87066888   -6.9612675    762.24517  0.027250292  0.027181931            4 
 2332000   0.87312458   -6.9728284    761.90609   0.02722649  0.027175002            9 
 2333000   0.87726042    -6.959761    760.30397  0.027157593   0.02716803            9 
 2334000   0.88724067   -6.9694661    759.42613  0.027114615  0.027161052            6 
 2335000   0.87497846   -6.9681549    760.23266  0.027131787  0.027153996            5 
 2336000   0.85792785   -6.9598337    761.14544  0.027152734   0.02714702            4 
 2337000   0.89157252   -6.9640363    761.26316  0.027145313  0.027140017            7 
 2338000   0.87604307   -6.9475686    762.40558  0.027174422  0.027132992            5 
 2339000    0.8661318   -6.9707928    760.30763  0.027088059  0.027125952            7 
 2340000   0.86159314    -6.946855    760.72507  0.027091349  0.027118905            7 
 2341000   0.87225487   -6.9517166    762.25704   0.02713431  0.027111894            7 
 2342000   0.87857882   -6.9800987    763.31752  0.027160458  0.027104888            5 
 2343000   0.86968697   -6.9813587    762.53659  0.027121091  0.027097885           16 
 2344000   0.86110888    -6.928231    761.52608  0.027073595  0.027090926            7 
 2345000   0.87142753   -6.9679661    763.09069  0.027117651  0.027083998            4 
 2346000   0.88515773   -6.9432289    763.85573  0.027133267  0.027077087            5 
 2347000   0.89836115   -6.9373328    763.63488  0.027113864  0.027070163            5 
 2348000   0.86226002   -6.9537667    764.34425  0.027127493   0.02706327            5 
 2349000   0.86836134   -6.9516757    762.87309  0.027063754  0.027056345            5 
 2350000   0.88278886   -6.9678259    764.23388  0.027100492  0.027049439            2 
 2351000   0.88070957   -6.9498335    764.18777   0.02708733  0.027042476            7 
 2352000   0.85981273   -6.9610473    764.27801  0.027079011  0.027035547            7 
 2353000   0.88325417   -6.9635288    763.37076  0.027035372  0.027028606            8 
 2354000   0.87386698   -6.9663625    765.12636  0.027086036  0.027021709            4 
 2355000   0.86211177   -6.9425475    766.71347  0.027130696  0.027014817           11 
 2356000   0.88101411   -6.9590069    764.53141     0.027042  0.027007943            5 
 2357000   0.86239747   -6.9626213    766.88814   0.02711385  0.027001003            3 
 2358000   0.85967551   -6.9723583    764.33055  0.027011965   0.02699413            5 
 2359000    0.8704986   -6.9860002    763.85754  0.026983805  0.026987156            8 
 2360000     0.879728   -6.9826203    764.66646  0.027000934  0.026980226           10 
 2361000   0.87406712   -6.9871308    764.38025  0.026979396  0.026973269            6 
 2362000   0.87300678   -7.0005214    763.72438  0.026944834  0.026966303            7 
 2363000   0.88040854   -6.9888388    765.13266  0.026983096  0.026959322            7 
 2364000   0.86915373   -6.9719562    765.23951  0.026975448  0.026952317            4 
 2365000   0.86478929   -6.9541448    764.01931  0.026921047  0.026945364           12 
 2366000   0.88890226   -6.9645907    764.85231  0.026939008  0.026938446            3 
 2367000   0.87071655   -6.9799334    765.17157  0.026938867  0.026931491           11 
 2368000    0.8770884   -6.9768875    763.44659  0.026866786  0.026924547            5 
 2369000   0.88155097   -7.0166161     765.5381  0.026929017  0.026917556            9 
 2370000   0.87288358   -6.9566163    767.90907  0.027001022  0.026910589            4 
 2371000   0.86746404    -6.959351    767.90536  0.026989504  0.026903722            5 
 2372000   0.87510049   -6.9643314    767.24489  0.026954922  0.026896851            5 
 2373000   0.88218452   -6.9416128     769.5154  0.027023297  0.026890019            6 
 2374000   0.86425248    -6.980794    765.32774  0.026864916   0.02688317            9 
 2375000   0.88262219   -6.9514069    767.22045  0.026920016  0.026876293           11 
 2376000   0.87758325    -6.948946    767.95455  0.026934433  0.026869435            4 
 2377000   0.84999351   -6.9578489     768.9073  0.026956503  0.026862502            8 
 2378000   0.87696256   -6.9953491    767.33526  0.026890078  0.026855571            7 
 2379000   0.85867229   -6.9847684    767.18074  0.026873362  0.026848631            5 
 2380000   0.85905121   -6.9774495    768.34994  0.026903009  0.026841676            4 
 2381000   0.89293125   -6.9553328    766.00987  0.026809809  0.026834721           10 
 2382000    0.8688046   -6.9827172    767.54097  0.026852119  0.026827797           11 
 2383000   0.86665314   -6.9475525    767.32159  0.026833179  0.026820826            4 
 2384000    0.8606175   -6.9776112    765.13796  0.026745594  0.026813847            7 
 2385000   0.87662549   -6.9284591    769.76836  0.026896169  0.026806966            4 
 2386000   0.87088899   -6.9958391    768.38707  0.026836654  0.026800057            6 
 2387000   0.86727522   -6.9674699    769.56742  0.026866618  0.026793166            5 
 2388000     0.869792   -6.9747231     770.0215  0.026871214  0.026786229            8 
 2389000    0.8627537   -6.9658208    767.66416  0.026777737  0.026779271            4 
 2390000    0.8648288   -6.9769632    770.16037   0.02685357   0.02677235            9 
 2391000   0.88787693    -6.958493    769.91693  0.026833854   0.02676544            3 
 2392000   0.85295833   -6.9383688    769.47328   0.02680718  0.026758564            3 
 2393000   0.87124295   -6.9556514     767.9973  0.026744578  0.026751661            7 
 2394000   0.87403115   -6.9876783    768.63297  0.026755534  0.026744697            5 
 2395000   0.85924738   -6.9755945    769.81534  0.026785502  0.026737705            7 
 2396000   0.88905171   -7.0147268    767.75931  0.026702814    0.0267307           14 
 2397000   0.84608371   -6.9829434    769.41694  0.026749303  0.026723755            5 
 2398000   0.89254028   -6.9770375    770.95051  0.026791441  0.026716832            6 
 2399000   0.85381117   -6.9954375    769.14178  0.026717444  0.026709922            5 
 2400000   0.84269553   -6.9687296    770.36384  0.026748745  0.026702983            4 
 2401000   0.86756208   -6.9944525    771.65235  0.026782325  0.026695988            6 
 2402000   0.88014857   -6.9982536    769.62499  0.026700839  0.026688994            4 
 2403000   0.88048338   -6.9578514    770.37468  0.026715726  0.026682016           12 
 2404000    0.8586271   -6.9844189    771.66049  0.026749185  0.026675045            6 
 2405000   0.86881152   -6.9698609    771.08882  0.026718254  0.026668128            6 
 2406000   0.87326862   -6.9627089     771.6436  0.026726365  0.026661195            7 
 2407000   0.85959104   -6.9949292    770.12178  0.026662574  0.026654249            5 
 2408000   0.85724078   -6.9934128    771.89626   0.02671291  0.026647316            4 
 2409000   0.86541727   -7.0008386    771.96238  0.026704109  0.026640417           11 
 2410000   0.85096027   -6.9390283    773.41278  0.026743181  0.026633523            5 
 2411000     0.878505   -6.9482203     773.0282  0.026718796  0.026626652            4 
 2412000   0.86210865   -6.9755788    772.46589  0.026688291  0.026619773            4 
 2413000   0.84894344   -6.9923683    773.59317  0.026716161  0.026612904           10 
 2414000    0.8569923   -6.9371861    775.12654  0.026758027  0.026606101            4 
 2415000   0.86479285   -6.9897956    769.98461  0.026569517  0.026599177            3 
 2416000   0.84946358   -6.9764998    771.69895  0.026617651  0.026592216            4 
 2417000   0.86385538   -6.9974833    772.62978  0.026638732  0.026585225            4 
 2418000   0.87392012   -7.0060836    771.68846  0.026595274  0.026578247            8 
 2419000   0.84195695   -7.0091893    771.95012  0.026593293   0.02657128            6 
 2420000   0.88053382   -6.9926663    772.44615  0.026599385  0.026564284            6 
 2421000   0.87159177   -6.9751254    772.90277  0.026604116  0.026557358            7 
 2422000    0.8681082   -6.9919268    771.56307  0.026547036  0.026550471            6 
 2423000   0.86650739   -6.9756828    774.09034     0.026623  0.026543573            4 
 2424000   0.86194958   -6.9799634    774.15038  0.026614081  0.026536733            6 
 2425000   0.86586106   -6.9712959     773.7283  0.026588601  0.026529961            3 
 2426000   0.86615347   -7.0052934    776.31101  0.026666358  0.026523245            8 
 2427000   0.86648386   -6.9796446     773.9384  0.026573905   0.02651641           12 
 2428000   0.86937588   -6.9803004    774.77337  0.026591618  0.026509593            6 
 2429000   0.85122999   -7.0148062    773.83048  0.026548322  0.026502765           14 
 2430000   0.85847074   -6.9733481    774.22285  0.026550852  0.026495947            4 
 2431000   0.87167548   -6.9831159    773.73389  0.026523169   0.02648917            6 
 2432000   0.88129523     -6.98207    774.30491  0.026531829  0.026482315            8 
 2433000    0.8612563   -6.9887879    776.06877  0.026581339  0.026475488            3 
 2434000    0.8566353   -6.9773637    775.62007  0.026555056  0.026468635            4 
 2435000   0.86853376    -6.998507    774.90485  0.026519673  0.026461798            3 
 2436000   0.86203012   -7.0095741    775.38039  0.026525055  0.026454963            5 
 2437000   0.85324207   -6.9884283    773.70899  0.026457016  0.026448055            7 
 2438000   0.87590178   -7.0011724     774.8938  0.026486663  0.026441153            7 
 2439000   0.87063618   -7.0083869    774.05973  0.026447305  0.026434254            7 
 2440000    0.8570213   -7.0053612     775.3155  0.026479355  0.026427305           13 
 2441000   0.84995766   -7.0057243    775.06291  0.026459884  0.026420353            7 
 2442000   0.87531736   -6.9789668    775.52557  0.026464836    0.0264134            6 
 2443000   0.86226967   -7.0405117    775.33872   0.02644763  0.026406408            4 
 2444000    0.8539051   -7.0415809    774.30694  0.026401628  0.026399429            5 
 2445000    0.8763144   -6.9861058    773.97739  0.026379598  0.026392441           13 
 2446000    0.8643577   -6.9970162    775.67094   0.02642651  0.026385472            6 
 2447000   0.87013047   -6.9893161    777.43289  0.026475715  0.026378533            2 
 2448000    0.8562149   -7.0193772    776.72419  0.026440774  0.026371633            4 
 2449000   0.86468881   -6.9807251    776.65818  0.026427732  0.026364775            4 
 2450000   0.86929769   -6.9658028    777.70257  0.026452468  0.026357888            7 
 2451000   0.84641928   -7.0028849    778.04818  0.026453426  0.026351004            4 
 2452000    0.8599086   -6.9711594    778.86256  0.026470315  0.026344102            6 
 2453000    0.8664065   -6.9751299    776.57122  0.026381683  0.026337259           11 
 2454000   0.87113329   -6.9621944     778.3529  0.026431435  0.026330403            6 
 2455000   0.86239612   -6.9639637    777.15973  0.026380167  0.026323588            7 
 2456000   0.86880876   -6.9819406    777.80216  0.026391224  0.026316812            8 
 2457000   0.87810154   -6.9982146    777.63881  0.026374943  0.026309975            6 
 2458000   0.88535132   -6.9710172    778.89044  0.026406646  0.026303123            5 
 2459000   0.84462304   -7.0013782    776.69444  0.026321487  0.026296256            6 
 2460000   0.85963374   -6.9868969    778.75025  0.026380428  0.026289385            6 
 2461000   0.85841572   -7.0112017    778.68806  0.026367603  0.026282498            5 
 2462000   0.85436942   -6.9931805     777.9307  0.026331259  0.026275652           13 
 2463000   0.84065433   -7.0178863    778.99288  0.026356506  0.026268766            6 
 2464000   0.85053536   -6.9934387    777.34201  0.026289976  0.026261889            6 
 2465000   0.85719844   -6.9921766    778.47998  0.026317782  0.026255021            6 
 2466000   0.84118218   -7.0008379    779.57913  0.026344253  0.026248195           16 
 2467000   0.88276754   -7.0045144    777.73296  0.026271212  0.026241336            5 
 2468000   0.86168862   -6.9977478     778.1295  0.026273957  0.026234498            3 
 2469000   0.85929999   -6.9820654    780.53169  0.026344394  0.026227702            4 
 2470000   0.85501937   -7.0171158    779.81374  0.026309505  0.026220882            6 
 2471000   0.86700114   -6.9927441    780.06547  0.026307348   0.02621407            6 
 2472000   0.84618159    -6.958882    781.33076  0.026339359  0.026207312            5 
 2473000   0.86029487   -7.0327162    779.37603   0.02626284    0.0262005            2 
 2474000   0.84767215   -7.0272496     779.8626  0.026268614  0.026193695            4 
 2475000   0.85277334   -7.0259138    780.55392  0.026281277  0.026186904            6 
 2476000   0.86313884   -6.9789838     780.9537  0.026284117  0.026180103            5 
 2477000   0.86879569   -7.0011872    779.64964  0.026229634  0.026173346            3 
 2478000   0.87190798   -7.0000707    780.98245   0.02626387  0.026166535            5 
 2479000   0.84434315    -7.035359    779.64502  0.026208317  0.026159671           16 
 2480000   0.84857511   -6.9965834    781.62567  0.026264303   0.02615285           10 
 2481000    0.8319719   -6.9896761    781.03012  0.026233714  0.026146098            9 
 2482000   0.86538847   -7.0245856    782.45509  0.026270987  0.026139333            2 
 2483000   0.88005939   -7.0019245     781.1936   0.02621807  0.026132541            6 
 2484000   0.85644411   -7.0043716    781.09606  0.026204242  0.026125781            4 
 2485000   0.85209529   -6.9811672    781.46441   0.02620605  0.026119015            5 
 2486000   0.85516053   -6.9957654    781.99108  0.026213163  0.026112328            7 
 2487000   0.83831915   -7.0147395    782.27826  0.026212246  0.026105555            6 
 2488000    0.8521783   -7.0130725    782.59318  0.026212258   0.02609875            5 
 2489000   0.83899914   -7.0047904    781.89034  0.026178195   0.02609197            3 
 2490000   0.84363609   -7.0221776    784.48032  0.026254361  0.026085189            9 
 2491000    0.8601411   -6.9859155    782.04262  0.026162271   0.02607844            6 
 2492000   0.85124226   -7.0080294    782.94452  0.026181933  0.026071737            5 
 2493000   0.84243774   -6.9874023    781.73768   0.02613109  0.026064995            4 
 2494000   0.86441121   -7.0169928    781.68532  0.026118862   0.02605828            7 
 2495000   0.83908215   -6.9938977     783.5365  0.026170224  0.026051577            3 
 2496000   0.84240762   -7.0256921    784.99733  0.026208511   0.02604492            9 
 2497000   0.83758723   -7.0075557    784.47955  0.026180735  0.026038204            7 
 2498000   0.86612969   -7.0005703    785.44394  0.026202427  0.026031507            5 
 2499000   0.84917475   -7.0112523    784.13078  0.026148152  0.026024766            7 
 2500000   0.85623886   -7.0048193     784.6076  0.026153587  0.026018038            8 
 2501000   0.83291464   -7.0352616    781.90858  0.026053198  0.026011303            6 
 2502000   0.84067958   -7.0184369    783.63743  0.026100367  0.026004556            4 
 2503000   0.83949126   -7.0430162    783.69902   0.02609199  0.025997796            8 
 2504000   0.85432043   -7.0230487     785.1616  0.026130245   0.02599103            9 
 2505000   0.85539672    -7.011793    785.98268  0.026147128  0.025984281            6 
 2506000   0.84556958   -7.0025371    783.89631  0.026067315  0.025977569            7 
 2507000   0.84472913   -7.0345744    785.98735  0.026126424  0.025970825            6 
 2508000   0.84657824   -7.0254741     782.9097  0.026013746  0.025964047           10 
 2509000   0.84182388   -6.9938216    785.01162  0.026073191  0.025957329            6 
 2510000   0.84452674   -7.0328988    783.66876  0.026018219  0.025950585            7 
 2511000   0.85792804   -7.0059486    786.88554  0.026114614  0.025943832            4 
 2512000   0.86035022   -7.0126764    786.19155  0.026081195  0.025937104            7 
 2513000   0.84753802    -7.036084    785.94427  0.026062617  0.025930418           10 
 2514000   0.83042332   -7.0367248    783.48676  0.025970789  0.025923695            3 
 2515000   0.85140046    -7.054289    783.99202  0.025977204  0.025916907            3 
 2516000   0.83668072   -7.0359857    786.94173  0.026064578  0.025910181            6 
 2517000   0.85652478   -7.0034609    788.24135   0.02609725  0.025903509            4 
 2518000    0.8552476   -7.0083921    787.07519  0.026048292  0.025896829            5 
 2519000   0.83913668   -7.0155734    787.54388  0.026053456   0.02589015            5 
 2520000   0.85062924   -7.0068112    786.80924  0.026018824  0.025883487            4 
 2521000    0.8719124   -7.0141712    787.25274  0.026023163  0.025876815            5 
 2522000   0.85259226    -7.013276    787.37708  0.026016954  0.025870103           10 
 2523000    0.8385019   -7.0198582    786.56562   0.02597984  0.025863357           15 
 2524000   0.84208199    -7.000268    788.65857  0.026038648  0.025856622           10 
 2525000   0.83010323   -7.0401349    786.87176  0.025969365  0.025849889            7 
 2526000   0.83826517   -7.0137134    787.91378  0.025993461  0.025843146            4 
 2527000   0.85219346   -7.0123977    789.03694  0.026020213  0.025836404            6 
 2528000   0.84461181   -7.0204475    787.25238  0.025951094  0.025829683           11 
 2529000   0.82793732   -7.0198057     785.9744  0.025898721   0.02582291            6 
 2530000   0.85874616   -7.0462471    786.00838  0.025889604  0.025816165            4 
 2531000   0.85833648   -7.0357237    789.13525  0.025982327  0.025809493            7 
 2532000   0.85503882   -7.0267744    787.64392  0.025922983  0.025802817            5 
 2533000   0.84980721   -7.0226465    790.61655  0.026010546  0.025796138            8 
 2534000   0.82884512   -7.0053678    789.96539  0.025978867  0.025789508           11 
 2535000    0.8608368   -7.0500368    788.62916  0.025924693  0.025782787            7 
 2536000   0.84841358   -7.0278029    788.42636  0.025907806  0.025776065            7 
 2537000   0.84550479   -7.0412391    787.98278  0.025883024  0.025769347           11 
 2538000   0.83694007   -7.0211908    788.10667  0.025876894  0.025762675            6 
 2539000   0.85882178   -7.0281428    786.84478  0.025825285  0.025755949            9 
 2540000   0.83794923   -7.0281869    789.40156  0.025899001  0.025749238            6 
 2541000   0.83890657   -7.0415188     788.2333  0.025850495   0.02574252            6 
 2542000   0.82605747   -7.0003283    787.81987  0.025826772  0.025735799           12 
 2543000   0.84484812   -7.0216799    788.59437  0.025841997   0.02572914            6 
 2544000   0.83808594   -7.0237363     790.6983  0.025900757  0.025722462            7 
 2545000   0.84918905   -7.0689961     787.8651  0.025797809  0.025715686           10 
 2546000   0.82581648   -7.0335329    788.98731  0.025824408  0.025708937            7 
 2547000   0.84634032   -6.9828966    791.19251  0.025886419  0.025702239            4 
 2548000   0.84674743   -6.9941755    791.05055  0.025871617  0.025695564           10 
 2549000    0.8565538   -7.0411787    788.87088  0.025790208  0.025688894           10 
 2550000   0.86052831   -7.0640528    789.15654  0.025789429  0.025682177            4 
 2551000   0.84412126   -7.0416046    789.56261  0.025792585  0.025675435            5 
 2552000    0.8557646   -7.0157677    790.41701  0.025810378   0.02566869            7 
 2553000   0.83866891   -7.0261587     788.5458  0.025739189  0.025661963            8 
 2554000   0.84292534   -7.0292637    788.04379  0.025712731  0.025655238            5 
 2555000   0.85705872   -7.0261364    790.94365  0.025797249  0.025648485           16 
 2556000   0.83285254   -7.0556963    790.85385  0.025784228  0.025641814           18 
 2557000    0.8315165   -7.0470211    791.21216  0.025785822  0.025635046            8 
 2558000   0.83847876   -7.0061941    790.30669  0.025746243  0.025628323            2 
 2559000    0.8408485   -7.0049427    789.52912  0.025710861  0.025621687            7 
 2560000   0.86184042   -7.0435089    792.32562   0.02579185  0.025615008            4 
 2561000    0.8384714   -7.0202921    789.51829   0.02569043  0.025608304           14 
 2562000   0.84896659   -7.0640763    788.80774  0.025657291   0.02560159           13 
 2563000   0.83764247   -7.0426938    790.84294  0.025713452  0.025594859            5 
 2564000   0.83234629   -7.0446655    792.31135  0.025751149  0.025588149            5 
 2565000   0.84619659   -7.0196274    792.41556  0.025744495  0.025581426           11 
 2566000   0.84789727   -7.0344643    792.70224  0.025743772  0.025574771            5 
 2567000   0.85811375   -7.0526812    790.55002  0.025663876  0.025568091            9 
 2568000   0.84096173   -7.0519412    791.73887  0.025692461  0.025561414           19 
 2569000   0.82310628   -7.0217506    794.51956   0.02577266  0.025554742            7 
 2570000   0.83874178   -7.0138762    792.09038  0.025683864  0.025548076            5 
 2571000   0.83989144   -7.0435056    791.21729  0.025645575  0.025541418            4 
 2572000   0.84485731   -7.0513087     791.5174  0.025645328  0.025534689           22 
 2573000   0.86506506   -7.0200135     790.3609  0.025597904  0.025527909            4 
 2574000   0.84084769   -7.0458828    792.27302  0.025649865  0.025521183            5 
 2575000   0.85840678   -7.0365074    793.46492  0.025678476  0.025514527            7 
 2576000   0.82443744   -7.0620665    793.76894  0.025678343  0.025507827           10 
 2577000   0.85556902   -7.0461028    792.18806  0.025617257  0.025501082            8 
 2578000   0.84990774    -7.043122    791.63764  0.025589528  0.025494363           11 
 2579000   0.81790382   -7.0471727    791.09096  0.025561941  0.025487624           13 
 2580000   0.83732306   -7.0003256    795.59975  0.025697666  0.025480955            7 
 2581000   0.82431713   -7.0116067    793.71721  0.025626928  0.025474312            8 
 2582000   0.85666533   -7.0392135    795.53745  0.025675751  0.025467668            6 
 2583000      0.85708   -7.0247054    794.71314  0.025639216  0.025461049            6 
 2584000    0.8438438   -7.0089941    794.53192  0.025623449  0.025454426            6 
 2585000    0.8460356   -7.0246613    795.82001  0.025655062  0.025447832            3 
 2586000   0.84528307    -7.026503    794.92966   0.02561645   0.02544125            7 
 2587000   0.81432552   -7.0351548    793.49376  0.025560294  0.025434631            7 
 2588000   0.84362097   -7.0475128    793.76445  0.025559134   0.02542804            5 
 2589000   0.81902194   -7.0296174     793.6538    0.0255457  0.025421416            5 
 2590000   0.86064287   -7.0528815    793.91179  0.025544137  0.025414826            6 
 2591000   0.83854307   -7.0384685    795.97582  0.025600663   0.02540816            6 
 2592000   0.83637578   -7.0313831    795.65241  0.025580389  0.025401531            7 
 2593000   0.86156041   -7.0301228    794.93787   0.02554756  0.025394918           11 
 2594000   0.86354953   -7.0652135    794.12123  0.025511476  0.025388287            5 
 2595000   0.85574663    -7.045541      795.715  0.025552826  0.025381648            8 
 2596000   0.84950303   -7.0657107    795.64516  0.025540741  0.025375021           11 
 2597000   0.84614534   -7.0375891    795.66383  0.025531505  0.025368421           24 
 2598000    0.8432059   -7.0440845    795.50516  0.025516589  0.025361809           16 
 2599000   0.85307124   -7.0647995    795.24285   0.02549836  0.025355175            6 
 2600000   0.83504476   -7.0611466    794.84236  0.025475717  0.025348544            3 
 2601000   0.82134924   -7.0485655     795.3226  0.025481308  0.025341883           16 
 2602000   0.84870893   -7.0386376    796.24295  0.025500991  0.025335276            6 
 2603000   0.85532062   -7.0795496    794.99574  0.025451266  0.025328613           12 
 2604000   0.83715281   -7.0213479    796.92941  0.025503373  0.025321978            5 
 2605000   0.84209906   -7.0580722    798.02717    0.0255287  0.025315347            5 
 2606000   0.84113207   -7.0476645     796.5005  0.025470085  0.025308765           10 
 2607000   0.83241518   -7.0360582    797.32779   0.02548676  0.025302211            9 
 2608000   0.82661778   -7.0606287    800.03916  0.025563623  0.025295704            3 
 2609000   0.83535768    -7.039271    797.38019  0.025468896  0.025289203           17 
 2610000    0.8461764   -7.0623377    800.10128  0.025546018  0.025282698            3 
 2611000   0.82332625   -7.0501152     798.3956  0.025481795  0.025276169            3 
 2612000   0.82526285   -7.0490502    798.58779  0.025478171  0.025269607           10 
 2613000   0.83343762   -7.0475201    798.04157  0.025451001  0.025263047            9 
 2614000   0.83247471   -7.0807783    798.39591   0.02545256  0.025256465           11 
 2615000   0.83673566   -7.0335473    799.23475  0.025469559  0.025249919            4 
 2616000   0.85469966   -7.0408774    799.09022  0.025455218  0.025243391            8 
 2617000   0.83220287   -7.0929928      797.122  0.025382817  0.025236848           13 
 2618000    0.8253398   -7.0748387    797.06817  0.025371409  0.025230233           25 
 2619000   0.84464765   -7.0608651    799.74729  0.025446967   0.02522366           11 
 2620000   0.83326573   -7.0654718    799.75498  0.025437499  0.025217097           17 
 2621000   0.82997536   -7.0777529    799.13698  0.025408145  0.025210544           11 
 2622000   0.81973225   -7.0572123    798.21232  0.025369067  0.025203993            8 
 2623000   0.82520403   -7.0619818    799.37231  0.025396248   0.02519748            6 
 2624000   0.83754593   -7.0434363      799.642  0.025395135   0.02519093            6 
 2625000   0.82813553   -7.0400901    799.84871  0.025392023  0.025184402           10 
 2626000    0.8126346   -7.0643497    800.43252   0.02540088   0.02517789            6 
 2627000   0.85078879   -7.0618444    799.04278  0.025347125  0.025171368            7 
 2628000   0.81650032   -7.0506094    800.31104  0.025377697  0.025164853            5 
 2629000   0.83752426    -7.058897    800.30352  0.025367805  0.025158288            7 
 2630000   0.81863363   -7.0568812    799.84169  0.025343526  0.025151751            5 
 2631000   0.84025919   -7.0633516    802.09358  0.025405219  0.025145241            5 
 2632000   0.83407208   -7.0670564    799.40174  0.025310339  0.025138715            6 
 2633000   0.82668676   -7.0499959    800.69027  0.025341507  0.025132194            7 
 2634000   0.82009309   -7.0558676    799.21979  0.025285364  0.025125653            7 
 2635000   0.81488309   -7.0485986    801.31564  0.025342051  0.025119105            6 
 2636000   0.84415436    -7.001944    804.32955  0.025427717  0.025112627            8 
 2637000   0.81612002   -7.0367987    800.74489  0.025304794  0.025106149            7 
 2638000   0.83155076   -7.0362694    802.07356  0.025337173  0.025099661            9 
 2639000   0.85119435   -7.0179725    801.82548  0.025319738  0.025093172            5 
 2640000   0.82962847   -7.0477524    801.76198  0.025308143  0.025086724            5 
 2641000   0.85185461   -7.0593742    802.56399  0.025323867   0.02508026            5 
 2642000   0.83210832   -7.0535952    803.05988  0.025329923  0.025073849            3 
 2643000   0.83644376   -7.0529916    801.39498  0.025267845  0.025067436            9 
 2644000   0.83069355   -7.0654469    802.52312  0.025293845  0.025061009            6 
 2645000    0.8113191   -7.0236007    802.90616   0.02529635  0.025054585            7 
 2646000   0.83687628     -7.05146    801.77829  0.025251269  0.025048141            7 
 2647000   0.81056413    -7.041217    801.39065  0.025229526  0.025041683            5 
 2648000   0.83457178   -7.0624466    805.13314  0.025337775  0.025035274            3 
 2649000   0.82796643   -7.0516901    804.68762  0.025314195  0.025028815            7 
 2650000   0.84466189   -7.0498562    804.39715  0.025295508  0.025022369            9 
 2651000   0.84703446   -7.0405918    802.25737  0.025218703  0.025015966           10 
 2652000   0.84189592   -7.0472337    803.51104  0.025248587  0.025009546            5 
 2653000   0.82796246   -7.0516388    804.16068  0.025259476  0.025003106            4 
 2654000   0.82079926   -7.0764525    803.63288  0.025233386  0.024996684           10 
 2655000   0.81282482    -7.080943    803.13924  0.025208388  0.024990227            8 
 2656000   0.83444681   -7.0738401    803.16703  0.025199769  0.024983775            3 
 2657000   0.80522345   -7.0553432    803.23501  0.025192417  0.024977347            4 
 2658000   0.83445735   -7.0684886     802.6295  0.025163955  0.024970877           10 
 2659000   0.83143245    -7.031646     804.3229  0.025207562  0.024964377            6 
 2660000   0.84534795    -7.070415    804.56167  0.025205566  0.024957863            5 
 2661000   0.80266998   -7.0747116    804.31274  0.025188298  0.024951415           12 
 2662000    0.7966396   -7.0499025    805.75676  0.025224041  0.024944939            8 
 2663000   0.83362739   -7.0599251    803.59729  0.025146993  0.024938492            8 
 2664000   0.81185944   -7.0519376    804.35008  0.025161101  0.024932019            5 
 2665000   0.81802832   -7.0739394    803.67017  0.025130399  0.024925523            9 
 2666000   0.84164359   -7.0735106     805.1701  0.025167858   0.02491904            4 
 2667000   0.82118532   -7.0747697    803.67083  0.025111574  0.024912539            4 
 2668000   0.82109551   -7.0522061    805.36513  0.025155083  0.024906104           12 
 2669000   0.82254208   -7.0897352    804.76419  0.025126895  0.024899667            8 
 2670000   0.81472903    -7.068846    805.21392  0.025131521   0.02489324           17 
 2671000   0.83132646   -7.0591325    805.56116  0.025132945   0.02488685            4 
 2672000   0.83151041    -7.065632    804.55282  0.025092091  0.024880408            4 
 2673000   0.83520187   -7.0745189    804.49344  0.025080853  0.024873922            9 
 2674000   0.82531764   -7.0765562    805.87071  0.025114395  0.024867445            9 
 2675000   0.80101152   -7.0450006    803.95981  0.025045477  0.024860946            6 
 2676000   0.80892695    -7.076045    804.93542  0.025066499  0.024854442            5 
 2677000   0.82596692   -7.0571913    805.04744  0.025060623  0.024847949           16 
 2678000   0.83835233   -7.0677371    806.50105  0.025096498  0.024841488            6 
 2679000   0.81632783   -7.0665073    807.43636  0.025116224  0.024835075            3 
 2680000   0.80007285   -7.0656476    806.70843  0.025084217  0.024828621            4 
 2681000   0.82818806   -7.0499993     807.2678  0.025092248  0.024822189            7 
 2682000   0.81552618   -7.0514537    805.65763  0.025032862  0.024815719            5 
 2683000   0.81962709   -7.0585638     804.6337  0.024991729  0.024809253            9 
 2684000   0.82663698   -7.0800389    805.96755  0.025023831   0.02480279            7 
 2685000   0.83084252   -7.0893577    807.24397  0.025054127   0.02479634            6 
 2686000   0.81829468   -7.0383277    807.57604  0.025055102  0.024789896            6 
 2687000   0.82183817   -7.0479982    807.16858   0.02503314  0.024783492            4 
 2688000   0.82871901   -7.0511644    808.76476  0.025073312  0.024777092            9 
 2689000   0.80222774   -7.0810664    806.24494  0.024985898  0.024770666            8 
 2690000   0.82079931   -7.0531738    806.31444  0.024978762  0.024764224           19 
 2691000   0.82107177   -7.0615613    806.79003  0.024984207  0.024757793            2 
 2692000   0.83763337   -7.0918116    806.79516  0.024975085  0.024751337            6 
 2693000   0.83081681   -7.0764238    806.14821  0.024945792  0.024744865            8 
 2694000   0.82672605   -7.0856366    807.61308  0.024981845  0.024738413            6 
 2695000   0.84230724   -7.0948928    805.86293  0.024918458  0.024731929            7 
 2696000     0.814706   -7.0772051    807.20934  0.024950833  0.024725483           22 
 2697000   0.82067205   -7.0730164     809.7028  0.025018625  0.024719054            8 
 2698000   0.85288177   -7.1090672    807.87671   0.02495295  0.024712638           13 
 2699000   0.80637233   -7.1014031    804.93148  0.024852769  0.024706179            7 
 2700000   0.81505974   -7.0656422    808.42689  0.024951447  0.024699746            7 
 2701000   0.81434223   -7.0837639    808.33401  0.024939344   0.02469331            6 
 2702000   0.82092806   -7.0683772    808.76026   0.02494326  0.024686936            7 
 2703000   0.81635113   -7.0508146    808.42178  0.024923597  0.024680527            8 
 2704000   0.80957481   -7.0684363    807.08713  0.024873247  0.024674036            8 
 2705000   0.82406029     -7.09276    808.56798  0.024909673  0.024667576            8 
 2706000   0.82917971   -7.0599478     805.7847  0.024814754  0.024661121            6 
 2707000    0.8240144   -7.0828266    807.43478  0.024856384  0.024654665           12 
 2708000   0.82636405   -7.0789978    809.55453  0.024912436  0.024648174            7 
 2709000   0.81206516   -7.0822105    805.80048  0.024787759  0.024641684            6 
 2710000   0.81880467   -7.0685856    808.65102  0.024866268  0.024635222            5 
 2711000   0.80851507   -7.0555524    810.26795  0.024906798  0.024628778            4 
 2712000   0.80713793   -7.0997077     808.8737  0.024854772  0.024622314            3 
 2713000   0.81396514   -7.0624824    809.59457  0.024867753  0.024615825            8 
 2714000   0.82859644   -7.0504946     808.6843  0.024830641  0.024609429            3 
 2715000   0.83210334   -7.0889176    811.44181  0.024906133  0.024603009            8 
 2716000   0.81791299   -7.0695029    809.57372  0.024839645  0.024596589            6 
 2717000   0.82158127   -7.0885178    808.34141  0.024792707  0.024590147            7 
 2718000   0.82106143   -7.0780802    809.93498  0.024832443  0.024583726            5 
 2719000   0.82096231   -7.0806939    809.18151  0.024800218  0.024577295            8 
 2720000   0.81552473   -7.0715894    808.76778  0.024778425  0.024570914            2 
 2721000   0.82308981   -7.0583046    810.10908  0.024810397  0.024564503            5 
 2722000   0.82250353   -7.1114826    807.06908  0.024708213  0.024558049            5 
 2723000   0.80037289   -7.1198755    808.41017  0.024740182  0.024551627            6 
 2724000    0.8243057   -7.0818426    812.67935  0.024861703  0.024545198            7 
 2725000   0.83803749   -7.0938841    809.65113  0.024759973  0.024538744            5 
 2726000   0.82033161   -7.0899803      809.711  0.024752721  0.024532308            6 
 2727000   0.82819702   -7.0592478    809.00821  0.024722167  0.024525879           10 
 2728000   0.81549519   -7.0652481    808.53512  0.024698653  0.024519432            6 
 2729000   0.82307776   -7.0697191    810.71993  0.024756319  0.024513007            5 
 2730000   0.80091677   -7.0882398    809.00592   0.02469493  0.024506516            8 
 2731000   0.82741997   -7.0607923    808.11884   0.02465882  0.024500046            5 
 2732000   0.80824278   -7.0673092    811.89552  0.024764993  0.024493589           12 
 2733000   0.83021871    -7.072932    810.88856  0.024725227  0.024487135            5 
 2734000   0.81381664   -7.0923181    811.34164  0.024729994   0.02448072            7 
 2735000   0.83040973   -7.0721488     812.8397  0.024766597  0.024474287            4 
 2736000   0.82244885   -7.1155439    810.65158  0.024690898  0.024467863            4 
 2737000   0.81297988   -7.0891718    812.77481  0.024746523  0.024461434            4 
 2738000   0.82495361   -7.1051918    812.00629  0.024714094  0.024455008            4 
 2739000   0.80504826   -7.1004482    812.11692  0.024708438  0.024448594            5 
 2740000   0.80102823   -7.0979971    809.96502  0.024633973  0.024442173            7 
 2741000   0.82672019   -7.1019647    812.65049  0.024706631  0.024435745            8 
 2742000   0.82341519   -7.1333575    810.17253  0.024622311  0.024429302           10 
 2743000   0.83130406   -7.0885033    810.58954  0.024626004  0.024422866            7 
 2744000   0.80848254    -7.096247    812.39212  0.024671772  0.024416443            8 
 2745000   0.81951239   -7.0835461    810.78339  0.024613946  0.024410038            8 
 2746000   0.82914275   -7.0819405    811.65056  0.024631299  0.024403643            9 
 2747000     0.806004   -7.0840267    813.69044  0.024684214  0.024397251            7 
 2748000   0.80490329   -7.0791224    812.52492  0.024639887  0.024390878            5 
 2749000   0.80903058   -7.0925769    812.67888  0.024635591  0.024384511            8 
 2750000   0.80488385   -7.0916727    812.12531  0.024609858  0.024378116            6 
 2751000   0.81659634   -7.0989685    811.82554  0.024591831  0.024371733            3 
 2752000   0.79910531   -7.1097397    811.81544   0.02458259  0.024365325            8 
 2753000   0.80281835   -7.1383205    812.91378  0.024606907  0.024358887           13 
 2754000   0.80348554   -7.0902553    813.44803  0.024614138   0.02435248            8 
 2755000   0.80722891    -7.121928     814.3833  0.024633494  0.024346085           10 
 2756000   0.80201128   -7.1305704     814.0656  0.024614949  0.024339645            4 
 2757000   0.79329846   -7.0899545    812.47814  0.024558038  0.024333273            8 
 2758000   0.82213173   -7.0984377    812.19193  0.024540486  0.024326872            2 
 2759000   0.82226182   -7.1005589     816.2339  0.024653676  0.024320496           10 
 2760000   0.80853708   -7.0900996    813.07645   0.02454941  0.024314126            8 
 2761000   0.81572603   -7.0799527    813.94047  0.024566596  0.024307733            5 
 2762000   0.82102365   -7.0795826    814.82115  0.024584273  0.024301366            7 
 2763000   0.80667193   -7.0530416    815.23125  0.024587744  0.024295027            7 
 2764000   0.80748281   -7.0737731    813.69066  0.024532401   0.02428861            4 
 2765000   0.80990846      -7.0986    813.41763  0.024515299  0.024282204            6 
 2766000   0.79864117   -7.0881997    812.54466  0.024480136  0.024275818            6 
 2767000   0.82192404   -7.1150709    815.51396  0.024560714  0.024269426            7 
 2768000   0.82245366   -7.1103931    813.95636  0.024504948  0.024263044            5 
 2769000   0.81673635    -7.116178    814.95449  0.024526137  0.024256638            8 
 2770000   0.80738417   -7.1118537    812.88784  0.024455109  0.024250225           11 
 2771000   0.82376173   -7.1371059    813.44028  0.024462898  0.024243786            6 
 2772000    0.8177244    -7.102604    815.31517  0.024510437  0.024237376            8 
 2773000   0.79067486   -7.1023698    814.51544  0.024477565  0.024230973            5 
 2774000   0.79257401   -7.1006696      814.589  0.024470951  0.024224589            4 
 2775000   0.80414527   -7.0929918    816.03085  0.024505431  0.024218175            6 
 2776000   0.80748784   -7.1005743    815.07034   0.02446777  0.024211752            7 
 2777000    0.8207831   -7.1234975    812.51702  0.024382338  0.024205306            3 
 2778000   0.79967863   -7.1131853    813.57368  0.024405258  0.024198819            5 
 2779000   0.81203831   -7.1295767    814.58875  0.024426915  0.024192362           14 
 2780000   0.79978621    -7.131459    815.20078  0.024436474  0.024185923            7 
 2781000   0.81408088   -7.0988005    816.20089  0.024457656  0.024179511            9 
 2782000   0.79923681   -7.1077295    813.72354  0.024374657  0.024173112           11 
 2783000   0.80083421    -7.072039    816.85369  0.024459627  0.024166704           12 
 2784000   0.81646514   -7.1216998    816.08036  0.024427693    0.0241603            5 
 2785000   0.80628487   -7.0762856    814.56443  0.024373562  0.024153926           12 
 2786000   0.82129547   -7.0650757    815.30667  0.024387015  0.024147571           17 
 2787000   0.81238239   -7.0834618    816.35332   0.02440956  0.024141199            9 
 2788000   0.81268635   -7.0661493    816.82975  0.024415045  0.024134883            9 
 2789000   0.81216124   -7.0886062    817.15394  0.024415978  0.024128584            5 
 2790000   0.80021146   -7.0903938    818.07099  0.024434617  0.024122298            5 
 2791000   0.80491666    -7.090611    818.95967  0.024452397  0.024116003            5 
 2792000   0.78304433   -7.0905454    816.88436  0.024381697  0.024109707            7 
 2793000    0.8034787   -7.1116697    817.34443  0.024386694  0.024103389            5 
 2794000   0.80061024   -7.1368791     817.1754  0.024372924  0.024097034            6 
 2795000   0.81190052   -7.0972054    817.34719  0.024369326  0.024090703            6 
 2796000   0.79183415   -7.1414658    817.40768  0.024362413  0.024084421            7 
 2797000   0.82341869   -7.1107694    819.66375   0.02442092  0.024078127            7 
 2798000     0.801479   -7.0854658    818.94946  0.024390918  0.024071824            5 
 2799000   0.81125276   -7.1267795     816.9051  0.024321338  0.024065551            6 
 2800000   0.80623824    -7.117939    816.88264  0.024311983  0.024059234           14 
 2801000   0.80405984   -7.1218256    817.50407  0.024321792  0.024052933           12 
 2802000   0.80514107   -7.1026158    819.07957  0.024359968  0.024046623            6 
 2803000   0.80965502   -7.0932308    819.77513  0.024371956  0.024040346           10 
 2804000     0.813272   -7.0984625      819.196  0.024346053  0.024034085            9 
 2805000   0.79197616   -7.1268066    817.47191  0.024286153   0.02402782            9 
 2806000   0.80592217   -7.1212389    820.11775  0.024356075  0.024021521           17 
 2807000   0.79343929    -7.140616    818.39646  0.024296297  0.024015268            8 
 2808000   0.78232817   -7.1064816    819.82595  0.024330067   0.02400896            7 
 2809000   0.80721805   -7.1031729    817.91268  0.024264646  0.024002674            4 
 2810000   0.80457175   -7.1051528    820.88098  0.024344038  0.023996414            4 
 2811000   0.80284006   -7.0966985    819.28336  0.024288016  0.023990139            5 
 2812000   0.78998835   -7.0835017    818.99961   0.02427097  0.023983836            4 
 2813000   0.78784038   -7.1101335    820.38337  0.024303335  0.023977583           10 
 2814000   0.80498718   -7.1178838    818.37501  0.024235223  0.023971312            6 
 2815000   0.80676937   -7.1132454     819.1295  0.024248949  0.023965035            5 
 2816000   0.81982235   -7.0995188     821.1316  0.024299586  0.023958753            6 
 2817000   0.80652169   -7.0731628    820.45148   0.02427084  0.023952505            8 
 2818000   0.79811345   -7.1254928    818.37082  0.024200699  0.023946218            9 
 2819000    0.7984174   -7.0908536    821.19138  0.024275493  0.023939891            7 
 2820000   0.79870309   -7.1103167    817.94987  0.024171095  0.023933584            6 
 2821000   0.82074755   -7.1070241    819.31815  0.024202947  0.023927309            4 
 2822000    0.8055512   -7.1055264    820.52856  0.024230113  0.023921044            5 
 2823000   0.80100222   -7.0980232     821.7438  0.024257403  0.023914782            3 
 2824000   0.80458276   -7.1265997    817.96265  0.024137236  0.023908493            4 
 2825000   0.81186977   -7.1032717    819.19604  0.024165075  0.023902208            6 
 2826000   0.79260833   -7.1387829    819.78104  0.024173775  0.023895899            6 
 2827000   0.80667371   -7.1469328    820.87355  0.024197428  0.023889622           13 
 2828000   0.79280617   -7.1401304    818.88349   0.02413023  0.023883337           11 
 2829000   0.80433105   -7.1260557    820.19856  0.024160438  0.023877046            6 
 2830000     0.793064   -7.1158525    821.53681  0.024191308  0.023870756            8 
 2831000   0.79516057   -7.1314771    820.86741  0.024163058  0.023864423            7 
 2832000   0.79336354   -7.1248467    820.93098  0.024156396  0.023858103            9 
 2833000   0.80854332   -7.1158278    820.29963  0.024129298  0.023851792            8 
 2834000   0.79176534     -7.13932    820.89289  0.024138229  0.023845491            8 
 2835000   0.81104251   -7.1040015     819.6721   0.02409383  0.023839198            7 
 2836000   0.80160339   -7.1315501     820.5379  0.024110775  0.023832944            7 
 2837000   0.79396112   -7.1217021    821.24268  0.024122978  0.023826672            5 
 2838000   0.80318793   -7.1001523    821.59373  0.024124786    0.0238204            5 
 2839000   0.78392395   -7.1057616    820.72821  0.024090883  0.023814135            2 
 2840000   0.78882343   -7.1177407    824.02921  0.024179261  0.023807839            7 
 2841000   0.79785178    -7.119876    821.05484  0.024083505  0.023801525            6 
 2842000    0.8116216   -7.1449542    821.46313  0.024087002   0.02379522            5 
 2843000   0.82264082   -7.1244093    820.80696  0.024059296  0.023788916            4 
 2844000   0.80066983   -7.1141747    820.53323  0.024042816  0.023782648            7 
 2845000   0.79132955   -7.1165292    821.46566  0.024061677  0.023776329           10 
 2846000   0.79810536   -7.0877778      822.318   0.02407818  0.023770054            8 
 2847000    0.8088768   -7.1292286    822.27805  0.024068553  0.023763816            5 
 2848000   0.81044983   -7.1115009    822.16475  0.024056787  0.023757563            4 
 2849000    0.8032404   -7.1125784    822.16945   0.02404848  0.023751336            4 
 2850000   0.78538545   -7.1368408     821.9051  0.024032313  0.023745068            4 
 2851000   0.79618643   -7.1031764    821.44881  0.024010546  0.023738783            5 
 2852000   0.78286086   -7.1472712    823.44692  0.024060511  0.023732479            7 
 2853000   0.81129138   -7.1132119    822.23896  0.024016794  0.023726182            6 
 2854000   0.82144681   -7.1565014    821.08034  0.023974548  0.023719909           10 
 2855000   0.77985117   -7.1156066    823.61127  0.024040025  0.023713657            8 
 2856000   0.79528766   -7.1266678    823.35814  0.024024222  0.023707386           11 
 2857000   0.80046056   -7.1245171    822.83838  0.024000653  0.023701135            6 
 2858000   0.78321914   -7.1228149    823.29742   0.02400564   0.02369482            4 
 2859000   0.79848317   -7.1498797    822.17764  0.023964604  0.023688509           11 
 2860000   0.79081943   -7.1363146    820.95698  0.023920658  0.023682191           13 
 2861000   0.79981703   -7.1255564    823.53076  0.023987264  0.023675927            4 
 2862000   0.79868271   -7.1464175    821.16707  0.023910059  0.023669602            7 
 2863000   0.79374611   -7.1410742    824.60513  0.024001779  0.023663348            7 
 2864000   0.80548551   -7.1305534    822.83213   0.02394181  0.023657083            3 
 2865000   0.79499793    -7.144618    822.35312  0.023919521  0.023650856           14 
 2866000   0.80953212   -7.1283169    824.42979  0.023971557  0.023644649            9 
 2867000   0.78989088   -7.1185555    822.92235   0.02391938  0.023638428           11 
 2868000   0.78733572   -7.1296677    824.97261  0.023970613  0.023632191           15 
 2869000   0.80849269   -7.1564174     823.7587  0.023926998  0.023625961           11 
 2870000   0.78746586   -7.1252802    825.69395  0.023974853  0.023619748           10 
 2871000    0.8180651   -7.1137462    827.67111  0.024023892  0.023613565           11 
 2872000   0.78453296   -7.1385745    825.85512  0.023962834  0.023607391           15 
 2873000   0.79100029   -7.1327895    824.83517  0.023924909  0.023601197           16 
 2874000   0.79686031     -7.14121    824.15599  0.023896891  0.023594978            9 
 2875000   0.78845988   -7.1310078    825.24217  0.023920063  0.023588719           10 
 2876000   0.79867402   -7.1305173    825.27487  0.023912693  0.023582547            7 
 2877000   0.78434681   -7.1488708    826.61946  0.023943328   0.02357637           14 
 2878000   0.78335803   -7.1648309    825.16072   0.02389277   0.02357019           11 
 2879000   0.78612037   -7.1316027    826.26156  0.023916336  0.023563981            7 
 2880000   0.78111658   -7.1613229    825.56631  0.023887914  0.023557751            9 
 2881000   0.77582806   -7.0811195    827.49325  0.023935359  0.023551558           10 
 2882000   0.79761687   -7.1418313    824.52107  0.023841114  0.023545344            7 
 2883000   0.78895154   -7.1373614    825.62595  0.023864781  0.023539145           10 
 2884000   0.79914885   -7.1417939    824.83852  0.023833753  0.023532955            7 
 2885000   0.78271836   -7.1521782    826.02674  0.023859813   0.02352676            6 
 2886000   0.80203222   -7.1372918    825.98766  0.023850418  0.023520556            8 
 2887000   0.79956849   -7.1648532    826.90039  0.023868502  0.023514351           12 
 2888000   0.77910281    -7.150818    825.81975  0.023829055  0.023508146            3 
 2889000   0.79346734   -7.1435575    825.37305  0.023807922  0.023501978            6 
 2890000   0.79306344   -7.1395478    825.83504  0.023813006  0.023495799           15 
 2891000   0.77455204    -7.154237    825.98549  0.023809106  0.023489636            4 
 2892000   0.76962813   -7.1336432     829.1056  0.023890779  0.023483489            8 
 2893000   0.79791385   -7.1177989    827.52538  0.023837003  0.023477341            5 
 2894000   0.79134916   -7.1283234    828.81653  0.023865945  0.023471189            6 
 2895000   0.79268977   -7.1102259    826.52094  0.023791622  0.023465056           11 
 2896000   0.77667831   -7.1473279    828.33413  0.023835582  0.023458937            6 
 2897000   0.78707252   -7.1518185    827.08372  0.023791385  0.023452762            9 
 2898000   0.78856628   -7.1733555     826.8317  0.023775929  0.023446554            8 
 2899000    0.7839311   -7.1332245    826.88108  0.023769147  0.023440359            6 
 2900000   0.79203068   -7.1427667    827.39254  0.023775648  0.023434164           10 
 2901000   0.78050196   -7.1557962    827.20406  0.023762038  0.023427956            8 
 2902000   0.79102195    -7.171302    827.94119  0.023775017  0.023421752           10 
 2903000   0.78402722   -7.1512197    826.64587  0.023729644  0.023415557           23 
 2904000   0.78946979   -7.1757477    826.37719  0.023713762  0.023409359           22 
 2905000   0.76620766   -7.1440929    828.07573  0.023754324  0.023403174           16 
 2906000   0.78263813   -7.1546566    827.63752  0.023733583  0.023396957           11 
 2907000    0.7752505   -7.1421396    829.35722  0.023774717  0.023390769            6 
 2908000   0.79024654   -7.1880055    828.46234  0.023740897  0.023384615           14 
 2909000   0.78183736   -7.1469361    829.21338  0.023754251  0.023378463           17 
 2910000   0.79605065   -7.1351665    831.12511  0.023800834  0.023372335            7 
 2911000   0.79358498   -7.1078108    830.41713   0.02377239  0.023366214           15 
 2912000   0.79180855   -7.1375865    826.38359  0.023648798  0.023360105           21 
 2913000   0.77337962   -7.1712147    828.58524  0.023703663  0.023353966           12 
 2914000   0.79285994   -7.1959192    829.93779  0.023734208   0.02334784           22 
 2915000   0.78598459   -7.1595634    830.81257  0.023751074   0.02334172           13 
 2916000   0.79178081   -7.1576024    830.04439  0.023720976  0.023335609           10 
 2917000    0.7901793   -7.1547924    827.93125  0.023652475  0.023329488           13 
 2918000   0.79325203    -7.127726    829.93724  0.023701657  0.023323364            8 
 2919000   0.80481911   -7.1528951    828.14156  0.023642274  0.023317243            7 
 2920000   0.78075156   -7.1235237    827.95228  0.023628775  0.023311128            5 
 2921000    0.7853568   -7.1607284    830.26113  0.023686555  0.023304985            5 
 2922000   0.79004264   -7.1636104     829.7807  0.023664747  0.023298805           11 
 2923000   0.76715935   -7.1641856    829.94896  0.023661448   0.02329264            4 
 2924000   0.78483559   -7.1313523    831.79331   0.02370592   0.02328648            6 
 2925000   0.78474936   -7.1493598    829.77617  0.023640347  0.023280361            7 
 2926000   0.79255358   -7.1618669    830.25527  0.023645912  0.023274253           11 
 2927000   0.78304001   -7.1640131    830.43955   0.02364308  0.023268112            5 
 2928000   0.78405656   -7.1543644    830.88002  0.023647542  0.023261996           10 
 2929000   0.78349146   -7.1693818     831.1637  0.023647539  0.023255896            6 
 2930000   0.79076467   -7.1512666    831.35178  0.023644817  0.023249779           10 
 2931000    0.7756327   -7.1582056    829.95083  0.023596919  0.023243652            8 
 2932000   0.80560792   -7.1592436    829.30298  0.023570457  0.023237531            5 
 2933000   0.78598639   -7.1632177    829.98315  0.023581746  0.023231409            8 
 2934000   0.79537844    -7.174065    829.92451  0.023572043  0.023225242            5 
 2935000   0.78515374   -7.1559289     830.7208  0.023586621  0.023219101            3 
 2936000   0.77922236   -7.1666939    830.55563    0.0235739  0.023212982           16 
 2937000   0.79208878   -7.1568542    829.96765   0.02354919  0.023206827            3 
 2938000   0.77347275   -7.1404247    830.85743  0.023566412  0.023200704            9 
 2939000   0.77058168   -7.1467381    833.77531  0.023641128  0.023194601            7 
 2940000   0.78463248   -7.1406967    832.66526  0.023601623  0.023188487           13 
 2941000   0.77933206   -7.1507795    830.52909   0.02353307  0.023182378           11 
 2942000   0.77615553   -7.1648863    829.31611  0.023490712  0.023176242            9 
 2943000   0.77346021   -7.1446586    830.60555  0.023519242  0.023170093            7 
 2944000   0.78443209    -7.147565    830.96088  0.023521311  0.023163961           10 
 2945000   0.77410064   -7.1319734    830.92429  0.023512289  0.023157808            8 
 2946000   0.76906562   -7.1549374      829.941  0.023476494  0.023151679            9 
 2947000   0.79877851   -7.1667778    830.34302  0.023479895  0.023145537            8 
 2948000   0.77926844   -7.1618835    828.58443  0.023422219  0.023139395            8 
 2949000    0.7876372   -7.1930144    829.45061  0.023438754   0.02313323           16 
 2950000   0.78605469   -7.1715098    830.79261  0.023468718  0.023127093           11 
 2951000   0.79644687   -7.1585896    829.09716  0.023412887  0.023120935            9 
 2952000   0.77982953   -7.1915609    830.46773  0.023443646  0.023114761            8 
 2953000   0.78660352   -7.1975513    830.65183  0.023440903  0.023108564            5 
 2954000   0.76927478   -7.1643986    830.69462  0.023434175  0.023102375            5 
 2955000    0.7779664    -7.175241    831.42345  0.023446798  0.023096212           16 
 2956000   0.78060899   -7.1909329    830.17205  0.023403587   0.02309008            8 
 2957000    0.7561247   -7.1922936    830.12172  0.023394254  0.023083934           10 
 2958000   0.77963264   -7.1790433    832.42242  0.023451161  0.023077763           11 
 2959000   0.78948845   -7.1551298    833.28058  0.023467404  0.023071615           13 
 2960000   0.77018123    -7.175641    831.74526  0.023416252  0.023065472            5 
 2961000   0.77893997    -7.188515    830.50754   0.02337351  0.023059294            7 
 2962000   0.78192921    -7.164532    830.55709  0.023367013  0.023053158            7 
 2963000   0.77332273   -7.1727378    833.41723  0.023439567  0.023047009            5 
 2964000   0.78439639   -7.1573574    832.21205  0.023397775  0.023040885            4 
 2965000   0.78195887    -7.156445    833.88629  0.023436939  0.023034777            4 
 2966000   0.78692496   -7.1432379    835.32617  0.023469492  0.023028694            7 
 2967000   0.76166525   -7.1524915    831.92648  0.023366096  0.023022598            7 
 2968000   0.77953347   -7.1527231    831.82434  0.023355355  0.023016468           16 
 2969000   0.76579747   -7.1973331    832.51294  0.023366817  0.023010324           10 
 2970000   0.78529919     -7.16857    832.46548  0.023357617  0.023004186           20 
 2971000    0.7832069    -7.164095    833.12372  0.023368218   0.02299808            9 
 2972000   0.76560908   -7.1839898    831.29241  0.023309007  0.022991952            9 
 2973000   0.77505005   -7.1589757    835.09872  0.023407857  0.022985856            8 
 2974000   0.74614071   -7.1754201    835.08029   0.02339947  0.022979758            6 
 2975000   0.79273056   -7.1947224    832.39418  0.023316364  0.022973634            5 
 2976000   0.76490312   -7.1533785    833.92911   0.02335151  0.022967531            6 
 2977000   0.79221561   -7.1664078    832.47761  0.023303035  0.022961439           11 
 2978000   0.77802846   -7.1620659    833.26269  0.023317179  0.022955328            5 
 2979000   0.76892383   -7.1812937    832.25086  0.023281047   0.02294925            8 
 2980000   0.75337697   -7.1885655     832.8624  0.023290336  0.022943122            9 
 2981000   0.76430907   -7.1887934    833.71704  0.023306414  0.022937021            6 
 2982000   0.77252144   -7.1808478    832.62028  0.023267949  0.022930928           14 
 2983000    0.7814503   -7.1654246    833.10122  0.023273584  0.022924802            7 
 2984000    0.7655271     -7.17876    833.09669  0.023265658  0.022918688            8 
 2985000   0.78176405   -7.1503509    833.47173  0.023268334  0.022912611            9 
 2986000    0.7770916   -7.1661721     833.8984  0.023272449  0.022906509            8 
 2987000    0.7777857   -7.1742857    834.17684  0.023272426   0.02290042           19 
 2988000   0.77026842   -7.1664036    833.50661  0.023245945  0.022894296           16 
 2989000   0.76939449   -7.1659379    834.70632  0.023271616  0.022888184           12 
 2990000   0.76388061   -7.1891495     833.7033  0.023235878  0.022882049            4 
 2991000   0.78213915    -7.156017    832.21848   0.02318674  0.022875922            4 
 2992000    0.7815168   -7.1692773    835.18659  0.023261659  0.022869781            9 
 2993000   0.76714403   -7.1823987    833.18317  0.023198106  0.022863668            8 
 2994000   0.77658049   -7.1728487    832.89009    0.0231822  0.022857539            6 
 2995000    0.7714542   -7.1886491     834.7456  0.023226088  0.022851448            4 
 2996000   0.77946102   -7.1859592     834.7482  0.023218408  0.022845357            6 
 2997000    0.7633167    -7.167739    835.46784  0.023230671  0.022839229            6 
 2998000   0.78289948   -7.1890229    836.59229  0.023254177   0.02283315            5 
 2999000     0.778603   -7.2083474    834.80228  0.023196684  0.022827053            8 
 3000000    0.7648393    -7.166923    835.57332   0.02321037   0.02282096            9 
 3001000    0.7861814   -7.1813562    834.58265  0.023175126  0.022814853           22 
 3002000   0.75142662    -7.204071    834.17334  0.023156044  0.022808749           24 
 3003000   0.76519183   -7.1626018    837.47913  0.023240069   0.02280267           28 
 3004000   0.77737743   -7.1982415    835.99027  0.023191031  0.022796609           27 
 3005000   0.76580051   -7.1832637    833.87197  0.023124569  0.022790542            6 
 3006000   0.76047806   -7.1492299    835.72143  0.023168148   0.02278448           19 
 3007000   0.77084007   -7.1667968    836.48959  0.023181731  0.022778437            5 
 3008000   0.77736533   -7.1758469    835.17042  0.023137478  0.022772373           17 
 3009000   0.77142413   -7.2167198    835.42592  0.023136865  0.022766282           18 
 3010000   0.77473922   -7.2053903     834.5425   0.02310472   0.02276015           25 
 3011000   0.75852776   -7.1960723    835.06117  0.023111402  0.022754001           17 
 3012000   0.76283175   -7.1842291    832.97668  0.023046057  0.022747836           27 
 3013000   0.78548159   -7.1921571    834.48882  0.023080231  0.022741705           20 
 3014000   0.76452553   -7.1578002    834.93675  0.023084958  0.022735603           20 
 3015000   0.76991482   -7.1900402    835.32251  0.023087963  0.022729468           10 
 3016000   0.76642303   -7.1905135     836.3153  0.023107739  0.022723379            8 
 3017000   0.75947315   -7.2315547    833.65118  0.023026494  0.022717249            8 
 3018000    0.7643049   -7.1829367    835.77268  0.023077443  0.022711128           16 
 3019000   0.77199578   -7.1991928    837.24189  0.023110354  0.022705035           14 
 3020000   0.75519643   -7.2116549    837.26706  0.023103396  0.022698941           12 
 3021000   0.77440938   -7.1682276    836.90075  0.023085644  0.022692865            6 
 3022000   0.76300216   -7.1926134    834.95958  0.023024475  0.022686729            9 
 3023000   0.76553148   -7.2202771    836.33564  0.023054792    0.0226806           12 
 3024000   0.77348706   -7.1913576    835.52504   0.02302483  0.022674469           22 
 3025000   0.76472364   -7.1811185    834.39904  0.022986199  0.022668345           12 
 3026000   0.75898674   -7.1893663    836.99741   0.02305016  0.022662202            9 
 3027000   0.76635086    -7.184957    835.04545  0.022988808  0.022656055            7 
 3028000    0.7615608   -7.1833557    836.96293  0.023033986  0.022649913            9 
 3029000   0.78292718   -7.2240807    835.15335  0.022976597  0.022643789            8 
 3030000   0.75977665   -7.1727848     836.9672    0.0230189  0.022637666            8 
 3031000   0.77407937   -7.1883883    836.83275  0.023007609  0.022631572           13 
 3032000   0.79052804   -7.2042901    837.27168  0.023012084  0.022625461            9 
 3033000   0.78039935     -7.19424    835.14977  0.022946197  0.022619325            9 
 3034000   0.75151945   -7.2037541    835.27927  0.022942191  0.022613139            4 
 3035000   0.75814719   -7.1956973    835.51535  0.022941113  0.022606983            7 
 3036000   0.74631278   -7.1929395    838.27124  0.023009202  0.022600854            4 
 3037000   0.74725518    -7.175767    835.45928  0.022924467  0.022594738            6 
 3038000   0.78810041   -7.1817957    837.31692  0.022967877  0.022588626           10 
 3039000   0.76324699   -7.2147178    837.10141  0.022954409  0.022582493            5 
 3040000   0.76617155   -7.2377694    837.36145  0.022953987  0.022576377           16 
 3041000   0.75407325   -7.1992203     834.9879  0.022881396  0.022570252           21 
 3042000   0.76400283   -7.1928162    837.61197  0.022945759  0.022564138           17 
 3043000   0.78201898   -7.1990894    836.62375  0.022911155  0.022558028            8 
 3044000   0.76826896   -7.2297356    835.89685  0.022883729  0.022551911           11 
 3045000   0.77806571   -7.2017368    837.78442  0.022927871  0.022545797           13 
 3046000   0.76577921   -7.2047083    835.38817  0.022854787  0.022539697            5 
 3047000   0.76679646   -7.1621726    838.79993  0.022940596  0.022533602            6 
 3048000   0.76403166   -7.1741481    836.03805  0.022857558  0.022527487            8 
 3049000      0.77031   -7.2019342      837.743   0.02289666  0.022521388            7 
 3050000   0.77643095   -7.1879343    837.76124  0.022889651  0.022515282            9 
 3051000     0.743843   -7.2078521    836.43122  0.022845821  0.022509171            9 
 3052000   0.75839025   -7.1854697     837.4938  0.022867349  0.022503062            7 
 3053000   0.76003665    -7.210256    837.61059  0.022863047  0.022496973            5 
 3054000   0.74757768   -7.1865461    836.99172  0.022838674  0.022490841            6 
 3055000   0.76733393   -7.2118609    838.20585  0.022864317  0.022484705            6 
 3056000   0.75721937   -7.2105321     837.0167  0.022824408  0.022478582           15 
 3057000     0.751554   -7.2315751     835.3586  0.022771742  0.022472446           10 
 3058000   0.75922934   -7.2130874    835.92584  0.022779754  0.022466291            7 
 3059000   0.77293834   -7.1764719    836.66853  0.022792539  0.022460147           10 
 3060000    0.7625877   -7.2112162    838.49226  0.022834756  0.022454045           10 
 3061000   0.75459894   -7.2162479    838.75192  0.022834366  0.022447924            7 
 3062000   0.76053819   -7.1881901    838.56229  0.022821748  0.022441836            8 
 3063000   0.76779297   -7.1700758     839.5539  0.022841275  0.022435775            7 
 3064000   0.76980647   -7.1695443    838.43721  0.022803449  0.022429716            8 
 3065000   0.74882728   -7.2194051    837.91098  0.022781701  0.022423652           19 
 3066000   0.74878141   -7.1963702    838.14428  0.022780612   0.02241756           16 
 3067000   0.76047184   -7.2029961     837.5479   0.02275698   0.02241147            9 
 3068000   0.76423829   -7.2064761    837.25774  0.022741681  0.022405353            7 
 3069000   0.76546409   -7.1994224     838.9282   0.02277963  0.022399241            9 
 3070000   0.75309038   -7.1720211    837.54561   0.02273468  0.022393169           10 
 3071000   0.76967015   -7.2071198    835.90777  0.022682833  0.022387079            3 
 3072000    0.7594375    -7.196771    836.61448   0.02269462  0.022380982            6 
 3073000   0.75715275   -7.1905922    840.08742  0.022781414   0.02237489            3 
 3074000   0.75373749   -7.2054745     838.5651  0.022732734  0.022368809           12 
 3075000   0.76273509   -7.2031507    839.91667  0.022761969  0.022362716           22 
 3076000   0.75994757   -7.2008158    839.30354  0.022737959  0.022356593            5 
 3077000   0.73668656   -7.2208019    837.92866  0.022693334  0.022350488            7 
 3078000   0.77052494   -7.1949253    838.80015  0.022709556  0.022344381           12 
 3079000    0.7703765   -7.2168662    839.32021  0.022716255  0.022338262            3 
 3080000   0.76769308   -7.1918918    838.89447  0.022697361  0.022332146            6 
 3081000   0.75340098   -7.1876506    837.74137  0.022658806  0.022326059           11 
 3082000   0.74877312   -7.2095606    838.02488  0.022659119  0.022319941            5 
 3083000     0.749846    -7.208664    838.06244  0.022652785  0.022313794            4 
 3084000   0.74218638   -7.2105317    837.65112  0.022634326  0.022307659            9 
 3085000   0.74495667   -7.1923436    837.89112  0.022633472  0.022301531            6 
 3086000   0.75144541   -7.2166916    836.61054  0.022591557  0.022295395            4 
 3087000   0.76265301   -7.2438073    837.50182  0.022608299  0.022289239           16 
 3088000   0.76583515   -7.2079485    840.04727  0.022669669  0.022283078            9 
 3089000   0.75815955   -7.2101448    838.54698  0.022621856  0.022276937           14 
 3090000   0.75447994   -7.1987639    839.06879  0.022628608   0.02227078            6 
 3091000   0.76290815   -7.2097015    838.52185  0.022606542  0.022264659           10 
 3092000    0.7472464   -7.1872752    840.48957  0.022652263   0.02225854            7 
 3093000   0.76488039   -7.1866074    839.39781  0.022615525   0.02225242            8 
 3094000   0.73723228   -7.1996529    839.24668  0.022604145  0.022246299            9 
 3095000   0.75683314   -7.2114353    838.89779  0.022587447  0.022240129            9 
 3096000   0.74832577   -7.2333669     838.4502  0.022568104  0.022233953            6 
 3097000    0.7536018   -7.2092036    836.54245  0.022509484  0.022227789            8 
 3098000   0.74285677   -7.2038042     838.0685  0.022543267  0.022221633            7 
 3099000   0.73770212   -7.1818511    836.31189  0.022488757  0.022215496            6 
 3100000   0.77010838   -7.1979256    838.75293  0.022547122  0.022209348           10 
 3101000   0.74877507   -7.2204611    838.63121   0.02253658  0.022203192            4 
 3102000   0.77278606   -7.1914275    839.20039  0.022544605  0.022197052            7 
 3103000   0.75852255    -7.209932    839.34286  0.022541166  0.022190926           11 
 3104000   0.74946238   -7.2127538    839.09868  0.022527349  0.022184778           10 
 3105000   0.75928195   -7.2353466    836.88346   0.02246064  0.022178665            8 
 3106000   0.74500655   -7.2095632    839.64711  0.022527557  0.022172555            7 
 3107000   0.74725953   -7.2221528    838.66149  0.022493871  0.022166439            7 
 3108000   0.74612168   -7.2246059    840.40309   0.02253333   0.02216033            8 
 3109000   0.76614919    -7.208945    841.30421  0.022550236  0.022154225            3 
 3110000   0.74961569   -7.2130524    838.94634  0.022479805  0.022148084            6 
 3111000   0.75210986   -7.2195709    838.79482  0.022468521  0.022141964           15 
 3112000   0.76029887   -7.1973518    839.89827  0.022490849  0.022135833            7 
 3113000   0.75171452   -7.1808629    839.94093  0.022484766  0.022129715            8 
 3114000   0.75410768   -7.2051305    839.96966  0.022478314   0.02212359           13 
 3115000   0.76538536   -7.2103205    841.00668  0.022498841  0.022117446           15 
 3116000   0.76053021     -7.22187    839.40075  0.022448672  0.022111302            8 
 3117000   0.72612904   -7.2206821    840.75049  0.022477556  0.022105155            5 
 3118000   0.76012202   -7.2096006     839.5307  0.022437746  0.022099024            7 
 3119000   0.75343131   -7.2044676    838.80875  0.022411263  0.022092896            6 
 3120000   0.74733951   -7.2176423    841.76921  0.022483152  0.022086774            4 
 3121000   0.75269874   -7.1881201    839.16771  0.022406486  0.022080646           10 
 3122000   0.73806954   -7.2162528    839.75675  0.022415032  0.022074509           20 
 3123000   0.75397971   -7.2340593    839.25352  0.022394426  0.022068344            8 
 3124000   0.75298752    -7.213663    839.16327   0.02238485  0.022062207            9 
 3125000   0.75023358   -7.2068661    838.21768  0.022352471  0.022056056            8 
 3126000   0.73301441   -7.2190041    839.98517  0.022392439  0.022049902            7 
 3127000   0.74773885   -7.2177959     838.4442  0.022344212  0.022043728           10 
 3128000   0.74564813   -7.2470616    839.56908  0.022367036  0.022037557           10 
 3129000   0.74317048   -7.2251216    840.50436  0.022384797  0.022031367           10 
 3130000   0.74347494   -7.2273327    839.05433   0.02233904  0.022025227            4 
 3131000   0.75949263   -7.2273356     839.8689  0.022353585  0.022019088           10 
 3132000   0.74908891   -7.2398143    839.89124  0.022347042  0.022012951           10 
 3133000   0.75148165   -7.2068753    840.38776  0.022353116  0.022006835            5 
 3134000   0.75521791   -7.2181776    839.40683  0.022319901  0.022000704            7 
 3135000   0.76196134   -7.2382136    841.97486  0.022381043  0.021994581            6 
 3136000   0.73219861   -7.2371552    838.97219  0.022294116   0.02198845            5 
 3137000   0.75655562   -7.2190928    839.48023  0.022300505  0.021982344            5 
 3138000   0.75491736   -7.2105658    838.38056  0.022264196  0.021976218            9 
 3139000   0.73343827   -7.2144686    842.31503  0.022361554  0.021970105            6 
 3140000   0.76912295     -7.21166    841.93858  0.022344442   0.02196401            6 
 3141000    0.7390144   -7.2056912    841.25091  0.022319084  0.021957929            7 
 3142000   0.75682603   -7.2141646    840.15245  0.022282847  0.021951835            9 
 3143000    0.7560409    -7.213745    841.07686  0.022300267  0.021945716           15 
 3144000   0.76056275   -7.2011705    840.69612  0.022283082  0.021939639            6 
 3145000   0.74022915    -7.238836    839.68972   0.02224933  0.021933555            6 
 3146000   0.75446355   -7.2397149    841.19469  0.022282123  0.021927455            9 
 3147000   0.74659266   -7.2198223      840.759  0.022263505  0.021921353           13 
 3148000   0.74231606   -7.2264725    841.02203  0.022263395  0.021915236           13 
 3149000   0.75521518   -7.2225897     840.1055  0.022232071  0.021909115           17 
 3150000   0.73925063   -7.2276089    840.04494  0.022223411  0.021902975            6 
 3151000   0.75326827   -7.2240647    840.45843  0.022227294  0.021896849            8 
 3152000   0.76535232   -7.2172947    842.08961  0.022263367  0.021890734            5 
 3153000   0.73429253   -7.2250301    842.79967  0.022275073  0.021884607           10 
 3154000   0.75245834   -7.2338307    840.80388  0.022215279   0.02187848            9 
 3155000   0.74839515   -7.2175991    840.17071  0.022191514  0.021872349            8 
 3156000   0.74588044   -7.2346293    840.79852  0.022201059  0.021866222           15 
 3157000   0.74313384   -7.2475152    839.50998  0.022160014  0.021860101            6 
 3158000   0.74999445   -7.2255686     841.2099  0.022197855  0.021853997            9 
 3159000   0.75311665   -7.2321073    842.40924  0.022222466  0.021847902           10 
 3160000   0.75222006   -7.2130736    841.64177  0.022195194  0.021841798            7 
 3161000   0.74723698    -7.249044    840.05477  0.022146335  0.021835683            6 
 3162000   0.72529719   -7.2341223    840.86665  0.022160728  0.021829585            8 
 3163000   0.74583228   -7.2431311    840.29478  0.022138655  0.021823442            6 
 3164000   0.74339236   -7.2547415     841.9341  0.022174834  0.021817319            8 
 3165000   0.73243132   -7.2407946    841.91101   0.02216722   0.02181123            3 
 3166000   0.76256566   -7.2179289    842.79719  0.022183544  0.021805136            8 
 3167000   0.74887556   -7.2287157    840.85193  0.022125353   0.02179905           10 
 3168000   0.74039684   -7.2266037    840.84689  0.022118237  0.021792917            8 
 3169000   0.73779961   -7.2222144    841.98154  0.022141094  0.021786809            5 
 3170000   0.74843658   -7.2237632     843.2914  0.022168544    0.0217807           10 
 3171000   0.73651147   -7.2198184    840.21333  0.022080661  0.021774627            7 
 3172000   0.74668018   -7.2398861    841.85224  0.022116757  0.021768549            8 
 3173000   0.75615864   -7.2491959    840.82071  0.022082695  0.021762477            8 
 3174000   0.75251019   -7.2257815    842.80769  0.022127906  0.021756399            8 
 3175000   0.74197289   -7.2588312    841.80159   0.02209453  0.021750316            9 
 3176000   0.73956441   -7.2353373    842.80672  0.022113946  0.021744219           10 
 3177000    0.7368052     -7.26768    843.38533  0.022122163  0.021738111           10 
 3178000    0.7310576   -7.2462903    841.81711   0.02207408  0.021732006            8 
 3179000    0.7455198   -7.2464717    842.73762  0.022091266  0.021725898           18 
 3180000    0.7552902   -7.2657531    842.79267  0.022085762  0.021719797           19 
 3181000   0.74681707   -7.2504567    842.72613  0.022077076  0.021713702           19 
 3182000   0.73169217   -7.2335663    842.10836  0.022053959  0.021707623           25 
 3183000   0.74362001   -7.2692995    841.66595  0.022035447  0.021701551            7 
 3184000   0.76186649   -7.2413242    842.39925  0.022047719   0.02169545            6 
 3185000   0.74014174   -7.2569788    840.80631  0.021999118  0.021689358            4 
 3186000   0.75768813   -7.2777397    842.17364  0.022027978  0.021683239           15 
 3187000   0.73960838   -7.2265482    845.12554  0.022098252  0.021677172            5 
 3188000   0.76171373   -7.2474745     843.4774  0.022048238  0.021671112           14 
 3189000   0.73179737   -7.2364114    842.72561  0.022021679  0.021665065            6 
 3190000   0.75374067   -7.2611814    844.53313  0.022061994   0.02165898            8 
 3191000   0.73032105    -7.252206    843.08846  0.022017352  0.021652925            6 
 3192000   0.74844274   -7.2547846    842.17354  0.021986569  0.021646861            8 
 3193000   0.73860987   -7.2241702    843.35524  0.022010524  0.021640802           13 
 3194000   0.73257353   -7.2481857    843.70638  0.022012794  0.021634778            5 
 3195000    0.7532734   -7.2740691     843.3665   0.02199704  0.021628743            9 
 3196000   0.73790913   -7.2696468    843.91366  0.022004424  0.021622704            8 
 3197000   0.74970791   -7.2365388    843.96748  0.021998944  0.021616669            9 
 3198000   0.72734577   -7.2718127    842.72406  0.021959664   0.02161064            9 
 3199000   0.74730789   -7.2608417    843.79498  0.021980697  0.021604581            7 
 3200000   0.73834935   -7.2721034    843.84329  0.021975086  0.021598508           10 
 3201000   0.72593634   -7.2568242     842.8585  0.021942583  0.021592433            5 
 3202000   0.74024487   -7.2430343    844.86274  0.021987892  0.021586353           14 
 3203000   0.74861058   -7.2652428    844.28138  0.021965901  0.021580272           15 
 3204000   0.74429348   -7.2713975    843.78578  0.021946155  0.021574235           14 
 3205000   0.74319317   -7.2427628    842.64907  0.021909752  0.021568159           30 
 3206000   0.73631421   -7.2661565    842.94951  0.021910728  0.021562088           32 
 3207000   0.73725845   -7.2460903    844.09678  0.021933707  0.021556037           31 
 3208000   0.74543119   -7.2561896    842.68478  0.021890191  0.021549975           30 
 3209000   0.72577002   -7.2840233    843.98259  0.021917072  0.021543892           14 
 3210000   0.74483532   -7.2369151     845.4983  0.021949592  0.021537854           12 
 3211000   0.73182973    -7.255026    843.30693  0.021885885  0.021531832            8 
 3212000   0.73622259   -7.2377269    845.35115  0.021932107  0.021525825           15 
 3213000   0.74574327   -7.2176254    844.05398  0.021891638  0.021519801           11 
 3214000   0.74795068   -7.2507567    845.29166  0.021916917  0.021513796            8 
 3215000   0.73957027   -7.2512936    846.67804  0.021946035  0.021507763           12 
 3216000    0.7393776   -7.2360835    844.88819  0.021892832  0.021501771           15 
 3217000   0.74577621   -7.2212047     844.9645  0.021888004  0.021495736           10 
 3218000   0.75741335    -7.251246    844.42797  0.021867308  0.021489699           11 
 3219000   0.74197586    -7.230675    844.07804  0.021851456  0.021483669           12 
 3220000   0.72274402   -7.2466074    844.11726  0.021845685  0.021477664           11 
 3221000   0.75065195   -7.2390303     844.6326  0.021852235  0.021471658           28 
 3222000   0.73456168   -7.2641496    844.97391  0.021854281  0.021465636           17 
 3223000    0.7251465   -7.2411389       843.81  0.021817406  0.021459613            6 
 3224000   0.73679766   -7.2595651    844.77881  0.021835681    0.0214536           12 
 3225000   0.72434591   -7.2495477    843.33977  0.021791725  0.021447549            5 
 3226000   0.73230767    -7.269097    843.55717  0.021790586  0.021441506            5 
 3227000   0.72716273   -7.2801617    842.59496  0.021758986  0.021435451           11 
 3228000   0.73376889   -7.2453091    843.83148  0.021784167  0.021429422            9 
 3229000   0.71671294   -7.2674098    845.54153  0.021821553  0.021423403           12 
 3230000   0.73418359   -7.2707777    844.56088  0.021789496  0.021417373           11 
 3231000    0.7155555   -7.2592998    845.25188  0.021800575  0.021411347           15 
 3232000   0.74138255   -7.2557961    845.24007  0.021793525  0.021405322            8 
 3233000   0.73270667    -7.254619    845.18501  0.021785365  0.021399292            9 
 3234000   0.73657285   -7.2803715    844.95455   0.02177269  0.021393265            8 
 3235000   0.74731189   -7.2481354    845.77588  0.021787117  0.021387237           12 
 3236000   0.72528078   -7.2602296    847.14431  0.021815624  0.021381211           11 
 3237000    0.7290506   -7.2549898     845.6119  0.021769434  0.021375203           22 
 3238000   0.73158534   -7.2590431    845.43505   0.02175816  0.021369184           37 
 3239000   0.72260039   -7.2709362    845.64813  0.021756924   0.02136317           10 
 3240000   0.74047874   -7.2483501    847.93261  0.021808966  0.021357182           11 
 3241000   0.73407658   -7.2813402    847.00504  0.021778387  0.021351188           11 
 3242000    0.7419822   -7.2591001     844.7932  0.021714816  0.021345171           22 
 3243000   0.72625137   -7.2566441    846.72175  0.021757677  0.021339163           22 
 3244000   0.72878067   -7.2604375    845.26291  0.021713494  0.021333152            6 
 3245000    0.7308538    -7.286568    844.65628  0.021691225  0.021327111           27 
 3246000   0.72950645   -7.2703417    844.54193  0.021681606  0.021321075           10 
 3247000   0.75088737   -7.2579631    846.43184  0.021723433  0.021315031           19 
 3248000   0.73475874   -7.2743768    844.66062  0.021671301  0.021308996           14 
 3249000   0.74116646   -7.2774768    846.61242  0.021714692  0.021302978           10 
 3250000   0.74323943     -7.26416    845.11452  0.021669603  0.021296961           11 
 3251000   0.73611519   -7.2665356    845.55074  0.021674119  0.021290922            9 
 3252000   0.74325256   -7.2761071    846.17043  0.021683334  0.021284902            4 
 3253000   0.73574451   -7.2472499    848.34926  0.021732484  0.021278878            5 
 3254000   0.72134772    -7.273053    847.08223  0.021693358  0.021272885            7 
 3255000   0.72746964   -7.2609724    844.72702  0.021626396  0.021266903            7 
 3256000    0.7237492   -7.2802309    844.79817  0.021621575   0.02126091           19 
 3257000    0.7199903   -7.2841548    845.44675  0.021631531  0.021254902            9 
 3258000   0.72158436   -7.2540364    847.21422    0.0216701  0.021248909           13 
 3259000   0.71849914   -7.2747008    846.34148  0.021641134  0.021242905           12 
 3260000   0.73989614   -7.2652693    847.99548  0.021676776  0.021236936            8 
 3261000   0.73829386    -7.241596    847.01769  0.021645142   0.02123099            6 
 3262000   0.73760994   -7.2639276    845.02054  0.021587486  0.021225028            5 
 3263000   0.73921197   -7.2593756    847.77927  0.021651325  0.021219045           10 
 3264000   0.73111861   -7.2453425     847.6734  0.021641988  0.021213096           11 
 3265000   0.72132982   -7.2507559    848.88993   0.02166641   0.02120713            6 
 3266000   0.73447043   -7.2440557    848.24091  0.021643216  0.021201187           17 
 3267000   0.73600761   -7.2550496    847.44716  0.021616344  0.021195253            9 
 3268000    0.7270442   -7.2740123    847.44061  0.021609563  0.021189284            8 
 3269000   0.73244487   -7.2763149    847.06375  0.021593345  0.021183311            8 
 3270000   0.73465252    -7.295909    845.85601  0.021555963  0.021177324            8 
 3271000   0.72497719   -7.2964118     849.5867  0.021644418  0.021171338           15 
 3272000   0.72215526   -7.2774409    846.98748  0.021571605  0.021165345            9 
 3273000   0.73238662   -7.2635358    846.55066  0.021553892  0.021159389            7 
 3274000   0.72570689   -7.2575894    847.00181  0.021558792  0.021153429            6 
 3275000   0.73259203   -7.2879009    845.07992  0.021503306  0.021147467           12 
 3276000   0.72857338   -7.2762118    845.97951  0.021519625    0.0211415           12 
 3277000   0.74190734   -7.2853936     845.6805  0.021505455  0.021135524            7 
 3278000    0.7271038   -7.3112562    845.76568   0.02150106  0.021129557           12 
 3279000   0.71921666   -7.2916516    846.67079  0.021517505  0.021123564           12 
 3280000    0.7147003   -7.3197506    846.93206  0.021517583   0.02111758            8 
 3281000   0.72644533   -7.2633478    846.19194  0.021492226  0.021111596            8 
 3282000   0.71610939   -7.3014209    847.17473  0.021510632  0.021105622            8 
 3283000   0.74169452   -7.2790487    846.93595  0.021498019  0.021099645            7 
 3284000    0.7305259    -7.278451    848.73796    0.0215372  0.021093673           11 
 3285000    0.7158652   -7.2657122    847.03458  0.021487432  0.021087716           25 
 3286000   0.72402401   -7.2799241    848.00921   0.02150561  0.021081746           12 
 3287000   0.71501102   -7.2817044    846.91294  0.021471274  0.021075756           11 
 3288000   0.72075527   -7.2887263    847.88525  0.021489387  0.021069768           15 
 3289000   0.71692505   -7.2814959    848.54028   0.02149945  0.021063807           18 
 3290000   0.73220921   -7.3015023    847.96148  0.021478254  0.021057855            8 
 3291000   0.73518922   -7.2916806    847.56446  0.021461675  0.021051895            7 
 3292000     0.731271   -7.3113529    848.27758  0.021473207  0.021045922           10 
 3293000    0.7403913   -7.2715745    847.93633  0.021458051  0.021039947           23 
 3294000   0.72315327    -7.263799    848.43958  0.021464268  0.021033992           18 
 3295000   0.72688264   -7.2888911    847.47072   0.02143325  0.021028018            6 
 3296000   0.72609498   -7.2597412     846.7203  0.021407775  0.021022028            9 
 3297000   0.73682669   -7.2981481    847.92152  0.021431643   0.02101604           18 
 3298000   0.71021415   -7.3034856    847.67212  0.021418843  0.021010042           19 
 3299000   0.70301534   -7.2775718    847.98503  0.021420254  0.021004052           18 
 3300000   0.70469874   -7.2878909    847.42439  0.021399606  0.020998075            8 
 3301000   0.72082343   -7.2918949    847.33345  0.021390827  0.020992095            8 
 3302000   0.71678806   -7.3054355     846.3326  0.021359091  0.020986112           20 
 3303000   0.73657673    -7.301282     847.2416  0.021375557  0.020980111           12 
 3304000   0.72780418   -7.2921623    846.48361   0.02134997  0.020974116            8 
 3305000   0.73656372   -7.3252276    847.20638  0.021361734  0.020968107           10 
 3306000    0.7188936    -7.282639    845.73867  0.021318277  0.020962095           14 
 3307000   0.72364192   -7.2672643    848.24491  0.021374985  0.020956121           14 
 3308000   0.70859272   -7.2728492    849.34924  0.021396343  0.020950158           19 
 3309000   0.71382328   -7.2638104    848.25508  0.021362322  0.020944211           20 
 3310000   0.72341847   -7.2704642    849.26809  0.021381372  0.020938247            9 
 3311000   0.73231416   -7.2822524    848.11951  0.021346006  0.020932308           16 
 3312000   0.71025033   -7.2686952    848.90003  0.021359199  0.020926363           12 
 3313000   0.71994748   -7.2789821    849.50358  0.021367934  0.020920425           28 
 3314000   0.72571581   -7.2808634    846.76823  0.021292703  0.020914473           23 
 3315000   0.71891628   -7.2754915     847.9119   0.02131503  0.020908496            8 
 3316000   0.72299052   -7.2980053    848.43872  0.021321841  0.020902511            7 
 3317000   0.69886427   -7.2825052      849.521  0.021342604  0.020896551            7 
 3318000   0.72944251    -7.294158    848.24186  0.021304045  0.020890565            8 
 3319000   0.72887157    -7.296749    845.98199  0.021240886   0.02088458           11 
 3320000   0.70453706   -7.2875982    848.54831  0.021298903  0.020878582           15 
 3321000   0.71757375   -7.2891494    848.11006  0.021281493  0.020872598            5 
 3322000   0.71968888   -7.3136272     845.7393  0.021215616  0.020866586            6 
 3323000    0.7156193   -7.2989594    847.02925   0.02124158  0.020860585           17 
 3324000   0.71645063   -7.3210777    847.28507  0.021241603  0.020854568            7 
 3325000   0.72055548   -7.2705958    847.30119  0.021235619  0.020848585           19 
 3326000   0.71116553    -7.287294     846.6255  0.021212305  0.020842617           10 
 3327000   0.72144305   -7.3005366    848.34777  0.021249068  0.020836654            9 
 3328000   0.71645458    -7.293736    847.52942  0.021222191  0.020830673            6 
 3329000   0.71322331   -7.2845726    849.15637  0.021256543  0.020824727            5 
 3330000   0.71694824   -7.2965955    848.06929  0.021222955  0.020818764           11 
 3331000   0.72946985   -7.2872277    848.18399  0.021219453  0.020812784            4 
 3332000    0.7267353   -7.2912223    848.16268  0.021212552    0.0208068           11 
 3333000   0.73076658   -7.3021189    847.47761  0.021189059  0.020800823            6 
 3334000   0.71974853   -7.3002548    848.57608   0.02121016  0.020794864           16 
 3335000   0.71593961   -7.2918239    850.14253  0.021242942  0.020788911           10 
 3336000   0.70566758   -7.3063749     849.5689  0.021222245  0.020782993           12 
 3337000   0.72747598   -7.2894322    850.55065  0.021240402  0.020777045            7 
 3338000   0.69965998   -7.2982983    848.77698  0.021189759  0.020771102           12 
 3339000   0.71298513   -7.3171376    848.81241  0.021184297  0.020765136           14 
 3340000   0.72113086   -7.3000697     848.2351   0.02116355  0.020759181            6 
 3341000   0.70909673   -7.2963758    847.49252  0.021138694  0.020753222           13 
 3342000   0.72292508   -7.3035285    848.99852  0.021169921  0.020747232            5 
 3343000   0.70630016   -7.3105067    847.69592  0.021131118  0.020741259            8 
 3344000   0.71109606    -7.319132    847.47892  0.021119391  0.020735282           13 
 3345000   0.70953473   -7.3086746    849.80875   0.02117112  0.020729321           10 
 3346000   0.70744673    -7.298352    850.05736  0.021170984  0.020723373            9 
 3347000   0.71476135   -7.3080965    848.78342   0.02113294  0.020717407           12 
 3348000   0.72879397   -7.2871644    847.07732  0.021084163  0.020711464            5 
 3349000   0.71777636   -7.2780157    849.96502  0.021149722  0.020705546            5 
 3350000   0.71455146   -7.2980116     850.8845  0.021166281  0.020699629           11 
 3351000   0.71724623   -7.3291902    850.77147  0.021157154  0.020693699           13 
 3352000   0.72245146   -7.2865595    850.31481  0.021139489  0.020687759            4 
 3353000   0.69935979   -7.2842059    848.47891  0.021087556  0.020681843            5 
 3354000   0.72197832    -7.283375    850.22548  0.021124664  0.020675915            8 
 3355000   0.72062608   -7.2953597    847.34431  0.021046804  0.020669989            9 
 3356000   0.71190839    -7.308142     850.2393  0.021112418  0.020664041           14 
 3357000   0.71353891   -7.3132124    849.73036  0.021093495  0.020658117            9 
 3358000   0.73194392   -7.2885242    850.25969   0.02110035  0.020652209           10 
 3359000   0.71097115   -7.2902981    850.35101  0.021096333  0.020646291            8 
 3360000   0.71367452   -7.2824328    850.17562  0.021085705  0.020640374            8 
 3361000   0.69014608   -7.3100088    850.59339   0.02108979  0.020634437            6 
 3362000   0.71394814   -7.2903416    850.47268  0.021080525  0.020628528            6 
 3363000   0.72335323   -7.2970523     849.5173  0.021050582  0.020622622           14 
 3364000   0.71054068   -7.3023062     849.2338  0.021037302  0.020616695            6 
 3365000   0.72791487   -7.3306567    848.92742  0.021023463  0.020610771            9 
 3366000   0.72092148   -7.3073504    848.33007  0.021002428  0.020604844           12 
 3367000   0.70864768   -7.3141188    847.95725  0.020986963   0.02059892            5 
 3368000   0.71711872   -7.3162646    849.45642  0.021017825  0.020592997            8 
 3369000   0.72823588   -7.3136544    848.23215  0.020981304  0.020587078           22 
 3370000   0.71083239   -7.3090208    848.13703  0.020972726  0.020581162            9 
 3371000   0.71959895    -7.304958     851.0316   0.02103806  0.020575229           12 
 3372000   0.72553472   -7.3178807     850.1611  0.021010308  0.020569296           11 
 3373000   0.71319475   -7.3303324    849.96863  0.020999324  0.020563373           19 
 3374000   0.71194048   -7.3232387    849.90013  0.020991408  0.020557442           11 
 3375000   0.72990636    -7.324622    850.08197  0.020989678  0.020551518            8 
 3376000   0.71485268    -7.318086    850.13888  0.020984866  0.020545591            9 
 3377000   0.70853549   -7.3167352    850.32147  0.020983157   0.02053968           18 
 3378000   0.70121776   -7.3226679    849.01487  0.020944713  0.020533742           11 
 3379000   0.71928042   -7.3341355    849.79297  0.020957704  0.020527812            7 
 3380000   0.71743452    -7.319742    848.98491  0.020931581  0.020521891           11 
 3381000   0.72196328   -7.3083382     848.6633  0.020917463  0.020515965           10 
 3382000   0.70872995   -7.2764876    850.00614  0.020944366  0.020510052            7 
 3383000   0.70903246   -7.3079117    852.31452  0.020995037  0.020504134           10 
 3384000   0.68713397   -7.3021111     850.5301   0.02094489  0.020498237           12 
 3385000   0.71083528   -7.2996473    849.22429  0.020906556  0.020492337            8 
 3386000   0.71076843   -7.3285506    849.56048  0.020908655  0.020486423            4 
 3387000   0.71748289   -7.2954928    852.67544  0.020979122  0.020480504           11 
 3388000   0.71436372   -7.3036454    850.52962   0.02092015  0.020474615            7 
 3389000   0.71627629   -7.3156129     852.4639   0.02096154  0.020468719            9 
 3390000   0.71310678    -7.296367    850.72883  0.020912705  0.020462845            8 
 3391000   0.69213255   -7.3010741    849.73366  0.020882082  0.020456953           21 
 3392000   0.71158299   -7.2931069    850.43738  0.020893214  0.020451061           13 
 3393000   0.72646918   -7.3131695    851.62371  0.020916193  0.020445178           11 
 3394000   0.69793376   -7.3184555    851.83027  0.020915102  0.020439284           16 
 3395000    0.7000289   -7.3272431     849.9524  0.020862847  0.020433394           10 
 3396000   0.70244302   -7.3202917    851.01105  0.020882682  0.020427506           23 
 3397000   0.72303638   -7.3185606    851.09696  0.020878642  0.020421612           28 
 3398000   0.70601133   -7.3196752    848.55193  0.020810083  0.020415728           19 
 3399000   0.71638394   -7.3039957    849.63486   0.02083051  0.020409863           13 
 3400000   0.71698975   -7.2783193    852.78908  0.020901693  0.020404013           29 
 3401000   0.70747172   -7.2924481    851.60924  0.020866638  0.020398158           13 
 3402000   0.71133666   -7.3215837    852.78943  0.020889414  0.020392341           10 
 3403000   0.71340467   -7.3209355    850.69034  0.020831872  0.020386507            5 
 3404000    0.6982394   -7.2902676    852.58613  0.020872163  0.020380697            7 
 3405000   0.70307485   -7.3032316    853.00269  0.020876228  0.020374889            4 
 3406000   0.69616964   -7.3027363    851.65535  0.020837134  0.020369061           11 
 3407000   0.71406196   -7.3339963    852.43406  0.020850065  0.020363212           18 
 3408000    0.7150875   -7.3196298    852.49701  0.020845486  0.020357361           16 
 3409000   0.71588683    -7.317654    849.45137  0.020764921  0.020351506           11 
 3410000   0.69684981   -7.3181089    852.08233  0.020823126  0.020345648           13 
 3411000   0.69145198   -7.3059362    852.28267  0.020821916   0.02033978           12 
 3412000   0.69040861   -7.3212669     851.6764  0.020801006  0.020333939           14 
 3413000    0.7007056   -7.3355765    851.90449  0.020800481   0.02032809           10 
 3414000   0.70332798   -7.3017436    851.18308  0.020776779  0.020322239            9 
 3415000   0.70533238   -7.3335512    850.75071  0.020760144  0.020316387            7 
 3416000   0.72087491   -7.3316336    851.04775  0.020761313   0.02031053           15 
 3417000    0.7141441   -7.3251666    850.83141  0.020749961  0.020304676           17 
 3418000   0.71040206   -7.3641383    851.05703  0.020749391  0.020298829            9 
 3419000   0.71018849   -7.3351673    850.91159  0.020739778  0.020292986            9 
 3420000   0.71055246    -7.335924    850.19815  0.020716329  0.020287132           12 
 3421000   0.71084467   -7.3202833    852.43658    0.0207648  0.020281293           15 
 3422000   0.69064872   -7.3170501    851.40278  0.020733557   0.02027544           12 
 3423000   0.70601499   -7.3285493    850.44744  0.020704242  0.020269587           14 
 3424000   0.69018297   -7.3327047    850.66131    0.0207034  0.020263711           10 
 3425000   0.69377572   -7.3029509    852.01034  0.020730179  0.020257854           19 
 3426000   0.71071632   -7.3327602    851.58159  0.020713699  0.020251994           14 
 3427000   0.69152165   -7.3291877    853.37683  0.020751309  0.020246143           18 
 3428000   0.70170039   -7.3209693    851.63882  0.020703005  0.020240272           12 
 3429000   0.70465722   -7.3389725    850.90538  0.020679143  0.020234403            6 
 3430000   0.69667233    -7.325667    851.56065  0.020689034  0.020228524           10 
 3431000   0.72332217   -7.3314654    852.21246  0.020698836  0.020222675           11 
 3432000   0.69851068   -7.3039041    851.09046  0.020665561  0.020216847           14 
 3433000   0.71761491   -7.3357835    852.62124    0.0206967  0.020211012           18 
 3434000   0.70022692   -7.3203874    853.60894  0.020714641   0.02020518           19 
 3435000   0.69554922   -7.3038267    851.97224  0.020668905  0.020199331           16 
 3436000   0.70776425   -7.3138503    853.15277  0.020691521  0.020193487           15 
 3437000   0.72196548   -7.3322052    852.05945  0.020658992  0.020187655           15 
 3438000   0.71666479   -7.3151932    851.95459  0.020650441  0.020181836            4 
 3439000   0.69564405   -7.3085818    851.96449  0.020644676  0.020176015            9 
 3440000   0.71270427   -7.3141187    852.56719  0.020653275  0.020170192           11 
 3441000   0.70100633   -7.3312128    852.01203  0.020633828  0.020164361            9 
 3442000    0.7099117   -7.3043468    851.94487  0.020626208  0.020158523            7 
 3443000   0.71354389   -7.3269885    852.23415  0.020627218  0.020152677           12 
 3444000   0.71175763   -7.3011868    853.17157  0.020643911  0.020146861           13 
 3445000   0.69700805   -7.3336368    850.80529  0.020580679  0.020141024           14 
 3446000   0.70484663     -7.33326    852.71252  0.020620829  0.020135173           15 
 3447000   0.71892795   -7.3268776    850.14596  0.020552798  0.020129326           21 
 3448000   0.72084038   -7.3164927    853.55413  0.020629208  0.020123471            8 
 3449000   0.68150769   -7.3057009    851.97563  0.020585088  0.020117646            9 
 3450000   0.69429164   -7.3578283    851.96937   0.02057897  0.020111812           15 
 3451000   0.69276599    -7.327114     853.1521  0.020601567  0.020105976           13 
 3452000    0.7101316   -7.3385905    851.54439  0.020556788  0.020100137           27 
 3453000   0.70337225   -7.3165802    852.14745  0.020565389  0.020094297           20 
 3454000   0.67790212   -7.3236672    852.06323  0.020557403  0.020088451           15 
 3455000   0.70087142   -7.3231429    851.22034  0.020531122  0.020082613           16 
 3456000   0.70514892   -7.3372818    850.47862  0.020507297  0.020076774            7 
 3457000   0.70110389   -7.3307865    852.49294  0.020549921  0.020070913           14 
 3458000   0.68879033   -7.3171868    852.26407  0.020538463  0.020065077           13 
 3459000    0.6927621    -7.327899    851.13214  0.020505255  0.020059252           18 
 3460000   0.68951446   -7.3264532    851.59875  0.020510567  0.020053422           11 
 3461000   0.69739567   -7.3020512    852.31056   0.02052178    0.0200476           15 
 3462000   0.71256487   -7.3165672    852.93593  0.020530905  0.020041785            7 
 3463000   0.69223814   -7.3289479    852.65167  0.020518136  0.020035965           12 
 3464000   0.69121653   -7.3388363    851.60063  0.020486928  0.020030158            8 
 3465000   0.70544643   -7.3295414    852.38429  0.020499863  0.020024345           10 
 3466000   0.71198315   -7.3329775    852.10764  0.020487297  0.020018543           11 
 3467000     0.697761   -7.3276527    852.44527  0.020489503  0.020012701            8 
 3468000   0.68419606   -7.3330709    853.35412  0.020505433  0.020006875           13 
 3469000   0.69399875   -7.3279558    852.45684  0.020477968  0.020001049           30 
 3470000   0.70209361   -7.3323888    850.77916  0.020431776  0.019995208           20 
 3471000   0.69640878   -7.3639182    851.15059  0.020434807  0.019989372           18 
 3472000   0.67722552   -7.3379592    853.18237  0.020477688  0.019983555           14 
 3473000   0.69787803   -7.3129732    853.32427  0.020475196   0.01997774           17 
 3474000   0.68288946   -7.3608888    851.83972  0.020433691  0.019971925           11 
 3475000   0.69832832   -7.3495917    852.83577  0.020451697  0.019966101           10 
 3476000   0.71026719   -7.3768435     852.6795  0.020442067  0.019960278           23 
 3477000   0.68284979   -7.3399091    852.71679  0.020437082  0.019954456           15 
 3478000   0.70324947   -7.3402883    851.77557  0.020408654  0.019948633           16 
 3479000    0.7069564   -7.3435914    853.09709  0.020434442  0.019942805           26 
 3480000   0.68323534    -7.347389    850.45456  0.020365291  0.019936968           20 
 3481000    0.6979631   -7.3430034    851.98277  0.020396025  0.019931131           13 
 3482000   0.69326267   -7.3498531    853.01069  0.020414769  0.019925302           18 
 3483000   0.67319929   -7.3581851    853.86513   0.02042935  0.019919484           13 
 3484000   0.69292543   -7.3529629     851.8069  0.020374256  0.019913652           16 
 3485000   0.68863607   -7.3415535    852.00655  0.020373184  0.019907837           14 
 3486000   0.69828587   -7.3647502    852.96504  0.020390253  0.019902012           17 
 3487000   0.69002464   -7.3480924    853.30398  0.020392505  0.019896181           17 
 3488000   0.70103078   -7.3306151    852.40853  0.020365265  0.019890347           12 
 3489000   0.69204522   -7.3579116    852.02297  0.020350219  0.019884506           13 
 3490000   0.69567818   -7.3356057    852.02164  0.020344356  0.019878669            6 
 3491000   0.68952891   -7.3200844    852.25604  0.020344124  0.019872824           14 
 3492000   0.68901006   -7.3525835    850.72242    0.0203017  0.019866987           13 
 3493000    0.6832472   -7.3533415    853.99838  0.020374043  0.019861149           20 
 3494000   0.67356366   -7.3673647     851.8228  0.020316323  0.019855301            8 
 3495000   0.69475661   -7.3499162     851.8454  0.020311049  0.019849448           27 
 3496000    0.7041418   -7.3582896    851.07392   0.02028685   0.01984359           58 
 3497000   0.68152571   -7.3551991    851.20228  0.020284107  0.019837715           25 
 3498000   0.69438468   -7.3473244    851.42442  0.020283601  0.019831868           13 
 3499000   0.68469241   -7.3438875     852.1611  0.020295349  0.019826033            6 
 3500000   0.68987585   -7.3509211    852.96602  0.020308715   0.01982021            7 
 3501000   0.70204343   -7.3494992    852.18711  0.020284374  0.019814389           13 
 3502000   0.70084315   -7.3622837    851.00352  0.020250417  0.019808572           16 
 3503000   0.68151859   -7.3260791    852.74338  0.020286026  0.019802755            8 
 3504000   0.68280857   -7.3708002    851.34439  0.020246965  0.019796915            5 
 3505000   0.70369183    -7.343936    850.36275  0.020217849  0.019791068           17 
 3506000   0.69444928   -7.3558071    852.37247  0.020259851  0.019785238            8 
 3507000   0.68245937   -7.3532508    849.85329  0.020194214  0.019779403           11 
 3508000   0.68211861   -7.3651929    852.02115  0.020239955  0.019773573            5 
 3509000   0.68398203   -7.3477205    852.06458  0.020235218  0.019767743            7 
 3510000   0.68252261   -7.3528133    850.86008  0.020200857  0.019761906           15 
 3511000   0.68270235   -7.3626036    852.01422  0.020222496   0.01975606           17 
 3512000   0.70189181   -7.3400939    853.66929   0.02025601   0.01975022           16 
 3513000   0.69771582    -7.369077    853.16435  0.020238266  0.019744382           10 
 3514000   0.69179598   -7.3567762    851.35134  0.020189512   0.01973854           13 
 3515000   0.67229611   -7.3870901    851.11435   0.02017815  0.019732708           11 
 3516000   0.68499739   -7.3757017    850.54136   0.02015883  0.019726851           12 
 3517000   0.69120564   -7.3617664    851.13367  0.020167133  0.019721008           18 
 3518000     0.691569   -7.3471484    850.00602  0.020134689  0.019715174            8 
 3519000   0.68884837    -7.364035    851.85648  0.020172788  0.019709327            5 
 3520000   0.68693772   -7.3588218    853.77917  0.020212575  0.019703508            9 
 3521000   0.69369043   -7.3616876    852.31346  0.020172145  0.019697693           17 
 3522000     0.686344   -7.3596561    851.24613  0.020141163  0.019691883           23 
 3523000   0.68748404   -7.3641737    850.58035  0.020119698  0.019686057           17 
 3524000   0.67591855   -7.3616712    851.05406  0.020125191  0.019680237           12 
 3525000   0.69407062   -7.3653253    854.60722   0.02020348  0.019674431           10 
 3526000   0.69419518    -7.330288    852.31934  0.020143679  0.019668653           11 
 3527000   0.69686986   -7.3841084    852.41637   0.02014026  0.019662858            8 
 3528000   0.67390808   -7.3267871    853.16906   0.02015233  0.019657069           10 
 3529000     0.688732   -7.3554907    853.18836  0.020147076  0.019651298           24 
 3530000   0.69812413   -7.3648052    853.00624  0.020137069  0.019645524           14 
 3531000   0.65249345   -7.3900737     851.0689  0.020085644  0.019639735           10 
 3532000    0.6977664   -7.3483959    854.43998  0.020159494  0.019633953            9 
 3533000   0.69081823   -7.3585348     853.5294   0.02013231  0.019628175            9 
 3534000   0.68963811   -7.3515035    853.18719  0.020118544  0.019622385           11 
 3535000   0.69091664   -7.3626777    852.26154  0.020091031  0.019616586            7 
 3536000   0.68526438    -7.371638    853.39407   0.02011204  0.019610796            5 
 3537000   0.68475038   -7.3576545    852.63689  0.020088514  0.019605009            9 
 3538000   0.68438868   -7.4060675    853.46152  0.020102259  0.019599225           16 
 3539000   0.69812819   -7.3521842    852.57201  0.020075634  0.019593447           21 
 3540000   0.68338984   -7.3610218    854.07877  0.020105432  0.019587675            7 
 3541000   0.66918527   -7.3635593    853.06395  0.020075872  0.019581906           10 
 3542000    0.6864222   -7.3821248    854.07514  0.020093995   0.01957614           11 
 3543000   0.68883294   -7.3735586    852.42589  0.020049532  0.019570369           10 
 3544000   0.69308975   -7.3483227    854.38709   0.02008999  0.019564612           22 
 3545000   0.68054684   -7.3374787    854.00605  0.020075366  0.019558891            9 
 3546000   0.67516084   -7.3523791    852.88087  0.020043262  0.019553195           12 
 3547000   0.69962292   -7.3412529    855.38162  0.020096364  0.019547481           10 
 3548000   0.67657479   -7.3285648    853.03463  0.020035575  0.019541786           11 
 3549000   0.67968665   -7.3366915    854.50742  0.020064512  0.019536082           10 
 3550000   0.70598392   -7.3376235    851.74852  0.019994097   0.01953035           12 
 3551000    0.6931913   -7.3506358    854.87482  0.020061833  0.019524627           14 
 3552000   0.69922427   -7.3507374    851.82293  0.019984585   0.01951887            9 
 3553000   0.69096356   -7.3667269    854.48299   0.02004135  0.019513117           13 
 3554000    0.6938982   -7.3679847    854.68268  0.020040393  0.019507379           21 
 3555000   0.67825246   -7.3749998    855.43646  0.020052425  0.019501641           16 
 3556000   0.68882872   -7.3475394    853.56055  0.020002825  0.019495913           12 
 3557000   0.68325333   -7.3485148    854.19381  0.020012037  0.019490174            8 
 3558000   0.67559577   -7.3621959    852.92777  0.019976761  0.019484415            6 
 3559000   0.68409006   -7.3856758    853.78002  0.019991103  0.019478668           16 
 3560000   0.67747227   -7.3636327    854.74508  0.020008078  0.019472909           12 
 3561000    0.6791694   -7.3781903    853.30317  0.019968716  0.019467142            8 
 3562000   0.69200836   -7.3820204    854.10478  0.019981864  0.019461376           14 
 3563000   0.68471361   -7.3796791    854.03829    0.0199747  0.019455605           12 
 3564000    0.6794823   -7.3940136    853.14314  0.019948165  0.019449822           15 
 3565000   0.66981165   -7.4250241    851.26622  0.019898696  0.019444044            7 
 3566000    0.6746992   -7.3715837    854.25531  0.019962968  0.019438271           15 
 3567000   0.67933523   -7.3932843    851.90185  0.019902389  0.019432502           14 
 3568000   0.68445672   -7.3954147    852.97071  0.019921775  0.019426733           12 
 3569000    0.6759679   -7.3832078    853.20638  0.019921696  0.019420955           18 
 3570000   0.68811268   -7.3768804    852.02438  0.019888524  0.019415186           19 
 3571000   0.68013838   -7.3738805    853.29084  0.019912509  0.019409431           17 
 3572000    0.6861373   -7.3910118    852.57804  0.019890305  0.019403672           13 
 3573000   0.67357242   -7.3843223    853.41713  0.019904308  0.019397924           13 
 3574000   0.67947959   -7.3711514     853.6585  0.019904367  0.019392185           18 
 3575000   0.67657825   -7.3785052    852.24259  0.019865795  0.019386427           19 
 3576000   0.68259463    -7.378255    852.84008  0.019874163  0.019380702           13 
 3577000   0.68563507   -7.3747098    853.39539  0.019881544  0.019374983           12 
 3578000   0.68289729   -7.3627217    852.58444    0.0198571  0.019369266           14 
 3579000   0.67809915   -7.3907369    854.52378  0.019896707  0.019363533           10 
 3580000   0.69284882   -7.4019575    853.99033  0.019878732  0.019357797            9 
 3581000   0.68080215    -7.391419    854.28205   0.01987997  0.019352065           11 
 3582000   0.67927721   -7.3574302    853.75538  0.019862167  0.019346362            7 
 3583000   0.68127896   -7.3705758      854.355  0.019870569  0.019340648           38 
 3584000   0.67423542   -7.3656563    854.43324  0.019866844   0.01933494           31 
 3585000   0.68127025   -7.3830832    852.18384  0.019809015  0.019329219           25 
 3586000   0.68540047    -7.383807    853.88784   0.01984309  0.019323494            7 
 3587000   0.69041384   -7.3860887     854.6661  0.019855638  0.019317783            9 
 3588000   0.67792865    -7.381021    853.07475  0.019813144  0.019312054           16 
 3589000   0.67066375   -7.3671777    852.77071  0.019800564  0.019306331           14 
 3590000   0.66826526   -7.3812247    852.20605  0.019781942  0.019300588            9 
 3591000   0.69027424   -7.3908785     852.2265  0.019776908  0.019294836           20 
 3592000    0.6845208   -7.3867199    853.45843  0.019799982   0.01928908           24 
 3593000     0.685536    -7.394275    853.19213  0.019788295  0.019283327           13 
 3594000   0.67914906   -7.4016703    853.08328  0.019780265  0.019277566           16 
 3595000   0.67439437   -7.3898125      852.347  0.019757696  0.019271813           30 
 3596000   0.67549102   -7.4036655    852.74862  0.019761509  0.019266064           28 
 3597000   0.67582713    -7.382961    852.03918  0.019739579   0.01926033           13 
 3598000   0.67706788   -7.3822528    851.54373  0.019722617  0.019254594           23 
 3599000   0.66924327   -7.3742799    852.94171  0.019749507  0.019248846           20 
 3600000   0.66099496   -7.3867451    852.07789  0.019724025   0.01924312           34 
 3601000   0.66732711   -7.3982786    853.40417   0.01974924  0.019237376           16 
 3602000   0.67449748   -7.3711366    853.78304  0.019752523  0.019231652           23 
 3603000   0.67256638   -7.3827371    851.35153  0.019690802  0.019225922           13 
 3604000   0.67944463   -7.3908566    853.64299  0.019738323  0.019220193           16 
 3605000   0.69213363   -7.4104205    851.18995  0.019676143  0.019214465           11 
 3606000    0.6777668   -7.4074136    853.79414  0.019730868   0.01920873            8 
 3607000   0.65941084   -7.4050262    854.10488  0.019732577  0.019203004           28 
 3608000    0.6686687   -7.4074158    853.16371   0.01970537  0.019197273           13 
 3609000   0.68081898    -7.407078    852.83017  0.019692209  0.019191534           22 
 3610000   0.67752081   -7.3883281    853.07842  0.019692484  0.019185796           18 
 3611000   0.67703891   -7.4165422    852.69847  0.019678263  0.019180062           17 
 3612000   0.68846413   -7.3870517    853.12789  0.019682722  0.019174338           21 
 3613000   0.68605524   -7.3878481    853.40526  0.019683671   0.01916862           15 
 3614000   0.67470815   -7.4037868    852.38712  0.019654748  0.019162896           22 
 3615000   0.66245034   -7.3917431    852.78424  0.019658466  0.019157181           23 
 3616000   0.67241551    -7.411869    852.92974  0.019656382  0.019151461           23 
 3617000   0.66999393   -7.3884058    852.26786  0.019635699  0.019145736           26 
 3618000    0.6819445   -7.3980975    852.10921  0.019626617  0.019140014           26 
 3619000   0.67230555   -7.4139686    851.93849  0.019617263  0.019134281           31 
 3620000   0.67178133   -7.4091375    850.60121  0.019581059  0.019128548           22 
 3621000   0.69492353   -7.4102783    854.09963  0.019656164  0.019122817           23 
 3622000   0.67369096   -7.3891711    853.09447  0.019627611  0.019117096            7 
 3623000    0.6741191    -7.421091    851.74381  0.019591126  0.019111369           13 
 3624000   0.68624505   -7.3930384    852.36501  0.019600005   0.01910565           20 
 3625000   0.66869377   -7.4184764    852.11526  0.019588857  0.019099931           20 
 3626000   0.68549195   -7.4038402    852.14107  0.019584047  0.019094208           18 
 3627000   0.67164253   -7.3869359    852.65751  0.019590513    0.0190885           17 
 3628000   0.67143339   -7.3976045    852.21582  0.019574968  0.019082805           36 
 3629000   0.67511514   -7.4256468     853.7685  0.019605229  0.019077111           17 
 3630000   0.66605536   -7.3825124     853.7956   0.01960045  0.019071414           36 
 3631000   0.66828998   -7.3835317    855.04281  0.019623676  0.019065725           15 
 3632000   0.66155601    -7.386941    854.56586   0.01960733  0.019060038           28 
 3633000   0.68457937   -7.4066514    853.54179  0.019578443  0.019054345           28 
 3634000   0.68471803   -7.4107685    853.08126  0.019562495  0.019048643           36 
 3635000   0.66598463   -7.3993194    853.05636  0.019556542  0.019042926           25 
 3636000   0.67379833   -7.3937987    853.55023  0.019562482  0.019037235           19 
 3637000   0.67371174   -7.4126392    853.02777  0.019545133  0.019031548           29 
 3638000   0.68421596   -7.3988339    854.02682  0.019562645   0.01902585           18 
 3639000   0.67178584    -7.409709    852.52556   0.01952289  0.019020157           21 
 3640000   0.66521257   -7.3957412    853.02694  0.019529005  0.019014454           23 
 3641000   0.66839047   -7.4572512    852.28396  0.019506636  0.019008739           12 
 3642000   0.67009319   -7.4265855    854.60924  0.019554486  0.019003013           10 
 3643000   0.65784252   -7.4074673    854.14542  0.019538508    0.0189973           12 
 3644000   0.65764126   -7.4176929    851.56275  0.019474084  0.018991571           29 
 3645000   0.65544487   -7.4111357     853.7121  0.019517881  0.018985858           31 
 3646000   0.68219286   -7.4401665    853.69284  0.019512087  0.018980138           34 
 3647000   0.67825614   -7.4065211    852.56281  0.019480916  0.018974411           22 
 3648000   0.67678619   -7.3973609    852.83179   0.01948172  0.018968696           18 
 3649000   0.65614173   -7.4277552    852.67795  0.019472868  0.018962993           32 
 3650000   0.67989872   -7.4127157    853.96803  0.019496987  0.018957299           21 
 3651000   0.66300802    -7.390012    853.10309  0.019471905   0.01895161           28 
 3652000   0.67411716   -7.4041531    853.48313  0.019475245  0.018945928           28 
 3653000   0.65718531    -7.410564     853.0607  0.019460277   0.01894023           17 
 3654000   0.66855724   -7.4169976    854.03547  0.019477182  0.018934546           36 
 3655000    0.6622615   -7.4134864    852.11417  0.019428048  0.018928849           11 
 3656000    0.6562175   -7.4184313    852.81658  0.019438744  0.018923156           21 
 3657000   0.64978249   -7.4083577    851.25711  0.019397892  0.018917461           18 
 3658000   0.66374378   -7.4306019    854.76563  0.019472518  0.018911747           21 
 3659000   0.65670421   -7.4155025    853.94663  0.019448543  0.018906051           14 
 3660000    0.6647972   -7.4050539    854.63145  0.019458822  0.018900345           33 
 3661000   0.65219349   -7.4034854    853.09905  0.019418625  0.018894638           41 
 3662000   0.66130061    -7.437617    853.05725  0.019412371  0.018888936           49 
 3663000   0.66687952   -7.4092269     852.8442  0.019402225  0.018883237           25 
 3664000   0.67096326   -7.4201032    853.15001  0.019403885  0.018877535           36 
 3665000   0.65716181   -7.4064501    853.66924  0.019410397  0.018871835           18 
 3666000   0.66015497   -7.4203619    852.99332  0.019389737  0.018866134           22 
 3667000   0.65525743   -7.4052679    853.21034  0.019389381  0.018860444           28 
 3668000   0.66279302   -7.4096567    852.40946    0.0193659  0.018854767           17 
 3669000   0.65556276    -7.408323    853.61029  0.019387896  0.018849087           31 
 3670000   0.66676132   -7.4086977    853.44566  0.019378875  0.018843407           26 
 3671000   0.65569905   -7.4183509    851.23046   0.01932331  0.018837723           24 
 3672000   0.65123406    -7.417277    852.09568  0.019337683   0.01883204           22 
 3673000   0.66027213    -7.415952    851.83818  0.019326576  0.018826362           12 
 3674000   0.66192041   -7.4087435    853.66115  0.019362665  0.018820682           15 
 3675000    0.6636041    -7.409852     853.9412  0.019363746  0.018815006           11 
 3676000   0.67427213    -7.412987    853.09268  0.019339243  0.018809322           14 
 3677000   0.67783259   -7.4246029    852.83199  0.019328075   0.01880365            8 
 3678000   0.66260927   -7.3911243    853.08689  0.019328596  0.018797964           17 
 3679000   0.67799674   -7.4297415    853.04263  0.019322339  0.018792294            8 
 3680000   0.66221058   -7.4055397    853.77823  0.019333746  0.018786624           16 
 3681000   0.66160082   -7.4293025    852.66234  0.019303232  0.018780964           15 
 3682000   0.67271258   -7.4235244    851.92109  0.019281212  0.018775296           13 
 3683000   0.66940399   -7.4090093     851.7449  0.019271991  0.018769626           22 
 3684000   0.66340821   -7.4153347    853.13584  0.019298223  0.018763942           18 
 3685000    0.6658389   -7.4070519    852.31163  0.019274347  0.018758259           13 
 3686000   0.67764641   -7.4057268    854.44278  0.019317299  0.018752587           16 
 3687000   0.65148065   -7.4135139    854.06804   0.01930359  0.018746914           11 
 3688000   0.65975207   -7.4028842     852.4074  0.019260832  0.018741254            8 
 3689000   0.65277143   -7.4119457    852.51272   0.01925799   0.01873557            8 
 3690000   0.65533968   -7.4220133    853.46789  0.019274343   0.01872989           14 
 3691000   0.66861658   -7.4447378     852.7733  0.019253439  0.018724203           10 
 3692000   0.67327568   -7.4042992    852.92892  0.019251736  0.018718525           16 
 3693000   0.66443932   -7.4153046    851.86502  0.019222516   0.01871283           39 
 3694000   0.66523868    -7.451501    851.19293  0.019202151  0.018707142           10 
 3695000   0.67080649    -7.459711    853.47389  0.019248396  0.018701441           16 
 3696000   0.66438492   -7.4480512    853.88699  0.019252502  0.018695758           10 
 3697000   0.65306058   -7.4548294    851.86738  0.019201771   0.01869009           17 
 3698000   0.65680026   -7.4477563    852.86081  0.019218966  0.018684418           11 
 3699000   0.65596659   -7.4579878     853.8955   0.01923708  0.018678751           13 
 3700000   0.64579674   -7.4158604    852.94372  0.019210444  0.018673085           16 
 3701000   0.67043575   -7.4032577    853.76761  0.019223805  0.018667436            7 
 3702000   0.66960834   -7.4373742    852.76435  0.019196028  0.018661795           10 
 3703000   0.65409274   -7.4193154     853.8779  0.019215904  0.018656143           13 
 3704000   0.65828211   -7.4292735    853.54838  0.019203302  0.018650475           12 
 3705000   0.64882448   -7.4325596    852.34632  0.019171082  0.018644823           22 
 3706000   0.65163682   -7.4051404    852.53308  0.019170109  0.018639176           18 
 3707000   0.67466404   -7.4385996    854.62977  0.019212071  0.018633545           16 
 3708000   0.64662242   -7.4277779    855.07879  0.019216981  0.018627895           11 
 3709000   0.65400849   -7.4494381    851.88502  0.019140043  0.018622237           33 
 3710000   0.67067447   -7.4409086    853.49284  0.019170998  0.018616591           22 
 3711000   0.65036062   -7.4451984    852.66242  0.019147184  0.018610938           16 
 3712000   0.66720906    -7.432392    854.17127    0.0191759  0.018605297           17 
 3713000   0.64596846   -7.4276198    853.05193  0.019145613  0.018599663           27 
 3714000   0.65284252   -7.4587688    851.77267  0.019111754  0.018594007           13 
 3715000   0.64509042   -7.4350674    854.16033  0.019160169  0.018588348           22 
 3716000   0.66230328   -7.4276193    852.78608  0.019124194  0.018582701           15 
 3717000   0.65397367   -7.4554566    854.27734  0.019152483  0.018577055           29 
 3718000   0.65189847   -7.4419113    853.54441  0.019130904  0.018571424           18 
 3719000    0.6452007   -7.4352306    853.54136  0.019125691  0.018565785           26 
 3720000    0.6610681   -7.4384306    850.83822  0.019059996  0.018560137           49 
 3721000   0.64994143   -7.4409488    853.25222  0.019108936  0.018554487           28 
 3722000   0.65303311   -7.4409441    853.52638   0.01910994  0.018548825           30 
 3723000   0.64270192   -7.4472627    851.79489  0.019066051  0.018543157           27 
 3724000   0.66763431   -7.4316075    854.89747  0.019130359  0.018537507           42 
 3725000   0.65278329   -7.4650711    852.69863  0.019076032  0.018531851           34 
 3726000   0.65663614   -7.4437165    852.09302  0.019057368  0.018526191           32 
 3727000   0.66205964   -7.4558945    852.40356  0.019059198  0.018520549           49 
 3728000   0.67008252   -7.4355734    853.52686  0.019079195  0.018514918           26 
 3729000   0.65634568   -7.4344984    852.62533  0.019053932  0.018509272           31 
 3730000   0.66884807   -7.4441064    852.90472  0.019055065   0.01850364           21 
 3731000   0.64769217   -7.4329229    853.68797  0.019067452  0.018498022           27 
 3732000   0.65751841   -7.4438574    853.68533  0.019062284  0.018492393           23 
 3733000   0.65885012   -7.4299769    852.67482   0.01903462  0.018486763           23 
 3734000   0.65212329   -7.4592251    852.45522  0.019024621  0.018481119           27 
 3735000   0.67666153   -7.4466963    854.62574  0.019067955  0.018475505           21 
 3736000   0.65753953   -7.4496607    854.54397  0.019061027  0.018469893           16 
 3737000   0.66014115   -7.4344287    853.43777  0.019031259  0.018464284           31 
 3738000   0.65928967     -7.43662    854.04638  0.019039736  0.018458681           13 
 3739000   0.65856311   -7.4149881    854.16691   0.01903733  0.018453075           20 
 3740000   0.66624271   -7.4359606    855.10319  0.019053101   0.01844748           19 
 3741000   0.67219467   -7.4383816    853.26033  0.019006957  0.018441859           29 
 3742000    0.6331092   -7.4429325    852.48065  0.018984515  0.018436232           36 
 3743000   0.65253321   -7.4432567    852.08513  0.018970637  0.018430603           21 
 3744000   0.64832965   -7.4265599    852.55713  0.018976076  0.018424989           20 
 3745000    0.6470386   -7.4453508    854.42877  0.019012656  0.018419369           25 
 3746000   0.63857505   -7.4283223    854.51325   0.01900946  0.018413755           19 
 3747000   0.64463692   -7.4398434    854.07285  0.018994592  0.018408159           37 
 3748000   0.64591368   -7.4385831    853.14562  0.018968908  0.018402565           13 
 3749000   0.62940603   -7.4427832    853.34433  0.018968266  0.018396952           17 
 3750000   0.64330947   -7.4373411    853.20374  0.018960083  0.018391349           24 
 3751000   0.65573806   -7.4275097    856.35889  0.019025124  0.018385752           16 
 3752000   0.65498574   -7.4539864    853.31261  0.018952394   0.01838016           14 
 3753000   0.65263446   -7.4594411    852.53832  0.018930152  0.018374555            7 
 3754000   0.64345948   -7.4323608    855.20179  0.018984234  0.018368959           10 
 3755000   0.63957455   -7.4448827    854.76777  0.018969547  0.018363371            9 
 3756000   0.63834233   -7.4383528    852.58116  0.018915982  0.018357788           11 
 3757000   0.65184925   -7.4537453    853.30225  0.018926942  0.018352195           19 
 3758000   0.65473086   -7.4543341    855.24339   0.01896495  0.018346609           19 
 3759000   0.64802599   -7.4586117    852.36622  0.018896121   0.01834101           12 
 3760000    0.6485898   -7.4773651    853.79688  0.018922803  0.018335401           25 
 3761000   0.64562113   -7.4662902    855.60621  0.018957862  0.018329796           34 
 3762000   0.65572667   -7.4326778    854.42796  0.018926722  0.018324211           18 
 3763000    0.6461077   -7.4193914    852.91005  0.018888078  0.018318643           19 
 3764000   0.64902415   -7.4613463    853.79055  0.018902554  0.018313066           16 
 3765000   0.64713793   -7.4457227     852.0158  0.018858251   0.01830749           20 
 3766000   0.64985075   -7.4320979    854.03789  0.018897988  0.018301909           25 
 3767000   0.65511946   -7.4399927    852.48634  0.018858648   0.01829633           16 
 3768000   0.65478292   -7.4460742    853.57217  0.018877658  0.018290754           40 
 3769000   0.65264682    -7.446403    851.81173  0.018833725  0.018285169           28 
 3770000   0.64786306   -7.4617992    852.31153  0.018839777  0.018279575           30 
 3771000   0.65889254   -7.4764451    852.31161  0.018834783  0.018273979           22 
 3772000   0.64901951   -7.4791173    851.76356  0.018817682  0.018268381           27 
 3773000   0.64680435   -7.4814143    853.47848  0.018850572  0.018262789           16 
 3774000   0.64704345   -7.4456427    853.86225  0.018854051  0.018257208           25 
 3775000   0.64496909   -7.4615972    851.82318  0.018804044  0.018251637           24 
 3776000   0.65917217   -7.4549214    852.60206  0.018816253  0.018246048           35 
 3777000   0.65225701   -7.4484692    853.60643  0.018833431  0.018240477           12 
 3778000   0.65108801    -7.462026    852.17877  0.018796955  0.018234916           16 
 3779000   0.63495837   -7.4384555    853.23844  0.018815349  0.018229346           10 
 3780000    0.6397405   -7.4537862    854.26485  0.018832999  0.018223781           12 
 3781000   0.65463074   -7.4611509    853.62279  0.018813867  0.018218218           22 
 3782000   0.64086551   -7.4382493    854.00524   0.01881732  0.018212666           24 
 3783000    0.6503509   -7.4509715    853.49039  0.018801004  0.018207114           13 
 3784000    0.6462125   -7.4400321    852.88405  0.018782683  0.018201557           10 
 3785000    0.6540152   -7.4531379    854.14628   0.01880551     0.018196           26 
 3786000   0.65368706   -7.4457635    855.30715  0.018826095  0.018190451           26 
 3787000   0.64592259   -7.4494907    853.58084  0.018783136  0.018184909           32 
 3788000   0.64144862   -7.4583879    853.23285  0.018770522  0.018179362           23 
 3789000   0.64287219   -7.4548924    853.13812  0.018763485  0.018173816           25 
 3790000    0.6325103   -7.4551489    853.03171  0.018756194  0.018168265           55 
 3791000   0.64444852   -7.4341948    852.84668  0.018747179  0.018162714           36 
 3792000   0.64903124   -7.4556641    852.57334  0.018736229  0.018157158           20 
 3793000   0.64517704    -7.427409    854.68971  0.018777786  0.018151607           11 
 3794000   0.64405502   -7.4367396    854.11916  0.018760305  0.018146063           48 
 3795000   0.63639751   -7.4683884    853.36013  0.018738694  0.018140502           25 
 3796000   0.64370839    -7.458826    853.29369  0.018732299  0.018134942           14 
 3797000   0.63817131   -7.4472193    852.70506  0.018714447  0.018129393            8 
 3798000    0.6316434   -7.4481688    855.88488  0.018779289  0.018123847           10 
 3799000   0.64170928   -7.4652974    853.48595  0.018721724  0.018118314           38 
 3800000   0.65066948   -7.4369792    853.94225  0.018726804  0.018112783           11 
 3801000    0.6482306   -7.4564187    852.41647  0.018688426  0.018107261           36 
 3802000   0.65817608   -7.4645947    854.66862  0.018732874  0.018101734           49 
 3803000   0.65274665   -7.4605578    852.72338  0.018685323  0.018096212           11 
 3804000   0.64730216   -7.4607247    854.24784  0.018713807  0.018090671           23 
 3805000   0.63565165   -7.4522759    853.72281   0.01869739  0.018085132           10 
 3806000   0.62385111   -7.4384055    853.15556  0.018680057  0.018079604           15 
 3807000    0.6443102   -7.4464658    853.67511  0.018686523  0.018074082           22 
 3808000   0.63946202   -7.4533389     854.4681  0.018698969  0.018068552           22 
 3809000   0.62633522    -7.455363    853.10059  0.018664142  0.018063028           18 
 3810000   0.64020548   -7.4683719    853.15393   0.01866041  0.018057508           20 
 3811000   0.63939135   -7.4548685    852.45895  0.018640316  0.018051991           19 
 3812000   0.63871909   -7.4508858    853.67216  0.018661948  0.018046473           34 
 3813000   0.64002767    -7.459179    853.10606  0.018644682  0.018040949           26 
 3814000   0.64380307   -7.4560794    853.42501  0.018646762   0.01803544           19 
 3815000   0.63620646   -7.4515868    852.52771  0.018622274  0.018029918           10 
 3816000   0.63941455   -7.4624675    854.98076  0.018670964  0.018024396           21 
 3817000   0.65384055   -7.4548293    853.43734  0.018632376  0.018018877           21 
 3818000   0.63842681   -7.4490053     853.6116  0.018631299  0.018013361           22 
 3819000   0.64773139   -7.4713957    854.99622  0.018656634  0.018007843           11 
 3820000   0.64772698   -7.4478703    852.65432  0.018600661   0.01800233           15 
 3821000   0.63661218   -7.4516149    852.37727  0.018589751  0.017996812           15 
 3822000   0.64981338   -7.4762274    853.51998  0.018609802  0.017991304           23 
 3823000   0.64645225   -7.4517386    852.26472  0.018577573  0.017985791           11 
 3824000   0.62801033   -7.4645281    854.53386  0.018622164  0.017980294           17 
 3825000   0.64252582   -7.4717428    853.53392   0.01859551  0.017974796           14 
 3826000   0.62363989   -7.4523102    853.62222  0.018592573    0.0179693           10 
 3827000   0.62839651   -7.4535742    853.65979  0.018588533  0.017963806           13 
 3828000   0.63151814   -7.4676905    851.86208  0.018544542    0.0179583           22 
 3829000   0.63727052   -7.4550166    855.50857   0.01861906  0.017952798           14 
 3830000   0.61939021   -7.4661019    852.66566  0.018552342  0.017947304           22 
 3831000   0.63549734   -7.4694214    854.84614   0.01859493  0.017941804           17 
 3832000   0.64088531   -7.4511911    854.12076  0.018574303   0.01793633           19 
 3833000   0.63354582   -7.4532713    853.35002  0.018552701   0.01793084           21 
 3834000   0.64660904   -7.4675192    853.38429  0.018548607  0.017925358           11 
 3835000   0.64489217   -7.4522749    853.73755  0.018551446  0.017919866           29 
 3836000   0.63448633   -7.4372213     853.8397  0.018548829  0.017914383           11 
 3837000   0.64027952   -7.4778535    853.87509  0.018544763  0.017908884           17 
 3838000   0.64502612   -7.4535605    853.20545  0.018525392  0.017903388           14 
 3839000   0.63644812   -7.4879909    853.59266  0.018528971  0.017897897           28 
 3840000   0.65554052   -7.4673069    853.23987   0.01851649  0.017892407           14 
 3841000   0.61122944    -7.500638    850.83525  0.018459499  0.017886896           15 
 3842000   0.63233532   -7.4538581    852.95851  0.018500749  0.017881397           19 
 3843000   0.63138482   -7.4713471     853.9139  0.018516651  0.017875908           18 
 3844000   0.62383065   -7.4953051    854.16398  0.018517256  0.017870409           17 
 3845000   0.62896784   -7.4813391     853.0881  0.018489122  0.017864918           15 
 3846000   0.63693629   -7.4936306    852.45717  0.018470644  0.017859427           20 
 3847000    0.6363724   -7.4950215    853.36712  0.018485554  0.017853929           14 
 3848000   0.64069208   -7.4751135    853.61467  0.018486111  0.017848437           16 
 3849000   0.64356101   -7.4774343    853.48635   0.01847853  0.017842956           19 
 3850000    0.6363527   -7.4629498    851.72757  0.018435662  0.017837475           28 
 3851000   0.63120788   -7.4604953    853.98976  0.018479827  0.017831992           12 
 3852000   0.64993614   -7.4713036    854.24739  0.018480603  0.017826511           25 
 3853000   0.63080668   -7.4617684    853.06692  0.018450275  0.017821042           21 
 3854000   0.63943914   -7.4613313    854.26229  0.018471335  0.017815585           18 
 3855000   0.63658682   -7.4920383    853.13947  0.018442271  0.017810116           11 
 3856000   0.63766581   -7.4934367    854.40439  0.018464825  0.017804646           26 
 3857000   0.63755305   -7.4860628    851.92295  0.018406424   0.01779917           22 
 3858000   0.63740528   -7.4809923    854.40036  0.018455166  0.017793698           15 
 3859000   0.62992236   -7.4969624     852.9828  0.018419772   0.01778824           19 
 3860000   0.63499755   -7.4920584    854.67063  0.018451438   0.01778278           34 
 3861000   0.63772672   -7.4816429    853.70782  0.018425879  0.017777329           23 
 3862000   0.63647367   -7.4969004    854.97901  0.018448537   0.01777187           23 
 3863000    0.6399382   -7.5015581    853.49565  0.018411762   0.01776643           22 
 3864000   0.63069632   -7.4783234    854.14328  0.018420964  0.017760971            8 
 3865000   0.62990384   -7.4867333     853.9607  0.018412262  0.017755536           18 
 3866000   0.63777552    -7.474424    855.90423  0.018449393  0.017750088           20 
 3867000   0.63289868   -7.4547816     854.1731  0.018407316  0.017744646           48 
 3868000   0.62587152   -7.4839805    854.23767  0.018403949  0.017739217           35 
 3869000   0.61954631    -7.478801    853.40557  0.018381269  0.017733788           63 
 3870000   0.64704531    -7.481458    853.53062  0.018379212  0.017728344           34 
 3871000   0.62617442   -7.4834193    854.16344  0.018388087  0.017722903           57 
 3872000   0.64591712   -7.4883483    853.55142  0.018370167   0.01771746           41 
 3873000   0.61343883   -7.4902295     854.8469  0.018393298   0.01771202           45 
 3874000   0.63500331   -7.4724615    853.53586  0.018360348  0.017706577           58 
 3875000   0.63720148   -7.4869293    853.22763  0.018348981  0.017701138           59 
 3876000    0.6188142   -7.4986412    854.44487  0.018370418  0.017695692           45 
 3877000   0.63310343   -7.5113226    852.78746  0.018330055   0.01769025           70 
 3878000   0.62547278   -7.5002021    853.81466  0.018347401  0.017684803           52 
 3879000   0.62983275   -7.4891819     853.9959  0.018346565  0.017679371           22 
 3880000   0.62773218   -7.4867932    853.24699  0.018325751  0.017673937           46 
 3881000   0.64451767   -7.4943832    854.72292  0.018352721  0.017668503           51 
 3882000   0.63809748   -7.4734806    854.84774  0.018350673  0.017663076           23 
 3883000   0.63958122   -7.4804905    853.62184  0.018319638  0.017657646           38 
 3884000   0.62863884   -7.4855838    854.01782  0.018323417  0.017652223           36 
 3885000   0.62729694   -7.5174039     853.0122   0.01829713  0.017646782           47 
 3886000   0.63758473   -7.4859405      853.243  0.018297371  0.017641346           34 
 3887000   0.62768896   -7.4955342    852.74141   0.01828191  0.017635918           43 
 3888000   0.64642179   -7.4930681    852.73414  0.018277052  0.017630499           54 
 3889000   0.61723681   -7.4902609    853.11508  0.018280515  0.017625076           67 
 3890000   0.62384924   -7.4966528    852.41226   0.01826076  0.017619659           77 
 3891000   0.62799239   -7.5101538    851.33845  0.018233069  0.017614242           85 
 3892000    0.6298529   -7.5031994    855.09529  0.018308824  0.017608831           54 
 3893000   0.62545529   -7.4715624    854.18649  0.018284667  0.017603429           75 
 3894000   0.62204035   -7.5009315    852.64543  0.018246992  0.017598034           67 
 3895000   0.62736447   -7.5185746    852.74092   0.01824435  0.017592624           54 
 3896000   0.62364396   -7.5258285    853.48782  0.018255643  0.017587208           46 
 3897000   0.63089995   -7.5016533    853.63913  0.018254194    0.0175818           58 
 3898000   0.63682016   -7.4981169    852.77767  0.018231094  0.017576392           72 
 3899000    0.6250566   -7.5172749    853.51212  0.018242116  0.017570972           60 
 3900000   0.62790767   -7.4907541    852.46756  0.018215119  0.017565555           69 
 3901000   0.62356688   -7.5065682    852.81769  0.018217929  0.017560152           85 
 3902000   0.62856804   -7.4994428    851.98015  0.018195373  0.017554741           66 
 3903000   0.62758206   -7.4884044     852.9646   0.01821173  0.017549335           75 
 3904000   0.62132169   -7.4913133      851.817  0.018182569  0.017543926           43 
 3905000    0.6375359   -7.4924031    853.44355  0.018212624  0.017538519           42 
 3906000   0.62311996   -7.5026302    852.94473  0.018197319  0.017533113           78 
 3907000   0.62800131   -7.5068915    852.55709  0.018184393  0.017527698           61 
 3908000   0.62830466   -7.5306443    854.84946  0.018228622  0.017522282           80 
 3909000   0.62574253   -7.5143918    852.07032  0.018164712  0.017516868           82 
 3910000   0.62512676   -7.5206623    853.67958  0.018194364  0.017511454          105 
 3911000   0.61480613   -7.5105814    852.96344  0.018174453  0.017506049           62 
 3912000   0.63459273   -7.5363618    853.67591  0.018184984  0.017500641           41 
 3913000   0.62007891   -7.5318857    852.89134  0.018163628  0.017495233           55 
 3914000   0.62816851   -7.5200361    852.52039   0.01815109  0.017489822           57 
 3915000   0.62810103   -7.5098222    854.81358  0.018195266  0.017484423           35 
 3916000   0.64052841   -7.5245193    854.34629  0.018180675  0.017479032           47 
 3917000   0.61018278   -7.5134951      853.354  0.018154923  0.017473632           33 
 3918000   0.61268418   -7.5155756    852.91733  0.018141002  0.017468248           29 
 3919000   0.61318994    -7.495929    852.57343   0.01812906  0.017462855           35 
 3920000   0.62116412   -7.5137187    854.58322   0.01816716  0.017457464           21 
 3921000    0.6392656   -7.5219367    851.59976  0.018099119  0.017452069           26 
 3922000   0.61815084   -7.5136515    853.18865  0.018128265  0.017446686           32 
 3923000    0.6253845   -7.4957949     854.0063  0.018141012    0.0174413           27 
 3924000   0.64234914   -7.5091644     852.3833  0.018101922  0.017435905           27 
 3925000   0.62172256   -7.5133114    853.02457  0.018110925  0.017430515           31 
 3926000   0.62638787   -7.5089129     852.5056  0.018095296  0.017425146           52 
 3927000   0.62897603   -7.5057235     853.7671  0.018117458  0.017419766           25 
 3928000    0.6081502   -7.5196417    853.57503  0.018108771  0.017414387           43 
 3929000   0.61699098   -7.5148671    853.22402  0.018096717  0.017409014           32 
 3930000   0.63119478   -7.5043171    853.68664  0.018101922  0.017403643           45 
 3931000   0.60906216   -7.5021242    853.43211  0.018091921  0.017398273           37 
 3932000   0.62376126   -7.5066837    853.40069  0.018086654  0.017392905           25 
 3933000   0.61470605   -7.5319925     851.9352  0.018051004  0.017387536           34 
 3934000   0.61851446   -7.5150426    852.24237  0.018052923  0.017382162           22 
 3935000   0.62912199   -7.5207025    853.96304  0.018084774  0.017376789           37 
 3936000    0.6245292   -7.5386788    852.82681  0.018056123  0.017371416           27 
 3937000   0.64139274   -7.5123198     852.1804  0.018037854  0.017366047           22 
 3938000    0.6209472   -7.5176037    853.05763  0.018051837  0.017360674           32 
 3939000   0.62062855   -7.5249781     853.3308  0.018053034   0.01735531           25 
 3940000   0.62944261   -7.5172788    852.81046  0.018037446  0.017349954           27 
 3941000   0.62164177   -7.5189648    852.28085  0.018021671  0.017344581           17 
 3942000   0.61576471   -7.5106936    852.57735  0.018023367  0.017339228           20 
 3943000   0.60753916   -7.5216863    854.12049  0.018051409  0.017333882           36 
 3944000   0.62289264    -7.532439    852.37293  0.018009908  0.017328529           42 
 3945000   0.62388659   -7.5133767     852.0956  0.017999485  0.017323175           62 
 3946000   0.62473555   -7.5178872    854.86739  0.018053459  0.017317822           24 
 3947000   0.61333391   -7.5398425    854.01823  0.018030957  0.017312469           36 
 3948000   0.61780505   -7.5181707    853.39023  0.018013134   0.01730712           59 
 3949000   0.62612998   -7.4920784    853.73121  0.018015768  0.017301775           24 
 3950000   0.61495619    -7.523383    854.17518  0.018020573  0.017296432           17 
 3951000   0.62117169   -7.5335066     853.4166  0.018000013  0.017291088           22 
 3952000   0.62753095   -7.5146173    853.81806  0.018003923  0.017285749           16 
 3953000   0.62346635   -7.5141959    855.40429  0.018032808  0.017280408           13 
 3954000   0.60971696   -7.5076316     854.1321  0.018001435   0.01727508           18 
 3955000   0.61957162   -7.5140968    851.93625  0.017950616  0.017269751           17 
 3956000   0.61856501   -7.5074665    852.62721  0.017960634  0.017264425            9 
 3957000   0.62242467    -7.527396    853.11219  0.017966308  0.017259098           19 
 3958000   0.63147403   -7.5201848    852.88353  0.017956955  0.017253765           18 
 3959000   0.61093514   -7.5195588    852.72748  0.017949134  0.017248437           27 
 3960000   0.62719361   -7.5385424    853.88188  0.017968895  0.017243118           18 
 3961000    0.6120359    -7.488099     854.3056  0.017973273  0.017237799           34 
 3962000   0.63287587   -7.5216067    854.80644  0.017979271  0.017232491           35 
 3963000   0.61482187   -7.5110437    853.08754  0.017938589  0.017227182           43 
 3964000   0.60981029   -7.5255826    853.74228  0.017947828  0.017221866           42 
 3965000   0.62209907   -7.5250146     854.3521  0.017956118   0.01721656           11 
 3966000   0.63267297   -7.5061004    854.58118  0.017956404   0.01721126           12 
 3967000   0.63220579   -7.5197181    853.23053  0.017923505  0.017205959           21 
 3968000   0.61641498   -7.5326004    852.57211   0.01790516  0.017200655           20 
 3969000   0.61175131    -7.525321    853.93331  0.017929229  0.017195354           30 
 3970000    0.6045992   -7.5323692    853.15145  0.017908301  0.017190046           17 
 3971000   0.62355994   -7.5151746    855.24971  0.017947824  0.017184738           33 
 3972000   0.60857508   -7.4820319    853.80254  0.017912944   0.01717944           25 
 3973000   0.61903539   -7.5120786     855.7184   0.01794862   0.01717415           20 
 3974000   0.60323165    -7.540043    854.30956   0.01791456   0.01716885           21 
 3975000   0.59538861    -7.527928    853.33385  0.017889598  0.017163546           12 
 3976000   0.60993004   -7.5256527     852.2819  0.017863051  0.017158244           34 
 3977000   0.61789841   -7.5216662     854.6281  0.017907721  0.017152957           26 
 3978000   0.61970363    -7.528628    854.59588  0.017902545  0.017147667           14 
 3979000    0.6159688   -7.5127412    853.76766    0.0178807  0.017142374           25 
 3980000   0.62016485   -7.5474857     855.1481  0.017905111   0.01713709           13 
 3981000   0.60378957   -7.5538666    853.03745  0.017856432  0.017131802           22 
 3982000    0.6259957   -7.5486726    853.15768  0.017854463  0.017126509           29 
 3983000   0.60205768   -7.5459502     853.9024  0.017865562  0.017121227           20 
 3984000    0.6152351   -7.5413685    852.10412  0.017823463  0.017115938           30 
 3985000   0.60107552   -7.5240347    853.60606  0.017850399  0.017110648           23 
 3986000   0.62233966   -7.5376909     855.9472  0.017894865  0.017105366           27 
 3987000   0.61349503   -7.5210805    854.09816   0.01785173  0.017100084           16 
 3988000   0.60904934   -7.5352012    854.46259  0.017854869  0.017094806           31 
 3989000   0.60900254   -7.5234658    852.23372   0.01780383  0.017089527           18 
 3990000   0.61330625   -7.5321236     853.4354  0.017824465   0.01708425           21 
 3991000   0.62696521   -7.5305124    853.49531   0.01782125  0.017078972           28 
 3992000   0.61542047   -7.5293505    855.59271  0.017860569  0.017073703           23 
 3993000   0.62315047   -7.5206155    853.54298  0.017813319  0.017068435           19 
 3994000   0.61856757   -7.5233651    853.93097  0.017816954  0.017063185           27 
 3995000   0.61588186   -7.5277528    855.20189  0.017839005  0.017057927           20 
 3996000   0.60451988   -7.4968388    854.93844  0.017829046  0.017052674           26 
 3997000   0.60486599   -7.5228507    855.05179  0.017826949  0.017047411           35 
 3998000   0.61197711   -7.5178614    853.89851  0.017798452  0.017042169           29 
 3999000   0.61971814    -7.522833    854.20232  0.017800332   0.01703693           17 
 4000000   0.61958819   -7.5128349      854.751  0.017807312  0.017031678           21 
 4001000   0.62009808   -7.5208134    854.16646  0.017790687   0.01702643           13 
 4002000   0.60653975   -7.5365041    856.19086  0.017828395  0.017021183           17 
 4003000   0.60435348   -7.5415396    854.23545  0.017783234  0.017015928           18 
 4004000   0.62592535   -7.5270002     855.2454  0.017799813  0.017010681           17 
 4005000   0.61621217   -7.5228007     853.7939  0.017765166  0.017005424           19 
 4006000   0.60631515   -7.5371319    852.53073  0.017734455  0.017000175           14 
 4007000   0.61683787   -7.5260736    853.13766  0.017742652  0.016994934           20 
 4008000   0.61577246   -7.5017177    853.96687  0.017755466  0.016989695           20 
 4009000   0.62246186   -7.5206797     853.4744    0.0177408  0.016984458           13 
 4010000   0.61145902   -7.5265517    855.56956  0.017779916  0.016979224           22 
 4011000   0.61138243   -7.5160367    853.21315  0.017726526  0.016973992           27 
 4012000   0.61070249   -7.5303149    853.02381  0.017718175  0.016968754           17 
 4013000   0.62575555   -7.5400031     853.9835  0.017733688  0.016963508           26 
 4014000   0.58811104   -7.5745438    854.46413  0.017739249  0.016958268           11 
 4015000   0.61554748   -7.5287553    854.25036  0.017730393  0.016953032           14 
 4016000   0.62080493   -7.5727592    854.59944  0.017733222    0.0169478           21 
 4017000   0.60732515   -7.5519235    853.48242  0.017705635  0.016942552           27 
 4018000   0.61020077   -7.5302515    853.06744  0.017692622  0.016937314           16 
 4019000   0.61843402   -7.5269201    852.94803  0.017685743  0.016932074           28 
 4020000   0.59960941   -7.5276773    853.77555  0.017698498  0.016926831           17 
 4021000   0.60483556   -7.5396774    853.32009  0.017684657    0.0169216           13 
 4022000   0.60335663   -7.5371175     853.8332  0.017690892   0.01691637           14 
 4023000    0.6158577   -7.5461845    852.88939  0.017666944  0.016911142           22 
 4024000   0.61158761   -7.5457295     852.1095  0.017646403  0.016905919           13 
 4025000   0.60046064   -7.5299966    853.83539  0.017677751  0.016900695            8 
 4026000   0.60373479   -7.5356705    854.30707  0.017683124  0.016895482           24 
 4027000   0.60946332   -7.5239268    852.22259  0.017635597  0.016890256           12 
 4028000   0.61130016   -7.5504587    852.62448  0.017639533  0.016885031           20 
 4029000   0.61558303   -7.5260768    853.29437  0.017649011   0.01687981           19 
 4030000   0.59954595    -7.562976    854.46274  0.017668791  0.016874587           18 
 4031000   0.60058962   -7.5419281    853.72973  0.017649254  0.016869371           24 
 4032000   0.59644412   -7.5681766    853.21774  0.017634295  0.016864153           26 
 4033000   0.60540552   -7.5617248    852.97358  0.017624878  0.016858932           40 
 4034000   0.61049501    -7.542247     852.1814  0.017604144  0.016853714           32 
 4035000   0.60960159   -7.5623102     852.6856  0.017610194  0.016848491           33 
 4036000   0.59748287    -7.532583    854.41193  0.017641475  0.016843283           32 
 4037000   0.60840583   -7.5318531    852.70301  0.017601829  0.016838074           36 
 4038000   0.62694314   -7.5413806     853.5341  0.017614622  0.016832861           39 
 4039000   0.61531722   -7.5404951     852.7245  0.017593557  0.016827649           24 
 4040000   0.60655889   -7.5408452    852.15829  0.017577523  0.016822431           35 
 4041000   0.61332607   -7.5440524     853.0277  0.017591102  0.016817218           31 
 4042000   0.61135079   -7.5571777    853.42584  0.017594958   0.01681201           37 
 4043000   0.59486961   -7.5344361      853.739  0.017597061  0.016806816           22 
 4044000   0.60822886    -7.542607    854.41526  0.017606645   0.01680162           46 
 4045000   0.60058893   -7.5489141    853.22414  0.017577753  0.016796422           44 
 4046000   0.59434492   -7.5516945    852.79534  0.017564577  0.016791209           38 
 4047000   0.59324817   -7.5523453    853.83823  0.017581711  0.016786006           23 
 4048000       0.6002    -7.536336    850.88715  0.017516616  0.016780811           56 
 4049000   0.61402805   -7.5326617    852.11822  0.017537627  0.016775606           32 
 4050000   0.60249311   -7.5386318    854.19093  0.017575945  0.016770414           39 
 4051000   0.60208169   -7.5205764    854.62326    0.0175805  0.016765218           34 
 4052000   0.61309165   -7.5540195    853.48521  0.017552756  0.016760026           34 
 4053000   0.60456852   -7.5402458    854.23545  0.017563851  0.016754829           29 
 4054000   0.61653341   -7.5708388    855.58443  0.017587248   0.01674964           24 
 4055000   0.59487647   -7.5601814    854.51487   0.01756093  0.016744443           42 
 4056000   0.61799759   -7.5719415    852.85482  0.017522494  0.016739248           41 
 4057000   0.60630428   -7.5722911    850.81066  0.017476186   0.01673405           27 
 4058000   0.59829158   -7.5451942    853.08781  0.017518642  0.016728852           30 
 4059000   0.60118709   -7.5615496    852.04938  0.017493007   0.01672365           39 
 4060000   0.60041523   -7.5524274    851.63993  0.017480294  0.016718454           58 
 4061000   0.60547237   -7.5566548    852.91631  0.017502182  0.016713262           65 
 4062000   0.60425163   -7.5637444    851.01505  0.017458868  0.016708071           53 
 4063000   0.60778647   -7.5614407    854.94213  0.017535116  0.016702879           45 
 4064000   0.60436621   -7.5587013    854.33222  0.017518295  0.016697689           52 
 4065000   0.60933448   -7.5694987     854.3074  0.017513477  0.016692496           45 
 4066000   0.58603432   -7.5718584    853.88727  0.017500559  0.016687305           92 
 4067000   0.60667533   -7.5621052    852.20087  0.017461701  0.016682121           44 
 4068000   0.60411612   -7.5511227    851.94482  0.017452164  0.016676941           66 
 4069000   0.60736036   -7.5590175    852.74867  0.017464338  0.016671753           44 
 4070000    0.6070537   -7.5423604    852.02088  0.017445145  0.016666571           71 
 4071000   0.59644378   -7.5770066    851.78623  0.017436057  0.016661386           93 
 4072000   0.59299897   -7.5515994    853.22042  0.017461125  0.016656213           57 
 4073000   0.60487057   -7.5645826    852.65219  0.017445212  0.016651041           63 
 4074000   0.58901279   -7.5807243    852.49179  0.017437649  0.016645868           73 
 4075000   0.58686266   -7.5485089    852.79613  0.017439594  0.016640695           40 
 4076000   0.60338957    -7.553626    852.67321  0.017432802  0.016635522           70 
 4077000   0.59258366   -7.5814584    853.08297  0.017436902  0.016630348           60 
 4078000   0.61294667   -7.5607522    852.75547  0.017425933  0.016625181           86 
 4079000   0.61129725   -7.5666141    853.04758  0.017427629  0.016620014           62 
 4080000   0.60085523   -7.5619523    851.04116  0.017382377  0.016614851           72 
 4081000   0.58472046    -7.568909     852.9178  0.017416438  0.016609687           41 
 4082000   0.59320345   -7.5454941    852.93901  0.017412604  0.016604521           38 
 4083000   0.60262304    -7.547756    852.31502  0.017395604   0.01659935           48 
 4084000   0.57856538    -7.572713    852.88942  0.017403065  0.016594182           42 
 4085000   0.60062122   -7.5920931    852.97049  0.017400459  0.016589019           55 
 4086000   0.60245236   -7.5667908    850.97662  0.017355536  0.016583862           39 
 4087000   0.58804378   -7.5616773    853.18395  0.017396296  0.016578705           56 
 4088000   0.58628935   -7.5744022    851.78681   0.01736356  0.016573541           76 
 4089000   0.60120425   -7.5473191    853.35388  0.017391251  0.016568384           49 
 4090000   0.59840258   -7.5807358     853.0391  0.017380585  0.016563224           54 
 4091000   0.59335651   -7.5759758    852.80405  0.017371548  0.016558054           38 
 4092000   0.59866243    -7.577084    850.86377  0.017327789  0.016552893           41 
 4093000    0.5986378   -7.5810323    851.65901  0.017339747  0.016547735           63 
 4094000   0.60143226   -7.5621923    851.17929  0.017325747  0.016542568           46 
 4095000   0.60102703   -7.5637141    853.54044  0.017369565  0.016537409           87 
 4096000   0.59891991   -7.5704438    851.34811  0.017320722   0.01653226           38 
 4097000   0.59712899   -7.5599312    852.47011  0.017339316  0.016527097           91 
 4098000   0.60835219   -7.5787658     850.6153  0.017297367  0.016521941          103 
 4099000      0.59874   -7.5516484    850.91775  0.017299295  0.016516784           50 
 4100000   0.60684244   -7.5627119    851.61704  0.017309289  0.016511632           64 
 4101000    0.5960442   -7.5709266    851.79765  0.017308739   0.01650648           74 
 4102000   0.59900353   -7.5677755    850.20614  0.017272187  0.016501329          116 
 4103000   0.60356852   -7.5771643    853.36167  0.017332067   0.01649618           55 
 4104000   0.59095709   -7.5560771     850.9009  0.017277877  0.016491036           61 
 4105000   0.57460906   -7.5654846    851.95898  0.017295148  0.016485892           56 
 4106000   0.59894264    -7.549879    852.15718  0.017294958  0.016480758           40 
 4107000   0.59464222    -7.576999    852.54064  0.017298528  0.016475622           26 
 4108000   0.59734465   -7.5774436     852.2195  0.017287802  0.016470481           47 
 4109000   0.58975637   -7.5638807    853.58761  0.017311341  0.016465345           38 
 4110000   0.60109104   -7.5733147    852.58537  0.017286808  0.016460207           62 
 4111000   0.58387057   -7.5901961    852.18238  0.017274434  0.016455068           28 
 4112000   0.60054668   -7.5686236     851.5278  0.017256967  0.016449929           42 
 4113000   0.57936771   -7.5809857    852.95278  0.017281643  0.016444806           33 
 4114000   0.58696215   -7.5761611    852.08345  0.017259833  0.016439689           31 
 4115000   0.58488256   -7.5659587    852.58341  0.017265764  0.016434576           48 
 4116000     0.584536    -7.555348    851.84299  0.017246578  0.016429459           31 
 4117000   0.59392459   -7.5833261    852.83607   0.01726249  0.016424339           62 
 4118000   0.59401056   -7.5696854    851.18591  0.017224905   0.01641923           28 
 4119000   0.59468171    -7.568557    852.52646  0.017247845  0.016414118           34 
 4120000   0.59625291   -7.5641511    852.77205  0.017248626     0.016409           50 
 4121000   0.59277016   -7.5677429    851.72778  0.017223323  0.016403881           90 
 4122000   0.60296294    -7.584025    851.26167  0.017209722  0.016398767           55 
 4123000   0.59670016   -7.5599135    853.27352  0.017246211  0.016393657           48 
 4124000   0.58041448   -7.5900839    852.19552  0.017220246  0.016388549           67 
 4125000   0.60729787   -7.5650397    851.29421  0.017197863  0.016383442           57 
 4126000   0.59811569   -7.5659668    852.62548  0.017220582  0.016378338           55 
 4127000   0.59288055   -7.5957004    851.32915  0.017190234  0.016373235           42 
 4128000   0.58330088   -7.5778453    851.18422  0.017183144  0.016368133           60 
 4129000   0.59037576    -7.575328    852.59322  0.017207419  0.016363029           49 
 4130000   0.59660538   -7.5746767    853.29977   0.01721751  0.016357932           51 
 4131000   0.59513562   -7.5809333    851.75763  0.017182233  0.016352843           38 
 4132000   0.59811815    -7.562617    853.53254   0.01721387   0.01634776           28 
 4133000   0.58797813   -7.5882151    853.02484  0.017199468   0.01634268           43 
 4134000   0.58234306   -7.5624633    852.69379  0.017188635  0.016337593           36 
 4135000   0.59592743   -7.5723005    852.12147  0.017172944  0.016332515           42 
 4136000   0.59835407   -7.5783426    852.27005  0.017171785  0.016327431           30 
 4137000    0.5981817   -7.5649357    852.35559  0.017169358   0.01632235           33 
 4138000   0.60103214   -7.5774102    853.46339  0.017187518  0.016317276           46 
 4139000    0.5966217   -7.5804006    852.28603  0.017159661  0.016312209           37 
 4140000   0.59479495   -7.5873436      853.902  0.017188043  0.016307132           47 
 4141000   0.58915596   -7.5706223    853.41873  0.017174167  0.016302066           80 
 4142000   0.59628307   -7.5729358    853.05925  0.017162789  0.016296994           62 
 4143000   0.59395611   -7.5604293    853.48277  0.017167165  0.016291932           41 
 4144000   0.59746131    -7.584921    852.32719  0.017139784  0.016286867           42 
 4145000   0.57473346   -7.5689837    851.95552  0.017128177  0.016281807           41 
 4146000   0.58497706   -7.5781775    853.07038  0.017146454   0.01627673           89 
 4147000   0.59311128   -7.6020141    852.15983  0.017124022  0.016271666           40 
 4148000   0.58765163   -7.5722161    853.01961  0.017137167  0.016266599           39 
 4149000    0.5885535   -7.5833064    853.21054  0.017136871  0.016261543          100 
 4150000   0.58845567   -7.5761625    852.21803  0.017112812  0.016256493           61 
 4151000   0.58097205   -7.5812009    853.28645  0.017130138  0.016251441           69 
 4152000   0.59793491   -7.6116835    851.85248  0.017097232  0.016246388           57 
 4153000   0.58328317   -7.5787203    852.73725  0.017110869   0.01624133           52 
 4154000   0.58389528   -7.5924134    851.55855  0.017083104   0.01623627           24 
 4155000   0.60047532   -7.5838308    853.36215  0.017115165  0.016231217           38 
 4156000   0.58405113   -7.5926891    852.99101  0.017103605  0.016226163           37 
 4157000   0.58890866   -7.5887124     851.3087  0.017065767  0.016221105           28 
 4158000    0.5679764    -7.576956    851.36271  0.017062745  0.016216044           47 
 4159000   0.59208909   -7.5870014    852.20634  0.017075546  0.016210987           43 
 4160000   0.57220008   -7.5885544    850.56787  0.017038619   0.01620593           71 
 4161000   0.59675382    -7.588708    852.62759  0.017075775  0.016200864           37 
 4162000   0.59756341   -7.5810038    853.02623  0.017079654  0.016195811           38 
 4163000    0.5704931     -7.60488    852.47276  0.017064472  0.016190759           34 
 4164000   0.58799275   -7.5974881    850.86842  0.017028267  0.016185705           26 
 4165000   0.57279826   -7.5860614    852.04234  0.017047666  0.016180646           39 
 4166000   0.58382471   -7.6066471    852.81425  0.017059015    0.0161756           46 
 4167000   0.58652295   -7.5522371    850.90103  0.017016659  0.016170558           34 
 4168000   0.58451063   -7.5983614    850.98527  0.017014261  0.016165523           40 
 4169000    0.5700981   -7.5705639    852.08995  0.017032261  0.016160484           42 
 4170000   0.58237605    -7.587119    852.45606  0.017035493  0.016155461           68 
 4171000   0.57686983   -7.5584425    851.29452  0.017008202  0.016150436           31 
 4172000   0.57480381   -7.5843178    852.20869  0.017022385  0.016145412           62 
 4173000   0.57535192   -7.5969879    852.37524  0.017021632  0.016140391           87 
 4174000     0.582541    -7.576658     851.7943  0.017005956  0.016135375           41 
 4175000   0.59162485   -7.5931568    853.00935  0.017026135  0.016130353           50 
 4176000   0.57554583   -7.5750683    851.48464  0.016991631  0.016125335           34 
 4177000   0.57971722   -7.5904816    852.51635  0.017008147  0.016120321           43 
 4178000   0.58255569   -7.5859762    853.63722  0.017026432   0.01611531           28 
 4179000   0.57974183    -7.561476    851.10244  0.016971812  0.016110297           47 
 4180000    0.5991738   -7.5862779    852.02985  0.016986241  0.016105284           47 
 4181000    0.5808644   -7.6032457    851.99728  0.016981529  0.016100265           38 
 4182000   0.58608798   -7.5824928    852.62507  0.016989978  0.016095242           33 
 4183000   0.57476101   -7.5910844    850.30378  0.016939672  0.016090216           41 
 4184000   0.57081626   -7.5880914    851.07486  0.016950981  0.016085194           40 
 4185000   0.58466731   -7.5964344    851.01823  0.016945803  0.016080177           28 
 4186000   0.58866736   -7.6034251    851.04479  0.016942284  0.016075155           25 
 4187000   0.58822884   -7.6225818     852.1768  0.016960767  0.016070136           27 
 4188000    0.5765361   -7.5964924    852.24178  0.016958011  0.016065112           39 
 4189000   0.57290158   -7.6086539     851.3629  0.016936478  0.016060104           22 
 4190000   0.57673249   -7.5886583    853.33316  0.016971622  0.016055089           27 
 4191000   0.58353797   -7.6058326     851.9765  0.016940597  0.016050082           38 
 4192000   0.57935391   -7.5889737    852.64925  0.016949929  0.016045068           35 
 4193000    0.5741842   -7.6044027    852.28973  0.016938742  0.016040058           32 
 4194000    0.5789999   -7.6029999    851.53262  0.016919659  0.016035053           50 
 4195000   0.57541877   -7.5972887    851.16032   0.01690823  0.016030048           47 
 4196000    0.5839059   -7.6116834    852.77793  0.016936327  0.016025038           22 
 4197000    0.5711452   -7.5901498    851.61474  0.016909196  0.016020034           40 
 4198000   0.59066384   -7.6052513    852.06456  0.016914097  0.016015039           34 
 4199000   0.57511061   -7.6027139     853.5679  0.016939904  0.016010043           57 
 4200000   0.57150201   -7.6082933    850.30166  0.016871065  0.016005051           47 
 4201000   0.59156758   -7.5936822    852.11506   0.01690302   0.01600006           56 
 4202000   0.57368573   -7.6051878     851.5602  0.016887994  0.015995074           32 
 4203000   0.58643662   -7.6042309    852.29293  0.016898504  0.015990083           37 
 4204000   0.57781733   -7.5868676    851.13604  0.016871552  0.015985089           50 
 4205000   0.56839003   -7.6011194    852.98719  0.016904225  0.015980097           37 
 4206000   0.58398404    -7.607271     850.8683  0.016858224  0.015975098           30 
 4207000   0.58486299   -7.6086071    853.07256   0.01689788  0.015970108           26 
 4208000   0.58974482   -7.6185616    851.58853  0.016864475  0.015965121           41 
 4209000   0.58916337    -7.613061    852.31094  0.016874771  0.015960135           63 
 4210000   0.58758213     -7.58591    852.15024  0.016867582  0.015955154           37 
 4211000   0.57489015   -7.6138615    852.95725  0.016879547  0.015950173           42 
 4212000   0.56979778   -7.5887166    850.85585  0.016833963  0.015945193           37 
 4213000   0.57692658   -7.6020418    851.01254  0.016833067  0.015940216           51 
 4214000   0.56546612   -7.6110236    851.90359  0.016846693  0.015935238           56 
 4215000   0.57337399    -7.584272    851.98949  0.016844395  0.015930267           42 
 4216000    0.5718939   -7.5928704    851.42932  0.016829327  0.015925296           56 
 4217000   0.57483202   -7.6069639    851.82092  0.016833075   0.01592032           58 
 4218000   0.57542508   -7.6006832    852.30345  0.016838617  0.015915348           47 
 4219000   0.57727814   -7.6063059    852.22183  0.016833014  0.015910381           53 
 4220000   0.57736032   -7.6022165    851.31684  0.016811154  0.015905411           44 
 4221000   0.58041835   -7.5845662    850.44697  0.016789998  0.015900442           29 
 4222000   0.58188806   -7.6070099     850.0395  0.016777979  0.015895483           36 
 4223000    0.5838724   -7.6012167    850.99936  0.016792947  0.015890522           34 
 4224000    0.5679786   -7.6087285    851.97055  0.016808131  0.015885564           44 
 4225000   0.57961724   -7.6103371    852.76105  0.016819745    0.0158806           31 
 4226000   0.58683758   -7.6043297    850.16199  0.016764513  0.015875639           34 
 4227000   0.58057586   -7.6067324    851.93603  0.016795521  0.015870682           34 
 4228000   0.56701044    -7.604999    852.98895  0.016812302  0.015865729           35 
 4229000   0.56558814   -7.5973547    852.94668  0.016807493  0.015860787           31 
 4230000   0.56598813   -7.6048365    851.97796  0.016784436  0.015855839           28 
 4231000   0.57610739   -7.5988921    850.97426    0.0167607  0.015850903           27 
 4232000    0.5705467    -7.609962    852.26134  0.016782084  0.015845959           28 
 4233000   0.58017697   -7.5915829    851.24795  0.016758169  0.015841021           22 
 4234000    0.5692822   -7.6175081    852.57062  0.016780244  0.015836079           35 
 4235000   0.56423493   -7.5997277    852.60734  0.016777004  0.015831134           34 
 4236000   0.58727143   -7.6236693    852.27646  0.016766534   0.01582619           32 
 4237000   0.57043932   -7.5822602    852.74395  0.016771772  0.015821245           55 
 4238000   0.57629631   -7.6090889    851.79955  0.016749244  0.015816297           31 
 4239000   0.57234022   -7.6051771    850.53659  0.016720464  0.015811349           46 
 4240000   0.56822334   -7.6026005     850.9045  0.016723752  0.015806401           26 
 4241000   0.57625542   -7.6135639    850.55711  0.016712983  0.015801455           34 
 4242000   0.58064373    -7.618176    851.95893  0.016736581  0.015796521           29 
 4243000   0.57740179   -7.6005694    852.01831  0.016733803   0.01579159           35 
 4244000   0.57510254   -7.6262824    851.64877  0.016722604  0.015786657           45 
 4245000   0.57888592   -7.6015916    851.03583  0.016706632  0.015781723           34 
 4246000   0.57104669   -7.6070171    852.33862  0.016728266   0.01577679           47 
 4247000   0.57787823   -7.6063347    852.34942  0.016724539  0.015771875           58 
 4248000    0.5700176   -7.6069386    851.56034  0.016705123   0.01576696           40 
 4249000   0.57802289   -7.5934266     851.5316  0.016700628  0.015762048           43 
 4250000   0.57616959   -7.6068383    851.19026  0.016690005  0.015757133           24 
 4251000   0.56814057   -7.6124341     850.3277   0.01666917  0.015752221           20 
 4252000   0.57408462   -7.5987532    851.32491  0.016684794  0.015747315           17 
 4253000   0.56956701   -7.5942802    851.84485  0.016691058  0.015742419           26 
 4254000   0.56737151   -7.6026818    852.43107  0.016698618  0.015737515           28 
 4255000   0.56834622   -7.6132631       850.59  0.016658637  0.015732611           30 
 4256000   0.55868694   -7.6234324    852.60412   0.01669416  0.015727704           66 
 4257000   0.55866943   -7.6018529    852.54169  0.016689016  0.015722797           33 
 4258000   0.58043376   -7.5907708    850.53213  0.016645767  0.015717891           34 
 4259000   0.57322821   -7.6042478    851.20605  0.016655045  0.015712988           55 
 4260000   0.56956304   -7.5817292    853.32414  0.016692569  0.015708088           32 
 4261000   0.58753344   -7.5904002    851.61709  0.016655267  0.015703186           29 
 4262000   0.56836589   -7.6040696    853.32133  0.016684681  0.015698289           36 
 4263000   0.57059895   -7.6210923    851.74805  0.016650013  0.015693392           32 
 4264000   0.57417969   -7.5966544    850.66462  0.016624934  0.015688485           33 
 4265000   0.57141676   -7.5876186    851.43924  0.016636171  0.015683586           18 
 4266000   0.56029047   -7.6185277    853.34787  0.016669555  0.015678685           32 
 4267000   0.56580011   -7.6031633     851.9461  0.016638272  0.015673787           33 
 4268000     0.568966   -7.6223744     851.1364  0.016618564  0.015668892           25 
 4269000   0.57863892   -7.6210519    851.26693   0.01661722  0.015663999           40 
 4270000   0.56641692   -7.6088375    850.73757  0.016602997  0.015659104           34 
 4271000   0.57275998    -7.609161    850.72919  0.016598946   0.01565421           31 
 4272000   0.59109792   -7.6158216    851.43448  0.016608819  0.015649332           45 
 4273000   0.57029983   -7.6412396    851.30545  0.016602415  0.015644439           70 
 4274000   0.56123959   -7.5983901    851.47813  0.016601898  0.015639555           24 
 4275000   0.56802157   -7.6247425    850.72394  0.016583313  0.015634672           24 
 4276000   0.57441933   -7.6271918     850.7813  0.016580552  0.015629787           69 
 4277000   0.56662131   -7.6010404    851.30852  0.016586948  0.015624904           37 
 4278000    0.5640352   -7.6225983    851.66818  0.016590077  0.015620021           23 
 4279000   0.57401673   -7.6383161    851.01793  0.016573536  0.015615133           71 
 4280000   0.56694904   -7.6005418    851.27126  0.016574596  0.015610257           71 
 4281000   0.55286847   -7.6112415    850.58472   0.01655736  0.015605367           53 
 4282000   0.56686076   -7.6314745    851.27879  0.016567001  0.015600482           59 
 4283000   0.56803924    -7.617524    850.97748  0.016557271    0.0155956           54 
 4284000   0.56255473   -7.6064149    850.98725  0.016553596  0.015590723           21 
 4285000   0.55867626   -7.6045097    850.99266  0.016549838  0.015585841           26 
 4286000   0.57492418   -7.6336713    850.74251  0.016541113  0.015580968           32 
 4287000   0.56657303   -7.6293603    850.90003  0.016540316  0.015576097           24 
 4288000   0.55846545    -7.619286    849.62126  0.016511607  0.015571221           45 
 4289000   0.56066932    -7.616015    851.02966  0.016535122  0.015566345           40 
 4290000   0.57253646   -7.6320982    851.21495  0.016534867  0.015561473           40 
 4291000   0.56690199   -7.6153662    851.47374  0.016536039    0.0155566           47 
 4292000   0.56168587   -7.6430947     851.2764  0.016528355  0.015551731           32 
 4293000   0.58110802   -7.6267444    848.88742  0.016478131  0.015546857           33 
 4294000   0.56804532    -7.642466    850.95047  0.016514331  0.015541988           50 
 4295000   0.56472459    -7.614011    851.42676  0.016519728  0.015537125           35 
 4296000   0.56595162   -7.6206718    852.33557  0.016533511  0.015532267           38 
 4297000   0.55554547    -7.622611    851.64776  0.016516325  0.015527414           34 
 4298000   0.55683578   -7.6287958    850.74185  0.016494917  0.015522561           62 
 4299000     0.559676   -7.6207698    851.68447  0.016509352   0.01551771           37 
 4300000   0.56902388   -7.6196354    850.48626  0.016482292  0.015512853           48 
 4301000   0.55231451   -7.6350993    852.24815  0.016512597  0.015508005           49 
 4302000   0.56290575   -7.6233802    851.14538  0.016487397  0.015503165           98 
 4303000   0.56403794    -7.633806    852.31673   0.01650625  0.015498325           27 
 4304000   0.56604826   -7.6122707    852.43093  0.016504626  0.015493487           31 
 4305000   0.56436211   -7.6265526    852.99272  0.016511667  0.015488655           36 
 4306000   0.55864032   -7.6123586    851.90975  0.016486874  0.015483815           26 
 4307000   0.55255326   -7.6210953    851.19732  0.016469262  0.015478973           35 
 4308000   0.55855297    -7.628702    851.00027  0.016461627  0.015474135           30 
 4309000   0.55527881   -7.6074672    853.22131   0.01650076  0.015469298           29 
 4310000   0.57188802    -7.618904    852.80175   0.01648882  0.015464473           19 
 4311000   0.54777524   -7.6229531    851.89177  0.016467405  0.015459644           27 
 4312000   0.56397373   -7.6083209    850.18289   0.01643056   0.01545481           33 
 4313000   0.57339401   -7.6020265    850.84109  0.016439468  0.015449977           29 
 4314000   0.55806868   -7.6292269    850.68873  0.016432714   0.01544514           48 
 4315000   0.57420069   -7.6290424    850.21971  0.016419848  0.015440304           24 
 4316000   0.56125091    -7.626527    850.87718  0.016428738  0.015435468           71 
 4317000   0.56203457     -7.61658    849.45579  0.016397494  0.015430628           34 
 4318000   0.56822407   -7.6237598    849.99282  0.016404061  0.015425792           29 
 4319000   0.56103248   -7.6304343    849.50506  0.016390852  0.015420956           35 
 4320000    0.5569336   -7.6491405    848.25012   0.01636285  0.015416117           36 
 4321000   0.54474771   -7.6127525    850.59403  0.016404267  0.015411283           29 
 4322000   0.55298231   -7.6174115    851.00253  0.016408347  0.015406454           36 
 4323000   0.55719555   -7.6336775    849.64491  0.016378381  0.015401626           43 
 4324000   0.55831352   -7.6386385    850.51871  0.016391434  0.015396794           43 
 4325000   0.56041021   -7.6464781    850.81892  0.016393428  0.015391955           37 
 4326000   0.55810417   -7.6316321     851.7936  0.016408414  0.015387126           32 
 4327000   0.56532093   -7.6281128     850.2006  0.016373943  0.015382295           37 
 4328000   0.56186275   -7.6456829    851.26704  0.016390693  0.015377467           23 
 4329000   0.55388342    -7.660246    849.60726  0.016354956   0.01537264           28 
 4330000     0.548724    -7.639976    851.08577  0.016379634  0.015367813           21 
 4331000   0.54785365    -7.640025    851.23659  0.016378754  0.015362992           25 
 4332000   0.56051536   -7.6303699    849.24285   0.01633662  0.015358172           23 
 4333000   0.55835644   -7.6439792    848.73469  0.016323076  0.015353348           23 
 4334000    0.5485898   -7.6459904    850.29219  0.016349258  0.015348529           40 
 4335000   0.55436656   -7.6595848    848.62834  0.016313501  0.015343707           33 
 4336000   0.55517679    -7.618435     848.9536   0.01631599   0.01533888           55 
 4337000   0.55442254   -7.6331793    850.25655  0.016337264  0.015334055           41 
 4338000   0.54814394   -7.6587462    848.60388   0.01630175  0.015329237           37 
 4339000    0.5691631   -7.6215564    849.71327  0.016319299  0.015324423           28 
 4340000   0.56478098   -7.6332092    848.42655  0.016290832   0.01531961           43 
 4341000   0.56242992   -7.6363851    849.45338  0.016306791  0.015314794           23 
 4342000   0.56168659    -7.653468    849.37913  0.016301611  0.015309981           57 
 4343000   0.55353612   -7.6405291    850.14705  0.016312592  0.015305175           37 
 4344000   0.55059246   -7.6595775    850.14431  0.016308784   0.01530037           35 
 4345000    0.5531135   -7.6451293    850.34214  0.016308825  0.015295557           26 
 4346000   0.56062442   -7.6490437    849.40496  0.016287102  0.015290752           25 
 4347000   0.55961615   -7.6450072    849.57518  0.016286619  0.015285946           42 
 4348000    0.5604214   -7.6369695    848.34176  0.016259233  0.015281142           29 
 4349000   0.55649396    -7.644969    849.35487  0.016274907  0.015276334           34 
 4350000   0.55544357   -7.6659015    848.93836  0.016263187  0.015271531           28 
 4351000   0.55098845    -7.659622    849.99061  0.016279602  0.015266725           32 
 4352000   0.55251175   -7.6595749    849.91356  0.016274386  0.015261927           29 
 4353000   0.54614129   -7.6545713    847.88668  0.016231845  0.015257124           50 
 4354000   0.54252004   -7.6559328    849.56842  0.016260305   0.01525232           43 
 4355000   0.55546062   -7.6474784      848.862  0.016243054  0.015247527           59 
 4356000   0.55712671   -7.6517369    849.73624   0.01625605   0.01524273           30 
 4357000     0.546018   -7.6504063    850.35648  0.016264182   0.01523794           49 
 4358000    0.5469934   -7.6589602    849.03747  0.016235228   0.01523315           46 
 4359000   0.53899909   -7.6530756    849.66804  0.016243558  0.015228363           20 
 4360000   0.54637519   -7.6391285    851.23433  0.016269769  0.015223583           27 
 4361000   0.56549932   -7.6535775    849.72155  0.016237131  0.015218799           37 
 4362000   0.55798643   -7.6736965    850.61806  0.016250536   0.01521402           30 
 4363000   0.54225872   -7.6504868    849.24447  0.016220576  0.015209245           29 
 4364000   0.55787612   -7.6532976    850.17742  0.016234674  0.015204471           30 
 4365000   0.55068607   -7.6486554    851.01706  0.016246985  0.015199701           26 
 4366000   0.53977965   -7.6425222    848.70149  0.016199066  0.015194931           56 
 4367000   0.56175538   -7.6520303    850.02585  0.016220629  0.015190166           33 
 4368000   0.55275187   -7.6428953    848.20156  0.016182112  0.015185394           32 
 4369000   0.55614555    -7.643592     849.6207  0.016205476  0.015180625           28 
 4370000   0.55276662    -7.651738    850.14144  0.016211698  0.015175855           30 
 4371000   0.54430688   -7.6408477    851.38847  0.016231764  0.015171091           35 
 4372000    0.5583805    -7.650829    849.37775  0.016189725  0.015166332           44 
 4373000   0.55351319   -7.6450431    850.41577  0.016205804  0.015161571           43 
 4374000    0.5549199   -7.6366989    850.08931  0.016195879   0.01515681           28 
 4375000   0.55150417   -7.6437908    849.55643  0.016182027   0.01515205           56 
 4376000   0.55546596   -7.6423595    850.28766  0.016192254  0.015147296           86 
 4377000   0.54674994   -7.6553712    849.05167  0.016165023  0.015142543           59 
 4378000   0.54806888   -7.6746598    849.51575  0.016170164  0.015137789           83 
 4379000   0.54997278    -7.661911    850.72946  0.016189569  0.015133035           64 
 4380000    0.5472512   -7.6546108    848.91395  0.016151331  0.015128285           67 
 4381000   0.54896548   -7.6657286    849.80195  0.016164535   0.01512354           62 
 4382000   0.54381419   -7.6707728     849.7092  0.016159083  0.015118794           53 
 4383000   0.55815002   -7.6742108    850.19064  0.016164549  0.015114048           62 
 4384000    0.5553127     -7.66193    849.88814  0.016155112  0.015109305           74 
 4385000   0.55760249    -7.654846    847.66599  0.016109198  0.015104564           99 
 4386000   0.53861222   -7.6364748     850.0557  0.016150929  0.015099826           85 
 4387000    0.5548552   -7.6481052    849.56395  0.016137907  0.015095098           73 
 4388000   0.54786749   -7.6496365    849.83011  0.016139283  0.015090365           76 
 4389000   0.55938734   -7.6414807    849.29685  0.016125481   0.01508564           77 
 4390000   0.54855374   -7.6560735    849.98206  0.016134815  0.015080917           76 
 4391000   0.55390957   -7.6548944    852.01017   0.01616963  0.015076193           76 
 4392000   0.55884572   -7.6539527    849.23912  0.016113371   0.01507147           76 
 4393000   0.54825559    -7.648256    849.78806  0.016120116  0.015066751           75 
 4394000   0.55208617   -7.6382041     850.1321  0.016122973   0.01506203           48 
 4395000   0.55541508   -7.6484581    849.14354   0.01610056   0.01505731           53 
 4396000   0.54641724   -7.6593839    848.65962  0.016087724   0.01505259           74 
 4397000   0.54249247   -7.6668246    851.08557  0.016130043  0.015047873           41 
 4398000   0.55444117   -7.6571893    850.34175  0.016112281   0.01504316           65 
 4399000   0.55148926   -7.6701204    850.58925  0.016113307  0.015038446           69 
 4400000   0.54361969    -7.676538    849.86655  0.016095957  0.015033732           60 
 4401000    0.5406518   -7.6541074    850.63315  0.016106816  0.015029014           62 
 4402000   0.54325776   -7.6474592    849.90371  0.016089348    0.0150243           48 
 4403000   0.54832866   -7.6728526    848.33838  0.016056067  0.015019586           68 
 4404000   0.54291288   -7.6682799     849.4565  0.016073579  0.015014869           39 
 4405000   0.54009769   -7.6616479    849.89307  0.016078189  0.015010154           44 
 4406000   0.55628817   -7.6620683    849.40168  0.016065246  0.015005438           64 
 4407000   0.55800668      -7.6629    848.80655  0.016050347  0.015000723           49 
 4408000    0.5350224   -7.6592923    848.89966  0.016048466  0.014996023           57 
 4409000   0.55182918   -7.6641215    850.03841  0.016066349  0.014991321           64 
 4410000    0.5447245   -7.6806401     849.0511  0.016044049  0.014986614           52 
 4411000   0.54107153   -7.6524814    850.16876  0.016061527   0.01498191           65 
 4412000   0.53809809   -7.6764763    849.96375  0.016054015   0.01497721           73 
 4413000   0.55003471   -7.6604573    848.90889  0.016030457  0.014972507           52 
 4414000   0.53850924   -7.6680375    849.70457  0.016041847  0.014967808           62 
 4415000   0.54880909   -7.6658605    848.19206  0.016009665   0.01496311           50 
 4416000   0.53772372   -7.6609112    848.39648  0.016009897  0.014958415           47 
 4417000    0.5444156   -7.6859245    848.42361  0.016006785  0.014953716           80 
 4418000   0.53991032   -7.6667284    849.54925  0.016024394  0.014949023           59 
 4419000   0.54106629    -7.676165    849.13513  0.016012958  0.014944328           74 
 4420000   0.54119022   -7.6800739    848.52741  0.015997877  0.014939637           61 
 4421000   0.54947402       -7.658    848.79204  0.015999247  0.014934946           54 
 4422000   0.55149135   -7.6859061    848.44516  0.015989092  0.014930252           65 
 4423000   0.53966805   -7.6712559    849.28186  0.016001241  0.014925562           84 
 4424000   0.54272399   -7.6678372     849.4528  0.016000844  0.014920877           55 
 4425000   0.55253107   -7.6759348    849.54988  0.015999056  0.014916192           80 
 4426000   0.54951755   -7.6714821    849.02591  0.015985576  0.014911509           44 
 4427000   0.54863886   -7.6818937    849.29206  0.015986975  0.014906825           78 
 4428000   0.55425287   -7.6794884    848.61438  0.015970611  0.014902138           86 
 4429000   0.55076542   -7.6757916    850.57447  0.016003885   0.01489746          106 
 4430000   0.54122757   -7.6711593    847.71162  0.015946419  0.014892777           59 
 4431000   0.54182918   -7.6761447    849.28306  0.015972374  0.014888099           37 
 4432000   0.54551694   -7.6786418     849.1312  0.015965915  0.014883419           31 
 4433000   0.53519168   -7.6856561    849.11511   0.01596201  0.014878743           40 
 4434000   0.53418989   -7.6708584    847.80789  0.015933842  0.014874069           57 
 4435000    0.5495996   -7.6796334    847.75355  0.015929229  0.014869396           42 
 4436000   0.54095999    -7.683617    849.42615  0.015957059  0.014864723           43 
 4437000   0.54779382   -7.6705425    848.78226  0.015941369  0.014860056           78 
 4438000   0.54464721   -7.6676214    847.95316  0.015922209  0.014855391           37 
 4439000   0.53664061   -7.6849999    848.77405  0.015934033  0.014850727           66 
 4440000   0.53355634   -7.6908882    848.41794   0.01592376  0.014846067           68 
 4441000   0.53565972   -7.6861878    848.29411  0.015917851  0.014841406           35 
 4442000   0.54624939   -7.6723993    849.13252  0.015929996  0.014836749           36 
 4443000    0.5462184   -7.6815558    847.14311  0.015889097  0.014832093           56 
 4444000   0.55062555   -7.6857431    848.25487  0.015906369  0.014827432           48 
 4445000   0.53849242   -7.6827685    846.84123  0.015876288  0.014822772           44 
 4446000   0.53040646   -7.6861413     849.2704  0.015918249  0.014818113           37 
 4447000      0.54069   -7.6849517    848.38331  0.015898046  0.014813458           59 
 4448000   0.54168011   -7.6815197    849.15556   0.01590894  0.014808805           47 
 4449000   0.53766756   -7.7086103    847.71532  0.015878387  0.014804153           47 
 4450000   0.54510797   -7.6910807    847.53269  0.015871399  0.014799502           42 
 4451000    0.5265426    -7.686221    848.30189  0.015882234  0.014794852           47 
 4452000   0.53511439   -7.6778258    848.02482   0.01587348  0.014790205           53 
 4453000   0.52354484   -7.7149392    848.64525  0.015881526  0.014785554           38 
 4454000    0.5435203   -7.6905715    848.58199  0.015876777  0.014780908           68 
 4455000   0.53506031   -7.6942319    849.20489  0.015884865  0.014776265           55 
 4456000   0.54540782   -7.6891548     848.7735  0.015873233  0.014771624           59 
 4457000   0.53721433   -7.6817666    848.88314  0.015871721  0.014766983           49 
 4458000    0.5306867   -7.6985164    849.01011  0.015870534  0.014762347           40 
 4459000   0.54839388   -7.6856711    848.48761   0.01585721  0.014757707           39 
 4460000   0.53075274   -7.6747902    849.10664  0.015865221  0.014753074           52 
 4461000    0.5342928   -7.6813082    848.44727  0.015849347   0.01474844           52 
 4462000   0.54225933   -7.6904187    848.43895   0.01584564  0.014743808           46 
 4463000   0.54028932   -7.7091882    847.40453  0.015822775  0.014739181           51 
 4464000   0.53166987   -7.6780801    848.01847  0.015830691  0.014734552           42 
 4465000   0.53835013   -7.6799558    845.64118  0.015782777  0.014729925           56 
 4466000   0.53410051   -7.6724784    848.19827  0.015826957  0.014725303           70 
 4467000   0.54376382   -7.6804921    848.45016  0.015828113   0.01472068           56 
 4468000   0.54619141   -7.6709668    847.12441  0.015799843  0.014716063           42 
 4469000   0.53426608   -7.6839797    848.45579  0.015821134  0.014711451           55 
 4470000   0.52788995   -7.6945505    848.07498  0.015810496  0.014706838           34 
 4471000   0.54098959   -7.6806924    848.16477  0.015808633  0.014702222           58 
 4472000   0.53311449   -7.6904846    849.71665  0.015834016  0.014697619           81 
 4473000   0.54424869   -7.6974612    848.32538  0.015804557  0.014693004           38 
 4474000   0.54139101   -7.6735231     849.6208  0.015825153  0.014688393           68 
 4475000   0.53419308   -7.6840897    847.94555   0.01579042  0.014683784           44 
 4476000   0.54329355   -7.6819499     848.3527  0.015794472   0.01467918           57 
 4477000   0.53980943   -7.6961703    848.89702  0.015801076  0.014674575           76 
 4478000   0.53454808   -7.7033431    848.05254  0.015781832  0.014669971           73 
 4479000   0.53332153   -7.6840751    848.58174  0.015788155  0.014665363           75 
 4480000   0.54041213   -7.6749452    847.69254   0.01576809   0.01466076           87 
 4481000    0.5422581   -7.7175429    848.85104  0.015786116  0.014656156           62 
 4482000   0.53714146   -7.6878485     848.3959  0.015774132  0.014651559           57 
 4483000   0.53282169   -7.6712131    849.85886  0.015797808  0.014646958           61 
 4484000   0.52238367   -7.7016589    849.07901  0.015779791  0.014642365           77 
 4485000   0.54824086   -7.7029804    849.35613  0.015781422  0.014637775          125 
 4486000    0.5326623   -7.6939436     847.8223  0.015749411  0.014633187           54 
 4487000    0.5310799   -7.6969814    850.21754  0.015790386  0.014628605           84 
 4488000   0.52945692   -7.6958096    848.39958  0.015753112  0.014624021           61 
 4489000   0.53118011   -7.6827585    849.47854  0.015769632  0.014619438           55 
 4490000   0.53988844   -7.6910969    848.18137  0.015742045  0.014614854           74 
 4491000   0.53604425   -7.6811162    849.25124  0.015758392  0.014610271          135 
 4492000   0.53767413    -7.709054    849.36344  0.015756965  0.014605697           66 
 4493000   0.53618651   -7.6889794    847.92895  0.015726852   0.01460112           77 
 4494000   0.52504569   -7.6948164    847.62033   0.01571763  0.014596545           77 
 4495000   0.53391601   -7.6768172     848.8283  0.015736528  0.014591969           72 
 4496000   0.54479071     -7.67154    849.63518  0.015747983  0.014587401           62 
 4497000   0.53274019   -7.7000574    847.96195  0.015713475  0.014582834           82 
 4498000   0.53364957   -7.7097329    849.01748  0.015729537  0.014578264           70 
 4499000    0.5324001   -7.6971984    848.48536  0.015716184  0.014573688           65 
 4500000   0.53607966   -7.6875238    848.96232  0.015721525   0.01456912           73 
 4501000   0.53220472   -7.7017834    848.12688  0.015702564  0.014564559           71 
 4502000   0.53079363   -7.6981462    849.30359  0.015720857  0.014559996           56 
 4503000   0.52879218   -7.7157883    849.21326  0.015715694  0.014555437           93 
 4504000   0.52918532   -7.7213291    849.07875  0.015709716  0.014550873           57 
 4505000    0.5084461   -7.7039644    847.99617  0.015686204  0.014546312           82 
 4506000   0.53446307   -7.6853194    847.51136  0.015673757  0.014541751           40 
 4507000    0.5343314   -7.7003639    848.29068  0.015684688  0.014537191           72 
 4508000   0.52319235   -7.6988438    847.24315  0.015661845  0.014532632           71 
 4509000   0.52273425   -7.6837455    847.95652  0.015671555  0.014528075           76 
 4510000    0.5302148   -7.7206285    847.86452  0.015666381  0.014523515           35 
 4511000   0.54056072   -7.7128559    847.24123  0.015651393   0.01451896           95 
 4512000   0.52723628   -7.7031156    847.32823  0.015649531  0.014514403           80 
 4513000   0.53930039   -7.7005777    848.88606  0.015674829  0.014509853           88 
 4514000   0.52377132   -7.7053919    847.94596  0.015654002  0.014505305           88 
 4515000   0.52095999   -7.6911295    847.87806  0.015649281  0.014500756           72 
 4516000    0.5367507   -7.6866338    846.67092  0.015623541  0.014496212           43 
 4517000   0.52311609   -7.6863973    847.45902  0.015634621  0.014491663           85 
 4518000   0.53508853   -7.6981079    848.37581  0.015648071  0.014487119           64 
 4519000   0.53016969   -7.7042678    848.31298   0.01564345  0.014482576           65 
 4520000   0.52557046   -7.7000985    847.96762  0.015633621   0.01447803           33 
 4521000   0.53308002   -7.7124249    848.72372    0.0156441  0.014473485          105 
 4522000   0.51908949   -7.6967005    848.30522  0.015632928  0.014468943           94 
 4523000   0.51221238   -7.6995977    849.11777  0.015644443  0.014464404           78 
 4524000    0.5194074   -7.7090708     848.8342  0.015635761  0.014459867           44 
 4525000   0.52441723   -7.7059605    848.04958  0.015617856  0.014455329           40 
 4526000    0.5180879   -7.7083525    847.47117  0.015603756   0.01445079           90 
 4527000   0.52934177   -7.7249471    848.40795  0.015617553  0.014446255           38 
 4528000   0.52546937    -7.707719    848.83363  0.015621938  0.014441723           81 
 4529000   0.52309033   -7.7038434    848.57311  0.015613695  0.014437192           40 
 4530000   0.53926272   -7.7008269    847.62405   0.01559279  0.014432659           55 
 4531000   0.53966275    -7.716734    847.11216  0.015579934  0.014428133           89 
 4532000   0.51706772   -7.7186298    848.14062  0.015595407  0.014423605           49 
 4533000   0.51790126   -7.6997649      847.632  0.015582616  0.014419074           49 
 4534000   0.53026268   -7.7045365    847.45935  0.015576006  0.014414544           32 
 4535000   0.52896229    -7.715394    847.46134  0.015572608  0.014410016           84 
 4536000   0.52215516   -7.7235834    846.82272  0.015557443  0.014405492           84 
 4537000   0.52166977     -7.70962    848.19873  0.015579287  0.014400967           81 
 4538000   0.52599214   -7.7060817    847.00568  0.015553946  0.014396445           59 
 4539000   0.53105765   -7.7230545     846.7334   0.01554552  0.014391926           36 
 4540000   0.52422811   -7.7011593     846.6806  0.015541127  0.014387409           86 
 4541000   0.52049004   -7.7247305    848.45302  0.015570231  0.014382895           64 
 4542000   0.52653114   -7.7211451    847.62336  0.015551581  0.014378384          100 
 4543000    0.5355689    -7.714577    846.13318  0.015520823  0.014373873          119 
 4544000   0.52850729   -7.7125141    847.93018  0.015550363  0.014369362           59 
 4545000   0.51695081   -7.7083024     846.6167  0.015522858   0.01436485           27 
 4546000   0.52255109    -7.705384    848.67292  0.015557137  0.014360343           91 
 4547000   0.53272593   -7.7126464    847.33892  0.015529267  0.014355833           37 
 4548000   0.52992009   -7.7143517    847.50268  0.015528853  0.014351329           63 
 4549000   0.52128795   -7.7016985    846.84917  0.015513468  0.014346828           87 
 4550000   0.51751279   -7.7125592    848.55983  0.015541389  0.014342325           46 
 4551000   0.51975668   -7.7127343    847.67763   0.01552182  0.014337825           36 
 4552000   0.52738208   -7.6978634    846.73918   0.01550123  0.014333326           67 
 4553000   0.53343054   -7.7130133    846.96189  0.015501902  0.014328831           98 
 4554000   0.52254825   -7.7206194    847.06871  0.015500452  0.014324335           64 
 4555000   0.52041014   -7.7260036    848.04376  0.015514888  0.014319839           70 
 4556000   0.52000569   -7.7009754    848.01487  0.015510954  0.014315349           58 
 4557000    0.5166716   -7.7136446    848.10367  0.015509174  0.014310859           91 
 4558000    0.5225334   -7.7114843    847.04849   0.01548648  0.014306372           55 
 4559000   0.51715705   -7.7109105    846.91617  0.015480664  0.014301888           81 
 4560000   0.52223854   -7.7125517    846.92709  0.015477469  0.014297405           96 
 4561000    0.5160141   -7.7230394    846.94478  0.015474398   0.01429292           94 
 4562000   0.53348779   -7.7198709    847.30347  0.015477559  0.014288437           69 
 4563000   0.52413068   -7.6981761     846.5473  0.015460357  0.014283957           39 
 4564000   0.51459553   -7.7099973    847.66779  0.015477428  0.014279483           71 
 4565000   0.52930469   -7.7175875     845.7995  0.015439932   0.01427501           41 
 4566000   0.51294072   -7.7099054    847.76444  0.015472413  0.014270537           50 
 4567000   0.52015859   -7.7075966    846.50547  0.015446053   0.01426607           31 
 4568000   0.51836319   -7.7171168    847.28962  0.015456976    0.0142616           47 
 4569000   0.50718686   -7.7009261    847.45687  0.015456644  0.014257131           39 
 4570000   0.52666168   -7.7107391    847.63534  0.015456516  0.014252666           60 
 4571000   0.52213367   -7.7125738    846.61503  0.015434533  0.014248202           71 
 4572000   0.51761568    -7.721029    847.27379  0.015443165  0.014243732           79 
 4573000   0.51968158   -7.7155827    846.91957  0.015433333  0.014239267           70 
 4574000   0.52860892    -7.725291    847.86729  0.015447225  0.014234799           33 
 4575000    0.5234509   -7.7171694    846.62781  0.015421272  0.014230333           48 
 4576000   0.51636214   -7.7270608     846.9239  0.015423294  0.014225865           46 
 4577000   0.50821629   -7.7141239    847.89923  0.015437682  0.014221403           74 
 4578000   0.51995859   -7.7319447    846.55936   0.01540992   0.01421694           93 
 4579000   0.51264107   -7.7142182    845.76458   0.01539209  0.014212481           56 
 4580000   0.51512236   -7.7247387    847.41911  0.015418834  0.014208023           48 
 4581000   0.52068179   -7.7251013    845.92596  0.015388306  0.014203567           65 
 4582000    0.5263158   -7.7199885    846.65713  0.015398246  0.014199109          186 
 4583000    0.5254387   -7.7217006    847.67582  0.015413409  0.014194655           56 
 4584000    0.5177614   -7.7254725     845.5424  0.015371262  0.014190203           62 
 4585000    0.5178873   -7.7123693    847.79042  0.015408768  0.014185752           52 
 4586000   0.51702008   -7.7423855    847.10354  0.015392927  0.014181305          110 
 4587000   0.51218985    -7.738114    846.86723  0.015385278  0.014176853          110 
 4588000   0.51355478   -7.7169886    846.41081  0.015373634  0.014172405           58 
 4589000   0.50503866   -7.7165502     844.9742  0.015344196  0.014167957           49 
 4590000   0.52075129   -7.6983453    845.95616  0.015358681  0.014163512           55 
 4591000   0.52335189     -7.72637     847.8405  0.015389539  0.014159069           59 
 4592000   0.50819425   -7.7092769    845.58922  0.015345333  0.014154623           83 
 4593000   0.51385026   -7.7233175    847.81684  0.015382409  0.014150183           47 
 4594000   0.51800697   -7.7214834    846.91041  0.015362618  0.014145747           34 
 4595000   0.52079523   -7.7318658    848.41384   0.01538654  0.014141306          100 
 4596000   0.51524112   -7.7238353    847.30786  0.015363139  0.014136871           52 
 4597000   0.52842925   -7.7100044    845.97085   0.01533556  0.014132437           97 
 4598000   0.51248567   -7.7100365     847.9918  0.015368852  0.014128007           97 
 4599000   0.51821346   -7.7255866    845.51349  0.015320604  0.014123578           88 
 4600000   0.52238041   -7.7350361    847.85213   0.01535964  0.014119147           54 
 4601000   0.51221613   -7.7094833     847.0522  0.015341813  0.014114727           94 
 4602000   0.50609319   -7.7258166    848.24325  0.015360047  0.014110301           50 
 4603000   0.51641178   -7.7086167    846.35664  0.015322555  0.014105876           91 
 4604000   0.50911232   -7.7299347    847.63544  0.015342373  0.014101453           89 
 4605000   0.51165689   -7.7259042     846.5754  0.015319859  0.014097026           81 
 4606000   0.51615919   -7.7304252    847.02279  0.015324627  0.014092602           52 
 4607000   0.51059711   -7.7382499    848.30723  0.015344534   0.01408818          101 
 4608000   0.52717563    -7.721907    845.82484  0.015296311  0.014083758           43 
 4609000   0.51453285   -7.7361277    846.71173  0.015309028  0.014079345          112 
 4610000   0.53281055   -7.7482831    845.87673  0.015290613  0.014074931          100 
 4611000   0.51936948   -7.7285976    846.89726  0.015305741  0.014070515           82 
 4612000   0.52176342   -7.7277139     846.5905   0.01529688  0.014066105           58 
 4613000   0.51743275   -7.7289022    845.42469  0.015272503  0.014061695          100 
 4614000   0.52561914   -7.7285978    845.25537  0.015266135  0.014057283           93 
 4615000   0.50275242   -7.7252856    847.31367  0.015299994  0.014052877           86 
 4616000   0.51556115   -7.7205989    846.94039  0.015289941  0.014048472           64 
 4617000   0.51580133   -7.7202956    847.10944   0.01528968  0.014044069           59 
 4618000   0.50774585   -7.7209963    845.51583  0.015257612  0.014039665           90 
 4619000    0.5188367   -7.7279221    845.85659  0.015260457  0.014035261          100 
 4620000   0.50752689   -7.7178639    846.31289  0.015265384  0.014030862           61 
 4621000    0.5132923   -7.7272052    846.50133  0.015265479  0.014026463           82 
 4622000   0.51392104   -7.7440507    846.58477   0.01526368  0.014022068           54 
 4623000   0.52146457   -7.7337641    846.55951  0.015259923  0.014017672           99 
 4624000   0.50949629   -7.7193716    846.55537  0.015256549  0.014013284           92 
 4625000   0.51827895   -7.7267902    847.84515  0.015276489  0.014008895           41 
 4626000   0.50107307   -7.7469653    847.99032  0.015275802   0.01400451          100 
 4627000   0.50119582   -7.7417195    845.94161  0.015235603  0.014000122          126 
 4628000   0.51741997    -7.717011    848.23674  0.015273638  0.013995736           57 
 4629000   0.51154847   -7.7436221     846.1874  0.015233445  0.013991351           64 
 4630000   0.51491287   -7.7320477    846.38343  0.015233683  0.013986963          109 
 4631000   0.50842644   -7.7386092    845.84365   0.01522068   0.01398258           73 
 4632000   0.50496728   -7.7258483    846.31828  0.015225933  0.013978201          100 
 4633000   0.51571776   -7.7333181    845.81922   0.01521367  0.013973818           93 
 4634000   0.51471382   -7.7283369    845.57525     0.015206  0.013969434          108 
 4635000    0.5113293   -7.7356116    847.08457  0.015229856  0.013965056          114 
 4636000   0.52049135   -7.7460775    846.17916  0.015210296  0.013960685           87 
 4637000   0.52476435   -7.7248592    845.61379  0.015196855  0.013956315          108 
 4638000   0.51046972   -7.7415548    846.77484  0.015214439  0.013951941           83 
 4639000   0.51355143   -7.7200939    845.92088  0.015195819   0.01394757           67 
 4640000   0.49747748   -7.7322652    846.38252  0.015200835    0.0139432           57 
 4641000   0.50711187   -7.7449216    844.93415  0.015171553  0.013938831          100 
 4642000   0.50333871   -7.7441719    847.34639   0.01521159  0.013934463           45 
 4643000   0.49880438   -7.7344639    845.26234  0.015170909  0.013930095           78 
 4644000   0.51177192   -7.7417741    846.48177  0.015189524  0.013925729          100 
 4645000    0.5109476   -7.7459504    846.37902   0.01518441  0.013921371           89 
 4646000   0.50870289   -7.7355287    846.98202  0.015191958  0.013917012           47 
 4647000   0.50760004   -7.7327304    845.39901  0.015160301  0.013912651           47 
 4648000   0.49979069   -7.7392157    847.38219  0.015192595  0.013908296           31 
 4649000   0.50438152   -7.7338294    846.86114  0.015179987  0.013903939           97 
 4650000    0.5072656   -7.7236796    845.38103  0.015150198  0.013899582           98 
 4651000   0.50515764   -7.7253342    845.53208  0.015149647  0.013895229           98 
 4652000   0.51389285   -7.7277413    846.62297  0.015165932  0.013890875           81 
 4653000    0.5049163   -7.7398069     846.4383  0.015159365  0.013886522           59 
 4654000    0.5088247   -7.7324376    846.29652  0.015153569  0.013882175           98 
 4655000   0.50351275   -7.7377777    846.41353  0.015152408  0.013877827           58 
 4656000   0.50557514   -7.7351461     846.3713  0.015148398  0.013873478           64 
 4657000   0.50530135   -7.7362439    844.70553  0.015115338  0.013869134           57 
 4658000   0.50439066   -7.7340923    845.00758  0.015117496  0.013864786           46 
 4659000   0.52006232   -7.7391974    846.67397  0.015144058  0.013860441           50 
 4660000   0.50252588   -7.7489742    846.23502  0.015132958  0.013856095           46 
 4661000   0.49660527   -7.7414931     845.0226  0.015108035  0.013851754           55 
 4662000   0.49785821   -7.7302022    844.76376  0.015100167  0.013847418           63 
 4663000   0.50773227   -7.7307968    845.13551  0.015103573  0.013843078           56 
 4664000   0.50442748    -7.751727    845.93581  0.015114634  0.013838738           88 
 4665000   0.49806485   -7.7585275    844.71667  0.015089615  0.013834403           55 
 4666000   0.50406613   -7.7270889    844.81358  0.015088112  0.013830066           41 
 4667000   0.50926395   -7.7505056    846.99107   0.01512376  0.013825736           70 
 4668000   0.50297279   -7.7465592    847.43119  0.015128377  0.013821402           71 
 4669000   0.49916413   -7.7340483    846.01193  0.015099806  0.013817076           60 
 4670000   0.50873893   -7.7348781    846.29973  0.015101708  0.013812748           77 
 4671000   0.50078805   -7.7353278    846.34318   0.01509925  0.013808421           54 
 4672000   0.50110003     -7.75043    845.01245  0.015072282  0.013804098           70 
 4673000   0.50827462   -7.7374208     845.3945   0.01507587   0.01379978           78 
 4674000   0.50382119   -7.7428269    845.76555   0.01507926  0.013795464           48 
 4675000   0.48789817   -7.7637167    846.22108  0.015084155  0.013791146           54 
 4676000   0.50651844   -7.7426434    844.83071   0.01505615  0.013786827           91 
 4677000   0.50642775   -7.7479004    845.44078  0.015063801   0.01378251           75 
 4678000   0.50548266   -7.7220436    845.98181  0.015070219  0.013778195           49 
 4679000   0.49347413   -7.7429429    846.39272  0.015074317  0.013773885           84 
 4680000   0.50335864    -7.737752    846.66242  0.015075898  0.013769577           64 
 4681000   0.50185974   -7.7400358    845.63499  0.015054386  0.013765273           88 
 4682000    0.5157516   -7.7489079    845.61731  0.015050856  0.013760969           73 
 4683000   0.50363985    -7.730272    844.20978  0.015022596  0.013756663           78 
 4684000   0.50116158   -7.7418162    846.12922  0.015053537  0.013752366           82 
 4685000   0.49099506   -7.7385276    845.67113  0.015042176  0.013748067          124 
 4686000    0.5021712   -7.7531965    846.29599  0.015050078  0.013743764          120 
 4687000   0.49515997   -7.7518243    846.27676  0.015046525  0.013739465           82 
 4688000   0.52130257   -7.7320929    846.01003  0.015038574  0.013735172           90 
 4689000   0.50457437   -7.7359531    844.80769  0.015013999  0.013730878          176 
 4690000   0.48966638   -7.7550992     845.2132  0.015018003  0.013726578          101 
 4691000   0.51056719   -7.7489444    845.65429  0.015022637  0.013722287          118 
 4692000   0.50097194   -7.7327209     845.7297  0.015020775  0.013717999          138 
 4693000   0.49520743   -7.7252145    845.65252  0.015016204  0.013713714          110 
 4694000   0.49286179   -7.7465803    846.72585   0.01503206  0.013709427           51 
 4695000   0.49969186   -7.7439233    846.13909  0.015018443   0.01370514          102 
 4696000   0.49883994   -7.7521091    846.23151  0.015016885  0.013700857          125 
 4697000   0.50247586   -7.7501407    845.49507  0.015000622  0.013696569           73 
 4698000   0.50521923   -7.7547668    847.08055  0.015025553   0.01369229           79 
 4699000   0.49673835   -7.7518468    846.89276  0.015019025  0.013688009          170 
 4700000   0.50212838   -7.7443308    844.68274  0.014976644   0.01368373           73 
 4701000   0.49549477   -7.7390756    846.49688  0.015005617  0.013679452           94 
 4702000   0.51821971    -7.738488    845.72626  0.014988768   0.01367518           95 
 4703000   0.49146246   -7.7485734    845.29526  0.014977944  0.013670902           52 
 4704000   0.49371696    -7.772154    845.72057  0.014982295  0.013666625          128 
 4705000   0.50726026   -7.7551813    845.58777  0.014976758  0.013662351           53 
 4706000   0.49384439   -7.7484322    843.16123  0.014930607  0.013658081          131 
 4707000   0.49403544   -7.7533916    845.37134  0.014966563  0.013653812           81 
 4708000   0.50599244   -7.7501943    845.99123  0.014974356  0.013649538           60 
 4709000   0.51741462   -7.7484061    844.60356  0.014946619  0.013645269           85 
 4710000   0.49201903   -7.7466267    844.31846  0.014938402  0.013641001           94 
 4711000   0.49914148    -7.750544    846.18727  0.014968288  0.013636736           53 
 4712000   0.50173995   -7.7591886    845.46254  0.014952294   0.01363247           99 
 4713000   0.50351956   -7.7554417     845.6975  0.014953276  0.013628208           48 
 4714000   0.50324325   -7.7560661    846.00169  0.014955482  0.013623946           96 
 4715000   0.49218497    -7.750305    844.91715  0.014933141  0.013619686           95 
 4716000   0.49394096   -7.7555694    844.70881  0.014926294  0.013615429          119 
 4717000   0.50123576    -7.752038    844.56212  0.014920538  0.013611175           61 
 4718000   0.50109916   -7.7496892    844.78396  0.014921294  0.013606922          101 
 4719000   0.49881021   -7.7610612    846.43563  0.014947299  0.013602668           83 
 4720000   0.49086154   -7.7664536    846.07372  0.014937742  0.013598425           96 
 4721000   0.50738535   -7.7523203    844.95869  0.014914896  0.013594179           85 
 4722000   0.49106374   -7.7478643    844.55324  0.014904582  0.013589932          107 
 4723000   0.50830694   -7.7449314     845.7869  0.014923193  0.013585686          101 
 4724000   0.49695189   -7.7415849     844.8858  0.014904138  0.013581442          104 
 4725000   0.49719308   -7.7442752    843.79952  0.014881826  0.013577198           94 
 4726000   0.49373337   -7.7705536    846.05378  0.014918426  0.013572958          116 
 4727000   0.48989197   -7.7549648    847.80357  0.014946117  0.013568717          101 
 4728000   0.48948146   -7.7604056    845.48862  0.014902154  0.013564478          101 
 4729000   0.51049681   -7.7443654    845.95894  0.014907291  0.013560239          105 
 4730000   0.49154259   -7.7511157    845.97571  0.014904435  0.013556004           51 
 4731000    0.4964298   -7.7817291    845.47534  0.014892471  0.013551772           70 
 4732000   0.49634958   -7.7652436    845.29175   0.01488609  0.013547539           98 
 4733000   0.48793548   -7.7542776    845.07573  0.014879142  0.013543311           84 
 4734000   0.49889811   -7.7518768    845.13779  0.014877091  0.013539085           99 
 4735000   0.48604448   -7.7688816    845.82996  0.014886131  0.013534858           95 
 4736000   0.49604067   -7.7597265    844.84918   0.01486573  0.013530633          100 
 4737000   0.49184335   -7.7521418    844.22633  0.014851635  0.013526411           96 
 4738000    0.4892368   -7.7585905    844.57304  0.014854598  0.013522191           79 
 4739000   0.49590754   -7.7603598    844.78423  0.014855177  0.013517972          101 
 4740000   0.49886049   -7.7658405    845.16923  0.014858812   0.01351375           70 
 4741000   0.49976778    -7.759635    844.76478  0.014848569  0.013509527          125 
 4742000   0.49695218   -7.7477479    844.97472  0.014849127   0.01350531           67 
 4743000    0.4945497   -7.7588621    845.45971  0.014854517  0.013501097          109 
 4744000   0.48899622   -7.7573973    845.13946  0.014845761  0.013496886           99 
 4745000    0.4926779   -7.7707066    844.55007  0.014832281  0.013492672          146 
 4746000   0.49642729   -7.7561366    845.52009  0.014846188  0.013488462           81 
 4747000    0.4814087    -7.770384    845.81299  0.014848202  0.013484251           89 
 4748000   0.49546898   -7.7551581    844.49136  0.014821879  0.013480044           78 
 4749000   0.49099888   -7.7640672    845.40985  0.014834875   0.01347584           91 
 4750000   0.49515245    -7.742981     844.5808  0.014817207  0.013471637           98 
 4751000   0.49243202   -7.7673981    845.62689  0.014832437  0.013467435           83 
 4752000    0.5017521   -7.7730054    844.60791  0.014811446  0.013463235           79 
 4753000   0.48730409   -7.7636879    845.06375  0.014816322  0.013459039          118 
 4754000   0.49079731   -7.7765813    844.26703   0.01479924  0.013454841           86 
 4755000   0.48539102   -7.7586074    844.36625  0.014797866  0.013450645           86 
 4756000    0.4929585    -7.767551    845.94676  0.014822448   0.01344645           83 
 4757000   0.49633355   -7.7620895    845.39824  0.014809723  0.013442257           71 
 4758000   0.48600485   -7.7771286    845.28901  0.014804698  0.013438062           65 
 4759000   0.49237678   -7.7619569    844.82142  0.014793399  0.013433872           79 
 4760000   0.48631816   -7.7738653    845.28389  0.014798387  0.013429684          182 
 4761000   0.49731254   -7.7703235    844.52157  0.014781936  0.013425496           94 
 4762000   0.49700069   -7.7576491    845.04692  0.014788025  0.013421309           86 
 4763000   0.49353394   -7.7610861    846.74243  0.014814585  0.013417126           67 
 4764000    0.4827334   -7.7720748    844.86245   0.01477859  0.013412942           79 
 4765000   0.47557305   -7.7788404    844.80005  0.014774398  0.013408761           99 
 4766000   0.49308329    -7.775362    845.09189    0.0147764  0.013404581          106 
 4767000   0.48822679   -7.7722228    844.51245  0.014763171  0.013400403           75 
 4768000    0.4906501   -7.7715824    844.09392   0.01475276  0.013396227           83 
 4769000   0.49227238    -7.767222    844.78589  0.014761758  0.013392055           62 
 4770000   0.49140451   -7.7851857    844.12998  0.014747204  0.013387885           77 
 4771000   0.48519744   -7.7714861    844.42302  0.014749232  0.013383713          114 
 4772000   0.48614827    -7.769099    844.20054  0.014742256  0.013379544           77 
 4773000   0.48890387   -7.7773671    845.20846  0.014756765  0.013375376           98 
 4774000   0.48851372   -7.7703954    844.13962  0.014735016  0.013371208           67 
 4775000   0.48823795   -7.7870885    846.17853  0.014767514   0.01336704          103 
 4776000   0.48820109   -7.7348872    844.07849  0.014727779  0.013362881           55 
 4777000   0.47883426   -7.7925445    845.38822  0.014747544  0.013358719          142 
 4778000    0.4904189   -7.7714998    844.95371  0.014736879  0.013354558           87 
 4779000   0.48340032   -7.7811176    846.21638  0.014755813  0.013350399          103 
 4780000   0.48479048   -7.7802022    844.67391  0.014725835  0.013346241          100 
 4781000   0.47557823   -7.7844908    845.30148  0.014733694  0.013342083           76 
 4782000   0.48857374   -7.7722312    844.98111   0.01472503  0.013337928           74 
 4783000   0.49161657   -7.7670728    843.66075  0.014698947  0.013333778           96 
 4784000   0.48500921   -7.7828136    845.52559  0.014728358  0.013329628           85 
 4785000    0.4796758   -7.7717829    844.20123  0.014702216  0.013325478          101 
 4786000    0.4863677   -7.7728281    843.50014  0.014686937  0.013321327           89 
 4787000    0.4938891   -7.7757962    844.99975  0.014709974   0.01331718           84 
 4788000   0.48783481   -7.7807421    844.52558  0.014698649   0.01331304           96 
 4789000   0.48797984   -7.7786484    845.08709  0.014705351  0.013308892           78 
 4790000   0.48123478   -7.7777643     844.3248  0.014689019  0.013304744          139 
 4791000   0.49899095   -7.7793122     845.8324  0.014712176  0.013300605           68 
 4792000   0.48369868   -7.7616294    843.35977  0.014666106  0.013296463          102 
 4793000   0.48004753   -7.7694082    843.38082  0.014663412  0.013292326           94 
 4794000   0.47710224   -7.7803397    843.84866  0.014668486  0.013288189           88 
 4795000   0.48279097   -7.7787995    845.21663  0.014689201  0.013284054          112 
 4796000   0.49396415   -7.7791114    844.56301  0.014674781  0.013279918           95 
 4797000   0.49159643   -7.7842232    846.10984  0.014698594  0.013275785          114 
 4798000   0.49136678   -7.7697889    844.38613  0.014665592  0.013271651           71 
 4799000   0.48349039   -7.7853445    844.87223  0.014670977  0.013267517           78 
 4800000   0.48769991   -7.7765672    845.66784  0.014681733  0.013263386          105 
 4801000   0.47935816   -7.7763175    844.72074  0.014662236  0.013259256           57 
 4802000   0.49214926   -7.7608462    844.00835   0.01464682  0.013255126           71 
 4803000   0.47908664   -7.7823886    844.89821   0.01465921  0.013251001           49 
 4804000   0.48778279   -7.7662758    844.90894  0.014656344  0.013246877          120 
 4805000   0.48488271   -7.7694705    843.19329   0.01462354  0.013242751           83 
 4806000   0.48177153   -7.7870666    845.33458  0.014657626  0.013238629           76 
 4807000   0.48119517   -7.7794606    844.34502  0.014637421  0.013234508           50 
 4808000   0.47804361   -7.7790241    844.61499  0.014639056  0.013230388           63 
 4809000   0.48265279   -7.7645876    845.36119  0.014648943  0.013226268          213 
 4810000   0.48447734   -7.7932916    843.51537  0.014613918  0.013222153           94 
 4811000    0.4805868   -7.7780366    844.12529  0.014621445  0.013218037           92 
 4812000   0.48385595   -7.7909975    844.32751  0.014621909  0.013213926          108 
 4813000   0.47995581   -7.7826147    844.08828  0.014614729  0.013209818           60 
 4814000   0.47694559   -7.7652923    844.29223  0.014615223  0.013205708           80 
 4815000   0.47010976   -7.7926401    844.14565  0.014609651  0.013201602          140 
 4816000   0.48056373   -7.7915652    845.42986  0.014628839  0.013197493           81 
 4817000   0.47479563   -7.7768493    843.66741  0.014595312  0.013193391          126 
 4818000   0.47553008   -7.7733326    845.02139  0.014615701   0.01318929           88 
 4819000    0.4754222   -7.7727537     843.2374  0.014581818  0.013185189           87 
 4820000   0.47418875   -7.7819035    844.46653  0.014600044  0.013181092           93 
 4821000   0.47143056   -7.7959178    844.43825  0.014596526  0.013176992           91 
 4822000   0.47699453   -7.7636559    844.11861  0.014587975  0.013172894           74 
 4823000   0.48199573   -7.7923864    843.12363  0.014567759    0.0131688           77 
 4824000   0.48757352    -7.777854    845.28534  0.014602082  0.013164707          106 
 4825000   0.48076252     -7.79119     844.2422   0.01458104  0.013160615           58 
 4826000   0.46858399   -7.7821769    844.42837  0.014581233   0.01315652           72 
 4827000   0.47647618   -7.7771465    845.15844  0.014590816  0.013152427          106 
 4828000   0.48196732   -7.7912451    844.60287  0.014578205  0.013148341           72 
 4829000   0.48306274   -7.7866321    844.45073   0.01457256  0.013144255           83 
 4830000   0.47448517   -7.7820738    844.08533  0.014563239  0.013140171           80 
 4831000   0.48509536   -7.7924019    845.67307  0.014587612  0.013136091          122 
 4832000   0.47076114   -7.7693608    844.06055  0.014556784   0.01313201           82 
 4833000    0.4792876   -7.7710674     843.7089  0.014547708  0.013127928          143 
 4834000   0.46520183   -7.7829786    843.19508  0.014535841  0.013123847           99 
 4835000   0.46911158   -7.7820964    843.97488  0.014546275  0.013119769           63 
 4836000   0.48457399   -7.7810737    844.75107  0.014556642  0.013115697           68 
 4837000   0.47967549   -7.7896279    843.53596  0.014532699  0.013111622           69 
 4838000    0.4822112   -7.7759865    843.65416  0.014531731   0.01310755           75 
 4839000   0.47726058   -7.7676409    843.13154  0.014519728  0.013103479           99 
 4840000   0.47761904    -7.780051    845.12968  0.014551131  0.013099411           72 
 4841000   0.47675894   -7.8067839    843.84573  0.014526023  0.013095346           94 
 4842000   0.46830729   -7.7879857    844.03319  0.014526249  0.013091278           80 
 4843000   0.47388146    -7.799919    844.30065  0.014527852  0.013087214           65 
 4844000   0.47705189   -7.7739614    844.04625  0.014520476  0.013083158           70 
 4845000   0.47798177   -7.7913908    844.38847  0.014523365    0.0130791           78 
 4846000   0.46930073   -7.7888119     845.2516  0.014535211  0.013075046           76 
 4847000   0.46736547   -7.7689925    844.23787  0.014514783   0.01307099           68 
 4848000    0.4672515   -7.7909271    845.05328  0.014525806  0.013066937           88 
 4849000   0.47337457   -7.7699557    844.32833  0.014510352  0.013062882           85 
 4850000   0.47978323   -7.7899054    843.93262   0.01450056  0.013058835           73 
 4851000   0.47889652    -7.794639    844.33555  0.014504493  0.013054785           91 
 4852000   0.47168845   -7.7876021    844.38048  0.014502275  0.013050734          134 
 4853000   0.47350358   -7.7982598    844.79574  0.014506418  0.013046686           89 
 4854000   0.47433813   -7.7764425    844.03412  0.014490354  0.013042638           71 
 4855000   0.48186375   -7.8009479    843.47843  0.014477831  0.013038592          125 
 4856000   0.48223461   -7.7901077    844.52031  0.014492729  0.013034548           80 
 4857000   0.48405656   -7.7951654    844.32321  0.014486363  0.013030506           97 
 4858000   0.47572897   -7.7991535     844.9398  0.014493958  0.013026465           98 
 4859000   0.47954183   -7.8039981    843.57396  0.014467551  0.013022425           87 
 4860000   0.46306215   -7.7814896    843.94155  0.014470877  0.013018385           98 
 4861000   0.47361471   -7.8009224    844.48979  0.014477299  0.013014348           98 
 4862000   0.47105955   -7.7923444    843.41979  0.014455982  0.013010313          104 
 4863000    0.4721932   -7.8008148    843.88921  0.014461053  0.013006276           89 
 4864000   0.48018374   -7.7853429    843.34542  0.014448763  0.013002241           76 
 4865000    0.4843484   -7.7836569    843.57877  0.014449791  0.012998208           69 
 4866000    0.4820004   -7.7894607    844.02774   0.01445451  0.012994174           98 
 4867000   0.46464462   -7.7740587    842.79809  0.014430486  0.012990142           72 
 4868000   0.46752166   -7.7869178    843.46983  0.014439021  0.012986111          109 
 4869000   0.47204691   -7.7873592     844.1259  0.014447284  0.012982081          114 
 4870000   0.47296482   -7.7924555    843.68931  0.014436846  0.012978051           98 
 4871000   0.48044349   -7.7779595    844.05988  0.014440222  0.012974024          141 
 4872000   0.46700005    -7.789485    844.23252  0.014440211  0.012970003          107 
 4873000   0.47240068   -7.7902604    843.77375  0.014429403  0.012965985           72 
 4874000    0.4823712   -7.7787328    843.61856  0.014423789  0.012961963           88 
 4875000   0.48057964   -7.8034299    843.57028  0.014420005  0.012957945           77 
 4876000   0.46804874    -7.797897    843.34013  0.014413114  0.012953925           77 
 4877000   0.46904233   -7.8035458    843.35202  0.014410362  0.012949908          109 
 4878000   0.47130928   -7.7849426    842.81358  0.014398209  0.012945888          125 
 4879000   0.47776194   -7.7912523    844.78385   0.01442891  0.012941872           87 
 4880000   0.47078563   -7.7931989    844.24475  0.014416748  0.012937858          129 
 4881000   0.46099007    -7.805562     844.7049   0.01442165  0.012933847           63 
 4882000   0.47617187   -7.7859194    844.00186  0.014406696  0.012929835           60 
 4883000   0.47452115   -7.7877048    843.37566  0.014393059  0.012925829           98 
 4884000   0.47307412   -7.7775411    843.77751  0.014396968  0.012921823           88 
 4885000   0.46628963   -7.7978942    844.03755  0.014398457   0.01291782           77 
 4886000   0.47901179   -7.8036165    844.11909  0.014396901  0.012913812          133 
 4887000   0.47231431   -7.7844041    844.02226  0.014392304   0.01290981           90 
 4888000   0.46208843   -7.7954246    843.97929  0.014388627  0.012905809           99 
 4889000   0.47591555   -7.7979091    843.12284  0.014371085   0.01290181           68 
 4890000   0.46086686   -7.8033184    843.48881  0.014374383  0.012897812           73 
 4891000   0.46931022   -7.7961014    842.86959  0.014360894  0.012893816           93 
 4892000   0.45937943   -7.7931183    844.33098  0.014382853  0.012889818          169 
 4893000   0.46790024   -7.7978662    844.34822  0.014380207  0.012885824           73 
 4894000    0.4755856    -7.790316    843.89049  0.014369474  0.012881833           67 
 4895000   0.47264243   -7.8019257    844.17363  0.014371359  0.012877839           57 
 4896000   0.46017316   -7.7972669    844.49355  0.014373869  0.012873854          125 
 4897000   0.46910287   -7.7949453     844.4052   0.01436943  0.012869863           82 
 4898000   0.45530365   -7.7962809     843.6029  0.014352846   0.01286588          114 
 4899000   0.47831414   -7.7956962    842.32527  0.014328184  0.012861897           67 
 4900000   0.46844738   -7.8033645    844.07747  0.014355059  0.012857917           74 
 4901000   0.47056201   -7.7928962     845.0082  0.014367955  0.012853936           82 
 4902000   0.47176831   -7.7817976    843.32089   0.01433634  0.012849957           85 
 4903000   0.47597355   -7.7707765    842.21478  0.014314617  0.012845983           81 
 4904000   0.47362173    -7.787007    843.36282  0.014331206  0.012842008           80 
 4905000   0.46778253   -7.7949667    844.09084  0.014340653  0.012838032           84 
 4906000    0.4574276   -7.7910875    844.61637  0.014346657   0.01283406           81 
 4907000   0.47562623    -7.790583    844.65159  0.014344331   0.01283009           71 
 4908000   0.46514618   -7.7936371     843.0558  0.014314313  0.012826119           84 
 4909000   0.47244815   -7.8073086    843.32929   0.01431604  0.012822149          135 
 4910000   0.47143621   -7.7860594    843.41661  0.014314606  0.012818179           76 
 4911000   0.47450265    -7.795405    842.79201  0.014301093  0.012814215          119 
 4912000    0.4668726   -7.8090646     843.3284  0.014307281  0.012810252           73 
 4913000   0.46044082   -7.7950064     842.6683  0.014293173   0.01280629           83 
 4914000   0.46983979   -7.8121996    843.25714   0.01430025  0.012802331           88 
 4915000   0.47378427    -7.809537    844.82509  0.014323925  0.012798373           87 
 4916000   0.47798418   -7.7936491    842.71148  0.014285182  0.012794416          106 
 4917000   0.45724033   -7.8090962    845.25637  0.014325408  0.012790457           81 
 4918000     0.456499    -7.799404    844.07766  0.014302522  0.012786503          123 
 4919000   0.46017976   -7.7987805    842.23631   0.01426842  0.012782547          143 
 4920000   0.46203115   -7.8109765    843.45381  0.014286142  0.012778596           85 
 4921000    0.4565556   -7.8101865    843.02594  0.014275993  0.012774644           55 
 4922000   0.46200086   -7.8100967    844.05998    0.0142906    0.0127707           98 
 4923000   0.47083185   -7.8026535    843.06237   0.01427081  0.012766753           66 
 4924000   0.45997827   -7.7953877     843.8275  0.014280861  0.012762809          100 
 4925000   0.46174456   -7.8189199    844.01606  0.014281152  0.012758866           75 
 4926000   0.46100313   -7.7890993    843.33673   0.01426676  0.012754922           80 
 4927000   0.47015272   -7.8081983    842.68698  0.014252875  0.012750979           70 
 4928000   0.46861977   -7.8119131    842.85108  0.014252758  0.012747036           85 
 4929000   0.45493126   -7.8010915    842.67764  0.014246934  0.012743093           81 
 4930000   0.45826843   -7.8055799    843.83335  0.014263579  0.012739156           69 
 4931000    0.4618464   -7.8038994    844.30854  0.014268717   0.01273522           95 
 4932000   0.46531685   -7.8016108    843.06928  0.014244885  0.012731283           93 
 4933000   0.46871152   -7.7931619    842.91111  0.014239325  0.012727351           77 
 4934000   0.46350981   -7.8058645     843.1332  0.014240191  0.012723416           90 
 4935000   0.46375506   -7.8112917    843.44632  0.014242592  0.012719486          198 
 4936000    0.4615728   -7.8150522    842.74991   0.01422795  0.012715556           65 
 4937000   0.45487116   -7.7946265    843.19269  0.014232541  0.012711623          136 
 4938000   0.44938164    -7.802106    843.58112  0.014236214  0.012707695          128 
 4939000   0.46060594   -7.8134345    844.03148  0.014240931  0.012703766          156 
 4940000   0.45270503   -7.8013833    844.47294  0.014245495  0.012699843           81 
 4941000   0.46092209    -7.797894    842.55138  0.014210203  0.012695917           71 
 4942000   0.46296289   -7.8168658    843.03366   0.01421546  0.012691994           77 
 4943000   0.44551027    -7.810766     844.6469  0.014239782  0.012688075           98 
 4944000   0.45767173   -7.7988698    843.29454  0.014214107  0.012684153          218 
 4945000   0.46479486   -7.7967887    843.56947  0.014215866  0.012680236           67 
 4946000   0.45637658   -7.8080921    843.13935  0.014205745  0.012676321          126 
 4947000   0.46460717   -7.8061783      842.515  0.014192356  0.012672404          177 
 4948000   0.45966694   -7.8123112    842.03561  0.014181413   0.01266849          219 
 4949000   0.46370156   -7.8182184    843.13742  0.014197101  0.012664577          110 
 4950000   0.45919015   -7.8027063     843.5992  0.014202007  0.012660668          126 
 4951000   0.47163384   -7.7912215    842.22852  0.014176067  0.012656763          128 
 4952000   0.45820186   -7.8006553    843.19898  0.014189536  0.012652859          145 
 4953000   0.45421535   -7.8020366    842.58789   0.01417639  0.012648959          188 
 4954000   0.45620564   -7.7966557     843.2268  0.014184275  0.012645057          165 
 4955000   0.46455381   -7.8251858    842.27156  0.014165347  0.012641156          113 
 4956000   0.46023707   -7.8094867    841.84804  0.014155368  0.012637258           66 
 4957000   0.46177499   -7.8130918    842.95245  0.014171079  0.012633359          128 
 4958000    0.4670253   -7.8107505    843.85236  0.014183346  0.012629463          121 
 4959000   0.45300635   -7.7976695    842.89708  0.014164433  0.012625566           77 
 4960000   0.45642159   -7.8156969    843.23168  0.014167199  0.012621671          138 
 4961000   0.46069053   -7.8078625    844.68387  0.014188737   0.01261778          125 
 4962000   0.46046325   -7.8087272    843.26568   0.01416206  0.012613887           64 
 4963000   0.46487202   -7.8029803     842.2153  0.014141569  0.012609994          100 
 4964000   0.45141954   -7.8016153    843.24595  0.014156022  0.012606104          116 
 4965000   0.44743188   -7.8189782    842.33765  0.014137926  0.012602218          205 
 4966000   0.46975425   -7.8030223    842.82298  0.014143224  0.012598329           89 
 4967000   0.45681633   -7.8126298    843.05938  0.014144342  0.012594446           88 
 4968000   0.45176713   -7.8090131    842.71537  0.014135725  0.012590562          157 
 4969000   0.46661852    -7.813501     844.4789  0.014162456  0.012586683          211 
 4970000   0.46255973   -7.8198277    844.26834  0.014156075  0.012582804           85 
 4971000   0.47414657    -7.828111    842.54806  0.014124389  0.012578921          181 
 4972000    0.4570214   -7.8143129    842.81902   0.01412609  0.012575038          152 
 4973000   0.45140551    -7.826471    843.43999  0.014133655  0.012571157          152 
 4974000   0.44673393   -7.8083387    845.00882  0.014157097   0.01256728          110 
 4975000   0.46021693   -7.8202231    843.19329  0.014123841  0.012563402          101 
 4976000   0.45408069   -7.7999694    843.93321  0.014133394  0.012559527           91 
 4977000   0.44417897   -7.8129709     841.4054  0.014088229  0.012555654           69 
 4978000   0.45325826   -7.8114688     843.1607  0.014114783  0.012551781           92 
 4979000   0.44784387   -7.8226723    842.72762    0.0141047  0.012547909          112 
 4980000   0.45567187   -7.8299621    842.21396  0.014093272  0.012544038          159 
 4981000   0.45097972   -7.8240048    842.47641  0.014094834  0.012540168          107 
 4982000   0.46584653   -7.8122679    841.79347  0.014080581  0.012536303          225 
 4983000   0.45676075   -7.8274101    842.17673  0.014084165  0.012532436           78 
 4984000   0.44742632   -7.8146085    842.72612  0.014090525  0.012528571          139 
 4985000   0.46056033   -7.8331686    843.05263  0.014093157  0.012524713          252 
 4986000   0.45762715   -7.8162359    841.98361  0.014072463  0.012520852           82 
 4987000   0.45623835   -7.8179639    843.63855  0.014097295  0.012516994          126 
 4988000   0.45147714   -7.8190788    843.72296  0.014095879   0.01251314           89 
 4989000   0.45274454   -7.8264125    842.55997  0.014073628  0.012509282          121 
 4990000   0.44531038   -7.8176245    842.45381  0.014069035   0.01250543          101 
 4991000    0.4471515   -7.8168837    843.37779  0.014081644  0.012501579           85 
 4992000   0.46074957   -7.8128851     843.1481  0.014074988  0.012497727          120 
 4993000    0.4554476   -7.8120112    842.58408  0.014062756  0.012493875          107 
 4994000   0.45451973   -7.8215201    843.27056  0.014071395  0.012490029           94 
 4995000     0.450316   -7.8215467    842.30715  0.014052505  0.012486181          131 
 4996000   0.46310623   -7.8289614     842.7304  0.014056752  0.012482337          136 
 4997000   0.44623433   -7.8277552    843.73234  0.014070648   0.01247849           86 
 4998000   0.45138694   -7.8319283    842.70312  0.014050672  0.012474648           55 
 4999000   0.45624837   -7.8301053    842.54918  0.014045295  0.012470807          121 
 5000000   0.45981598   -7.8364737    844.07382  0.014067897  0.012466965           93 
 5001000   0.45070661   -7.8128614    841.87255  0.014028403  0.012463125          124 
 5002000   0.45684481   -7.8157169    843.03175  0.014044911  0.012459289          250 
 5003000   0.45186142   -7.8136928    842.18218  0.014027953  0.012455457           89 
 5004000   0.45528282   -7.8212503    843.00125   0.01403879  0.012451624          175 
 5005000   0.45010812   -7.8168782    842.83861  0.014033277  0.012447793           53 
 5006000   0.44998264   -7.8218157    842.06181  0.014017542  0.012443964          137 
 5007000   0.44679849   -7.8055723    843.19448  0.014033594  0.012440136           97 
 5008000   0.45697665   -7.8211318    843.20899  0.014031034  0.012436308           99 
 5009000   0.44499827   -7.8337613    842.61762  0.014018394  0.012432481          276 
 5010000   0.44548524   -7.8045262    842.62363  0.014015696  0.012428657           81 
 5011000     0.452582   -7.8364007    843.38067  0.014025488  0.012424834           62 
 5012000   0.45058954   -7.8219818     844.1473  0.014035437  0.012421014          240 
Loop time of 11062.3 on 48 procs for 5000000 steps with 4000 atoms

Performance: 78103.141 tau/day, 451.986 timesteps/s
99.4% CPU use with 48 MPI tasks x no OpenMP threads

MPI task timing breakdown:
Section |  min time  |  avg time  |  max time  |%varavg| %total
---------------------------------------------------------------
Pair    | 692.6      | 754.27     | 784.8      |  65.7 |  6.82
Neigh   | 68.802     | 70.162     | 71.614     |   7.4 |  0.63
Comm    | 624.59     | 662.07     | 722.15     |  78.3 |  5.98
Output  | 13.31      | 13.314     | 13.393     |   0.3 |  0.12
Modify  | 9412.2     | 9440.2     | 9478.5     |  17.8 | 85.34
Other   |            | 122.3      |            |       |  1.11

Nlocal:        83.3333 ave          92 max          74 min
Histogram: 2 0 3 11 3 10 11 5 2 1
Nghost:        1821.79 ave        1843 max        1790 min
Histogram: 1 1 2 4 7 10 7 6 4 6
Neighs:        11242.3 ave       12568 max        9290 min
Histogram: 1 0 3 5 6 7 8 9 6 3
FullNghs:      22485.1 ave       25068 max       19612 min
Histogram: 1 1 3 10 3 11 10 6 2 1

Total # of neighbors = 1079285
Ave neighs/atom = 269.82125
Neighbor list builds = 269354
Dangerous builds = 0

#clear
#
#next RN
#
#jump SELF
Total wall time: 3:04:25
