
units lj                  # Use reduced LJ style units
atom_style atomic         # Uncharged point particles
atom_modify map hash      # Needed for indexing of clusters etc
                          # Used to be able to find where atoms are in relation to each other.

lattice fcc 1.0 spacing 1 1 1
Lattice spacing in x,y,z = 1.5874011 1.5874011 1.5874011
region box block 0 10 0 10 0 10 units lattice
create_box 2 box
Created orthogonal box = (0.0000000 0.0000000 0.0000000) to (15.874011 15.874011 15.874011)
  3 by 4 by 4 MPI processor grid
create_atoms 1 box
Created 4000 atoms
  using lattice units in orthogonal box = (0.0000000 0.0000000 0.0000000) to (15.874011 15.874011 15.874011)
  create_atoms CPU = 0.002 seconds
set type 1 type/fraction 2 0.12 78393
Setting atom values ...
  508 settings made for type/fraction
mass 1 1.0
mass 2 1.0
pair_style lj/cut  3.5
pair_modify tail  yes
pair_coeff 1  1  1.0  1.0   # Intearaction between 1 and 1 set with epsilon = 1 and sigma = 1
pair_coeff 1  2  1.5  0.8
pair_coeff 2  2  0.5  0.88

write_data data.0
System init for write_data ...
Neighbor list info ...
  update every 1 steps, delay 10 steps, check yes
  max neighbors/atom: 2000, page size: 100000
  master list distance cutoff = 3.8
  ghost atom cutoff = 3.8
  binsize = 1.9, bins = 9 9 9
  1 neighbor lists, perpetual/occasional/extra = 1 0 0
  (1) pair lj/cut, perpetual
      attributes: half, newton on
      pair build: half/bin/atomonly/newton
      stencil: half/bin/3d
      bin: standard
WARNING: Not all mixed pair coeffs generated from mixing. Use write_data with 'pair ij' option to store all pair coeffs. (../write_data.cpp:312)


#############################
#   M E L T   S Y S T E M   #
#############################

velocity all create 2.4 9580093 mom yes dist gaussian # Assign velocities
                                                    # Temperature 2.4, random number seed, zero linear momentum
                                                                                # Gaussian distribution

timestep 0.002   # simulation timestep
thermo 1000       # output thermodynamic data every 1000 steps bf 100

# Define a fix  in this case with index 1 applied to all
# particles in the simulation. This fix is for simulations
# in the anisotropic NPT ensemble. Note that we use the MTK
# correction.
fix 1 all npt temp 2.4 2.4 0.1 iso 5.68 5.68 0.5 mtk yes tchain 5 pchain 5 # Use NPT ensemble
                                                                         # Set temperature and pressure and damping
                                                                         # Numbers of thermostats in chain and in barostat
run 10000          # run for 10000 steps
Per MPI rank memory allocation (min/avg/max) = 3.642 | 3.644 | 3.648 Mbytes
Step Temp E_pair E_mol TotEng Press Volume 
       0          2.4   -7.5560252            0   -3.9569252   -3.1663949         4000 
    1000    2.4214091   -4.6619996            0    -1.030794    5.6509506    4769.2778 
    2000    2.4278055   -4.6473711            0   -1.0065733    5.7589927    4759.2422 
    3000    2.3449607    -4.617487            0   -1.1009254    5.5287216    4797.3813 
    4000    2.3895413   -4.6685816            0   -1.0851657    5.2912278    4806.0353 
    5000    2.3873346   -4.6585806            0   -1.0784739    5.9989886    4716.5261 
    6000    2.3824996   -4.7114964            0   -1.1386404    5.6745214     4726.653 
    7000    2.4538835   -4.6135091            0  -0.93360413    5.9108005    4763.7873 
    8000    2.4511195   -4.6594044            0  -0.98364425    5.4595036    4791.9788 
    9000     2.364956    -4.681154            0   -1.1346069    5.6897405    4736.5945 
   10000    2.4110208   -4.6524146            0   -1.0367875    5.6181203    4776.4085 
Loop time of 2.20642 on 48 procs for 10000 steps with 4000 atoms

Performance: 783168.161 tau/day, 4532.223 timesteps/s
99.6% CPU use with 48 MPI tasks x no OpenMP threads

MPI task timing breakdown:
Section |  min time  |  avg time  |  max time  |%varavg| %total
---------------------------------------------------------------
Pair    | 0.92086    | 0.97861    | 1.1362     |   3.8 | 44.35
Neigh   | 0.19101    | 0.19819    | 0.23079    |   1.5 |  8.98
Comm    | 0.63523    | 0.77515    | 0.8821     |   5.2 | 35.13
Output  | 0.00023628 | 0.00024298 | 0.00031074 |   0.0 |  0.01
Modify  | 0.1865     | 0.23977    | 0.28882    |   6.6 | 10.87
Other   |            | 0.01446    |            |       |  0.66

Nlocal:        83.3333 ave          94 max          75 min
Histogram: 2 3 11 7 7 6 3 7 1 1
Nghost:        1461.79 ave        1482 max        1443 min
Histogram: 2 4 8 6 6 4 7 4 5 2
Neighs:        7985.10 ave        8984 max        6824 min
Histogram: 2 1 6 5 9 7 3 8 4 3

Total # of neighbors = 383285
Ave neighs/atom = 95.821250
Neighbor list builds = 901
Dangerous builds = 188

# Equilibrate just above the melting temperature to avoid step fn in T

fix 1 all npt temp 1.25 1.25 0.1 iso 5.68 5.68 0.5 mtk yes tchain 5 pchain 5
run 2000
Per MPI rank memory allocation (min/avg/max) = 3.642 | 3.644 | 3.648 Mbytes
Step Temp E_pair E_mol TotEng Press Volume 
   10000    2.4110208   -4.6524146            0   -1.0367875    5.6181203    4776.4085 
   11000    1.2329377   -6.2706596            0   -4.4217154    5.8453938    3905.2104 
   12000    1.2318827   -6.3020993            0   -4.4547372     5.666941    3903.9558 
Loop time of 0.470447 on 48 procs for 2000 steps with 4000 atoms

Performance: 734619.896 tau/day, 4251.273 timesteps/s
99.7% CPU use with 48 MPI tasks x no OpenMP threads

MPI task timing breakdown:
Section |  min time  |  avg time  |  max time  |%varavg| %total
---------------------------------------------------------------
Pair    | 0.1988     | 0.22664    | 0.26244    |   2.3 | 48.18
Neigh   | 0.030933   | 0.032955   | 0.035069   |   0.5 |  7.00
Comm    | 0.12873    | 0.16091    | 0.19715    |   3.2 | 34.20
Output  | 4.5697e-05 | 4.7047e-05 | 5.9542e-05 |   0.0 |  0.01
Modify  | 0.039203   | 0.045652   | 0.052631   |   1.8 |  9.70
Other   |            | 0.004242   |            |       |  0.90

Nlocal:        83.3333 ave          90 max          78 min
Histogram: 8 4 4 2 7 10 3 5 2 3
Nghost:        1668.92 ave        1691 max        1646 min
Histogram: 2 1 7 4 9 7 5 9 2 2
Neighs:        9782.90 ave       10722 max        8822 min
Histogram: 3 5 3 8 3 4 11 4 4 3

Total # of neighbors = 469579
Ave neighs/atom = 117.39475
Neighbor list builds = 142
Dangerous builds = 8

#############################
# L I N E A R  Q U E N C H  #
#############################

# Define solid atoms. This closely follows ten Wolde  Ruiz-Montero and Frenkel  Faraday Discuss  1996  104  93-110
# Compute components of the per-atom q6 vector
compute q6 all orientorder/atom degrees 1 6 components 6 nnn NULL cutoff 1.3 # compute the Q6 parameter.
                                                                             # Use all neighbours within 1.3 unit cell.

# get number of connections
compute coord_number all coord/atom orientorder q6 0.5

# An atom is solid if it has 8 or more connections (of a possible 14)
variable is_solid atom c_coord_number>=8
group solid dynamic all var is_solid    # Must be dynamic to update
dynamic group solid defined

# do clustering
compute cluster solid cluster/atom 1.3 # Create a cluster where all atoms within are solid and max 1.3 units from another member

# define chunks one chunk per cluster
compute clus_chunks solid chunk/atom c_cluster nchunk every compress yes  # Says which atoms are in which chunk

# count the size of each chunk
compute size_chunks solid property/chunk clus_chunks count


# Find the maximum entry in the vector of chunk sizes
variable max_n equal max(c_size_chunks)


# Thermo style which includes this variable
# thermo_style custom step temp pe vol v_max_n

thermo ${N}  # Print the thermo information every 100 steps
thermo 1000  

# Reset the npt fix at a lower temperature (below freezing)
fix 1  all npt temp  ${temp} ${temp}  0.1  iso  5.68  5.68  0.5  mtk yes tchain  5  pchain  5
fix 1  all npt temp  0.45 ${temp}  0.1  iso  5.68  5.68  0.5  mtk yes tchain  5  pchain  5
fix 1  all npt temp  0.45 0.45  0.1  iso  5.68  5.68  0.5  mtk yes tchain  5  pchain  5

dump dmp2 all dcd ${N} traj.dcd
dump dmp2 all dcd 1000 traj.dcd


compute msd all msd com yes
variable twopoint equal c_msd[4]/6/(step*dt+1.0e-6)
fix 9 all vector 10 c_msd[4]
variable fit equal slope(f_9)/6/(10*dt)
thermo_style custom step temp pe c_msd[4] v_twopoint v_fit v_max_n

fix 1 all npt temp 1.25 ${temp} 0.1 iso 5.68 5.68 0.5 mtk yes tchain 5 pchain 5
fix 1 all npt temp 1.25 0.45 0.1 iso 5.68 5.68 0.5 mtk yes tchain 5 pchain 5
run 2000000 # 5000000  # Run for this many steps
Neighbor list info ...
  update every 1 steps, delay 10 steps, check yes
  max neighbors/atom: 2000, page size: 100000
  master list distance cutoff = 3.8
  ghost atom cutoff = 3.8
  binsize = 1.9, bins = 9 9 9
  4 neighbor lists, perpetual/occasional/extra = 1 3 0
  (1) pair lj/cut, perpetual
      attributes: half, newton on
      pair build: half/bin/atomonly/newton
      stencil: half/bin/3d
      bin: standard
  (2) compute orientorder/atom, occasional
      attributes: full, newton on
      pair build: full/bin/atomonly
      stencil: full/bin/3d
      bin: standard
  (3) compute coord/atom, occasional
      attributes: full, newton on
      pair build: full/bin/atomonly
      stencil: full/bin/3d
      bin: standard
  (4) compute cluster/atom, occasional
      attributes: full, newton on
      pair build: full/bin/atomonly
      stencil: full/bin/3d
      bin: standard
Per MPI rank memory allocation (min/avg/max) = 9.754 | 9.760 | 9.765 Mbytes
Step Temp PotEng c_msd[4] v_twopoint v_fit v_max_n 
   12000    1.2318827   -6.3020993 8.600556e-31 5.9726081e-33 8.3333333e+20            1 
   13000    1.2283581   -6.3055311   0.56700373 0.0036346391  0.046629191            2 
   14000    1.2172716   -6.2521845    1.1194325 0.0066632887   0.04648136            4 
   15000    1.2452885   -6.2584211    1.6524898 0.0091804987  0.045984208            2 
   16000    1.2444157   -6.2899072    2.1787816  0.011347821  0.045760174            2 
   17000    1.2633075   -6.2687649    2.7476439  0.013468842  0.045463984            2 
   18000     1.241145   -6.2726548    3.3166098  0.015354675  0.045681135            2 
   19000    1.2385448   -6.2565887    3.8765128  0.017002249  0.045679389            3 
   20000    1.2421665   -6.2799516    4.3609594  0.018170664  0.045591434            1 
   21000    1.2523374   -6.3265525    4.8383466  0.019199787  0.045218652            4 
   22000    1.2532485   -6.3102535    5.4384844  0.020600319  0.045037218            2 
   23000    1.2638418   -6.3225457    5.9384683  0.021516189  0.045018835            3 
   24000    1.2418947   -6.2972208     6.413425  0.022268836  0.044776277            3 
   25000    1.2516326   -6.2751071    6.8507763  0.022835921  0.044374699            3 
   26000    1.2441729   -6.3117848    7.3356858  0.023511813   0.04393195            3 
   27000     1.251769   -6.3277295    7.8046962  0.024088568  0.043624093            3 
   28000    1.2272796   -6.3176658    8.2866013  0.024662504  0.043331563            2 
   29000    1.2458707   -6.3095439    8.8000885   0.02528761    0.0431381            3 
   30000    1.2456742   -6.3059831    9.3897328  0.026082591  0.043004738            2 
   31000     1.248469    -6.283363    9.9561412   0.02676382  0.042972523            4 
   32000    1.2478145   -6.2635477    10.512152  0.027375395   0.04299494            2 
   33000    1.2348987   -6.2726797    10.931761  0.027605456  0.043003714            2 
   34000    1.2611458   -6.3285233    11.354473   0.02782959  0.042936446            2 
   35000    1.2621261   -6.2655669    11.877697   0.02828023   0.04284983            1 
   36000    1.2225359   -6.3180848    12.392995  0.028687487  0.042751636            3 
   37000    1.2188409   -6.3278886    12.978157  0.029230082  0.042705368            4 
   38000    1.2268228   -6.3234186    13.523114  0.029655951    0.0427162            1 
   39000    1.2651942   -6.2880135    14.103355  0.030135373  0.042736903            1 
   40000    1.2451181   -6.3105387    14.591332  0.030398608  0.042763664            1 
   41000    1.2567496    -6.352101    15.017234  0.030522834  0.042767831            2 
   42000    1.2378113   -6.2711018    15.709199  0.031169045   0.04279728            4 
   43000    1.2472352   -6.3098819    16.033768  0.031073194  0.042804109            4 
   44000    1.2388102   -6.3059208    16.560823  0.031365196  0.042793127            3 
   45000     1.265995   -6.3291514    17.058052  0.031588985  0.042780979            4 
   46000    1.2125815   -6.2749998    17.528263  0.031754099  0.042745701            3 
   47000    1.2181452   -6.2951634    18.101501  0.032094859  0.042715585            3 
   48000    1.2145344   -6.2996809    18.709591  0.032481928  0.042728527            8 
   49000    1.2314212   -6.2709519    19.286707  0.032800522  0.042753708            4 
   50000     1.246972   -6.2673674    19.907526  0.033179209  0.042817532            2 
   51000    1.2572875    -6.324447     20.60434  0.033667221  0.042925174            4 
   52000    1.2529387   -6.3193041    21.103827  0.033820236  0.043027793            4 
   53000    1.2212628   -6.3111551    21.633478  0.034014902  0.043129993            4 
   54000    1.2242178   -6.2903265    22.306738  0.034423978  0.043230752            2 
   55000    1.2330876   -6.3077595    22.781058  0.034516755  0.043330384            2 
   56000    1.2351951   -6.3204892    23.414821  0.034843483  0.043419781            1 
   57000    1.2139506   -6.3276164    23.986311  0.035067705   0.04353483            3 
   58000    1.2082255   -6.3490898     24.59361  0.035335646   0.04364963            1 
   59000    1.2024342   -6.2938422     24.97736  0.035278757  0.043741186            2 
   60000    1.2635036   -6.3041697    25.420133   0.03530574  0.043789107            1 
   61000     1.249727   -6.3406299    25.891728  0.035371213  0.043820966            2 
   62000    1.2410799   -6.3186663    26.546316  0.035680532   0.04385807            1 
   63000    1.2221494   -6.3185745    26.883827  0.035560618  0.043887112            3 
   64000    1.2360732   -6.3325947    27.423014   0.03570705  0.043906619            6 
   65000    1.2381078   -6.3071355    27.985274  0.035878556  0.043918918            2 
   66000    1.2417369   -6.3574049    28.343257  0.035786941  0.043918415            1 
   67000    1.2261211   -6.2746416    28.951583  0.036009432  0.043918847            2 
   68000    1.2446763   -6.3646284    29.558662   0.03622385   0.04392831            6 
   69000    1.2261011   -6.3061296    30.153443  0.036417201  0.043946752            2 
   70000     1.220678   -6.3585119    30.602677  0.036431758  0.043966896            2 
   71000    1.2032417    -6.310462    31.329937  0.036772227  0.043992901            2 
   72000    1.2117425   -6.2548831    31.949043  0.036978059  0.044024192            2 
   73000    1.2152196   -6.3405487    32.213887  0.036773843  0.044033409            3 
   74000    1.2232803   -6.3487549    32.815037   0.03695387  0.044044705            3 
   75000    1.2353353   -6.3129043    33.334348  0.037038165   0.04406045            2 
   76000    1.2232774   -6.3161404    33.729241  0.036983816  0.044068312            1 
   77000    1.2368098   -6.3253261    34.207676  0.037021294  0.044057322            2 
   78000    1.1930927   -6.3294989    34.752985  0.037129257  0.044045482            3 
   79000    1.2637345   -6.3360479    35.097088  0.037022244  0.044033851            1 
   80000    1.2089498   -6.2995645    35.504148  0.036983487  0.043995001            3 
   81000    1.2315093   -6.3316139    35.945566  0.036981035  0.043952912            4 
   82000    1.2131738   -6.3170565    36.437821  0.037030306   0.04390539            4 
   83000    1.2238486   -6.2892647    36.810717  0.036958551   0.04385047            1 
   84000    1.2326716   -6.3564719    37.234324  0.036938813  0.043794782            4 
   85000    1.2235691   -6.3190782     37.80761  0.037066284  0.043740603            2 
   86000    1.2092246   -6.3537336    38.556397  0.037360849  0.043700319            1 
   87000    1.2385328   -6.3380756    38.992415  0.037349057  0.043674331            2 
   88000    1.1976848   -6.3174992    39.517184  0.037421576  0.043648581            2 
   89000    1.2127619   -6.3498651    40.160159  0.037603145  0.043623481            3 
   90000    1.1933409   -6.3012496    40.570983  0.037565725  0.043597337            2 
   91000    1.2194584   -6.3383946    40.925479  0.037477545  0.043559613            1 
   92000    1.2157095   -6.3884207    41.420453  0.037518526  0.043518473            1 
   93000    1.2466492   -6.3565383    41.886825  0.037532997  0.043486468            2 
   94000    1.2202354   -6.3562431    42.470415  0.037651077  0.043452871            1 
   95000    1.2328086   -6.3383647    43.078311  0.037787992  0.043427719            3 
   96000    1.2092642    -6.344449    43.513831  0.037772423  0.043403799            3 
   97000       1.2037   -6.3445412    43.965007  0.037770625  0.043378176            3 
   98000    1.2240411   -6.3102335    44.580496  0.037908585  0.043346644            2 
   99000    1.2073603   -6.3664929    44.908212  0.037801525   0.04331673            2 
  100000    1.2460142   -6.3390969     45.41196    0.0378433  0.043290304            2 
  101000    1.2321504   -6.3297394    45.926792  0.037893392  0.043255077            2 
  102000    1.2265442   -6.3452894    46.400591   0.03790898  0.043222904            2 
  103000    1.2190164   -6.3377048    47.010277  0.038034204  0.043197316            5 
  104000    1.2200623   -6.3453125    47.621342  0.038158126  0.043179984            3 
  105000    1.2311605   -6.3763197    47.742184  0.037890622  0.043152807            4 
  106000    1.2034238   -6.3330639    48.433944     0.038077  0.043125345            2 
  107000    1.2081388    -6.330799    48.924546  0.038103229  0.043104516            2 
  108000    1.2316537   -6.3374385    49.357949  0.038084837   0.04307929            1 
  109000    1.2033005   -6.3266658     49.68715  0.037987117  0.043050671            1 
  110000    1.2101346   -6.3439793    50.333772  0.038131645   0.04302039           10 
  111000    1.2236947   -6.3490178    50.908045  0.038219253  0.042997277            2 
  112000    1.2106456   -6.3866856     51.41077  0.038252061  0.042975622            3 
  113000    1.2144084   -6.3387683    52.171707   0.03847471  0.042956396            1 
  114000    1.1874756   -6.3701267    52.355098   0.03827127  0.042936196            1 
  115000     1.210794   -6.3836632    53.079804  0.038463626  0.042915175            1 
  116000    1.1753759   -6.3601435    53.478649  0.038418569   0.04289806            2 
  117000    1.1627587   -6.3584921    54.316811  0.038687187  0.042892864            3 
  118000    1.1995669   -6.3554767    54.596068  0.038556545  0.042879494            1 
  119000    1.1841515   -6.3554862    54.907388  0.038450551  0.042862048            3 
  120000     1.230983   -6.3662526    55.373736  0.038453983  0.042844486            1 
  121000    1.2056745   -6.3714342    55.889594  0.038491456  0.042823891            4 
  122000    1.1954355   -6.3433724    56.745871   0.03876084  0.042812393            2 
  123000    1.2133991   -6.3960779    57.013556   0.03862707  0.042800176            3 
  124000    1.2217644   -6.3611598    57.580352  0.038696473   0.04279174            3 
  125000    1.2230991   -6.4010695    58.090432  0.038726955  0.042784884            3 
  126000    1.1734356   -6.3595553    58.763427    0.0388647  0.042778343            1 
  127000     1.210807   -6.3698539     59.03557  0.038737251  0.042770536            2 
  128000    1.1906119   -6.3780455    59.346048   0.03863675  0.042754287            2 
  129000    1.2365176   -6.3802089    59.859392  0.038668858  0.042735155            3 
  130000    1.2001686   -6.3998873    60.263881  0.038630693  0.042714363            2 
  131000    1.2075464   -6.3862561    60.759446  0.038651047  0.042693542            2 
  132000    1.2076401   -6.3730093    61.136843  0.038596492  0.042669397            2 
  133000    1.1975996   -6.3862694    61.133995  0.038304508  0.042641128            6 
  134000    1.2061296   -6.3912529    61.654195  0.038342161  0.042603919            2 
  135000    1.2005652    -6.370842    62.121872  0.038346835  0.042567186            4 
  136000    1.2054014   -6.3460363    62.669722  0.038400565  0.042523413            2 
  137000    1.1968384   -6.3566658    62.871861  0.038243225  0.042478952            1 
  138000     1.189497   -6.3618976    63.287208  0.038216913  0.042437879            3 
  139000    1.1998964   -6.4142956    63.804817  0.038252288  0.042399226            2 
  140000    1.2094749   -6.3881315    64.353696  0.038305772  0.042362925            3 
  141000    1.2060207   -6.3559819    65.150734  0.038505162  0.042329381            2 
  142000    1.1840863   -6.3477463    65.371847   0.03836376  0.042297931            3 
  143000    1.1868013   -6.3425329    65.889262  0.038397005  0.042264981            3 
  144000    1.1839925    -6.397583    66.518017  0.038494223  0.042233146            3 
  145000    1.1648884    -6.359032    67.316497  0.038687642  0.042207027            3 
  146000    1.1918233   -6.3811673    67.484192  0.038518374  0.042183886            3 
  147000    1.1599617   -6.3910352    67.836551  0.038456095  0.042153799            3 
  148000    1.1951622   -6.4293726    68.113798  0.038352364  0.042120608            3 
  149000    1.1817189   -6.3816837    68.603976  0.038369114  0.042087242            5 
  150000    1.2099921   -6.4488671    69.005493  0.038336385  0.042057255            2 
  151000    1.1939114   -6.3588912    69.760037  0.038498917  0.042028492            4 
  152000    1.1926924   -6.3688715     70.40582  0.038599682  0.042001412            2 
  153000    1.1715528   -6.3642943    70.523666  0.038411583   0.04197191            3 
  154000    1.1929448   -6.4051059    71.256596  0.038558764  0.041943838            2 
  155000    1.1669414   -6.4102839    71.585022  0.038486571   0.04191807            3 
  156000    1.2299462   -6.3437096    72.437759  0.038695384  0.041895589            3 
  157000    1.2042648   -6.3326317    72.743474  0.038611186  0.041873719            3 
  158000    1.2132928    -6.361485    73.341777  0.038682372   0.04184894            3 
  159000     1.183519   -6.4046662    73.628242  0.038589225  0.041825516            2 
  160000    1.2107514   -6.4149417    73.623595  0.038345623  0.041799383            2 
  161000    1.2070851    -6.383932    74.181267  0.038396101  0.041768669            2 
  162000    1.1876316   -6.3756675    74.465119  0.038305102   0.04173441            2 
  163000    1.2005809   -6.4315796    74.940398  0.038313087  0.041698514            3 
  164000    1.1853629   -6.3841827    75.233933  0.038228624  0.041665791            4 
  165000    1.1805306   -6.3973337     75.80833  0.038287035   0.04163197            2 
  166000    1.1689517   -6.3759799    76.241023  0.038273606  0.041597319            4 
  167000    1.2006936   -6.3656763    76.924753  0.038385605  0.041564421            1 
  168000    1.1997646   -6.4165311     76.76335  0.038077058  0.041527381            1 
  169000    1.1842102   -6.4401952     77.04658   0.03799141  0.041486563            2 
  170000    1.1799756   -6.4020379    77.350726  0.037917022  0.041442756            2 
  171000     1.177101   -6.4067289     77.94205  0.037983455  0.041396075            3 
  172000    1.1945724   -6.4154199    78.393819  0.037981502  0.041351607            5 
  173000    1.1892636   -6.3663701    78.767692  0.037942048  0.041307835            2 
  174000    1.1700392   -6.3642569     79.62114   0.03813273  0.041266581            5 
  175000    1.2090922   -6.4424044    79.516845  0.037865164  0.041227997            4 
  176000    1.1636398   -6.3698438    80.292116    0.0380171  0.041189472            2 
  177000    1.1927408   -6.4020828    80.349188  0.037829184  0.041150383            1 
  178000    1.1836042   -6.3978131    80.895274  0.037872319  0.041107667            1 
  179000    1.1746909   -6.4044801    81.242478  0.037822382  0.041063001            3 
  180000    1.1558469   -6.3918598    81.784356  0.037863128  0.041019449            3 
  181000    1.1799596   -6.3934216    82.038092   0.03777076  0.040976631            4 
  182000    1.1968014   -6.4255745    82.402642  0.037730147  0.040934221            6 
  183000    1.1883906   -6.4148982    82.997039  0.037794644  0.040891667            4 
  184000    1.1662085   -6.3888524    83.418851  0.037780276  0.040851454            3 
  185000    1.1820098   -6.3888261    83.991681  0.037834091  0.040811543            3 
  186000    1.1993184   -6.4259203    84.204625  0.037726086  0.040773012            2 
  187000    1.1959994   -6.4191124    84.811778   0.03779491  0.040737922            2 
  188000    1.1826881   -6.4098373    85.849917  0.038054041  0.040703177            3 
  189000    1.1883486   -6.3610829    85.894538  0.037872371  0.040669366            3 
  190000    1.1647363    -6.421845    86.323357  0.037861121    0.0406351            1 
  191000    1.1900088   -6.4051535    86.551947   0.03776263  0.040600754            2 
  192000    1.1552844   -6.4023345    87.453605  0.037957294   0.04056912            1 
  193000     1.186499   -6.4368564    87.965751  0.037981758   0.04054057            2 
  194000     1.160721   -6.4323165     88.14801  0.037864265  0.040512445            3 
  195000    1.1836475   -6.4304018    88.737979  0.037922213  0.040484228            3 
  196000    1.1536649   -6.3785141    89.044289  0.037858966  0.040454646            3 
  197000    1.1942054   -6.3947431    89.828463  0.037998504  0.040426002            2 
  198000    1.1608959   -6.3848392     90.29838  0.038004369  0.040400732            4 
  199000    1.1822283   -6.4216208    90.952588  0.038087349  0.040378419            2 
  200000    1.1841638   -6.4079048    91.344889   0.03806037  0.040355912            3 
  201000     1.177841   -6.4193858     91.82348  0.038069436   0.04033306            3 
  202000    1.1713398   -6.4280642    91.997726  0.037952857  0.040311641            2 
  203000    1.1439915   -6.4520257    92.756513  0.038077386   0.04029004            4 
  204000    1.1856236   -6.4259337    93.070983  0.038019192  0.040267658            2 
  205000    1.1585371   -6.4220119    93.590571  0.038044947  0.040244291            5 
  206000    1.1737458   -6.4121166    93.927887  0.037996718  0.040223886            3 
  207000    1.1573274   -6.4223972    94.482471  0.038036421  0.040205634           10 
  208000    1.1719401   -6.4016345    94.499979  0.037860568   0.04018263            1 
  209000    1.1349231   -6.4275691    94.854314  0.037820699  0.040156994            3 
  210000    1.1696323   -6.4137939     95.24442  0.037795405  0.040130004            4 
  211000    1.1524523   -6.4390495    95.675109  0.037786378  0.040103466            3 
  212000    1.1826799   -6.3869135    96.392162  0.037890001  0.040077272            2 
  213000    1.1521699   -6.4377863    96.622567  0.037802256  0.040050671            4 
  214000    1.1784423   -6.4231046    96.814487  0.037700345  0.040024397            6 
  215000      1.15472   -6.4154819    97.281551  0.037706027  0.039997595            2 
  216000    1.1649492   -6.4440321    97.734624  0.037706259  0.039969351            3 
  217000    1.1518911   -6.4491567    97.599515  0.037480612  0.039940067            3 
  218000    1.1852288   -6.4162426    98.390957  0.037611222  0.039908415            4 
  219000    1.1512939   -6.4501251    98.513506  0.037486113  0.039877566            2 
  220000    1.1860296   -6.4397389    99.118275  0.037544801  0.039847119            2 
  221000    1.1753415   -6.4394704    99.304083  0.037444978  0.039816675            4 
  222000    1.1782749   -6.4453671    100.24012  0.037627672  0.039788178            2 
  223000    1.1665582    -6.370643    100.74171   0.03764638  0.039758759            1 
  224000    1.1779133    -6.426406    100.89054  0.037533684  0.039731289            1 
  225000    1.1568699   -6.4486364    101.25756  0.037502799  0.039702793            4 
  226000    1.1659781   -6.4136297    101.48773   0.03742173   0.03967472            4 
  227000    1.1625462   -6.4532531    102.18688  0.037513538  0.039646182            2 
  228000    1.1575747   -6.4297674    102.49823  0.037462805  0.039618339            2 
  229000    1.1699296   -6.4611164    102.89687  0.037444275   0.03959058            3 
  230000    1.1590191   -6.4471541    103.93607  0.037657997  0.039564438            2 
  231000     1.173628   -6.4858357    103.82095  0.037453443  0.039537913            6 
  232000    1.1320202   -6.4240183    104.30316  0.037465217   0.03951131            4 
  233000    1.1337822   -6.4573957     104.5757  0.037401897  0.039484326            3 
  234000    1.1776501   -6.4413829    105.03107  0.037404228  0.039456657            2 
  235000    1.1773825   -6.4442554    105.98159  0.037582124  0.039431407            3 
  236000    1.1759805   -6.4436567    106.18856  0.037495959  0.039409607            2 
  237000    1.1459966   -6.4319951    106.68704  0.037513025  0.039387539            5 
  238000    1.1477673   -6.4595875    106.92354  0.037438214  0.039364554            3 
  239000    1.1744088   -6.4573581    107.25594  0.037397467  0.039339875            2 
  240000    1.1246363   -6.4606509    107.39501  0.037289935  0.039312155            5 
  241000    1.1502484   -6.4381924    108.12975  0.037389263  0.039285064            1 
  242000    1.1753779   -6.4699589    108.19748  0.037258087  0.039257996            5 
  243000    1.1391769   -6.4434615    108.70009  0.037277122  0.039231172            3 
  244000    1.1631453   -6.4803074    109.07941  0.037253898  0.039205449            3 
  245000    1.1557633   -6.4497356    109.31844  0.037183142  0.039180005            3 
  246000    1.1314779   -6.4701786    110.15546  0.037315535  0.039153758            5 
  247000    1.1640425   -6.4748721    110.46185   0.03726783  0.039128845            3 
  248000    1.1440172   -6.4680619      111.231  0.037376007  0.039105162            2 
  249000    1.1581933   -6.4688834    111.86453  0.037437928  0.039081485            2 
  250000    1.1510151   -6.4708303    111.86615  0.037288715  0.039059386            1 
  251000    1.1448228   -6.4610408    112.60986  0.037387071  0.039036824            2 
  252000    1.1341437   -6.4275616    112.54285  0.037216551  0.039015276            2 
  253000    1.1614148   -6.4933779     112.9118  0.037190976  0.038991806            2 
  254000    1.1405559   -6.4546321    113.31059  0.037175391  0.038969021            1 
  255000    1.1704184   -6.4673374    113.51723  0.037097133  0.038943827            3 
  256000    1.1392956   -6.4517879    114.07703  0.037134449  0.038919913            2 
  257000    1.1675291   -6.4506237    114.46722  0.037116479  0.038895354            1 
  258000     1.177606   -6.4427971    114.51686  0.036988649  0.038869139            3 
  259000    1.1567256    -6.439963    115.32605  0.037106194  0.038843697            4 
  260000    1.1436309   -6.4487063    115.61406  0.037055789  0.038819173            1 
  261000    1.1707694   -6.4190016    116.06373  0.037057386  0.038794323            3 
  262000    1.1314831   -6.4765017    116.57253  0.037077777  0.038768936            3 
  263000    1.1314666   -6.4625742    116.98915  0.037068806  0.038742911            3 
  264000    1.1368958   -6.4605225    116.73904  0.036849445  0.038716426            2 
  265000    1.1633806   -6.4489498    117.67719  0.037005406  0.038690259            2 
  266000    1.1719411   -6.4491159     117.6606  0.036861089  0.038664954            2 
  267000    1.1477528   -6.4645938    118.46403  0.036973792  0.038639195            3 
  268000    1.1303409   -6.4528573    119.02879  0.037011439  0.038614108            3 
  269000    1.1487095   -6.4588766    119.34177  0.036970808  0.038589607            4 
  270000    1.1295705   -6.4471771    119.72264  0.036951433  0.038565366            4 
  271000    1.1309299   -6.4309618    120.08098  0.036925269  0.038540541            3 
  272000    1.1485735   -6.4312677    121.09824  0.037101178  0.038516842            5 
  273000    1.1615561   -6.4931787     120.7196  0.036849695   0.03849159            4 
  274000     1.124297   -6.4810863    121.18723  0.036857431  0.038465376            3 
  275000     1.142917   -6.4759711    121.17129  0.036718572  0.038439499            4 
  276000     1.145236   -6.4567671    121.65398  0.036731275  0.038413855            5 
  277000    1.1469856   -6.4325427    122.04229   0.03671549  0.038388768            1 
  278000    1.1502292   -6.4627312    122.73402  0.036790773  0.038363363            2 
  279000    1.1569678   -6.4618858    123.28675  0.036823999     0.038339            3 
  280000    1.1599034   -6.4692923    123.35818  0.036713743  0.038315522            5 
  281000    1.1452892   -6.5069742    123.53973  0.036636931  0.038291851            1 
  282000    1.1243404   -6.4828053    124.09348  0.036670649  0.038268122            2 
  283000    1.1374937   -6.5093038    124.72935  0.036728313  0.038244927            4 
  284000    1.1395474   -6.5080509    124.85933  0.036637128  0.038221551            1 
  285000     1.148309      -6.5008    125.33427  0.036647448  0.038198165            1 
  286000    1.1327541   -6.4455774    126.12702  0.036750299  0.038175937            2 
  287000    1.1432543   -6.4756184    126.16215  0.036632448  0.038154209            3 
  288000    1.1481385   -6.4622467    126.21496  0.036520533  0.038130712            4 
  289000    1.1370387   -6.4896382    126.80333  0.036563819  0.038108739            4 
  290000    1.1327248   -6.4789452    127.23294   0.03656119  0.038085318            5 
  291000    1.1268087   -6.4763765    127.81226  0.036601449  0.038061821            4 
  292000    1.1273115   -6.4944919    127.99399  0.036527964  0.038038744            5 
  293000     1.147273   -6.4605282    128.66023  0.036592784  0.038016804            2 
  294000    1.1463108   -6.4990348    129.07621  0.036586228  0.037996017            2 
  295000     1.118459   -6.4909187    130.16541   0.03676989   0.03797527            1 
  296000    1.1276309   -6.4962952    130.04943  0.036613014  0.037955173            3 
  297000    1.1236535    -6.519819    130.59888  0.036643906  0.037934911            5 
  298000    1.1622551   -6.4616395    130.78275  0.036572358  0.037915193            4 
  299000    1.1593247   -6.4767273    131.76964  0.036725094  0.037895563            2 
  300000    1.1215432   -6.4714039    131.94725  0.036652014  0.037876525            2 
  301000    1.1184984   -6.4930854    132.61865  0.036716128  0.037859861            3 
  302000    1.1191293    -6.477772    132.77758  0.036638404  0.037843569            2 
  303000    1.1533999   -6.5274402    133.26602  0.036651822  0.037825564            3 
  304000    1.0954308   -6.5400485     133.3228  0.036546819  0.037806642            5 
  305000    1.1083019   -6.5005262    134.12891  0.036647244  0.037788843            3 
  306000    1.1518787   -6.4943245    134.65766  0.036671476  0.037770632            3 
  307000    1.1007491   -6.5082591    134.59246  0.036534328   0.03775326            2 
  308000    1.1377034   -6.4991017    135.12096    0.0365587  0.037734889            5 
  309000    1.1257601   -6.4719208    135.74537  0.036608783  0.037716994            2 
  310000     1.158568   -6.4759066    136.16397  0.036603218  0.037698929            4 
  311000    1.1370185   -6.5187756    136.02986  0.036449587  0.037680869            5 
  312000    1.1385473    -6.481113    137.41978     0.036704  0.037663754            4 
  313000    1.1353141   -6.5085208    136.72075  0.036400626  0.037646344            7 
  314000    1.1252455   -6.5051828    137.53109  0.036499757  0.037628537            2 
  315000    1.1067003    -6.468255    138.00678  0.036509731   0.03761105            4 
  316000     1.132887   -6.5267249    137.89213  0.036363957  0.037593003            3 
  317000    1.1192571   -6.5199348    138.62278   0.03644132  0.037573847            2 
  318000    1.1369222   -6.4740541    139.38669   0.03652691  0.037556231            2 
  319000    1.1112375   -6.4933252     139.7329  0.036502848  0.037538242            4 
  320000    1.1148652   -6.4974722    139.84539   0.03641807  0.037520552            4 
  321000    1.1538887   -6.4919134      140.193  0.036394861  0.037502099            1 
  322000    1.1263917    -6.503456     140.4661  0.036352511  0.037483227            2 
  323000    1.1163345    -6.478979    141.18973  0.036426659  0.037466282            2 
  324000    1.1339538   -6.4943541     142.1366  0.036557768  0.037449063            2 
  325000    1.1451326   -6.5323034    142.20121  0.036461849   0.03743307            3 
  326000    1.1379759   -6.4894366    142.66224  0.036467854  0.037416584            1 
  327000    1.1006704   -6.5075395     143.5307   0.03657765  0.037401184            4 
  328000    1.1445928   -6.5309687    143.45714  0.036447445  0.037387386            8 
  329000    1.1292675   -6.5579161    144.02749  0.036481127  0.037373785            1 
  330000    1.1204675   -6.5120245    144.70254  0.036541045   0.03735983            2 
  331000    1.1191811   -6.5305267    144.80679  0.036456897  0.037346037            4 
  332000    1.1368395   -6.5115077    145.37763  0.036490369  0.037332722            4 
  333000    1.1542437    -6.540468    145.89987  0.036511479  0.037320279            3 
  334000    1.1078297   -6.5303212    145.54639  0.036313968  0.037306462            3 
  335000    1.1377005    -6.532586    146.30414  0.036394065  0.037291913            2 
  336000    1.0988424   -6.5045419    146.98877  0.036455549  0.037277109            4 
  337000    1.1398829   -6.5341842    147.39992   0.03644904  0.037262453            2 
  338000    1.1218817   -6.5040772    147.20661  0.036293543  0.037247297            4 
  339000    1.1170519   -6.4806679    147.96844  0.036373756  0.037232273            3 
  340000    1.1142432   -6.5111026     148.5456  0.036408236   0.03721699            2 
  341000    1.1230199   -6.5301346    148.50091  0.036290545  0.037201471            3 
  342000    1.1099891   -6.5157526    148.40611  0.036161332   0.03718604            3 
  343000    1.1050257   -6.5183022    148.84453  0.036162423  0.037170571            3 
  344000    1.1379035   -6.5401817    149.60897  0.036242482  0.037154107            3 
  345000    1.1465291   -6.5168967    149.70875  0.036161533  0.037137165            2 
  346000     1.137566   -6.5307436    149.90515  0.036104322  0.037119959            3 
  347000    1.1015891   -6.5004819    150.38237  0.036114882  0.037102548            2 
  348000      1.13583   -6.5755445    150.67899  0.036082133  0.037084453            2 
  349000    1.1149577   -6.5623492    151.05021  0.036067386  0.037066338            3 
  350000      1.12289   -6.5638594    151.39255  0.036045845  0.037048326            2 
  351000    1.1222867   -6.5405344    152.48882  0.036203423  0.037031983            2 
  352000    1.1394331   -6.5142152    152.95082  0.036209948  0.037016563            3 
  353000    1.1326244   -6.5285089    153.33869  0.036198935  0.037001669            2 
  354000    1.0945539   -6.5624107    153.27199  0.036080978  0.036985522            6 
  355000    1.1492569   -6.4955652    154.42197  0.036249288  0.036969466            4 
  356000    1.1230249   -6.5585648    154.34925  0.036130442  0.036954037            2 
  357000     1.118522   -6.5621032    154.38866  0.036038436    0.0369378            3 
  358000     1.116184   -6.5205339    154.82591  0.036039552  0.036922284            3 
  359000    1.0968902   -6.5268879    155.05594  0.035992558  0.036905319            2 
  360000     1.087856   -6.5462451    155.82299  0.036070136  0.036889413            4 
  361000    1.1033403    -6.567124    155.53362  0.035903421  0.036873464            2 
  362000    1.1166528   -6.5076221    156.48387   0.03602299  0.036857045            4 
  363000    1.1003816   -6.5106439    157.03823  0.036051017   0.03684083            2 
  364000    1.1099365   -6.5407538    156.58377  0.035847933  0.036824152            2 
  365000    1.0899858   -6.5580374    157.56559  0.035973879  0.036807023            2 
  366000    1.1120796   -6.5544475    157.66795  0.035898896  0.036790916            3 
  367000    1.1395535   -6.5700823    157.69547  0.035807329  0.036774003            3 
  368000    1.1144619   -6.5613004    158.67998  0.035932966  0.036758028            3 
  369000    1.1072554   -6.5156495    159.08554  0.035927177  0.036742144            2 
  370000    1.1089695   -6.4970568    159.82364  0.035996315  0.036726699            5 
  371000    1.1002035   -6.5340223    159.86757  0.035909157   0.03671162            6 
  372000    1.1090991   -6.5340933    159.88512  0.035816559  0.036695407            1 
  373000     1.096952   -6.5408276    160.48692  0.035854987  0.036679163            2 
  374000     1.120273   -6.5447239    160.50217  0.035762515  0.036662631            3 
  375000    1.0726968    -6.514302    161.47337  0.035882971  0.036647578            2 
  376000    1.0917778   -6.5293278    161.93698  0.035890288  0.036633393            2 
  377000    1.0811047   -6.5935032    162.39345  0.035895987  0.036619548            4 
  378000    1.1211232   -6.5408464     163.0141  0.035937853  0.036605825            6 
  379000    1.0941273   -6.5643119    163.45526  0.035940031  0.036592222            4 
  380000     1.097781   -6.5298999    164.12919  0.035993243  0.036579432            2 
  381000    1.1104879   -6.5592032    164.41225  0.035960684  0.036567311            5 
  382000    1.0967943    -6.548044    165.29271   0.03605862  0.036555917            5 
  383000    1.1096892   -6.5072748    165.89119   0.03609469  0.036545239            2 
  384000     1.131059   -6.5723828    165.75032   0.03597012  0.036533693            6 
  385000    1.1162602    -6.542366    166.30447  0.035996639  0.036522678            2 
  386000    1.0990064     -6.57843    166.46619  0.035938296     0.036512            4 
  387000    1.1003558   -6.5921374    166.24192   0.03579714  0.036499567            4 
  388000    1.1092274   -6.5578863    167.02146  0.035872306  0.036487603            5 
  389000    1.0780955   -6.5560482    168.18201  0.036028709  0.036476144            3 
  390000    1.0824908   -6.5354501    168.73724  0.036054965  0.036464801            2 
  391000    1.0852228   -6.4821927    169.35291  0.036093971  0.036454631            3 
  392000    1.1015192   -6.5734197    169.13147  0.035954819  0.036444513            8 
  393000     1.095745   -6.5376924    169.15392  0.035868091   0.03643358            4 
  394000    1.0738443   -6.5807994    169.88927  0.035932586  0.036422514            4 
  395000    1.0870577   -6.5737515    170.36813  0.035942644  0.036411867            3 
  396000    1.0880549   -6.5841496    171.39972  0.036068964  0.036401569            4 
  397000     1.089115   -6.5590463    171.30444  0.035958112  0.036391464            2 
  398000    1.0755869   -6.5411107     171.5967  0.035928957  0.036381286            1 
  399000    1.0908777   -6.5745043    172.03321  0.035930076  0.036371307            2 
  400000    1.0964283    -6.498286    172.68815  0.035976698  0.036360672            5 
  401000    1.1250165   -6.5753635    172.15239  0.035775641  0.036350823            2 
  402000    1.0830239   -6.5646068    172.67988  0.035795996  0.036339824            2 
  403000    1.0957259    -6.545694    173.00323  0.035774035  0.036328908            3 
  404000    1.0923276   -6.6079786    173.15403   0.03571659  0.036317707            3 
  405000    1.1059219   -6.5649349    174.07887  0.035818697  0.036306183            3 
  406000    1.0770257   -6.5677784    174.55397  0.035827991  0.036293873            3 
  407000    1.0910043   -6.5801494    175.24603   0.03588166   0.03628342            6 
  408000    1.0813301   -6.5445693    175.07392  0.035758563  0.036272901            2 
  409000    1.0920573   -6.5897193    175.37193  0.035731852  0.036261469            6 
  410000     1.081437   -6.5516788    176.14158  0.035801133  0.036249704            2 
  411000    1.0935062   -6.5913187    176.35702  0.035757708   0.03623727            3 
  412000    1.0877824    -6.547968    176.81869  0.035764299    0.0362256            3 
  413000    1.1086916   -6.6126412    176.96511  0.035707245  0.036213705            2 
  414000    1.1069476   -6.5955916    176.94693  0.035617338  0.036201044            2 
  415000    1.0663463   -6.5573849    177.27696  0.035597782  0.036187678            3 
  416000    1.0988608     -6.55431     177.9715  0.035651343  0.036174111            8 
  417000     1.090681   -6.5941656    178.01292  0.035574125  0.036160511            4 
  418000    1.0893755   -6.6001749    177.83831  0.035454209  0.036146545            2 
  419000      1.07564   -6.5998196    178.12064  0.035425743  0.036131736            4 
  420000     1.059442   -6.5869859    178.96452  0.035508833  0.036117651            3 
  421000    1.0999386    -6.549949    179.00028  0.035431569  0.036103381            2 
  422000    1.0810655   -6.5816624    179.36532  0.035419693  0.036089444            2 
  423000    1.0640306   -6.5867603    179.82356  0.035426233  0.036075991            2 
  424000    1.0773698   -6.5661921    180.81975  0.035538472  0.036062475            4 
  425000    1.0894729   -6.5818913    181.26883  0.035542908  0.036049046            2 
  426000     1.099663   -6.6236615    180.53739  0.035316391  0.036035512            2 
  427000    1.0953972   -6.5967035     181.5302   0.03542744  0.036020974            2 
  428000    1.0815282   -6.5922011    181.30377  0.035300578  0.036006774            3 
  429000    1.0801772   -6.5920336    181.75053  0.035305076  0.035992727            3 
  430000    1.0794889   -6.5807247    182.09177  0.035289103  0.035978416            5 
  431000     1.093022    -6.571213    182.07989  0.035204929  0.035963417            4 
  432000    1.0909065   -6.5928287    182.76398  0.035255396  0.035948822            4 
  433000    1.0884141   -6.5925576    182.61496  0.035145295  0.035933618            1 
  434000    1.0852409   -6.5941622    183.69323  0.035271357  0.035918612            4 
  435000    1.0775772   -6.5824562    184.23806  0.035294647  0.035903584            5 
  436000    1.0894552   -6.5822044    183.86797  0.035142961  0.035889277            3 
  437000    1.0552303   -6.5994823     184.8747   0.03525452  0.035875037            4 
  438000    1.0795677   -6.6128462    185.07257  0.035211676  0.035860634            3 
  439000    1.1051643   -6.5987823    185.78077  0.035265902    0.0358468            2 
  440000    1.0660638   -6.5891997    185.55268  0.035142553  0.035833057            4 
  441000    1.0930584   -6.6131561    186.33142   0.03521002  0.035819719            4 
  442000     1.096269   -6.6092486    186.74686  0.035208683  0.035806159            3 
  443000    1.0733998   -6.5748326    187.31532   0.03523614  0.035792039            6 
  444000    1.0821287   -6.6312695    186.83939  0.035067453  0.035777979            3 
  445000    1.0726718   -6.5798012    188.06337   0.03521786  0.035763765            3 
  446000    1.0735527   -6.6252726    188.07811   0.03514165  0.035750114            2 
  447000     1.075479   -6.6075564    188.30302  0.035104963  0.035736634            2 
  448000    1.0880158   -6.6326667    188.49113  0.035061595  0.035722794            3 
  449000     1.070688   -6.5883637    189.51559  0.035173643  0.035708898            4 
  450000    1.0872351   -6.5736069     190.1544  0.035213778  0.035696339            4 
  451000    1.0716316    -6.617481    189.80285  0.035070741  0.035683269            4 
  452000    1.0570289   -6.5817104    190.38017   0.03509959  0.035669638            2 
  453000    1.0737456   -6.5657968    191.02524  0.035140772  0.035656398            3 
  454000    1.0752522   -6.5874666    191.02771  0.035063824  0.035642933            4 
  455000    1.0740749   -6.6033828    191.03472  0.034988044  0.035629447            4 
  456000    1.0779701   -6.6317307    191.50279  0.034996855  0.035615758            2 
  457000    1.0736624   -6.6114822    191.70643  0.034957408  0.035601605            2 
  458000    1.0719603   -6.5890622    192.06303  0.034945966  0.035587134            6 
  459000    1.0808414   -6.6181992    192.01739  0.034861545  0.035571903            2 
  460000    1.0715564   -6.6484846     192.8263  0.034932301  0.035556405            4 
  461000    1.0628914   -6.6148511    192.93695  0.034876527   0.03554154            2 
  462000    1.0773154   -6.5986375    193.19904  0.034848311  0.035526651            4 
  463000    1.0778518   -6.6303633    193.36379  0.034802698  0.035512065            4 
  464000    1.0743717   -6.6224307    193.93314  0.034829946  0.035496767            2 
  465000     1.069598   -6.5764142    194.65632  0.034884645  0.035481606            3 
  466000    1.0867029   -6.6586747    194.51498  0.034784509  0.035465408            2 
  467000    1.0308225   -6.6220029    195.04282  0.034804215  0.035449361            5 
  468000    1.0779349   -6.6079989    195.48122  0.034807909  0.035433874            3 
  469000    1.0653332   -6.6015766    195.62726  0.034759641  0.035418216            3 
  470000    1.0485243   -6.6042104    196.15568  0.034779376  0.035402404            4 
  471000    1.0878241   -6.6092115    196.63576  0.034790473  0.035386776            4 
  472000    1.0742592   -6.6690674    195.95646  0.034596833  0.035370856            3 
  473000    1.0564961   -6.6275225    196.23221  0.034572272  0.035354816            3 
  474000    1.0697413   -6.6191038    197.47523  0.034717868  0.035338825            5 
  475000    1.0515209   -6.5678888    197.80406  0.034702467  0.035323717            3 
  476000    1.0575314   -6.6550958    197.28316  0.034538369  0.035308056            4 
  477000    1.0897515   -6.6214633    198.47586   0.03467433  0.035292198            2 
  478000    1.0672591    -6.638518    198.12741   0.03454104  0.035275653            2 
  479000    1.0577881    -6.649866    198.90043  0.034603414     0.035259            3 
  480000    1.0499834   -6.6380458    198.96757  0.034542981  0.035242242            3 
  481000    1.0593816   -6.5892567    199.20341  0.034512026  0.035225472            9 
  482000    1.0486478   -6.6220923    199.57186  0.034504125  0.035208645            2 
  483000    1.0504417   -6.6821579    199.66357  0.034448512  0.035191698            2 
  484000    1.0568399   -6.6434935    200.32341  0.034490945  0.035174877            4 
  485000    1.0625192   -6.6627529    200.39376  0.034431917  0.035158407            3 
  486000     1.051306     -6.61196    201.12058  0.034485697  0.035142413            4 
  487000     1.058074   -6.6205428    201.20256  0.034428912  0.035127165            4 
  488000     1.064031   -6.5959029    202.21396  0.034531073  0.035111811            4 
  489000    1.0395871   -6.6496353    202.45183  0.034500993  0.035096557            2 
  490000    1.0786774   -6.6397241    202.57485  0.034451505  0.035081342            4 
  491000    1.0327987   -6.6677926    203.15448  0.034479715   0.03506551            4 
  492000    1.0558598   -6.6558463     202.7647  0.034343614  0.035049072            3 
  493000    1.0512703   -6.6582358    203.26136  0.034357904  0.035032816            5 
  494000    1.0557875   -6.6581802    202.91754  0.034230355  0.035015472            3 
  495000    1.0319678   -6.6658875    203.82382  0.034313774  0.034998285            2 
  496000    1.0688063   -6.6693766    203.09356  0.034121902  0.034981086            4 
  497000    1.0456575   -6.6158303    204.41359  0.034274578  0.034963984            7 
  498000    1.0365115   -6.6009533    204.36701   0.03419796  0.034947063            2 
  499000    1.0324342   -6.6507622    204.58157  0.034165259  0.034930109            3 
  500000    1.0666203   -6.6019833    205.54062  0.034256769  0.034912885            3 
  501000    1.0596627   -6.6333616    205.27778  0.034144674  0.034895735            8 
  502000    1.0362756   -6.6374051     205.7193   0.03414995  0.034877715            4 
  503000    1.0580498   -6.6456443    205.81402  0.034097749  0.034859445            2 
  504000    1.0686552   -6.5955778    205.61886  0.033997828  0.034841378            4 
  505000    1.0414083   -6.6574618    206.71066   0.03411067  0.034823091            4 
  506000    1.0449084   -6.6579993    206.36008   0.03398552    0.0348055            4 
  507000      1.03939   -6.6702196     206.8607  0.034000773  0.034787622            4 
  508000    1.0583819    -6.649462    206.90164  0.033940558  0.034769518            2 
  509000    1.0628497   -6.6149428    207.55552  0.033980931  0.034751218            3 
  510000    1.0391388   -6.6425581    208.11549  0.034005799  0.034732789            3 
  511000    1.0643298   -6.6339355     207.7779  0.033884197  0.034714227            2 
  512000    1.0532645   -6.6302781    208.27232  0.033898489  0.034696026            1 
  513000    1.0831699   -6.6787736    208.36141  0.033846883  0.034677364            3 
  514000    1.0449442   -6.6547598    208.37593  0.033783387  0.034658756            2 
  515000    1.0262499   -6.6528869     208.8565  0.033795549  0.034639741            6 
  516000    1.0733039    -6.631528    208.96232  0.033747144  0.034620956            3 
  517000    1.0214324   -6.6459139    209.31359   0.03373849  0.034601392            2 
  518000    1.0475238   -6.6278499    209.53077  0.033708296  0.034581496            4 
  519000    1.0495053   -6.6450214    209.15258  0.033582624  0.034561556            4 
  520000    1.0568009   -6.6220307    209.79058  0.033620286    0.0345414            6 
  521000    1.0191247   -6.6224849    210.70367  0.033701802  0.034521739            2 
  522000     1.037311   -6.6613801     209.9483  0.033516651  0.034501346            9 
  523000    1.0538637   -6.7191719    209.90673  0.033445941    0.0344805            4 
  524000    1.0477709   -6.6409275    210.00041  0.033397012  0.034459433            4 
  525000    1.0607512     -6.67454    210.57233  0.033424179  0.034438733            3 
  526000    1.0297677   -6.6496125    210.93291  0.033417762  0.034417789            3 
  527000    1.0378811    -6.664361    211.18849  0.033394764  0.034396772            4 
  528000     1.038846    -6.674667    212.16423  0.033485516  0.034375438            3 
  529000    1.0371828   -6.7022486    211.44392  0.033308746  0.034354389            4 
  530000    1.0269997   -6.6215627    212.51784  0.033414754  0.034333192            5 
  531000    1.0520743   -6.6605355    212.64677   0.03337206  0.034312187            2 
  532000    1.0414954   -6.6391085    212.53225  0.033291393  0.034291162            7 
  533000    1.0432275   -6.6832117    212.23704  0.033182776  0.034269942            7 
  534000    1.0228954   -6.6904096    213.32955  0.033291129  0.034248047            3 
  535000    1.0562395   -6.6317856     212.9798  0.033174424  0.034226925            3 
  536000    1.0367233   -6.6530195    213.45166  0.033185893  0.034205844            5 
  537000    1.0650165   -6.6523209    213.87313  0.033189499   0.03418454            4 
  538000    1.0461438   -6.6555818    214.08091  0.033159993  0.034163255            2 
  539000     1.033714   -6.6606202    214.66713  0.033189104  0.034141891            4 
  540000    1.0467843   -6.6770903    214.46247   0.03309606  0.034120758            5 
  541000     1.007578   -6.6896538    214.34044  0.033016087  0.034099725            2 
  542000    1.0404916    -6.674831    215.50074   0.03313357  0.034078397            5 
  543000      1.04442   -6.6253559    215.69532  0.033102413  0.034056794            4 
  544000    1.0297436   -6.6486562    215.81042  0.033059194   0.03403545            3 
  545000    1.0331425   -6.6946985    215.99739  0.033027124  0.034014568            4 
  546000    1.0715129   -6.6972765    216.18363  0.032995059  0.033993317            4 
  547000    1.0359851   -6.6838016    216.74046   0.03301957  0.033972247            4 
  548000    1.0288929   -6.7095225     217.3222  0.033047779  0.033951208            3 
  549000    1.0443627   -6.6842909    217.09315  0.032952815  0.033931037            3 
  550000    1.0099452   -6.6984895    218.12435  0.033049144  0.033910718            3 
  551000    1.0183462   -6.6538516    218.75437  0.033084447   0.03389106            3 
  552000    1.0296122   -6.6859626    218.55194  0.032993953  0.033871426            3 
  553000    1.0286529     -6.68922    219.24806  0.033039189  0.033851829            3 
  554000    1.0368468   -6.6677985    219.30395  0.032987959  0.033832041            6 
  555000    1.0454244   -6.6955353    219.30626  0.032928869  0.033811767            3 
  556000    1.0216913   -6.6162496    220.43955  0.033039502  0.033791436            4 
  557000    1.0383122   -6.6873847    220.33168  0.032964046  0.033770827            8 
  558000    1.0153213   -6.6684492    220.58412   0.03294267  0.033750573            3 
  559000    1.0000345     -6.69495    221.05339  0.032953696  0.033730605            7 
  560000    1.0372927   -6.6835166    221.49001  0.032959822  0.033711029            2 
  561000    1.0159331   -6.6915613    221.40932  0.032889084  0.033691437            9 
  562000    1.0156818   -6.6920166    221.42828  0.032833375   0.03367154            3 
  563000    1.0446428   -6.7214151    221.70583  0.032816138  0.033651397            5 
  564000    1.0430797   -6.6819867    221.84707  0.032778823  0.033631128            3 
  565000    1.0469374   -6.7068594    222.00353  0.032743884  0.033610923            3 
  566000    1.0176542   -6.6866455    222.62141  0.032777003  0.033590742            2 
  567000    1.0232903   -6.6962817    222.82322  0.032748857  0.033570584            2 
  568000    1.0367793   -6.6559448    223.79538  0.032833829  0.033550911            2 
  569000     1.012027   -6.6963917    223.80506  0.032777543  0.033531152            4 
  570000    1.0358856   -6.6802782    224.67132  0.032846685  0.033511406            4 
  571000    1.0295778   -6.7164158    223.83771    0.0326675  0.033491924            4 
  572000    1.0288204   -6.6971734    224.69498  0.032735283  0.033472524            2 
  573000    1.0400551   -6.6920376    224.26251  0.032615258  0.033452736            3 
  574000    1.0124678   -6.6589815    224.93457  0.032656006  0.033432691            5 
  575000    1.0434038   -6.6653815    224.98465   0.03260647  0.033412952            3 
  576000    1.0294358   -6.6815082    225.45195  0.032617469  0.033393032            4 
  577000     1.039208   -6.6803561    225.30358  0.032539512   0.03337297            2 
  578000    1.0462729   -6.7392151    224.80787  0.032411746  0.033352672            3 
  579000    1.0187996   -6.6883351    225.87532  0.032509402  0.033332421            4 
  580000    1.0287934   -6.7187335    225.63065  0.032418197   0.03331187            5 
  581000    1.0227431   -6.7100091    225.80905  0.032387988  0.033290862            2 
  582000    1.0096177   -6.7201665    226.22032  0.032391226  0.033269536            5 
  583000    1.0299761   -6.6924177    226.50824  0.032376821  0.033248417            2 
  584000    1.0091947   -6.7295817    226.67266  0.032344844  0.033227493            4 
  585000    1.0440844   -6.7404733    227.47093  0.032403267  0.033206915            3 
  586000   0.99914537   -6.7228359    226.86442  0.032261721  0.033186739            3 
  587000    1.0120879   -6.7164536    227.41273  0.032284601  0.033166098            4 
  588000    1.0134201    -6.705719    227.43744  0.032233198  0.033145618            2 
  589000    1.0054984   -6.7004426    228.76763  0.032366671  0.033125512            5 
  590000    1.0053191    -6.740776    229.40205  0.032401419   0.03310514            6 
  591000    1.0120916   -6.7084932    229.61711  0.032376919  0.033085522            4 
  592000    1.0149234    -6.700739    229.42399  0.032295044    0.0330663            3 
  593000    1.0109153   -6.6891131    230.05546  0.032329322  0.033046488            2 
  594000    1.0288621   -6.6974369    230.07257  0.032277297  0.033026654            4 
  595000    1.0349026   -6.7220995    230.94771  0.032345617  0.033007022            5 
  596000    1.0138378   -6.7184372    231.53507  0.032373471    0.0329881            5 
  597000    1.0162864   -6.6868725    231.29141  0.032285233  0.032969228            6 
  598000     1.029829   -6.7209448    230.61594  0.032137115  0.032949545            3 
  599000    1.0079417   -6.7312101    230.96656  0.032132242  0.032929675            3 
  600000     1.011097   -6.7483746    231.61135  0.032168243  0.032909691            5 
  601000    1.0251436   -6.7675679    231.50805  0.032100396  0.032889681            7 
  602000    1.0149571   -6.7496876    232.48242  0.032181951  0.032869866            4 
  603000    1.0177223   -6.7337741    231.89668  0.032047635  0.032849794            5 
  604000    1.0219054   -6.7361042    232.21703  0.032038773  0.032829956            4 
  605000   0.99737338   -6.6767039    233.70702   0.03219105  0.032810409            5 
  606000    1.0217732   -6.7162893     233.3194  0.032084625  0.032790966            5 
  607000    1.0271371    -6.746302    233.32111  0.032032002  0.032771269            3 
  608000   0.98151949   -6.7198928     233.5538  0.032011211  0.032751485            4 
  609000    1.0050732   -6.7418857    233.79802  0.031992066  0.032731798            4 
  610000    1.0137112    -6.718584    233.70043  0.031926288  0.032712159            4 
  611000     1.023212    -6.706524    235.04486    0.0320574  0.032692536            5 
  612000    1.0093921   -6.7125761    235.09411  0.032011725  0.032673032            3 
  613000    1.0163066    -6.773123    234.92813   0.03193694  0.032653104            5 
  614000     1.000778   -6.7434027    235.35739  0.031943185  0.032633273            3 
  615000    1.0098558   -6.7249694    235.59164  0.031922987  0.032613501            2 
  616000    1.0066456   -6.7411294    235.89764  0.031912559   0.03259398            3 
  617000    1.0007158   -6.7605395     235.9158   0.03186329  0.032574331            4 
  618000    1.0097803   -6.7451175    236.02915  0.031827016  0.032554582            2 
  619000   0.99946098   -6.7126784    236.54626  0.031845216  0.032534992            3 
  620000   0.98703164   -6.7807837    236.77737  0.031824916   0.03251566            3 
  621000    1.0226988   -6.7207476    237.39294  0.031856273  0.032496535            7 
  622000    1.0158769   -6.7485987    238.22244   0.03191619  0.032477519            5 
  623000   0.99937106   -6.7671777    238.09772  0.031848277  0.032458121            4 
  624000     1.013943   -6.7555625    237.43341  0.031708522  0.032438576            8 
  625000    1.0205269   -6.7327205    237.80286  0.031707048  0.032419315            4 
  626000    1.0141143   -6.7631966    238.42761  0.031739565  0.032399751            3 
  627000    1.0149875   -6.7331556    239.99729  0.031897566  0.032380921            2 
  628000   0.99981279   -6.7274491    239.73187  0.031811554  0.032362106            5 
  629000    1.0012419    -6.769612     239.7639  0.031765223  0.032343219            4 
  630000     1.010674   -6.7463366    239.78082  0.031717039  0.032324208            3 
  631000     0.993961   -6.7282476    240.70586  0.031788941  0.032305473            3 
  632000   0.98043015   -6.7304334    240.74913  0.031744347  0.032286692            3 
  633000    1.0080771   -6.7427795    240.84776  0.031707183  0.032268154            3 
  634000    1.0136901   -6.7765524    240.14072  0.031564237  0.032249003           12 
  635000    1.0125473   -6.7378444    240.39012   0.03154726  0.032229904            7 
  636000   0.99851389   -6.7421789    240.91537  0.031566479  0.032210677            7 
  637000   0.97951547   -6.7329414    241.85247  0.031639517  0.032191757            3 
  638000   0.98840362    -6.775192    241.17518   0.03150146  0.032172645            1 
  639000    1.0211653    -6.771484    241.64216  0.031513062  0.032153122            4 
  640000   0.98738501   -6.7668854    242.11453  0.031525329  0.032134047            2 
  641000    1.0063821   -6.7458623    242.63545   0.03154387  0.032115383            5 
  642000   0.99110032   -6.7394668    243.23945  0.031573138  0.032096352            2 
  643000    1.0054702   -6.7768898    242.68576  0.031452275  0.032077556            6 
  644000   0.99489121   -6.7404485    243.98798  0.031571944  0.032058777            2 
  645000    1.0018738   -6.7574099    243.48788  0.031458382  0.032040032            3 
  646000    1.0052826   -6.7850283    243.10695  0.031360546  0.032020733            5 
  647000    0.9858457   -6.7670103      243.116   0.03131324  0.032001489            4 
  648000    1.0062966   -6.7560191    243.92398  0.031368824  0.031982163            7 
  649000    1.0044613   -6.7801353    243.63997  0.031284023  0.031962967            6 
  650000    1.0144236   -6.7725563    244.55195  0.031352814  0.031943767            8 
  651000    0.9837831    -6.757552    245.21961  0.031390119  0.031924606            3 
  652000   0.98415877   -6.7550204     245.1597  0.031334317  0.031905736            3 
  653000   0.99690038   -6.7218543    245.33596  0.031308826  0.031886789            3 
  654000   0.99955855   -6.7786184     245.0882  0.031229383  0.031867561            5 
  655000    0.9901174   -6.7437919    245.60827  0.031247871  0.031848252            4 
  656000    1.0140405   -6.7400803    245.69232  0.031210915  0.031828742            3 
  657000    1.0027816   -6.7629315    245.55858  0.031146446  0.031809131            4 
  658000   0.98185272   -6.7466639    246.06393  0.031163112   0.03178959            3 
  659000    0.9951207   -6.7229323    246.55894   0.03117842  0.031770019            5 
  660000   0.97193987   -6.7705501    246.29045  0.031097279  0.031750878            3 
  661000   0.98081495   -6.7813946    246.93862  0.031131949  0.031731079            9 
  662000   0.96686807   -6.7518885    246.10981   0.03098059    0.0317113            4 
  663000    1.0131882   -6.7569868    246.64676  0.031001353  0.031691378            4 
  664000    1.0162443   -6.7663854    247.06942  0.031007708  0.031671589            7 
  665000    1.0068623   -6.7702605    246.56136  0.030897413  0.031651551            4 
  666000   0.98574324   -6.7882451      246.988  0.030904405  0.031631309            4 
  667000   0.97284673   -6.7483438    247.54012  0.030927051  0.031610949            4 
  668000   0.97613563   -6.7933133    247.17556  0.030835275  0.031590498            1 
  669000   0.97528811    -6.782453    248.12498  0.030907446  0.031570285            7 
  670000   0.96818814   -6.7730007    248.73379  0.030937038  0.031550258            3 
  671000   0.97724879   -6.8141604    248.27972  0.030834541  0.031530517            5 
  672000   0.98338943    -6.774494    249.41258  0.030929139  0.031511058            8 
  673000   0.97726868   -6.7369018    249.10659  0.030845293  0.031491485            4 
  674000   0.98041737   -6.7881684    249.53421  0.030852399  0.031472328            3 
  675000   0.97994917   -6.7689102    250.31567  0.030903169  0.031453405            4 
  676000   0.97759997   -6.8023826    250.20783   0.03084416  0.031434801            4 
  677000   0.99457441    -6.778322    251.76596  0.030990394  0.031415794            8 
  678000   0.95645704   -6.8160797     250.5127  0.030790647  0.031396843            4 
  679000   0.99348261   -6.7939965    251.05214  0.030811504  0.031377501            2 
  680000   0.95463307   -6.7643523    251.51318  0.030822693  0.031358695            4 
  681000    1.0035364   -6.7832434    251.75152  0.030806598  0.031339842            2 
  682000   0.96937844   -6.7837687     252.1635  0.030811767  0.031321389            5 
  683000   0.95947297   -6.7700006    252.14042  0.030763838  0.031302925            7 
  684000   0.98206301    -6.780919    252.76386  0.030794817  0.031284238            4 
  685000   0.97350396   -6.7860751    253.10066  0.030790835  0.031265559            4 
  686000   0.96687163   -6.7535213    253.40546  0.030782976  0.031246951            6 
  687000   0.96298575   -6.7820114    253.43608  0.030741882  0.031228082            4 
  688000   0.97987629   -6.7890947    253.30765  0.030681644  0.031209331            4 
  689000   0.97090837   -6.7575373    253.13268  0.030615951  0.031190189            4 
  690000   0.99009645    -6.770512    253.34672   0.03059743  0.031171191            6 
  691000    0.9862728   -6.8424964    253.11621  0.030525351   0.03115194            7 
  692000   0.98384715   -6.7545877    254.40545  0.030636494  0.031133374            8 
  693000    0.9674176   -6.7902486    254.66585  0.030623599  0.031114733            5 
  694000   0.96971461   -6.8134504    254.56761  0.030567676  0.031096034            5 
  695000   0.99171052   -6.7862031    255.85069   0.03067754  0.031077662            6 
  696000   0.95239476   -6.8109355    255.66631  0.030611388   0.03105963            2 
  697000   0.97149462   -6.7696671    256.70441  0.030691584  0.031041314            9 
  698000    0.9683199   -6.8027962    256.57308  0.030631934  0.031023556            6 
  699000   0.96068882   -6.7864389    256.58461  0.030589486  0.031005858            3 
  700000   0.96682684   -6.7914779    257.14244  0.030612195   0.03098818            4 
  701000   0.95758243   -6.8057798    256.62308  0.030506785  0.030970253            3 
  702000   0.96514082   -6.8139052    257.03895  0.030512695  0.030952516            3 
  703000   0.97679554   -6.8334673    257.21817  0.030490537  0.030934557            2 
  704000   0.97346689   -6.8052356    258.45966  0.030594183  0.030916739            2 
  705000    0.9919953   -6.7759208    258.27584  0.030529059  0.030899295            3 
  706000   0.96993089   -6.8021389    258.27999  0.030486306  0.030881577            4 
  707000   0.98783251   -6.8230091    258.95144  0.030522329  0.030863796            3 
  708000   0.98696765   -6.7842832    258.78479  0.030459603   0.03084621           11 
  709000   0.96820732   -6.8466511    258.98741  0.030440457   0.03082839           10 
  710000   0.97542278   -6.8001222    259.13803  0.030415261  0.030810621           12 
  711000   0.97639365    -6.823995     259.2177  0.030381822  0.030792551            3 
  712000    0.9607945   -6.7744015    259.90807  0.030419952  0.030774562            3 
  713000   0.97058084   -6.8331905    258.84868  0.030253468   0.03075664            2 
  714000   0.96931999    -6.807929    259.70636    0.0303112  0.030738383            2 
  715000    0.9533926   -6.8396219     258.8577  0.030169895  0.030719889            3 
  716000   0.98738227   -6.7738582    259.88025  0.030246771  0.030701641            2 
  717000   0.98457867   -6.8013839    260.67726  0.030297218  0.030683757            9 
  718000   0.94432014    -6.810224    259.95128  0.030170762  0.030665554            6 
  719000   0.99239099   -6.8075599    259.52103  0.030078932  0.030647078            5 
  720000   0.95737298   -6.7902605    261.38639  0.030253054  0.030628876            3 
  721000   0.93396238   -6.7760337     261.8378  0.030263268  0.030610704            2 
  722000    0.9730814   -6.8368915    261.53653   0.03018658  0.030592662            3 
  723000   0.93451103   -6.8006674    261.42835  0.030132359  0.030574845            4 
  724000   0.96129634    -6.823633    261.71858  0.030124146  0.030556796            4 
  725000   0.97543341   -6.8097674    262.01265  0.030116396  0.030538631            3 
  726000   0.96439104   -6.8345002    262.27324  0.030104826  0.030520388            4 
  727000   0.97480381   -6.7869193    263.14543  0.030163392  0.030502283            2 
  728000    0.9625308   -6.8378254    262.29522  0.030024636  0.030483659            4 
  729000   0.95522949   -6.8153799    262.37184  0.029992208  0.030465061            4 
  730000   0.96998384   -6.8334038     262.0275  0.029911815  0.030446257            9 
  731000   0.97887688   -6.8179058    262.44866  0.029918907  0.030427359            3 
  732000   0.96709505   -6.7984837    262.86467  0.029925395  0.030408562            4 
  733000   0.97496475   -6.8522335    262.24461  0.029814076  0.030389461            3 
  734000   0.96909572   -6.8343039    262.73911  0.029829599  0.030370227            8 
  735000   0.96601177   -6.8345662     263.2394  0.029845737  0.030351044            3 
  736000    0.9612082   -6.8463807    262.90511  0.029767336  0.030331718           14 
  737000   0.97820482   -6.8237439    263.05938   0.02974439  0.030312357           10 
  738000   0.97268619    -6.829806    263.17124  0.029716716  0.030293158            3 
  739000   0.96126556   -6.8254045    263.98745  0.029768544  0.030273869            3 
  740000   0.95443493   -6.8304777    264.50184  0.029786243  0.030254563            3 
  741000   0.94841269   -6.7919517    264.78293  0.029777658  0.030235606            3 
  742000   0.95234995   -6.8628563      264.729  0.029731469  0.030216524            4 
  743000   0.94925101   -6.8189509    265.76672  0.029807842  0.030197696            7 
  744000   0.95554932   -6.8288603    265.34602  0.029720657   0.03017924            7 
  745000   0.97049031   -6.8193122     266.2141  0.029777863  0.030160802            4 
  746000   0.98103733   -6.8345492    265.39235  0.029646152  0.030142309            3 
  747000   0.95459317   -6.8393634    265.59679  0.029629271   0.03012339            2 
  748000   0.95079321   -6.8327437    265.77145  0.029609119  0.030104339            8 
  749000   0.97034057   -6.8185501    266.04938   0.02960051  0.030085584            7 
  750000   0.94624998   -6.8365306    266.25438   0.02958382   0.03006676           10 
  751000   0.95597477   -6.8860263    266.81545  0.029606685  0.030047989            4 
  752000   0.96367319   -6.8574736    266.86419  0.029572716  0.030029451            4 
  753000   0.94902183   -6.8453901    267.09109  0.029558553  0.030010962            4 
  754000   0.95358517   -6.8213999    268.00896  0.029620796  0.029992179            4 
  755000   0.96087214   -6.7964563    267.52345  0.029527975  0.029973354            4 
  756000   0.96163793   -6.8676362    267.42564  0.029478135  0.029954503            4 
  757000   0.94390023   -6.8354776    267.80827  0.029481316   0.02993555            5 
  758000    0.9673154   -6.8607295    267.48219  0.029406573  0.029916489            4 
  759000   0.96967414   -6.8462729    267.48446  0.029368079  0.029897346            2 
  760000   0.95341643   -6.8475644    268.55531  0.029446854  0.029878107            3 
  761000   0.94315454    -6.823904    268.26653  0.029376537   0.02985935            4 
  762000   0.97866056   -6.8382684    268.98838  0.029416927  0.029840727            6 
  763000   0.95315612   -6.8980864    269.37406  0.029420495  0.029822234            5 
  764000   0.95511581   -6.8161048    269.79169   0.02942754  0.029803784            4 
  765000   0.95430775   -6.9010732     268.8886  0.029290697  0.029785301            9 
  766000   0.95883969   -6.8484679    269.86161  0.029358312  0.029766692            7 
  767000   0.91711138   -6.8376057    268.84082  0.029209129   0.02974797            5 
  768000   0.94344513    -6.850012     271.1979  0.029426856   0.02972945            2 
  769000   0.93910374   -6.8633572     270.6516  0.029329389   0.02971106            6 
  770000   0.95033954   -6.8613988    270.38495   0.02926244  0.029692494            2 
  771000   0.93915686   -6.8623974    270.16571   0.02920079  0.029673918            4 
  772000   0.96778371   -6.8280766    270.54624  0.029204042  0.029655401            5 
  773000    0.9360567   -6.8617345    270.63713   0.02917606  0.029636901            4 
  774000   0.95351313   -6.8886177    270.44694  0.029117887  0.029618289            3 
  775000   0.95163656   -6.8337449    271.67582  0.029212453  0.029599736            4 
  776000   0.93202351   -6.7984209    270.99485  0.029101681  0.029581157            5 
  777000   0.94844998   -6.8382724       272.58  0.029234235  0.029562717            2 
  778000   0.93963525   -6.8466071    272.26821  0.029163261  0.029544327            4 
  779000   0.94345019   -6.8410296    271.80674  0.029076459  0.029525851            5 
  780000   0.93363704   -6.8875671    272.04059  0.029064165  0.029506997            3 
  781000   0.94140386   -6.8256376    272.77472  0.029105284  0.029488323            4 
  782000    0.9198472   -6.8545513    271.96029  0.028981275   0.02946956            4 
  783000   0.94806455   -6.8698766    273.03941  0.029059111  0.029450716            5 
  784000   0.94675088   -6.8603068    272.61484  0.028976918  0.029431926            3 
  785000    0.9489003    -6.861679     272.8984  0.028970106  0.029413504            2 
  786000   0.94911878   -6.8538801      273.493   0.02899629     0.029395            2 
  787000   0.96050827   -6.8466568     273.5594  0.028966476  0.029376521            4 
  788000   0.92986067    -6.827779    274.12452   0.02898948  0.029358032            3 
  789000   0.93319909   -6.8526472    274.13523  0.028953868  0.029339611            7 
  790000   0.95015873   -6.8783072    274.24566  0.028928867  0.029321093            7 
  791000    0.9282864   -6.8801334     273.8924  0.028855078  0.029302535            5 
  792000   0.94848525   -6.8740612    274.69612  0.028903211  0.029284023            9 
  793000   0.91960575    -6.899618     274.3992  0.028835562  0.029265279            5 
  794000   0.94463883   -6.8714841    274.42075  0.028801506  0.029246721            5 
  795000   0.93949778   -6.8558064    275.37904  0.028865728  0.029228166            5 
  796000   0.94970816   -6.8965494    275.89649  0.028883636  0.029209669            4 
  797000   0.93897473   -6.9140525    275.29945  0.028784969  0.029191024            4 
  798000   0.94228762   -6.8868792    276.29068  0.028852411   0.02917228            5 
  799000   0.93575183   -6.8996137     275.5471  0.028738746  0.029153626            3 
  800000   0.90494859   -6.8674981     276.4215  0.028793906  0.029134973            4 
  801000   0.93838099   -6.8726424    275.82709  0.028696118  0.029116407            3 
  802000   0.93367837   -6.8875069    275.76375  0.028653757  0.029097749            3 
  803000   0.94866825   -6.8967849    276.07455  0.028650327  0.029078961            4 
  804000   0.93122829   -6.9022115    276.04808  0.028611948  0.029060001            5 
  805000   0.95575001   -6.8655048    275.86163  0.028557104   0.02904093            7 
  806000   0.92969954    -6.893809    276.17215  0.028553779  0.029021804            3 
  807000   0.93826059   -6.9053013    276.88487  0.028591994  0.029002741            5 
  808000   0.92539016   -6.8648023    276.76855  0.028544611  0.028983634            2 
  809000   0.90958689   -6.8918718    277.00062  0.028533232  0.028964618            3 
  810000   0.92595524   -6.8710623    277.07226  0.028505377  0.028945714            3 
  811000   0.92019291   -6.9094329    277.72392  0.028537188  0.028926938            8 
  812000   0.93169583   -6.8967885    276.90893  0.028418404  0.028907959            5 
  813000   0.91634564   -6.9097951    278.14193  0.028509833   0.02888895            5 
  814000   0.94685935   -6.8863822    277.72688  0.028432318  0.028870128            4 
  815000   0.92427695   -6.8956483    278.41108  0.028467391  0.028851487            4 
  816000    0.9126406   -6.8818364    278.72781   0.02846485   0.02883314            5 
  817000    0.9272428    -6.907761    279.09577  0.028467541  0.028814616           10 
  818000   0.91475684   -6.8652932    280.15849  0.028541004  0.028795963            5 
  819000    0.9299141   -6.9190318    278.66737  0.028354433  0.028777735            3 
  820000   0.93113547    -6.898003    279.53129  0.028407652  0.028759236            4 
  821000   0.92433957   -6.8781399     279.2192  0.028341372  0.028740527            2 
  822000   0.92935204   -6.9073951    278.85089  0.028269555  0.028721795            4 
  823000   0.92214869   -6.9224679    279.25583  0.028276208  0.028702821            5 
  824000   0.93111697   -6.9219629    278.69595   0.02818527  0.028683803            2 
  825000   0.92152161   -6.9161557    280.12336  0.028295289  0.028664833            3 
  826000   0.93047248   -6.9104803    279.99731  0.028248316  0.028645809            2 
  827000    0.9124928   -6.9090159    279.87715   0.02820205  0.028626966            3 
  828000   0.92637418    -6.940994    278.87268  0.028066896  0.028607719            5 
  829000   0.91583304   -6.9238558    279.55212  0.028101339  0.028588338            2 
  830000   0.93865831   -6.9021152    279.37966  0.028050167  0.028568869            3 
  831000   0.92610142   -6.8628949    280.76212  0.028155046  0.028549831           12 
  832000   0.91672064   -6.8889379    279.99408  0.028044278  0.028530883            2 
  833000    0.9006987   -6.9257137    280.08109  0.028019317  0.028511762            5 
  834000   0.92427384   -6.8829785    280.69708   0.02804727  0.028492768            4 
  835000   0.91001255   -6.9115766    280.37429  0.027981466  0.028473671           11 
  836000   0.90480694   -6.8585883    281.44673  0.028054897   0.02845466            8 
  837000   0.90524642   -6.9123518    281.18541  0.027995361  0.028435489           11 
  838000   0.91270357   -6.9134902    281.73789  0.028016894  0.028416407            5 
  839000   0.92412009   -6.9302448    281.80299  0.027989967  0.028397338            3 
  840000   0.93596907   -6.9513804    282.33094  0.028009022  0.028378303            4 
  841000   0.90441604   -6.9409495    281.75329  0.027918479  0.028359292            3 
  842000   0.92622795   -6.9036248    281.84856   0.02789475  0.028340508            3 
  843000   0.92373139   -6.9050702    282.67576  0.027943433  0.028321515            7 
  844000   0.90612873    -6.931762    282.39909  0.027883007  0.028302612            3 
  845000   0.93069733   -6.9119803    284.02404   0.02801026  0.028283706            5 
  846000   0.90975054   -6.9014022    282.57181  0.027834102  0.028265014            6 
  847000   0.91503191   -6.9021223    282.94459  0.027837918  0.028246456            3 
  848000   0.90581962   -6.9298891    283.95799  0.027904676  0.028227803            6 
  849000   0.92152415   -6.9123975     283.3898  0.027816039  0.028209494            5 
  850000   0.92635519    -6.906815    284.39763  0.027882121  0.028191277            3 
  851000    0.9118958   -6.9032579    284.10946  0.027821138  0.028172931            8 
  852000   0.91826706   -6.9152031     284.0657  0.027784203    0.0281548            4 
  853000   0.93467951   -6.9315424    285.44628  0.027886506  0.028136742            4 
  854000    0.9004869   -6.9471997    285.73095   0.02788163  0.028118711            3 
  855000   0.91205573   -6.9056355    285.73185  0.027849108  0.028100651            3 
  856000   0.90333294   -6.9342234    285.66775  0.027810334  0.028082792            7 
  857000   0.91014472   -6.9391665     285.5625  0.027767649  0.028064489            4 
  858000   0.91635278    -6.921927    285.54321  0.027733412  0.028046356            2 
  859000    0.9049929   -6.9488906    285.47498  0.027694508  0.028028209            4 
  860000   0.90828137   -6.9121139    287.24161   0.02783349  0.028010231           10 
  861000   0.92360816   -6.9013475    286.91261   0.02776932  0.027992432            3 
  862000   0.92039965   -6.9373601    287.10971  0.027756159  0.027974497            5 
  863000   0.89172793   -6.9246716    285.95708  0.027612696  0.027956285            5 
  864000   0.89608035   -6.9429757    286.11073  0.027595557   0.02793807            8 
  865000   0.90746774   -6.9217333    286.56199  0.027607128   0.02791989            5 
  866000   0.92298834   -6.8845161    287.37737  0.027653712  0.027901842            5 
  867000   0.90376263   -6.9261568    286.51521  0.027538948  0.027883618            2 
  868000   0.89338714   -6.9349403    287.12274  0.027565548  0.027865143            5 
  869000   0.93077124   -6.9451921     286.8248  0.027505255  0.027846646            6 
  870000   0.89498431   -6.9481643    287.23217   0.02751266  0.027828245           10 
  871000   0.89746955   -6.9156471    287.38973  0.027496147  0.027809994            4 
  872000   0.89535565   -6.9361529    288.26059   0.02754784  0.027791796            6 
  873000   0.91249409   -6.9459052    287.51395  0.027445013   0.02777358            9 
  874000   0.90057562   -6.9092472    287.97075  0.027457165   0.02775546            6 
  875000    0.8968588   -6.9174456    288.33799  0.027460761  0.027737241            4 
  876000   0.90727669    -6.946527    287.80975  0.027379162  0.027718923            6 
  877000   0.88680561    -6.942596    288.28055  0.027392679  0.027700523            3 
  878000   0.90870028     -6.93759    288.56003  0.027388006  0.027682159            7 
  879000   0.88000607    -6.932352    288.12954  0.027316035  0.027663721            3 
  880000   0.93401543   -6.9670411    288.86139  0.027354299  0.027645403            5 
  881000   0.88115696    -6.964404    288.78273  0.027315808  0.027626872            6 
  882000    0.8977058   -6.9224089    288.63698  0.027271068  0.027608384            2 
  883000   0.89990786   -6.9442137    288.67199  0.027243487  0.027589849            5 
  884000   0.88349497   -6.9370871    288.72366  0.027217539   0.02757127            6 
  885000   0.90608471   -6.9768013    288.77509  0.027191628  0.027552524            5 
  886000   0.90659841   -6.9471026    288.72504   0.02715623  0.027534041            5 
  887000    0.9060176   -6.9442099     289.3128  0.027180834  0.027515423            3 
  888000   0.91155465   -6.9177605     289.8035  0.027196275  0.027496744            6 
  889000   0.91728184   -6.9702977    288.95936  0.027086554  0.027477966            5 
  890000   0.90311971   -6.9325875    290.45103  0.027195789  0.027459199            6 
  891000     0.887393   -6.9434242    289.39726   0.02706671  0.027440397            5 
  892000   0.90316991   -6.9680601    290.00433   0.02709308  0.027421649            7 
  893000   0.89466067   -6.9308517    290.03066  0.027065198  0.027402868            2 
  894000    0.9061218   -6.9158134    291.05995  0.027130868   0.02738453            2 
  895000   0.88114423    -6.954068    290.71364  0.027068309  0.027366101            7 
  896000   0.87453773   -6.9268883    291.06527  0.027070803  0.027347607            6 
  897000   0.89066599   -6.9881707    290.93872  0.027028867  0.027328944            4 
  898000   0.89020431   -6.9406774    290.91957  0.026996991  0.027310436            5 
  899000   0.90800084   -6.9346924    291.40274  0.027011748  0.027291833            6 
  900000   0.91632175   -6.9703873    290.36849  0.026885972  0.027273245            3 
  901000   0.91049548   -6.9843495    290.85655  0.026901272  0.027254449            5 
  902000   0.88657962   -6.9601419    291.44583   0.02692589   0.02723571            4 
  903000   0.90207607   -6.9867624    291.44181    0.0268957   0.02721701            9 
  904000    0.8790848   -6.9826305    291.18576  0.026842345  0.027198207            2 
  905000   0.88314171   -6.9583166    291.52826  0.026844223  0.027179466            3 
  906000   0.90170452   -6.9637671    290.89633  0.026756469  0.027160727            7 
  907000   0.89852306   -6.9726618    291.54975  0.026787004  0.027141799            4 
  908000   0.89199222   -6.9794484    291.85098  0.026785149  0.027123024            5 
  909000   0.90219261   -6.9789845    292.02209  0.026771368  0.027104357            6 
  910000   0.88652628   -6.9637558    292.07408   0.02674671  0.027085779            4 
  911000    0.8863356   -6.9829643     291.6233  0.026676116  0.027066952            5 
  912000   0.90037248   -6.9566469    292.28855  0.026707652  0.027048377            4 
  913000   0.89294358   -6.9488785    293.51652  0.026790482  0.027029711            3 
  914000   0.90517827   -6.9772539    292.68231  0.026685112  0.027011087            4 
  915000   0.89031221   -6.9613093    292.88243  0.026674174  0.026992483            4 
  916000   0.87683698   -6.9268548    293.37016  0.026689425  0.026973856            2 
  917000   0.89389684   -6.9565839    293.76603  0.026696295  0.026955489            4 
  918000   0.88527617   -6.9975332    293.45169  0.026638679  0.026936879           14 
  919000   0.87573092   -6.9684201     293.9435  0.026654289  0.026918383            8 
  920000   0.87665037   -6.9689456    293.46268  0.026581764  0.026900059            8 
  921000   0.88568544   -6.9809627    293.97459  0.026599221  0.026881731            8 
  922000   0.89775192   -6.9417398    294.78845   0.02664393  0.026863423            3 
  923000   0.89250427   -7.0047192    294.28421  0.026569539  0.026845051            6 
  924000     0.875448   -6.9743647    294.62515  0.026571532  0.026826753            9 
  925000   0.89215985   -6.9432976    295.22062  0.026596452  0.026808546            4 
  926000   0.88566854   -6.9759242    294.66813   0.02651801  0.026790328            5 
  927000   0.88130905   -7.0127591    294.89661  0.026509943  0.026772014            4 
  928000   0.89642583   -7.0024238    294.93811  0.026485103  0.026753665            3 
  929000    0.8818361   -6.9805384    294.81791  0.026445812  0.026735508            3 
  930000   0.88266818   -6.9971642     295.1009  0.026442733  0.026717477            4 
  931000   0.88962426   -6.9856278    295.53419  0.026453114   0.02669931            3 
  932000   0.88862213   -6.9775252    296.06069  0.026471807  0.026681328            3 
  933000   0.87661022   -6.9838588    295.66243  0.026407863  0.026663145            4 
  934000   0.87650289   -6.9989573    296.44332  0.026449261  0.026644988            7 
  935000   0.85712215   -6.9957444    296.41024  0.026418025  0.026627129           11 
  936000   0.85648795   -7.0012322    296.11484  0.026363501  0.026609206           14 
  937000   0.88599033   -6.9945225     297.0532  0.026418819  0.026591572           10 
  938000   0.89017036   -7.0171898    297.19553  0.026403299  0.026574066            7 
  939000   0.86559828   -7.0266905    297.18613  0.026374346  0.026556273           10 
  940000   0.87372438   -6.9795328    297.40353  0.026365561  0.026538823            8 
  941000    0.8846853   -6.9978148    298.87756   0.02646808  0.026521365            9 
  942000   0.89783516    -7.040568    297.26931   0.02629771  0.026503796            9 
  943000   0.87724359   -7.0210752    297.29917  0.026272461  0.026486117            5 
  944000   0.87662965   -6.9838877    298.40975  0.026342669  0.026468618            3 
  945000   0.86546854   -7.0076708    298.17285  0.026293902  0.026451092            4 
  946000   0.87695489     -6.95005    298.89184  0.026329443  0.026433594            8 
  947000   0.87995749   -7.0117638    298.11316  0.026233118   0.02641609            8 
  948000   0.86937105   -6.9948843    298.00631  0.026196054  0.026398501            4 
  949000   0.87543329   -7.0198909    298.10019  0.026176694  0.026380998            4 
  950000   0.87467459    -7.012883    298.36804  0.026172635  0.026363283           11 
  951000   0.86825507    -7.030018    298.85145  0.026187474  0.026345658            2 
  952000   0.89414537   -7.0173375    298.50994  0.026130072  0.026327946            6 
  953000   0.90187697    -6.991983    299.33892  0.026175142  0.026310393            7 
  954000   0.88401929   -7.0413423    298.79803  0.026100457  0.026292888            9 
  955000   0.87540245   -7.0144239    299.05439  0.026095496  0.026275081            6 
  956000   0.89791916   -6.9930193    299.14815  0.026076373  0.026257333           13 
  957000   0.88359734   -7.0086964    299.32282  0.026064335    0.0262395            4 
  958000   0.87466153   -7.0361604    298.65442  0.025978986  0.026221664            3 
  959000   0.87067674   -7.0425829    299.86049  0.026056699  0.026203897            4 
  960000   0.85861643   -6.9626899    299.18148  0.025970615  0.026186213            6 
  961000   0.86810931   -7.0301951    299.16282  0.025941972  0.026168441            5 
  962000   0.85804748   -7.0336304    299.05468  0.025905637  0.026150598            6 
  963000   0.89264736   -7.0421949    300.09196  0.025968498  0.026132697           10 
  964000   0.87207582   -7.0083063    299.63511  0.025902067  0.026114866            8 
  965000   0.86920762   -7.0137509    300.51316   0.02595105  0.026097165            4 
  966000   0.86775581   -7.0211909    301.15648  0.025979682  0.026079383            4 
  967000   0.86270789    -7.047094    300.40458   0.02588802  0.026061908            8 
  968000   0.84907686   -7.0424127    301.30926  0.025939158  0.026044389            6 
  969000   0.87952373   -7.0208975    301.19251  0.025902349  0.026026916            6 
  970000   0.87957015   -7.0001295      300.736  0.025836426  0.026009471            7 
  971000   0.87713222    -7.029749    301.95239  0.025914211   0.02599195           10 
  972000   0.87023129   -7.0424766    301.61143  0.025858319  0.025974378            9 
  973000   0.86679944   -7.0299916    300.23242  0.025713637   0.02595667            5 
  974000   0.86899972   -7.0443556    301.70033  0.025812828  0.025938998            4 
  975000   0.84739617   -7.0288172    302.06568  0.025817579  0.025921353            7 
  976000   0.88102768   -7.0003378    302.14634  0.025798014  0.025903886            7 
  977000   0.87843697   -7.0195314      301.383  0.025706499  0.025886304           10 
  978000   0.85770969   -7.0300191    301.90236  0.025724468  0.025868639            4 
  979000   0.86804599   -7.0641423    302.47426  0.025746873  0.025850909            4 
  980000   0.86889223   -7.0103309    302.44419  0.025718044  0.025833248            6 
  981000   0.85065026    -7.008916    303.02289  0.025740986  0.025815698            6 
  982000   0.85757104   -7.0281427    303.68134   0.02577065  0.025798314            4 
  983000   0.86061168   -7.0496728    302.92328  0.025680169   0.02578095            6 
  984000   0.86113068   -7.0195459    303.40501  0.025694869  0.025763804            5 
  985000   0.86766192   -7.0018792    303.65237   0.02568971   0.02574666            6 
  986000   0.87506622   -7.0504082    304.06356  0.025698407  0.025729544            9 
  987000   0.87079054   -7.0254744    303.76084  0.025646812  0.025712383            9 
  988000   0.83242159   -7.0271889    303.89042  0.025631783  0.025695282            4 
  989000   0.86831518   -6.9826467    304.10256  0.025623741  0.025678362            3 
  990000   0.84990342   -7.0189834    304.56843  0.025637074  0.025661511            7 
  991000   0.86195023   -7.0314475    305.69587   0.02570601  0.025644569            4 
  992000   0.86036839   -7.0391105    305.11277  0.025631113  0.025627686            6 
  993000   0.85811421   -7.0493274    303.76173  0.025491921   0.02561057            8 
  994000   0.84308474   -7.0608522    304.69857  0.025544816  0.025593522            7 
  995000   0.85879735   -7.0309722    304.07534  0.025466946  0.025576458            5 
  996000   0.84960923   -7.0395026    304.34649  0.025464063  0.025559571            3 
  997000   0.85644541   -7.0524519    305.52421  0.025536962   0.02554272            5 
  998000   0.84343895   -7.0613808    305.15761  0.025480763  0.025525658            9 
  999000   0.84868932   -7.0675025    304.92735  0.025436049  0.025508553            8 
 1000000   0.85482841   -7.0504607    304.50238  0.025375198  0.025491316            4 
 1001000   0.85890618   -7.0632022    304.45186  0.025345643  0.025474173           12 
 1002000   0.84658717   -7.0497941    304.72539  0.025343096  0.025456932            3 
 1003000   0.86044872    -7.053458    304.93147  0.025334951  0.025439683            4 
 1004000   0.85308272     -7.06063     305.1529  0.025328096  0.025422596            9 
 1005000   0.85920445   -7.0382187    305.86907  0.025362277  0.025405428           16 
 1006000   0.83207098     -7.07484    306.32759  0.025375049  0.025388407            6 
 1007000   0.83478313    -7.063432    305.67844  0.025296131  0.025371266           12 
 1008000   0.84870887   -7.0438015    305.76837  0.025278469   0.02535423            7 
 1009000       0.8597   -7.0541143    305.64775  0.025243454  0.025337039            3 
 1010000   0.83432026   -7.0814843    306.37755  0.025278676  0.025319903            4 
 1011000   0.84609816   -7.0652977    306.51703  0.025265169  0.025302732            4 
 1012000   0.85496715   -7.0487265    305.72569   0.02517504  0.025285585            6 
 1013000   0.86106306   -7.0517104    306.81712  0.025239974  0.025268444            6 
 1014000   0.84979313   -7.0612959     306.6613  0.025202276  0.025251456            5 
 1015000   0.84548908    -7.065418    307.19963  0.025221645   0.02523458            5 
 1016000   0.84103921   -7.0678375    306.81642  0.025165389  0.025217869            7 
 1017000   0.85679217   -7.0373447    307.92484  0.025231469  0.025201088            7 
 1018000   0.86389247   -7.0521218     307.8817  0.025203151   0.02518431            3 
 1019000   0.84752727   -7.0401431    307.57519  0.025153352  0.025167437            4 
 1020000   0.84098414   -7.0734585    307.59375  0.025130209   0.02515058            6 
 1021000   0.85046155   -7.0561426    307.73498  0.025117122  0.025133668           11 
 1022000   0.83173825    -7.066552    308.58695  0.025162015  0.025116817            4 
 1023000   0.84789897   -7.0467048      307.841  0.025076654  0.025100142            5 
 1024000   0.82848267   -7.0480506    308.33024  0.025091979  0.025083497            6 
 1025000    0.8383504    -7.060989    308.09361  0.025048261  0.025066727            3 
 1026000   0.84303745    -7.064324     308.3035  0.025040895  0.025049922            6 
 1027000   0.85013197   -7.0880859    308.53869  0.025035597  0.025032973            5 
 1028000   0.83845347   -7.0573112    309.40091  0.025081137  0.025016157            5 
 1029000   0.84855849   -7.0708395    308.65412  0.024996284  0.024999434            3 
 1030000   0.86404926   -7.0712391    308.82703  0.024986005  0.024982518            6 
 1031000   0.81636229   -7.0660275    309.05008  0.024979799  0.024965668            3 
 1032000    0.8286821   -7.0489698    309.49307  0.024991365  0.024948966            4 
 1033000   0.85118848   -7.0607666    309.03619  0.024930316  0.024932352            3 
 1034000   0.86542764   -7.0535298    309.62787   0.02495389  0.024915617            7 
 1035000   0.82641251   -7.0714906    309.13003  0.024889696  0.024898798            4 
 1036000   0.84318658   -7.0843758    309.97283  0.024933464  0.024881934            6 
 1037000    0.8394487   -7.0856957    309.10714  0.024839854  0.024865126            3 
 1038000    0.8597362   -7.0539453    309.31832  0.024832877   0.02484821            4 
 1039000   0.82768319   -7.0713587    309.41038   0.02481636  0.024831301            6 
 1040000   0.84548844     -7.09326    309.29255  0.024783057  0.024814255            6 
 1041000   0.84268798   -7.0814379    309.63926  0.024787005  0.024797346           11 
 1042000   0.84574365    -7.088486      310.037  0.024795025  0.024780502           18 
 1043000   0.83169812   -7.0681906    309.82457   0.02475428  0.024763719            7 
 1044000   0.83849292   -7.0793063    310.06239  0.024749552  0.024746902            3 
 1045000   0.83547159   -7.0908024    309.37933  0.024671398  0.024730105            4 
 1046000    0.8444191   -7.0881945    310.39014  0.024728342  0.024713263            7 
 1047000   0.82584217   -7.0740015    310.74046  0.024732606  0.024696403            6 
 1048000   0.83980393   -7.0825378    310.43648  0.024684835  0.024679634            9 
 1049000   0.83815627   -7.0937325    311.46479  0.024742992  0.024662908            3 
 1050000   0.83241723   -7.0888908    310.38708  0.024633895  0.024646226            6 
 1051000   0.84632734   -7.0867782    311.36739  0.024688185  0.024629587            7 
 1052000   0.83956542   -7.0870081    311.00783  0.024636235  0.024612982            3 
 1053000   0.81584873   -7.1079438    311.22552  0.024630066  0.024596315            8 
 1054000   0.82567312   -7.1031879    311.78838    0.0246512  0.024579627           14 
 1055000   0.83042924   -7.0980967    311.10651  0.024573974  0.024562894            4 
 1056000   0.81682626   -7.0480754     311.5211   0.02458342  0.024546132            3 
 1057000   0.82524829   -7.0680868    311.27405  0.024540685  0.024529396           10 
 1058000   0.82649558   -7.0558215    311.73572  0.024553853  0.024512781           12 
 1059000   0.83459581   -7.0830261    310.98242   0.02447139  0.024496063            3 
 1060000   0.81118918   -7.1356329    310.95586  0.024446215  0.024479132            5 
 1061000   0.82507138    -7.088167    311.63503  0.024476518   0.02446214            6 
 1062000   0.82153011   -7.1049905    311.24562  0.024422914  0.024445189            9 
 1063000   0.83011489    -7.136155    310.56852  0.024346858  0.024428197           11 
 1064000   0.82026381   -7.1183653    311.06882  0.024363159  0.024411208           13 
 1065000   0.82358196   -7.0824794    311.13348  0.024345343  0.024394268            7 
 1066000   0.81758978   -7.0841154     311.9049   0.02438281   0.02437733            6 
 1067000   0.82993563   -7.0702418    312.46256  0.024403511  0.024360375            7 
 1068000   0.83734286   -7.1220558    311.41054  0.024298575  0.024343456           13 
 1069000   0.81960716   -7.1036926    311.30598  0.024267694  0.024326473            6 
 1070000   0.81877119   -7.1452351    311.59001  0.024267135  0.024309571            7 
 1071000   0.82176804   -7.1020281    312.46516  0.024312571  0.024292699            4 
 1072000   0.82241351   -7.1033975    312.68294  0.024306821  0.024275916            9 
 1073000   0.83106501   -7.1043307    312.46388  0.024267155  0.024259172            4 
 1074000   0.82958876   -7.0860785    312.69104  0.024262185  0.024242483           11 
 1075000   0.84114752   -7.1093864    312.61213  0.024233499  0.024225728            5 
 1076000   0.81986756   -7.1134743    313.17986  0.024254946    0.0242089            4 
 1077000    0.8215946   -7.1104391    312.55283  0.024183908  0.024192041            7 
 1078000   0.84333327   -7.0985798    313.41677   0.02422826  0.024175254            5 
 1079000   0.82784551   -7.1440596    313.49306  0.024211697  0.024158468            6 
 1080000   0.82220483   -7.1299389    312.78643  0.024134755  0.024141728            8 
 1081000   0.82899886   -7.1135342    313.48553  0.024166322  0.024125075            8 
 1082000   0.81752329   -7.0979624    313.96702  0.024181071  0.024108481            9 
 1083000   0.80043695   -7.0981891    313.76915  0.024143517  0.024091686            7 
 1084000   0.83086064   -7.1191441    313.05749  0.024066535  0.024074857           11 
 1085000   0.82064547   -7.1405897    312.88274  0.024030932  0.024057923            9 
 1086000   0.82109137   -7.1382119    313.96893  0.024092152  0.024041075            5 
 1087000   0.80752802   -7.1559242    313.00147  0.023995819   0.02402435            5 
 1088000   0.81613059   -7.1222253    313.99874  0.024050148  0.024007631            5 
 1089000   0.82707161    -7.124064    313.01656  0.023952905  0.023990846            7 
 1090000   0.83560061    -7.125412    313.77346  0.023988797  0.023974075            6 
 1091000   0.83473244   -7.1279138    314.20391  0.023999687  0.023957429            4 
 1092000   0.81774619   -7.0992369    314.31835  0.023986443   0.02394074            4 
 1093000   0.82672215   -7.1457841    314.08338  0.023946583  0.023923936           10 
 1094000   0.81618344   -7.1693108     313.5557  0.023884499  0.023907108            8 
 1095000   0.80836741    -7.156668    313.72824  0.023875817  0.023890201            8 
 1096000   0.81399234    -7.116414    313.42603  0.023831055  0.023873412            7 
 1097000   0.81582669   -7.1497096    314.69781  0.023905941  0.023856684           13 
 1098000   0.81938964   -7.1243164    314.60157  0.023876865  0.023839956            9 
 1099000   0.80991507   -7.1072901    314.64312  0.023858289  0.023823282            5 
 1100000   0.80085699    -7.120302    314.87742   0.02385435  0.023806568            7 
 1101000   0.81538296   -7.1104059     315.0181  0.023843332  0.023789977            4 
 1102000   0.79458887    -7.144573    314.73848  0.023800551  0.023773484            2 
 1103000   0.81534322   -7.1263807    314.93235   0.02379362  0.023756839            3 
 1104000    0.8140585   -7.1566398    314.79158  0.023761442    0.0237401            9 
 1105000   0.82604182   -7.1442038    315.56085  0.023797952  0.023723361           11 
 1106000   0.80208626   -7.1747148    314.80217  0.023719272  0.023706696            3 
 1107000   0.82434881   -7.1355541    315.52851  0.023752522  0.023690162           10 
 1108000   0.83441078   -7.1036721    316.56341  0.023808921  0.023673667           10 
 1109000   0.79825304   -7.1199085    316.08837  0.023751756  0.023657283            6 
 1110000   0.81099533   -7.1212603    315.55889  0.023690607  0.023640856           10 
 1111000   0.82810726   -7.1111895    315.82828   0.02368949  0.023624407           12 
 1112000   0.80858228    -7.095452    316.83353   0.02374352  0.023608093           16 
 1113000   0.78550987   -7.1402148    316.04591  0.023663215   0.02359164            5 
 1114000   0.80745715   -7.1463044    316.00757  0.023639106  0.023575186            7 
 1115000   0.80306844   -7.1630356     316.1663  0.023629768  0.023558775            5 
 1116000   0.78952238   -7.1450607    316.02482   0.02359803  0.023542341            9 
 1117000   0.79944021   -7.1425908     315.7773  0.023558438  0.023525856            8 
 1118000   0.80267013   -7.1321354    316.85137  0.023617425  0.023509368           10 
 1119000   0.80977224   -7.1348813    315.63446  0.023505694  0.023492912            6 
 1120000    0.7997407    -7.156945    317.23809  0.023604025  0.023476413            7 
 1121000   0.80503424   -7.1625797    315.68416  0.023467452   0.02345989            9 
 1122000   0.79231983   -7.1692636    316.75085  0.023525761  0.023443347            6 
 1123000   0.79840014   -7.1713664    316.64959  0.023497298   0.02342685            7 
 1124000   0.81572915   -7.1165315    316.76897  0.023485244   0.02341038           12 
 1125000   0.81312072   -7.1281847    318.03009  0.023557785  0.023393888            5 
 1126000   0.78948853   -7.1301137    317.39628  0.023489955  0.023377408            4 
 1127000   0.80176697   -7.1724189    316.22595  0.023382576  0.023360944           26 
 1128000   0.80566572   -7.1499445    317.09564  0.023426096   0.02334452            3 
 1129000   0.79649092   -7.1850562    317.04065  0.023401288  0.023328051           13 
 1130000   0.81028118   -7.1659065    317.54738  0.023417948  0.023311616            8 
 1131000   0.81244453    -7.165859    316.82896  0.023344309  0.023295237            7 
 1132000   0.78067817    -7.179144    317.79239  0.023394611  0.023278898            6 
 1133000   0.79529317   -7.1693223    317.87986  0.023380396  0.023262514           10 
 1134000   0.79325447   -7.1434804    317.69255  0.023346013  0.023246177            6 
 1135000   0.79667145   -7.1587268    317.69369  0.023325528  0.023229827            7 
 1136000   0.79918572   -7.1794468    317.86141  0.023317299  0.023213537            6 
 1137000   0.81166625   -7.1620416    318.07136  0.023312178  0.023197218            8 
 1138000   0.80916062   -7.1245511    318.03052  0.023288702  0.023180919            6 
 1139000   0.81654894   -7.1854292    317.82336  0.023253099  0.023164597           10 
 1140000    0.8022027   -7.1699192    318.23573  0.023262846  0.023148281            9 
 1141000   0.79699588   -7.1438771    318.45119  0.023258194  0.023132054            4 
 1142000   0.79870007   -7.1638107    318.17324  0.023217545  0.023115746           16 
 1143000   0.79221237   -7.1518295    318.79733  0.023242734  0.023099441            8 
 1144000   0.80998994    -7.148778    318.34071  0.023189154  0.023083103            7 
 1145000    0.8002713   -7.1375231     318.6259  0.023189658  0.023066716            3 
 1146000   0.78517555    -7.187818    318.59445  0.023167135  0.023050304            9 
 1147000   0.77408518   -7.1618986    318.34485  0.023128803   0.02303387            4 
 1148000    0.8008689   -7.1579928    318.40468  0.023112999  0.023017416            3 
 1149000   0.81437316   -7.1674474    318.43927  0.023095392  0.023001078           13 
 1150000   0.79149792    -7.150933    317.94983  0.023039842  0.022984684            7 
 1151000   0.80360679   -7.1562273    318.22143  0.023039489  0.022968351           11 
 1152000   0.80687955   -7.1482823    317.92549  0.022998082   0.02295195           19 
 1153000   0.79652001   -7.1453283    318.93418  0.023051039  0.022935532            9 
 1154000   0.78492992   -7.1753431    318.39286  0.022991974  0.022919088            9 
 1155000    0.7957338   -7.1928651    318.10668   0.02295142  0.022902613            6 
 1156000   0.78126542   -7.1558593    318.90505  0.022989118  0.022886334           11 
 1157000   0.79698247     -7.17848    318.36903  0.022930642  0.022869951            7 
 1158000    0.8006475   -7.1579501    318.59843  0.022927348  0.022853421           12 
 1159000   0.79028329   -7.1831498    318.08329  0.022870527  0.022836962            8 
 1160000   0.80189095   -7.1911534    318.63927  0.022890752  0.022820443            8 
 1161000   0.77786688    -7.169748    319.00142   0.02289703  0.022803964           15 
 1162000    0.8023239   -7.2149015     318.2074  0.022820382  0.022787406           11 
 1163000   0.79783643   -7.2165359    318.54921  0.022825252  0.022770764            5 
 1164000   0.77159557   -7.1909089    318.89469  0.022830376  0.022754151            5 
 1165000   0.78937748   -7.1889692    319.00872  0.022818936  0.022737647            7 
 1166000   0.78656706   -7.2158222    318.84504  0.022787667  0.022720964            6 
 1167000   0.78533773   -7.2218893     318.2565  0.022726114  0.022704359           13 
 1168000   0.79173011   -7.2089499    317.97598  0.022686643  0.022687684            3 
 1169000   0.80336542   -7.2005946    318.77201  0.022723981   0.02267108            5 
 1170000   0.77946251   -7.1931084    319.30372   0.02274243  0.022654518            8 
 1171000   0.77074689   -7.1987051    319.37182  0.022727855  0.022637929            9 
 1172000   0.79035581   -7.1843479    319.17649  0.022694574  0.022621471            6 
 1173000   0.80039089    -7.167568     320.0165  0.022734904  0.022604987            5 
 1174000   0.80684996   -7.1989805    319.54685  0.022682201  0.022588572            7 
 1175000   0.79638761   -7.1947132    320.24495  0.022712408  0.022572291            8 
 1176000   0.77777894   -7.2190314    319.80001  0.022661565  0.022555966           10 
 1177000   0.80274774   -7.1934285     320.0648  0.022661059  0.022539777            5 
 1178000   0.77230886   -7.1890849    320.24455  0.022654538   0.02252356            6 
 1179000   0.79611804   -7.1713054    320.33428  0.022641665  0.022507369            5 
 1180000   0.80089605    -7.182576    320.34138  0.022622979  0.022491141            6 
 1181000   0.77165844   -7.1938099    320.46219  0.022612348  0.022474906            7 
 1182000   0.78519484   -7.1948421    320.77157  0.022615029  0.022458676            8 
 1183000   0.78621051   -7.2280074    320.28703   0.02256178  0.022442409            6 
 1184000   0.77711039   -7.2065038    320.69454  0.022571406  0.022426163            8 
 1185000   0.76273701   -7.2164811    320.42044  0.022533083  0.022410031           11 
 1186000    0.7687112   -7.1844886    321.04766  0.022558155  0.022393811            7 
 1187000   0.77624533   -7.1790465    321.26177  0.022554182  0.022377612            6 
 1188000   0.77515098   -7.1912006    321.37414   0.02254308   0.02236159            5 
 1189000   0.81915786   -7.2287236    321.70447  0.022547271  0.022345501            7 
 1190000   0.75974562   -7.1985918    320.21568  0.022424068  0.022329373            6 
 1191000       0.7845   -7.2028138    320.55059  0.022428672  0.022313122            3 
 1192000   0.79190534   -7.1805131    321.22258  0.022456836  0.022296996            7 
 1193000   0.77804402   -7.1916879    320.97557  0.022420758  0.022280953            7 
 1194000   0.76303655   -7.2107143    321.54151  0.022441479  0.022264877            5 
 1195000   0.76875369   -7.1957003    319.98345  0.022314048  0.022248778            9 
 1196000   0.76312481   -7.1874623    321.55903  0.022405172  0.022232703            4 
 1197000   0.75971052   -7.2207604    321.34728  0.022371713  0.022216638            7 
 1198000   0.77228763   -7.2000071    321.39237  0.022356175  0.022200524            6 
 1199000   0.76083433   -7.2127251    321.41117  0.022338836  0.022184386            5 
 1200000   0.78329641   -7.2242193     321.6071  0.022333827  0.022168269            7 
 1201000   0.77990909   -7.2074411    320.91333  0.022267092  0.022152221           23 
 1202000   0.79935095   -7.2095646    321.83372  0.022312377  0.022136178           13 
 1203000   0.78992147   -7.2585976    321.49717  0.022270516  0.022120028           10 
 1204000   0.75664807   -7.2325352    322.06671  0.022291439  0.022103873            4 
 1205000   0.77850992   -7.2224934    321.51352  0.022234683  0.022087686            9 
 1206000   0.75780379   -7.2309715    321.29514  0.022201157  0.022071496            7 
 1207000   0.77545095   -7.2343203     321.5245  0.022198598  0.022055354           10 
 1208000   0.77693747   -7.2174766    321.87528   0.02220442  0.022039195           11 
 1209000    0.7658198   -7.2386462    321.81668  0.022182015  0.022023004           11 
 1210000   0.77946708   -7.2244236    321.87461  0.022167673  0.022006847           12 
 1211000   0.78299266   -7.2199364    322.03059  0.022160101  0.021990775            9 
 1212000   0.77108233   -7.2172191     321.9651  0.022137314  0.021974689           11 
 1213000   0.75271802   -7.2272102    321.58964   0.02209327  0.021958584            5 
 1214000   0.75390164   -7.2163488    321.85793  0.022093488  0.021942578            6 
 1215000   0.76020663   -7.2340212     322.1719  0.022096838  0.021926598            4 
 1216000   0.78533162    -7.222618    322.82247   0.02212325  0.021910652           14 
 1217000   0.76780182   -7.2317067    322.66736  0.022094451  0.021894775            3 
 1218000   0.76902202   -7.2413031    322.70712  0.022079031  0.021878851            8 
 1219000   0.77897665   -7.2327901    322.88566  0.022073124  0.021862948            4 
 1220000   0.77432338   -7.2446855    322.96638  0.022060545  0.021847081            3 
 1221000    0.7642676   -7.2259121    321.85164  0.021966396  0.021831166            7 
 1222000   0.76757259   -7.2322861    322.63575  0.022001892  0.021815172            7 
 1223000    0.7620305   -7.2626355    323.29266  0.022028663  0.021799222            7 
 1224000   0.75290263   -7.2290725    322.98504  0.021989722  0.021783296            9 
 1225000   0.76068121   -7.2152169    323.04288  0.021975706  0.021767386           12 
 1226000   0.76905122   -7.2183621    323.03884  0.021957507  0.021751607           14 
 1227000    0.7624492   -7.2302245    322.87853  0.021928724   0.02173578           12 
 1228000   0.76179592   -7.2521472    324.11619  0.021994855  0.021720041           10 
 1229000   0.75286498   -7.2199197    322.65026   0.02187756  0.021704236           11 
 1230000   0.75817951   -7.2529226    323.72337  0.021932477  0.021688416            9 
 1231000   0.74699075   -7.2498318    323.21903  0.021880519  0.021672613           15 
 1232000   0.75338577    -7.279084     323.4214  0.021876448  0.021656768           10 
 1233000   0.76938084   -7.2440527    323.19699  0.021843538  0.021640881            8 
 1234000   0.76563492   -7.2256905    323.44463   0.02184256  0.021625126           10 
 1235000   0.76841465   -7.2244573    323.88817  0.021854802  0.021609361            8 
 1236000   0.75286094   -7.2355265    323.64002   0.02182039  0.021593646            3 
 1237000   0.75557981    -7.281005    322.88045   0.02175158  0.021577874            9 
 1238000   0.73665634   -7.2419015    323.53531   0.02177809  0.021562148            9 
 1239000   0.76509411   -7.2329408    323.64467  0.021767868  0.021546342            9 
 1240000   0.76379567   -7.2850055    322.55619  0.021677163  0.021530616           13 
 1241000   0.77461389     -7.24682     322.9096  0.021683427  0.021514775            5 
 1242000   0.75281542     -7.22766    323.21601  0.021686528  0.021498978            5 
 1243000   0.74542215   -7.2590026    323.64893  0.021698105  0.021483186            5 
 1244000   0.77383329    -7.244279    324.03879  0.021706779  0.021467408           12 
 1245000   0.75087899   -7.2389614    323.67485  0.021664983  0.021451724            7 
 1246000   0.75890062   -7.2351559    324.39229  0.021695578  0.021435962           11 
 1247000   0.75581839   -7.2634166    324.06911  0.021656583  0.021420278           10 
 1248000   0.77054972   -7.2521155    323.26695  0.021585667  0.021404522            8 
 1249000   0.73373409   -7.2675913    323.81235  0.021604774  0.021388784           14 
 1250000   0.76405135   -7.2615962    324.02676  0.021601784  0.021373091            6 
 1251000   0.77964343   -7.2414291    324.61187  0.021623492  0.021357463            4 
 1252000   0.75957648   -7.2576475    324.39788  0.021591978  0.021341829            8 
 1253000   0.73449127   -7.2625701     324.5723  0.021586346  0.021326193            6 
 1254000   0.73492564    -7.279508    323.89571   0.02152417  0.021310522            7 
 1255000   0.75736313   -7.2649075    324.21087  0.021527946  0.021294875            8 
 1256000   0.75693152   -7.2692739    323.99617  0.021496561   0.02127926            7 
 1257000   0.74258572   -7.2680254    324.08416  0.021485293   0.02126359            4 
 1258000   0.75126415   -7.2514484    324.34852  0.021485726  0.021247949            7 
 1259000   0.75838487   -7.2551824    323.91181  0.021439755   0.02123233            7 
 1260000   0.74428056   -7.2532461    324.28506  0.021447425  0.021216684           13 
 1261000   0.75381252   -7.2705888    324.50332   0.02144484   0.02120097            6 
 1262000   0.75192991   -7.2661778    323.74334  0.021377664  0.021185321            6 
 1263000   0.75572765   -7.2569253    324.49732  0.021410485  0.021169608            6 
 1264000   0.74597274   -7.2948648    324.52352  0.021395274  0.021153932           25 
 1265000   0.75350503   -7.2502334     324.7035  0.021390217  0.021138279           11 
 1266000   0.73935992    -7.278567    324.23213  0.021342294  0.021122599           12 
 1267000   0.74758463   -7.2540947      324.184  0.021322284   0.02110694           14 
 1268000   0.75901974   -7.2994101    324.56779  0.021330691  0.021091282            6 
 1269000   0.73153234   -7.2962571    324.49818   0.02130931  0.021075574            6 
 1270000   0.74316188   -7.2848197    324.42092  0.021287462  0.021059916            9 
 1271000   0.74941395    -7.275814    324.20787  0.021256745  0.021044218            8 
 1272000   0.74705151   -7.2929979    324.33418  0.021248309  0.021028452            9 
 1273000   0.74493785   -7.3170555    324.52526  0.021244125  0.021012716            5 
 1274000    0.7466295   -7.2812139    325.39772  0.021284519  0.020996992            8 
 1275000   0.74262215   -7.2864894    324.53989  0.021211757   0.02098131            8 
 1276000   0.75227644   -7.2888409     325.6107  0.021265067  0.020965677           23 
 1277000   0.74172381   -7.2799544    325.37476  0.021233018  0.020950134           10 
 1278000   0.73703514   -7.2636755    324.82167  0.021180338   0.02093456           12 
 1279000   0.75149581   -7.2740516    325.40065  0.021201502  0.020919002            9 
 1280000   0.74115703    -7.298466    324.76688  0.021143677  0.020903497            5 
 1281000   0.72939895   -7.2958406    325.14949  0.021152062  0.020887951            5 
 1282000   0.72942263   -7.2656161    325.72054  0.021172682  0.020872424            7 
 1283000   0.74752249   -7.2843545    325.10652  0.021116298  0.020856886           12 
 1284000   0.73865042    -7.287804    324.91289  0.021087285  0.020841361            7 
 1285000    0.7516233   -7.2923123    325.01101  0.021077238  0.020825784            9 
 1286000   0.73225729   -7.3091002    324.97674  0.021058627    0.0208102            6 
 1287000    0.7463906   -7.2877768    324.72794  0.021026155  0.020794587            5 
 1288000   0.72942063   -7.2913571    325.55715   0.02106348  0.020779041            4 
 1289000   0.74586251   -7.2635596    325.34538  0.021033448  0.020763509            8 
 1290000   0.71902323    -7.284505     325.3958    0.0210204  0.020747928            6 
 1291000    0.7423324   -7.3149267    325.01462  0.020979513  0.020732342           11 
 1292000   0.73257362   -7.2987175    325.34324  0.020984471   0.02071674           20 
 1293000   0.73358256   -7.2919143    325.70626  0.020991638  0.020701225            5 
 1294000   0.73142273   -7.3030855    325.49703  0.020961941  0.020685732           10 
 1295000   0.74429136   -7.2747694    325.52135   0.02094732  0.020670297            4 
 1296000   0.73397776   -7.3162445    325.28866  0.020916194  0.020654827            9 
 1297000   0.73340028   -7.2976075    326.12278  0.020953661  0.020639349            4 
 1298000   0.73016741   -7.3128322    326.72754  0.020976344  0.020623915           16 
 1299000   0.72773523   -7.3015278    325.59285  0.020887404   0.02060846            7 
 1300000   0.73083623   -7.2834026    325.89682  0.020890822  0.020592926           10 
 1301000   0.74083772   -7.3166735    325.78574   0.02086765  0.020577413            8 
 1302000   0.74969901   -7.3063763    325.32662  0.020822236  0.020561921           13 
 1303000   0.73703863   -7.3027612    325.34578  0.020807482  0.020546338            9 
 1304000   0.73743234   -7.3230318    325.54339  0.020804153   0.02053085           11 
 1305000   0.73353291   -7.3095256    325.77804  0.020803196  0.020515344            8 
 1306000   0.72749023   -7.3340595    325.56418   0.02077362  0.020499903           13 
 1307000   0.74789372   -7.2943726    326.10761  0.020792375   0.02048442            8 
 1308000    0.7205537   -7.3180228    326.18683  0.020781526   0.02046895            5 
 1309000   0.73613632   -7.3158444    326.08124  0.020758928  0.020453528            8 
 1310000   0.72919794   -7.3165676     325.8645  0.020729294  0.020438112            5 
 1311000   0.72394406   -7.3105631    325.57763  0.020695247  0.020422665            8 
 1312000   0.73236722   -7.3421711    325.61373  0.020681766  0.020407254           13 
 1313000   0.72778391    -7.346514    325.65378  0.020668557  0.020391774           15 
 1314000   0.72546421   -7.3014389    325.49931  0.020643031  0.020376286           11 
 1315000   0.73092554   -7.3462222    325.73307  0.020642147  0.020360839           13 
 1316000   0.71641707    -7.316586    326.22498   0.02065761  0.020345485            9 
 1317000   0.73608539   -7.3234755    326.20453  0.020640631  0.020330155            9 
 1318000   0.72397456   -7.3212903    325.47516  0.020578854  0.020314845            5 
 1319000   0.72025246   -7.3188523    325.92488  0.020591665  0.020299559           14 
 1320000   0.72560463   -7.3215323    326.44278  0.020608761  0.020284277            9 
 1321000   0.71366478   -7.3082922    325.90012  0.020558928  0.020269015           10 
 1322000   0.73958174   -7.3396206    327.51081  0.020644907  0.020253839            8 
 1323000   0.73804575   -7.3206831    326.21958  0.020547971  0.020238721            5 
 1324000   0.72626947   -7.3106593    327.17291  0.020592454  0.020223589           16 
 1325000   0.73248779   -7.3308298     326.6793  0.020545868  0.020208425            6 
 1326000    0.7318844    -7.337779    326.90796  0.020544744  0.020193274           16 
 1327000   0.72390483    -7.339836    326.91307  0.020529582  0.020178135           18 
 1328000   0.72088236    -7.323573    327.35733  0.020542001   0.02016305           13 
 1329000   0.73129617   -7.3196307    327.26205   0.02052057  0.020148037           10 
 1330000   0.73502274   -7.3310352    326.76938  0.020474272  0.020132998            9 
 1331000   0.73050434   -7.3203933    327.43675  0.020500673  0.020117943           10 
 1332000   0.71503687   -7.3060171     327.4688  0.020487287  0.020102947           10 
 1333000   0.71589089   -7.3293075    327.59784  0.020479985  0.020087955            9 
 1334000   0.70558915   -7.3064457    327.55149  0.020461737  0.020073037           10 
 1335000   0.70239088   -7.3421353    327.15465  0.020421639  0.020058069           11 
 1336000   0.72963835   -7.3435415    327.63986  0.020436618  0.020043049            8 
 1337000   0.70916614   -7.3501096     327.6094  0.020419434  0.020028047            7 
 1338000    0.7172689   -7.3281347    327.45583  0.020394608  0.020013081            5 
 1339000   0.73320035    -7.356987    327.22805  0.020365201  0.019998064           10 
 1340000   0.70890545    -7.344402    327.34134  0.020357048  0.019983066            4 
 1341000   0.71270686   -7.3232851    328.64292  0.020422752  0.019968083           22 
 1342000   0.69884762   -7.3330721    327.46099   0.02033414  0.019953058            6 
 1343000   0.71355619   -7.3315101    326.80057   0.02027802  0.019938018           19 
 1344000   0.72591756   -7.3456212    327.19478  0.020287375  0.019923018           21 
 1345000   0.72295445   -7.3320798    326.97297  0.020258548  0.019907956           12 
 1346000   0.72278869   -7.3409346    326.73293  0.020228636  0.019892882            8 
 1347000   0.72532103   -7.3676273     327.1082  0.020236835  0.019877784            6 
 1348000   0.70784299   -7.3516557     327.6352  0.020254401  0.019862736            8 
 1349000   0.71669582    -7.330749    327.08271  0.020205258  0.019847701            4 
 1350000   0.70568651   -7.3414039    326.65217  0.020163714   0.01983261            6 
 1351000   0.71120448   -7.3534665    327.23975  0.020185033  0.019817505           13 
 1352000   0.70402571   -7.3280818    326.50415  0.020124763  0.019802371           14 
 1353000   0.71720071   -7.3614948    327.13052  0.020148467  0.019787257           13 
 1354000    0.7233021   -7.3841551    326.67612   0.02010562  0.019772167           14 
 1355000   0.69250416   -7.3786395    327.73088  0.020155651  0.019757088           21 
 1356000   0.70829406   -7.3498453    326.98696  0.020095069  0.019742033            9 
 1357000   0.71854535   -7.3297897    327.12908  0.020088988  0.019727042            9 
 1358000   0.70744696   -7.3863462    327.30057  0.020084718  0.019712037           13 
 1359000   0.71625071   -7.3510226    327.35546  0.020073305  0.019697021           15 
 1360000   0.73062765   -7.3581773    327.13127  0.020044808  0.019682079           22 
 1361000   0.71853685   -7.3723136    326.90211  0.020016049  0.019667107           16 
 1362000    0.7118944    -7.366024    327.05038  0.020010425  0.019652099           29 
 1363000   0.71133615    -7.324502     327.1785  0.020003577  0.019637225           15 
 1364000   0.70729576   -7.3590931    327.57719  0.020013269   0.01962235            7 
 1365000   0.68898609   -7.3325964    327.58243  0.019998927  0.019607484           11 
 1366000   0.69872274   -7.3176207    327.78911  0.019996896  0.019592613           10 
 1367000   0.70433783   -7.3842305    327.66471  0.019974683  0.019577736           11 
 1368000   0.71517683   -7.3632521    328.53371  0.020013019   0.01956287            9 
 1369000   0.70753574   -7.3553497    327.40467  0.019929673  0.019548036           12 
 1370000   0.70675787   -7.3676213     327.3822  0.019913759  0.019533207           14 
 1371000   0.69877221   -7.3546667    327.78761  0.019923876  0.019518384            6 
 1372000   0.70836147   -7.3654048    328.07811  0.019926999  0.019503619           11 
 1373000     0.721292   -7.3616785    328.08896  0.019913144   0.01948884            4 
 1374000   0.71068667   -7.3756562    328.36479   0.01991538  0.019474064            5 
 1375000    0.7008413   -7.3801633    327.98979  0.019878169  0.019459247            6 
 1376000   0.69573232   -7.3655081    328.29629  0.019882285  0.019444483           14 
 1377000   0.70770097   -7.3834323    327.87854  0.019842565  0.019429727            9 
 1378000   0.70940172   -7.3655686     328.5689  0.019869914  0.019414979            7 
 1379000   0.70165487   -7.3679339    328.31475  0.019840147  0.019400248            9 
 1380000   0.71629316   -7.3669001      328.545  0.019839674   0.01938552            6 
 1381000   0.70254342   -7.3667738    328.81199  0.019841419  0.019370852           10 
 1382000   0.70369083   -7.3376939    328.63082  0.019816137  0.019356221           13 
 1383000   0.70912515   -7.3839811    328.41585  0.019788856  0.019341618           13 
 1384000     0.689788   -7.3819038    327.85819   0.01974098  0.019326977           11 
 1385000   0.69779883   -7.3567475    328.14017  0.019743692  0.019312287           12 
 1386000   0.70415905   -7.3729581    328.19848  0.019732953  0.019297616           18 
 1387000    0.6945077   -7.3975121    328.02659  0.019708399  0.019282879           15 
 1388000   0.71172309   -7.3981126    328.15449  0.019701878  0.019268154            7 
 1389000   0.69005093   -7.3583648    328.16658  0.019688419  0.019253492           18 
 1390000   0.70864837   -7.3793686    328.37985  0.019687041  0.019238841            7 
 1391000   0.70859022   -7.3809537    328.27577  0.019666653  0.019224208            7 
 1392000   0.70531907     -7.35986    328.64532  0.019674648   0.01920952            4 
 1393000   0.67544648   -7.3617697    328.45181  0.019648948  0.019194863            4 
 1394000    0.6836673    -7.382115    328.56375  0.019641544  0.019180193            8 
 1395000    0.7136784   -7.3744138    327.66587  0.019573827  0.019165568           10 
 1396000   0.69390947   -7.3668779    328.05443  0.019583001  0.019150902            6 
 1397000   0.69208215   -7.3742692    328.56227  0.019599276  0.019136267            6 
 1398000    0.6876704   -7.3648549    328.20071  0.019563705  0.019121613            5 
 1399000   0.69602175   -7.3839091    328.80914  0.019585963  0.019106953            7 
 1400000   0.69806336   -7.3749079    327.91277  0.019518617  0.019092315           11 
 1401000   0.69192976   -7.3838207     328.1642  0.019519641  0.019077679           11 
 1402000   0.70714178   -7.3943666     328.2975  0.019513641  0.019063023            8 
 1403000   0.70255477   -7.3744166    328.37061  0.019504075  0.019048434           10 
 1404000   0.68368462   -7.4074936     328.5051  0.019498166  0.019033799            8 
 1405000   0.70052357    -7.403958    328.65616  0.019493248  0.019019195           18 
 1406000   0.68748898   -7.3772104    328.92504   0.01949532  0.019004584           16 
 1407000   0.68647286   -7.3967477    329.10336  0.019492026  0.018990026           14 
 1408000   0.68737081   -7.3823138     328.4101  0.019437151  0.018975508           28 
 1409000   0.68686483   -7.4085905      327.459  0.019367104  0.018960919           12 
 1410000   0.69010761   -7.4136864    328.45265  0.019412095  0.018946331           12 
 1411000   0.69209602   -7.4093736    328.97357  0.019429103  0.018931734            6 
 1412000   0.68054683    -7.418498    328.12572  0.019365305  0.018917152            7 
 1413000   0.70588989   -7.4012811    329.24526  0.019417625  0.018902586           17 
 1414000   0.69613409   -7.3745778     329.0083  0.019389928  0.018888067           12 
 1415000   0.68606772   -7.4039107    328.22922  0.019330343  0.018873531           14 
 1416000     0.682289   -7.4028787    328.79334   0.01934989  0.018858945           14 
 1417000   0.68838091   -7.4069768    328.24821  0.019304176  0.018844364           13 
 1418000   0.67351703   -7.4017929    327.65196  0.019255522   0.01882976           18 
 1419000   0.69472724   -7.4295965     327.8915  0.019256019  0.018815151           16 
 1420000   0.69055465   -7.4062713    327.86075  0.019240654  0.018800611           12 
 1421000   0.67831499   -7.4033865    327.73227   0.01921958  0.018786056           13 
 1422000   0.69479314   -7.4140558    327.48181  0.019191386  0.018771537           25 
 1423000   0.68689484   -7.4131355    327.95711  0.019205734  0.018757008           25 
 1424000   0.69110743   -7.4147739    328.37486  0.019216693  0.018742461           31 
 1425000   0.68758949   -7.3772375    329.00538  0.019240081  0.018727972           36 
 1426000   0.68518049    -7.419896     328.4104  0.019191819  0.018713464           22 
 1427000   0.67608561   -7.4153436    328.44121  0.019180169  0.018698966           16 
 1428000   0.69109474   -7.4272981      328.166  0.019150677  0.018684479           16 
 1429000   0.68027365    -7.421479    328.67583  0.019167007  0.018669966           24 
 1430000    0.6913363   -7.4103161    328.68825  0.019154327  0.018655493           10 
 1431000   0.68988545   -7.4130736    328.70938  0.019142172  0.018641027           12 
 1432000   0.69040504   -7.4199776    328.41514  0.019111682  0.018626577            7 
 1433000   0.68646465   -7.4367072    327.69789  0.019056634  0.018612052            9 
 1434000   0.69872642   -7.3982699    328.42025  0.019085324  0.018597589           12 
 1435000   0.67565943   -7.4105384    328.29143  0.019064543  0.018583118            9 
 1436000    0.6905073   -7.4048758    328.89086  0.019086053  0.018568708            9 
 1437000   0.68052509    -7.420314    328.34518  0.019041126  0.018554248           13 
 1438000   0.67237262   -7.4363867    328.24325  0.019021978  0.018539784            7 
 1439000   0.67884194   -7.4221656    328.36955  0.019016073   0.01852535            9 
 1440000   0.67723034    -7.412849    328.58795  0.019015506  0.018510973           11 
 1441000   0.67084414   -7.4319802    328.34559  0.018988295  0.018496556           11 
 1442000   0.68143971    -7.454551    328.03728  0.018957309  0.018482138           14 
 1443000   0.66298855   -7.4278871    328.72875  0.018984104   0.01846779            9 
 1444000   0.67334838   -7.4264463    328.95987  0.018984295  0.018453512           20 
 1445000   0.65901325   -7.4239848    329.05793  0.018976813    0.0184392           11 
 1446000   0.68126072    -7.429747    328.81101  0.018949459  0.018424893           13 
 1447000   0.67676784   -7.4420004    329.15976  0.018956448  0.018410627           17 
 1448000   0.67930936   -7.4444914    328.71197  0.018917586  0.018396338           12 
 1449000   0.68871636   -7.4397963    328.59884  0.018898024  0.018382073           14 
 1450000   0.67657457   -7.4526438    328.48272  0.018878317  0.018367838           21 
 1451000   0.66087464   -7.4616191    328.91766  0.018890286  0.018353587           11 
 1452000   0.67137796    -7.459795    329.05882  0.018885378  0.018339331           28 
 1453000   0.65921898   -7.4296998    328.52776  0.018841923  0.018325144           15 
 1454000     0.681364   -7.4390336    328.55853  0.018830727  0.018310938           22 
 1455000   0.67027863   -7.4410403    328.37016  0.018806997  0.018296764            6 
 1456000   0.66841131   -7.4298135     329.0642  0.018833803  0.018282572           18 
 1457000   0.67480541   -7.4279849    329.42234   0.01884136  0.018268402           11 
 1458000   0.67035523   -7.4314359    330.06052  0.018864913  0.018254235           14 
 1459000   0.66487333   -7.4290471    328.56516  0.018766573  0.018240118           10 
 1460000   0.66977184   -7.4274915    328.97332  0.018777016  0.018225974           11 
 1461000   0.66325677   -7.4220761    329.45143  0.018791434  0.018211852           13 
 1462000   0.67424315   -7.4426752    329.11645  0.018759488  0.018197707           23 
 1463000   0.66249477   -7.4100135    329.20833  0.018751898  0.018183606           11 
 1464000   0.66849838   -7.4240238    329.64529  0.018763962  0.018169521            8 
 1465000   0.65934154   -7.4295637    328.70254  0.018697528  0.018155419           35 
 1466000   0.65985545   -7.4283833    328.72627  0.018686123  0.018141329            9 
 1467000   0.66742878   -7.4415298    328.87109  0.018681612   0.01812727           14 
 1468000   0.66627473    -7.439946    329.00639  0.018676566   0.01811323           11 
 1469000   0.65775891   -7.4177206    329.55674  0.018695073  0.018099178           10 
 1470000    0.6685397    -7.414479      329.226  0.018663605  0.018085182           10 
 1471000   0.66554581   -7.4302163    329.62004  0.018673241  0.018071237           11 
 1472000   0.67818412   -7.4423412    328.96325  0.018623373  0.018057274           10 
 1473000   0.67362617   -7.4382688    329.50807  0.018641552  0.018043309           12 
 1474000   0.66120339   -7.4489432    329.29575  0.018616901  0.018029394           16 
 1475000   0.66577535   -7.4404154    329.16894  0.018597115  0.018015474            8 
 1476000   0.66944391   -7.4494666    329.58569  0.018608045  0.018001498           11 
 1477000   0.65960708   -7.4569505    329.22223   0.01857494  0.017987563           13 
 1478000   0.66674889   -7.4383046    329.44097  0.018574705  0.017973644            9 
 1479000   0.65982052   -7.4560787    329.17932  0.018547404  0.017959742           21 
 1480000   0.66282707   -7.4494545    329.85568  0.018572955  0.017945829           17 
 1481000   0.66664762   -7.4402021    329.73659  0.018553713  0.017931913            7 
 1482000   0.67461538   -7.4557206    329.72279  0.018540418  0.017918013           13 
 1483000   0.64730784   -7.4414247    329.54107  0.018517705   0.01790415           15 
 1484000   0.66411325   -7.4576471    329.47734  0.018501648   0.01789026           13 
 1485000   0.64683772   -7.4745926    329.41424  0.018485647  0.017876365           17 
 1486000   0.66765183   -7.4473444    328.85526   0.01844186  0.017862483            5 
 1487000   0.65337463   -7.4716336    329.23234  0.018450591  0.017848608            6 
 1488000   0.65011149   -7.4445422    329.46856   0.01845142  0.017834759           10 
 1489000    0.6475246      -7.4829    328.91793  0.018408212  0.017820898           19 
 1490000   0.64688418   -7.4878784    329.11584  0.018406926  0.017807033            8 
 1491000   0.66415952   -7.4669718    328.82332  0.018378232  0.017793211           12 
 1492000   0.65630423   -7.4856142    329.75343  0.018417864   0.01777942           12 
 1493000   0.64850001   -7.4578733    329.12145  0.018370253  0.017765612           15 
 1494000   0.66541139   -7.4764725     329.5228  0.018380344  0.017751849           18 
 1495000   0.66100133   -7.4859243    329.23199  0.018351839  0.017738069           15 
 1496000   0.65467566   -7.4831812     329.5628  0.018357999  0.017724274           28 
 1497000   0.64499668   -7.4783469    329.59183  0.018347352  0.017710511           36 
 1498000   0.65789635   -7.4879028    329.45939  0.018327736  0.017696782           17 
 1499000   0.65723338   -7.4513126    329.38562  0.018311408  0.017683032           22 
 1500000   0.64203298   -7.4822757    330.34922  0.018352734  0.017669342           24 
 1501000    0.6598105   -7.4544297    329.94441  0.018318033   0.01765567           35 
 1502000   0.64791136   -7.4799131    329.47016  0.018279525  0.017641962           15 
 1503000   0.64876851   -7.4730484     329.9288  0.018292792  0.017628303           17 
 1504000   0.65590569   -7.4643384     330.4065  0.018307098  0.017614694           13 
 1505000   0.65446507   -7.4771245    330.53019  0.018301782  0.017601097           18 
 1506000   0.64383293    -7.474367    329.45155  0.018229944  0.017587484           20 
 1507000   0.66173375   -7.4894237    329.67354  0.018230123   0.01757388           31 
 1508000   0.65890161   -7.4654025    329.39497   0.01820264  0.017560278           33 
 1509000   0.65440595   -7.4945097    329.33772  0.018187415  0.017546704           11 
 1510000   0.64988229   -7.4826894    330.11319  0.018218167  0.017533147           20 
 1511000   0.65848801   -7.4696197    329.76206  0.018186745   0.01751958           22 
 1512000   0.65295131    -7.472551    329.27062  0.018147631  0.017506023           10 
 1513000   0.64902528   -7.4783998    330.07462   0.01817992  0.017492486            6 
 1514000   0.64983868   -7.4966638    330.07917  0.018168162  0.017478902            9 
 1515000   0.64671593   -7.4673136    329.47895  0.018123155  0.017465372           16 
 1516000   0.65314422    -7.488331     329.5721   0.01811632  0.017451829           13 
 1517000   0.65878843     -7.46958    330.05056  0.018130662  0.017438289           17 
 1518000   0.65943976   -7.5010128    329.62205  0.018095194   0.01742477           10 
 1519000   0.64261239   -7.4926096    330.06467  0.018107563  0.017411214           10 
 1520000   0.66053383   -7.4949043    329.49444  0.018064388  0.017397699           14 
 1521000   0.64449098   -7.5037553    329.68376  0.018062884  0.017384173           11 
 1522000   0.64498354   -7.5321756    330.14889  0.018076483   0.01737069            7 
 1523000   0.63578677   -7.5140066    329.66292  0.018038024  0.017357191           14 
 1524000   0.64390146   -7.4847976    329.82748  0.018035186  0.017343734           10 
 1525000   0.63241193   -7.4782615    330.08802  0.018037597  0.017330309            7 
 1526000   0.62929725   -7.4960743    329.80298  0.018010211   0.01731687           14 
 1527000   0.65130443   -7.5044419     329.9844  0.018008317  0.017303424           15 
 1528000    0.6452786   -7.5240828    329.29719  0.017959053  0.017289969           18 
 1529000   0.64381521   -7.5018531    329.68858  0.017968639  0.017276511           15 
 1530000   0.63484971   -7.5045143     329.2436  0.017932658  0.017263051           16 
 1531000   0.63054429   -7.5025601     329.7461  0.017948296  0.017249584           16 
 1532000   0.64838117   -7.5153214    329.53075  0.017924867  0.017236137           20 
 1533000   0.65012646   -7.4722531    329.01002  0.017884867  0.017222692           12 
 1534000   0.63480694   -7.5158356    329.41843  0.017895395   0.01720927            9 
 1535000   0.65018864   -7.5098163     329.9184   0.01791088  0.017195851           12 
 1536000   0.63887907   -7.4955798    329.51634  0.017877406  0.017182396           14 
 1537000   0.64462728    -7.517281    329.53811  0.017866955  0.017168984           12 
 1538000    0.6320673   -7.4987073    329.61239  0.017859362  0.017155574           17 
 1539000   0.64769586   -7.5108492    329.46588  0.017839824  0.017142212           22 
 1540000   0.64207078    -7.500849    330.08905  0.017861962  0.017128888           25 
 1541000    0.6402477   -7.5221937     329.6609  0.017827217  0.017115576            6 
 1542000   0.62338315    -7.501264    329.85657  0.017826231   0.01710223           14 
 1543000   0.63921852   -7.5057004    330.20208  0.017833338  0.017088866           14 
 1544000   0.64340574   -7.4934569     329.7421  0.017796961   0.01707555            9 
 1545000    0.6394515   -7.5277669     329.2534  0.017759083  0.017062229           17 
 1546000   0.63899301    -7.523484    330.23658  0.017800592  0.017048909           26 
 1547000   0.63608938   -7.4834633    329.63218  0.017756528  0.017035634           11 
 1548000   0.63349893   -7.5155938     329.6708  0.017747136  0.017022386           20 
 1549000   0.64600171   -7.5002593    329.77017  0.017741025  0.017009138           17 
 1550000   0.62443189   -7.5189901    330.58942  0.017773625  0.016995892           14 
 1551000   0.64663388   -7.4993735    329.77747   0.01771854  0.016982635           10 
 1552000   0.62598119   -7.5017392    329.73984  0.017705103  0.016969403           30 
 1553000   0.63218094   -7.5169632    329.09417  0.017659056  0.016956147           12 
 1554000   0.63030928   -7.4936527    329.99315    0.0176959   0.01694293           14 
 1555000   0.63034598   -7.5229383    329.69577  0.017668584  0.016929718           11 
 1556000   0.64037314     -7.54026    329.13466  0.017627178   0.01691648           16 
 1557000   0.63163802   -7.5370535    329.21756  0.017620293  0.016903204           12 
 1558000   0.63823665   -7.5131329    329.47109  0.017622544  0.016889943           24 
 1559000   0.63021978   -7.5191944    329.74291   0.01762577  0.016876696           29 
 1560000   0.63964531    -7.532372    329.65032  0.017609525  0.016863473           15 
 1561000   0.64287014   -7.5073736    330.18935  0.017627021  0.016850261            8 
 1562000   0.63467417   -7.5238887    329.83542  0.017596853  0.016837084           16 
 1563000   0.63710759   -7.5019492    329.92533  0.017590388  0.016823911           15 
 1564000   0.63332358   -7.5266354    329.61979  0.017562862  0.016810775           13 
 1565000   0.61476233    -7.518471    329.46402  0.017543345   0.01679762           21 
 1566000    0.6424287   -7.5267941     329.5575  0.017537117  0.016784462           34 
 1567000   0.63315263   -7.5278369    329.59527  0.017527934  0.016771327           22 
 1568000   0.62577764   -7.5213247     329.9438  0.017535279   0.01675819           23 
 1569000   0.63696145   -7.5204159    329.81412  0.017517215  0.016745056           18 
 1570000   0.62020104   -7.5254347    329.81707  0.017506214  0.016731926           15 
 1571000   0.62651377   -7.5458003    330.01129  0.017505373  0.016718804           13 
 1572000   0.61671245   -7.5408581     329.6203   0.01747351  0.016705678           11 
 1573000   0.62717698   -7.5357175    329.53072  0.017457656  0.016692559           17 
 1574000   0.63786549   -7.5085093    329.28067  0.017433326  0.016679434           26 
 1575000   0.62689983   -7.5470685    329.15278  0.017415491  0.016666292           12 
 1576000    0.6205083   -7.5172458    329.59473   0.01742781  0.016653194           39 
 1577000   0.62036133   -7.5282782    330.20672  0.017449097  0.016640108           15 
 1578000   0.62747852   -7.5522395    329.72582  0.017412643   0.01662703           19 
 1579000   0.64052762   -7.5362974    329.68265  0.017399338  0.016613923           22 
 1580000    0.6200673    -7.538545    329.97489  0.017403739  0.016600851           12 
 1581000   0.61780052   -7.5484193    329.64866  0.017375536  0.016587776           23 
 1582000   0.61068418   -7.5254339    329.52976  0.017358289  0.016574694           19 
 1583000   0.62613455   -7.5291333    329.16556  0.017328151  0.016561669           16 
 1584000   0.62920306    -7.543908    329.47601  0.017333544  0.016548615           12 
 1585000   0.63609809   -7.5441911    329.50909  0.017324348  0.016535579           16 
 1586000   0.61531552   -7.5566549    329.17502  0.017295871  0.016522544           19 
 1587000   0.62683901   -7.5630645    329.30305  0.017291696   0.01650952           18 
 1588000   0.62508985   -7.5256782    330.11044  0.017323176  0.016496517           13 
 1589000   0.62276493    -7.551069    329.55868  0.017283338  0.016483518           16 
 1590000      0.63364   -7.5761086    329.25427  0.017256513  0.016470526           47 
 1591000   0.61257987   -7.5615029    330.01498  0.017285511  0.016457564           49 
 1592000   0.60833408   -7.5613787     329.2039  0.017232198  0.016444583           34 
 1593000   0.61812672   -7.5493037    329.30639  0.017226742   0.01643162           31 
 1594000   0.62074959   -7.5360487    329.51739  0.017226965   0.01641865           41 
 1595000   0.62008264   -7.5623729    329.20793  0.017199996  0.016405697           41 
 1596000   0.60840794   -7.5402225    328.86706  0.017171421  0.016392734           24 
 1597000   0.62853193   -7.5451889    328.83382  0.017158935  0.016379779           40 
 1598000    0.6147868   -7.5466997    328.98448  0.017156053  0.016366831           34 
 1599000   0.62418153   -7.5685515    329.48608  0.017171466  0.016353921           36 
 1600000   0.60934227   -7.5600605     329.3786  0.017155135  0.016341013           38 
 1601000    0.6197719   -7.5670021    329.38473  0.017144739  0.016328092           19 
 1602000     0.622051   -7.5654928    329.57572  0.017143972  0.016315188           30 
 1603000   0.62708947   -7.5478133    329.93356   0.01715188  0.016302322           31 
 1604000   0.61875056   -7.5663132    328.83685  0.017084209  0.016289426           37 
 1605000   0.61581919   -7.5673097    329.33783  0.017099576  0.016276549           44 
 1606000   0.61602499   -7.5567248     329.0243   0.01707266   0.01626366           35 
 1607000   0.60254436   -7.5840371    329.24442   0.01707345  0.016250805           45 
 1608000   0.61368346   -7.5536672    329.22106  0.017061622   0.01623797           39 
 1609000   0.62429332   -7.5874492    329.49023  0.017064959   0.01622514           56 
 1610000    0.6069581   -7.5700653    329.20692  0.017039696  0.016212313           41 
 1611000   0.61432496   -7.5817654    329.70267  0.017054763  0.016199511           35 
 1612000   0.60954922   -7.5790583    329.39028  0.017028034  0.016186698           31 
 1613000   0.61902699   -7.5754832    329.18865   0.01700706  0.016173888           39 
 1614000   0.61841843   -7.5808693     329.1834  0.016996252  0.016161099           36 
 1615000   0.60203544   -7.6023306    329.05102  0.016978897  0.016148283           23 
 1616000   0.60036613   -7.5993546    328.50865  0.016940421  0.016135439           19 
 1617000   0.61689879    -7.575238    329.02218   0.01695641  0.016122631           23 
 1618000   0.60346492   -7.5767958     328.7901  0.016933977  0.016109841           29 
 1619000   0.61620089   -7.5793928    328.84144   0.01692616  0.016097055           21 
 1620000   0.60266369   -7.5910327    328.74523  0.016910763  0.016084284           26 
 1621000   0.59678193    -7.582815    329.77233  0.016953132  0.016071531           22 
 1622000   0.60964978   -7.5737696    329.13454  0.016909913  0.016058822           17 
 1623000   0.61040075   -7.5631734    328.98143  0.016891632  0.016046129           24 
 1624000   0.61248119   -7.5871141    329.39409  0.016902406  0.016033429           20 
 1625000   0.60468053   -7.5669437    328.92208  0.016867799  0.016020742           22 
 1626000   0.61114574   -7.6048718    329.21587  0.016872482  0.016008062           36 
 1627000   0.59976365   -7.5722311    328.93461  0.016847706   0.01599539           31 
 1628000   0.59075525   -7.5941409       328.89  0.016835074  0.015982708           23 
 1629000   0.60712143   -7.5992858    329.17889  0.016839517  0.015970055           17 
 1630000   0.61571181   -7.5680859    329.11694  0.016826019  0.015957423           26 
 1631000   0.61797024   -7.5808458    328.50624  0.016784501  0.015944802           12 
 1632000   0.60656372    -7.582876    328.94264  0.016796499  0.015932168           29 
 1633000   0.60385209   -7.5991877     328.9106  0.016784579  0.015919532           28 
 1634000   0.61438595   -7.5810183    329.41558   0.01680006  0.015906893           22 
 1635000   0.59752283    -7.580006    328.68844  0.016752724   0.01589424           21 
 1636000   0.61164532   -7.5940892    329.31226  0.016774259  0.015881644           21 
 1637000   0.60877301   -7.5790701    328.62318  0.016728934  0.015869039           23 
 1638000   0.59839163   -7.6046686    328.71187  0.016723233  0.015856431           18 
 1639000    0.6128741   -7.5998004     329.2553   0.01674066  0.015843823           21 
 1640000   0.60698414   -7.6021078    328.37458    0.0166857  0.015831243           14 
 1641000    0.6105385   -7.5843846    329.32986  0.016724043  0.015818698           14 
 1642000     0.597607   -7.5753557    328.61933  0.016677798  0.015806143           30 
 1643000   0.61001194   -7.6049178     328.7023  0.016671855  0.015793598           20 
 1644000   0.61447169   -7.6086473    328.84894  0.016669148  0.015781059           42 
 1645000   0.59814201   -7.6122462    328.58168  0.016645475  0.015768517           28 
 1646000   0.59338008   -7.6074195    328.56158  0.016634345  0.015755995           43 
 1647000    0.5902688   -7.6028536    328.89579  0.016641155  0.015743504           34 
 1648000   0.60307292   -7.6183183    329.31508  0.016652259  0.015731013           40 
 1649000   0.59930402   -7.6204319    329.49939  0.016651475  0.015718515           64 
 1650000    0.5806865   -7.6151468    328.51074  0.016591452  0.015706018           21 
 1651000   0.59733341   -7.6019794    328.68455  0.016590175  0.015693545           38 
 1652000   0.60431324   -7.6059619    328.63727  0.016577748  0.015681095           42 
 1653000   0.58289803   -7.6057486    329.07289   0.01658968  0.015668675           31 
 1654000   0.61077433   -7.6136834    328.59599  0.016555622  0.015656243           36 
 1655000   0.59288808   -7.6057416    328.90577  0.016561217  0.015643827           46 
 1656000   0.60375448   -7.6067104    329.15037  0.016563525  0.015631428           52 
 1657000   0.59828303   -7.6032176    329.58211  0.016575242  0.015619046           42 
 1658000   0.59189366   -7.6097446    328.42913  0.016507294  0.015606694           22 
 1659000    0.5885902   -7.6050257    328.96336  0.016524179  0.015594332           26 
 1660000   0.60536558    -7.605989    329.08966  0.016520565  0.015581973           35 
 1661000   0.59068943   -7.5912664     328.7416  0.016493157  0.015569626           36 
 1662000   0.58253564   -7.6245451    328.68076  0.016480182  0.015557298           21 
 1663000   0.59967903   -7.6291208    328.40187  0.016456297  0.015544967           20 
 1664000   0.58310239   -7.6270799    328.88813   0.01647076  0.015532669           25 
 1665000   0.58357076   -7.6028842    328.81033  0.016456974  0.015520375           14 
 1666000   0.58996595   -7.5954383    328.54967  0.016434057  0.015508107           33 
 1667000   0.58920451   -7.6198468    328.80705  0.016437065  0.015495841           18 
 1668000   0.58163238   -7.6072874    328.89256  0.016431483  0.015483585           23 
 1669000   0.59594908   -7.6209071    329.64869  0.016459391  0.015471334           20 
 1670000   0.56989391   -7.6047928    329.15052  0.016424676   0.01545908           15 
 1671000   0.59055998   -7.6074258    328.84577  0.016399649  0.015446841           28 
 1672000   0.58332568   -7.6166251     329.9809  0.016446416  0.015434625           33 
 1673000    0.5912861   -7.6155635    329.28239  0.016401792  0.015422419           35 
 1674000   0.57526291   -7.6236603    328.61109  0.016358577  0.015410227           36 
 1675000   0.57034198   -7.6269663    328.65529   0.01635101  0.015398037           44 
 1676000    0.5971906    -7.607457    328.51103   0.01633408  0.015385877           32 
 1677000   0.58976185   -7.6353028    329.38259   0.01636765  0.015373708           49 
 1678000   0.57951318   -7.6257941    328.84533  0.016331214   0.01536153           17 
 1679000   0.58655966   -7.6334829    328.18684  0.016288805  0.015349348           26 
 1680000   0.59486506   -7.6486586    329.04826  0.016321838  0.015337178           29 
 1681000   0.57422542   -7.6486139    328.83337  0.016301476  0.015325015           19 
 1682000   0.58278057   -7.6213705    328.94455  0.016297292  0.015312866           19 
 1683000   0.57735961   -7.6161889    328.29753  0.016255572  0.015300745           21 
 1684000   0.58738321   -7.6268556    328.89598  0.016275533   0.01528861           21 
 1685000   0.57267172   -7.6002817    329.05902  0.016273937   0.01527652           43 
 1686000   0.58438296    -7.631226    328.91641  0.016257237  0.015264409           24 
 1687000    0.5841811   -7.6189176    329.53629   0.01627822  0.015252316           24 
 1688000    0.5688264   -7.6094774    328.49864   0.01621735  0.015240243           20 
 1689000   0.57464278   -7.6360175    328.81249  0.016223233  0.015228168           26 
 1690000    0.5709351   -7.6283349    328.62116  0.016204199  0.015216097           19 
 1691000   0.57844195   -7.6346118    328.63272  0.016195186  0.015204045           18 
 1692000   0.58524717   -7.6274092    328.79551  0.016193632  0.015191995           20 
 1693000   0.56219451   -7.6308882    328.53264  0.016171128  0.015179971           29 
 1694000   0.57950729   -7.6264512    328.38738  0.016154436  0.015167934           53 
 1695000   0.56767417   -7.6464338    328.87465  0.016168862  0.015155898           26 
 1696000   0.57185976   -7.6402925    328.66964  0.016149255  0.015143858           27 
 1697000   0.56758368   -7.6275469    328.93582   0.01615281  0.015131858           22 
 1698000   0.57657544    -7.637939     329.0129   0.01614708  0.015119877           24 
 1699000   0.59338722    -7.651677    329.23031   0.01614824  0.015107893           18 
 1700000   0.57035682   -7.6411469    328.86561  0.016120863  0.015095906           22 
 1701000   0.57812426   -7.6619116    328.78178  0.016107279  0.015083954           21 
 1702000   0.55993356   -7.6371114    327.81356  0.016050409  0.015072006           23 
 1703000   0.56863867   -7.6447584    328.69084  0.016083913  0.015060061           29 
 1704000    0.5766545   -7.6384459    328.58341   0.01606922  0.015048111           20 
 1705000    0.5709721   -7.6441568    328.28091   0.01604501  0.015036171           22 
 1706000   0.56234299   -7.6527629    328.14865  0.016029145  0.015024236           23 
 1707000   0.57296033   -7.6421667    328.65804  0.016044622  0.015012291           21 
 1708000   0.57611015   -7.6673403    328.47202  0.016026153  0.015000361           19 
 1709000   0.56963027   -7.6694937    328.37554   0.01601207  0.014988458           25 
 1710000   0.57994416   -7.6540896    328.51383  0.016009446  0.014976545           24 
 1711000   0.56997198   -7.6685186    328.26955  0.015988191  0.014964659           30 
 1712000   0.58066112   -7.6585697    328.60383  0.015995124  0.014952782           18 
 1713000    0.5849209   -7.6626581    328.38196  0.015974993  0.014940895           20 
 1714000    0.5641856   -7.6687098    328.76899   0.01598449  0.014929036           18 
 1715000   0.56624294   -7.6638608    327.70297  0.015923371  0.014917172           26 
 1716000   0.57256162   -7.6484756    328.81543  0.015968115  0.014905308           16 
 1717000   0.56380409   -7.6623504    328.53125  0.015945023  0.014893497           24 
 1718000   0.56531662   -7.6670719    328.86271  0.015951819  0.014881689           19 
 1719000    0.5577324   -7.6605285    328.39994  0.015920106  0.014869883           59 
 1720000   0.57579716   -7.6673727    328.79758  0.015930115  0.014858088           33 
 1721000   0.57412741   -7.6639856    328.16765  0.015890357  0.014846303           26 
 1722000    0.5710007   -7.6758245    328.45166  0.015894873  0.014834521           47 
 1723000   0.56017016   -7.6880489    328.37992  0.015882179  0.014822765           28 
 1724000   0.56105773   -7.6712408    328.69112  0.015888008  0.014811006           24 
 1725000   0.54994815    -7.677727    328.03207   0.01584696  0.014799259           30 
 1726000   0.56420551    -7.671173     328.2947  0.015850459  0.014787501           31 
 1727000   0.56070866   -7.6673575    327.97258  0.015825737  0.014775768           27 
 1728000   0.56221225   -7.6926315    328.29027    0.0158319  0.014764035           29 
 1729000   0.57189136   -7.6791879    328.37515  0.015826834  0.014752313           39 
 1730000   0.55613352   -7.6678893    328.20255  0.015809371  0.014740599           31 
 1731000   0.57259446     -7.67198     328.4842  0.015813798  0.014728929           36 
 1732000   0.55005115   -7.6708061    328.69256  0.015814692  0.014717258           22 
 1733000    0.5576576   -7.6717202    328.53798  0.015798133  0.014705582           28 
 1734000   0.55701634   -7.6834454    328.35377   0.01578017  0.014693899           19 
 1735000   0.55537077   -7.6853635    328.50434  0.015778306  0.014682217           25 
 1736000   0.56803709   -7.6843369    328.51685  0.015769818  0.014670555           31 
 1737000   0.55315846   -7.6824658    328.21546   0.01574628  0.014658913           29 
 1738000   0.56567526   -7.6678329    328.05412  0.015729484  0.014647279           42 
 1739000   0.55441754   -7.6742297    328.55112  0.015744255  0.014635663           48 
 1740000   0.56595753    -7.686797    328.43727  0.015729754  0.014624057           27 
 1741000   0.56083779   -7.6828706    327.94742  0.015697273  0.014612462           19 
 1742000   0.56646271   -7.6839399    328.39515   0.01570968  0.014600867           18 
 1743000   0.55626109   -7.6748586    328.23888  0.015693196  0.014589282           35 
 1744000   0.55928341   -7.6688413    327.90811  0.015668392  0.014577702           20 
 1745000   0.55803517   -7.6722841    328.48856  0.015687133  0.014566131           26 
 1746000   0.56721106   -7.6820622    328.26814  0.015667628  0.014554577           15 
 1747000   0.55534733   -7.6966568    327.85517  0.015638961  0.014543025           18 
 1748000   0.54371147   -7.6896293    328.13697  0.015643448  0.014531477           19 
 1749000   0.55879059   -7.6906275    328.05903   0.01563079  0.014519961           24 
 1750000   0.55710576   -7.7064188    328.29017  0.015632865  0.014508448           19 
 1751000   0.55520203   -7.7023592    328.20988  0.015620116  0.014496953           16 
 1752000   0.54492077   -7.6850032    328.15375  0.015608531  0.014485455           25 
 1753000   0.55404551   -7.6826279    328.10102   0.01559712  0.014473985           18 
 1754000   0.56054645   -7.7005943    328.33213  0.015599208   0.01446252           16 
 1755000   0.55441762   -7.7096034    328.53013  0.015599721  0.014451053           24 
 1756000     0.565557   -7.6851346     328.5453  0.015591558  0.014439606           22 
 1757000   0.54660235   -7.7011922    328.86121  0.015597667  0.014428184           21 
 1758000   0.54911395   -7.6999978     328.2343  0.015559077  0.014416767           20 
 1759000   0.55815178   -7.6851929    327.59441  0.015519917  0.014405351           23 
 1760000   0.55774267   -7.7014439    328.72652  0.015564703  0.014393945           15 
 1761000   0.55028499   -7.7104493    328.42177  0.015541443  0.014382551           28 
 1762000   0.55295013   -7.6919947    328.18637   0.01552149  0.014371178           22 
 1763000    0.5517436   -7.7047892    328.00416  0.015504072  0.014359805           29 
 1764000   0.55846438    -7.686551    327.95868  0.015493135  0.014348444           27 
 1765000   0.53794165   -7.6936377    328.15991  0.015493858  0.014337089           29 
 1766000   0.54245758   -7.6859523    328.10108  0.015482308  0.014325752           41 
 1767000   0.55080061   -7.6935442    328.31063  0.015483429  0.014314425           23 
 1768000   0.54875589   -7.6794336       328.35  0.015476527  0.014303125           24 
 1769000   0.53963268   -7.6675672    328.16461  0.015459045  0.014291814           20 
 1770000   0.55061623   -7.6946748    328.24399  0.015454048  0.014280523           23 
 1771000   0.54201048    -7.695187    328.22806  0.015444573  0.014269235           24 
 1772000   0.52878376   -7.7020902    327.90622  0.015420721  0.014257955           25 
 1773000   0.54431628    -7.712841    328.43063  0.015436672  0.014246671           27 
 1774000   0.55100244   -7.6983588    328.39164  0.015426139  0.014235402           25 
 1775000   0.53521394   -7.6944723    327.93649   0.01539608  0.014224143           19 
 1776000   0.54485759   -7.7027341    328.06151  0.015393276  0.014212902           25 
 1777000   0.54770937   -7.7356964    328.37762  0.015399438  0.014201666           29 
 1778000   0.53719602   -7.7006578    328.05414  0.015375616  0.014190425           19 
 1779000   0.54408609   -7.6997571    327.65777  0.015348406  0.014179197           28 
 1780000   0.53736534   -7.7064807    328.05808  0.015358524  0.014167988           34 
 1781000   0.53548414   -7.7053345    328.16017  0.015354678  0.014156779           21 
 1782000   0.53762863   -7.7170025    327.60778  0.015320229  0.014145573           22 
 1783000   0.55026032   -7.7202581    328.47025  0.015351947  0.014134368           22 
 1784000   0.54956486   -7.7122574    327.79242  0.015311679  0.014123177           30 
 1785000   0.54958329   -7.7194327    327.54662  0.015291626  0.014111991           38 
 1786000   0.53594512   -7.7174271    327.85921  0.015297649  0.014100816           36 
 1787000   0.54159397   -7.7203294    328.48794  0.015318408  0.014089653           23 
 1788000   0.53190113   -7.7045232    327.64914  0.015270747  0.014078501           26 
 1789000   0.54096757   -7.7161108    328.15071  0.015285575  0.014067347           22 
 1790000   0.53947206   -7.7132885     328.5232  0.015294376  0.014056212           20 
 1791000   0.53649096   -7.7223401    327.78007   0.01525126  0.014045083           30 
 1792000   0.53702451    -7.704353    327.64847  0.015236629  0.014033957           35 
 1793000   0.53664043   -7.7144121    328.13039  0.015250529  0.014022849           25 
 1794000   0.54237356   -7.7188212    327.39287   0.01520777  0.014011765           23 
 1795000   0.52199413   -7.7083871    327.68817  0.015213007  0.014000664           42 
 1796000    0.5461508   -7.7241435    327.36507  0.015189545  0.013989574           22 
 1797000   0.55217257   -7.7114181    327.61037  0.015192468  0.013978493           23 
 1798000   0.53028492   -7.7251422    327.39224  0.015173908  0.013967416           30 
 1799000   0.53682013   -7.7494973    328.05841  0.015196332  0.013956347           35 
 1800000   0.54292255   -7.7331855    327.39027  0.015156957  0.013945288           29 
 1801000   0.53427528    -7.725308    327.81278  0.015168091  0.013934219           29 
 1802000   0.53539817   -7.7565565    327.83432   0.01516067  0.013923158           27 
 1803000   0.53575174   -7.7287336    327.40815  0.015132564  0.013912103           20 
 1804000   0.54274228   -7.7264416    327.96566  0.015149929  0.013901055           28 
 1805000   0.52425435   -7.7409713    327.86766  0.015137011  0.013890036           34 
 1806000   0.53131408   -7.7282906    327.62453  0.015117411  0.013879008           28 
 1807000   0.53417329   -7.7413988     327.3126   0.01509466  0.013867988           29 
 1808000   0.53899505   -7.7363465    327.56772  0.015098069  0.013857008           30 
 1809000   0.53376266   -7.7173813    327.60834  0.015091595  0.013846024           38 
 1810000   0.53045235   -7.7110588    328.24466  0.015112553  0.013835055           23 
 1811000   0.52258331   -7.7232429    327.48628  0.015069311  0.013824097           29 
 1812000   0.53050754   -7.7351881    327.36075  0.015055222  0.013813149           34 
 1813000   0.53026898    -7.738322    327.22089  0.015040489  0.013802198           28 
 1814000   0.53352694   -7.7321344    327.97914  0.015067031  0.013791261           51 
 1815000   0.53272655   -7.7377333    327.17127  0.015021638  0.013780341           31 
 1816000   0.53023151   -7.7321474    327.76651  0.015040681   0.01376943           41 
 1817000   0.51865642   -7.7516206    327.09141  0.015001441  0.013758508           24 
 1818000   0.53765098   -7.7252892    327.13668  0.014995264  0.013747608           36 
 1819000    0.5238084   -7.7359007    327.44454  0.015001124  0.013736711           31 
 1820000   0.51874281   -7.7406469    327.22283   0.01498273  0.013725833           21 
 1821000   0.52049002   -7.7157114    327.15751  0.014971513  0.013714956           25 
 1822000   0.53044343   -7.7365413    327.41168  0.014974921  0.013704089           36 
 1823000   0.53498384   -7.7452057    327.72941  0.014981231  0.013693232           32 
 1824000   0.53620652   -7.7322617    327.28812  0.014952857   0.01368239           20 
 1825000   0.52430301   -7.7532818    327.20079  0.014940675  0.013671551           34 
 1826000   0.51217874   -7.7390511    327.83994  0.014961662  0.013660716           28 
 1827000   0.51947144   -7.7511945    327.12118  0.014920689  0.013649897           30 
 1828000   0.52562157   -7.7379981    326.99366  0.014906713  0.013639084           26 
 1829000   0.50845502   -7.7383374    327.41951  0.014917966  0.013628281           37 
 1830000   0.50742569    -7.736727    327.24109  0.014901689  0.013617485           26 
 1831000   0.50973424   -7.7477587    327.07134  0.014885825  0.013606717           28 
 1832000   0.51938208   -7.7525414    327.57803  0.014900747  0.013595953           26 
 1833000    0.5164829   -7.7469083    327.70213   0.01489826  0.013585187           33 
 1834000   0.51894101   -7.7483813    327.24224   0.01486924  0.013574426           29 
 1835000   0.51189361    -7.759188     326.9986  0.014850073  0.013563678           38 
 1836000   0.51136137   -7.7454377    327.24924   0.01485336  0.013552934           34 
 1837000   0.51383066   -7.7591737    327.47835  0.014855668  0.013542198           43 
 1838000    0.5143378   -7.7592772    327.23129  0.014836384   0.01353147           21 
 1839000   0.51638178   -7.7407711    327.19579  0.014826708  0.013520753           41 
 1840000    0.5002872   -7.7566365    327.18707  0.014818255  0.013510031           60 
 1841000   0.52250921   -7.7522495    327.15855  0.014808915  0.013499323           24 
 1842000   0.52624072   -7.7544491    327.40752  0.014812139  0.013488647           27 
 1843000   0.51818063   -7.7548165    327.18258  0.014793931  0.013477968           27 
 1844000   0.51777802   -7.7452992    326.66119  0.014762346  0.013467297           37 
 1845000   0.51828661   -7.7504132    327.13627  0.014775803  0.013456623           21 
 1846000   0.51689409   -7.7495539    327.14002  0.014767968  0.013445966           30 
 1847000   0.50679904   -7.7491575    327.27615  0.014766114  0.013435327           43 
 1848000   0.51811604   -7.7331681    327.29846   0.01475913  0.013424686           25 
 1849000   0.52009944   -7.7630821    326.89232  0.014732843  0.013414066           26 
 1850000   0.52212511   -7.7583971    326.68164  0.014715389  0.013403443           27 
 1851000   0.52073122   -7.7678521    327.41318  0.014740374  0.013392828           25 
 1852000   0.51894298   -7.7753097    327.17196   0.01472156  0.013382231           30 
 1853000   0.50989038   -7.7617486    327.48705  0.014727786  0.013371651           20 
 1854000   0.50687356    -7.765476    326.74687  0.014686573  0.013361077           21 
 1855000   0.51030854   -7.7830259    327.24739  0.014701141  0.013350512           42 
 1856000   0.50770635   -7.7673447    326.91004  0.014678073   0.01333996           39 
 1857000   0.52077416   -7.7489818    327.02084  0.014675141  0.013329422           25 
 1858000   0.52129082   -7.7583171    327.00726  0.014666633  0.013318895           27 
 1859000   0.51861481   -7.7753797     327.0933  0.014662601  0.013308359           24 
 1860000   0.50365468       -7.758    327.07575  0.014653931  0.013297832           31 
 1861000   0.50355347   -7.7776572    326.71349  0.014629836  0.013287322           23 
 1862000   0.51330758   -7.7710841    327.03925  0.014636558  0.013276808           45 
 1863000   0.51539005   -7.7606595    326.36469  0.014598528  0.013266299           34 
 1864000   0.52371715   -7.7677169     327.1977  0.014627937  0.013255801           28 
 1865000   0.50326087   -7.7727725    326.35836   0.01458259  0.013245318           27 
 1866000   0.50677079   -7.7778822    326.95139  0.014601259  0.013234836           21 
 1867000   0.50601683   -7.7565287    326.31013  0.014564816  0.013224377           18 
 1868000   0.50751478    -7.772388    326.66411   0.01457281  0.013213917           33 
 1869000   0.49722085   -7.7590456    327.15536  0.014586916  0.013203455           29 
 1870000   0.49776313    -7.761861    327.24679   0.01458319  0.013193021           22 
 1871000   0.50241512   -7.7616821    326.78442  0.014554802  0.013182601           31 
 1872000   0.49171426   -7.7608291     326.3285  0.014526732  0.013172185           21 
 1873000   0.49877621   -7.7836333    326.53676  0.014528242  0.013161768           27 
 1874000   0.51252876   -7.7865485    326.93368  0.014538139  0.013151346           20 
 1875000   0.49930463   -7.7724922     326.6156  0.014516249   0.01314094           21 
 1876000   0.51843095   -7.7757499    327.18389  0.014533755  0.013130536           23 
 1877000   0.50987138   -7.7935705    326.52164   0.01449661  0.013120165           26 
 1878000   0.51109134   -7.7754514    327.23181  0.014520403  0.013109789           27 
 1879000   0.49832594   -7.7681181    326.47332  0.014479037   0.01309942           33 
 1880000   0.50849237   -7.7682238    326.71817  0.014482188  0.013089052           22 
 1881000   0.50254662   -7.7763524    326.42388  0.014461451  0.013078699           26 
 1882000   0.51249759   -7.7782245    327.32197  0.014493534  0.013068359           17 
 1883000    0.5102507   -7.7673644    326.79466    0.0144625  0.013058028           20 
 1884000   0.51910094   -7.7967779    326.81019  0.014455511  0.013047716           32 
 1885000   0.50433659   -7.7903025    326.72612  0.014444125  0.013037405           22 
 1886000   0.49924557   -7.7786393    326.22406  0.014414283  0.013027094           26 
 1887000   0.50352189    -7.801273    326.81191  0.014432605  0.013016799           14 
 1888000   0.50150383    -7.787867    326.28685  0.014401785  0.013006514           17 
 1889000   0.50353583   -7.7736222     326.5738   0.01440682  0.012996245           24 
 1890000   0.49701874   -7.7987082    326.46254  0.014394292  0.012985977           26 
 1891000   0.49467714   -7.7624551    326.38123  0.014383097  0.012975727           42 
 1892000   0.49796045   -7.7892254    326.14661  0.014365161  0.012965474           19 
 1893000    0.4915713   -7.7856661    326.65731  0.014380054  0.012955247           43 
 1894000   0.50185222   -7.7716998    325.86055  0.014337405  0.012945011           22 
 1895000   0.48690047   -7.7815248    325.90424  0.014331761  0.012934792           28 
 1896000   0.49877888   -7.7869497    326.47746  0.014349396  0.012924601           51 
 1897000   0.49971447   -7.7738336    326.17591  0.014328585  0.012914427           25 
 1898000    0.4942554   -7.7773619    325.89838  0.014308851  0.012904247           25 
 1899000   0.50133885   -7.7944211    326.83897  0.014342591  0.012894067           20 
 1900000   0.49884667   -7.7828626    326.47133  0.014318918  0.012883896           20 
 1901000   0.48700045   -7.7858884    326.72657  0.014322574  0.012873727           24 
 1902000   0.48935684   -7.7936261    326.47759  0.014304136   0.01286358           47 
 1903000   0.50037159    -7.813416    326.65279  0.014304291  0.012853439           27 
 1904000   0.48242584   -7.7975868    326.51948  0.014290944  0.012843309           27 
 1905000   0.50435042    -7.787068    326.26844   0.01427246  0.012833186           23 
 1906000   0.48892148   -7.8033502    326.85435  0.014290589  0.012823068           29 
 1907000   0.48768542   -7.8149731      326.125  0.014251223  0.012812965           42 
 1908000    0.4913734   -7.7968605    326.55266  0.014262433  0.012802871           27 
 1909000   0.48638952   -7.8025518    326.06015  0.014233462  0.012792793           22 
 1910000   0.49528191   -7.7871361    326.29277  0.014236159  0.012782719           16 
 1911000   0.49831942   -7.7982557     326.4997  0.014237733  0.012772652           23 
 1912000   0.48457391    -7.796322    326.61714  0.014235405  0.012762591           15 
 1913000   0.48627284   -7.7928999    326.32022  0.014215029  0.012752547           29 
 1914000   0.48566456   -7.8099779    326.32464  0.014207795  0.012742514           37 
 1915000   0.48958856   -7.8020616    326.10768  0.014190935  0.012732497           37 
 1916000   0.49415987   -7.7759765    326.23518  0.014189074  0.012722482           21 
 1917000   0.48407723   -7.8016887    326.52732  0.014194371  0.012712479           27 
 1918000   0.48209441   -7.7953538    326.47717  0.014184792  0.012702487           23 
 1919000   0.48403632   -7.8020864    325.83312  0.014149432  0.012692502           25 
 1920000   0.48565522   -7.8005265     325.9265  0.014146115  0.012682519           24 
 1921000   0.48017316   -7.7957429     326.0273  0.014143124  0.012672546           52 
 1922000   0.47888035    -7.787162    326.14667  0.014140941  0.012662594           23 
 1923000   0.48646417    -7.801963    325.82518  0.014119656  0.012652653           14 
 1924000   0.50000363   -7.8092759    326.43428  0.014138699  0.012642725           24 
 1925000   0.49819279   -7.7959012    325.64415  0.014097149  0.012632801           64 
 1926000   0.47892509   -7.7899931     326.2171   0.01411462   0.01262288           20 
 1927000   0.48719637   -7.8173158    326.74959  0.014130323  0.012612973           42 
 1928000   0.48495272   -7.8045081    326.40312  0.014108019  0.012603065           25 
 1929000   0.48676586   -7.7945652    326.36218  0.014098936   0.01259317           92 
 1930000    0.4900352   -7.8217377    326.28352  0.014088235  0.012583285           37 
 1931000    0.4789989   -7.8107392    326.59852  0.014094533  0.012573413           23 
 1932000   0.47858833    -7.801145    326.49148  0.014082621  0.012563549           20 
 1933000   0.47879377   -7.7969852    326.14138  0.014060242  0.012553683           40 
 1934000   0.47639889   -7.8243311    325.89872  0.014042516  0.012543823           40 
 1935000   0.48950802   -7.8094077    326.40101  0.014056891  0.012533985           30 
 1936000   0.47888688   -7.8163922    325.89723  0.014027946  0.012524146           42 
 1937000   0.48138874   -7.8099656    326.04024  0.014026856  0.012514314           55 
 1938000   0.46484443   -7.8027474    325.95378    0.0140159  0.012504494           30 
 1939000   0.47510234   -7.8150531    326.06583  0.014013488  0.012494698           28 
 1940000   0.48940329   -7.7904752    326.40827  0.014020974   0.01248491           29 
 1941000   0.48145759   -7.8175564    326.08018  0.013999664  0.012475126           22 
 1942000   0.48727705   -7.8062767      325.958  0.013987212  0.012465346           28 
 1943000    0.4701812    -7.810553    326.36741  0.013997573  0.012455566           38 
 1944000   0.47496333   -7.8156778    326.00527  0.013974849  0.012445801           30 
 1945000   0.47112153   -7.8121693    325.95069  0.013965325   0.01243605           42 
 1946000   0.47024624   -7.8257752    326.30728  0.013973419    0.0124263           22 
 1947000   0.48772536   -7.8178591    325.46385  0.013930143  0.012416558           39 
 1948000   0.47673214   -7.8344864    326.25482  0.013956828  0.012406826           25 
 1949000    0.4802273   -7.8137855    325.61771  0.013922427  0.012397103           25 
 1950000   0.47281683   -7.8153509     325.8915  0.013926987   0.01238739           36 
 1951000   0.47345455   -7.8012172    325.51597  0.013903809  0.012377691           72 
 1952000   0.46272996   -7.8128146    325.44867  0.013893813  0.012368021           28 
 1953000   0.47665625    -7.812141     325.9426  0.013907774  0.012358347           22 
 1954000   0.47449208   -7.8274475    325.95479  0.013901177  0.012348666           34 
 1955000   0.47327046   -7.8280909    326.21363  0.013905099  0.012339003           41 
 1956000   0.47049279   -7.8254126    326.09397  0.013892892   0.01232935           71 
 1957000   0.46883947   -7.8241968    325.93089  0.013878849  0.012319707           26 
 1958000   0.47595074   -7.8097052     325.4273  0.013850328  0.012310071           52 
 1959000   0.46854159   -7.8341304    326.42292   0.01388561  0.012300438           49 
 1960000   0.47964426    -7.818229    325.85611  0.013854426   0.01229081           39 
 1961000   0.46507648   -7.8272619     325.7543  0.013843035  0.012281182           36 
 1962000    0.4614266    -7.829157    325.76863  0.013836588  0.012271577           39 
 1963000    0.4563692   -7.8245864    325.86853   0.01383378  0.012261979           35 
 1964000   0.47256092   -7.8321383     325.6198  0.013816183  0.012252394           47 
 1965000   0.45976308   -7.8236873    325.79262  0.013816481  0.012242822           40 
 1966000   0.46015209   -7.8373629    325.52283  0.013798017   0.01223324           86 
 1967000   0.46119319   -7.8298337     325.4442  0.013787672  0.012223673           79 
 1968000   0.47354203   -7.8244688    325.53589  0.013784548  0.012214113           21 
 1969000   0.47572216   -7.8442999    326.37434  0.013813033  0.012204563           67 
 1970000   0.47294668   -7.8199908    325.39603  0.013764638  0.012195024           36 
 1971000   0.46508079   -7.8225496    325.65914  0.013768778    0.0121855           35 
 1972000   0.47035483   -7.8244382    325.50885  0.013755445  0.012175977           26 
 1973000   0.45877426   -7.8364508    325.99697   0.01376909  0.012166467           28 
 1974000   0.46063752   -7.8314914    325.81964  0.013754628  0.012156964           74 
 1975000   0.46321985   -7.8339356    325.63304  0.013739791  0.012147469           70 
 1976000   0.46014605   -7.8401938    326.18574  0.013756146  0.012137991           61 
 1977000   0.45670279   -7.8488226    325.95431  0.013739433  0.012128511           34 
 1978000   0.46959166   -7.8270169    325.64032  0.013719259  0.012119044           29 
 1979000   0.46881457   -7.8352166    325.49717  0.013706298  0.012109583           74 
 1980000   0.47414241   -7.8340763    325.54987  0.013701594  0.012100129           77 
 1981000   0.45475472   -7.8390701    325.61973  0.013697616  0.012090689           95 
 1982000   0.47140272   -7.8433479    325.53816  0.013687276  0.012081244           46 
 1983000   0.46394432   -7.8455219    325.52984  0.013680023  0.012071817          115 
 1984000   0.46168362   -7.8340409    325.54171  0.013673627  0.012062395           38 
 1985000   0.46566478    -7.831286    325.50401  0.013665156  0.012052991           47 
 1986000   0.46036452   -7.8452856    325.54569  0.013660024  0.012043593           33 
 1987000   0.45807323   -7.8492818    325.58749  0.013654902  0.012034202           53 
 1988000   0.45210642   -7.8511407    325.84632  0.013658883  0.012024822           61 
 1989000   0.45145074   -7.8542685    325.37039  0.013632076  0.012015448           45 
 1990000   0.46800487   -7.8566049     324.8169  0.013602048  0.012006082           36 
 1991000   0.45879972   -7.8585194    325.89941  0.013640524  0.011996722           40 
 1992000   0.45230195   -7.8308361    325.37722  0.013611832  0.011987378           47 
 1993000   0.45846337   -7.8401114      325.537  0.013611682  0.011978045           36 
 1994000   0.45295825   -7.8497998    325.57339  0.013606377  0.011968726           38 
 1995000    0.4558868   -7.8529016    325.90988  0.013613612  0.011959404           54 
 1996000   0.45048772   -7.8413728    325.46292  0.013588131  0.011950093           44 
 1997000   0.45753695   -7.8328172    325.14478  0.013568051  0.011940792           29 
 1998000   0.46135848     -7.85506    325.74518  0.013586302  0.011931502           71 
 1999000   0.45584504   -7.8476189    324.87351  0.013543168  0.011922211           58 
 2000000   0.45676323   -7.8416484    325.75711  0.013573213   0.01191294           44 
 2001000   0.45598689   -7.8518799    326.01939  0.013577353  0.011903678           65 
 2002000    0.4609592   -7.8729387    325.12311  0.013533263  0.011894417           52 
 2003000   0.44925488   -7.8549761    325.50305  0.013542314  0.011885164           31 
 2004000   0.44481207    -7.851889    325.02705  0.013515762  0.011875925           34 
 2005000   0.44298566   -7.8673805    325.68993  0.013536572  0.011866687           38 
 2006000   0.45657366   -7.8528843     325.3605  0.013516139  0.011857454           30 
 2007000   0.45865411   -7.8518415    325.13582  0.013500076  0.011848232           35 
 2008000   0.45324328   -7.8601223    325.20432  0.013496195  0.011839024           84 
 2009000   0.43681897   -7.8466479    325.27272  0.013492314  0.011829824           32 
 2010000   0.45191131   -7.8689671    325.18323  0.013481892  0.011820633           19 
 2011000   0.44931058   -7.8634479    325.86631  0.013503494  0.011811451           46 
 2012000   0.45501913   -7.8633197    325.16808  0.013467863  0.011802277           61 
Loop time of 4422.85 on 48 procs for 2000000 steps with 4000 atoms

Performance: 78139.671 tau/day, 452.197 timesteps/s
99.4% CPU use with 48 MPI tasks x no OpenMP threads

MPI task timing breakdown:
Section |  min time  |  avg time  |  max time  |%varavg| %total
---------------------------------------------------------------
Pair    | 285.23     | 304.24     | 319.57     |  54.4 |  6.88
Neigh   | 27.573     | 28.316     | 29.085     |   5.6 |  0.64
Comm    | 250.43     | 269.13     | 289.87     |  59.2 |  6.08
Output  | 3.8798     | 3.8818     | 3.9113     |   0.2 |  0.09
Modify  | 3755.9     | 3768.8     | 3783.7     |  11.1 | 85.21
Other   |            | 48.52      |            |       |  1.10

Nlocal:        83.3333 ave          90 max          76 min
Histogram: 4 0 5 7 6 7 4 8 4 3
Nghost:        1836.29 ave        1859 max        1818 min
Histogram: 5 4 8 1 9 7 7 5 0 2
Neighs:        11375.2 ave       12862 max        9705 min
Histogram: 1 3 2 6 7 8 14 3 2 2
FullNghs:      22750.6 ave       24798 max       20489 min
Histogram: 4 0 5 7 8 3 8 6 4 3

Total # of neighbors = 1092031
Ave neighs/atom = 273.00775
Neighbor list builds = 107694
Dangerous builds = 0

#clear
#
#next RN
#
#jump SELF
Total wall time: 1:13:45
