
units lj                  # Use reduced LJ style units
atom_style atomic         # Uncharged point particles
atom_modify map hash      # Needed for indexing of clusters etc
                          # Used to be able to find where atoms are in relation to each other.

lattice fcc 1.0 spacing 1 1 1
Lattice spacing in x,y,z = 1.5874011 1.5874011 1.5874011
region box block 0 10 0 10 0 10 units lattice
create_box 2 box
Created orthogonal box = (0.0000000 0.0000000 0.0000000) to (15.874011 15.874011 15.874011)
  3 by 4 by 4 MPI processor grid
create_atoms 1 box
Created 4000 atoms
  using lattice units in orthogonal box = (0.0000000 0.0000000 0.0000000) to (15.874011 15.874011 15.874011)
  create_atoms CPU = 0.003 seconds
set type 1 type/fraction 2 0.86 78393
Setting atom values ...
  3427 settings made for type/fraction
mass 1 1.0
mass 2 1.0
pair_style lj/cut  3.5
pair_modify tail  yes
pair_coeff 1  1  1.0  1.0   # Intearaction between 1 and 1 set with epsilon = 1 and sigma = 1
pair_coeff 1  2  1.5  0.8
pair_coeff 2  2  0.5  0.88

write_data data.0
System init for write_data ...
Neighbor list info ...
  update every 1 steps, delay 10 steps, check yes
  max neighbors/atom: 2000, page size: 100000
  master list distance cutoff = 3.8
  ghost atom cutoff = 3.8
  binsize = 1.9, bins = 9 9 9
  1 neighbor lists, perpetual/occasional/extra = 1 0 0
  (1) pair lj/cut, perpetual
      attributes: half, newton on
      pair build: half/bin/atomonly/newton
      stencil: half/bin/3d
      bin: standard
WARNING: Not all mixed pair coeffs generated from mixing. Use write_data with 'pair ij' option to store all pair coeffs. (../write_data.cpp:312)


#############################
#   M E L T   S Y S T E M   #
#############################

velocity all create 2.4 5300450 mom yes dist gaussian # Assign velocities
                                                    # Temperature 2.4, random number seed, zero linear momentum
                                                                                # Gaussian distribution

timestep 0.002   # simulation timestep
thermo 1000       # output thermodynamic data every 1000 steps bf 100

# Define a fix  in this case with index 1 applied to all
# particles in the simulation. This fix is for simulations
# in the anisotropic NPT ensemble. Note that we use the MTK
# correction.
fix 1 all npt temp 2.4 2.4 0.1 iso 5.68 5.68 0.5 mtk yes tchain 5 pchain 5 # Use NPT ensemble
                                                                         # Set temperature and pressure and damping
                                                                         # Numbers of thermostats in chain and in barostat
run 10000          # run for 10000 steps
Per MPI rank memory allocation (min/avg/max) = 3.642 | 3.644 | 3.648 Mbytes
Step Temp E_pair E_mol TotEng Press Volume 
       0          2.4   -3.3969599            0   0.20214005   -2.8933285         4000 
    1000    2.4113764   -2.6212115            0   0.99494893    5.5304534    3909.0804 
    2000    2.4223319   -2.5970551            0    1.0355344    5.6806959    3890.9474 
    3000    2.3849116   -2.5434204            0    1.0330527    5.6771896    3933.5634 
    4000    2.4564416   -2.5822951            0    1.1014461    5.8011161    3888.2693 
    5000    2.4018237   -2.5917243            0    1.0101106    5.7142979     3874.344 
    6000     2.402754   -2.5831171            0    1.0201128    5.6038625    3913.2392 
    7000    2.4077854   -2.5642459            0    1.0465292     5.660016    3923.8752 
    8000    2.4439677   -2.6303053            0    1.0347298    5.6537244    3859.5262 
    9000    2.4242668   -2.6080428            0    1.0274483    6.0188371    3839.4481 
   10000    2.3828501   -2.5431805            0    1.0302011    5.7581302    3909.5609 
Loop time of 2.69687 on 48 procs for 10000 steps with 4000 atoms

Performance: 640742.358 tau/day, 3708.000 timesteps/s
99.4% CPU use with 48 MPI tasks x no OpenMP threads

MPI task timing breakdown:
Section |  min time  |  avg time  |  max time  |%varavg| %total
---------------------------------------------------------------
Pair    | 1.1314     | 1.1783     | 1.2283     |   2.2 | 43.69
Neigh   | 0.20952    | 0.21631    | 0.22487    |   0.7 |  8.02
Comm    | 0.85054    | 0.90767    | 0.99432    |   3.6 | 33.66
Output  | 0.00024712 | 0.00025313 | 0.00032178 |   0.0 |  0.01
Modify  | 0.32666    | 0.37896    | 0.41708    |   4.0 | 14.05
Other   |            | 0.01536    |            |       |  0.57

Nlocal:        83.3333 ave          93 max          75 min
Histogram: 2 3 4 10 7 9 6 5 1 1
Nghost:        1671.88 ave        1694 max        1645 min
Histogram: 2 1 7 4 7 6 4 8 6 3
Neighs:        9758.17 ave       10970 max        8420 min
Histogram: 2 1 4 9 7 10 2 8 2 3

Total # of neighbors = 468392
Ave neighs/atom = 117.09800
Neighbor list builds = 906
Dangerous builds = 195

# Equilibrate just above the melting temperature to avoid step fn in T

fix 1 all npt temp 1.25 1.25 0.1 iso 5.68 5.68 0.5 mtk yes tchain 5 pchain 5
run 2000
Per MPI rank memory allocation (min/avg/max) = 3.643 | 3.645 | 3.649 Mbytes
Step Temp E_pair E_mol TotEng Press Volume 
   10000    2.3828501   -2.5431805            0    1.0302011    5.7581302    3909.5609 
   11000    1.2566014   -3.8073049            0    -1.922874    5.7376445    3020.8473 
   12000      1.27136   -3.8256492            0   -1.9190861    6.0165842    2996.6606 
Loop time of 0.623019 on 48 procs for 2000 steps with 4000 atoms

Performance: 554718.357 tau/day, 3210.176 timesteps/s
99.7% CPU use with 48 MPI tasks x no OpenMP threads

MPI task timing breakdown:
Section |  min time  |  avg time  |  max time  |%varavg| %total
---------------------------------------------------------------
Pair    | 0.27067    | 0.30037    | 0.34247    |   2.4 | 48.21
Neigh   | 0.040068   | 0.043008   | 0.048609   |   0.7 |  6.90
Comm    | 0.18635    | 0.23031    | 0.26381    |   3.0 | 36.97
Output  | 6.5885e-05 | 6.7755e-05 | 8.2273e-05 |   0.0 |  0.01
Modify  | 0.040882   | 0.044573   | 0.047422   |   0.8 |  7.15
Other   |            | 0.004691   |            |       |  0.75

Nlocal:        83.3333 ave          90 max          75 min
Histogram: 3 2 3 1 10 6 8 5 6 4
Nghost:        1992.67 ave        2018 max        1966 min
Histogram: 2 1 2 3 13 14 6 6 0 1
Neighs:        12753.9 ave       14229 max       11317 min
Histogram: 3 3 6 4 9 6 8 4 2 3

Total # of neighbors = 612189
Ave neighs/atom = 153.04725
Neighbor list builds = 146
Dangerous builds = 12

#############################
# L I N E A R  Q U E N C H  #
#############################

# Define solid atoms. This closely follows ten Wolde  Ruiz-Montero and Frenkel  Faraday Discuss  1996  104  93-110
# Compute components of the per-atom q6 vector
compute q6 all orientorder/atom degrees 1 6 components 6 nnn NULL cutoff 1.3 # compute the Q6 parameter.
                                                                             # Use all neighbours within 1.3 unit cell.

# get number of connections
compute coord_number all coord/atom orientorder q6 0.5

# An atom is solid if it has 8 or more connections (of a possible 14)
variable is_solid atom c_coord_number>=8
group solid dynamic all var is_solid    # Must be dynamic to update
dynamic group solid defined

# do clustering
compute cluster solid cluster/atom 1.3 # Create a cluster where all atoms within are solid and max 1.3 units from another member

# define chunks one chunk per cluster
compute clus_chunks solid chunk/atom c_cluster nchunk every compress yes  # Says which atoms are in which chunk

# count the size of each chunk
compute size_chunks solid property/chunk clus_chunks count


# Find the maximum entry in the vector of chunk sizes
variable max_n equal max(c_size_chunks)


# Thermo style which includes this variable
# thermo_style custom step temp pe vol v_max_n

thermo ${N}  # Print the thermo information every 100 steps
thermo 1000  

# Reset the npt fix at a lower temperature (below freezing)
fix 1  all npt temp  ${temp} ${temp}  0.1  iso  5.68  5.68  0.5  mtk yes tchain  5  pchain  5
fix 1  all npt temp  0.45 ${temp}  0.1  iso  5.68  5.68  0.5  mtk yes tchain  5  pchain  5
fix 1  all npt temp  0.45 0.45  0.1  iso  5.68  5.68  0.5  mtk yes tchain  5  pchain  5

dump dmp2 all dcd ${N} traj.dcd
dump dmp2 all dcd 1000 traj.dcd


compute msd all msd com yes
variable twopoint equal c_msd[4]/6/(step*dt+1.0e-6)
fix 9 all vector 10 c_msd[4]
variable fit equal slope(f_9)/6/(10*dt)
thermo_style custom step temp pe c_msd[4] v_twopoint v_fit v_max_n

fix 1 all npt temp 1.25 ${temp} 0.1 iso 5.68 5.68 0.5 mtk yes tchain 5 pchain 5
fix 1 all npt temp 1.25 0.45 0.1 iso 5.68 5.68 0.5 mtk yes tchain 5 pchain 5
run 5000000 # 5000000  # Run for this many steps
Neighbor list info ...
  update every 1 steps, delay 10 steps, check yes
  max neighbors/atom: 2000, page size: 100000
  master list distance cutoff = 3.8
  ghost atom cutoff = 3.8
  binsize = 1.9, bins = 8 8 8
  4 neighbor lists, perpetual/occasional/extra = 1 3 0
  (1) pair lj/cut, perpetual
      attributes: half, newton on
      pair build: half/bin/atomonly/newton
      stencil: half/bin/3d
      bin: standard
  (2) compute orientorder/atom, occasional
      attributes: full, newton on
      pair build: full/bin/atomonly
      stencil: full/bin/3d
      bin: standard
  (3) compute coord/atom, occasional
      attributes: full, newton on
      pair build: full/bin/atomonly
      stencil: full/bin/3d
      bin: standard
  (4) compute cluster/atom, occasional
      attributes: full, newton on
      pair build: full/bin/atomonly
      stencil: full/bin/3d
      bin: standard
Per MPI rank memory allocation (min/avg/max) = 9.827 | 9.834 | 9.837 Mbytes
Step Temp PotEng c_msd[4] v_twopoint v_fit v_max_n 
   12000      1.27136   -3.8256492 1.0257164e-30 7.1230302e-33 8.3333333e+20            3 
   13000    1.2405204   -3.8184308    0.9438117 0.0060500747  0.080043184            2 
   14000    1.2236176   -3.8440781    1.9523991  0.011621423  0.083466031            3 
   15000    1.2365847   -3.8317873    2.9832992  0.016573884  0.083968885            2 
   16000    1.2346975    -3.795187    3.9557432  0.020602829  0.083923682            1 
   17000     1.261933   -3.8266684    4.9954283  0.024487393  0.083952621            1 
   18000     1.244995    -3.819815    6.0764962  0.028131926  0.084448491            1 
   19000     1.249832   -3.8099451    7.0666139   0.03099392  0.084792223            3 
   20000    1.2361451   -3.8349399     8.041028  0.033504283  0.084514024            2 
   21000    1.2405071   -3.7823508    9.0156403   0.03577635  0.084155071            3 
   22000    1.3023431   -3.8227168    9.8755931  0.037407549  0.083634182            1 
   23000    1.2573954   -3.8212943    10.928765  0.039596975  0.083240878            2 
   24000    1.2636785   -3.8431231    11.829153  0.041073446   0.08298326            3 
   25000    1.2697322   -3.8172226    12.818814  0.042729379  0.082688191            1 
   26000    1.2681687   -3.8523525    13.716743  0.043963918  0.082372819            2 
   27000    1.2445822   -3.7941379    14.742284  0.045500876  0.081993123            1 
   28000    1.2686537   -3.8360514    15.740608  0.046847048  0.081818449            1 
   29000    1.2334163   -3.8419205    16.638878  0.047812867  0.081677074            2 
   30000    1.2530235   -3.7967966    17.633336  0.048981489  0.081488762            1 
   31000    1.2342915   -3.8264114    18.508906  0.049755123  0.081316137            2 
   32000    1.2532968   -3.8344369    19.620905  0.051096106  0.081298266            1 
   33000    1.2394439   -3.8482201    20.677298  0.052215399   0.08139516            1 
   34000    1.2562436   -3.8628134    21.679627   0.05313634  0.081482998            2 
   35000     1.230567   -3.8329381    22.551566  0.053694205  0.081562792            2 
   36000    1.2233954   -3.8296518    23.545835  0.054504246  0.081571474            1 
   37000    1.2566906   -3.8035064    24.634244   0.05548253  0.081563678            1 
   38000    1.2505203   -3.8453124    25.513434  0.055950512   0.08154917            2 
   39000    1.2442384   -3.8295878    26.385978  0.056380293  0.081436335            2 
   40000    1.2494461   -3.8304262    27.168939  0.056601955  0.081314052            2 
   41000    1.2515219   -3.8350212    28.136603  0.057188217  0.081214263            2 
   42000    1.2501659   -3.8507781    29.100413  0.057738914   0.08106585            2 
   43000    1.2195931   -3.8434565    29.843924  0.057837061  0.080910458            3 
   44000    1.2134664    -3.840031    31.008095  0.058727451  0.080777921            2 
   45000    1.2679858   -3.8170011    31.606392  0.058530354  0.080634627            2 
   46000    1.2635067   -3.8152223    32.677464  0.059198304  0.080466866            2 
   47000    1.2317794   -3.8131878    33.984094  0.060255486  0.080368659            1 
   48000    1.2736652    -3.851732    34.727983  0.060291636  0.080278141            2 
   49000    1.2446278   -3.8887989     35.65524  0.060638163   0.08021301            2 
   50000    1.2267259   -3.8103374    36.881838   0.06146973  0.080217124            1 
   51000     1.224227   -3.7886453    38.033498  0.062146238  0.080242969            1 
   52000    1.2424098   -3.8471408    38.889762  0.062323336   0.08027523            1 
   53000    1.2495638    -3.834979    39.760468  0.062516459  0.080289852            1 
   54000    1.2570504   -3.7638451    40.929915  0.063163448  0.080292051            1 
   55000    1.2448813   -3.7985458    41.688167  0.063163889   0.08029643            3 
   56000    1.2335471   -3.8576429    42.043821  0.062565209  0.080228073            1 
   57000    1.2408957   -3.8556244    43.276197  0.063269293  0.080130103            1 
   58000    1.2453019   -3.8383951     44.19814  0.063503073  0.080061973            5 
   59000     1.237491   -3.8342694    45.629958  0.064449093  0.080047095            1 
   60000    1.2453096   -3.8278209    46.495641  0.064577279  0.080032012            3 
   61000    1.2464176   -3.8242014    47.536554  0.064940647  0.080047114            3 
   62000    1.2551486   -3.8656599    48.424724  0.065086994  0.080075737            4 
   63000    1.2223618   -3.8101559    49.630757  0.065649149   0.08009675            2 
   64000     1.222928   -3.8793391    50.412536  0.065641322  0.080130917            3 
   65000     1.235936   -3.8210542    51.551434  0.066091581  0.080202886            2 
   66000    1.2502567   -3.8480371    52.287547  0.066019629   0.08025665            1 
   67000    1.2340627    -3.816875    53.222844  0.066197566  0.080299099            4 
   68000    1.2184733   -3.8213325    54.311093  0.066557712  0.080306153            1 
   69000    1.2317604    -3.816808    55.079192  0.066520763  0.080293976            2 
   70000    1.2655494   -3.8418986    55.909319  0.066558713  0.080282101            1 
   71000     1.260047   -3.8239591    57.378291  0.067345411  0.080299507            2 
   72000    1.2290787   -3.8489817    58.059508  0.067198504  0.080332847            3 
   73000    1.2219884   -3.8083023    59.266214  0.067655495  0.080341529            3 
   74000    1.2348106    -3.829346      59.9902  0.067556531  0.080362948            1 
   75000    1.2436762    -3.783174    61.320638  0.068134042  0.080368976            1 
   76000    1.2345628   -3.8175597     62.25402  0.068260987  0.080397294            4 
   77000    1.2360953   -3.8241496    63.489539  0.068711622  0.080429205            1 
   78000    1.2343829   -3.8503659    64.042001   0.06842094  0.080456648            1 
   79000    1.2230292   -3.8523103    65.206489  0.068783215  0.080462691            3 
   80000    1.2267274   -3.8363805    66.153422  0.068909815  0.080483539            1 
   81000    1.2321129   -3.8089406    67.139541  0.069073602  0.080496349            3 
   82000    1.2175583   -3.8294651    68.357958  0.069469469  0.080530908            2 
   83000    1.2598225   -3.8269899    69.068503  0.069345886   0.08057239            3 
   84000    1.2569129   -3.8496997    70.117864  0.069561372  0.080589353            2 
   85000    1.2445709   -3.8486933    70.746568   0.06935938   0.08059945            1 
   86000     1.229576   -3.8305774    71.803543  0.069577076   0.08062309            2 
   87000    1.2158016   -3.8618006    72.852624  0.069782207   0.08064374            2 
   88000    1.2325928   -3.8320348    74.308902  0.070368278  0.080666893            3 
   89000    1.2618334   -3.8720059    74.686229  0.069930925  0.080699537            3 
   90000    1.2400216   -3.8392803    76.129494  0.070490272  0.080743165            2 
   91000    1.2430027   -3.8386521    76.995965  0.070509125  0.080771927            2 
   92000    1.2189028   -3.8194704    78.160723  0.070797756  0.080792872            2 
   93000    1.2504087   -3.8250127    79.104627  0.070882282  0.080814933            2 
   94000    1.2409249    -3.827491    79.650246   0.07061192  0.080817975            3 
   95000    1.2275837   -3.8644652    80.396331  0.070523097  0.080816053            2 
   96000     1.260447   -3.8574804    82.061374  0.071233831  0.080823178            2 
   97000    1.2486612   -3.8462485    82.747381  0.071088815  0.080848553            3 
   98000    1.2434528   -3.8420138    83.450492  0.070961303  0.080863383            3 
   99000     1.262521   -3.8112838    84.802908  0.071382919  0.080864239            2 
  100000     1.266224   -3.8353063    84.990086  0.070825072  0.080847698            2 
  101000     1.231435   -3.8540552    85.330514  0.070404715  0.080806316            2 
  102000     1.246372   -3.8736135    86.162143  0.070393907  0.080749369            1 
  103000    1.2605048   -3.8587647    87.275686  0.070611396  0.080687566            1 
  104000    1.2284209   -3.8269246    88.461697  0.070882769  0.080636198            8 
  105000    1.2561149    -3.858566     89.90654  0.071354397    0.0805968            2 
  106000    1.2490915    -3.867571    90.395791  0.071065873  0.080564565            1 
  107000    1.2123761   -3.8309543    91.259152  0.071074106  0.080539009            3 
  108000     1.235312   -3.8572608    92.268076  0.071194503  0.080507937            3 
  109000     1.229506   -3.7964649    93.247371  0.071290038  0.080468475            2 
  110000    1.2466028   -3.8206659    94.284216  0.071427436   0.08043045            1 
  111000    1.2268077    -3.879233    95.239926  0.071501446  0.080397737            6 
  112000    1.2478264   -3.8410885    96.616722  0.071887442  0.080371381            3 
  113000    1.2305515    -3.865032    97.137615  0.071635409  0.080350063            2 
  114000    1.2196599   -3.8282575    98.023222  0.071654402  0.080328747            2 
  115000    1.2189701   -3.8411814    98.988494  0.071730792  0.080294837            2 
  116000    1.2160817    -3.821456    100.08963   0.07190347  0.080272831            2 
  117000    1.2379755   -3.8387295    100.65231  0.071689679  0.080232823            3 
  118000    1.2455015   -3.8345624    101.33157   0.07156184   0.08019487            1 
  119000    1.2351723   -3.8226723    102.83273  0.072011716  0.080158624            3 
  120000    1.2306886   -3.8475298    103.96097  0.072195114  0.080132302            2 
  121000    1.2310315   -3.8575502    104.17952  0.071748983  0.080099505            3 
  122000    1.2387875    -3.865082    105.46142  0.072036485  0.080074179            1 
  123000    1.2647817   -3.8541592    106.40791  0.072092082  0.080047251            1 
  124000    1.2398044   -3.8366647    107.02372  0.071924544  0.080021834            1 
  125000    1.1945072    -3.870499    108.15211  0.072101405  0.079994527            1 
  126000    1.2204297    -3.847729    109.00566  0.072093693  0.079962398            1 
  127000    1.2309369   -3.8157824    110.32902  0.072394367  0.079932112            2 
  128000    1.2314715    -3.885657    111.22152  0.072409846   0.07990439            1 
  129000     1.225582   -3.8706684    111.47542  0.072012547  0.079880483            1 
  130000    1.2300999    -3.847044     112.5442  0.072143715  0.079857328            1 
  131000    1.2521403    -3.818184    114.47543   0.07282152  0.079841473            1 
  132000     1.207185   -3.8362917    115.30734   0.07279504  0.079849594            1 
  133000    1.2260972   -3.8244403    116.26874  0.072850089  0.079846229            4 
  134000     1.237524   -3.8471187    116.81235  0.072644495  0.079843867            1 
  135000    1.1964126   -3.8608109    117.41517  0.072478498  0.079836757            1 
  136000    1.2197321   -3.8304858    119.19018  0.073033199  0.079832208            1 
  137000    1.2319657   -3.8299122     121.0207  0.073613566  0.079845427            2 
  138000    1.2347561   -3.8450557    121.25203  0.073219826  0.079857962            2 
  139000    1.2277051   -3.8448384    122.53026  0.073459387  0.079858603            3 
  140000    1.2337718   -3.8712759    122.48552   0.07290805  0.079855896            2 
  141000    1.2391207   -3.8556912     123.8945  0.073223698  0.079851205            1 
  142000    1.2377115   -3.8355895    125.85466  0.073858371  0.079862203            2 
  143000    1.2157933   -3.8505816    126.31786  0.073611806  0.079868753            1 
  144000    1.2130326   -3.8652972    127.11795   0.07356363  0.079874091            4 
  145000    1.2316006   -3.8704814    127.99814   0.07356215  0.079874383            1 
  146000    1.2361837   -3.8249265    129.17556  0.073730339  0.079872078            1 
  147000    1.2094771   -3.8580403    129.92455  0.073653372  0.079868834            3 
  148000     1.250389   -3.8589993    131.26372  0.073909752  0.079869676            2 
  149000    1.2157158   -3.8613311    132.00136  0.073826264  0.079866707            2 
  150000    1.2340409   -3.8572863    132.54755  0.073637528  0.079870806            1 
  151000    1.2405385   -3.8314315    133.90271  0.073897744  0.079868063            1 
  152000     1.248116   -3.8204251    134.41644  0.073693221  0.079868897            1 
  153000    1.2309996   -3.8431621    135.67547  0.073897316   0.07986217            4 
  154000    1.2294715   -3.8974928    135.70823  0.073435187  0.079856385            4 
  155000    1.2324688   -3.8855564    137.09177  0.073705251   0.07984733            2 
  156000    1.2094068    -3.849153    138.06975  0.073755208  0.079836026            1 
  157000    1.2219083   -3.8675461    139.18342  0.073876548  0.079826902            2 
  158000    1.2306571   -3.8593756    139.86084  0.073766263  0.079813756            2 
  159000    1.2310429   -3.8698234    140.70173  0.073743045  0.079800582            3 
  160000    1.2445019   -3.8466552    142.50424  0.074220956  0.079791215            3 
  161000    1.2250218   -3.8506646    142.66367  0.073842479  0.079785759            1 
  162000    1.2452054   -3.8705083    142.78484  0.073448994  0.079777655            2 
  163000    1.2214072   -3.8426207    144.37002  0.073808805  0.079760235            1 
  164000    1.2200481   -3.8354401     145.8883  0.074130236  0.079749439            1 
  165000    1.2334504   -3.8716606     145.7151  0.073593486  0.079736509            2 
  166000    1.2324604   -3.8367679    146.80428  0.073696927  0.079712082            1 
  167000    1.2326872   -3.8738026    147.48767  0.073596644  0.079696236            1 
  168000    1.1973918   -3.8755564    148.60115  0.073710886  0.079670706            1 
  169000    1.1902295   -3.8420012    149.82067  0.073876072  0.079650878            2 
  170000    1.2218543   -3.8670814    150.19684  0.073625901  0.079627542            2 
  171000    1.2218423   -3.8709558    150.03209  0.073115055  0.079596288            2 
  172000     1.200138   -3.8375768    151.90787  0.073598773  0.079563249            1 
  173000    1.2270558    -3.858678    152.99119  0.073695178  0.079539377            3 
  174000    1.2078653   -3.8469878    154.02146  0.073765069  0.079515474            2 
  175000    1.2180608   -3.8336086    155.22929  0.073918708  0.079495891            3 
  176000    1.1991879   -3.8627071    155.25553  0.073511142  0.079471033            1 
  177000    1.2389174   -3.8894705    156.20233  0.073541587  0.079447793            2 
  178000    1.2274366   -3.8697857    157.68704  0.073823518  0.079426697            2 
  179000    1.2370572   -3.8482856    158.21156   0.07365529  0.079400576            1 
  180000    1.2445968   -3.8325173    160.41309  0.074265318   0.07937777            2 
  181000    1.2063185   -3.8482909    161.67296  0.074435065  0.079362268            2 
  182000    1.2072075   -3.8503426    161.23368  0.073824945  0.079339811            2 
  183000    1.2092715   -3.8564381    162.44161   0.07397159  0.079310272            2 
  184000    1.2175224    -3.840749    163.22852  0.073925961  0.079282613            3 
  185000    1.2245251   -3.8481651    163.57986  0.073684619  0.079256602            2 
  186000    1.2185948    -3.850779    165.15526   0.07399429  0.079236775            1 
  187000    1.2172442   -3.8369224    166.70124  0.074287541  0.079223653            4 
  188000     1.236718   -3.8941478    166.84788  0.073957395  0.079210679            1 
  189000    1.2451149   -3.8422959    169.29518  0.074645142  0.079198322            3 
  190000    1.2194864   -3.8603817    169.12271  0.074176626  0.079188177            2 
  191000    1.2170047   -3.8784516    170.41584  0.074352461  0.079177094            2 
  192000    1.2125527   -3.8965546    171.28754  0.074343551  0.079168467            1 
  193000    1.2264772   -3.8725815    173.11167  0.074745972  0.079165603            3 
  194000    1.2178526   -3.8365181    173.09583  0.074353879  0.079161573            1 
  195000    1.2540089   -3.8767203    174.58408  0.074608581  0.079156639            5 
  196000     1.206872     -3.88213    175.31039   0.07453673  0.079157197            3 
  197000    1.2310189   -3.8454549    176.58145  0.074696047  0.079159507            1 
  198000    1.2296051   -3.8549469    177.16739    0.0745654  0.079163311            2 
  199000    1.2066861   -3.8341958    178.79894   0.07487393  0.079159258            1 
  200000    1.2306104     -3.87898    178.57926  0.074408023  0.079154455            1 
  201000    1.2297519   -3.8689329    179.63495   0.07447552  0.079147631            2 
  202000    1.2015889   -3.8754598    180.09355   0.07429602  0.079138071            1 
  203000    1.1968826   -3.8667876    181.20063  0.074384496  0.079125144            1 
  204000     1.210275    -3.866273    180.94513  0.073915493  0.079108462            2 
  205000    1.2239103    -3.892647    181.64113  0.073837859  0.079087156            2 
  206000    1.2167521   -3.8619091    183.47672  0.074221975  0.079068184            1 
  207000    1.2295027   -3.8599728     184.1998  0.074154508  0.079044093            1 
  208000    1.2438444   -3.8783204    185.30688  0.074241536  0.079025352            3 
  209000    1.2386743   -3.8292423    186.03361  0.074176079  0.079003134            4 
  210000    1.2382008   -3.8391542    186.95643  0.074189061  0.078978459            1 
  211000    1.2032608   -3.8839988    187.14434  0.073911667  0.078949478            1 
  212000    1.2120044    -3.919591    187.87678  0.073850937   0.07892148            3 
  213000    1.2259471   -3.8599051    188.52688   0.07375856   0.07889019            1 
  214000    1.2430346   -3.8551447    188.86815  0.073546787  0.078857088            1 
  215000    1.2227832   -3.8673906     189.9159  0.073610814  0.078822349            1 
  216000    1.1929744   -3.8567978    191.78738  0.073992043  0.078791446            3 
  217000    1.2153884    -3.851466    193.09221  0.074152153  0.078759292            6 
  218000    1.2482377   -3.8633497    193.62167  0.074014399  0.078732422            2 
  219000    1.2154095   -3.8547977    194.56121  0.074033944  0.078706613            2 
  220000    1.2336313   -3.8574766    195.49636  0.074051652  0.078680896            1 
  221000    1.1909827    -3.885237    194.99065  0.073525886  0.078646766            2 
  222000    1.2012671   -3.8834245    196.52572  0.073770914  0.078615037            2 
  223000    1.2203032   -3.8500085    198.36518  0.074127498  0.078589779            2 
  224000    1.2161597   -3.8336963    199.36187  0.074167363   0.07856735            4 
  225000    1.2217133    -3.820328    201.11956  0.074488726  0.078546695            3 
  226000    1.2259474   -3.8361483    201.16397  0.074175505  0.078525669            2 
  227000    1.2100315    -3.920498    201.98154  0.074148878  0.078501529            3 
  228000    1.2232964   -3.8566334    202.06282  0.073853369   0.07847716            2 
  229000    1.2087148   -3.8576317    203.48363  0.074047901  0.078452392            2 
  230000    1.2232545   -3.8366986    204.89019  0.074235576  0.078427361            3 
  231000    1.2322589    -3.892672    204.99528  0.073952122  0.078396595            3 
  232000    1.2312227   -3.8760373    205.49885   0.07381424  0.078369559            1 
  233000    1.2170058   -3.8761594    206.63514  0.073903841  0.078341883            2 
  234000    1.2318613   -3.8268325    208.23622  0.074158197  0.078316349            2 
  235000    1.2404088   -3.8696194    208.99801   0.07411277  0.078292548            1 
  236000    1.1981527   -3.8585818    210.83905  0.074448816  0.078267582            2 
  237000    1.2157653   -3.8402426    210.72917  0.074096051  0.078244092            1 
  238000    1.2040306   -3.8544206    211.15897  0.073935215  0.078222251            3 
  239000    1.1931442   -3.8597077    211.94265  0.073899112  0.078195461            2 
  240000    1.2222137   -3.8669649    214.39088  0.074441279  0.078168404            1 
  241000    1.2014291   -3.8518655    214.39783  0.074134797  0.078144274            2 
  242000    1.2185109   -3.8497534     214.4148  0.073834299  0.078120854            3 
  243000    1.1871148   -3.9030762    214.83806  0.073675603   0.07809784            1 
  244000    1.2439865   -3.8660261    217.34566  0.074230074   0.07807724            2 
  245000    1.2199379   -3.8675691     218.6175  0.074359694  0.078057611            3 
  246000    1.2285452   -3.8890904    219.31038  0.074292135  0.078042806            3 
  247000    1.2199602    -3.876229    220.34414  0.074340127  0.078028432            2 
  248000    1.1903314   -3.8339354    220.83537  0.074205434  0.078012902            1 
  249000    1.2236315   -3.8547019    221.93155   0.07427428  0.077993223            4 
  250000    1.2458203   -3.9178626    222.62867  0.074209557  0.077974355            3 
  251000    1.2106571   -3.8853204    223.19678  0.074102518    0.0779584            2 
  252000    1.2196237   -3.8524452     226.1005  0.074768682  0.077948717            2 
  253000    1.1980425   -3.8710492    226.68003   0.07466404  0.077940821            2 
  254000    1.2040864   -3.9149739    225.71367  0.074053041  0.077931367            3 
  255000    1.2047814   -3.8797243    227.81127  0.074448128  0.077919177            1 
  256000    1.2257903   -3.8528817    228.67418  0.074438209  0.077909267            4 
  257000    1.2230673   -3.8608475    230.23447  0.074654497  0.077897602            1 
  258000    1.2379466   -3.8902226    229.86068  0.074244404  0.077886853            2 
  259000    1.1788594   -3.8695019    231.61327  0.074521643  0.077875839            1 
  260000     1.198667   -3.8982221    232.19942  0.074422891  0.077865589            2 
  261000     1.209807   -3.8224555    233.71835  0.074622716  0.077856866            1 
  262000    1.2130164   -3.8549244    235.00718   0.07474783  0.077848345            2 
  263000    1.2257337   -3.8967791    235.22314  0.074532047  0.077837573            2 
  264000    1.2149699   -3.8618752    236.92234  0.074786091  0.077828254            2 
  265000    1.2126254   -3.8681501    236.94605  0.074511337  0.077821666            3 
  266000    1.2049671   -3.8464966    238.95483  0.074860536  0.077814288            4 
  267000    1.1820659   -3.8839204     238.9197  0.074569196  0.077807007            3 
  268000    1.2130979    -3.867364     239.3668  0.074429975   0.07779585            1 
  269000    1.2043603    -3.868558    240.68558  0.074561828  0.077785626            2 
  270000    1.2072606    -3.873261     241.1975  0.074443673  0.077774253            2 
  271000    1.2148095   -3.8726732    241.32894  0.074209391  0.077762853            2 
  272000    1.2220969   -3.8724888     241.6894  0.074046998   0.07774824            2 
  273000    1.2405364    -3.864128    244.59522  0.074662766   0.07773376            2 
  274000    1.2035034   -3.8414557    244.95151  0.074498636  0.077719278            1 
  275000    1.1925249   -3.8531517    245.62927  0.074433112  0.077704232            4 
  276000     1.212805   -3.8779683    246.75836  0.074504335  0.077691274            2 
  277000    1.1957993   -3.8858269    247.00361  0.074309148  0.077673864            4 
  278000      1.20781   -3.8495415    249.04494  0.074653759  0.077656302            2 
  279000    1.2141636   -3.9049782    247.30445  0.073866324    0.0776381            2 
  280000    1.2174254   -3.9102143    248.79571  0.074046341  0.077620388            1 
  281000    1.2097161   -3.9022333    249.32373   0.07393942  0.077601757            1 
  282000    1.2086784   -3.8514001    251.34287  0.074273897  0.077583402            1 
  283000    1.2109958   -3.8626909     251.2522  0.073984747  0.077567128            4 
  284000    1.1940959   -3.8816212    252.50382  0.074091496  0.077547786            1 
  285000    1.1866551   -3.8545808    253.39252  0.074091379  0.077530858            2 
  286000    1.2136688   -3.8793479    254.23619  0.074078143  0.077512356            1 
  287000    1.1994412   -3.8580798    255.48759  0.074183387  0.077493466            3 
  288000    1.1903737   -3.8644332    255.45049  0.073915072  0.077468466            1 
  289000    1.2382241   -3.8715278    256.92294  0.074083892  0.077442262            1 
  290000    1.1936326   -3.8938764    256.82411   0.07380003  0.077416969            5 
  291000    1.2066054   -3.8951775    258.48263   0.07402137   0.07739396            5 
  292000    1.1945118   -3.8695857    258.08048  0.073653104   0.07737042            5 
  293000    1.1932507   -3.8846435    259.37536  0.073770011  0.077345855            4 
  294000    1.2200719   -3.8800501    259.49015  0.073551628  0.077325698            5 
  295000     1.211797   -3.8852523    261.37401  0.073834465   0.07730238            3 
  296000    1.1980876   -3.8551929    263.46305  0.074173156  0.077281586            2 
  297000    1.2206428   -3.8596692     263.6672  0.073980695  0.077261722            2 
  298000    1.2071279   -3.8664833    264.92427  0.074083968  0.077239478            2 
  299000    1.2249593   -3.8849201    266.26829  0.074210782  0.077223942            3 
  300000    1.2325992   -3.8525648    266.87282   0.07413134  0.077209885            1 
  301000    1.2128404   -3.8722878    268.27915  0.074274404  0.077193243            2 
  302000    1.1856918   -3.8506037    269.54903  0.074378871  0.077179009            6 
  303000     1.196669   -3.8845639    268.93003  0.073963154  0.077160173            4 
  304000    1.2118142   -3.8874207    269.97436   0.07400613  0.077138828            7 
  305000    1.2103629   -3.9033954    270.27146   0.07384466  0.077115962            2 
  306000    1.2209937   -3.8554394    271.86885  0.074038358  0.077096346            1 
  307000    1.2078296    -3.855509    273.40069  0.074212999  0.077078534            3 
  308000    1.1870031   -3.8803459    273.22699  0.073925052  0.077059403            2 
  309000    1.2061073   -3.8618044     276.2258  0.074494551  0.077044797            2 
  310000    1.1839018   -3.8538912    275.77027  0.074131794  0.077026874            1 
  311000    1.1989599   -3.9091852    275.40059  0.073794369  0.077010555            3 
  312000    1.2098638   -3.8940255    276.90261  0.073959031  0.076993328            2 
  313000    1.1950927    -3.881273    277.50732  0.073883738  0.076976647            1 
  314000    1.2059001   -3.8734176    278.51035  0.073914635  0.076959909            3 
  315000    1.2135765   -3.9081946    279.27484  0.073882231  0.076943866            3 
  316000    1.1964255   -3.8611551    281.62962  0.074269414  0.076931641            2 
  317000    1.2033797   -3.9140813    283.08227     0.074417  0.076920864            3 
  318000    1.1921282   -3.8752213    284.63103  0.074588845  0.076911686            2 
  319000    1.1863974   -3.8710878    284.76302  0.074389504  0.076900703            4 
  320000    1.2023585      -3.8729    286.30702   0.07455912  0.076891663            2 
  321000    1.1914824   -3.9021851    285.85265   0.07420889  0.076881734            3 
  322000    1.1775317   -3.9000672    287.56629  0.074421916   0.07687045            2 
  323000    1.1737391   -3.8911892    287.82869  0.074259207  0.076858671            2 
  324000    1.2049156   -3.8850095    288.81029  0.074282483  0.076845198            1 
  325000    1.1941169   -3.8787934    288.93211  0.074085157    0.0768297            2 
  326000    1.1928189   -3.8916473    289.66499  0.074045242  0.076813231            2 
  327000    1.1921393   -3.8871575    289.96119  0.073894288  0.076801133            1 
  328000    1.1705379   -3.9055662    291.63696  0.074094757  0.076786397            2 
  329000    1.2023367   -3.8888897    292.69488  0.074137508  0.076773834            2 
  330000    1.2235389    -3.862877    294.02154  0.074247864  0.076759022            3 
  331000    1.1918315   -3.8870882    293.90794  0.073994949   0.07674233            2 
  332000    1.2044558   -3.8903048    293.85549  0.073758909  0.076727135            2 
  333000    1.2058868   -3.9349011    294.23563   0.07363254  0.076707246            2 
  334000    1.1846409   -3.8697827    295.00113  0.073603077  0.076684059            2 
  335000    1.2360359   -3.8830763    295.60012  0.073532368  0.076661974            1 
  336000    1.2099947   -3.8985931    297.33989  0.073745013  0.076640856            2 
  337000    1.2095497   -3.8805547    296.58473  0.073339448  0.076618701            2 
  338000    1.1936921   -3.8611535    299.72088   0.07389568  0.076595041            2 
  339000     1.227475   -3.9175953    297.74101  0.073191005  0.076570206            2 
  340000     1.194132   -3.8677828    300.39196  0.073625479  0.076544813            3 
  341000    1.2016596   -3.8726345    301.99785  0.073802016  0.076517726            2 
  342000    1.1949637   -3.8723545    301.78129  0.073533452   0.07649317            3 
  343000    1.2001821   -3.8973536    301.90996  0.073350329  0.076466243            5 
  344000    1.2072245   -3.8719778    303.11711  0.073429533  0.076441578            2 
  345000    1.1967841   -3.8714937    304.23871  0.073487612   0.07641562            2 
  346000    1.2177421   -3.8934247     303.7634  0.073160741  0.076390072            3 
  347000    1.1986693   -3.8950683    305.32626   0.07332523  0.076366762            2 
  348000    1.2098498   -3.8594083    307.21847  0.073567641  0.076344708            1 
  349000    1.1854682   -3.8732821    308.50512  0.073664069    0.0763252            3 
  350000    1.1759856   -3.8841893    310.51862  0.073933005  0.076308704            4 
  351000    1.1917766    -3.914917    309.94673  0.073586592   0.07629429            2 
  352000    1.2019523   -3.8809969    310.92442     0.073609  0.076280423            1 
  353000    1.1890204   -3.9279785    313.77589  0.074073628  0.076270279            2 
  354000     1.189378   -3.9256128      315.146  0.074186911  0.076261515            3 
  355000     1.207247   -3.9026357    316.27541  0.074243055  0.076249333            1 
  356000    1.1925611    -3.889792    315.09531  0.073758265  0.076237627            4 
  357000    1.2047603   -3.9113225    315.74819   0.07370406  0.076227019            3 
  358000    1.1890883    -3.865843    317.83689   0.07398438  0.076213455            3 
  359000    1.2039844    -3.880367    317.77447  0.073763805  0.076201563            5 
  360000     1.185364   -3.8741734     318.6856  0.073769814  0.076189427            2 
  361000    1.1759986   -3.8928797    320.56102  0.073998388  0.076177124            3 
  362000    1.1909537   -3.9385147    319.65795  0.073586084   0.07616507            4 
  363000    1.1874214   -3.9155779    321.48614  0.073803063   0.07615222            1 
  364000    1.2113077   -3.9438692    322.57304  0.073849139  0.076137128            3 
  365000    1.1698046   -3.9038017    322.65615  0.073665787  0.076121855            1 
  366000    1.2066637   -3.9011859    324.06157  0.073784511  0.076107822            2 
  367000    1.1817803   -3.9277082    324.88246  0.073769859  0.076093804            2 
  368000    1.1853033   -3.8975083    326.24544  0.073878044   0.07608509            4 
  369000     1.178964   -3.9235731    327.83492  0.074036792  0.076072044            3 
  370000    1.1592214   -3.8970015     329.9502  0.074313108  0.076062798            1 
  371000    1.1996136   -3.8786547    330.87389   0.07432028  0.076054219            5 
  372000    1.1999517    -3.921315    330.41611  0.074017946  0.076044421            7 
  373000    1.1740776   -3.9034308    331.04527  0.073960068  0.076035144            3 
  374000    1.1948934   -3.9074462    332.91424  0.074178753   0.07602925            2 
  375000    1.1746035   -3.8701297    333.56574   0.07412572  0.076021182            4 
  376000    1.1914217   -3.8896736    334.48443  0.074132187   0.07601205            2 
  377000    1.1803279   -3.9150334    334.49788  0.073938524  0.076003569            1 
  378000    1.1949809   -3.9217877    334.22477  0.073682709  0.075991392            1 
  379000    1.2015657   -3.8996361    334.48466  0.073545439  0.075978537            2 
  380000    1.2167519   -3.8908029    336.47227  0.073787778   0.07596545            3 
  381000    1.2223269   -3.8772164    337.19049  0.073751201  0.075953601            2 
  382000    1.2103652   -3.9428704    336.98566  0.073513452  0.075940649            1 
  383000    1.2010034   -3.8701719    339.36904  0.073840088    0.0759288            2 
  384000     1.177254   -3.8915446     341.0338   0.07400907  0.075917441            2 
  385000    1.1871229   -3.9161918    339.07987   0.07339391  0.075904096            2 
  386000    1.1915737   -3.9150296    341.51506  0.073729504  0.075890572            1 
  387000    1.1746643   -3.9286553    341.76052  0.073591844  0.075878145            2 
  388000    1.1818476   -3.9089298    344.20319  0.073926802  0.075866831            3 
  389000    1.2017891   -3.9353975    345.32165  0.073976361  0.075855837            1 
  390000    1.1553735   -3.9206265    346.07381  0.073947395  0.075843475            2 
  391000    1.2001784   -3.9208845    346.86943  0.073927841  0.075834044            2 
  392000    1.1973812   -3.9124343    345.84742  0.073521986  0.075825663            1 
  393000    1.1902105   -3.8807371    348.71125  0.073942165  0.075815001            2 
  394000    1.1943758   -3.9054449    347.62669  0.073525104   0.07580281            5 
  395000    1.1821768   -3.9416805    348.63813  0.073552348   0.07578903            3 
  396000    1.1788147   -3.9113605    349.59659  0.073568306  0.075773522            3 
  397000    1.1821489   -3.9063678    351.56077  0.073795292  0.075762631            2 
  398000    1.1776725   -3.9031201    353.44226  0.074003823  0.075751741            3 
  399000    1.2023634    -3.875737    354.69837  0.074080696  0.075742867            2 
  400000    1.1967966   -3.8840382     354.8991  0.073937313  0.075734313            1 
  401000    1.2025434   -3.9049692    354.17722  0.073602913  0.075723102            3 
  402000     1.171998   -3.9051055    357.08684  0.074022977  0.075714219            2 
  403000    1.1906937   -3.9122096    358.12959   0.07405492  0.075706559            3 
  404000    1.2017768   -3.9230888    359.60051  0.074175022  0.075699618            4 
  405000    1.1769113   -3.9095721    359.57229  0.073986068  0.075693838            1 
  406000    1.1856115   -3.9306775    362.32877  0.074369615  0.075689562            1 
  407000    1.1549904   -3.9002521    362.07028  0.074133964  0.075686201            1 
  408000    1.1661148   -3.9332791    362.11052  0.073960481  0.075680503            1 
  409000    1.1871864   -3.9011234    363.22801  0.074007338  0.075675883            2 
  410000    1.1959147   -3.9103326    363.63485  0.073909522   0.07567183            4 
  411000    1.1880541   -3.8687521    366.17605  0.074244942  0.075665743            2 
  412000    1.1882866   -3.9469144     365.0553  0.073838045  0.075657626            2 
  413000    1.2067184   -3.9157243    366.56225  0.073963327  0.075649158            2 
  414000    1.1791511   -3.8990527    367.82883   0.07403962  0.075640616            3 
  415000    1.2022919   -3.8912226    368.37036  0.073969952  0.075632468            2 
  416000    1.1825563   -3.9120368    371.48692   0.07441645  0.075628203            2 
  417000    1.1750992   -3.9145259    369.86418  0.073913706  0.075623816            5 
  418000    1.1867202   -3.9092641    371.20063  0.074003316  0.075618322            2 
  419000    1.1872037   -3.8732179    373.87427  0.074358447  0.075613578            4 
  420000    1.1943299   -3.9100871    373.48675  0.074104514  0.075606807            2 
  421000     1.209423   -3.9254821    374.65912  0.074160554  0.075601039            2 
  422000    1.1632361   -3.9263022    376.79556  0.074406706  0.075597713            2 
  423000    1.1588167   -3.9069335    375.30262  0.073936687  0.075593772            1 
  424000    1.1768171   -3.9367251    376.19171  0.073937049  0.075590839            2 
  425000    1.1823896   -3.9130046    378.77286  0.074269189  0.075585465            2 
  426000    1.1586327   -3.9655458    377.60575   0.07386654  0.075579078            2 
  427000    1.1856065   -3.8903345    379.64065  0.074090681  0.075574215            4 
  428000      1.17966     -3.95734    379.64356  0.073918138  0.075569379            3 
  429000    1.1808927   -3.9008512    381.22499  0.074053029  0.075565314            1 
  430000    1.1895839   -3.9127985    381.97035  0.074025261  0.075559371            3 
  431000    1.1834831   -3.9494591    381.19757  0.073704094  0.075554178            5 
  432000    1.1807758   -3.9116604    383.55702  0.073988623  0.075548749            2 
  433000    1.1907522   -3.9240867    384.83567  0.074063831  0.075542676            2 
  434000    1.1624083   -3.9321276    385.66774  0.074052946  0.075537915            5 
  435000    1.1981591   -3.9330462    385.99091  0.073944619  0.075531338            1 
  436000    1.1588205   -3.9182194    386.55487  0.073882811  0.075523168            3 
  437000    1.1733409   -3.9236425    388.54666  0.074093566  0.075516268            2 
  438000    1.1734323   -3.9528804    387.06078    0.0736417  0.075510457            1 
  439000    1.1956332   -3.9343547    388.81484  0.073806918  0.075502979            2 
  440000     1.167032   -3.9608233      386.962  0.073288257  0.075492365            3 
  441000     1.136226   -3.9191084    388.63213  0.073437666  0.075481067            2 
  442000    1.1945895    -3.943305    391.80716  0.073870128  0.075471157            3 
  443000     1.175193   -3.9428112    390.58515  0.073473504  0.075460342            1 
  444000    1.1943227   -3.9329104    391.32969  0.073447765  0.075448244            2 
  445000    1.1951756   -3.9442727    392.02327  0.073412597  0.075435745            1 
  446000    1.1673957   -3.9009447    392.81683  0.073396269  0.075421704            2 
  447000    1.1939182   -3.8849475    391.35808  0.072960119  0.075405895            3 
  448000    1.1732375   -3.8953266    392.28642  0.072969943  0.075389054            2 
  449000    1.1705777   -3.9157859    394.15697  0.073154598   0.07537137            2 
  450000    1.1942408   -3.8925917     395.2669  0.073197574  0.075353625            2 
  451000    1.1883612    -3.950709    394.33817  0.072863667  0.075336164            1 
  452000    1.1934632   -3.9013763    396.82001  0.073160032  0.075318858            2 
  453000    1.1919322   -3.9225316    395.97023  0.072842205    0.0753006            3 
  454000    1.1989202   -3.9363752    397.22029  0.072911214  0.075281729            4 
  455000    1.1792312   -3.8897607    398.68432  0.073019107   0.07526359            2 
  456000    1.1659993    -3.910414    400.43879  0.073179603   0.07524656            4 
  457000    1.1766701    -3.919425    399.28541  0.072809156  0.075230545            2 
  458000    1.1602254   -3.9209026    401.54694   0.07306167  0.075213914            2 
  459000    1.1682664   -3.9294839    402.08614  0.073000388  0.075197461            2 
  460000    1.1854572   -3.9270888     403.4611  0.073090779  0.075179932            2 
  461000    1.1921036    -3.942679    403.02833     0.072854  0.075161994            2 
  462000    1.1816571   -3.9361882    403.73095  0.072823043  0.075145694            5 
  463000     1.154923   -3.9703662    405.69018   0.07301839  0.075129843            2 
  464000    1.1857561   -3.9373086    405.34104  0.072798319  0.075112033            3 
  465000    1.1862611   -3.9187194     406.8872  0.072918853  0.075094583            1 
  466000    1.1823939   -3.9229029     408.4768  0.073046638  0.075078603            2 
  467000    1.1733226   -3.9423744    408.78684  0.072945547  0.075063636            3 
  468000    1.1494479   -3.9276543    408.99298  0.072826384  0.075048503            2 
  469000     1.183104   -3.9402508    410.55378  0.072948432  0.075033424            4 
  470000    1.1964207   -3.9268721    411.84475  0.073022118  0.075019467            3 
  471000    1.1768241   -3.9448014    413.55909  0.073170398  0.075006115            1 
  472000    1.1761171   -3.9525598    414.78585  0.073231964  0.074991221            2 
  473000    1.1625001   -3.9398345    414.25508   0.07298363  0.074977532            3 
  474000    1.1830605   -3.9318572    416.79255  0.073275764  0.074964444            4 
  475000    1.1577023   -3.9087516    416.79197  0.073121398  0.074951329            1 
  476000    1.1860997   -3.9553447    418.03709  0.073185765  0.074939289            3 
  477000    1.1813245   -3.9360581    418.40248  0.073096171  0.074926848            4 
  478000    1.1676095   -3.9182677    419.36163  0.073110465  0.074914891            2 
  479000    1.1924018   -3.9207166    421.20937  0.073279291   0.07490309            3 
  480000    1.1705143   -3.9372868    421.36508  0.073153659  0.074890814            2 
  481000    1.1587042   -3.9297851    422.97229  0.073280022  0.074876291            1 
  482000    1.1675989   -3.9452779    422.28284  0.073008789  0.074862769            2 
  483000    1.1972913   -3.9372107    423.30715   0.07303436   0.07484774            1 
  484000    1.1638022   -3.9576899    423.93631  0.072991789  0.074833271            3 
  485000    1.1446842   -3.9192314    425.32644  0.073080144  0.074818801            6 
  486000    1.1993724   -3.9215795    426.38268  0.073110886  0.074804229            2 
  487000    1.1780354   -3.9391373     425.6557  0.072836362  0.074789147            2 
  488000    1.1622642   -3.9248545    426.56874  0.072843023  0.074773736            2 
  489000    1.1832713   -3.9412458     426.2672  0.072642672   0.07475905            1 
  490000    1.1568863   -3.9204203    429.51013  0.073045941   0.07474514            1 
  491000    1.1882109   -3.9334283       429.31  0.072863204  0.074730865            2 
  492000    1.1566206   -3.9290519    431.04683  0.073009287  0.074716978            2 
  493000     1.180297   -3.9068873    431.24966   0.07289548  0.074704284            2 
  494000    1.1836558   -3.9307361    432.57689   0.07297181  0.074689865            2 
  495000    1.1743467   -3.9384628    432.92062   0.07288226  0.074676132            1 
  496000    1.1559047   -3.9421392    433.34603  0.072806793  0.074661483            1 
  497000    1.1632968   -3.9250556       433.99  0.072768277  0.074645987            3 
  498000    1.1941471   -3.9526244    434.80321  0.072758234  0.074629886            1 
  499000    1.1823316   -3.9248966    435.63877  0.072751966  0.074614618            4 
  500000    1.1605998   -3.9405564    434.84824  0.072474707  0.074598893            6 
  501000     1.180554     -3.95576    436.82996  0.072659674  0.074583364            1 
  502000    1.1373123   -3.9484984    438.16802  0.072737055  0.074569313            2 
  503000    1.1736981   -3.9287085    439.34908  0.072788118  0.074555402            1 
  504000    1.1911786   -3.9464747    440.68982   0.07286538  0.074543633            3 
  505000    1.1659091   -3.9224324    442.79957  0.073069236  0.074531437            1 
  506000    1.1722696   -3.9368707    443.64229  0.073063618  0.074519714            5 
  507000     1.195548   -3.9492588    441.41584  0.072553557  0.074508569            2 
  508000    1.1763885   -3.9414532    444.45032  0.072908517  0.074495544            1 
  509000     1.187011   -3.9225813    443.82733  0.072663282   0.07448243            3 
  510000     1.183756   -3.9129132    447.74599   0.07316111  0.074470305            3 
  511000    1.1723513   -3.9218555    446.19949  0.072765736  0.074456882            1 
  512000    1.1436452   -3.9120222    448.66279  0.073024542  0.074443417            4 
  513000    1.1694334   -3.9596603    445.33709  0.072341958  0.074430386            4 
  514000    1.1647534   -3.9200614    448.46751  0.072708741  0.074415996            1 
  515000    1.1877203   -3.9414083    448.69663  0.072604633  0.074400708            4 
  516000    1.1697008   -3.9678242    448.93903  0.072503073  0.074386427            3 
  517000    1.1558565   -3.9304779    449.38156  0.072434165  0.074373262            2 
  518000    1.1971214   -3.9631332    451.14653   0.07257827  0.074359715            1 
  519000     1.165558   -3.9462772    451.71489  0.072529687  0.074346827            3 
  520000    1.1704374   -3.9359604    454.16285  0.072782509  0.074334227            2 
  521000    1.1594727   -3.9472783     454.3874  0.072678727  0.074322702            4 
  522000    1.1398557     -3.93464    458.27179  0.073159609  0.074311222            4 
  523000    1.1709412   -3.9799738    456.96771  0.072811937  0.074300702            2 
  524000    1.1773617   -3.9613874    458.24137  0.072875536  0.074289539            2 
  525000    1.1535971   -3.9514972    459.72421  0.072972096  0.074277956            3 
  526000    1.1638187   -3.9294563    460.15011  0.072900841  0.074267664            2 
  527000     1.143766   -3.9117514     461.6901  0.073006025  0.074256477            2 
  528000     1.164693   -3.9383136    461.67844  0.072865915    0.0742466            2 
  529000    1.1659202   -3.9341416    462.16404   0.07280467  0.074236813            1 
  530000    1.1450671   -3.9551812    461.85393  0.072618543  0.074226488            3 
  531000    1.1472494   -3.9399916    464.17217    0.0728456  0.074215584            3 
  532000    1.1869803   -3.9426137    465.02367  0.072842054  0.074204263            1 
  533000    1.1784982   -3.9581197    464.85079  0.072678361  0.074193424            3 
  534000    1.1798048   -3.9518811    468.33797   0.07308645  0.074183815            2 
  535000    1.1849166   -3.9316096    467.89732  0.072881203  0.074173135            2 
  536000    1.1676762   -3.9343599    468.24583  0.072799414  0.074163058            2 
  537000    1.1596764   -3.9654972    469.91031  0.072922146  0.074153412            2 
  538000    1.1612471   -3.9483027    467.31114  0.072384006  0.074142055            3 
  539000    1.1714741   -3.9798747    471.38555  0.072879647   0.07413225            2 
  540000    1.1917156   -3.9297956    472.51911  0.072919615  0.074122301            1 
  541000    1.1363703   -3.9221966    473.52416  0.072939643  0.074113125            2 
  542000    1.1750789   -3.9603076    475.16589  0.073057486  0.074105163            2 
  543000    1.1340295   -3.9171676    475.46656  0.072969084  0.074096572            3 
  544000    1.1675195   -3.9518941    475.53504  0.072845441  0.074089619            1 
  545000    1.1951395   -3.9152686    477.46762  0.073007282  0.074082281            2 
  546000    1.1548392   -3.9679637    476.92484  0.072790727  0.074074548            1 
  547000    1.1350465   -3.9204506    479.51495  0.073052248  0.074065666            1 
  548000    1.1691324   -3.9382891    480.43303  0.073058551  0.074057664            1 
  549000    1.1686476    -3.989302    479.04264  0.072714426   0.07404882            2 
  550000    1.1791096   -3.9593212    480.24798  0.072764845  0.074039798            3 
  551000    1.1753027    -3.919827    481.77633  0.072863933  0.074031054            2 
  552000    1.1723506   -3.9193369    482.32702  0.072815069  0.074021465            1 
  553000    1.1667524   -3.9247138    484.21583  0.072968028  0.074012488            1 
  554000    1.1865107   -3.9400943    483.75445  0.072766915   0.07400324            2 
  555000    1.1442001   -3.9406695     485.2032  0.072853333  0.073994622            1 
  556000    1.1697955   -3.9599486     487.0875  0.073004721  0.073986532            2 
  557000    1.1785504   -3.9347066    487.19447  0.072889657  0.073978327            2 
  558000     1.169669   -3.9396893    487.40877  0.072791034  0.073969537            2 
  559000    1.1508093   -3.9678488    488.17934  0.072775692  0.073960869            3 
  560000    1.1566721   -3.9549692    490.66169  0.073015133  0.073952953            2 
  561000    1.1459166   -3.9581907    488.66937  0.072589033   0.07394414            2 
  562000    1.1631375   -3.9424749    492.28632  0.072996191  0.073934832            2 
  563000    1.1723459   -3.9738419    492.95848  0.072966027  0.073926622            2 
  564000    1.1668908   -3.9539401    491.78498  0.072663265  0.073917285            1 
  565000    1.1650822   -3.9919089    492.16138  0.072590174  0.073907472            2 
  566000    1.1940494   -3.9391031    493.64859  0.072680888  0.073897549            1 
  567000    1.1777096   -3.9546069    494.36367    0.0726578   0.07388664            2 
  568000    1.1456196   -3.9393903     496.2441  0.072805766  0.073876756            2 
  569000    1.1668443   -3.9512219    493.82431   0.07232342  0.073867061            1 
  570000    1.1500972   -3.9299361    495.12773  0.072387095  0.073855955            3 
  571000    1.1459081   -3.9538169    496.39976  0.072445967  0.073843523            2 
  572000    1.1709109   -3.9384826    496.74593  0.072369745   0.07383081            2 
  573000    1.1603486   -3.9268647    498.55446  0.072506466  0.073818682            1 
  574000    1.1541693   -3.9527857    497.35719  0.072206329  0.073806815            2 
  575000    1.1692123   -3.9612082    497.87954  0.072156454  0.073792502            2 
  576000    1.1573605   -3.9461273    498.79239  0.072163251  0.073778792            3 
  577000    1.1898755   -3.9725593    500.44359  0.072276659  0.073763489            3 
  578000    1.1612907    -3.962497    498.97526  0.071939916   0.07374871            3 
  579000     1.156296   -3.9713864    501.17595  0.072132405  0.073733846            1 
  580000    1.1625984   -3.9706973    501.03791  0.071988205  0.073717938            2 
  581000    1.1536325   -3.9369547    500.99343  0.071857922  0.073702728            3 
  582000    1.1601674   -3.9584251    502.08827  0.071891219  0.073687351            2 
  583000    1.1788085   -3.9568214    500.67783  0.071566299  0.073672508            3 
  584000    1.1679845   -3.9591536     504.4841  0.071986886  0.073657499            3 
  585000    1.1710111   -3.9280257    504.84171  0.071914773  0.073643201            3 
  586000    1.1646148   -3.9755086    504.37995  0.071726387  0.073628843            2 
  587000    1.1624853   -3.9780281    504.99466  0.071691463  0.073614897            1 
  588000    1.1675651   -3.9535583    508.72966  0.072098874  0.073600513            1 
  589000    1.1293452   -3.9252945    510.03125  0.072160618  0.073587271            5 
  590000    1.1608007   -3.9555663    509.89411  0.072018942  0.073572896            1 
  591000    1.1784952    -3.968171    507.58402   0.07157135  0.073556074            3 
  592000    1.1810374   -3.9717332    508.17903   0.07153421  0.073540263            3 
  593000    1.1482992   -3.9795031    510.02631  0.071673174  0.073524647            1 
  594000    1.1531376   -3.9761867    509.52065  0.071481573  0.073508399            2 
  595000     1.141204   -3.9578098     512.0609  0.071717213  0.073492099            2 
  596000      1.18875   -3.9760895    510.85792   0.07142868  0.073474866            4 
  597000    1.1791955   -3.9578454    512.90715   0.07159508   0.07345754            2 
  598000    1.1665172   -3.9451762    513.61507  0.071574007  0.073440551            3 
  599000    1.1391598   -3.9492675    514.38286  0.071561332  0.073422628            2 
  600000    1.1797542   -3.9476852    515.15567  0.071549399  0.073405816            2 
  601000    1.1579878    -3.959152    516.59971  0.071630575  0.073387467            2 
  602000    1.1497863   -3.9515041    518.34948  0.071753804  0.073368484            2 
  603000    1.1295151   -3.9382529    516.46843  0.071374852  0.073349815            2 
  604000    1.1649125   -3.9738472    517.32738   0.07137519  0.073331665            3 
  605000    1.1480584   -3.9610805    516.96521  0.071207329  0.073312547            2 
  606000    1.1629745   -3.9526925     519.2925  0.071409859  0.073292843            2 
  607000    1.1383292   -3.9855109    517.87486  0.071097592  0.073273373            1 
  608000    1.1391534    -3.974674    521.28433  0.071447961  0.073254037            3 
  609000     1.155286   -3.9825511    519.29668  0.071058659   0.07323503            4 
  610000    1.1737617   -3.9530731    522.47282  0.071376068  0.073216852            2 
  611000    1.1169846   -3.9352816    524.17188  0.071490982  0.073199076            7 
  612000    1.1089609   -3.9339952    524.87567  0.071469999  0.073182713            2 
  613000    1.1413757   -3.9687322    524.90934  0.071357986  0.073165782            2 
  614000    1.1613714   -3.9669106     527.8269  0.071637745  0.073149512            3 
  615000    1.1317775   -3.9591023    525.78605  0.071244723  0.073134063            4 
  616000    1.1446803   -3.9468052    527.76726  0.071397086   0.07311756            6 
  617000    1.1594864   -3.9600127      529.948  0.071575905  0.073102115            4 
  618000    1.1573344   -3.9593951    529.37377  0.071382656  0.073086175            7 
  619000    1.1488332   -3.9452942    530.17103  0.071374668  0.073069823            2 
  620000     1.131978   -3.9738519    528.94588  0.071094876  0.073053883            1 
  621000     1.170422   -3.9496118    532.66386  0.071479315  0.073038017            1 
  622000    1.1586081   -3.9551932    532.90492  0.071396694  0.073021947            2 
  623000    1.1437208   -3.9649263    532.15169  0.071181338  0.073006709            1 
  624000    1.1606255   -3.9741114    535.39485   0.07150038  0.072990065            2 
  625000    1.1310776     -3.96921    533.80866  0.071174489   0.07297421            1 
  626000    1.1557842   -3.9918589    534.47287   0.07114921  0.072959124            2 
  627000    1.1556519   -3.9745888    538.56851  0.071580078  0.072943125            2 
  628000    1.1389859   -3.9817622    536.36364  0.071173519  0.072927715            1 
  629000    1.1390073   -3.9713144    541.52593  0.071744293  0.072912524            2 
  630000    1.1397307   -4.0090705    539.85664  0.071409608  0.072897101            1 
  631000    1.1521512    -3.944195    539.47181  0.071245617  0.072881921            3 
  632000    1.1306106   -3.9759781    539.68629  0.071161167  0.072866859            3 
  633000    1.1399464   -3.9306148    544.06706  0.071625468  0.072852059            3 
  634000    1.1619028    -3.992234    542.37544  0.071290147  0.072837466            2 
  635000    1.1612966   -3.9672476    543.76212  0.071359858  0.072822701            2 
  636000    1.1806896   -3.9596116    544.02067  0.071281534  0.072809172            2 
  637000    1.1787906   -3.9500613     547.8328  0.071668341  0.072795492            5 
  638000    1.1458945   -3.9506231    550.29359  0.071877428  0.072782226            3 
  639000    1.1618722    -3.947783    548.26043  0.071499795  0.072769064            2 
  640000    1.1585694   -3.9507975    549.16769  0.071506209  0.072756502            3 
  641000    1.1634328   -3.9362246    551.58399  0.071708787   0.07274429            3 
  642000    1.1449286   -3.9658838    549.59108  0.071338406   0.07273158            3 
  643000    1.1284071   -4.0216236    548.02704  0.071024759  0.072717929            4 
  644000    1.1373141   -4.0028775    552.53217  0.071497434  0.072704616            1 
  645000    1.1727266   -3.9427944    555.48476  0.071768056  0.072692661            5 
  646000    1.1625266   -3.9478012    554.24505  0.071497039  0.072679813            3 
  647000    1.1484215   -3.9923561    554.42812  0.071410113  0.072667562            2 
  648000     1.153931   -3.9621831    556.57431  0.071575914  0.072655793            1 
  649000    1.1526671   -3.9464557    556.95303  0.071514257  0.072645063            2 
  650000    1.1668308   -3.9539461    558.76263  0.071636234  0.072633261            2 
  651000    1.1362451   -3.9667907    559.14643  0.071575324  0.072622909            3 
  652000    1.1648809    -3.962232    559.63875   0.07152847    0.0726106            2 
  653000    1.1505209   -3.9850061    560.89326  0.071579027  0.072598513            1 
  654000    1.1518578   -3.9793861    559.98664  0.071354057  0.072586802            3 
  655000    1.1231882   -3.9789302    560.40842  0.071298781  0.072575133            3 
  656000    1.1263751   -3.9643407    561.07624  0.071274928  0.072563332            2 
  657000    1.1449071   -3.9409093     564.5431  0.071606177  0.072552028            4 
  658000    1.1353588    -3.964852    566.00358  0.071682318  0.072540495            1 
  659000    1.1624535   -3.9841759    564.70282  0.071409056  0.072528926            1 
  660000    1.1427992   -3.9861945    564.86362  0.071321165  0.072516916            4 
  661000    1.1538153   -3.9702101    567.40986  0.071534274  0.072503992            8 
  662000    1.1307038   -3.9821179    564.64963  0.071078755  0.072491106            2 
  663000    1.1619963   -3.9836309    565.86846  0.071124743  0.072478195            1 
  664000    1.1467839   -4.0047862    565.79307  0.071008166  0.072463775            2 
  665000    1.1342359   -4.0043016    568.16527  0.071198655  0.072450412            1 
  666000    1.1664954   -3.9586315    568.35042  0.071114918  0.072435024            1 
  667000    1.1140796   -3.9924337    568.20041  0.070989557  0.072419591            4 
  668000    1.1469793   -3.9514608    571.93077  0.071348649  0.072404994            1 
  669000    1.1672885   -3.9653537    571.00522  0.071126709  0.072391008            4 
  670000     1.134974   -3.9832701    571.84717   0.07112527  0.072376287            5 
  671000    1.1520262   -3.9817675    572.43702  0.071092526  0.072363128            3 
  672000    1.1480073   -4.0034489    569.93421  0.070676365  0.072348972            1 
  673000    1.1311323   -3.9710629    574.40171  0.071124531  0.072334435            2 
  674000     1.158797   -3.9573562     574.7621  0.071063563  0.072320692            2 
  675000    1.1534079   -3.9659352    574.02286  0.070867019  0.072307622            2 
  676000    1.1295864   -3.9804708    577.14712  0.071147328  0.072293692            2 
  677000     1.142623   -3.9660603    576.54859  0.070968561  0.072280354            1 
  678000    1.1583731   -3.9428082    579.91183  0.071277265  0.072266555            4 
  679000    1.1567473   -3.9819553    577.31964  0.070854153  0.072253054            2 
  680000    1.1267527   -3.9746116    580.67604  0.071161279  0.072240173            2 
  681000    1.1450484   -3.9467954    582.26064   0.07125069  0.072227525            3 
  682000    1.1902305   -3.9590758    581.03933  0.070996986  0.072214851            4 
  683000    1.1514406    -3.968935    584.29764  0.071290586  0.072203311            2 
  684000    1.1211654   -3.9805017    585.04309   0.07127718  0.072192196            2 
  685000    1.1398341   -3.9924259    586.61599  0.071364476  0.072182199            2 
  686000    1.1492108    -3.962921    586.61896  0.071260806  0.072172438            5 
  687000    1.1275254   -3.9820054    589.29954  0.071482234  0.072161962            2 
  688000    1.1211558   -3.9563678     588.9844  0.071340165  0.072152916            2 
  689000    1.1404052   -3.9484362    589.58984   0.07130985  0.072142805            2 
  690000    1.1287376   -3.9721076    589.33252  0.071175426  0.072132452            3 
  691000    1.1222946   -3.9938039    590.71146  0.071238719  0.072123039            2 
  692000    1.1221815   -4.0015238      591.971  0.071287452  0.072113327            2 
  693000    1.1413329    -4.005256    592.04085  0.071192983  0.072103653            2 
  694000    1.1520602   -3.9397374    593.40125  0.071253752  0.072094209            1 
  695000    1.1419275   -3.9532344    596.56878  0.071531029  0.072085504            7 
  696000    1.1441323   -3.9612895    596.14253  0.071377218  0.072076621            3 
  697000    1.1153343   -3.9981568    595.68121  0.071219656  0.072067195            1 
  698000    1.1477095   -3.9786771    599.31003  0.071550863  0.072057422            2 
  699000    1.1215505   -3.9444575    597.88114  0.071278152  0.072048046            2 
  700000    1.1332248    -3.987507    599.34183  0.071350218   0.07203946            3 
  701000     1.149835   -3.9811082    597.37428  0.071014536   0.07202974            1 
  702000    1.1499597    -4.017605    597.33294  0.070908469  0.072020316            2 
  703000     1.134544   -3.9718499    600.57898  0.071192387  0.072010616            2 
  704000    1.1556154   -3.9643034     603.0238  0.071380658  0.072002268            4 
  705000    1.1533865    -4.012959    601.97464  0.071155394   0.07199283            2 
  706000    1.1260602   -3.9797997    603.52022  0.071237042   0.07198325            2 
  707000    1.1466216   -3.9870601    604.27002   0.07122466   0.07197349            1 
  708000    1.1274953   -4.0134193    604.42976  0.071142863  0.071964576            5 
  709000    1.1441421   -3.9627534    606.75205  0.071315473  0.071955402            1 
  710000    1.1414133   -3.9926995    606.70925  0.071210006  0.071946219            5 
  711000    1.1365041   -3.9815593    606.78715  0.071118982  0.071936809            2 
  712000    1.1245167   -3.9712485    607.54526  0.071107825  0.071928382            2 
  713000    1.1341841   -3.9589381    608.27126  0.071092948  0.071919048            1 
  714000    1.1506568   -3.9944593    607.59928  0.070914948  0.071908695            3 
  715000    1.1397998   -3.9805135    612.43569  0.071379451  0.071899596            4 
  716000     1.113937    -3.983281    610.78478  0.071087614  0.071889662            3 
  717000    1.1007896   -3.9780458    612.51443  0.071189497  0.071880379            1 
  718000    1.1243762   -3.9744704    617.89644  0.071715001  0.071871331            3 
  719000    1.1487712   -3.9558821    612.90214   0.07103641  0.071862746            2 
  720000    1.1544655   -3.9915323    613.07371  0.070957605  0.071853065            1 
  721000    1.1401663   -3.9907026    613.05486  0.070857011  0.071842707            5 
  722000    1.1155661   -3.9738512     613.5014  0.070810411   0.07183186            3 
  723000    1.1579866   -3.9756451    617.04685  0.071121121   0.07182166            2 
  724000    1.1395879   -3.9832476    616.03532  0.070906459  0.071811099            2 
  725000    1.1148286   -3.9747529    619.74256  0.071234777   0.07180149            3 
  726000    1.1188646   -4.0290114    615.24468  0.070620372  0.071790318            3 
  727000    1.1175041   -3.9879356    619.04791  0.070959182  0.071780045            3 
  728000     1.129374   -3.9818172    620.08905  0.070980889  0.071768861            3 
  729000     1.131319   -3.9824972    622.20116  0.071124961    0.0717588            2 
  730000    1.1351581   -4.0161786    622.63451  0.071076998  0.071748318            3 
  731000    1.1399102   -3.9862873    625.22213  0.071274753  0.071739135            2 
  732000    1.1457934   -3.9954954     625.5541  0.071215175  0.071729995            3 
  733000     1.146219   -3.9636584    626.03215  0.071172369  0.071720595            3 
  734000    1.1443889   -4.0180428    623.83333  0.070825764  0.071711433            2 
  735000    1.1328078    -3.990984     623.5502  0.070697301  0.071700112            2 
  736000    1.1160205    -4.010442    623.69145  0.070617239  0.071690077            3 
  737000    1.1503455   -3.9983557    626.31803  0.070818411   0.07167912            3 
  738000    1.1438879   -4.0208282    626.93671  0.070792312   0.07166738            3 
  739000    1.1387373   -3.9984616    626.68233  0.070667832  0.071656512            2 
  740000    1.1187333   -3.9993288    628.37947  0.070763454  0.071646299            2 
  741000    1.1210449    -4.006274     629.3466  0.070776721  0.071635356            4 
  742000    1.1207143   -3.9677874    629.38165   0.07068527  0.071624534            3 
  743000    1.1046976   -3.9546788    631.57285  0.070835896  0.071613402            1 
  744000    1.1370317   -3.9877623    630.06973  0.070572327  0.071602336            1 
  745000    1.1439868   -4.0146175    629.70833  0.070437173  0.071591377            4 
  746000    1.1213889   -4.0293052    630.61473  0.070444005  0.071579814            2 
  747000    1.1230829   -3.9824179    632.04057  0.070508765  0.071567712            2 
  748000     1.112734   -3.9746768    633.70135  0.070599527  0.071555758            2 
  749000     1.139262   -4.0006204    633.99394  0.070537822  0.071543392            3 
  750000    1.1091757   -3.9845293    636.48683  0.070720759  0.071531584            7 
  751000    1.1187518   -3.9739613     635.4283  0.070509132  0.071519768            3 
  752000    1.1642511   -4.0128919    635.60014  0.070434412  0.071508057            2 
  753000    1.1241838   -4.0032754    635.86743  0.070370455  0.071497717            1 
  754000    1.1299964   -3.9740287    637.98594  0.070511266  0.071487545            1 
  755000    1.1251507   -4.0061272    638.43304  0.070467223    0.0714766            4 
  756000     1.141588   -3.9927155    640.10388  0.070558188  0.071466009            3 
  757000    1.1488341   -3.9976668    640.94497   0.07055757   0.07145574            3 
  758000    1.1337328   -3.9884456    645.08374  0.070919496   0.07144538            3 
  759000    1.1285075   -4.0110975    641.44032  0.070426035  0.071434376            1 
  760000    1.1152572   -4.0090423    643.67582  0.070578489  0.071423784            3 
  761000    1.1276446   -3.9714256    645.84616  0.070723408  0.071412859            1 
  762000    1.1602521    -3.997071    643.67991  0.070393691   0.07140252            3 
  763000    1.1349584   -4.0219771    645.31902  0.070480452  0.071391977            4 
  764000    1.1225107   -3.9694991    650.14552   0.07091465   0.07138208            2 
  765000    1.1375486   -3.9998169    647.25399  0.070506971  0.071371325            7 
  766000     1.130008   -3.9938757    647.67424  0.070460644  0.071360028            2 
  767000     1.124409    -3.985124     647.0912  0.070305432  0.071348162            5 
  768000    1.1569179   -3.9838591    649.75113   0.07050251  0.071335954            2 
  769000     1.102291   -3.9840364    649.45262  0.070378481  0.071324508            3 
  770000    1.1039823   -3.9685718    650.03166  0.070349747  0.071313202            3 
  771000     1.143388   -4.0033556    650.74585  0.070335695  0.071301857            2 
  772000    1.1155224    -4.015025    653.74414  0.070568236  0.071290897            2 
  773000    1.1223655   -4.0102379    655.22247  0.070636317  0.071279762            9 
  774000    1.1393213   -4.0304134    650.39527   0.07002533  0.071269264            2 
  775000    1.1515006   -4.0251419    654.35894  0.070361176  0.071259228            2 
  776000    1.1105974   -3.9909384    654.66369  0.070303231  0.071248743            2 
  777000     1.126174   -4.0335611    656.45767  0.070405156  0.071238383            3 
  778000     1.112296   -4.0228009    657.03004  0.070375968  0.071228537            1 
  779000    1.1412674   -3.9935212     660.4428  0.070650706  0.071218909            2 
  780000    1.1415593   -4.0050664    659.69843  0.070480601  0.071209104            2 
  781000    1.1144336   -4.0389074    660.82759   0.07051084  0.071199721            2 
  782000    1.1226356   -3.9989184    661.44874  0.070486865   0.07119105            3 
  783000    1.1487222   -4.0178166    662.76689  0.070537132  0.071180722            3 
  784000    1.1407463   -4.0057916    663.12786   0.07048553  0.071171057           11 
  785000    1.1291904   -4.0133555     663.1315  0.070396125   0.07116097            3 
  786000    1.0942614   -3.9734182    665.37576  0.070544504  0.071151048            3 
  787000    1.1356087   -4.0013415     668.1593  0.070749609  0.071141133            4 
  788000    1.1283067   -3.9964983    667.50095  0.070590202  0.071131819            3 
  789000    1.1227264   -4.0456594    666.94692  0.070442218  0.071122192            3 
  790000     1.111145    -4.003866    668.14415  0.070479341    0.0711132            3 
  791000     1.094455   -3.9858222    672.01571  0.070798115  0.071103689            2 
  792000    1.1242785   -3.9685595    671.38695  0.070642567  0.071094543            2 
  793000    1.1424002    -3.989626    671.07204  0.070520391  0.071085344            1 
  794000     1.140425   -3.9854066    671.71071  0.070498605  0.071075886            2 
  795000    1.1477487   -3.9933964    672.20256  0.070461485  0.071066598            2 
  796000     1.136924    -4.021123    669.95067  0.070137214  0.071056182            3 
  797000    1.1125317   -3.9920161    671.41492  0.070202313  0.071045787            2 
  798000    1.1216805    -4.006039    673.88091  0.070371857  0.071035835            3 
  799000    1.1229075   -3.9868377    673.90688  0.070286492  0.071026494            2 
  800000    1.1084278   -4.0210443    673.07205  0.070111672  0.071015883            2 
  801000    1.1209143   -4.0148586    675.61576  0.070288781  0.071005788            2 
  802000    1.1435352    -4.015242    675.22293  0.070160321   0.07099597            4 
  803000    1.1173514   -4.0326411    677.65111  0.070324939  0.070985757            1 
  804000     1.123931   -4.0314504    676.39647  0.070107429  0.070974881            3 
  805000    1.1256835   -3.9945092    677.74386   0.07015982  0.070963911            1 
  806000    1.1348054   -3.9951922    678.21166  0.070121139  0.070952399            2 
  807000    1.1261925   -4.0165187    680.08595  0.070227793  0.070941841            1 
  808000    1.1052509   -4.0342767    682.16157  0.070354948  0.070931731            1 
  809000    1.1419982   -3.9983869     681.2866  0.070177853  0.070920614            2 
  810000      1.14538    -4.008353    680.05746  0.069964759  0.070909526            1 
  811000    1.1003803    -4.013877    683.12917  0.070194119  0.070898527            2 
  812000    1.1093376   -4.0198212    681.26359  0.069916214  0.070886083            4 
  813000    1.1239325   -4.0044863    682.74654   0.06998222  0.070873672            1 
  814000    1.1137731    -4.023421    680.67813  0.069684493  0.070861253            4 
  815000    1.1320027   -4.0029231    684.31464  0.069970822   0.07084832            3 
  816000    1.1192559   -4.0113072    679.69529  0.069413326  0.070835505            2 
  817000    1.1399093   -4.0306637    681.79103  0.069542129  0.070823107            3 
  818000    1.1007843   -3.9976354    687.50925  0.070039655  0.070811561            3 
  819000    1.1083196   -4.0015228    684.19252  0.069616659  0.070800069            1 
  820000    1.1204232   -4.0022956    688.47095   0.06996656  0.070788851            3 
  821000    1.1164498    -4.017127    688.88724  0.069923594  0.070776812            6 
  822000    1.0931462   -4.0134427    687.04968  0.069652238  0.070765037            6 
  823000    1.1022381   -4.0369141    686.99177  0.069561743  0.070753048            3 
  824000    1.1147033   -3.9810805    693.77999  0.070163834  0.070741258            1 
  825000    1.1290644   -4.0023539    689.97822  0.069694769  0.070730397            3 
  826000    1.1248648   -4.0096103    693.89985  0.070006038   0.07071938            1 
  827000     1.107836   -4.0116529    692.34961  0.069765176  0.070708625            6 
  828000    1.1207144   -3.9998289    694.48024  0.069895354  0.070697829            2 
  829000    1.1489908   -4.0047018    693.79836  0.069742497  0.070687032            2 
  830000    1.1242382   -3.9971141    693.42359  0.069620842  0.070675072            2 
  831000    1.1051708   -4.0404912    695.51687  0.069746979  0.070662519            2 
  832000    1.1164812   -4.0351072    696.57784  0.069769415  0.070650697            2 
  833000    1.1001561    -4.027281    695.69829  0.069597669  0.070638631            3 
  834000    1.1083576   -4.0186599    697.65869  0.069710101  0.070627174            2 
  835000    1.1201532   -4.0002131    698.62595  0.069723149   0.07061579            2 
  836000    1.1247211   -4.0225927    699.34329  0.069711253  0.070603346            2 
  837000    1.1259186   -3.9868453    700.19679  0.069712942  0.070591167            3 
  838000    1.1500518   -4.0421829    700.41972  0.069651921  0.070578979            2 
  839000    1.1251417   -3.9830714    698.62593  0.069390736  0.070566447            2 
  840000    1.1171757   -4.0105889    699.56139  0.069400932  0.070553655            5 
  841000    1.1086738   -4.0089653    701.17911  0.069478707   0.07054105            2 
  842000     1.131498   -4.0356005    702.10933  0.069488255  0.070529094            4 
  843000    1.0955394   -4.0209914    704.78403  0.069670229  0.070516417            3 
  844000    1.1125297   -3.9971138    705.62593  0.069670807  0.070503987            4 
  845000    1.1095476   -4.0050127    707.03458  0.069727276  0.070492455            2 
  846000    1.1331243    -4.009958    708.29421  0.069768933  0.070480665            1 
  847000    1.1065262     -3.97668    706.12098  0.069472745  0.070468305            4 
  848000    1.0959304    -4.000055    704.53737  0.069235198  0.070454907            1 
  849000    1.1077072   -4.0442305    704.60282  0.069160073  0.070441358            2 
  850000    1.1166567   -4.0489185    707.72494  0.069384798  0.070427901            6 
  851000    1.1374408   -4.0873698    707.81642  0.069312222  0.070415356            1 
  852000    1.1398851   -4.0426922    706.65659  0.069117429   0.07040161            3 
  853000    1.1234054   -4.0305439    709.09063  0.069274192  0.070388441            3 
  854000    1.1267802   -4.0174393    712.15783  0.069492372  0.070375179            2 
  855000    1.1026459   -4.0475107    709.82088  0.069183322  0.070362832            9 
  856000     1.096854   -4.0438537    710.81074  0.069198865  0.070349822            5 
  857000    1.1177752   -4.0011009    713.48813  0.069378465   0.07033726            1 
  858000    1.1074632    -3.971317    716.74722  0.069614144  0.070324929            7 
  859000    1.1206138   -4.0160807    717.36068  0.069592616  0.070312953            2 
  860000    1.1004391   -4.0247749    714.52642  0.069237056  0.070300577            4 
  861000    1.1224131   -4.0396879    715.06721  0.069208983  0.070287646            2 
  862000    1.1090063   -4.0284317    716.59374  0.069276271  0.070273741            2 
  863000    1.1058039   -4.0094241     716.6282  0.069199324  0.070260612            2 
  864000    1.1159523    -4.040219    716.48941  0.069105846  0.070247426            1 
  865000    1.1191698   -3.9855863    719.45638   0.06931179  0.070235069            3 
  866000    1.1209951   -4.0370243    718.62656  0.069151901  0.070221836            3 
  867000    1.1074915   -4.0580282    719.98351  0.069202568  0.070209183            2 
  868000    1.1152077   -4.0519913     718.5097  0.068981346  0.070195972            2 
  869000    1.0946196    -4.025826    719.37716  0.068985152  0.070182632            4 
  870000    1.1235287   -4.0043378    722.08394  0.069165129  0.070169273            4 
  871000    1.1152494   -4.0425977    719.31144   0.06882046  0.070156431            4 
  872000    1.1132407   -4.0549625    722.70828  0.069066158  0.070143262            1 
  873000    1.1176097   -4.0443915    719.99262  0.068727818  0.070129447            4 
  874000    1.1087484   -3.9927943    723.74511  0.069006971  0.070116296            3 
  875000    1.1317738   -4.0226853    725.67974  0.069112356   0.07010356            1 
  876000    1.1156584   -4.0421133    723.96561  0.068870397   0.07009037            2 
  877000    1.1177183   -4.0166093    729.76719  0.069343139  0.070077124            4 
  878000    1.0993603   -4.0337213    728.37482  0.069132006  0.070064557            3 
  879000    1.1005125     -4.00984    730.68004  0.069271903  0.070051421            2 
  880000    1.1360443   -4.0064982    729.18655  0.069051756  0.070038437            2 
  881000    1.1020344   -4.0207217    729.52902  0.069005772  0.070025514            2 
  882000    1.1046002   -4.0639336    728.31759  0.068813076   0.07001227            4 
  883000    1.0921491   -3.9996432    731.87585  0.069070956  0.069999117            3 
  884000     1.105273    -4.031082    729.73039  0.068790572  0.069985608            4 
  885000    1.1067227   -4.0260162    733.57577  0.069074931  0.069972441            3 
  886000     1.110802   -4.0556709    731.05297  0.068759685  0.069959912            2 
  887000    1.1539506   -4.0590685    732.92594  0.068858131  0.069946587            2 
  888000       1.1037    -3.994766    737.31227  0.069192218  0.069933943            2 
  889000    1.1212366   -4.0104881    737.26899  0.069110329  0.069921995            2 
  890000      1.10823   -4.0386043    739.42097  0.069234173  0.069909995            4 
  891000    1.1063682   -4.0554121    739.04425  0.069121235  0.069897698            1 
  892000    1.0909679   -3.9971967    741.57099  0.069279801  0.069885255            3 
  893000    1.1187439   -4.0154969    739.70532  0.069028119  0.069873571            2 
  894000    1.1264541   -4.0318932    739.41107  0.068923478  0.069862116            2 
  895000    1.1043023   -4.0245296    741.58077  0.069048489  0.069850821            4 
  896000    1.1200177   -4.0310938    739.98615  0.068823117  0.069838274            3 
  897000    1.0757436   -4.0713389    737.41092  0.068507146    0.0698264            2 
  898000    1.1016199   -4.0338753    744.73322  0.069110358  0.069814196            2 
  899000    1.1085122   -4.0194723    744.15557  0.068979938  0.069802549            2 
  900000    1.0901504   -4.0405403    746.06441  0.069080038  0.069791283            3 
  901000    1.1135029   -4.0174953    749.96216   0.06936387  0.069779795            4 
  902000    1.1233208   -3.9927799    752.26926  0.069500116  0.069768799            1 
  903000    1.1199715   -4.0542629    749.77788  0.069193234  0.069758246            3 
  904000    1.1051696   -4.0497195    747.28357  0.068886759  0.069747133            2 
  905000    1.0801928   -4.0558186    749.14362  0.068981917  0.069735546            2 
  906000    1.0935297   -4.0180739    751.76485  0.069146877  0.069723693            4 
  907000     1.078998   -3.9961879    750.56585  0.068960478  0.069712249            2 
  908000    1.1126166   -4.0280837    751.33133  0.068954784  0.069700996            2 
  909000    1.0880379   -3.9858722    753.17063  0.069047546   0.06969006            1 
  910000    1.1085123   -4.0378495    753.95951  0.069043911  0.069679311            1 
  911000    1.1368946   -4.0001281    758.62005  0.069394443  0.069668424            5 
  912000    1.1102208   -4.0319032    756.88647  0.069159948  0.069657668            2 
  913000    1.1042662   -4.0530051    754.76641  0.068890691  0.069646692            2 
  914000    1.1053658   -4.0519049    754.72021  0.068811106  0.069636281            2 
  915000    1.1162182    -4.009725    758.77716  0.069105388  0.069625362            1 
  916000    1.0915775   -4.0396431    756.77348   0.06884766  0.069615344            1 
  917000    1.1155571   -4.0384058    757.43366  0.068832575  0.069604931            3 
  918000    1.1355434   -4.0216185    760.87812  0.069070273  0.069594744            6 
  919000    1.1001582   -4.0468564    758.82966  0.068809363   0.06958439            3 
  920000    1.0948888   -4.0587725    757.97968   0.06865758  0.069573612            3 
  921000    1.0861186   -4.0500521    763.26236  0.069061017  0.069562696            2 
  922000     1.084293   -4.0201342    764.25405  0.069075745   0.06955183            2 
  923000     1.100651   -4.0207479    766.16167  0.069173138   0.06954121            3 
  924000    1.1138722   -4.0529373    764.57898  0.068955536  0.069531353            2 
  925000     1.108473   -4.0550075    766.13541  0.069021208  0.069521404            3 
  926000    1.0788052   -4.0272448    766.76484  0.069003315   0.06951184            3 
  927000    1.1073441   -4.0552158    766.01117  0.068861126  0.069502001            3 
  928000    1.1101508   -4.0179321    771.56897  0.069286007  0.069491869            2 
  929000     1.100382   -4.0511932     770.7638    0.0691392  0.069481821            4 
  930000    1.0980518   -4.0663423    769.82845  0.068981044  0.069471859            4 
  931000    1.1272766   -4.0293646    767.32922  0.068683245  0.069462351            2 
  932000    1.1318643    -4.029606    770.92235  0.068930825   0.06945264            2 
  933000     1.104445   -4.0221234    769.43194  0.068723825  0.069442323            3 
  934000    1.1179362   -4.0125602    776.03381  0.069239277  0.069432586            2 
  935000    1.1245323   -4.0113605    774.16557  0.068998714  0.069423048            3 
  936000    1.0957562   -4.0590709    772.98128  0.068819559  0.069413241            2 
  937000    1.1089679    -4.047653    774.46596  0.068878153  0.069403304            5 
  938000    1.0965762   -4.0044805    776.92687  0.069023354  0.069394298            2 
  939000    1.0792379    -4.048028    775.17158   0.06879407  0.069384672            2 
  940000    1.0878708   -4.0402139    777.31985  0.068911334  0.069375018            2 
  941000    1.1092299   -4.0562501    780.14959  0.069088699  0.069365422            2 
  942000    1.1228244   -4.0605313    780.53867  0.069049777  0.069356951            1 
  943000    1.1033245   -4.0388213    781.43977  0.069056183  0.069348266            4 
  944000    1.1116403    -4.038416    781.80094  0.069014914   0.06934034            4 
  945000    1.0885757   -4.0105139    788.38111  0.069522143  0.069332303            3 
  946000    1.0953728   -4.0390527    782.86157  0.068962436  0.069324465            2 
  947000    1.1051618   -4.0655208    783.36469  0.068933887    0.0693153            2 
  948000    1.0835346   -4.0068006    783.95996  0.068913499  0.069305466            2 
  949000    1.1053902   -4.0725489    782.44479  0.068707832   0.06929514            3 
  950000    1.0695291   -4.0571916    782.47246  0.068637935  0.069285669            2 
  951000    1.1004804   -4.0178776    783.92006   0.06869261  0.069275773            3 
  952000     1.107033   -4.0518402    784.15093  0.068640663  0.069266339            2 
  953000    1.0682484   -4.0524173    788.20751  0.068923357  0.069256955            3 
  954000    1.0738665   -4.0664901    785.12762  0.068582077  0.069247241            3 
  955000     1.107712   -4.0564655    786.18665  0.068602675  0.069236913            2 
  956000    1.1097381   -4.0218683    787.33576  0.068631081  0.069227565            3 
  957000    1.1104914   -4.0279586    792.63041  0.069020412  0.069218203            3 
  958000    1.0982211   -4.0475118     791.5947  0.068858272  0.069207811            3 
  959000    1.0908116   -4.0265879    794.80164  0.069065141  0.069198293            3 
  960000     1.090576   -4.0552926    790.05246  0.068580942  0.069188231            1 
  961000    1.1188729   -4.0732542    794.96793  0.068935825  0.069178559            3 
  962000    1.0951533   -4.0443421    793.37351  0.068726049  0.069168831            2 
  963000    1.0921818   -4.0498939    794.32347  0.068736887    0.0691594            4 
  964000     1.094143   -4.0216174    795.58024  0.068774226  0.069149665            2 
  965000    1.0629451   -4.0787833    792.92462  0.068473628  0.069139763            3 
  966000    1.0822558   -4.0535522    795.50257  0.068625135  0.069129457            3 
  967000    1.0888934   -4.0273025    796.93561  0.068677664  0.069119205            3 
  968000    1.0919169    -4.038029    797.61106  0.068664864  0.069108047            4 
  969000    1.0827361   -4.0596978    795.61139  0.068422032  0.069097107            3 
  970000    1.1260961   -4.0462098    796.65088  0.068440797  0.069086177            7 
  971000    1.0974091   -4.0090623    800.97242  0.068741197  0.069075339            2 
  972000    1.0849175   -4.0634912    796.86749  0.068318543  0.069064992            3 
  973000    1.1001062   -4.0465459    800.53272  0.068562241  0.069054182            3 
  974000    1.0981332   -4.0628154    800.47931  0.068487279  0.069043035            2 
  975000    1.1188377   -4.0417103    801.71673  0.068522798  0.069032588            1 
  976000    1.0931354   -4.0664767    800.22602  0.068325309  0.069021526            1 
  977000    1.1215124    -4.051571    804.11792  0.068587335  0.069010333            2 
  978000    1.0969463   -4.0566654    803.51862   0.06846614  0.068999678            7 
  979000    1.0989531   -4.0671521    803.79509  0.068419739    0.0689899            2 
  980000    1.0552767   -4.0278645     804.8584   0.06844034  0.068979119            4 
  981000    1.0902591   -4.0705338    803.82644  0.068282912  0.068968387            3 
  982000    1.1039742   -4.0547496    805.66063  0.068369029   0.06895804            1 
  983000     1.067024   -4.0692085    806.13342  0.068339558  0.068947064            2 
  984000     1.078514   -4.0473614    807.82742  0.068413569  0.068936508            3 
  985000    1.1209469   -4.0390817    805.56735  0.068152906  0.068925876            2 
  986000    1.0831558   -4.0278134    810.90276  0.068534716  0.068915617            4 
  987000    1.0966386   -4.0307767    811.69174  0.068531893  0.068905642            2 
  988000    1.1265705    -4.055244     811.1391  0.068415916  0.068895982            1 
  989000    1.0928495   -4.0489284    813.68385   0.06856116  0.068885905            4 
  990000     1.093805   -4.0634675    811.88987  0.068340898  0.068875902            2 
  991000    1.0974056   -4.0475693     811.2853  0.068221098  0.068865854            2 
  992000    1.1165819   -4.0449668     812.7014  0.068271287  0.068856005            4 
  993000    1.0745827   -4.0550203    815.62436  0.068447831  0.068846462            2 
  994000    1.0956496   -4.0613441    815.55452  0.068373115  0.068837118            2 
  995000    1.1044167   -4.0926588    813.95824  0.068170707  0.068826905            6 
  996000    1.0823223   -4.0487768    818.38831  0.068472918  0.068816969            2 
  997000    1.0887517   -4.0355922    815.71757  0.068181007  0.068807516            2 
  998000    1.1083204   -4.0503871    816.15732  0.068149408  0.068796782            1 
  999000     1.088839   -4.0570944    816.19188  0.068084074  0.068786549            3 
 1000000    1.0843449   -4.0457513    820.38993  0.068365827  0.068776085            2 
 1001000    1.0887105    -4.042775    818.38664  0.068130756  0.068765812            4 
 1002000     1.092201   -4.0757257    817.01992  0.067949095  0.068755234            3 
 1003000    1.0846124   -4.0425271    820.47676  0.068168558  0.068744556            1 
 1004000    1.0793429   -4.0701015    819.28057  0.068001375  0.068733763            6 
 1005000    1.1091824   -4.0262317    819.97705  0.067991463   0.06872314            1 
 1006000    1.1282255   -4.0699683    824.57864  0.068305056  0.068712523            3 
 1007000     1.099391   -4.0531726    823.65906  0.068161127  0.068702321            3 
 1008000    1.0877726   -4.0747381    823.18739  0.068054513  0.068691095            2 
 1009000    1.0898368   -4.0982236    823.37707  0.068002731  0.068680261            3 
 1010000     1.108573   -4.0812966    823.33485  0.067931918  0.068669815            3 
 1011000    1.0848944   -4.0772704    820.98155  0.067670751  0.068658872            3 
 1012000    1.0693759   -4.0384594    825.13555  0.067945944   0.06864772            5 
 1013000    1.0861768    -4.080803    827.31573   0.06805822  0.068637145            2 
 1014000    1.0909606   -4.0548459    827.73574  0.068025619  0.068626009            2 
 1015000    1.0969708    -4.090967    827.76249  0.067960795  0.068615278            3 
 1016000    1.0939509   -4.0430128    827.67358  0.067886612  0.068603913            2 
 1017000    1.0836819   -4.0570906    830.37211  0.068040979  0.068592211            2 
 1018000    1.1088862   -4.0958237    828.63044  0.067831568  0.068580784            3 
 1019000    1.0747089   -4.0398508    832.17306  0.068054715  0.068569652            1 
 1020000    1.0697057    -4.089289    831.75231   0.06795362  0.068558264            3 
 1021000     1.089267   -4.0613193    833.98649  0.068069417  0.068547239            2 
 1022000    1.0711469   -4.0574194    832.70914  0.067898658  0.068535704            3 
 1023000    1.0722745    -4.052012    831.04358  0.067696609  0.068524576            5 
 1024000    1.0959078   -4.0911459    829.68502   0.06751994  0.068512524            3 
 1025000    1.0764979   -4.0715376    833.05256   0.06772785  0.068500796            4 
 1026000     1.074486   -4.0764002    835.39557  0.067852141  0.068489195            3 
 1027000    1.0977158   -4.0373592    836.96422  0.067913358   0.06847867            1 
 1028000     1.071703   -4.0549875    837.58745  0.067897816  0.068467589            2 
 1029000    1.0876419   -4.0507231    838.52417  0.067907691  0.068456123            5 
 1030000    1.0810159   -3.9988507    838.71433  0.067857147  0.068444708            4 
 1031000    1.1000311    -4.065019    838.90487   0.06780673  0.068433502            3 
 1032000    1.0666118   -4.0496917    841.25962  0.067931171  0.068421818            3 
 1033000    1.0667935   -4.0531794    838.97002  0.067680705  0.068410052            6 
 1034000    1.0847088   -4.0889162    837.83712  0.067523946  0.068398021            4 
 1035000     1.068917   -4.0622251    839.57644  0.067598747  0.068386057            2 
 1036000    1.0703727   -4.0961645    835.63627  0.067216559  0.068374379            4 
 1037000    1.1067665   -4.0530648    842.63366  0.067714052  0.068361891            8 
 1038000    1.1051122   -4.0513173    842.52538  0.067640123  0.068350076            1 
 1039000    1.0701102   -4.0525096    840.94659  0.067448395  0.068337983            1 
 1040000    1.1056596   -4.0514363    841.04399  0.067391346  0.068326024            3 
 1041000    1.0812438   -4.0385177    843.56625  0.067528518  0.068314123            3 
 1042000    1.0787879    -4.083317    840.64355  0.067229971  0.068302017            1 
 1043000    1.0892107   -4.0787348    844.90278  0.067505815  0.068289938            4 
 1044000    1.0906189   -4.0766836    847.34091  0.067635768  0.068278336            2 
 1045000    1.1037406   -4.0683539    849.81093  0.067768017  0.068266632            2 
 1046000    1.0848478   -4.0618212    843.14025  0.067171785  0.068254506            4 
 1047000     1.100863   -4.0350781    851.63091  0.067783422  0.068242072            2 
 1048000    1.0838561   -4.0481916    845.39324  0.067222745  0.068229964            2 
 1049000    1.0846295   -4.0968936     847.9224   0.06735958  0.068217604            1 
 1050000    1.0785094    -4.048044     846.7748  0.067204349   0.06820531            2 
 1051000    1.0835121   -4.0920718    844.84297  0.066987232  0.068192824            6 
 1052000    1.0742275   -4.0780404    848.30628  0.067197899  0.068180791            1 
 1053000    1.0789819   -4.0511966    849.09077  0.067196167  0.068168198            2 
 1054000    1.0867852   -4.1024557    849.23453   0.06714378  0.068154989            2 
 1055000    1.1094447   -4.0406302    851.28453  0.067242064  0.068141933            3 
 1056000    1.0684214   -4.0918221    852.85675  0.067302458  0.068129543            3 
 1057000    1.0875461     -4.10776     849.7876  0.066996815  0.068117038            2 
 1058000    1.0704919    -4.074763    851.72339  0.067085963   0.06810364            2 
 1059000    1.0919038    -4.035391    857.46331  0.067474293   0.06809111            2 
 1060000    1.0861471   -4.0619309    855.96866  0.067293133  0.068078223            1 
 1061000    1.0742587   -4.0773188    851.73073  0.066896853  0.068064861            4 
 1062000    1.0920213   -4.0849749    854.97276  0.067088258  0.068051517            2 
 1063000      1.08529   -4.0771893    857.16701  0.067197163  0.068038144            2 
 1064000    1.0754855   -4.0654557      858.185  0.067213737  0.068025323            2 
 1065000    1.0934434   -4.0612248    859.32613  0.067239916  0.068012763            2 
 1066000    1.1080356   -4.0794375    857.08366  0.067001537  0.068000119            3 
 1067000    1.0819779   -4.0779133    857.65398  0.066983285  0.067987641            4 
 1068000    1.0924884   -4.0972505    860.75665   0.06716266  0.067974915            3 
 1069000    1.0685715   -4.0866455    859.23092  0.066980895  0.067962037            3 
 1070000    1.0805543    -4.100701    856.15344  0.066678617  0.067949101            2 
 1071000    1.0733973    -4.036782    862.72842   0.06712795  0.067935679            2 
 1072000    1.0680329     -4.11244    858.05381  0.066701944  0.067922075            2 
 1073000    1.0760264   -4.0823806    859.58397  0.066758618  0.067907972            3 
 1074000    1.0782043   -4.0617037    860.81634  0.066792081  0.067894572            3 
 1075000    1.0762636   -4.0312403    867.31924  0.067234049  0.067881084            5 
 1076000    1.0900059   -4.0505822    864.17552  0.066928092   0.06786784            2 
 1077000     1.087803   -4.0540465    862.67261   0.06674966  0.067854676            6 
 1078000    1.0729303   -4.0689278    867.06615  0.067027377   0.06784097            4 
 1079000    1.0798113   -4.0945813    867.07319  0.066965801  0.067827186            2 
 1080000    1.0909394   -4.0596051    867.44886  0.066932782  0.067813559            2 
 1081000     1.097346    -4.097969    865.32806  0.066707374  0.067799758            1 
 1082000    1.0850769   -4.0624211    861.60372  0.066358882  0.067785473            1 
 1083000    1.0631478   -4.0731997    865.31302  0.066583027  0.067771072            1 
 1084000    1.0695059    -4.061476    868.89579  0.066797032  0.067756925            2 
 1085000    1.0778715   -4.0696374    870.81581  0.066882935  0.067742827            1 
 1086000     1.084604   -4.0781051    865.58902  0.066420274  0.067728515            2 
 1087000    1.0803263   -4.0801013    866.66685  0.066441801   0.06771445            3 
 1088000    1.0693367   -4.0755347    868.21428  0.066499256  0.067700638            7 
 1089000    1.0912127    -4.061028    870.78312  0.066634765  0.067686752            3 
 1090000    1.0605219   -4.0886164    869.89092  0.066505422  0.067673012            2 
 1091000     1.074719   -4.0719249    871.59302  0.066574475  0.067658953            3 
 1092000    1.0813182    -4.068506     873.7507  0.066678167  0.067644886            3 
 1093000    1.0647374   -4.1030033     875.0072  0.066712961  0.067631264            2 
 1094000    1.0812358   -4.0730217    876.90267  0.066796364  0.067618001            2 
 1095000    1.0779967   -4.0797708    877.43441   0.06677583  0.067604712            3 
 1096000    1.0723551   -4.0876929    875.10396   0.06653771  0.067591902            3 
 1097000    1.0482191   -4.0587059    880.39686  0.066879129  0.067578293            3 
 1098000    1.0849717   -4.0896008    879.34969  0.066738744  0.067565861            2 
 1099000    1.0739351   -4.1163806    879.21416   0.06666774  0.067553083            2 
 1100000      1.10375    -4.055919    884.77755  0.067028602  0.067540161            1 
 1101000    1.0750689   -4.0605859    882.31247  0.066781144  0.067527447            2 
 1102000    1.0894784   -4.0779356    877.80666  0.066379814  0.067514451            1 
 1103000    1.0751328   -4.0790185    881.06235  0.066565605  0.067501468            4 
 1104000    1.0876801   -4.0947534    880.63722   0.06647322  0.067488665            1 
 1105000     1.056481   -4.1074601    883.30774   0.06661446  0.067475348            5 
 1106000    1.0773461   -4.0540675    887.33914  0.066857982  0.067462744            2 
 1107000    1.1040206   -4.0783505    888.42845  0.066879588  0.067450645            1 
 1108000    1.0650148    -4.049348    889.27428  0.066882843   0.06743792            3 
 1109000    1.0574891   -4.0676874    888.57155  0.066769728  0.067425875            2 
 1110000    1.0683237   -4.0529846    890.48712  0.066853388  0.067413516            4 
 1111000    1.0497632   -4.0573624    887.01735  0.066532955  0.067400699            2 
 1112000     1.095016    -4.078159    888.15812  0.066558612  0.067388043            2 
 1113000    1.0897907   -4.0756469    890.56002  0.066678648  0.067375657            3 
 1114000    1.0473666   -4.0877016    889.50928  0.066540191  0.067363228            2 
 1115000    1.0920799   -4.0899011    888.66527  0.066417434  0.067350323            4 
 1116000    1.0609542   -4.0927753    893.85165  0.066745195  0.067338298            5 
 1117000    1.0700493   -4.0681108     894.5783  0.066739652  0.067326428            1 
 1118000      1.07812    -4.097118     895.1488  0.066722481   0.06731396            3 
 1119000    1.0685058   -4.0518537     895.6134  0.066697453  0.067301816            3 
 1120000     1.064406   -4.0774508    898.91401  0.066883483  0.067289512            3 
 1121000     1.075877    -4.073194    894.07076  0.066463779  0.067277189            4 
 1122000    1.0580828   -4.0895263    894.93898  0.066469027  0.067265117            1 
 1123000    1.0698098   -4.1024323    895.56144  0.066456029  0.067253308            2 
 1124000    1.0597975   -4.1026524    900.58402  0.066769278  0.067241491            2 
 1125000    1.0744883   -4.0870103    898.38341  0.066546919  0.067229951            4 
 1126000    1.0608297   -4.1139735     898.5557   0.06650057   0.06721791            2 
 1127000    1.0682379   -4.1021647     899.3181  0.066497937  0.067205817            3 
 1128000    1.0723939   -4.0533174    902.94256   0.06670675  0.067194393            2 
 1129000    1.0776405   -4.0789965    902.44986  0.066611298  0.067182279            2 
 1130000    1.0596356   -4.0705855    903.13485  0.066602865   0.06717058            2 
 1131000    1.0703377   -4.1258232    898.18735   0.06617944  0.067158534            1 
 1132000    1.0950883   -4.0573707    905.93758  0.066691518  0.067146972            2 
 1133000    1.0660442    -4.093107    905.02095  0.066565236  0.067135382            2 
 1134000    1.0473897   -4.0610342    906.05567  0.066582574   0.06712435            2 
 1135000    1.0582754   -4.1060213    904.15411  0.066384296  0.067113404            2 
 1136000    1.0724431   -4.1071849    905.32674   0.06641188  0.067102091            3 
 1137000    1.0713274   -4.1090495    909.15588  0.066634116  0.067090375            1 
 1138000    1.0769768   -4.0973637    910.42774  0.066668698  0.067078772            7 
 1139000    1.0395249   -4.1051272       909.31  0.066528387  0.067067749            4 
 1140000    1.0890214   -4.0883114    911.87286  0.066657373  0.067057026            3 
 1141000    1.0621996   -4.1195099    907.21113  0.066258482   0.06704582            4 
 1142000    1.0990922   -4.1012534    913.78288  0.066680012  0.067034587            2 
 1143000    1.0758489     -4.11854    911.12662  0.066428012  0.067023109            1 
 1144000    1.0580778   -4.1009324     919.1094  0.066951442  0.067011984            2 
 1145000     1.083209   -4.0626244    916.22356  0.066682937   0.06700051            3 
 1146000    1.0607243    -4.077008     913.8499  0.066452145   0.06698959            2 
 1147000    1.0687041   -4.1068026    915.37888  0.066505295  0.066978652            5 
 1148000    1.0677254   -4.0919712    918.03372  0.066640078  0.066967586            2 
 1149000     1.087671   -4.0717749    918.52932  0.066618024  0.066956663            2 
 1150000    1.0630725    -4.099223    923.21132  0.066899371  0.066945597            4 
 1151000    1.0691383   -4.1059973    916.63503  0.066365119  0.066934353            2 
 1152000    1.0916625   -4.1122543    916.40755  0.066291055  0.066923055            3 
 1153000    1.0384116    -4.114834    917.46487  0.066309979  0.066911823            3 
 1154000    1.0575076   -4.0729408    917.90115  0.066284023  0.066900813            2 
 1155000    1.0434685    -4.115337    923.92309  0.066661118  0.066889989            3 
 1156000    1.0600976   -4.0935527    923.33881  0.066561333  0.066879617            2 
 1157000     1.084947    -4.089618     925.5101  0.066660192  0.066869541            5 
 1158000    1.0809877   -4.0947134    920.55128  0.066245774  0.066859167            2 
 1159000    1.0742927   -4.0764803    925.53266  0.066546783  0.066848928            2 
 1160000    1.0395779   -4.0975339    924.66734  0.066427252  0.066837857            2 
 1161000    1.0794807   -4.0535056    929.51243  0.066717803  0.066827325            3 
 1162000    1.0570674   -4.0866953    924.39434  0.066293341  0.066817058            3 
 1163000    1.0705419   -4.1120079    923.92361  0.066202609  0.066806051            3 
 1164000    1.0532972   -4.0715148    929.75361  0.066563116  0.066794692            3 
 1165000    1.0503569    -4.062377    930.21427  0.066538932  0.066783756            3 
 1166000    1.0755603   -4.0818595    930.67874  0.066515062  0.066773097            3 
 1167000    1.0420217   -4.0980347    928.99372  0.066337741  0.066762297            3 
 1168000    1.0600402   -4.1122604    928.89349  0.066273793  0.066752058            3 
 1169000    1.0730113   -4.0871989    932.91896  0.066504061  0.066741726            2 
 1170000    1.0720985   -4.0824187    933.05296  0.066456763  0.066731762            2 
 1171000    1.0562506    -4.111733    935.18151  0.066551488  0.066721653            3 
 1172000     1.054463   -4.1047031     933.4139   0.06636902  0.066711598            2 
 1173000    1.0511952    -4.103215    931.02862  0.066142983  0.066701389            2 
 1174000     1.062105    -4.074687    932.78385  0.066211233  0.066690699            2 
 1175000    1.0564431   -4.0812186    936.04485   0.06638616  0.066680101            3 
 1176000    1.0543802   -4.1085013    932.03521  0.066045579  0.066669542            5 
 1177000    1.0817845   -4.1049933    935.01105  0.066200159  0.066658959            2 
 1178000    1.0525316   -4.0852217    940.47514  0.066530499   0.06664848            3 
 1179000    1.0256214   -4.0904147    935.55962  0.066126634  0.066637888            2 
 1180000    1.0456819   -4.0894377    939.93878  0.066379857   0.06662786            3 
 1181000    1.0612542   -4.0935231    938.47142  0.066220111   0.06661803            4 
 1182000    1.0887306   -4.0863492    937.57434  0.066100842  0.066607538            3 
 1183000    1.0641746   -4.1053616    943.71019   0.06647719  0.066597784            5 
 1184000    1.0739276   -4.1174575    940.61467  0.066203172  0.066587902            8 
 1185000    1.0748289   -4.1043773    943.40306  0.066343394  0.066577956            4 
 1186000    1.0585292   -4.1184488     940.7409    0.0661004  0.066567646            2 
 1187000    1.0658994   -4.0940832    944.55315  0.066312353  0.066557374            3 
 1188000    1.0580816   -4.1008112    944.90172  0.066280985  0.066547325            3 
 1189000    1.0384725   -4.1037269     947.2649  0.066390868  0.066537497            5 
 1190000    1.0588703    -4.107912    944.75701  0.066159455  0.066527323            3 
 1191000    1.0925774   -4.1232969    944.52001  0.066087322  0.066516565            3 
 1192000    1.0936635   -4.1236164    944.27433  0.066014704  0.066506491            7 
 1193000    1.0429646   -4.1221432    950.84741  0.066418512  0.066496178            8 
 1194000    1.0479616   -4.1221271    946.69475  0.066073056  0.066485335            3 
 1195000    1.0779738   -4.0807858    948.95447  0.066175347  0.066475135            4 
 1196000     1.067114   -4.0971312    950.94089  0.066258423  0.066464617            2 
 1197000    1.0671382   -4.1087256     949.5482  0.066106113  0.066454361            2 
 1198000    1.0723061   -4.1104736    949.02805  0.066014751  0.066443705            8 
 1199000    1.0414647   -4.1059537    949.82609  0.066015158  0.066433366            3 
 1200000    1.0590448   -4.1380134    951.61056  0.066084067  0.066422977            1 
 1201000    1.0672168   -4.1210266    946.30526  0.065660926  0.066412323            2 
 1202000    1.0734112   -4.1079682    952.92034  0.066064916  0.066401564            3 
 1203000    1.0850903   -4.0781959    959.42031   0.06646026  0.066391027            3 
 1204000    1.0668288   -4.1190585    952.50941  0.065926731  0.066380362            2 
 1205000    1.0743523   -4.1046632    952.47818   0.06586986  0.066369503            2 
 1206000    1.0490491   -4.1097777    953.91075  0.065914231  0.066358735            3 
 1207000    1.0466757   -4.0978798    955.41456  0.065963447  0.066348099            5 
 1208000    1.0525797   -4.1000205    959.67541  0.066202774  0.066337767            5 
 1209000     1.055333   -4.1280055     953.6927  0.065735642  0.066326981            2 
 1210000    1.0430451    -4.126577    956.24893  0.065857364   0.06631598            3 
 1211000    1.0838147   -4.1153008    958.53806  0.065960505  0.066305054            2 
 1212000    1.0570354   -4.1162291    959.02256  0.065939395  0.066294584            3 
 1213000    1.0457402   -4.0871304    961.04196  0.066023767  0.066283895            3 
 1214000    1.0302523   -4.0973163    959.27645  0.065848191  0.066273042            6 
 1215000    1.0722882    -4.130145    958.45822  0.065737875  0.066262395            2 
 1216000    1.0511867   -4.1294655    959.05902  0.065724988  0.066252011            1 
 1217000    1.0247357   -4.0925775    964.38552  0.066035711  0.066241523            3 
 1218000    1.0531715   -4.1498039    964.02566  0.065956873  0.066231044            3 
 1219000    1.0665209    -4.124947    962.15247  0.065774711  0.066220011           12 
 1220000    1.0577243   -4.1237722    962.38166  0.065736452  0.066209343            2 
 1221000    1.0721071   -4.1314873    961.13815  0.065597744  0.066198992            3 
 1222000    1.0519997   -4.1270656    962.01835  0.065604088  0.066188309            4 
 1223000    1.0526752   -4.0852476    968.70183  0.066005848  0.066177992            4 
 1224000    1.0581991   -4.1405767    966.83003  0.065824484  0.066167616            4 
 1225000    1.0314507   -4.1024567    967.38378   0.06580842  0.066156997            4 
 1226000    1.0647429   -4.1096507    971.69157  0.066047551  0.066146672            4 
 1227000    1.0635293   -4.1230859     969.6189  0.065852955  0.066135966            4 
 1228000    1.0476724   -4.0809013    971.13896  0.065902481  0.066125389            3 
 1229000    1.0514959   -4.1062508    971.76993  0.065891641  0.066114808            3 
 1230000    1.0413601   -4.1270557    968.91854  0.065644887  0.066104075            2 
 1231000    1.0320977   -4.1014331      968.803  0.065583739  0.066092653            4 
 1232000    1.0667859   -4.1190348    969.52958  0.065579652  0.066081051            3 
 1233000     1.041256   -4.1018304    968.07589  0.065428217   0.06607009            1 
 1234000    1.0659496   -4.1131392    970.35043  0.065528797  0.066058832            2 
 1235000     1.038726   -4.1228584    971.03449  0.065521896  0.066047006            2 
 1236000    1.0454732     -4.12692    969.41534  0.065359718  0.066036225            2 
 1237000    1.0149545   -4.1342128    973.17759  0.065560333  0.066024816            2 
 1238000    1.0722639   -4.1712894    972.38306  0.065453895  0.066013656            2 
 1239000    1.0647547   -4.0879628    976.76632  0.065695878  0.066002927            3 
 1240000    1.0491842   -4.1252106    975.68652   0.06557033  0.065992578            4 
 1241000    1.0295592   -4.1164895    977.09387  0.065611998  0.065982459            5 
 1242000    1.0441812    -4.112406    980.04766  0.065757358  0.065972042            4 
 1243000    1.0484372    -4.129736    981.87999  0.065827299  0.065961237            5 
 1244000    1.0520355   -4.0919231    978.96305  0.065578982  0.065951088            4 
 1245000    1.0563791   -4.1082943    982.93215  0.065791978  0.065940475            2 
 1246000    1.0699253   -4.1121772    984.64594  0.065853795  0.065930019            7 
 1247000    1.0517754   -4.1233616    980.51111  0.065524667  0.065919189            4 
 1248000      1.08183   -4.1428865    975.42005  0.065132215  0.065908661            2 
 1249000    1.0447958   -4.1430566    982.05223  0.065522566  0.065897632            4 
 1250000    1.0379428   -4.1393295    981.78242  0.065452161  0.065886804            2 
 1251000    1.0456353   -4.1131441    988.70865  0.065861221  0.065876292            4 
 1252000    1.0485486   -4.1446179    980.41766  0.065256766  0.065865331            3 
 1253000    1.0704737   -4.1282697    986.83546  0.065631515  0.065854792            3 
 1254000    1.0464647   -4.1143431    984.18042  0.065402739  0.065844185            2 
 1255000    1.0786866   -4.1152932    988.70498  0.065651061  0.065833862            2 
 1256000    1.0354761   -4.1298808     985.8924  0.065412181  0.065823645            1 
 1257000    1.0525917   -4.0716799    986.96452   0.06543122  0.065812557            3 
 1258000    1.0845786   -4.1179093    984.51246  0.065216777  0.065801535            3 
 1259000    1.0378341   -4.1455126    981.84228  0.064988237  0.065790542            4 
 1260000    1.0482224   -4.1384165    988.94831  0.065406634  0.065779233            7 
 1261000     1.052834   -4.1317855    991.06961  0.065494952  0.065768228            4 
 1262000    1.0494159   -4.1294771    990.18793  0.065384834  0.065757168            2 
 1263000    1.0410799   -4.1452544     987.8421  0.065178286    0.0657456            3 
 1264000    1.0641387    -4.154478    989.39449  0.065229067  0.065734654            2 
 1265000     1.048545   -4.1278605    990.80379  0.065270342  0.065723784            4 
 1266000    1.0614449    -4.135063    990.21725  0.065180177  0.065712662            2 
 1267000    1.0362834   -4.1321853    993.61227   0.06535203  0.065702146            1 
 1268000     1.044422   -4.0964615    994.96838  0.065389615  0.065691711            2 
 1269000    1.0571433   -4.1340443     993.4365   0.06523749   0.06568103            4 
 1270000     1.049457   -4.1347317    995.70861   0.06533521  0.065670418            1 
 1271000    1.0095608   -4.1336483    998.22045  0.065448495  0.065659992            3 
 1272000    1.0541228   -4.1341618    995.09442  0.065192245  0.065649224            4 
 1273000    1.0562518   -4.1609843    993.01187  0.065004705    0.0656383            2 
 1274000    1.0270236   -4.1189791    993.29137  0.064971963   0.06562723            3 
 1275000    1.0432146   -4.1372354    1002.4157  0.065517369  0.065616218            3 
 1276000    1.0463415   -4.1535276    996.82249  0.065100737  0.065605304            2 
 1277000    1.0431468   -4.1335928    998.85155  0.065182168  0.065594461            2 
 1278000    1.0549528   -4.1199836    999.80065  0.065193052  0.065583872            1 
 1279000    1.0641011   -4.1330017    1001.1222  0.065228188  0.065573282            5 
 1280000    1.0449638   -4.0880736    1003.3494  0.065322227  0.065562785            2 
 1281000    1.0422942   -4.1265736    999.27002  0.065005856  0.065552385            2 
 1282000    1.0423934   -4.1423741    1003.5129  0.065230948  0.065541096            3 
 1283000    1.0390791   -4.1047244    1003.7483  0.065195392  0.065530619            4 
 1284000    1.0361278   -4.1215547    1002.9883  0.065095293  0.065520094            4 
 1285000    1.0614645   -4.1226805    1008.6234  0.065410079  0.065509956            3 
 1286000    1.0234956   -4.1179726    1009.1589  0.065393917  0.065499921            3 
 1287000    1.0759872    -4.135453    1007.4071  0.065229674  0.065490277            1 
 1288000    1.0439083    -4.153637    1009.2352  0.065297311  0.065480156            2 
 1289000    1.0364525   -4.1287595    1014.1448  0.065564052  0.065470799            4 
 1290000    1.0258305   -4.1164546    1012.6584  0.065417208  0.065461138            3 
 1291000    1.0513717   -4.1819039    1013.0647  0.065392767  0.065451344            3 
 1292000     1.029461   -4.1346532    1009.9602  0.065141911  0.065442126            2 
 1293000    1.0299776   -4.1204774    1016.1331  0.065489374  0.065432275            3 
 1294000    1.0450753   -4.1083473    1015.0991  0.065372172  0.065422559            2 
 1295000    1.0461169   -4.1579657    1015.7627  0.065364397  0.065413089            3 
 1296000    1.0377243   -4.1398045    1014.5459  0.065235717  0.065403317            2 
 1297000    1.0473256   -4.1248406     1017.185  0.065354983  0.065393715            2 
 1298000    1.0566795    -4.127939     1020.178   0.06549679   0.06538414            2 
 1299000    1.0490009    -4.126151    1018.3863  0.065331427  0.065375038            2 
 1300000    1.0324909   -4.1259829    1022.5843  0.065550273  0.065366045            2 
 1301000    1.0354922   -4.1281038    1021.3733  0.065422325  0.065356802            2 
 1302000    1.0461005   -4.1447756    1019.4302  0.065247707  0.065347351            4 
 1303000    1.0162099   -4.1444134    1020.9959  0.065297768  0.065338471            4 
 1304000    1.0303645   -4.1183024    1019.7107  0.065165559  0.065329196            2 
 1305000     1.044914   -4.1002475    1026.2642  0.065534111  0.065320941            1 
 1306000    1.0380757   -4.1440892    1025.9458  0.065463618  0.065312652            2 
 1307000    1.0279738   -4.1507006    1022.9494  0.065222482  0.065303922            1 
 1308000    1.0392664   -4.1573213    1026.9336  0.065426453  0.065295448            5 
 1309000    1.0221485    -4.141437    1028.6654  0.065486723  0.065286908            4 
 1310000    1.0489554    -4.138858    1025.6339  0.065243889  0.065278813            4 
 1311000     1.070072   -4.1346097    1029.4697  0.065437943  0.065270166            6 
 1312000    1.0432546   -4.1504797    1025.4467  0.065132538  0.065261554            3 
 1313000    1.0423146   -4.1331141    1030.8211  0.065424034  0.065253043            4 
 1314000    1.0691534   -4.1164517    1032.2627  0.065465671  0.065244421            5 
 1315000    1.0511807   -4.1495811    1030.1621  0.065282767  0.065235919            2 
 1316000     1.037891   -4.1325384    1034.6878  0.065519746  0.065227725            2 
 1317000    1.0437227   -4.1432567     1034.266  0.065443305  0.065219423            3 
 1318000    1.0533416    -4.133877    1032.5078  0.065282488  0.065211713            1 
 1319000    1.0256178   -4.1318821    1036.2648  0.065470358  0.065203986            3 
 1320000    1.0519007   -4.1603214    1034.9499  0.065337743  0.065196025            2 
 1321000    1.0356399   -4.1507198     1040.639  0.065647173  0.065187902            5 
 1322000    1.0222575   -4.1527921    1037.0092  0.065368711  0.065180056            2 
 1323000    1.0384923   -4.1473295    1035.7925   0.06524266  0.065172238            5 
 1324000    1.0508242   -4.1550874    1039.3242   0.06541567  0.065164234            2 
 1325000    1.0282572   -4.1542027    1034.9931  0.065093903  0.065155899            3 
 1326000    1.0458378   -4.1393329    1041.8982   0.06547877  0.065147636            2 
 1327000    1.0081937   -4.1529946    1040.1002  0.065316518  0.065139392            3 
 1328000    1.0414674   -4.1259588    1043.8991  0.065505718  0.065131459            4 
 1329000    1.0393947   -4.1646784    1035.6424  0.064938698  0.065123123            4 
 1330000    1.0291406   -4.1458035    1040.1964  0.065175211  0.065114813            2 
 1331000    1.0421704   -4.1607257      1040.68  0.065156526  0.065106007            2 
 1332000    1.0223555    -4.147001    1044.9796  0.065376602  0.065097144            3 
 1333000    1.0246248   -4.1580154    1040.5797  0.065052493  0.065088603            4 
 1334000    1.0403035   -4.1616103    1046.9758  0.065403285  0.065080409            4 
 1335000    1.0391295   -4.1627762    1044.5704  0.065204144   0.06507214            5 
 1336000    1.0270219   -4.1196192    1045.3341  0.065202975   0.06506346            5 
 1337000    1.0338117   -4.1486967    1043.5405  0.065042417  0.065054715            2 
 1338000    1.0246499   -4.1333833    1045.0435  0.065087415   0.06504599            3 
 1339000     1.033356   -4.1198161    1045.5689    0.0650715  0.065037252            1 
 1340000    1.0468427   -4.1543205    1046.8683  0.065103753   0.06502844            1 
 1341000    1.0257621   -4.1618981    1044.9352  0.064935074  0.065019319            3 
 1342000    1.0230965   -4.1280576    1049.4277  0.065165653  0.065010294            2 
 1343000    1.0337119   -4.1029042    1050.2124  0.065165822  0.065001623            2 
 1344000     1.053146   -4.1335521    1052.7529  0.065274857  0.064993378            3 
 1345000    1.0501588   -4.1275411    1048.1075   0.06493851  0.064984463            3 
 1346000    1.0348868   -4.1339366    1048.1536  0.064893115  0.064975495            3 
 1347000    1.0439613   -4.1499492    1049.9462  0.064955839  0.064966741            3 
 1348000    1.0354676   -4.1505843    1050.2729  0.064927847  0.064957914            3 
 1349000    1.0241913   -4.1572708    1056.6854  0.065275847  0.064949129            3 
 1350000    1.0429055   -4.1190933    1051.9521  0.064935313  0.064940332            3 
 1351000    1.0225841   -4.1796879    1052.6178   0.06492831  0.064931467            3 
 1352000    1.0364362   -4.2098902    1047.1311  0.064542104   0.06492256            8 
 1353000    1.0337138   -4.1627507    1053.4632  0.064884403  0.064913265            3 
 1354000    1.0332139   -4.1426818    1058.8849  0.065170168  0.064905206            3 
 1355000    1.0640146   -4.1543761    1057.1388  0.065014686   0.06489679            2 
 1356000    1.0553758   -4.1511498    1056.5627  0.064931338  0.064887979            3 
 1357000    1.0430754   -4.1602397    1057.0138  0.064911187  0.064879199            2 
 1358000    1.0362245   -4.1655587    1054.4717  0.064707393   0.06487049            3 
 1359000    1.0356757   -4.1807431    1051.7922  0.064495475  0.064861495            3 
 1360000    1.0405546   -4.1301411     1059.394  0.064913848  0.064852808            2 
 1361000    1.0412313   -4.1441908    1056.9993  0.064719528  0.064844197            3 
 1362000    1.0590923   -4.1364214    1063.7196  0.065083189  0.064835439            3 
 1363000    1.0383632   -4.1832513    1058.7538  0.064731829  0.064826423            2 
 1364000    1.0373178   -4.1883147    1060.7496  0.064806308  0.064817273            4 
 1365000    1.0272568   -4.1675648    1059.8537  0.064704132  0.064808066            3 
 1366000    1.0328239   -4.1531896    1060.1257  0.064673359  0.064799155            3 
 1367000    1.0204416   -4.1736549    1057.4211  0.064461172  0.064790093            6 
 1368000    1.0220264   -4.1484796    1064.2972  0.064832916  0.064780766            2 
 1369000    1.0124677   -4.1834218    1062.6237   0.06468369  0.064771877            2 
 1370000    1.0066377   -4.1247179    1066.6568    0.0648818  0.064762805           12 
 1371000    1.0323562   -4.1127438     1070.925  0.065093909  0.064753873            3 
 1372000    1.0324991   -4.1549011    1071.4512  0.065078428  0.064744985            3 
 1373000    1.0331923   -4.1518517    1065.3648  0.064661619  0.064735929            4 
 1374000    1.0319423   -4.1389589    1069.2801  0.064852021  0.064727671            4 
 1375000    1.0197916   -4.1525091    1068.5992  0.064763591   0.06471872            4 
 1376000    1.0163726    -4.166626     1072.793  0.064970505  0.064710046            1 
 1377000    1.0322103   -4.1566279    1070.6352   0.06479274    0.0647011            3 
 1378000    1.0301181   -4.1501796    1068.9463  0.064643584  0.064691832            2 
 1379000    1.0365584   -4.1698781    1067.4232  0.064504668  0.064682335            2 
 1380000     1.031221    -4.144527    1069.0762   0.06455774  0.064673029            2 
 1381000    1.0276311   -4.1248207    1071.4566  0.064654634  0.064663626            4 
 1382000    1.0433474   -4.1411201    1068.6353  0.064437731  0.064654326            3 
 1383000    1.0247111   -4.1410758    1069.3706  0.064435445  0.064644758            6 
 1384000    1.0148985   -4.1410127    1072.8398  0.064597769  0.064635088            3 
 1385000    1.0336603   -4.1446318    1068.6237  0.064297452  0.064625624            6 
 1386000    1.0170905   -4.1625099    1068.6547  0.064252926  0.064615671            2 
 1387000    1.0330689   -4.1666497    1067.8865  0.064160449  0.064605917            2 
 1388000    1.0284589   -4.1712149     1071.683  0.064342158  0.064595856            3 
 1389000    1.0320142   -4.1820839    1071.2936  0.064272475  0.064585649            3 
 1390000    0.9961663   -4.1529201    1071.0357  0.064210774   0.06457535            2 
 1391000    1.0230788   -4.1503534    1072.6807  0.064263165  0.064564957            5 
 1392000    1.0199036   -4.1590496    1071.0171  0.064117401  0.064554788            2 
 1393000    1.0243824   -4.1587728    1070.0397  0.064012902   0.06454405           10 
 1394000    1.0153682   -4.1567963    1071.7554  0.064069548  0.064533487            2 
 1395000    1.0231845    -4.201383    1069.7087  0.063901358  0.064522738            4 
 1396000    1.0237299   -4.1821806    1070.7673  0.063918774  0.064512126            3 
 1397000    1.0307697    -4.163369    1068.7496  0.063752659  0.064501502            5 
 1398000    1.0569895   -4.1708103    1077.9274  0.064254135  0.064490835            2 
 1399000    1.0321224   -4.1630401    1078.9085  0.064266646  0.064480346            1 
 1400000    1.0346979   -4.1453665    1078.4858  0.064195581  0.064469869            1 
 1401000    1.0217067   -4.1441917    1078.8764  0.064172995  0.064459026            3 
 1402000    1.0243935   -4.1458316    1082.8339  0.064362451  0.064448404            1 
 1403000    1.0357508    -4.136026    1078.6664  0.064069045  0.064437805            2 
 1404000    1.0345458    -4.148414    1085.4991  0.064428958  0.064427315            2 
 1405000     1.005205    -4.177326    1079.2897  0.064014808  0.064417105            3 
 1406000    1.0028403   -4.1605335    1075.5631  0.063748406  0.064406376            2 
 1407000    1.0261501   -4.1324547    1081.6585  0.064064113  0.064395487            2 
 1408000     1.050464   -4.1705546    1083.1092  0.064104477  0.064384901            1 
 1409000    1.0268715   -4.1569332    1082.4918  0.064022464  0.064374712            5 
 1410000    1.0137704   -4.1358708     1083.854  0.064057567  0.064364243            3 
 1411000    1.0221969   -4.1247452    1085.9873   0.06413816    0.0643539            2 
 1412000    1.0223415   -4.2132963    1081.9295   0.06385325  0.064343221            2 
 1413000    1.0444745   -4.1568294     1085.173   0.06399935  0.064332815            4 
 1414000    1.0158036   -4.1463205    1086.1251  0.064010199  0.064322513            4 
 1415000    1.0187792   -4.2027373    1084.8177  0.063887968  0.064312383            3 
 1416000    1.0335188   -4.1662321    1086.3991  0.063935918  0.064301825            6 
 1417000    1.0004401    -4.184975    1086.6865  0.063907698  0.064291387            2 
 1418000    1.0311901   -4.1857791    1086.5713  0.063855858   0.06428091            2 
 1419000    1.0367192   -4.1331433    1089.9762  0.064010818  0.064270559            8 
 1420000    1.0358365    -4.150151     1088.521  0.063880339  0.064260117            2 
 1421000    1.0264751   -4.1559556     1089.741  0.063906931  0.064249554            4 
 1422000    1.0311445      -4.1583    1091.5268  0.063966642  0.064239254            2 
 1423000    1.0057961   -4.1649911    1093.8835  0.064059705  0.064228377            3 
 1424000      1.05176   -4.1453527    1093.6394  0.064000432  0.064217695            4 
 1425000    1.0270923   -4.1728614    1092.0863  0.063864695  0.064207108            2 
 1426000    1.0257132   -4.1474183    1093.4502  0.063899612  0.064196749            3 
 1427000    1.0205615   -4.1711335       1093.2  0.063840225  0.064185951            2 
 1428000     1.033904   -4.1699265     1095.412  0.063924602  0.064175197            2 
 1429000    1.0233835   -4.1681147    1090.0139  0.063565075  0.064164432            2 
 1430000    1.0296763   -4.1501752    1095.0022  0.063811317  0.064153796            2 
 1431000    1.0478832   -4.1698955    1092.3213  0.063610603  0.064143099            7 
 1432000    1.0263614   -4.1364087    1095.5832  0.063756007  0.064132532            3 
 1433000     1.019881   -4.1519516    1095.0249  0.063679049  0.064121526            2 
 1434000    1.0213221   -4.2088778    1091.9235  0.063454411  0.064110998            6 
 1435000    1.0243299    -4.164212    1095.9716  0.063645271  0.064100377            3 
 1436000     1.019007   -4.1531971    1094.1719  0.063496511  0.064089476            4 
 1437000    1.0312235   -4.1551189    1099.2235  0.063745276  0.064078917            3 
 1438000    1.0159858   -4.1338137    1099.1773  0.063698269   0.06406817            3 
 1439000    1.0211768   -4.1654552    1099.4862  0.063671889  0.064057138            6 
 1440000    1.0137723   -4.1491405    1102.2567  0.063788006  0.064046299            3 
 1441000    1.0139973   -4.1501697    1099.4853  0.063583466  0.064035427            2 
 1442000    1.0199928   -4.1553859    1100.9046  0.063621394  0.064024815            2 
 1443000    1.0229326   -4.1788899    1102.5316  0.063671264  0.064014304            3 
 1444000    1.0218431   -4.1620414    1101.5235  0.063568994  0.064003579            2 
 1445000    1.0147441   -4.1750344    1101.0978  0.063500449  0.063992855            4 
 1446000    1.0365703   -4.1915617    1101.0625  0.063454501  0.063982115            4 
 1447000    1.0109774   -4.1978475     1097.107  0.063182849  0.063971525            4 
 1448000    1.0249523   -4.1388272    1106.6307  0.063687309  0.063960355            3 
 1449000    1.0067746   -4.1965377    1103.9856  0.063491233    0.0639497            2 
 1450000    1.0062402     -4.19708    1100.8267  0.063265903  0.063938595            2 
 1451000   0.99578299   -4.1564014    1108.1402  0.063642325   0.06392753            4 
 1452000    1.0065524   -4.1851859    1106.2483  0.063489918  0.063916801            4 
 1453000      1.04009      -4.1638    1105.7017  0.063414869  0.063905782            2 
 1454000    1.0275468   -4.1619664    1103.6577  0.063254109  0.063894702            4 
 1455000    1.0081597   -4.1638155    1106.7498  0.063387735  0.063883048            3 
 1456000    1.0289185   -4.1560005    1104.7457  0.063229493  0.063871568            2 
 1457000    1.0058497    -4.190474    1108.1535  0.063381003  0.063860016            5 
 1458000    1.0109658   -4.1719033    1107.9833  0.063327804   0.06384872            9 
 1459000   0.99965019   -4.1448756    1112.9907  0.063570405  0.063837028            4 
 1460000    1.0116096   -4.1546366    1108.2148  0.063254271  0.063825713            2 
 1461000    1.0455361    -4.163025    1106.3098  0.063102318  0.063814362            3 
 1462000    1.0418361   -4.1963624    1105.0472  0.062987187   0.06380262            2 
 1463000     1.016844   -4.1733393    1114.0625  0.063457651  0.063791278            3 
 1464000     1.004555   -4.1792791    1112.1574  0.063305862  0.063780166            2 
 1465000    1.0100707   -4.1741043    1113.5435  0.063341495  0.063768934            3 
 1466000    1.0037373   -4.1811146    1115.2366   0.06339453  0.063757599            3 
 1467000    1.0055416   -4.1616697    1112.2295    0.0631805  0.063746389            2 
 1468000    1.0176107   -4.1733262    1112.8605  0.063173278  0.063735162            4 
 1469000     1.017037   -4.1896221     1114.587  0.063228217  0.063723806            2 
 1470000    1.0188699   -4.1748742    1112.1432  0.063046665  0.063712302            5 
 1471000    1.0256883   -4.1813599    1116.9409    0.0632756  0.063700746            3 
 1472000    1.0098343   -4.1929428    1113.4118  0.063032826  0.063689535            2 
 1473000     1.008787    -4.181289    1119.0352  0.063308171  0.063678381            6 
 1474000    1.0090246   -4.1713407    1119.9686   0.06331799  0.063667692            2 
 1475000    1.0158649   -4.1926046    1116.1343  0.063058434  0.063656585            3 
 1476000   0.99851232   -4.2192671    1117.4617  0.063090657  0.063645054            1 
 1477000   0.98243761   -4.1667959    1124.2442  0.063430615  0.063633714            4 
 1478000   0.99304065   -4.1910672    1120.0433  0.063150842  0.063622457            2 
 1479000    1.0373805   -4.1872651    1118.3806  0.063014458  0.063610849            4 
 1480000   0.99822244   -4.1812351     1120.919  0.063114809  0.063599317            2 
 1481000    1.0202499   -4.1768742    1122.3877  0.063154833  0.063587835            2 
 1482000    1.0268935   -4.2314431     1113.499  0.062612402  0.063576005           11 
 1483000    1.0115293   -4.1731373    1120.7395  0.062977045  0.063564473            3 
 1484000    1.0281119   -4.1564643    1120.9889  0.062948613  0.063552533            2 
 1485000     1.007121   -4.1785716     1120.879  0.062900056  0.063540717            2 
 1486000    0.9845228   -4.1544027       1117.5  0.062668238  0.063528846            3 
 1487000    1.0046129   -4.1772679    1117.7194  0.062638388  0.063517184            2 
 1488000   0.99629145   -4.1547091    1121.5587  0.062811305  0.063505438            2 
 1489000    1.0166777   -4.1518462    1122.9287  0.062845798  0.063494136            1 
 1490000    1.0199161   -4.2349407    1119.2143  0.062595876  0.063482596            3 
 1491000    1.0033784    -4.212905    1123.4537  0.062790838  0.063470776            4 
 1492000   0.99781776   -4.1887977     1124.274  0.062794572  0.063458925            2 
 1493000    1.0261451   -4.1854725     1124.923  0.062788737  0.063446803            2 
 1494000    1.0323953   -4.1823965    1126.7351  0.062847784  0.063434892            3 
 1495000   0.99372089   -4.1753603    1131.7656  0.063086153  0.063423182            2 
 1496000    1.0312444   -4.1863754    1125.0571  0.062670292  0.063411378            6 
 1497000    1.0281854   -4.1824649     1126.734  0.062721776  0.063399109            6 
 1498000   0.99204567   -4.1891831    1127.5769  0.062726796   0.06338677            2 
 1499000    1.0256144   -4.1877028    1128.7386  0.062749533  0.063374373            2 
 1500000   0.99822779   -4.1471465    1129.7649  0.062764716  0.063362285            2 
 1501000    1.0125476    -4.199616    1125.7537  0.062500206  0.063350215            2 
 1502000    1.0222542   -4.1537927    1129.9052  0.062688927   0.06333846            4 
 1503000    1.0050319   -4.1991907    1127.8494  0.062533236  0.063326856            6 
 1504000    1.0321465   -4.1810817    1131.1401  0.062673986  0.063315108            2 
 1505000    1.0009498   -4.2155772    1125.2231  0.062304714  0.063303133            2 
 1506000    1.0158182   -4.1959645    1132.2322  0.062651185   0.06329119            3 
 1507000    1.0168265   -4.1865282    1130.8839  0.062535054  0.063279404            5 
 1508000    1.0290018   -4.1906184    1134.8145  0.062710792  0.063267679            4 
 1509000    1.0186747   -4.1998653    1133.4677  0.062594858  0.063255776            3 
 1510000    1.0191622   -4.1750681    1137.3473  0.062767512  0.063244167            3 
 1511000    1.0069353   -4.2193137    1137.0326  0.062708615   0.06323281            2 
 1512000    1.0135115   -4.2054535    1134.5436   0.06252996  0.063221147            1 
 1513000   0.99121909   -4.1648621    1138.5031  0.062706711  0.063209434            3 
 1514000    0.9944379   -4.2053572    1138.9332  0.062688971  0.063198089            3 
 1515000    1.0259934   -4.1843635    1140.9273  0.062757277  0.063186573            6 
 1516000    1.0047638    -4.195763    1137.0264   0.06250145  0.063174973            3 
 1517000    1.0073004   -4.2276282    1137.3888   0.06248016  0.063163185            5 
 1518000    1.0300107   -4.1722357    1140.6264  0.062616734  0.063151467            2 
 1519000   0.99221131   -4.1919603    1139.9266  0.062537116  0.063139943            2 
 1520000    1.0209421   -4.1822369    1139.7252  0.062484934    0.0631283            2 
 1521000     1.023785   -4.1861027    1145.8422  0.062778992  0.063116624            4 
 1522000    1.0148284   -4.1709319     1144.152  0.062645202  0.063104911            3 
 1523000    1.0050536   -4.1893247    1142.4108    0.0625088  0.063093366            2 
 1524000    1.0229933   -4.1723876    1146.3613  0.062683798  0.063081701            4 
 1525000    1.0142737    -4.217392    1142.5763  0.062435861  0.063070143            5 
 1526000    1.0164599   -4.1709634    1143.9787  0.062471533  0.063058296            4 
 1527000    1.0137989   -4.2030435    1143.9527    0.0624292  0.063046557            4 
 1528000    1.0120526   -4.1841801     1144.258  0.062404998  0.063034938            3 
 1529000    1.0188756   -4.1996944    1144.9043  0.062399409  0.063023249            2 
 1530000    1.0113553   -4.1579609    1145.8086  0.062407878  0.063011912            3 
 1531000    1.0222398   -4.1697629    1151.0926  0.062654724  0.063000557            6 
 1532000    1.0107511   -4.2013165     1146.948  0.062388381   0.06298926            3 
 1533000   0.99618784   -4.2270034    1149.6688  0.062495587  0.062977508            2 
 1534000   0.99135713    -4.177376    1147.3338  0.062327996  0.062965802            2 
 1535000    1.0308173    -4.186635    1149.3543  0.062397085    0.0629542            4 
 1536000    1.0194254   -4.1756489    1151.3372   0.06246404  0.062942621            2 
 1537000    1.0074392   -4.1969731    1150.4407  0.062374791  0.062930948            3 
 1538000    1.0132027   -4.1958152    1150.2296  0.062322801  0.062919005           10 
 1539000    1.0184498    -4.229782    1148.8595  0.062208114  0.062907157            6 
 1540000   0.99123535   -4.2061903    1151.4348   0.06230708  0.062895409            4 
 1541000    1.0056872   -4.2068963    1155.3084  0.062476119  0.062884046            2 
 1542000    1.0181987   -4.2276981    1151.6716  0.062239063  0.062872208            2 
 1543000    1.0042648   -4.1805462    1155.1014  0.062383959  0.062860519            3 
 1544000     1.018088    -4.186699    1153.6082  0.062262965  0.062849179            6 
 1545000    1.0043726   -4.1851894    1158.8536  0.062505588   0.06283782            3 
 1546000   0.99566206   -4.2004672    1154.8061  0.062246986  0.062826707            2 
 1547000   0.99868628   -4.1574556    1162.5317  0.062622912  0.062815392            2 
 1548000    1.0058482   -4.1960671     1157.657  0.062320037  0.062804055            3 
 1549000    1.0009457   -4.2332629    1153.1862  0.062039283  0.062792334            1 
 1550000   0.99908281   -4.1910016      1159.16  0.062320429  0.062780543            2 
 1551000    1.0192216   -4.1863996    1155.1122  0.062062765  0.062768661            2 
 1552000     1.004815   -4.2140914     1160.724  0.062324095  0.062757034            3 
 1553000   0.99285551   -4.1961865    1156.3829  0.062051025  0.062745388            2 
 1554000    1.0128006   -4.1889593    1159.4206  0.062173994  0.062733908            4 
 1555000     1.012161   -4.1864641      1157.55  0.062033763  0.062722281            3 
 1556000   0.98563324   -4.2091818     1160.024  0.062126393  0.062710709            1 
 1557000   0.99239579   -4.2261106     1156.926  0.061920681   0.06269903            4 
 1558000    1.0186192   -4.1994506    1159.8237  0.062035926  0.062687208            5 
 1559000   0.99492717   -4.2232737    1162.2317  0.062124853  0.062675445            4 
 1560000    1.0167231   -4.2360367    1161.5009  0.062045988  0.062663857            1 
 1561000   0.99414691   -4.2249285    1160.3479   0.06194469   0.06265203            2 
 1562000    1.0053225   -4.2234628     1161.828  0.061983996  0.062640017            3 
 1563000    1.0396634   -4.2049663    1163.7797  0.062048394  0.062628121            3 
 1564000   0.99395549   -4.2141912    1165.5045  0.062100625  0.062616651            3 
 1565000    1.0360716   -4.2220627    1163.7425  0.061967121  0.062604665            2 
 1566000   0.98865643   -4.2085966    1167.6839  0.062137285  0.062592726            4 
 1567000   0.99244741   -4.1844537    1169.1622  0.062176252  0.062580819            5 
 1568000     1.008981    -4.194475    1168.8785   0.06212152  0.062569508            3 
 1569000   0.97901865   -4.2033005    1166.2338  0.061941458  0.062557942            3 
 1570000   0.99761132   -4.2063651    1170.4946  0.062128162  0.062546317            2 
 1571000    1.0005221   -4.1910996    1176.7159  0.062418622  0.062535024            3 
 1572000    1.0114315   -4.2570332    1170.8542   0.06206818  0.062523881            3 
 1573000    1.0183062   -4.2092763    1174.6215  0.062228303  0.062512615            2 
 1574000    1.0005111   -4.2034105    1175.9137  0.062257182  0.062501255            3 
 1575000   0.99240401    -4.193715    1173.3528  0.062082161  0.062490187            2 
 1576000    1.0014511   -4.1881173    1175.1338   0.06213694  0.062479274            5 
 1577000    0.9676241   -4.1812445    1174.2647   0.06205161  0.062468331            2 
 1578000    1.0182585   -4.1965707    1175.7962  0.062093165  0.062457158            2 
 1579000   0.97706207   -4.2254192    1173.6765  0.061941972  0.062445897            4 
 1580000   0.98568352   -4.2008689    1175.4585  0.061996757   0.06243464            2 
 1581000   0.98187673   -4.1806905    1174.2011  0.061891267  0.062423744            3 
 1582000    1.0121043   -4.2034457    1178.6842  0.062088297  0.062412486            2 
 1583000   0.99089442   -4.2080516    1177.5625  0.061990022  0.062400958            2 
 1584000    1.0101535   -4.2146641     1175.025  0.061817393  0.062389702            4 
 1585000   0.97716792   -4.2275993    1177.4583  0.061906324  0.062378558            2 
 1586000    1.0000326   -4.2164126    1179.2707  0.061962521  0.062366898            2 
 1587000   0.99804449   -4.2019846    1180.8513  0.062006475  0.062355238            2 
 1588000   0.99685972    -4.238077    1172.6634  0.061537751  0.062343571            2 
 1589000   0.99444333   -4.2058195    1178.4077  0.061800276  0.062331949            4 
 1590000   0.99183036   -4.1908835     1183.155  0.062010219   0.06232084            6 
 1591000   0.98021825   -4.1925057    1183.1976  0.061973476  0.062309624            3 
 1592000   0.99030032   -4.2288139    1176.1738  0.061566887  0.062298277            5 
 1593000    1.0040026   -4.1981382    1183.8365  0.061929089  0.062287122            3 
 1594000    0.9922905   -4.2186131      1181.13  0.061748743  0.062275877            4 
 1595000   0.99746043   -4.2036346    1181.7225  0.061740988  0.062264638            3 
 1596000   0.99473895   -4.2003294    1181.6415  0.061698072  0.062253222            8 
 1597000   0.99271454   -4.2012172    1187.2622  0.061952735   0.06224201            3 
 1598000   0.99162224   -4.2123326    1187.6644   0.06193494  0.062230865            3 
 1599000    1.0107944   -4.2179986    1194.0707  0.062230077   0.06221998            3 
 1600000   0.99128269   -4.1923169    1189.2053  0.061937774  0.062209091            5 
 1601000    1.0320677   -4.2181592    1187.3511  0.061802574  0.062198049            3 
 1602000   0.98762553   -4.2295262    1188.9694  0.061848182  0.062186826            3 
 1603000    0.9936845     -4.22641    1189.4863  0.061836469  0.062175948            7 
 1604000   0.97351474   -4.2064531    1187.7277  0.061706551  0.062164901            2 
 1605000    1.0030725   -4.2014669    1189.7751   0.06177441  0.062153968            3 
 1606000   0.98942071   -4.2065263    1198.2128  0.062173766  0.062142889            3 
 1607000    0.9792708   -4.2020138     1192.318  0.061829393  0.062132036            4 
 1608000   0.98835801   -4.2206007    1191.0271  0.061724039    0.0621214            3 
 1609000   0.95998218   -4.2220196    1190.2117  0.061643451  0.062110433            3 
 1610000   0.97396246   -4.2090527    1193.9265  0.061797439    0.0620995            5 
 1611000   0.99131323   -4.2526565    1188.0139  0.061453232  0.062088462            2 
 1612000   0.98782794   -4.2476408    1194.0802  0.061728711  0.062077418            3 
 1613000   0.97498018   -4.2237225    1191.0596  0.061534385  0.062066221            3 
 1614000   0.99104457   -4.2177535    1194.4797  0.061672847   0.06205509            3 
 1615000    1.0115509   -4.2327748    1193.7796  0.061598536   0.06204389            3 
 1616000   0.98175804   -4.2215238     1196.151  0.061682703  0.062032847            2 
 1617000   0.99698899   -4.2106564     1199.304  0.061807048  0.062021513            5 
 1618000   0.99580952   -4.2196803    1196.4389  0.061621289  0.062010283            4 
 1619000    1.0047498   -4.2334948    1194.6647  0.061491901  0.061999441            2 
 1620000    1.0063436   -4.2147059    1194.5072  0.061445843  0.061988338            1 
 1621000   0.98031133   -4.2175616    1201.0505  0.061744317  0.061977419            4 
 1622000    0.9959861   -4.2154977    1198.0974  0.061554529  0.061966724            2 
 1623000   0.98832581    -4.243379    1198.8882  0.061557208  0.061955454            3 
 1624000   0.98757927   -4.2270341    1197.8088  0.061463917  0.061944391            3 
 1625000   0.96823695   -4.2161544    1200.1952   0.06154847  0.061933059            7 
 1626000   0.99318798   -4.2177987    1199.7866  0.061489676  0.061922069            3 
 1627000    1.0184522   -4.2526108    1202.5384  0.061592828  0.061910951            4 
 1628000    0.9872886   -4.2112063    1201.0155  0.061477044  0.061899855            2 
 1629000   0.98204859   -4.2204095     1201.945  0.061486852  0.061888833            4 
 1630000   0.99522847   -4.2000945    1206.2372  0.061668568  0.061877754            3 
 1631000   0.98170604   -4.2301824    1201.1376  0.061370201  0.061866428            5 
 1632000    1.0026053   -4.2532292      1200.42  0.061295957  0.061855011            3 
 1633000   0.99641731    -4.206781    1202.9526   0.06138766  0.061843523            3 
 1634000   0.96480621   -4.2301953      1204.18  0.061412688  0.061832073            3 
 1635000    1.0212369   -4.2201504    1202.2581  0.061277172  0.061820745            5 
 1636000   0.99702746   -4.2095912    1207.4993  0.061506687   0.06180944            1 
 1637000    1.0045095   -4.1984555    1207.8783  0.061488411  0.061797924            2 
 1638000   0.98017108   -4.1813985    1202.1136  0.061157591  0.061786754            2 
 1639000   0.98711773   -4.2078397    1207.0681  0.061372182  0.061775144            2 
 1640000   0.98719157   -4.2251848    1204.6887  0.061213859  0.061764038            2 
 1641000   0.99249408   -4.2372254    1207.1049  0.061299251  0.061753052            3 
 1642000   0.97451352   -4.2185474    1215.0701  0.061666167  0.061741913            2 
 1643000    0.9866103   -4.1941044    1211.7845  0.061461986  0.061730689            2 
 1644000     1.002328   -4.2515577    1205.2309    0.0610924  0.061719384            3 
 1645000   0.98459128   -4.2390322    1206.4396  0.061116494  0.061708001            2 
 1646000   0.99691454   -4.2089963    1209.5451  0.061236588  0.061696693            2 
 1647000   0.97551853   -4.2282227    1212.5142  0.061349637  0.061685206            6 
 1648000    1.0000121   -4.2260469    1211.9376  0.061283254   0.06167385            3 
 1649000   0.96936743     -4.24327    1209.5755  0.061126721  0.061662455            4 
 1650000   0.97549226   -4.2136747    1210.9737  0.061160286  0.061651147            4 
 1651000   0.99241381   -4.2014169    1213.7125  0.061261484  0.061639484            2 
 1652000   0.99039881   -4.2300353    1209.1819  0.060995857  0.061628138            3 
 1653000   0.96203303   -4.2162023    1209.5091  0.060975454  0.061616717            2 
 1654000   0.97847189    -4.220534    1211.5044   0.06103912  0.061605118            5 
 1655000   0.97355428   -4.1997847     1216.491  0.061253322  0.061593685            5 
 1656000   0.99254209   -4.2444488    1212.9992  0.061040619  0.061582338            4 
 1657000   0.95676604   -4.2375777    1213.4395  0.061025927  0.061570903            3 
 1658000   0.98103163   -4.2338585    1210.9881  0.060865908  0.061559469            2 
 1659000    0.9751879   -4.2426292     1215.429  0.061052292  0.061548075            3 
 1660000    0.9812262    -4.230095    1218.1404  0.061151629  0.061536636            2 
 1661000   0.97358967   -4.2320994    1215.4487  0.060979764  0.061525313            2 
 1662000    1.0068099   -4.2357507    1217.0643  0.061024082  0.061514443            3 
 1663000   0.97307589   -4.2156011    1223.6356  0.061316678  0.061503267            2 
 1664000   0.97407291    -4.251418    1219.3236  0.061063883  0.061492222            2 
 1665000    0.9780783   -4.2363437    1225.2411   0.06132338  0.061480946            5 
 1666000   0.98592681   -4.2543542    1216.6938  0.060859035  0.061469878            6 
 1667000    1.0033905   -4.2456585    1221.7322  0.061074394  0.061458643            2 
 1668000   0.99552704   -4.2736344    1220.6451  0.060983467  0.061447299            2 
 1669000   0.99464695   -4.2397851     1222.343  0.061031706  0.061435871            2 
 1670000   0.97508484   -4.2279556    1222.5653  0.061006251  0.061424721            3 
 1671000   0.95724699   -4.2334477    1223.8097  0.061031801  0.061413438            3 
 1672000   0.97454539   -4.2146625    1224.6176  0.061035566  0.061402123            4 
 1673000   0.97921185   -4.2281679     1222.277  0.060882496  0.061390805            2 
 1674000   0.99974347     -4.26098    1223.8223  0.060923053  0.061379552            5 
 1675000   0.99562207   -4.2032487    1226.5414  0.061021961  0.061368088            2 
 1676000   0.97253231   -4.2284283    1225.5728   0.06093739  0.061357004            3 
 1677000   0.98014969   -4.2216229    1222.3373  0.060740275  0.061345795            2 
 1678000   0.97693714   -4.2341127    1224.2768  0.060800396  0.061334492            7 
 1679000   0.97332445    -4.231889    1225.9804  0.060848737  0.061323093            2 
 1680000    1.0275732   -4.2325621    1229.5347  0.060988826  0.061311999            2 
 1681000    1.0031737   -4.2576099    1225.6646  0.060760687  0.061300549            4 
 1682000   0.98868942    -4.235874    1229.4982  0.060914494  0.061289131            6 
 1683000   0.96483296   -4.2327974    1228.9847  0.060852877  0.061277852            3 
 1684000   0.98355198    -4.230638    1229.1017  0.060822531  0.061266437            2 
 1685000    1.0180194   -4.2290435    1225.4734  0.060606994  0.061254901            2 
 1686000   0.98593461   -4.2295109    1228.4866  0.060719978  0.061243947            5 
 1687000   0.96720364   -4.2457815    1231.2575  0.060820861  0.061232736            1 
 1688000     1.000616   -4.2489696    1230.8944  0.060766903  0.061221398            3 
 1689000   0.98924989   -4.2502007     1228.527  0.060614121  0.061209695            2 
 1690000    1.0038105   -4.2456516    1232.3791  0.060768202  0.061197928            3 
 1691000   0.97044294   -4.2091336    1234.5151  0.060837527  0.061186551            2 
 1692000   0.96220025   -4.2473814     1234.798  0.060815502  0.061175305            2 
 1693000   0.97558914   -4.2079647    1236.6066  0.060868607  0.061163988            2 
 1694000   0.99689857   -4.2517336    1234.3674   0.06072252  0.061152802            3 
 1695000   0.96727503   -4.2393129    1230.3487  0.060489121  0.061141389            6 
 1696000   0.97446995   -4.2253319    1233.0868   0.06058799  0.061129877            3 
 1697000    0.9798326   -4.2395888    1231.7452  0.060486406  0.061118319            3 
 1698000   0.97218417    -4.231769    1241.3124  0.060920317  0.061107009            8 
 1699000   0.99176477   -4.2357063    1237.6345  0.060704065  0.061095785            3 
 1700000   0.99067145   -4.2138529    1240.4912  0.060808392  0.061084177            3 
 1701000   0.97620149   -4.2216209    1237.3231  0.060617435  0.061072746            4 
 1702000   0.99533101   -4.2543957    1233.7652  0.060407619  0.061061389            3 
 1703000   0.97505331   -4.2419164     1234.473   0.06040678  0.061049873            2 
 1704000   0.98151934   -4.2359074    1241.1438  0.060697562  0.061038412            2 
 1705000   0.96850656   -4.2220602    1240.3364  0.060622504  0.061026944            2 
 1706000   0.97400142   -4.2708636    1241.2404  0.060631127  0.061015425            2 
 1707000   0.97669064    -4.255188     1237.122  0.060394553  0.061003672            4 
 1708000   0.96991426   -4.2121927    1237.7162  0.060388184  0.060991959            3 
 1709000   0.97259534   -4.2399516    1243.7693  0.060648006  0.060980465            2 
 1710000   0.98920817   -4.2198122    1243.4723  0.060598064  0.060969181            5 
 1711000    1.0004458   -4.2457363    1242.4732  0.060513989  0.060957642            4 
 1712000   0.99216895   -4.2497481    1239.0897  0.060313948  0.060946058            2 
 1713000   0.96287408   -4.2532238    1239.4895  0.060298187  0.060934598            2 
 1714000      0.98626   -4.2485394    1239.7146   0.06027395  0.060922913            3 
 1715000    1.0069154   -4.2624618    1244.2849  0.060460882  0.060911784            3 
 1716000    0.9847578   -4.2497054    1246.3824  0.060527504  0.060900276            4 
 1717000   0.97938587   -4.2250868    1244.5897  0.060405247  0.060888965            4 
 1718000   0.96858845   -4.2607263    1248.3037  0.060550236  0.060877618            3 
 1719000   0.99590939   -4.2243525    1249.3361  0.060565061  0.060866317            3 
 1720000   0.98493281   -4.2459857    1248.6417  0.060496205  0.060855204            3 
 1721000   0.97173199   -4.2153835    1245.9527  0.060330852  0.060843607            4 
 1722000   0.99136806   -4.2504838    1247.2042  0.060356378  0.060832151            3 
 1723000   0.99532342   -4.2665341    1248.8883  0.060402798  0.060820729            3 
 1724000   0.99310373   -4.2361547    1251.5345  0.060495673  0.060809424            2 
 1725000   0.99952768   -4.2378426    1252.1427  0.060489988   0.06079794            3 
 1726000   0.97381786   -4.2588968    1245.8358  0.060150432  0.060786225            3 
 1727000   0.98318867   -4.2381932    1253.7743  0.060498664  0.060774799            2 
 1728000   0.99683374   -4.2479432    1252.0015  0.060378159   0.06076343            5 
 1729000   0.96558596   -4.2518419    1246.6432  0.060084982  0.060752017            4 
 1730000   0.96273514   -4.1968525    1256.2965  0.060515245  0.060740497            2 
 1731000   0.98046824   -4.2552366    1247.3315  0.060048696  0.060729023            3 
 1732000   0.97184799   -4.2867444    1253.7354  0.060322143  0.060717065            2 
 1733000   0.95514849   -4.2294414    1252.7022   0.06023765  0.060705591            3 
 1734000   0.98614149   -4.2453298    1253.2818  0.060230765  0.060694121            6 
 1735000   0.98547837   -4.2639648    1260.5498   0.06054514  0.060682604            7 
 1736000   0.96545641   -4.2473285    1251.1423  0.060058672   0.06067089            2 
 1737000   0.98843282   -4.2433847    1257.9689  0.060351605  0.060659437            3 
 1738000   0.98249292   -4.2402007    1259.6169  0.060395902  0.060648147            1 
 1739000   0.97788045   -4.2436891    1259.1006  0.060336428  0.060636705            5 
 1740000   0.96855036   -4.2276966    1258.6968  0.060282413   0.06062526            4 
 1741000   0.96860081   -4.2685364    1258.0377   0.06021624  0.060613739            2 
 1742000   0.98817264   -4.2500815    1256.5915  0.060112493   0.06060216            2 
 1743000   0.95784793   -4.2499445    1253.2655  0.059918986  0.060590288            2 
 1744000   0.96349275   -4.2538608    1256.8089  0.060053942  0.060578702            3 
 1745000   0.95979708    -4.257503    1257.3305  0.060044439  0.060566937            3 
 1746000    0.9639924   -4.2094751    1258.3172   0.06005714  0.060555196            5 
 1747000   0.98425097    -4.233443    1259.6925  0.060088368  0.060543548            2 
 1748000   0.96155103   -4.2748476    1259.5111   0.06004534  0.060531719            3 
 1749000   0.97819389   -4.2436827    1257.7549  0.059927333  0.060520051            3 
 1750000   0.98340546   -4.2546899    1262.0411  0.060097196  0.060508428            5 
 1751000   0.96208359   -4.2498314    1257.4713   0.05984539  0.060496587            6 
 1752000   0.97964122   -4.2373761    1262.6298  0.060056593  0.060484881            3 
 1753000   0.98856452   -4.2352419    1263.7869  0.060077341  0.060473338            3 
 1754000    1.0044077   -4.2220965    1261.9947  0.059957938  0.060461951           14 
 1755000   0.95855352   -4.2826364    1262.1999  0.059933519  0.060450512            3 
 1756000   0.97328758   -4.2513828    1262.8402  0.059929772  0.060438624            4 
 1757000   0.97062918   -4.2533372      1258.55  0.059692182  0.060427076            3 
 1758000   0.97099968   -4.2175454    1269.8314  0.060192996  0.060415568            5 
 1759000   0.92969728   -4.2373126    1266.9778  0.060023583  0.060404293            2 
 1760000   0.96420626    -4.260989    1264.7111  0.059882154  0.060392903            5 
 1761000   0.98878187    -4.259022    1267.3324  0.059972196  0.060381357            4 
 1762000   0.98058393   -4.2739775    1266.4742  0.059897569  0.060369808            3 
 1763000   0.98112542   -4.2441414    1271.6725  0.060109306  0.060358431            6 
 1764000   0.97217218   -4.2616884    1266.7423  0.059842325  0.060346777            2 
 1765000   0.95752845   -4.2776416    1266.5667  0.059800126  0.060335003            5 
 1766000   0.97217083   -4.2341349    1269.8652  0.059921914  0.060323033            2 
 1767000   0.97151306   -4.2364661    1265.7212  0.059692566  0.060311497            3 
 1768000   0.96866772   -4.2500347     1267.331  0.059734681  0.060299731            3 
 1769000   0.96464975   -4.2456708    1270.9449  0.059871154  0.060288241            3 
 1770000   0.95440148   -4.2566224    1277.1991  0.060131783  0.060277106            3 
 1771000   0.95176848   -4.2492482    1275.0593  0.059997144  0.060265747            2 
 1772000   0.96640655   -4.2641593    1271.2222  0.059782835  0.060254435            4 
 1773000   0.96931288    -4.260886    1274.2961  0.059893592  0.060243079            4 
 1774000   0.95718062   -4.2427162    1269.8862  0.059652678  0.060231658            2 
 1775000   0.96660109   -4.2567469    1275.0714  0.059862508  0.060220118            1 
 1776000   0.96049621   -4.2777793    1275.6903  0.059857841  0.060208649            2 
 1777000   0.96110432   -4.2486445     1272.975  0.059696822  0.060197099            5 
 1778000    0.9723804    -4.278034    1271.9166  0.059613638  0.060185683            2 
 1779000   0.95827802   -4.2445769    1274.1968   0.05968694  0.060174248            3 
 1780000   0.96369608    -4.256379    1276.7639  0.059773593  0.060162854            3 
 1781000   0.95848623   -4.2670939    1278.7449  0.059832722  0.060151469            3 
 1782000   0.96786479   -4.2323968    1287.6672  0.060216384  0.060140056            3 
 1783000   0.95090987   -4.2626444    1278.0381  0.059732571  0.060128621            4 
 1784000   0.95817352   -4.2512875    1278.6701  0.059728612  0.060117083            5 
 1785000   0.97191726   -4.2835984    1276.7383  0.059604963  0.060105538            2 
 1786000   0.96412257   -4.2587628    1278.5323  0.059655294  0.060094242            4 
 1787000   0.96739371   -4.2738493    1278.5422  0.059622375  0.060082743            7 
 1788000   0.95981147   -4.2739952    1280.4621  0.059678511  0.060071197            3 
 1789000   0.95296495   -4.2612892    1281.4266  0.059690077  0.060059877            2 
 1790000   0.96084368   -4.2722798    1282.3211  0.059698375  0.060048263            5 
 1791000   0.96699491   -4.2722321    1278.6947  0.059496312  0.060036587            3 
 1792000   0.95848929   -4.2790732    1281.1868  0.059579001  0.060024652            4 
 1793000   0.98922866   -4.2406517    1284.2116  0.059686355  0.060012924            4 
 1794000   0.95835197   -4.2885658     1281.047  0.059506087  0.060001262            2 
 1795000   0.97281322   -4.2824954    1283.7536  0.059598588  0.059989537            3 
 1796000   0.97328702   -4.2258724     1283.753  0.059565375  0.059977988            6 
 1797000   0.96364765   -4.2807639    1283.2862  0.059510582  0.059966554            3 
 1798000   0.95130534   -4.2566379    1284.0664  0.059513643  0.059954836            4 
 1799000   0.94733915    -4.264713    1280.9212  0.059334869  0.059943161            7 
 1800000   0.94561615   -4.2680083    1284.9289   0.05948745  0.059931596            2 
 1801000   0.95924709   -4.2785927    1283.8794   0.05940586  0.059920049            5 
 1802000   0.96543791   -4.2492105     1285.029  0.059426054   0.05990823            2 
 1803000    0.9571841   -4.2697781    1281.8935  0.059248174  0.059896373            2 
 1804000   0.96641484   -4.2753913    1285.5544  0.059384442  0.059884561            2 
 1805000   0.96700943   -4.2599034    1287.9823  0.059463632  0.059872936            4 
 1806000   0.94051346   -4.2654888    1283.1222  0.059206449   0.05986128            3 
 1807000   0.96936843   -4.3009011    1281.6106  0.059103977  0.059849562            2 
 1808000   0.96629695   -4.2466765    1294.1065  0.059647241  0.059838012            3 
 1809000   0.96763675   -4.2764474    1289.4784  0.059401068  0.059826355            8 
 1810000   0.96077349   -4.2756494    1289.3095  0.059360475   0.05981479            3 
 1811000   0.94126487   -4.2716779    1291.1895  0.059414205   0.05980322            3 
 1812000   0.95947724   -4.2583532     1291.775  0.059408343  0.059791602            2 
 1813000   0.97197718   -4.2431075    1291.1808  0.059348263  0.059779931            2 
 1814000   0.94213254   -4.2857089    1290.6029  0.059288996  0.059768239            2 
 1815000   0.98259624   -4.2618942    1295.4412  0.059478475  0.059756871            2 
 1816000   0.96645892   -4.2566017    1295.4568  0.059446437  0.059745405            3 
 1817000   0.97714978   -4.2632544    1287.4929  0.059048474  0.059733995            2 
 1818000   0.95137433   -4.2968461    1292.9449  0.059265901  0.059722401            3 
 1819000   0.97731125   -4.2817521    1294.5391  0.059306354  0.059710786            6 
 1820000   0.95744505   -4.2777396    1290.5098  0.059089276  0.059699087            9 
 1821000   0.95996318   -4.2498866     1294.847  0.059255308  0.059687141            3 
 1822000   0.95122327   -4.2605495    1292.6138  0.059120645  0.059675726            7 
 1823000   0.97177132   -4.2748598    1302.1913  0.059526023  0.059664189            4 
 1824000   0.96257655   -4.2845736    1295.9552  0.059208481  0.059652612            4 
 1825000   0.94751493   -4.2513881    1298.3036  0.059283269   0.05964101            9 
 1826000   0.96181065   -4.2862461    1295.5122  0.059123413  0.059629616            3 
 1827000   0.93919972   -4.2667389    1297.4803  0.059180818  0.059618168            3 
 1828000   0.95288249   -4.2426022    1299.3293  0.059232738  0.059606557            3 
 1829000   0.96835099   -4.2960824    1294.0999  0.058962087  0.059594974            3 
 1830000   0.94665118   -4.2938353    1295.7066  0.059003034  0.059583195            4 
 1831000   0.98324233   -4.2778809    1297.1166  0.059034981   0.05957155            2 
 1832000     0.955967   -4.2692709    1301.9265  0.059221546  0.059559841            8 
 1833000   0.96130896   -4.2711823    1300.5102  0.059124851  0.059548196            3 
 1834000   0.95229893   -4.2846505    1301.1765  0.059122885  0.059536383            6 
 1835000   0.94115994   -4.2726698    1303.4407  0.059193492  0.059524776            2 
 1836000   0.94700109   -4.2652437     1303.074  0.059144606  0.059513035            2 
 1837000   0.95764836   -4.2531848    1304.9407  0.059197093   0.05950139            3 
 1838000    0.9693638     -4.27204    1300.0251  0.058942018  0.059490204            4 
 1839000   0.96604505   -4.2790465    1304.6933  0.059121501  0.059478459            4 
 1840000   0.96235344   -4.2764672    1307.1386  0.059200119  0.059466841            2 
 1841000    0.9825496   -4.2816571    1301.7375  0.058923478  0.059455233            3 
 1842000   0.94124584   -4.2848925    1306.7456   0.05911806  0.059443573            2 
 1843000   0.97243189   -4.2821399     1304.414  0.058980556  0.059431969            2 
 1844000   0.95734505   -4.2650371    1303.9805  0.058928982  0.059420413            4 
 1845000    0.9522855   -4.3109094    1305.4169   0.05896192  0.059408994            4 
 1846000   0.96478603   -4.2853487    1305.1707  0.058918864   0.05939739            6 
 1847000   0.94007928   -4.2547926    1305.3705  0.058895979   0.05938592            4 
 1848000    0.9504194    -4.255628    1309.8339  0.059065381  0.059374109            2 
 1849000   0.96380442   -4.2763604    1308.9674  0.058994385  0.059362266            4 
 1850000    0.9657412   -4.2908516    1307.9815  0.058918085   0.05935062            3 
 1851000   0.98026224   -4.3082634     1308.201  0.058896139   0.05933905            3 
 1852000   0.95196895   -4.3180247    1305.4439  0.058740278  0.059327389            3 
 1853000    0.9532561   -4.3048869    1307.2584  0.058790177  0.059315515            3 
 1854000   0.95906354    -4.298158    1308.7498  0.058825503  0.059303551            3 
 1855000   0.94231002   -4.2808944    1309.6918   0.05883611  0.059291812            5 
 1856000    0.9529497   -4.2900707    1307.2585  0.058695156  0.059280066            5 
 1857000   0.95390644    -4.293431    1305.7092  0.058594021  0.059268011            3 
 1858000   0.96232784   -4.2762938    1313.8736  0.058928671  0.059255965            2 
 1859000   0.95539646   -4.2709947    1308.5894  0.058660095  0.059244267            1 
 1860000   0.92859808   -4.3020026    1307.6821  0.058587906  0.059232411            3 
 1861000   0.95096715   -4.3071233    1310.3073   0.05867398  0.059220332            2 
 1862000   0.93405774    -4.267426    1316.3396  0.058912443  0.059208538            2 
 1863000   0.92245357   -4.2701477    1314.4741  0.058797376  0.059196869            3 
 1864000   0.97211027   -4.2771491    1317.9367  0.058920633  0.059185235            6 
 1865000   0.95461498   -4.2667063    1312.9957  0.058668262  0.059173557            4 
 1866000   0.94055535   -4.2993773    1314.0153  0.058682354  0.059161811            2 
 1867000   0.94117389   -4.3261321    1312.6306  0.058589118  0.059150253            4 
 1868000   0.95431929   -4.2556063    1316.7856  0.058743113  0.059138634            5 
 1869000   0.96011226   -4.2877947    1311.2177  0.058463427  0.059126833            2 
 1870000   0.96947701   -4.2816195    1313.7033  0.058542929  0.059115295            5 
 1871000   0.96475809   -4.2922385    1318.5013   0.05872534   0.05910359            3 
 1872000   0.96648688   -4.2855924    1320.5692  0.058786024  0.059091909            7 
 1873000   0.96557117   -4.3229261     1316.052  0.058553656  0.059080033            3 
 1874000   0.95680332   -4.2903689     1321.807  0.058778325  0.059068419            7 
 1875000   0.94568908   -4.2961138    1317.5414  0.058557396  0.059056566            3 
 1876000   0.94567389   -4.3147356    1321.1231  0.058685282  0.059044986            4 
 1877000   0.94908718   -4.3162865    1318.4949  0.058537331  0.059033494            4 
 1878000    0.9394813   -4.2853437    1319.3198  0.058542765  0.059022139            3 
 1879000   0.96034247   -4.2721932    1318.7712  0.058487279  0.059010842            7 
 1880000   0.96927823   -4.3082328    1323.5731   0.05866902  0.058999642            1 
 1881000   0.93542185    -4.255956    1324.7436  0.058689684  0.058988258            2 
 1882000   0.95298068   -4.3205105    1324.9462  0.058667473  0.058976982            3 
 1883000   0.94395431   -4.2677542    1322.7724  0.058540114  0.058965556            8 
 1884000   0.95447161   -4.3194165     1322.949  0.058516854  0.058954157            2 
 1885000   0.93284645   -4.2785549    1323.7686  0.058522041  0.058942696            4 
 1886000   0.95894743   -4.2733387    1325.1747   0.05855314  0.058931398            3 
 1887000   0.95760107   -4.2861775    1330.6065  0.058761989  0.058920036            2 
 1888000   0.96585787   -4.3149042    1326.0875  0.058531405  0.058908789            3 
 1889000   0.95672117     -4.30453    1326.0451  0.058498549  0.058897562            2 
 1890000   0.91946636   -4.2995436     1326.895   0.05850507  0.058886176            6 
 1891000   0.93674321   -4.2776276     1327.716  0.058510313  0.058874967            3 
 1892000   0.94796948   -4.3056902     1329.128   0.05854158  0.058863723            8 
 1893000    0.9329678   -4.2829573    1331.4673  0.058613635  0.058852486            3 
 1894000   0.95947854   -4.2749089    1329.3278  0.058488553  0.058841102            4 
 1895000   0.93555438    -4.311566    1326.7007   0.05834216  0.058829782            3 
 1896000   0.93754744   -4.2532354    1336.3266  0.058734469  0.058818585            4 
 1897000   0.94894755   -4.2946173    1335.8141  0.058680993  0.058807551            3 
 1898000   0.93258386   -4.2909245    1327.6775  0.058292831  0.058796203            3 
 1899000   0.93201765   -4.3268694    1331.2595  0.058419322  0.058784751            5 
 1900000    0.9407743   -4.3016252    1329.8012  0.058324614   0.05877307            5 
 1901000   0.94309534   -4.3080304    1326.7433  0.058159884  0.058761315            3 
 1902000   0.94296993   -4.2845666    1334.1744  0.058454891  0.058749586            3 
 1903000   0.92694707   -4.3181325    1331.0559  0.058287612  0.058738022            6 
 1904000      0.94212   -4.2954756    1329.9476  0.058208489  0.058726595            3 
 1905000   0.93793811   -4.2788735    1334.2004  0.058363971  0.058715177            2 
 1906000   0.94261067   -4.2655142    1336.9988  0.058455699  0.058703639            3 
 1907000    0.9392736   -4.2974236    1330.2915  0.058131947  0.058691932            5 
 1908000   0.96291706   -4.2901061    1331.3238  0.058146565  0.058680309            4 
 1909000   0.93435461   -4.2752985    1330.2679  0.058070017  0.058668636            4 
 1910000    0.9311122   -4.2792005    1335.3859   0.05826291  0.058657114            2 
 1911000   0.94269871   -4.3006026    1334.6088  0.058198534  0.058645469            2 
 1912000   0.95126902   -4.2893081    1334.4984  0.058163284  0.058633608            2 
 1913000   0.93077536   -4.3108693     1331.042  0.057982313  0.058621877            3 
 1914000   0.95504431   -4.3249647    1333.6034  0.058063539  0.058610011            5 
 1915000   0.93052894   -4.3373067    1334.1243  0.058055886  0.058598098            2 
 1916000   0.96105428    -4.284007    1336.5083  0.058129275  0.058586615            6 
 1917000   0.93393786   -4.2931467    1336.7524  0.058109561  0.058574947            3 
 1918000   0.95541799   -4.3031777      1336.29  0.058059176   0.05856323            4 
 1919000   0.93890903   -4.2868179    1338.8796  0.058141377  0.058551695            2 
 1920000   0.93074217   -4.3096035    1333.1407  0.057862009   0.05854004            2 
 1921000    0.9580612   -4.3080265    1334.3303  0.057883494  0.058528284            4 
 1922000    0.9377983   -4.3007748    1336.2823  0.057938014  0.058516657            3 
 1923000    0.9520606   -4.2809342    1345.0808  0.058289168   0.05850508            3 
 1924000   0.93806203   -4.2567845    1342.6324  0.058152823  0.058493544            4 
 1925000   0.95391298   -4.2990704    1341.0653  0.058054774  0.058481902            2 
 1926000   0.95695652   -4.2807408    1340.8708  0.058016215  0.058469996            5 
 1927000   0.96132055   -4.3031025    1342.8746  0.058072766  0.058458138            3 
 1928000   0.94118524   -4.2814987    1338.5783  0.057856946  0.058446356            6 
 1929000   0.93211459   -4.3107261     1338.922    0.0578418  0.058434341            3 
 1930000   0.95092086   -4.2961673    1338.1371  0.057777942  0.058422226            7 
 1931000   0.92022731   -4.2934304    1343.8109  0.057992875  0.058410387            2 
 1932000   0.93125146   -4.2719509    1341.4295  0.057860139  0.058398404            7 
 1933000   0.93807713   -4.2834853    1337.9063  0.057678321  0.058386685            3 
 1934000   0.92780159   -4.3103627    1341.0389  0.057783474  0.058374768            5 
 1935000   0.96420254   -4.3103384    1344.5824  0.057906219  0.058362919            2 
 1936000   0.95263304   -4.2772753    1345.3323  0.057908585   0.05835115            2 
 1937000   0.96613246   -4.3065488    1339.4821  0.057627003  0.058339133            4 
 1938000   0.93026681   -4.3064516    1342.1718  0.057712926  0.058327455            2 
 1939000   0.96701242   -4.2948828    1345.9889  0.057847211  0.058315787            4 
 1940000   0.95035137    -4.312836     1344.966  0.057773454   0.05830396            2 
 1941000   0.94898576   -4.3182273    1347.3421  0.057845701  0.058292068            3 
 1942000   0.93408558   -4.2726392    1346.4994  0.057779755  0.058280213            4 
 1943000    0.9303621   -4.2957428    1346.8103  0.057763349  0.058268395            5 
 1944000   0.94879504   -4.3288584    1342.8414  0.057563504  0.058256634            3 
 1945000   0.93602129   -4.3172707    1348.0962  0.057759049  0.058244687            2 
 1946000   0.95761826   -4.2942162     1347.058  0.057684909  0.058232835            2 
 1947000   0.94959635   -4.3048005    1344.9819  0.057566424  0.058220747            6 
 1948000   0.92537743   -4.2580207    1349.0318  0.057710123  0.058208617            3 
 1949000   0.94010573    -4.280586    1347.8157  0.057628515  0.058196738            2 
 1950000   0.95038757   -4.3050086    1343.2118  0.057402216  0.058184551            4 
 1951000   0.94414017   -4.2912048    1349.2315  0.057629914  0.058172469            2 
 1952000   0.93789679   -4.3328255    1351.0341  0.057677344  0.058160555            3 
 1953000   0.93669311   -4.3163555    1347.8129  0.057510362  0.058148671            4 
 1954000   0.94663321   -4.3232574    1349.5771   0.05755617  0.058136635            4 
 1955000   0.94983744   -4.3024214    1354.1556  0.057721893   0.05812482            3 
 1956000    0.9382785   -4.3040636    1354.2349   0.05769576  0.058113076            3 
 1957000   0.93262775   -4.2789398    1351.5951  0.057553873  0.058101264            2 
 1958000   0.91569842   -4.2708277    1354.5357  0.057649629   0.05808948            3 
 1959000   0.94788333   -4.3417447    1354.1357  0.057603188  0.058077384            6 
 1960000   0.94111089   -4.3271479    1354.2445  0.057578424  0.058065028            1 
 1961000   0.94587273   -4.3384523     1355.706  0.057611167  0.058053097            3 
 1962000   0.93802786   -4.3239774     1356.963  0.057635194  0.058041142            4 
 1963000   0.93837995   -4.3082023    1357.0653  0.057610174  0.058029236            3 
 1964000   0.93953592   -4.3059574    1354.1502  0.057457155  0.058017308            3 
 1965000   0.92405051   -4.3251608    1357.8034  0.057582843  0.058005693            3 
 1966000   0.93491852   -4.3053157    1356.3563  0.057492214  0.057993865            5 
 1967000   0.92776579    -4.319672    1357.0791  0.057493605  0.057981988            3 
 1968000   0.94775142    -4.325499    1359.9918  0.057587729  0.057969912            6 
 1969000   0.94405565   -4.3410025    1356.1169  0.057394487  0.057957848            5 
 1970000   0.94367899   -4.3379265    1355.3917  0.057334675  0.057945704            3 
 1971000   0.94248919   -4.3080165    1353.5131  0.057226157  0.057933547            4 
 1972000   0.93352011   -4.3373694    1356.0379  0.057303833  0.057921456            4 
 1973000    0.9608275   -4.3070806    1359.3828  0.057416066   0.05790944            4 
 1974000    0.9594838    -4.328632    1360.8332  0.057448211  0.057897366            3 
 1975000   0.93652849   -4.2864835    1367.3282  0.057693173  0.057885195            2 
 1976000   0.92816326   -4.2729289    1361.4351  0.057415449   0.05787344            1 
 1977000   0.92099998   -4.3159035    1361.8028  0.057401904  0.057861571            5 
 1978000   0.94423812   -4.3231697    1353.5449   0.05702498  0.057849359            3 
 1979000   0.92733448   -4.3233639     1361.803  0.057343901  0.057837341            4 
 1980000   0.93415157    -4.274929    1366.0533  0.057493825  0.057825566            6 
 1981000    0.9323385   -4.3352444    1356.1582  0.057048554  0.057813535            2 
 1982000   0.93960842   -4.3326582    1360.4816  0.057201547  0.057801406            2 
 1983000    0.9361175   -4.3545104     1361.348  0.057209112  0.057789434            2 
 1984000   0.93677013   -4.3203121    1362.9596  0.057247966  0.057777353            2 
 1985000   0.93566811   -4.2972401    1368.4866  0.057451157  0.057765586            5 
 1986000   0.94245835   -4.3091446    1369.6635  0.057471613   0.05775392            6 
 1987000   0.89844624   -4.3285856     1367.902  0.057368813  0.057742281            2 
 1988000   0.90039545   -4.2803559    1368.4668  0.057363631  0.057730643            3 
 1989000    0.9301618    -4.316855     1367.535  0.057295753  0.057718973            2 
 1990000   0.92033631   -4.3333038    1366.9106  0.057240813  0.057707177            4 
 1991000   0.91773492   -4.3292646    1367.7313  0.057246412  0.057695548            5 
 1992000   0.94597617   -4.3162439    1370.7547  0.057344156  0.057684131            2 
 1993000   0.93448027   -4.3407217    1372.6126  0.057393066  0.057672801            3 
 1994000   0.91636014   -4.3369574    1376.1542  0.057512296  0.057661648            3 
 1995000   0.95783984   -4.3348639    1382.5924  0.057752399  0.057650538            3 
 1996000   0.92659712    -4.317126    1377.6478  0.057517024  0.057639536            3 
 1997000   0.94147197   -4.3376576    1374.5887   0.05736057  0.057628655            6 
 1998000   0.93242639   -4.3237981    1376.1032   0.05739503  0.057617792            3 
 1999000   0.92311393   -4.3139715    1376.6447  0.057388891  0.057606684            5 
 2000000   0.94061557   -4.3110389    1380.7091  0.057529546  0.057595807            2 
 2001000   0.93781777   -4.3154175    1375.9454  0.057302408  0.057584905            3 
 2002000   0.92463653   -4.3445906    1381.7916  0.057517132  0.057573996            3 
 2003000   0.92978275   -4.2874988    1380.2564  0.057424546  0.057562999            5 
 2004000   0.92551281   -4.3340835     1380.788  0.057417997  0.057552252            2 
 2005000    0.9390114   -4.3442797    1377.9519  0.057271485  0.057541471            4 
 2006000   0.92451117   -4.2977539    1381.9213  0.057407831   0.05753065            4 
 2007000   0.94814689    -4.307922    1383.6456  0.057450821  0.057519857            4 
 2008000   0.93851198   -4.2981346    1381.4431  0.057330807  0.057508963            1 
 2009000   0.95289953   -4.3134305    1386.8465  0.057526403  0.057498311            6 
 2010000   0.93838765   -4.3290307    1383.5969  0.057363058  0.057487508            8 
 2011000   0.91441973   -4.3045598    1387.0904  0.057479298   0.05747663            3 
 2012000   0.93678527   -4.3406217    1378.6121  0.057099573  0.057465679            7 
 2013000   0.91783955   -4.3389863    1382.8348  0.057246018   0.05745479            3 
 2014000   0.93167016   -4.3195758    1378.3854  0.057033491  0.057443764            6 
 2015000   0.92892925    -4.321951    1386.7782  0.057352283  0.057432579            4 
 2016000   0.91289419   -4.3196728    1386.2718  0.057302901  0.057421602            3 
 2017000   0.92634338   -4.3104775    1389.7854  0.057419656   0.05741076            3 
 2018000   0.92273034   -4.3412443    1384.4688  0.057171655  0.057399731            3 
 2019000   0.92584056   -4.3377056    1388.8957  0.057326058    0.0573889            5 
 2020000   0.92479136   -4.3321481    1386.5395  0.057200473   0.05737793            2 
 2021000    0.9358662      -4.3102    1392.3155  0.057410338   0.05736702            4 
 2022000   0.90553341   -4.3342799    1384.8572  0.057074565  0.057356125           11 
 2023000   0.93380205   -4.3671868    1389.8467  0.057251882  0.057344931            4 
 2024000   0.91895295   -4.3007415    1390.9926  0.057270774  0.057334074            2 
 2025000   0.91330898   -4.3129941    1385.7964  0.057028658  0.057323396            6 
 2026000   0.94685676   -4.3211477    1390.9398  0.057212069  0.057312334            5 
 2027000   0.91707535   -4.3542294    1386.1873   0.05698846  0.057301295            4 
 2028000   0.95106975   -4.3336904    1393.3371  0.057254153  0.057290223            2 
 2029000   0.91959981   -4.3315684    1387.3913  0.056981734  0.057279059            3 
 2030000   0.91688746   -4.3542078     1385.647  0.056882062  0.057267836            3 
 2031000   0.93402661   -4.3277472    1390.7531  0.057063559  0.057256473            3 
 2032000   0.93145149   -4.3441087    1386.6017  0.056865226  0.057245308            3 
 2033000   0.92923146   -4.3634563    1387.6481  0.056880147  0.057234053            3 
 2034000   0.93459265   -4.3404889    1393.0504  0.057073519   0.05722299            8 
 2035000   0.93643466   -4.3275851    1398.0751  0.057251232  0.057211995            5 
 2036000   0.92218257   -4.3592232    1390.6719  0.056920101  0.057201148            3 
 2037000   0.93438606   -4.3397696    1390.2788  0.056876078   0.05719008            4 
 2038000   0.91156196   -4.3330627    1394.0634   0.05700292  0.057179183            2 
 2039000   0.93341302   -4.3272926    1393.0949  0.056935383  0.057168473            2 
 2040000   0.92699121   -4.3166876    1395.7029  0.057014007  0.057157649            3 
 2041000   0.92232897   -4.2990476    1398.6091  0.057104732  0.057146656            4 
 2042000   0.94092553   -4.3482011    1395.1841  0.056936995  0.057135741            6 
 2043000   0.94050256   -4.3273938    1392.1517  0.056785433  0.057124744            2 
 2044000   0.91835959   -4.3270439    1404.0359  0.057242169  0.057113946            6 
 2045000   0.92374025   -4.3216303    1398.6351  0.056994096  0.057103367            4 
 2046000   0.89835623   -4.3439699    1396.8013  0.056891548  0.057092562            8 
 2047000   0.92736821   -4.3342606    1400.4543  0.057012468   0.05708177            1 
 2048000   0.92099898   -4.3036393    1408.9346  0.057329695  0.057071191            4 
 2049000   0.89187958    -4.333887     1400.594  0.056962503  0.057060604            4 
 2050000   0.92930704   -4.3542754    1404.0878  0.057076739  0.057049916            5 
 2051000   0.93410953   -4.3261386    1407.2454  0.057177205  0.057039272            5 
 2052000   0.93663729   -4.3455308    1397.3077  0.056745764  0.057028389            5 
 2053000   0.92782121   -4.3346677     1398.103  0.056750406  0.057017434            4 
 2054000   0.93514853   -4.3210324    1401.4071  0.056856827  0.057006454            4 
 2055000   0.92802745   -4.3338049    1402.9266   0.05689078  0.056995497            9 
 2056000   0.92887302   -4.3197751    1402.7509  0.056855986  0.056984503            4 
 2057000   0.90301896   -4.3118466    1400.2938  0.056728805  0.056973708            5 
 2058000   0.92880577    -4.331153    1403.2833  0.056822289  0.056962872            3 
 2059000   0.92965458   -4.3491946    1403.3935  0.056799154  0.056952218            6 
 2060000    0.8908989   -4.3364769    1402.7866  0.056747031   0.05694142            4 
 2061000   0.92052189   -4.3425489    1405.8641  0.056843932   0.05693066            4 
 2062000   0.92051515   -4.3368251    1401.6821  0.056647354   0.05691988            4 
 2063000    0.9177745   -4.3379365    1405.4043  0.056770248  0.056908754            5 
 2064000   0.92902824   -4.3388582    1409.4552  0.056906297   0.05689774            5 
 2065000   0.91712475   -4.3305981    1406.4462  0.056757314  0.056886904            3 
 2066000   0.90187283   -4.3433807    1404.4287  0.056648464  0.056875903            2 
 2067000   0.91238863   -4.3332527    1405.5488  0.056666216  0.056864992            3 
 2068000   0.91173186    -4.348625    1403.7361  0.056565769  0.056854091            4 
 2069000   0.93034086   -4.3176594    1408.1233   0.05671513  0.056843139            3 
 2070000   0.93031705   -4.3432066    1405.6097  0.056586542  0.056831981            5 
 2071000   0.92806374   -4.3557958    1406.3791  0.056590177  0.056820807            8 
 2072000   0.93772158   -4.3222767    1408.8956  0.056664078  0.056809718            4 
 2073000   0.92201677   -4.3292176    1414.0646  0.056844534  0.056798989            6 
 2074000   0.93074343   -4.3299821    1412.3982  0.056750167  0.056788237            4 
 2075000   0.92127949   -4.3343185    1408.7697  0.056577098  0.056777159            5 
 2076000   0.90194061   -4.3715368    1411.9981  0.056679436  0.056766155            3 
 2077000   0.91549256   -4.3570501    1411.0017   0.05661217  0.056755025            4 
 2078000    0.9144641   -4.3297933    1409.7003  0.056532737  0.056743938            3 
 2079000   0.91437026    -4.345315    1414.8923  0.056713655  0.056732753            5 
 2080000   0.91357975   -4.3136085    1409.1499  0.056456326   0.05672168            6 
 2081000   0.93555416   -4.3483517    1407.3427  0.056356828  0.056710731            2 
 2082000   0.91811075   -4.3406808    1413.5392  0.056577777  0.056699574            7 
 2083000   0.94462479   -4.3324462    1415.1004  0.056613076   0.05668873            7 
 2084000   0.91200062   -4.3517284     1412.299  0.056473889  0.056677657            4 
 2085000   0.92789777   -4.3445575    1413.6635  0.056501337  0.056666614            5 
 2086000   0.92916445   -4.3494027    1419.9526  0.056725495  0.056655639           11 
 2087000   0.90110055   -4.3376913    1417.8318  0.056613633  0.056644788            5 
 2088000   0.90983544   -4.3178356    1419.8832  0.056668391  0.056633893            5 
 2089000   0.91928654   -4.3594702    1410.5339  0.056268306  0.056622955            3 
 2090000   0.90825023   -4.3518824    1419.4014  0.056594952  0.056612112            4 
 2091000   0.92395858   -4.3294358    1411.8126  0.056265449  0.056601061            4 
 2092000   0.92020804   -4.3240091    1421.4612  0.056622898  0.056590049            4 
 2093000   0.91314348   -4.3343371     1415.121  0.056343405   0.05657889            4 
 2094000   0.92301411   -4.3508025     1416.667  0.056378025  0.056567593            2 
 2095000    0.9228169   -4.3315394    1415.1956  0.056292586  0.056556331            3 
 2096000   0.91180374   -4.3577598     1417.057  0.056339736   0.05654534            3 
 2097000   0.93281066   -4.3271412    1419.6336  0.056415261  0.056534168            3 
 2098000   0.89781134   -4.3652214    1417.7574  0.056313848  0.056523101            3 
 2099000   0.92762018   -4.3169007    1421.2614   0.05642613  0.056512123            2 
 2100000   0.93234837   -4.3600495    1422.6856  0.056455777  0.056501102            6 
 2101000   0.90660306   -4.3648892    1414.5518  0.056106292  0.056490128            4 
 2102000   0.89939058   -4.3484061    1416.9749  0.056175661  0.056479059            3 
 2103000   0.92115497    -4.357724     1418.133  0.056194839  0.056467949            3 
 2104000   0.92383124    -4.388078    1418.6744  0.056189575  0.056456867            3 
 2105000   0.91183231   -4.3569629    1420.4492  0.056233144   0.05644557            3 
 2106000   0.91719183   -4.3419861    1416.7912  0.056061699  0.056434231            3 
 2107000   0.91701443   -4.3553738    1417.0806  0.056046534  0.056422992            4 
 2108000   0.91201823   -4.3442123     1417.164  0.056023244  0.056411725            3 
 2109000   0.93647376   -4.3748399    1417.9106  0.056026181  0.056400568            2 
 2110000   0.91804126   -4.3723264    1420.0614  0.056084573    0.0563892            3 
 2111000   0.90388382   -4.3489595    1416.7422  0.055926979  0.056377796            2 
 2112000   0.90673552   -4.3650314    1420.8371  0.056062069  0.056366456            4 
 2113000   0.91801937   -4.3646258    1425.6391  0.056224919  0.056355189           10 
 2114000   0.91247806   -4.3517101    1418.1064  0.055901388  0.056343904            3 
 2115000   0.93241289   -4.3669689     1421.042  0.055990622  0.056332591            4 
 2116000   0.92977666   -4.3779858    1424.6503  0.056106265  0.056321364            7 
 2117000   0.90105026    -4.384098    1420.8181  0.055928912  0.056310001            2 
 2118000   0.90300214   -4.3604776    1419.6633  0.055857069   0.05629869            6 
 2119000   0.91850208   -4.3502146     1421.039   0.05588481  0.056287517            6 
 2120000   0.91903225   -4.3679222    1428.5996  0.056155644  0.056276353            3 
 2121000   0.91512232   -4.3727523     1425.168  0.055994343  0.056265103            4 
 2122000   0.90575972   -4.3678599    1422.9775  0.055881932    0.0562538            5 
 2123000   0.90099631    -4.342825    1428.0697  0.056055492  0.056242529            4 
 2124000   0.88796349    -4.366423     1429.539  0.056086745  0.056231282            5 
 2125000   0.91472895   -4.3621808    1427.9051  0.055996279  0.056220192            4 
 2126000   0.91337431   -4.3612651    1428.1431  0.055979267  0.056208976            2 
 2127000   0.90270248   -4.3445905    1430.9728  0.056063813  0.056197913            4 
 2128000   0.92657447   -4.3477061    1429.3366  0.055973393  0.056186752            7 
 2129000   0.92278373   -4.3405085    1432.1448  0.056057023  0.056175591            3 
 2130000   0.91128858   -4.3830016    1426.8982   0.05582544  0.056164368            5 
 2131000   0.90413819    -4.376181    1426.2256  0.055772938  0.056153145            5 
 2132000   0.92797051   -4.3553936    1426.1044  0.055742042  0.056141757            2 
 2133000   0.91083707    -4.362399    1430.4886  0.055887191  0.056130621            6 
 2134000   0.89154536    -4.361722     1430.887  0.055876564  0.056119281            3 
 2135000   0.92339451   -4.3646925    1427.2926  0.055710094  0.056108014            3 
 2136000      0.93192   -4.3461836    1433.8712  0.055940669  0.056096628            3 
 2137000   0.91147837   -4.3672472     1427.737  0.055675285   0.05608542            4 
 2138000   0.89720723   -4.4048896    1433.8293  0.055886704  0.056074067            3 
 2139000   0.91239824   -4.3418675    1431.9958  0.055789147  0.056062898            2 
 2140000   0.89168327   -4.3854321    1428.6204  0.055631637  0.056051747            4 
 2141000   0.89016328   -4.3846467    1432.1059  0.055741318   0.05604039            4 
 2142000   0.89101158   -4.3528028    1437.9007  0.055940738  0.056029191            4 
 2143000   0.90915445   -4.3712799     1434.667  0.055788888  0.056018024            7 
 2144000   0.90663769   -4.3532476    1437.0822  0.055856741  0.056006886            4 
 2145000    0.9246592   -4.3644095    1432.0895  0.055636731  0.055995918            2 
 2146000   0.90239279   -4.3479382    1439.6043  0.055902621  0.055984973           12 
 2147000   0.89860359   -4.3610516    1439.0428  0.055854788  0.055973837            3 
 2148000   0.89910327   -4.3482722    1442.0356  0.055944895   0.05596285            5 
 2149000   0.90274379    -4.371883    1437.6336  0.055748161  0.055951817            4 
 2150000   0.87867933   -4.3926516    1436.4246  0.055675371   0.05594074            4 
 2151000   0.90333544   -4.3663496    1436.2561  0.055642962  0.055929588            3 
 2152000   0.93007475   -4.3830032     1437.786  0.055676349  0.055918334            4 
 2153000   0.90957675   -4.3635212    1440.1051  0.055740251  0.055907096            4 
 2154000   0.90635185   -4.3463546    1441.3369  0.055762029  0.055895911            4 
 2155000   0.88539785   -4.3537156    1443.9954  0.055838956  0.055884723            4 
 2156000   0.90617279   -4.3436241    1444.7452  0.055842038  0.055873655            3 
 2157000   0.90611747   -4.3743882     1439.811   0.05562552  0.055862399            2 
 2158000   0.91082355   -4.3713298    1440.6501  0.055632147  0.055851446            5 
 2159000   0.91432691   -4.3647304    1444.1788  0.055742582   0.05584046            3 
 2160000   0.88444548   -4.3673338     1441.534  0.055614739  0.055829291            2 
 2161000    0.8915446   -4.4006728    1439.9098   0.05552637  0.055818117            4 
 2162000   0.90993133   -4.3392484    1442.9253  0.055616916  0.055806863            3 
 2163000   0.91097973   -4.3801041    1440.6032  0.055501743  0.055795646            2 
 2164000   0.90635334   -4.3393125    1443.6414  0.055593093  0.055784371            2 
 2165000   0.89628679   -4.3473627    1443.0741  0.055545579  0.055772923            2 
 2166000   0.89448131   -4.3869741    1441.4798  0.055458597  0.055761706            5 
 2167000   0.91365061   -4.3783641     1437.135   0.05526592  0.055750164            3 
 2168000   0.91897023   -4.3435937    1444.2776  0.055514976  0.055738827            5 
 2169000    0.9118751    -4.368653    1437.1341  0.055214928   0.05572738            2 
 2170000   0.88974202   -4.3869445     1439.447  0.055278303  0.055715804            5 
 2171000   0.90434529   -4.3826933    1437.0812  0.055162031  0.055704077            2 
 2172000   0.91400521   -4.3760195    1444.6535   0.05542716  0.055692269            6 
 2173000   0.90292786     -4.38779    1437.2784  0.055118823  0.055680637            2 
 2174000   0.91123524   -4.3447756    1444.7035  0.055378087   0.05566884            2 
 2175000   0.89632784   -4.3389438    1440.0152  0.055172997  0.055657296            3 
 2176000   0.90244637   -4.3485894    1443.7573  0.055290951  0.055645762            3 
 2177000   0.90265064   -4.3906951    1439.2947  0.055094727  0.055634314            4 
 2178000     0.909349   -4.3729636    1438.0324  0.055021135  0.055622535            3 
 2179000   0.89830207   -4.3861795    1437.8901  0.054990442  0.055610808            4 
 2180000   0.90559553   -4.3941929    1441.3227  0.055096434  0.055598953            4 
 2181000   0.91162401   -4.3668496      1442.13  0.055102018  0.055587156            2 
 2182000   0.89700591   -4.3611631    1441.8877  0.055067511  0.055575331            4 
 2183000   0.91302931    -4.385778    1443.7314  0.055112666  0.055563442            2 
 2184000   0.90193825   -4.3719257    1439.5475  0.054927788  0.055551277            5 
 2185000   0.88105111   -4.3927083    1440.2825  0.054930681  0.055539351            5 
 2186000    0.9110111   -4.4113888    1442.4356  0.054987632  0.055527371            3 
 2187000   0.90074514   -4.3781515    1447.2407  0.055145585  0.055515424            3 
 2188000   0.90665069   -4.3819544    1441.0103  0.054883086  0.055503565            4 
 2189000   0.90315259   -4.3442862    1447.3927  0.055100986  0.055491693            4 
 2190000   0.90247724   -4.3988354    1445.0525  0.054986778  0.055479803            4 
 2191000   0.90680123   -4.3764146    1446.3308    0.0550103  0.055467896            3 
 2192000    0.8933619   -4.3668423    1442.8483  0.054852811  0.055456041            5 
 2193000   0.88777703   -4.3788661    1446.3247  0.054959901  0.055444042            1 
 2194000   0.87355376   -4.4131681    1441.9731  0.054769565  0.055432087            3 
 2195000   0.89658616   -4.3646888    1447.3973  0.054950543  0.055420075            4 
 2196000   0.91983578   -4.3555743    1448.4018  0.054963638  0.055408235            6 
 2197000   0.90266224   -4.3889952    1443.7339  0.054761564  0.055396386            5 
 2198000   0.90460054   -4.3653488    1455.2874  0.055174681  0.055384565            5 
 2199000    0.8928107    -4.381116    1452.2218  0.055033417   0.05537303            4 
 2200000   0.92961919   -4.3688505    1447.9915  0.054848162  0.055361387            3 
 2201000   0.88901034   -4.3628427    1453.6575  0.055037766   0.05534971            3 
 2202000   0.90625672   -4.3782355    1449.5965  0.054859085  0.055337985            5 
 2203000   0.91505904   -4.3891894     1453.995  0.055000568  0.055326156            3 
 2204000   0.89930737   -4.3600028    1456.0118  0.055051869  0.055314378            6 
 2205000   0.89450071   -4.4026031    1449.0582  0.054764103  0.055302543            3 
 2206000   0.89114562   -4.3582235    1456.8806  0.055034775   0.05529072            4 
 2207000   0.88931695   -4.3735563    1453.0198  0.054864061  0.055279045            3 
 2208000   0.89152227   -4.3724389    1448.9843  0.054686907  0.055267531            8 
 2209000    0.9193666   -4.3541591    1454.8763  0.054884424   0.05525591            4 
 2210000   0.88104223   -4.3695343      1455.66   0.05488914  0.055244221            5 
 2211000   0.89862418   -4.4051236     1451.337  0.054701381  0.055232469            6 
 2212000   0.89519876   -4.3714984    1455.2029  0.054822292  0.055220597            4 
 2213000   0.90632877   -4.3923538    1456.5772  0.054849268  0.055208855            4 
 2214000   0.89753051   -4.3644513    1458.1674  0.054884349  0.055197203            5 
 2215000   0.89766368   -4.3831734    1453.5443  0.054685639  0.055185523            4 
 2216000   0.89366037   -4.4089556    1455.1526  0.054721441  0.055173741            6 
 2217000   0.88298666   -4.3437372    1456.1352  0.054733694    0.0551619            7 
 2218000      0.89593   -4.3987349    1460.3839  0.054868645   0.05515016            5 
 2219000   0.87515895   -4.3778909    1455.9146  0.054676079  0.055138464            3 
 2220000   0.91082888   -4.3778077    1464.3868  0.054969474  0.055126711            6 
 2221000   0.88542632   -4.3988147    1456.4901  0.054648437  0.055114883            6 
 2222000   0.88128561   -4.3917312    1459.8567    0.0547501  0.055103198            6 
 2223000   0.90256806    -4.369119    1460.9742  0.054767364  0.055091616            3 
 2224000   0.87973071   -4.3784023    1466.2168  0.054939177  0.055079978            5 
 2225000   0.90795778   -4.4059892    1457.0412  0.054570832  0.055068206            5 
 2226000   0.90421718   -4.3736107    1459.8964  0.054653206  0.055056391            4 
 2227000   0.87486556   -4.4099313    1455.2302  0.054454055   0.05504449            4 
 2228000   0.89170045   -4.4074568    1457.1835  0.054502675  0.055032608            8 
 2229000   0.90323641   -4.3868252    1459.3306  0.054558496  0.055020819            2 
 2230000   0.88222825   -4.3722965    1462.5648  0.054654887  0.055008999            3 
 2231000   0.87835216   -4.3768757    1461.3779  0.054586056  0.054997255            4 
 2232000   0.89158252   -4.4068425    1461.3633  0.054561056  0.054985462            8 
 2233000    0.8970205   -4.4053195    1464.9074  0.054668882  0.054973703            2 
 2234000   0.90024537     -4.37541    1459.7396  0.054451643  0.054962167            2 
 2235000   0.91595451   -4.3769927    1466.5103  0.054679727  0.054950474           10 
 2236000   0.87063396   -4.3831277    1463.2005  0.054531922  0.054938781            5 
 2237000   0.90442283   -4.3925303    1460.1665  0.054394522  0.054927132            2 
 2238000   0.90376581   -4.3863536    1465.0873  0.054553446  0.054915379            4 
 2239000   0.88376976   -4.3757182     1467.245  0.054609387  0.054903738            6 
 2240000   0.86931616   -4.3866486    1471.9752   0.05476098  0.054892093            3 
 2241000   0.89991483   -4.4025594    1464.3754  0.054453943  0.054880323            3 
 2242000   0.90348622    -4.430777    1466.1999  0.054497467  0.054868551            4 
 2243000   0.89496525   -4.3818821    1463.9814  0.054390748  0.054856755            3 
 2244000   0.89688819   -4.4001515    1469.1394  0.054558058  0.054845213            4 
 2245000    0.9064422   -4.3619143       1471.1  0.054606533  0.054833541            7 
 2246000   0.90614705   -4.3844941    1471.5251  0.054597994  0.054822071            4 
 2247000   0.90333429   -4.3726893    1466.0165  0.054369401  0.054810369            6 
 2248000   0.89668905   -4.3875266    1468.8941  0.054451888  0.054798749            5 
 2249000   0.89711534   -4.4113936    1468.5793   0.05441601   0.05478709            4 
 2250000   0.89484143   -4.4228986    1467.5042  0.054352008  0.054775604            9 
 2251000   0.89061223   -4.4270628    1463.7175  0.054187676  0.054764042            5 
 2252000   0.87285021    -4.414257    1466.8375  0.054279067  0.054752364            3 
 2253000    0.8631779   -4.3906319    1475.6328  0.054580294  0.054740913            2 
 2254000   0.89059667   -4.3978211    1472.1405  0.054426964  0.054729283            4 
 2255000   0.89025019   -4.3823812    1468.7588  0.054277856  0.054717701            6 
 2256000   0.88571801    -4.397967    1473.7541  0.054438318  0.054706345            3 
 2257000   0.90242327   -4.4047158     1479.025  0.054608808  0.054694924            3 
 2258000   0.88616034   -4.4097925     1476.755  0.054500848  0.054683577            3 
 2259000   0.90036755   -4.3942235     1475.147  0.054417403  0.054672109            4 
 2260000   0.90470277   -4.3851547    1475.0164  0.054388509  0.054660669            4 
 2261000   0.89924072   -4.3906514     1472.143   0.05425855  0.054649204            4 
 2262000   0.87371442   -4.4056978    1473.7328  0.054293132  0.054637712            3 
 2263000   0.88662819    -4.389933    1473.4667  0.054259343  0.054626219            3 
 2264000   0.89121922   -4.4161962    1473.7884  0.054247218   0.05461459            5 
 2265000   0.88461394   -4.4019431    1476.5967  0.054326588  0.054602866            3 
 2266000   0.89138442   -4.3768676     1479.636  0.054414387  0.054591319            3 
 2267000   0.89012503   -4.3812842     1475.044  0.054221587  0.054579863            2 
 2268000   0.89811248   -4.3773132    1479.5704   0.05436399  0.054568654           14 
 2269000   0.87550503   -4.4137226    1473.6364  0.054122095  0.054557328            3 
 2270000    0.8699261   -4.4121983    1474.9857  0.054147787  0.054545696            3 
 2271000   0.88345591   -4.4011276    1478.0657  0.054236963  0.054534508            4 
 2272000   0.86850164   -4.3886498    1477.9198   0.05420774  0.054523184            6 
 2273000   0.87339992   -4.4041761    1481.3498  0.054309644  0.054511847            4 
 2274000   0.88943296   -4.4079941    1474.4804  0.054034024  0.054500356            4 
 2275000   0.89723529   -4.3873715     1476.405  0.054080771  0.054488887            7 
 2276000   0.88755876   -4.4081021     1475.139  0.054010655  0.054477351            3 
 2277000   0.88442624    -4.409745    1479.9714   0.05416379  0.054465867            2 
 2278000   0.89401587    -4.390635    1481.0389  0.054179064  0.054454548            4 
 2279000   0.90626406    -4.407147    1476.6563  0.053995037  0.054442797            4 
 2280000   0.90109164   -4.4082375    1478.5923  0.054042115  0.054431198            3 
 2281000   0.87469381   -4.4098829     1475.517  0.053906072  0.054419628            5 
 2282000   0.90266815   -4.3751364    1484.8418  0.054222968  0.054408327            6 
 2283000   0.87613673    -4.413745    1485.2563  0.054214348  0.054397056            4 
 2284000   0.87542055    -4.385231     1480.428   0.05401445    0.0543855            6 
 2285000   0.89206433   -4.4254607    1482.5396  0.054067819  0.054374064            4 
 2286000   0.88017446   -4.4021201    1481.5685  0.054008768  0.054362791            3 
 2287000   0.89541954    -4.417503    1484.5379  0.054093351  0.054351457            7 
 2288000   0.88307718   -4.4027152    1484.8146  0.054079785  0.054339865            4 
 2289000   0.88670188   -4.3906539    1481.7589  0.053944914  0.054328329            4 
 2290000   0.88824376   -4.4207116    1475.7149  0.053701415  0.054316701            4 
 2291000   0.87355485   -4.3988717    1486.5774  0.054073092  0.054305248            5 
 2292000   0.88969879   -4.3952565     1481.243  0.053855549    0.0542936            2 
 2293000   0.89207578   -4.4281355    1484.0197  0.053932975  0.054281908            7 
 2294000   0.88775609    -4.421007    1487.6856  0.054042633  0.054270461            4 
 2295000   0.88662855   -4.4023965    1484.3525  0.053898056  0.054258995            4 
 2296000   0.89064748    -4.419539     1484.997  0.053897973   0.05424747            3 
 2297000   0.87434451   -4.3952702    1485.6625  0.053898653  0.054235841            4 
 2298000   0.89974833   -4.4227682    1489.2632  0.054005773  0.054224292            4 
 2299000   0.88485686   -4.3954909    1483.3352  0.053767405  0.054212487            4 
 2300000   0.87969244   -4.3768185    1487.6467  0.053900243  0.054200746           10 
 2301000   0.86944737   -4.4058827    1483.7164  0.053734477  0.054189184            6 
 2302000   0.88061583   -4.3749971     1488.433   0.05388188  0.054177505            3 
 2303000   0.89435496   -4.4049827    1482.3003  0.053636571  0.054165749            5 
 2304000   0.88540048   -4.4156924    1486.9514  0.053781519  0.054154013            3 
 2305000   0.91137541   -4.4268411    1487.1506  0.053765385  0.054142398            4 
 2306000   0.88488088   -4.3993715    1488.6136  0.053794939   0.05413074            2 
 2307000   0.88060559    -4.397854    1489.6173   0.05380788  0.054119239            2 
 2308000   0.88444468    -4.392671    1490.8587  0.053829388  0.054107796            3 
 2309000   0.87897782   -4.4041236    1493.4713  0.053900365   0.05409631            6 
 2310000   0.87441561   -4.4154236    1488.3264  0.053691429  0.054084854            4 
 2311000   0.87738462   -4.4050614    1487.1878  0.053627137  0.054073419            3 
 2312000   0.89294242   -4.3974937    1494.8153  0.053878866  0.054061906            3 
 2313000    0.8993521    -4.440969    1488.9316  0.053643596  0.054050427            4 
 2314000    0.8959085   -4.4024054    1497.1498  0.053916371  0.054038868            3 
 2315000   0.87375464   -4.4185064    1487.3394  0.053539935  0.054027433            4 
 2316000    0.8906717   -4.4377434    1486.5995  0.053490196  0.054015832            5 
 2317000   0.87912135    -4.417198    1496.2723  0.053815002  0.054004316            5 
 2318000   0.86231275   -4.4107713    1492.2239  0.053646245  0.053992674            7 
 2319000   0.88199329   -4.4377756    1491.4367  0.053594823  0.053981191            4 
 2320000   0.88663842   -4.4270446    1491.9933  0.053591714  0.053969707            7 
 2321000   0.87793038   -4.4435192    1489.0444  0.053462745  0.053958115            3 
 2322000   0.88012622   -4.4073641    1498.3899   0.05377512  0.053946469            4 
 2323000   0.85574695   -4.4168716    1492.0709  0.053525287  0.053934843            4 
 2324000   0.88538687   -4.4032935    1490.4908  0.053445598   0.05392317            3 
 2325000   0.89255612   -4.4089628    1494.2518  0.053557411  0.053911664            4 
 2326000   0.89181195   -4.4403616    1495.7828  0.053589238  0.053900123            9 
 2327000   0.88432342   -4.3943866    1495.1235  0.053542597  0.053888797            3 
 2328000   0.87181888   -4.4206122    1494.2206  0.053487278  0.053877271            4 
 2329000   0.89309522   -4.4301742    1495.5851  0.053513136  0.053865785           11 
 2330000   0.87316579   -4.3992093     1494.412   0.05344821  0.053854351            3 
 2331000   0.87958665   -4.4210747    1497.1563   0.05352339  0.053842851            5 
 2332000   0.87700942   -4.4191809    1495.5814  0.053444161  0.053831415            4 
 2333000   0.88174318   -4.4396108    1497.3942  0.053486005  0.053819968            3 
 2334000   0.89392608   -4.4233176    1496.6483  0.053436459  0.053808419            3 
 2335000   0.85745687   -4.4041132    1499.1332  0.053502254  0.053797115            7 
 2336000   0.87652346   -4.4038164    1501.5385  0.053565159   0.05378574            4 
 2337000   0.88803737   -4.4209292    1497.4827  0.053397615  0.053774175            3 
 2338000   0.89633495    -4.426081    1500.0259  0.053465421  0.053762653            7 
 2339000    0.8864107   -4.4084767    1504.5795  0.053604797   0.05375116            5 
 2340000   0.88212834   -4.4088061    1505.3953  0.053610945  0.053739742            4 
 2341000   0.87533946   -4.4058293    1505.2109  0.053581479  0.053728344            2 
 2342000   0.88732157   -4.4358219     1499.935  0.053370873  0.053716976            3 
 2343000   0.88858104   -4.4157751     1499.969  0.053349304  0.053705662            4 
 2344000   0.89689735   -4.4472828    1505.7772  0.053533033  0.053694262            3 
 2345000   0.87521575   -4.4298904    1499.8716   0.05330034  0.053682748            3 
 2346000   0.85672034   -4.4126503    1503.2042  0.053396001   0.05367142           11 
 2347000   0.87615028   -4.4232455    1505.3885  0.053450805  0.053660022            4 
 2348000   0.86116017   -4.4334662    1498.0511  0.053167629  0.053648663            2 
 2349000   0.85783287   -4.4074886    1503.5205  0.053339027  0.053637157            3 
 2350000    0.8884964   -4.4204008    1504.2501  0.053342204  0.053625812            5 
 2351000   0.87407117   -4.4181531    1505.3007  0.053356754  0.053614354            4 
 2352000   0.88550772   -4.4230386    1498.5438  0.053094663  0.053602918            6 
 2353000   0.87454824    -4.426209    1510.5613   0.05349771  0.053591507            4 
 2354000   0.89049147   -4.3861695    1509.7918  0.053447742  0.053580153            5 
 2355000   0.86262853    -4.404937     1505.047  0.053257148   0.05356889            5 
 2356000   0.90210441    -4.411257    1508.7872  0.053366835    0.0535575            4 
 2357000   0.87491938   -4.4162806    1507.0466  0.053282654  0.053546007            6 
 2358000   0.85918672   -4.4114942    1505.9722   0.05322209  0.053534571           10 
 2359000    0.8533019   -4.3970849    1508.5972  0.053292258  0.053523116            8 
 2360000   0.85894799   -4.4277717      1508.78  0.053276131  0.053511659            7 
 2361000    0.8749737   -4.4146098    1507.9745  0.053225132  0.053500155            4 
 2362000   0.86289188   -4.4291018    1508.5786  0.053223915  0.053488733            3 
 2363000    0.8619848   -4.4361509    1505.8471  0.053105059  0.053477174            2 
 2364000   0.86697716   -4.4228979    1509.2933  0.053204078  0.053465732            4 
 2365000   0.88061081   -4.4251804    1506.7678  0.053092592  0.053454316            4 
 2366000   0.86422495   -4.4054641    1505.5918  0.053028733  0.053442735            6 
 2367000   0.88541231   -4.4472022    1505.0291  0.052986518  0.053431048            4 
 2368000   0.86928505   -4.4108631    1513.3621  0.053257394  0.053419587            2 
 2369000   0.88353383   -4.4341976    1508.7883  0.053074022  0.053407966            3 
 2370000   0.89928785   -4.4338925     1508.399   0.05303794  0.053396495            3 
 2371000   0.87356389   -4.4151203    1512.3836  0.053155616  0.053384819            3 
 2372000   0.89201667   -4.4355191     1507.918  0.052976322  0.053373304            3 
 2373000    0.8607831   -4.4254227    1504.0656  0.052818712  0.053361699            3 
 2374000    0.8756607   -4.4274099    1505.9832  0.052863776  0.053350008            3 
 2375000   0.86698291   -4.4350656    1503.9355  0.052769667  0.053338125            3 
 2376000   0.88161585   -4.4252187      1510.34  0.052972083  0.053326343            9 
 2377000   0.86806029   -4.4018926     1508.091  0.052870951  0.053314718            2 
 2378000   0.86373458   -4.4552925    1509.3603  0.052893197  0.053303184            4 
 2379000   0.86612361   -4.4656957    1504.2622  0.052692386  0.053291426            8 
 2380000   0.88461038   -4.4458737    1512.6115  0.052962587  0.053279771            4 
 2381000   0.87571923   -4.4163365    1515.7933  0.053051705    0.0532684            4 
 2382000   0.88790365   -4.4552585    1511.2517  0.052870547  0.053256898           14 
 2383000   0.87416622   -4.4463619    1509.0763  0.052772287  0.053245306            7 
 2384000   0.86412998   -4.4321494    1514.0325  0.052923396  0.053233832            2 
 2385000   0.87499651   -4.4476964    1512.4388   0.05284552   0.05322223            3 
 2386000    0.8640739   -4.4621189    1513.5626  0.052862622  0.053210732            2 
 2387000   0.86724067   -4.4274969    1516.2828  0.052935442   0.05319922           14 
 2388000   0.87518534    -4.426699    1515.2276   0.05287645  0.053187773           12 
 2389000   0.88740629   -4.4612711    1516.3137  0.052892205  0.053176282            4 
 2390000   0.85579462   -4.4347095     1517.345   0.05290603  0.053164801            5 
 2391000   0.88493238   -4.4333406    1515.9632  0.052835745   0.05315345            6 
 2392000   0.86911317   -4.4325979    1518.8037  0.052912614  0.053142178            5 
 2393000   0.86674672   -4.4184562    1521.7688   0.05299376  0.053130714            3 
 2394000   0.87307695   -4.4279701    1518.9797  0.052874539  0.053119282            4 
 2395000   0.87209195   -4.4252922    1518.8507   0.05284797  0.053107764            4 
 2396000   0.89179419   -4.4313574    1520.6004  0.052886768  0.053096337            1 
 2397000    0.8761188   -4.4107569    1522.2238  0.052921143  0.053085034            5 
 2398000   0.86382574   -4.4513374     1522.387  0.052904747  0.053073832            7 
 2399000   0.86079047   -4.4193304    1522.4425  0.052884621  0.053062456            4 
 2400000   0.88033861   -4.4542526    1515.6065  0.052625227  0.053050956            3 
 2401000   0.85902999   -4.4025479    1515.2561  0.052591145  0.053039619            4 
 2402000   0.86316807   -4.4512584     1520.714  0.052758603  0.053028244            3 
 2403000   0.86606153   -4.4644159    1522.9626  0.052814626  0.053016683            3 
 2404000   0.87615988   -4.4603955    1518.4122  0.052634922  0.053005294            6 
 2405000   0.87436766   -4.4184226    1518.5398  0.052617457  0.052993785            3 
 2406000     0.876403   -4.4487467    1521.0305  0.052681855  0.052982319            5 
 2407000   0.86033857   -4.4243699    1519.8646  0.052619602  0.052970869            4 
 2408000   0.85500046   -4.4139873    1519.4029  0.052581771  0.052959477            6 
 2409000   0.88528668   -4.4269839    1519.6136  0.052567233  0.052948001            6 
 2410000   0.87464406   -4.4504991    1521.9244  0.052625326  0.052936493            5 
 2411000   0.84462813   -4.4607712    1522.7828  0.052633169  0.052925101            6 
 2412000   0.86521904   -4.4566716    1524.3089  0.052664072  0.052913659            7 
 2413000   0.86952071   -4.4258207    1525.7533  0.052692128  0.052902339            4 
 2414000   0.87498185   -4.4717876    1523.2415  0.052583593  0.052890933            3 
 2415000   0.88107405   -4.4388034    1520.8381  0.052478885  0.052879477            3 
 2416000   0.86011003   -4.4559378    1522.5877  0.052517512   0.05286806            2 
 2417000   0.86240183   -4.4774807    1523.2068  0.052517128  0.052856609            4 
 2418000   0.85972897   -4.4438449    1531.0549  0.052765884  0.052845157            4 
 2419000   0.88439653   -4.4406594    1526.1757  0.052575984  0.052833829            5 
 2420000    0.8868935   -4.4588508    1529.7324  0.052676737  0.052822397            5 
 2421000   0.84880865   -4.4488561    1527.0302  0.052561963  0.052810991            4 
 2422000   0.86170343   -4.4331284    1530.3996  0.052656193  0.052799546            4 
 2423000   0.85478952   -4.4488336    1526.8066  0.052510889  0.052788067            3 
 2424000   0.84972765    -4.446282     1526.834  0.052490168  0.052776609            5 
 2425000   0.86497386    -4.437604    1525.3823  0.052418635  0.052765215            5 
 2426000   0.87198226   -4.4424321    1528.2077  0.052494082  0.052753829            9 
 2427000   0.88268619   -4.4640747    1528.2905  0.052475296  0.052742467            4 
 2428000   0.87882584   -4.4379369    1530.0175  0.052512958  0.052731128            4 
 2429000   0.85631976   -4.4267652    1536.8144  0.052724524  0.052719871            4 
 2430000   0.87433335   -4.4569433    1531.5098  0.052520913  0.052708639            6 
 2431000   0.85436948   -4.4541502    1531.2099  0.052489026  0.052697381            4 
 2432000   0.84935752   -4.4364633    1536.4888  0.052648328  0.052686172            2 
 2433000    0.8605275   -4.4396705    1532.3005  0.052483234  0.052674927            3 
 2434000   0.88194634   -4.4437537    1530.6626  0.052405593   0.05266366            8 
 2435000   0.85969242   -4.4356116    1536.0575  0.052568704  0.052652317            5 
 2436000   0.86162353    -4.468113    1532.9243   0.05243994  0.052641178            4 
 2437000   0.87201285   -4.4482543    1527.9523  0.052248403   0.05262996            7 
 2438000   0.86864174   -4.4573592    1532.9573  0.052398049  0.052618647            4 
 2439000   0.85855886   -4.4511813      1532.82  0.052371872  0.052607299            3 
 2440000   0.86505352   -4.4128197    1538.8824  0.052557458  0.052595916            5 
 2441000   0.84555922    -4.441529    1537.7723   0.05249803  0.052584507            7 
 2442000   0.84782599   -4.4339732    1534.9152  0.052379033  0.052573176            3 
 2443000   0.86318278   -4.4837723    1534.7797  0.052352972  0.052561724            2 
 2444000   0.86778863   -4.4495464     1534.388  0.052318195  0.052550092            2 
 2445000   0.85761098   -4.4316632    1533.7286  0.052274323  0.052538604            9 
 2446000   0.86020081   -4.4582811    1534.3586  0.052274415  0.052527354            3 
 2447000    0.8510909   -4.4405016    1535.1854  0.052281208  0.052516073            4 
 2448000   0.87808163   -4.4681057    1531.5778  0.052137043   0.05250488            4 
 2449000   0.85502379   -4.4337075    1530.8866  0.052092235    0.0524935            5 
 2450000   0.86503341   -4.4402551    1540.0854  0.052383858  0.052482124            4 
 2451000   0.88519413   -4.4480428    1534.7949  0.052182608   0.05247081            3 
 2452000   0.83059868   -4.4719567    1533.6568   0.05212265  0.052459434            3 
 2453000   0.84636094   -4.4808418    1534.6679  0.052135749  0.052448166            6 
 2454000   0.86827206   -4.4794983    1537.9919  0.052227382  0.052436881            3 
 2455000   0.84199634   -4.4733399    1540.0366  0.052275513  0.052425645            1 
 2456000   0.86753888   -4.4499239    1537.8984  0.052181678  0.052414385            1 
 2457000   0.84847863   -4.4696722    1538.1649   0.05216948   0.05240299            4 
 2458000   0.86147312   -4.4557676    1538.3076  0.052153091  0.052391653           11 
 2459000   0.83745815    -4.447882    1542.0325  0.052258117  0.052380419            7 
 2460000   0.84548651   -4.4611671     1538.148  0.052105285  0.052369253            5 
 2461000   0.86121365   -4.4381595    1540.7068  0.052170758  0.052357967            3 
 2462000   0.84870089   -4.4253859    1541.3632  0.052171785  0.052346814            4 
 2463000   0.85518829   -4.4770155    1542.2003  0.052178925  0.052335523            6 
 2464000   0.84275204   -4.4187927    1545.1472  0.052257413  0.052324355            4 
 2465000    0.8629644   -4.4370592    1541.0627   0.05209813  0.052313053            3 
 2466000   0.85227212   -4.4474683    1531.9309  0.051768412  0.052301695           12 
 2467000   0.85020281   -4.4428439    1543.3434  0.052132935  0.052290298            4 
 2468000     0.859241   -4.4605515    1542.5387  0.052084641  0.052278985            5 
 2469000   0.88133708   -4.4917294    1540.5406  0.051996104  0.052267483            6 
 2470000    0.8446593   -4.4420954    1546.6992  0.052182833  0.052256064            2 
 2471000   0.85584399   -4.4393066    1544.2216   0.05207816  0.052244691            3 
 2472000   0.86481992   -4.4821685    1543.7428  0.052040953  0.052233178            7 
 2473000   0.84847062   -4.4500189    1543.3915   0.05200807   0.05222152            8 
 2474000   0.86215277   -4.4334593    1537.1297   0.05177613   0.05220997            5 
 2475000   0.87802735   -4.4482623    1542.5648   0.05193821  0.052198407            4 
 2476000   0.85145226   -4.4523931    1547.2866   0.05207615  0.052186838            4 
 2477000   0.85021504   -4.4534634    1543.3685   0.05192331  0.052175178            4 
 2478000   0.83921864   -4.4869192    1538.9347  0.051753252  0.052163617            5 
 2479000   0.85264664   -4.4428118    1543.1421  0.051873808   0.05215203            8 
 2480000   0.87663983   -4.4395387    1538.2408  0.051688198  0.052140425            3 
 2481000   0.87756233   -4.4601267    1543.0627  0.051829325  0.052128891            8 
 2482000   0.83480782   -4.4633494    1543.7849  0.051832692  0.052117502            2 
 2483000   0.84517673   -4.4267357    1545.9612  0.051884857  0.052106129            4 
 2484000   0.84811821   -4.4574133    1543.0673  0.051766886  0.052094632            4 
 2485000   0.86080826   -4.4626498    1543.6682  0.051766204  0.052083177            2 
 2486000   0.83718099   -4.4485972    1547.2687  0.051866073  0.052071545            6 
 2487000   0.86054146   -4.4722807     1541.204  0.051642004  0.052059955            3 
 2488000   0.85643119   -4.4488817    1546.8304  0.051809699  0.052048461            2 
 2489000   0.86773635   -4.4534036    1541.1607  0.051599059  0.052036849            5 
 2490000    0.8626036   -4.4453846    1550.3652  0.051886385   0.05202527            5 
 2491000   0.86300444   -4.4586637    1549.1008  0.051823257   0.05201385           11 
 2492000   0.86040813   -4.4821127    1548.5457  0.051783897  0.052002309            3 
 2493000   0.84980252   -4.4499284    1547.1082  0.051715076  0.051990774            3 
 2494000   0.84569072   -4.4757921    1546.5147  0.051674508  0.051979344            4 
 2495000   0.84164436   -4.4771142    1543.9887  0.051569429  0.051967758            4 
 2496000   0.82966945   -4.4376575    1548.1055  0.051686214  0.051956098            3 
 2497000   0.83435823   -4.4589559    1545.1684  0.051567493  0.051944462            8 
 2498000   0.85479897   -4.4960871     1545.221  0.051548607  0.051932716           18 
 2499000   0.86076905   -4.4676267    1544.2717  0.051496322  0.051920927            7 
 2500000   0.84354137   -4.4764049    1546.2945  0.051543149   0.05190916           11 
 2501000   0.86616661   -4.4596394    1542.1069  0.051383011  0.051897484            3 
 2502000    0.8583176   -4.4521749    1546.7888  0.051518413  0.051885886            4 
 2503000   0.84363641   -4.4740705    1548.4347  0.051552626  0.051874337            3 
 2504000    0.8485338   -4.4574528     1547.314  0.051494741  0.051862774            3 
 2505000   0.86206079   -4.4473405    1547.0828  0.051466492  0.051851137            4 
 2506000   0.85824317   -4.4753264    1548.9174  0.051506963   0.05183953            7 
 2507000   0.84738599   -4.4724588    1549.1122  0.051492892  0.051827755            6 
 2508000   0.82770105   -4.4487666    1551.0586  0.051537034  0.051816135            4 
 2509000   0.84404818   -4.4618251     1554.721  0.051638136  0.051804553            6 
 2510000   0.82798905   -4.4738254     1550.424  0.051474901  0.051792944            8 
 2511000   0.85324575   -4.4588186    1555.1193  0.051610224  0.051781355            4 
 2512000   0.83991311    -4.498954    1550.6795  0.051442395  0.051769849            5 
 2513000   0.85109703   -4.4548068    1549.1647  0.051371689  0.051758102            5 
 2514000   0.86793458   -4.4775139    1557.1864  0.051617157  0.051746524           11 
 2515000   0.84225665   -4.4796716    1552.0257  0.051425637  0.051734902            4 
 2516000   0.84406984   -4.5174875    1552.0589  0.051406297  0.051723335            5 
 2517000    0.8484317   -4.4458462    1554.6456  0.051471514  0.051711776            3 
 2518000   0.82173478   -4.4484848    1549.4905  0.051280463  0.051700233            4 
 2519000   0.82424441   -4.4589241    1554.1767  0.051415134  0.051688636            6 
 2520000   0.85096881   -4.4782158    1552.8895  0.051352165  0.051676999            4 
 2521000   0.84687137   -4.4926257    1551.3402  0.051280583  0.051665415            2 
 2522000    0.8452072   -4.4738235    1551.4353  0.051263394  0.051653886            5 
 2523000   0.85161041   -4.4856375    1551.6149  0.051249005   0.05164243            9 
 2524000   0.84318873   -4.4640902    1554.9154  0.051337671  0.051630991            6 
 2525000    0.8392748   -4.4597301    1557.4451  0.051400829  0.051619555            4 
 2526000   0.85144773   -4.4593041    1553.5917  0.051253354  0.051608082            6 
 2527000   0.84314092   -4.4904654    1553.3328  0.051224535  0.051596598            3 
 2528000   0.86414453   -4.4857681    1552.1283  0.051164565   0.05158508            3 
 2529000   0.83010665     -4.45049    1555.6474  0.051260295  0.051573472            3 
 2530000   0.84741528   -4.4824129    1554.7541  0.051210608  0.051561984            4 
 2531000   0.83105402   -4.4810893    1558.3297  0.051308102  0.051550408            3 
 2532000   0.85317842   -4.4547654    1566.0774  0.051542831  0.051539004            5 
 2533000   0.84112821   -4.4741941    1560.5592   0.05134094  0.051527503            5 
 2534000   0.84122041   -4.4677997    1557.6428   0.05122477   0.05151606            3 
 2535000   0.85830547   -4.4675116    1559.6689  0.051271168  0.051504485            6 
 2536000    0.8575377   -4.4640898     1563.529  0.051377794  0.051492924            4 
 2537000   0.82965618   -4.5062903     1561.204  0.051281172  0.051481413            4 
 2538000    0.8272929   -4.4879366    1555.5817  0.051076361   0.05146987            4 
 2539000   0.82853793   -4.4568687    1562.4084  0.051280306  0.051458333            3 
 2540000   0.84298953   -4.4796528    1557.0353  0.051083835  0.051446753            5 
 2541000    0.8294848   -4.4505704    1562.1027   0.05122992  0.051435195            3 
 2542000   0.84066526   -4.4524682    1562.3097  0.051216553   0.05142381            4 
 2543000   0.82992588   -4.4625005    1563.7827  0.051244682  0.051412397            6 
 2544000   0.84425393    -4.478321    1563.7143  0.051222299  0.051400742            5 
 2545000   0.85908636   -4.4984002    1555.0174  0.050917401  0.051389019            4 
 2546000    0.8489741   -4.4708696    1560.8332  0.051087758  0.051377482            5 
 2547000   0.84695548   -4.4681942    1559.4343  0.051021932  0.051365989            4 
 2548000   0.84080278   -4.4765077    1561.0593  0.051055052  0.051354481            3 
 2549000   0.83858742   -4.4958035    1564.7446  0.051155506  0.051342921            4 
 2550000   0.84120757   -4.4662604    1560.3207  0.050990871  0.051331349            7 
 2551000   0.84756908   -4.4882836    1563.4946  0.051074567  0.051319595            3 
 2552000   0.82874173   -4.5121674    1558.4379   0.05088943  0.051307936            4 
 2553000   0.84302665    -4.451168     1567.308  0.051159028  0.051296255            3 
 2554000   0.84879091   -4.4369693    1566.4792  0.051111956  0.051284697            3 
 2555000   0.83586457   -4.4588799    1564.5585  0.051029305  0.051273272            5 
 2556000   0.83007333    -4.502149    1565.5942  0.051043109  0.051261698            5 
 2557000   0.84433695   -4.4917327    1559.7821  0.050833728  0.051250067            7 
 2558000   0.84234062   -4.4744535    1566.5425  0.051034093  0.051238367            5 
 2559000   0.85215173   -4.4872111    1563.4961  0.050914945  0.051226725            4 
 2560000   0.84606917    -4.478766    1566.9774  0.051008378  0.051215167            5 
 2561000   0.83532376   -4.4434264    1569.8702  0.051082593  0.051203671            6 
 2562000   0.85224991   -4.4950091    1561.5251  0.050791213  0.051192162            3 
 2563000   0.82957222   -4.4979256    1569.4492  0.051029041  0.051180594            3 
 2564000   0.84862511   -4.4779861    1567.8621  0.050957558  0.051169067            4 
 2565000   0.85139718   -4.4628846    1568.2573  0.050950529  0.051157544            5 
 2566000    0.8363803   -4.4746873    1568.8596  0.050950235  0.051146118            2 
 2567000   0.82292371   -4.4902798    1566.8248  0.050864331  0.051134662            7 
 2568000   0.83503469   -4.5009426     1570.974  0.050979167   0.05112307            6 
 2569000   0.81878646   -4.4709685    1568.7858  0.050888342  0.051111594            7 
 2570000   0.83681648   -4.4943361    1568.5496  0.050860882  0.051100144            4 
 2571000   0.85317422   -4.4801775    1569.2524  0.050863878  0.051088648            2 
 2572000   0.82735304   -4.4903239     1569.285  0.050845158  0.051077177            4 
 2573000   0.82929632   -4.4870598    1567.0289   0.05075233  0.051065701            6 
 2574000   0.86806501   -4.5026143    1564.5528  0.050652447   0.05105413            5 
 2575000   0.85466402   -4.4590248    1569.7853  0.050802112    0.0510426            4 
 2576000   0.85144884   -4.4685557    1564.9172  0.050624911  0.051031045            5 
 2577000   0.83418152   -4.4738362    1569.2222  0.050744475   0.05101943            3 
 2578000    0.8494933   -4.4991934    1563.6294  0.050544008  0.051007794            4 
 2579000   0.82023962   -4.4773846    1568.7196  0.050688885  0.050996149            4 
 2580000   0.83191549   -4.5036998     1570.236  0.050718216  0.050984549            5 
 2581000   0.83516461   -4.4586864    1574.1154  0.050823823  0.050973059            6 
 2582000   0.83994848   -4.4859595    1573.0029  0.050768232  0.050961463            4 
 2583000   0.82991633   -4.5087904    1565.6293  0.050510688  0.050949832            3 
 2584000   0.84402659   -4.5067972    1572.4118  0.050709875   0.05093825            9 
 2585000   0.82896471   -4.4703165    1571.0254  0.050645564  0.050926777            4 
 2586000   0.85007941   -4.5024049    1566.9974  0.050496179  0.050915053            5 
 2587000   0.82590816   -4.5087702    1567.3772  0.050488895   0.05090344            6 
 2588000   0.84157675    -4.490248    1570.2264  0.050561129  0.050891868            5 
 2589000   0.84556001    -4.503469    1571.1465  0.050571216  0.050880262            4 
 2590000   0.84550799   -4.5283647    1567.3787   0.05043046  0.050868511            3 
 2591000   0.82100888    -4.502494    1572.0424  0.050560993  0.050856846            7 
 2592000   0.82324065   -4.4586455    1577.4096  0.050714042  0.050845209            4 
 2593000      0.84773     -4.47589    1574.1711  0.050590408  0.050833566            5 
 2594000   0.84048261   -4.4844606    1572.6527  0.050522126  0.050821948            6 
 2595000    0.8391322   -4.4839092    1571.5312  0.050466641  0.050810365            5 
 2596000   0.84128701   -4.5027647     1571.391  0.050442701   0.05079874            3 
 2597000   0.83070631   -4.4794765    1575.0177   0.05053965  0.050787045            4 
 2598000   0.80361925   -4.5202295    1573.7759  0.050480368  0.050775507            4 
 2599000   0.84347262   -4.4773988    1576.5968   0.05055139  0.050764045            4 
 2600000   0.83430063   -4.4969081    1575.8374  0.050507608  0.050752435            3 
 2601000   0.83128919    -4.490978    1571.1527  0.050338098  0.050740817            6 
 2602000   0.83809748   -4.5010894    1573.6245  0.050397916  0.050729183            4 
 2603000   0.85280694   -4.5084084    1571.2089  0.050301219  0.050717597            2 
 2604000   0.83929665   -4.4893931    1572.5265   0.05032407  0.050705878           13 
 2605000   0.83281937   -4.4839385    1572.9246  0.050317484  0.050694212            5 
 2606000      0.84129   -4.4842944     1573.132  0.050304808   0.05068257            4 
 2607000   0.84090258   -4.4988852    1568.0654  0.050123558   0.05067086            5 
 2608000   0.84102138      -4.5142    1577.0908  0.050392728   0.05065916            6 
 2609000    0.8290957   -4.4736727    1576.7482  0.050362471  0.050647555            7 
 2610000   0.81388519   -4.4985226    1572.9227  0.050221033  0.050635876            3 
 2611000   0.80903212   -4.5280268    1569.9223  0.050106037  0.050624136            7 
 2612000   0.84700987   -4.5078521    1572.7681  0.050177644  0.050612372            3 
 2613000   0.83491719   -4.5104466    1571.5368  0.050119172  0.050600557            7 
 2614000   0.83069211   -4.5358349      1572.48   0.05013007  0.050588738            3 
 2615000   0.82946822   -4.5005243    1574.6444  0.050179872  0.050576825            4 
 2616000   0.82725506   -4.4945576    1578.2543  0.050275686  0.050565059            7 
 2617000   0.83789541   -4.4960064    1576.0446  0.050186111  0.050553408            5 
 2618000   0.83200029   -4.5277458    1573.6799  0.050091669  0.050541686            6 
 2619000   0.84444271   -4.4989175    1573.7237  0.050073938  0.050530011            2 
 2620000    0.8443243   -4.4833568    1580.9423  0.050284423  0.050518292            7 
 2621000   0.82155435   -4.4923304    1576.1039  0.050111406  0.050506712            3 
 2622000   0.83019263    -4.500033     1581.815  0.050273804  0.050495036            6 
 2623000   0.81175803    -4.516267    1578.5318   0.05015033  0.050483396            4 
 2624000   0.82800375   -4.4890615     1584.344  0.050315802  0.050471739            4 
 2625000   0.82149994   -4.4988243    1579.9857  0.050158278  0.050460244            4 
 2626000   0.83207668   -4.4997327    1585.5358  0.050315302  0.050448639            5 
 2627000   0.83146618   -4.4921374    1582.8174  0.050209916  0.050436966            3 
 2628000   0.84838858   -4.5060576    1578.0431  0.050039419  0.050425282            4 
 2629000   0.81948704   -4.4970897    1584.5673  0.050227187  0.050413705            3 
 2630000   0.82739075   -4.5124256    1580.5841   0.05008188  0.050402117            8 
 2631000   0.84029181   -4.5057144    1580.7817  0.050069102  0.050390347            5 
 2632000   0.84681285    -4.495366     1575.856  0.049894125  0.050378784            4 
 2633000   0.83656761   -4.5248871    1581.1175  0.050041698  0.050367037            3 
 2634000   0.82489339   -4.5047334    1582.7588  0.050074627  0.050355393            6 
 2635000   0.83840817   -4.5076377    1578.0945  0.049908112  0.050343678            4 
 2636000   0.83792423   -4.5201737    1579.0324  0.049918829   0.05033205            4 
 2637000   0.80665589   -4.5128658    1582.9414   0.05002343  0.050320216            7 
 2638000   0.82994804    -4.498912     1582.414  0.049987807    0.0503085            4 
 2639000   0.84392899   -4.4847173    1585.2049  0.050056995  0.050296855            4 
 2640000   0.84086527   -4.4951951    1579.1769  0.049847755  0.050285248            4 
 2641000   0.83286049   -4.5119327    1588.5727  0.050125353   0.05027366            8 
 2642000    0.8306306   -4.5019912    1585.3754  0.050005532  0.050262012            4 
 2643000   0.81109058   -4.4871551    1583.9784  0.049942566  0.050250474            3 
 2644000   0.84024121   -4.5212039    1581.0103  0.049830128  0.050238749            4 
 2645000   0.81623287   -4.5035251     1585.678  0.049958349  0.050226982            5 
 2646000   0.82165206   -4.5048935    1586.1501  0.049954337   0.05021529            6 
 2647000   0.79790953   -4.5283238    1586.6433  0.049950992  0.050203708            3 
 2648000   0.82798513   -4.4959718    1587.1624  0.049948465  0.050192092            6 
 2649000   0.84561616   -4.4970948    1583.6772   0.04981997  0.050180532            4 
 2650000   0.81670017   -4.4882999     1579.084  0.049656731  0.050168946            4 
 2651000    0.8182073   -4.4863164    1585.8507  0.049850708  0.050157362            3 
 2652000   0.81682578   -4.5353794    1584.7958  0.049798762    0.0501457            4 
 2653000   0.83117575   -4.5213173    1585.3068  0.049796043  0.050134086            5 
 2654000     0.813032   -4.5046415    1583.4198   0.04971803   0.05012243           10 
 2655000   0.82655921   -4.5000078    1584.7667  0.049741577  0.050110842            4 
 2656000   0.83147742   -4.5043283    1589.0339  0.049856738  0.050099247            3 
 2657000    0.8181957   -4.4904969    1588.8994  0.049833753  0.050087709            3 
 2658000   0.83887469   -4.4863489    1593.5202  0.049959875  0.050076304            4 
 2659000   0.82351223   -4.5376386    1585.1242  0.049677955  0.050064758            3 
 2660000   0.83237294   -4.5024499    1590.7734  0.049836259  0.050053168            5 
 2661000   0.83202048    -4.515646    1588.7204  0.049753238  0.050041521            2 
 2662000    0.8149236    -4.491195    1590.7726  0.049798791  0.050029954            3 
 2663000   0.81915609    -4.508322    1589.4632  0.049739115  0.050018337            6 
 2664000   0.82742389   -4.5205064    1589.3673  0.049717445  0.050006716            6 
 2665000    0.8298803    -4.481063    1591.0287  0.049750742  0.049995196            7 
 2666000   0.83276379   -4.5505358    1591.1972  0.049737345  0.049983639            5 
 2667000    0.8353792    -4.478785    1592.0832  0.049746382  0.049972141            4 
 2668000   0.80112942   -4.5044908    1591.2759  0.049702519  0.049960729            7 
 2669000   0.83225853   -4.5006073    1591.6138   0.04969445  0.049949163            5 
 2670000    0.8418841   -4.5050052    1595.1269  0.049785483  0.049937696            7 
 2671000    0.8149968   -4.5077846    1587.7824  0.049537702  0.049926269            5 
 2672000   0.82123385    -4.542883     1589.865  0.049584113  0.049914634            7 
 2673000   0.82961448   -4.5294347    1593.4894  0.049678558  0.049902939            5 
 2674000   0.80412214   -4.4949156    1589.3844   0.04953205  0.049891329            4 
 2675000   0.80930843   -4.5059495    1595.3763  0.049700197  0.049879609            6 
 2676000   0.82384411   -4.5015795    1591.1334  0.049549495   0.04986808            6 
 2677000   0.81423751   -4.5245253    1584.9411  0.049338223  0.049856389            3 
 2678000   0.84392719   -4.5345393    1594.1225  0.049605506  0.049844826            5 
 2679000   0.82541042   -4.5363087    1591.2338  0.049497132   0.04983306            5 
 2680000   0.82024835   -4.5378109    1586.6049  0.049334728  0.049821347            5 
 2681000   0.83048563   -4.5000314     1591.868  0.049479919  0.049809628            3 
 2682000   0.82287717   -4.5376339    1594.1796  0.049533295  0.049798013            4 
 2683000   0.82991141   -4.5262787    1594.8573  0.049535884  0.049786332            4 
 2684000   0.81207382   -4.4958285    1596.7898  0.049577427  0.049774737            4 
 2685000   0.82382681   -4.5229602    1591.4718  0.049393911  0.049763131            5 
 2686000   0.79344393   -4.4990749    1602.2324  0.049709371   0.04975149            3 
 2687000   0.80708412    -4.517773    1592.9035  0.049401546  0.049739893            9 
 2688000   0.82612915   -4.5141832    1594.0475  0.049418637  0.049728212            3 
 2689000   0.83845794   -4.5052667    1596.6384  0.049480551  0.049716542           10 
 2690000   0.82603935   -4.5129494    1595.9271  0.049440121  0.049704929            3 
 2691000     0.814213   -4.5102104    1597.9483   0.04948434  0.049693405            2 
 2692000   0.80964057   -4.5195264    1597.3691  0.049448028   0.04968189            3 
 2693000   0.82113822   -4.5245196    1599.5119  0.049495975  0.049670284            5 
 2694000   0.80472538   -4.5293327     1599.215  0.049468417  0.049658605            4 
 2695000   0.81375399   -4.5182295    1596.7318  0.049373277  0.049647059            6 
 2696000   0.81566035   -4.5023963    1597.5429  0.049380034   0.04963552            3 
 2697000   0.84650125   -4.5486133    1591.8027  0.049184361  0.049623994            6 
 2698000   0.81819421   -4.5318968    1594.5514   0.04925103  0.049612413           11 
 2699000   0.81228288   -4.5218326    1599.3011  0.049379434  0.049600881            4 
 2700000   0.81647255   -4.5296068    1595.5933  0.049246707  0.049589253            7 
 2701000    0.8239203   -4.5536024    1592.2505  0.049125338  0.049577599            5 
 2702000   0.81884163    -4.510896    1599.1235  0.049319132  0.049565988            7 
 2703000   0.82622181    -4.535322    1598.4025  0.049278658  0.049554443            3 
 2704000   0.81945642    -4.531021     1600.452  0.049323595  0.049542832            2 
 2705000   0.80156773   -4.5331719    1597.5634  0.049216372  0.049531202            4 
 2706000   0.79121205   -4.5254597    1601.1744  0.049309388  0.049519625            3 
 2707000   0.82549971   -4.4926401     1603.842  0.049373292  0.049508193            5 
 2708000   0.81974358   -4.5063843    1598.6307  0.049194691  0.049496771            8 
 2709000   0.83950329   -4.5425901    1601.4007  0.049261742  0.049485329            3 
 2710000   0.82657729   -4.5437437    1604.9045  0.049351308  0.049473936            3 
 2711000   0.80278458   -4.5388985    1604.1042  0.049308502  0.049462371           10 
 2712000   0.80468614   -4.5319444    1604.0633  0.049289065  0.049450826            6 
 2713000   0.81820664   -4.5328155    1596.1582  0.049028079   0.04943932            4 
 2714000   0.81928579   -4.5268166    1600.7062  0.049149663  0.049427678            8 
 2715000   0.81430235   -4.5722259    1595.5433   0.04897309  0.049416041            7 
 2716000   0.81627691    -4.546186    1601.4956  0.049137689  0.049404461            6 
 2717000   0.80922412   -4.5371341    1596.9815  0.048981153  0.049392979            2 
 2718000   0.80421458   -4.5497547    1601.9206  0.049114564  0.049381364            7 
 2719000   0.83131375   -4.5636535    1598.2122  0.048982843  0.049369868            5 
 2720000   0.82179508   -4.5206097    1605.9905  0.049203141  0.049358405            4 
 2721000   0.82079116   -4.5384387    1607.2417  0.049223377  0.049346994            6 
 2722000   0.79933697   -4.5649682    1607.1578  0.049202725  0.049335604            4 
 2723000   0.82227273   -4.5276367    1604.6514   0.04910795  0.049324205            5 
 2724000   0.81967131   -4.5355104    1601.7363  0.049000744  0.049312619            5 
 2725000    0.8216893   -4.5720003    1604.7825  0.049075917  0.049301173           10 
 2726000   0.81970681   -4.5202041    1604.1622  0.049038952   0.04928981            4 
 2727000   0.81211436    -4.522738    1610.5346  0.049215701  0.049278577            4 
 2728000   0.81214101    -4.509683    1608.7135  0.049142031  0.049267236            4 
 2729000   0.79558794   -4.5359332    1607.1335  0.049075775  0.049255828            3 
 2730000   0.81404447   -4.5427017    1605.8788  0.049019499  0.049244423            3 
 2731000   0.81497078   -4.5198058    1610.7497  0.049150179  0.049232965            5 
 2732000   0.81196732    -4.544173    1600.6104  0.048822915  0.049221486            5 
 2733000   0.79660428   -4.5296996    1602.0015  0.048847467  0.049210062            4 
 2734000   0.81152334   -4.5534835     1603.654  0.048879968  0.049198643            6 
 2735000   0.81710217   -4.5433813    1605.2651  0.048911185  0.049187234            6 
 2736000   0.82307197   -4.5396639    1607.4197  0.048958934  0.049175808            3 
 2737000   0.80124834   -4.5436948    1602.6374   0.04879544   0.04916452           13 
 2738000   0.81022954   -4.5672242    1605.7297  0.048871733  0.049153047            4 
 2739000   0.80391001   -4.5235338    1611.6162  0.049032986  0.049141652            4 
 2740000   0.80673183   -4.5505216    1613.3658  0.049068302  0.049130469            5 
 2741000   0.82757281   -4.5406193    1609.9277  0.048945876  0.049119227            3 
 2742000   0.79911663   -4.5370931    1608.8072  0.048893969  0.049107807            4 
 2743000   0.80085188   -4.5389787    1606.7854  0.048814721  0.049096404            4 
 2744000   0.80241922   -4.5235337     1606.622  0.048791971  0.049085092            4 
 2745000   0.82725699   -4.5284021    1610.5656  0.048893915  0.049073719            3 
 2746000   0.81168849   -4.5544426    1612.7285  0.048941748  0.049062467            4 
 2747000   0.79228731   -4.5437859    1615.4541  0.049006616  0.049051221            5 
 2748000   0.82259903   -4.5468779    1609.5893  0.048810932  0.049039883            6 
 2749000   0.82422765   -4.5257701    1608.3588  0.048755875  0.049028508            2 
 2750000   0.82774138   -4.5178353    1612.8913  0.048875494  0.049017188            5 
 2751000   0.82121834   -4.5367947    1612.6026  0.048848982  0.049005946            5 
 2752000   0.80693618   -4.5555307    1611.0341  0.048783735  0.048994648           15 
 2753000   0.82388517   -4.5426417    1609.7385  0.048726799  0.048983245            7 
 2754000   0.82001604   -4.5411823     1621.599  0.049067993  0.048971888            4 
 2755000    0.8179362   -4.5393239    1613.6683  0.048810294  0.048960614           13 
 2756000   0.80575573   -4.5279696    1619.2654  0.048961822  0.048949399            7 
 2757000   0.82516392   -4.5290129    1615.7676  0.048838339  0.048938095            5 
 2758000   0.81786659   -4.5402364    1617.3069   0.04886714  0.048926782            5 
 2759000   0.80419446    -4.556833    1612.5411  0.048705482  0.048915384            6 
 2760000   0.80767406   -4.5395169    1615.3452  0.048772501  0.048903983            2 
 2761000   0.81428346   -4.5732676    1613.8368  0.048709308  0.048892715            9 
 2762000   0.80869389    -4.552124    1611.6014  0.048624227  0.048881545            2 
 2763000   0.78676598   -4.5290435     1618.183  0.048805134   0.04887043            5 
 2764000   0.80185162    -4.549111    1614.9869  0.048691114  0.048859169            3 
 2765000   0.79618815   -4.5522562    1615.4308  0.048686885  0.048847849            8 
 2766000   0.81423921    -4.582199    1610.8807  0.048532197  0.048836536            3 
 2767000   0.81467748   -4.5718419    1618.1473  0.048733506  0.048825253            2 
 2768000   0.81892784   -4.5454084    1620.9854  0.048801343  0.048814044            5 
 2769000   0.80544057   -4.5278787    1623.3055  0.048853543  0.048802805            6 
 2770000   0.82624571   -4.5393833    1614.1339  0.048559984   0.04879154            6 
 2771000    0.8010513   -4.5337794    1616.7134  0.048620035  0.048780352            4 
 2772000   0.80953227   -4.5365194    1614.6289   0.04853983  0.048769033            3 
 2773000   0.79474316    -4.537639    1622.5958  0.048761745  0.048757803            8 
 2774000   0.80594018   -4.5457577    1616.0371  0.048547136   0.04874657            8 
 2775000   0.82776077    -4.534522    1620.6369  0.048667775  0.048735307            3 
 2776000   0.81149214   -4.5702916    1616.6578  0.048530795  0.048724111            9 
 2777000   0.80698925   -4.5466049     1619.172  0.048588764  0.048712854            5 
 2778000   0.79698865   -4.5288467    1623.3116  0.048695452  0.048701638            6 
 2779000   0.79973463   -4.5435472    1617.9867  0.048518254  0.048690485            6 
 2780000   0.81255763   -4.5723713    1622.0594  0.048622883  0.048679317            4 
 2781000   0.79939436   -4.5558458     1618.688  0.048504373  0.048668045            4 
 2782000   0.81972934   -4.5676715    1620.8547  0.048551842  0.048656959            9 
 2783000    0.7895525   -4.5646884    1619.0605  0.048480672  0.048645777            5 
 2784000   0.81467943   -4.5417733    1620.1516  0.048495918  0.048634657            6 
 2785000   0.81203549   -4.5895203    1618.1152  0.048417572  0.048623401            6 
 2786000   0.80478462   -4.5562017    1617.1605  0.048371634  0.048611999            5 
 2787000    0.8133172    -4.542357     1618.888  0.048405932  0.048600832            4 
 2788000   0.81913808   -4.5845452    1621.2523  0.048459238  0.048589577            4 
 2789000   0.79791496   -4.5548583    1618.6612  0.048364445   0.04857822            6 
 2790000   0.80454869   -4.5467783    1625.1258  0.048540196  0.048566926            4 
 2791000   0.80773049   -4.5999396    1622.6045  0.048447526  0.048555589            6 
 2792000   0.83126033   -4.5648763    1620.8946  0.048379136  0.048544398            3 
 2793000   0.79363754   -4.5698035    1618.3409  0.048285623  0.048533069            8 
 2794000   0.80539536   -4.5405607    1624.9878  0.048466588  0.048521825           12 
 2795000   0.80135053   -4.5221926    1626.7408  0.048501515  0.048510614            4 
 2796000   0.80685954   -4.5373605    1622.9141  0.048370114  0.048499496            4 
 2797000   0.81104377   -4.5437509    1624.8052  0.048409166  0.048488368            6 
 2798000   0.80547415   -4.5358288    1630.4262  0.048559274   0.04847735            9 
 2799000   0.81078353   -4.5396552    1627.8524  0.048465296  0.048466338            4 
 2800000   0.81129466   -4.5776626    1625.5206  0.048378589    0.0484553            4 
 2801000   0.79119675   -4.5715678    1627.4892  0.048419886  0.048444213            6 
 2802000   0.79778328   -4.5670891    1629.3237  0.048457165  0.048433117            2 
 2803000   0.80942683   -4.5243643    1631.5517  0.048506115   0.04842208            6 
 2804000   0.79781803   -4.5398614    1630.9468  0.048470839  0.048411117            5 
 2805000   0.78950034    -4.565388    1629.5719  0.048412712  0.048400042            5 
 2806000   0.81078618    -4.548798    1629.4409  0.048391568  0.048388937            6 
 2807000   0.80787204   -4.5543868    1625.6198  0.048260889  0.048377863            7 
 2808000   0.78432038   -4.5331806    1630.8877  0.048400038  0.048366867            5 
 2809000   0.80879562   -4.5607727      1633.93  0.048473063  0.048355985           21 
 2810000   0.79631122   -4.5649978    1630.0391  0.048340423  0.048345054            6 
 2811000   0.78079252   -4.5635654    1628.3249   0.04827241  0.048333961            7 
 2812000   0.79890643   -4.5633425    1629.9801  0.048304294  0.048323031            4 
 2813000   0.80465068   -4.5409985    1636.1922   0.04847115  0.048312138            5 
 2814000   0.80403902   -4.5418331    1631.2844  0.048308589   0.04830123            4 
 2815000   0.81780218   -4.5700314    1631.2114  0.048289267   0.04829016            6 
 2816000   0.81040996   -4.5777798      1628.77   0.04819987  0.048279141            4 
 2817000   0.79597533   -4.5691362    1628.6608   0.04817953   0.04826822            4 
 2818000   0.81735659   -4.5632436    1631.9714  0.048260332  0.048257199            9 
 2819000   0.81945976   -4.5505791    1637.2296  0.048398652   0.04824641            3 
 2820000   0.81114426   -4.5297465     1636.183  0.048350562  0.048235532            5 
 2821000   0.80483467   -4.5904042    1627.2916  0.048070766  0.048224619            3 
 2822000   0.79826141   -4.5748988    1632.0367  0.048193855  0.048213768            6 
 2823000     0.802046   -4.5399467    1635.5644  0.048280919  0.048202875            7 
 2824000   0.81218079   -4.5789082    1632.5981  0.048176289  0.048192127            9 
 2825000   0.80064701   -4.5311429    1643.0101  0.048466374  0.048181406            4 
 2826000   0.78787773    -4.553969    1634.5673  0.048200261   0.04817051            4 
 2827000   0.80550139   -4.5385857    1636.6844  0.048245618  0.048159703            4 
 2828000   0.80691168   -4.5499729    1638.8882  0.048293499  0.048148922            6 
 2829000   0.80926754   -4.5555051    1639.1084  0.048282914  0.048138238           13 
 2830000   0.79819209   -4.6038163    1639.0334  0.048263645  0.048127517            5 
 2831000   0.78681619   -4.5917791     1634.744  0.048120335  0.048116694            4 
 2832000   0.82120205   -4.5593812    1640.6186  0.048276206  0.048105763            5 
 2833000   0.80915748   -4.5673846    1634.7922  0.048087781  0.048094923            4 
 2834000   0.80416893   -4.5625252    1640.8857   0.04824999  0.048084218            9 
 2835000   0.80693217   -4.5812178    1638.8669  0.048173629  0.048073434            4 
 2836000   0.80784341    -4.579126    1634.3271  0.048023247  0.048062591            4 
 2837000   0.81549035    -4.564536    1636.5605  0.048071923  0.048051855           11 
 2838000   0.79214805   -4.5630798    1638.9654  0.048125598   0.04804092            6 
 2839000   0.79148966   -4.5569234    1645.8913  0.048311945  0.048030174            6 
 2840000   0.78671779   -4.5834031    1638.2067  0.048069446  0.048019408            4 
 2841000   0.78758968   -4.5723853    1637.7991  0.048040571  0.048008643            8 
 2842000    0.8125956   -4.5888822    1639.1029  0.048061895  0.047997864            4 
 2843000   0.79515319   -4.5709235    1643.7806  0.048182102  0.047987178            3 
 2844000   0.80108149   -4.5497813    1643.7597  0.048164549  0.047976392            5 
 2845000   0.78938994   -4.6037886    1634.7231  0.047882926  0.047965569            8 
 2846000   0.78766597   -4.5601179    1643.5126  0.048123467   0.04795485           11 
 2847000   0.78331872    -4.589717    1640.8379  0.048028272  0.047944016            5 
 2848000    0.7717037   -4.5711397    1640.5647  0.048003415  0.047933173            6 
 2849000    0.7872328   -4.5597772     1639.581  0.047957793  0.047922306            4 
 2850000   0.79024172   -4.5986567    1637.2745  0.047873523  0.047911526           13 
 2851000   0.81246814   -4.5833016    1642.8209  0.048018851  0.047900591            7 
 2852000   0.79529187   -4.5631109    1640.4918  0.047933959  0.047889799            8 
 2853000   0.77931199   -4.5731689     1641.595  0.047949379  0.047878957            3 
 2854000   0.78762336   -4.5445584    1645.0916  0.048034677  0.047868182            4 
 2855000   0.79293632   -4.5789388    1639.9861  0.047868831  0.047857496            9 
 2856000   0.78972244   -4.5848159    1642.9883  0.047939668  0.047846769            8 
 2857000    0.7824463   -4.5570384    1644.9505  0.047980122  0.047836052            2 
 2858000   0.80683356   -4.5738243     1639.751  0.047811728  0.047825378            4 
 2859000   0.77058406   -4.5826906    1640.8039  0.047825693   0.04781459            6 
 2860000   0.79695255   -4.6074082    1640.9807  0.047814122  0.047803599            8 
 2861000   0.79752341    -4.596322     1642.156  0.047831643  0.047792665            4 
 2862000   0.81527183   -4.5809967    1645.5253  0.047913037  0.047781913            4 
 2863000   0.78329072   -4.5638603    1651.4715  0.048069376  0.047771134            3 
 2864000   0.79664854   -4.5981143    1645.1345  0.047868205  0.047760337            5 
 2865000   0.78896423   -4.5623932    1642.1344  0.047764234  0.047749478            3 
 2866000   0.79443091   -4.5851715    1645.5998  0.047848332  0.047738724            4 
 2867000   0.80367771   -4.5856924    1648.6456  0.047920171  0.047728037            6 
 2868000   0.78424332   -4.5574796    1646.1532  0.047831043  0.047717338           12 
 2869000    0.8026067   -4.5797496    1642.8241  0.047717675    0.0477066            5 
 2870000   0.81041195   -4.5942947    1645.1027  0.047767209  0.047695867            4 
 2871000   0.77734973   -4.5835072    1643.1534  0.047693991  0.047684975            7 
 2872000   0.78225891   -4.5462386      1644.42  0.047714136  0.047674208            4 
 2873000   0.80183562   -4.5551155     1647.799  0.047795539  0.047663397            3 
 2874000   0.78392468    -4.584217    1645.3401  0.047707612  0.047652588            4 
 2875000   0.78091741   -4.5558787    1647.2252  0.047745657  0.047641786            4 
 2876000   0.79139941   -4.5457308    1648.6329  0.047769846  0.047630971            4 
 2877000   0.77113548   -4.5728647    1643.4511  0.047603148  0.047620292            8 
 2878000   0.79189189   -4.5772975     1646.183  0.047665712  0.047609496            7 
 2879000   0.79178123   -4.5741692    1650.6489  0.047778421  0.047598707            7 
 2880000   0.79442728   -4.5713856    1653.3821  0.047840917  0.047587985            2 
 2881000   0.79399165   -4.5557266    1656.5252  0.047915227  0.047577331            3 
 2882000   0.80011017   -4.5740302    1648.9449  0.047679414  0.047566669            5 
 2883000    0.7902006   -4.5981143    1651.4804  0.047736165  0.047555979            4 
 2884000   0.79199257   -4.5905158    1652.2896  0.047742996  0.047545282            5 
 2885000   0.79855781   -4.5973506    1651.6756  0.047708711  0.047534671            4 
 2886000   0.78159541   -4.5835837    1649.0529  0.047616449  0.047524013            3 
 2887000   0.78622751   -4.5959054    1651.2055  0.047662091   0.04751334            7 
 2888000   0.78711638   -4.6088876    1649.3313  0.047591509  0.047502653            6 
 2889000   0.77872431   -4.5512701    1655.0723  0.047740633  0.047492033            6 
 2890000   0.80788982   -4.5812509    1645.9613  0.047461397   0.04748134            5 
 2891000   0.81670854   -4.5940266     1651.257   0.04759763  0.047470619            5 
 2892000   0.81245792   -4.6210839    1653.1033  0.047634374  0.047459944            5 
 2893000   0.77110342   -4.5873221     1653.377  0.047625793  0.047449257            5 
 2894000   0.78304631   -4.5981292    1655.3135  0.047665099  0.047438559            8 
 2895000   0.80170483   -4.6042394     1651.307  0.047533306  0.047427801            9 
 2896000   0.79417516   -4.5694025     1649.228  0.047457069  0.047417134            5 
 2897000   0.79885029   -4.5845419    1653.1226  0.047552715  0.047406558            9 
 2898000   0.77876211   -4.5899389    1649.5348  0.047433139  0.047395852            9 
 2899000    0.8089762   -4.6135258    1650.5626  0.047446321  0.047385109            8 
 2900000   0.79686891   -4.5874237    1647.3604  0.047337943  0.047374326            4 
 2901000   0.79380609   -4.5807913    1650.9692   0.04742529  0.047363587            4 
 2902000    0.7896782   -4.5776118    1656.7446  0.047574793   0.04735293            4 
 2903000   0.78328758    -4.592451    1655.9042  0.047534279  0.047342206            4 
 2904000   0.79183426   -4.5691644    1655.0919  0.047494601  0.047331524           16 
 2905000   0.80405182   -4.5909053    1650.7576  0.047353919  0.047320832            9 
 2906000   0.80504881   -4.6036084     1656.076  0.047490135  0.047310226            8 
 2907000   0.77974115   -4.5703482    1655.1304  0.047446693  0.047299481            4 
 2908000   0.79233947   -4.5854253    1651.8587  0.047336619  0.047288817            3 
 2909000   0.78057764   -4.5806673    1656.7497  0.047460459  0.047278187           10 
 2910000   0.79427256   -4.5437358    1659.5463  0.047524235  0.047267654            6 
 2911000   0.78566536   -4.5589278    1656.3393  0.047416102  0.047257097           16 
 2912000   0.79224435   -4.6084782    1649.9335  0.047216503  0.047246442            6 
 2913000   0.78080649   -4.5829869    1656.4489  0.047386684  0.047235777           11 
 2914000   0.79554357   -4.6118423    1655.3654  0.047339435  0.047225219            8 
 2915000   0.80270851   -4.5691864      1660.35  0.047465695  0.047214574            4 
 2916000   0.77519942   -4.5626437    1657.7571  0.047375318   0.04720407            3 
 2917000   0.76845038   -4.5757549    1664.1667  0.047542187  0.047193546            5 
 2918000    0.7855098   -4.5901934    1660.2666  0.047414515  0.047182974            5 
 2919000   0.78843712   -4.5968709    1662.2381  0.047454553  0.047172319            9 
 2920000   0.77442779   -4.5766984    1657.4179   0.04730074  0.047161669            6 
 2921000   0.77812337    -4.583086    1658.4231  0.047313224  0.047151098            3 
 2922000   0.77581471   -4.5939744    1656.4132  0.047239711   0.04714047            3 
 2923000   0.78791241   -4.5816492    1661.1884  0.047359688  0.047129843            3 
 2924000   0.76804116   -4.5877846    1657.9556  0.047251356  0.047119228            4 
 2925000   0.79069329   -4.6251331    1659.5193  0.047279752  0.047108638            4 
 2926000   0.78972903    -4.585668    1659.3364  0.047258385  0.047098017            3 
 2927000   0.79017271   -4.5921581    1658.2998  0.047212727  0.047087362            5 
 2928000   0.77037073   -4.5847154    1661.2497  0.047280557   0.04707675            4 
 2929000   0.78041331   -4.5790055    1664.3427  0.047352415  0.047066173            8 
 2930000   0.78089426   -4.5986465    1661.7061  0.047261264  0.047055566            3 
 2931000   0.78882285   -4.6114087    1662.2603  0.047260898  0.047044986            4 
 2932000   0.76248509   -4.6290433    1663.0059  0.047265969  0.047034421            7 
 2933000   0.77577903   -4.6045619     1663.414  0.047261449   0.04702378            4 
 2934000   0.77973895    -4.592134    1664.0736  0.047264075  0.047013275            5 
 2935000   0.77317176   -4.5798028    1661.9462  0.047187571  0.047002773            7 
 2936000   0.78363313   -4.5842435    1664.3318  0.047239209  0.046992189            9 
 2937000   0.76294526    -4.615452    1656.9685    0.0470142   0.04698164            9 
 2938000   0.79186507   -4.6095208    1661.9205  0.047138656  0.046971029            9 
 2939000    0.7736628   -4.6168932     1663.171  0.047158076  0.046960441            4 
 2940000   0.77912418   -4.6012442    1663.5785  0.047153587  0.046949835            4 
 2941000   0.79543335   -4.5896194    1667.3967  0.047245742  0.046939301            5 
 2942000   0.77841712   -4.5606282    1663.0874   0.04710762  0.046928829            4 
 2943000    0.7736946   -4.6150288    1665.7371   0.04716664  0.046918242            5 
 2944000   0.76670968   -4.5862695    1671.3945  0.047310759  0.046907786            4 
 2945000   0.77805832   -4.6010358    1669.3205  0.047236007  0.046897299            3 
 2946000   0.78179162   -4.6158925     1661.966  0.047011938   0.04688683            6 
 2947000   0.77387781   -4.6037412    1672.3403  0.047289341  0.046876262           16 
 2948000   0.77895897   -4.5992766    1664.3843  0.047048402   0.04686581            4 
 2949000   0.77528759   -4.6001288    1670.4802  0.047204707  0.046855305            4 
 2950000   0.76786455   -4.5875529    1669.7277  0.047167449  0.046844818            4 
 2951000   0.79203209    -4.596897    1669.5097   0.04714531  0.046834425            9 
 2952000   0.78977349    -4.616541    1669.3808  0.047125701  0.046823972            5 
 2953000   0.77493636   -4.5893925    1667.5689   0.04705861   0.04681353            6 
 2954000   0.76451716   -4.5684293    1672.5949  0.047184464  0.046803174            2 
 2955000     0.783777    -4.617375    1666.0583  0.046984159  0.046792668            6 
 2956000   0.77167883   -4.6310612    1667.1898  0.047000162   0.04678219            4 
 2957000   0.77005923   -4.6142257    1672.0776  0.047122017  0.046771674            7 
 2958000   0.77232758     -4.63162    1663.2143  0.046856388  0.046761188            6 
 2959000   0.78724139   -4.6226258    1667.8858  0.046972114  0.046750657           15 
 2960000   0.76774916   -4.6185504    1663.7715  0.046840415  0.046740167            6 
 2961000   0.77714607   -4.6095974    1669.1254  0.046975272  0.046729676            4 
 2962000   0.76245219   -4.6324701     1664.766  0.046836766  0.046719129            7 
 2963000   0.78061291    -4.601464    1665.4636  0.046840578  0.046708602            3 
 2964000   0.79499013   -4.6012627    1667.7635  0.046889438  0.046698121           12 
 2965000   0.78502385   -4.6226783    1671.7835  0.046986607  0.046687648            9 
 2966000   0.78159209   -4.6063085    1671.3703  0.046959157  0.046677167            5 
 2967000   0.78080728   -4.5968274    1667.5963  0.046837329  0.046666638            9 
 2968000   0.79098098   -4.5732702    1669.4948  0.046874853  0.046656004            4 
 2969000   0.76607214   -4.6391674    1666.0193  0.046761516  0.046645402            4 
 2970000   0.77798422   -4.5984914    1665.8466  0.046740926   0.04663489           10 
 2971000   0.76615583   -4.5857057    1666.6443  0.046747568  0.046624241            3 
 2972000   0.78145851   -4.6098165     1663.374  0.046640141   0.04661358            6 
 2973000   0.78824205   -4.6321801    1667.2636  0.046733479  0.046602871            7 
 2974000   0.78118778   -4.6053436     1663.001  0.046598324  0.046592166            8 
 2975000   0.77631994   -4.6354942    1661.7739  0.046548288  0.046581442            7 
 2976000    0.7872291   -4.6164317    1666.2698  0.046658541  0.046570772            6 
 2977000   0.77672481   -4.5817336    1672.0528  0.046804749  0.046560178            4 
 2978000   0.77094085   -4.5809503    1672.2788  0.046795355  0.046549676            5 
 2979000   0.76858666   -4.5923412    1670.5481  0.046731232  0.046539138            6 
 2980000   0.77996297   -4.6075371    1668.9999  0.046672257  0.046528504            9 
 2981000   0.77068602   -4.5911995    1675.8762  0.046848827  0.046517933            8 
 2982000    0.7725841    -4.595418    1675.8572  0.046832583  0.046507378            5 
 2983000   0.77085809   -4.6048713    1671.3414  0.046690731  0.046496808            5 
 2984000   0.76554579   -4.6137662    1673.8453  0.046745011  0.046486354            6 
 2985000   0.79166786   -4.6112193     1669.961  0.046620909  0.046475777            7 
 2986000   0.78182125   -4.6348819    1671.9367  0.046660435  0.046465244            5 
 2987000    0.7810583   -4.6293614    1674.4669  0.046715403  0.046454607            7 
 2988000   0.77325836    -4.612148    1677.1017  0.046773253  0.046444131            7 
 2989000   0.78278377   -4.6036025    1673.0503  0.046644649  0.046433745            6 
 2990000    0.7726277   -4.6142554    1671.0345  0.046572868  0.046423367            5 
 2991000   0.76503213   -4.6137626    1678.2739  0.046758997  0.046413021            4 
 2992000   0.76864908   -4.6382411    1676.3946  0.046691026  0.046402611            4 
 2993000   0.77026584   -4.6134536    1674.7962  0.046630921  0.046392201            4 
 2994000   0.77703173   -4.6097398    1679.2318  0.046738807  0.046381774           10 
 2995000   0.76361789   -4.6106893     1676.481  0.046646662   0.04637136            4 
 2996000   0.77283818   -4.6185064    1674.1828  0.046567166  0.046360858            6 
 2997000   0.77712937   -4.6291146    1673.4007  0.046529883  0.046350319            5 
 2998000   0.77581245   -4.6226262    1675.6358   0.04657649  0.046339804           14 
 2999000   0.77087392   -4.5967659    1678.0456   0.04662792   0.04632938            7 
 3000000   0.77661853   -4.6147068    1671.2039   0.04642233  0.046318907            6 
 3001000   0.76892018   -4.5975965    1676.8121  0.046562594  0.046308478            3 
 3002000   0.77876893   -4.6302029    1674.1786  0.046473979  0.046298034            7 
 3003000   0.76762797   -4.6325129    1678.6977  0.046583907   0.04628748            7 
 3004000   0.77646261   -4.6253414    1675.6508  0.046483876  0.046276949            7 
 3005000   0.76152076   -4.6132493    1677.5154  0.046520116  0.046266401            4 
 3006000   0.76141552   -4.6254639    1676.7083  0.046482266  0.046255829            4 
 3007000   0.75596697    -4.611805    1677.5651  0.046490552  0.046245285            7 
 3008000   0.77717394   -4.6302409    1675.6823  0.046422936  0.046234694            5 
 3009000    0.7757717    -4.615457    1675.2392  0.046395236  0.046224196            7 
 3010000   0.76754814    -4.613011    1681.9208  0.046564807  0.046213694            6 
 3011000   0.77089435    -4.620601    1674.3203  0.046338987  0.046203228            6 
 3012000   0.77550739   -4.6396279    1674.5131  0.046328936  0.046192628           10 
 3013000     0.784282   -4.6273162    1675.3208  0.046335899  0.046182059            6 
 3014000   0.77099906   -4.6093398    1678.8553  0.046418252  0.046171436            9 
 3015000   0.77947681   -4.6496917     1672.683  0.046232256   0.04616083            7 
 3016000   0.76807481   -4.6040887     1675.643  0.046298713  0.046150266            4 
 3017000   0.75742466   -4.6217269    1680.4772  0.046416893   0.04613971            8 
 3018000   0.76897785   -4.6159733    1676.8886  0.046302424  0.046129119            6 
 3019000   0.77404782   -4.6239326    1678.9314  0.046343474  0.046118539            9 
 3020000   0.76608717   -4.6180255      1675.19  0.046224889  0.046108031            4 
 3021000    0.7707681   -4.6230299    1681.4661  0.046382713  0.046097477           11 
 3022000   0.77735903   -4.6244416    1677.3218  0.046253083  0.046086938            6 
 3023000   0.77187246   -4.6438801    1679.9294  0.046309666  0.046076434            6 
 3024000   0.78371847   -4.6265265    1678.3322  0.046250336  0.046065828            5 
 3025000   0.77665178   -4.6349713    1676.6036  0.046187426  0.046055224           23 
 3026000   0.75112818   -4.6396329    1675.5592  0.046143402   0.04604474            3 
 3027000   0.75486929   -4.6109452    1675.9271  0.046138285  0.046034128            3 
 3028000   0.75883737    -4.597917    1677.6139  0.046169472  0.046023562            6 
 3029000    0.7624834   -4.6238813     1684.288  0.046337846  0.046012997            5 
 3030000   0.77660493   -4.6166492    1683.2131  0.046292989  0.046002478            4 
 3031000   0.78581913   -4.6200579    1679.7358  0.046182112  0.045992046            8 
 3032000   0.78036035    -4.612795    1679.5582     0.046162  0.045981456            6 
 3033000   0.77239675   -4.6407862    1679.3251  0.046140374  0.045970892            3 
 3034000   0.76869733   -4.5985847    1682.6905  0.046217603  0.045960374            2 
 3035000   0.74644508    -4.603501    1682.9665  0.046209954  0.045949863            4 
 3036000   0.76403347   -4.6229962    1676.9041  0.046028329  0.045939314            4 
 3037000   0.75148293   -4.6272911    1677.2498  0.046022659  0.045928823            7 
 3038000   0.76431103   -4.6301316    1683.6076  0.046181906  0.045918302            5 
 3039000   0.75062663   -4.6209739    1685.6055  0.046221495  0.045907834            3 
 3040000   0.76221569   -4.6152322    1678.7387  0.046018058  0.045897249            4 
 3041000   0.76924862   -4.6393936    1682.7153  0.046111895  0.045886634           13 
 3042000   0.78880782   -4.6379795    1681.2488  0.046056564  0.045875983            5 
 3043000   0.76381043   -4.6578366    1678.5192  0.045966679  0.045865267            2 
 3044000   0.77671592   -4.6288513    1682.8784  0.046070915  0.045854584            8 
 3045000   0.75496871   -4.6283354    1681.4205  0.046015887  0.045843996            8 
 3046000   0.77487843     -4.62494    1686.1904  0.046131277  0.045833305            7 
 3047000   0.74862541   -4.6244983    1680.7073  0.045966177  0.045822644            8 
 3048000   0.75646499   -4.6076701    1684.3871  0.046051703  0.045812037            5 
 3049000     0.761656   -4.6282474    1679.7649  0.045910269  0.045801379            4 
 3050000   0.76173823   -4.6387856    1680.8293  0.045924298  0.045790695            9 
 3051000   0.76728458   -4.6317835    1685.1178  0.046026379  0.045779927            5 
 3052000   0.76313018   -4.6467179    1680.7402   0.04589177  0.045769256           10 
 3053000   0.76920139   -4.6519177     1676.351  0.045756934  0.045758566            4 
 3054000   0.76499513   -4.6409868     1678.324  0.045795787  0.045747925            5 
 3055000   0.75852152   -4.6181362    1684.7362  0.045955707  0.045737294           10 
 3056000   0.75952923     -4.63501    1686.5149  0.045989173  0.045726783            5 
 3057000   0.73151141   -4.6419805     1682.102  0.045853832  0.045716142            5 
 3058000   0.76526884   -4.6272706    1684.7623  0.045911334  0.045705432            3 
 3059000   0.74989076   -4.6246861    1689.1659  0.046016289  0.045694759            3 
 3060000   0.77184746   -4.6412236     1682.478  0.045819119   0.04568416            5 
 3061000   0.75554429   -4.6434777     1686.997  0.045927176  0.045673638            5 
 3062000   0.76285344   -4.6347321     1686.147  0.045889042  0.045662943            8 
 3063000   0.75006613   -4.6491192    1689.5326  0.045966172  0.045652368           16 
 3064000   0.75738279   -4.6538651    1689.0603  0.045938323   0.04564183           12 
 3065000   0.76800013   -4.6395657    1689.9719   0.04594812  0.045631277            5 
 3066000    0.7681857   -4.6348237    1689.2925  0.045914668   0.04562087           11 
 3067000   0.74748079   -4.6265186    1683.0638  0.045730457  0.045610403            4 
 3068000    0.7515676   -4.6618688    1686.0066  0.045795486  0.045599869            4 
 3069000    0.7685514   -4.6319074    1692.4062  0.045954333  0.045589346            8 
 3070000   0.74369973   -4.6260259    1691.7225  0.045920805   0.04557886            9 
 3071000   0.73841013   -4.6378022      1683.54  0.045683817  0.045568278            5 
 3072000   0.77003215   -4.6453986    1687.5639  0.045778102  0.045557733            6 
 3073000   0.76268972   -4.6390286    1687.2745  0.045755356  0.045547267            6 
 3074000   0.77769414   -4.6258215    1690.9593  0.045840362  0.045536746            4 
 3075000   0.77659072    -4.618623    1688.6255  0.045762209  0.045526284            5 
 3076000   0.77523021   -4.5944826    1689.8399  0.045780232  0.045515836            6 
 3077000   0.75985165   -4.6575805    1688.0421  0.045716665  0.045505375            6 
 3078000   0.75911518   -4.6419368    1690.0266   0.04575554  0.045494803            4 
 3079000   0.75308662   -4.6327243    1690.0103  0.045740239  0.045484172            6 
 3080000   0.74743366   -4.6344729    1692.1345   0.04578286   0.04547367            4 
 3081000    0.7537315    -4.612212    1688.1583  0.045660454  0.045463122            4 
 3082000   0.76899066   -4.6291843     1690.382  0.045705764  0.045452665            5 
 3083000   0.75335638    -4.651034    1687.4709  0.045612252  0.045442192            3 
 3084000   0.75999186   -4.6260832    1694.0174  0.045774357  0.045431676            7 
 3085000    0.7589975   -4.6444438    1690.6441  0.045668397  0.045421173           12 
 3086000   0.77050356   -4.6216938    1693.1437  0.045721098  0.045410728            5 
 3087000   0.75819502   -4.6379392    1690.1908  0.045626573  0.045400252            7 
 3088000   0.76162549   -4.6551091    1691.5699  0.045649016   0.04538975            3 
 3089000   0.75639911   -4.6613652    1689.7454  0.045585016  0.045379159           10 
 3090000    0.7468845   -4.6446419    1685.9201  0.045467101  0.045368637            5 
 3091000   0.75824865   -4.6337748    1693.8043   0.04566495  0.045358139            6 
 3092000   0.75519419   -4.6724647    1693.6544  0.045646142  0.045347708            8 
 3093000   0.77035612   -4.6413259    1694.1365  0.045644373  0.045337212           10 
 3094000     0.748132   -4.6459654    1695.8117   0.04567474  0.045326708            6 
 3095000   0.76221698    -4.657035    1693.8966  0.045608416  0.045316257            6 
 3096000   0.74461706   -4.6447039    1694.7048   0.04561544   0.04530585            5 
 3097000   0.76486605   -4.6307243    1692.8381  0.045550481  0.045295443            5 
 3098000   0.76530171   -4.6405632    1693.7234  0.045559592  0.045285008            4 
 3099000   0.74884482   -4.6369637    1687.4184  0.045375348  0.045274637            6 
 3100000   0.74874837   -4.6450335    1692.7001  0.045502691  0.045264094            5 
 3101000   0.74347459   -4.6549163    1689.7962  0.045409979  0.045253635            9 
 3102000     0.763926   -4.6603576    1694.4325  0.045519892  0.045243119            5 
 3103000   0.74792717   -4.6357619    1691.5807  0.045428637   0.04523271            6 
 3104000   0.76100796   -4.6423724    1688.8212  0.045339916  0.045222259            8 
 3105000   0.76094916   -4.6416836    1697.7719  0.045565537    0.0452118            7 
 3106000   0.76020147   -4.6415752    1692.9072  0.045420347  0.045201297            6 
 3107000   0.76801378   -4.6502692    1698.2475  0.045548961  0.045190751           11 
 3108000   0.75900152   -4.6536948     1694.956  0.045446054   0.04518026            5 
 3109000   0.73919601   -4.6447161    1696.2007  0.045464799  0.045169831            6 
 3110000   0.75795386   -4.6457218    1696.3723  0.045454779   0.04515945            7 
 3111000   0.75265947   -4.6557622    1695.8904  0.045427258  0.045149035           11 
 3112000   0.75006841   -4.6432305    1699.5396   0.04551038  0.045138662            6 
 3113000   0.76078727   -4.6528557    1696.8619  0.045424079  0.045128218            4 
 3114000   0.74322534   -4.6592451    1694.3316  0.045341779   0.04511777            4 
 3115000   0.76412176   -4.6471115    1695.3318   0.04535398  0.045107305            8 
 3116000   0.75708838   -4.6182136    1695.7639  0.045350981  0.045096865            5 
 3117000   0.74032717    -4.633247    1692.3306  0.045244642  0.045086506            6 
 3118000    0.7566929    -4.641354     1703.043  0.045516438  0.045076068            6 
 3119000   0.74285049     -4.65069    1696.1472  0.045317602  0.045065663            8 
 3120000   0.75255149   -4.6523708    1698.1816  0.045357415  0.045055284            5 
 3121000   0.76354071   -4.6571112    1700.6951  0.045409994  0.045044925            5 
 3122000   0.73971477   -4.6685426      1699.87  0.045373425  0.045034498            4 
 3123000   0.75378401    -4.656521    1694.4892  0.045215316  0.045024118            5 
 3124000   0.74789494   -4.6642236    1698.0618  0.045296142  0.045013662            9 
 3125000   0.73951404   -4.6441337    1703.8961  0.045437229  0.045003302            5 
 3126000    0.7557252   -4.6228749    1704.5308  0.045439613  0.044992954            3 
 3127000   0.77960802   -4.6352818    1700.3746  0.045314322  0.044982729            4 
 3128000    0.7527568   -4.6461828    1699.4182  0.045274354  0.044972396            9 
 3129000   0.75815713   -4.6623319    1701.1307  0.045305494  0.044962043           11 
 3130000   0.75597082   -4.6387589    1704.1635  0.045371766  0.044951679           12 
 3131000    0.7531259   -4.6462992    1700.8654  0.045269494  0.044941373            4 
 3132000   0.74619414   -4.6581206     1699.079  0.045207507  0.044931006            5 
 3133000   0.75451602   -4.6734773    1702.7745  0.045291375  0.044920577            4 
 3134000   0.75278147   -4.6618004    1700.6385  0.045220127  0.044910116            6 
 3135000   0.76548064   -4.6824596    1698.3244   0.04514419  0.044899749            7 
 3136000   0.72224406   -4.6876028    1699.4824  0.045160566   0.04488935            5 
 3137000   0.74535504   -4.6522076    1705.5763  0.045308052  0.044878992            7 
 3138000   0.76783529   -4.6529451    1702.4635  0.045210948  0.044868641            4 
 3139000   0.74438439   -4.6635572    1702.5727  0.045199446  0.044858277           11 
 3140000    0.7497541   -4.6662747    1703.9379  0.045221282  0.044847955            5 
 3141000   0.73923682   -4.6522255    1700.6151  0.045118727  0.044837599            3 
 3142000   0.74551804   -4.6606753    1700.5759  0.045103328  0.044827124            6 
 3143000   0.74676157   -4.6777806    1698.3658  0.045030379  0.044816672            4 
 3144000   0.75600096   -4.6466133     1702.693  0.045130753  0.044806257            5 
 3145000    0.7656966   -4.6874918    1698.1711  0.044996584   0.04479593            4 
 3146000   0.75637575   -4.6451291    1705.8794  0.045186465  0.044785611            6 
 3147000   0.74907953   -4.6501311    1705.1744  0.045153437  0.044775342           11 
 3148000   0.74440383    -4.687372    1702.1232  0.045058322  0.044764966            5 
 3149000    0.7480374   -4.6705408    1705.9328  0.045144828  0.044754535            6 
 3150000   0.74823555   -4.6553012    1700.8862   0.04499699  0.044744275            6 
 3151000   0.75454746   -4.6521872    1700.6896   0.04497751  0.044733888            8 
 3152000   0.74975921   -4.6620836    1701.0119  0.044971762  0.044723491            5 
 3153000   0.75220609   -4.6641995    1700.0097  0.044931011  0.044713093            6 
 3154000   0.75250448   -4.6752624    1703.6249  0.045012284  0.044702664            9 
 3155000   0.74146103   -4.6502264    1705.0573   0.04503585  0.044692323            4 
 3156000   0.75209377   -4.6586786    1699.3572  0.044871072  0.044681969            5 
 3157000   0.75440289    -4.661144     1704.825  0.045001187  0.044671662            6 
 3158000   0.76521884   -4.6634781    1706.3167    0.0450263  0.044661272            4 
 3159000   0.75188397   -4.6975092    1703.9886  0.044950632  0.044650857            5 
 3160000   0.74704864   -4.6584568     1704.634  0.044953427   0.04464041            2 
 3161000   0.72955119   -4.6674101    1703.2877  0.044903714  0.044630016            9 
 3162000   0.75977452   -4.6507403    1705.6212  0.044951011  0.044619621            5 
 3163000   0.77134546   -4.6700284    1703.6591  0.044885105  0.044609276            4 
 3164000   0.75219947   -4.6596741    1704.8744  0.044902928  0.044598981            6 
 3165000   0.75449593   -4.6533918    1707.2736  0.044951913  0.044588642            5 
 3166000    0.7429725   -4.6499286     1700.682  0.044764213  0.044578324            4 
 3167000   0.75016453   -4.6747136    1705.9715  0.044889261  0.044567979            7 
 3168000    0.7430466   -4.6613972    1704.1815  0.044828006  0.044557703            7 
 3169000   0.75184249   -4.6588376     1706.882  0.044884874  0.044547391            3 
 3170000   0.74354277   -4.6728215    1705.8473  0.044843515  0.044537104           15 
 3171000   0.76314497   -4.6799722    1701.1689  0.044706427  0.044526763            5 
 3172000   0.72979029    -4.669455    1708.3829  0.044881854  0.044516482            5 
 3173000   0.73425673   -4.6760699    1704.8656  0.044775334  0.044506173            9 
 3174000   0.75527651   -4.6670809    1709.2941  0.044877498  0.044495778            9 
 3175000   0.73313217   -4.6718268    1706.1894  0.044781875  0.044485486            7 
 3176000   0.75521837   -4.6414454    1706.3049  0.044770804  0.044475187           11 
 3177000   0.73979422   -4.6718416    1705.3417  0.044731447  0.044464867            7 
 3178000   0.74234667   -4.6798427      1701.46  0.044615586  0.044454526            5 
 3179000   0.74294398   -4.6595376    1708.0102  0.044773258  0.044444174            6 
 3180000   0.72554954   -4.6395461    1705.2267  0.044686234  0.044433776            8 
 3181000   0.73844196   -4.6695214    1706.1464  0.044696279  0.044423407            5 
 3182000   0.74432602   -4.6755009    1707.6333  0.044721175  0.044413106           10 
 3183000    0.7235249   -4.6772469    1707.5525  0.044705008  0.044402781            6 
 3184000   0.73939395   -4.6623459    1706.9221  0.044674469  0.044392387           17 
 3185000   0.75091068   -4.6270759    1711.6978  0.044785394  0.044382049            3 
 3186000   0.74720799   -4.6928519    1706.1462   0.04462613  0.044371693            9 
 3187000   0.73064262   -4.6737074    1709.4711  0.044699068  0.044361207            5 
 3188000   0.72800452    -4.669736    1706.3137  0.044602511  0.044350844            9 
 3189000   0.74878495   -4.6842828    1704.4062  0.044538679  0.044340492            6 
 3190000    0.7303711   -4.6764978    1704.1221  0.044517297  0.044330113            5 
 3191000    0.7553154   -4.6826871    1706.2439  0.044558757  0.044319707            4 
 3192000   0.73249686    -4.661198    1707.1777  0.044569177  0.044309304            4 
 3193000   0.73642428   -4.6732596      1707.14  0.044554234  0.044298931            5 
 3194000   0.74938956   -4.6631498    1711.7519  0.044660611  0.044288513           15 
 3195000   0.73294529   -4.6953603    1708.1634  0.044553036  0.044278057            8 
 3196000   0.75103452   -4.6624692    1714.9604  0.044716323  0.044267684            8 
 3197000    0.7410707   -4.6738222    1717.7613  0.044775345  0.044257435            5 
 3198000   0.73398541   -4.7071853    1708.6083  0.044522834  0.044247093            9 
 3199000   0.74935947   -4.6848925    1709.8379  0.044540949  0.044236752           14 
 3200000   0.74242522   -4.6743289    1711.1844  0.044562094  0.044226384            4 
 3201000   0.72571857    -4.674384     1711.416  0.044554202  0.044216104            4 
 3202000   0.74042566   -4.6702141    1713.9311  0.044605745  0.044205927            6 
 3203000    0.7367237   -4.6662662    1713.4184  0.044578477  0.044195672            6 
 3204000   0.72244326   -4.6838679     1714.193  0.044584713  0.044185481            6 
 3205000   0.73402376   -4.6587087    1715.4762  0.044604165  0.044175287            7 
 3206000   0.74176848   -4.6641346    1713.2076  0.044531286  0.044165066            4 
 3207000    0.7478794   -4.6684235    1712.2788  0.044493263  0.044154746            3 
 3208000   0.73883212   -4.7018389    1714.7903  0.044544636  0.044144438            7 
 3209000   0.74024393   -4.6494423    1716.0296  0.044562939  0.044134255            2 
 3210000   0.72958166   -4.6612973    1714.2391  0.044502572  0.044124043            7 
 3211000   0.73237512   -4.7026135    1711.7705  0.044424646   0.04411385            7 
 3212000   0.74246246   -4.6870141    1711.0533  0.044392209  0.044103611           11 
 3213000   0.73433111   -4.6645685     1716.355  0.044515899  0.044093423            4 
 3214000   0.75380221   -4.6802415     1716.824  0.044514208   0.04408321            8 
 3215000   0.73239493   -4.6767546    1714.4828  0.044439679  0.044073023            5 
 3216000   0.73161292   -4.6811857    1710.7013  0.044327874  0.044062825            7 
 3217000   0.73475909    -4.680676    1716.2497  0.044457821  0.044052532            5 
 3218000   0.74039136   -4.6909595    1721.2162  0.044572618  0.044042317            8 
 3219000   0.74107888   -4.6881005    1714.4118  0.044382618   0.04403218            9 
 3220000   0.75002799   -4.7095013    1718.9096  0.044485238  0.044021904           10 
 3221000   0.73848823   -4.7011178    1719.6354  0.044490206  0.044011809           10 
 3222000   0.73113106   -4.7210569    1717.6737   0.04442566  0.044001755            4 
 3223000   0.72642158   -4.7053821    1715.9934  0.044368429   0.04399156            6 
 3224000   0.74322802   -4.6927522    1715.2591  0.044335687  0.043981349            8 
 3225000   0.73430112    -4.693933    1716.8564  0.044363214  0.043971079            7 
 3226000   0.73217396   -4.6929171     1718.243  0.044385282  0.043960747           24 
 3227000   0.72897212   -4.6672265    1715.8582  0.044309943  0.043950481            9 
 3228000   0.74762238   -4.6974386    1713.6976  0.044240437  0.043940204           14 
 3229000   0.72018261   -4.6745469    1721.1374  0.044418741  0.043930013            5 
 3230000   0.72895715   -4.7058877    1715.8467  0.044268491  0.043919719            9 
 3231000   0.72361128   -4.7186697    1714.2904  0.044214649  0.043909517            7 
 3232000    0.7434955   -4.6542967    1712.0155  0.044142315  0.043899228            6 
 3233000   0.72541194   -4.6748705    1720.8499  0.044356375  0.043889033            8 
 3234000   0.74245491   -4.6843222    1716.1381  0.044221245  0.043878936            5 
 3235000   0.73501731   -4.6865321    1720.1851  0.044311826  0.043868736           10 
 3236000   0.72130027   -4.7021054     1715.682   0.04418217   0.04385852            8 
 3237000   0.74314475   -4.6890272    1715.9822  0.044176248  0.043848324            3 
 3238000   0.76420383    -4.685854    1716.7585  0.044182583  0.043838153            7 
 3239000   0.74259763   -4.6822716    1719.1099   0.04422944  0.043827946            5 
 3240000   0.73653887   -4.7048838    1720.0415   0.04423975  0.043817721            6 
 3241000    0.7324709   -4.6889619    1714.4144  0.044081415  0.043807434            6 
 3242000   0.73198045   -4.6801317    1718.1679  0.044164299  0.043797159            4 
 3243000   0.75661446   -4.6901544    1719.5382  0.044185894  0.043786939            6 
 3244000   0.73537571   -4.6916859    1719.7114   0.04417672  0.043776668            3 
 3245000   0.73360662   -4.6856419    1716.8124  0.044088659  0.043766482            7 
 3246000   0.74114104   -4.6904648    1723.4809  0.044246276  0.043756392            7 
 3247000   0.71851199    -4.715831    1718.5641  0.044106459  0.043746229            5 
 3248000   0.73928543   -4.6876127    1716.8271  0.044048313   0.04373608            9 
 3249000   0.71989464   -4.6945634     1722.446  0.044178875  0.043725927            5 
 3250000   0.73539062   -4.6885545    1723.5634  0.044193933  0.043715769            6 
 3251000   0.73734397   -4.7324493    1723.0665  0.044167601  0.043705537            8 
 3252000    0.7312446   -4.7042708    1720.3951  0.044085564  0.043695403            4 
 3253000   0.73638949   -4.6955776     1724.415  0.044174994  0.043685269            4 
 3254000   0.73948038   -4.6964154    1722.2655  0.044106369  0.043675094            6 
 3255000   0.72601178   -4.6940187    1721.2888  0.044067815   0.04366492            4 
 3256000   0.72714445   -4.7318018    1721.9997  0.044072474  0.043654706            5 
 3257000   0.71131864   -4.7056976    1722.2468  0.044065265  0.043644526            4 
 3258000   0.73202197   -4.7006657    1718.6473  0.043959672  0.043634391            6 
 3259000   0.73139754   -4.7021371    1719.4284  0.043966155   0.04362422            5 
 3260000   0.72680169   -4.6937649    1719.3644  0.043951032  0.043614002            9 
 3261000   0.74100299   -4.6906872    1722.2781  0.044012012   0.04360388            8 
 3262000   0.72452029   -4.6926981    1724.3392  0.044051174  0.043593769           11 
 3263000   0.72356564   -4.7022468     1718.699   0.04389363  0.043583591            4 
 3264000   0.73022423   -4.7176319    1720.2752  0.043920426  0.043573362            6 
 3265000   0.73177502   -4.6958341    1724.6713  0.044019175  0.043563194            7 
 3266000   0.73816645   -4.6832496    1730.2155  0.044147161  0.043553161            5 
 3267000    0.7380858   -4.7091255    1719.8932  0.043870349   0.04354303            5 
 3268000   0.74091835    -4.709831    1725.0319  0.043987962    0.0435328            6 
 3269000   0.74624697   -4.7258395    1720.7781  0.043866068  0.043522639            5 
 3270000   0.72687839   -4.6365733    1728.4872  0.044049114  0.043512654           10 
 3271000   0.73021873   -4.6849509    1731.6232  0.044115542   0.04350267           12 
 3272000    0.7517762   -4.7029707    1727.1872  0.043989079  0.043492723           11 
 3273000   0.73712298   -4.7065723     1730.672  0.044064364  0.043482711            6 
 3274000   0.73187331   -4.7057402    1724.5607  0.043895355  0.043472706            4 
 3275000   0.72922808   -4.7129093    1725.5097  0.043906098   0.04346263            6 
 3276000   0.74064437   -4.7044605    1727.4914  0.043943106  0.043452582           10 
 3277000   0.72813433   -4.7015205    1726.5155  0.043904879  0.043442566            5 
 3278000   0.71453769   -4.6968517    1722.7103   0.04379475  0.043432543            5 
 3279000   0.72133679   -4.7031226    1726.5162  0.043878119  0.043422576            6 
 3280000   0.72862553    -4.715211    1729.2383  0.043933901  0.043412472            7 
 3281000   0.72526198   -4.7006375    1725.5309  0.043826347  0.043402405            5 
 3282000   0.72937581   -4.7348242    1729.1805  0.043905659  0.043392418            6 
 3283000   0.72974814   -4.6919435     1726.081  0.043813612  0.043382379            6 
 3284000   0.72561913    -4.708777     1727.144  0.043827244  0.043372413            7 
 3285000   0.73170347   -4.6917744    1731.6682  0.043928671  0.043362378            5 
 3286000   0.72657816   -4.7366892    1726.4254  0.043782345  0.043352335            7 
 3287000   0.72353373   -4.7146979    1730.9553  0.043883869  0.043342287            6 
 3288000   0.69438521    -4.700298    1725.2241  0.043725266  0.043332195            6 
 3289000   0.72281595   -4.7044124    1730.2088  0.043838269  0.043322151           14 
 3290000   0.71432478   -4.6935509     1727.528  0.043757043  0.043312198           28 
 3291000   0.71214256   -4.6833125    1730.9998  0.043831657  0.043302275            8 
 3292000   0.72811107   -4.7084839    1733.8873  0.043891437   0.04329232           11 
 3293000   0.71531638   -4.7185376    1728.6612  0.043745855  0.043282341            6 
 3294000   0.71319311   -4.6992222    1732.2689  0.043823843  0.043272403           11 
 3295000   0.70974068   -4.6955281    1727.6627  0.043694049  0.043262426            4 
 3296000   0.74017797   -4.7121996    1726.0804  0.043640787  0.043252432            7 
 3297000   0.72662953   -4.6997229    1732.1005  0.043779711  0.043242375           11 
 3298000   0.72879535   -4.7079516    1722.9316  0.043534758  0.043232406            6 
 3299000   0.72660421   -4.6771274    1735.5418  0.043840099   0.04322243            6 
 3300000   0.72571405   -4.7071285    1727.5377   0.04362469  0.043212441            5 
 3301000   0.73460607   -4.7261792     1727.279  0.043604943  0.043202366            7 
 3302000   0.74388398   -4.7124231    1732.2897  0.043718192  0.043192294            7 
 3303000   0.73410807   -4.7006341    1733.1499  0.043726659  0.043182273            8 
 3304000   0.72277795    -4.716501    1730.4242  0.043644679  0.043172258            6 
 3305000    0.7232347   -4.7220872    1724.8711  0.043491455  0.043162152           14 
 3306000   0.72982426   -4.7160742    1733.6705  0.043700104  0.043152137           13 
 3307000   0.72818304      -4.7075     1731.398  0.043629624   0.04314208            8 
 3308000   0.72889886   -4.7062537    1735.7175  0.043725249  0.043132107           12 
 3309000   0.70338346   -4.7159488    1734.1923  0.043673626  0.043122151           10 
 3310000   0.71674241   -4.6999503    1729.4637  0.043541383  0.043112163            4 
 3311000   0.71624136    -4.748915    1732.6232  0.043607753  0.043102173            6 
 3312000   0.72699738   -4.6898676    1732.8011  0.043599061  0.043092192            5 
 3313000   0.71867064   -4.7205259    1734.4898  0.043628378  0.043082212            9 
 3314000   0.70308413   -4.7028684    1733.1112  0.043580546   0.04307223            6 
 3315000   0.72243139   -4.7396588    1731.1911  0.043519132  0.043062222            6 
 3316000   0.71675932   -4.7389362    1728.5171   0.04343881   0.04305214            6 
 3317000   0.72414942   -4.7198711    1724.9213  0.043335377  0.043042008           12 
 3318000   0.72471551   -4.7234778    1732.1882  0.043504827  0.043031933            8 
 3319000   0.73356807   -4.7378827    1732.4651  0.043498673  0.043021904            4 
 3320000   0.72913917   -4.7530105    1730.7658  0.043442916  0.043011786            8 
 3321000   0.71406348   -4.7267527    1728.2668  0.043367128  0.043001734            2 
 3322000   0.73418609   -4.7359587    1727.0872  0.043324483  0.042991671            7 
 3323000   0.73738485   -4.7114885    1735.6727   0.04352675  0.042981665           12 
 3324000   0.72471093   -4.7137787    1729.2916  0.043353681  0.042971689           10 
 3325000    0.7429026   -4.7341537    1731.1003  0.043385973  0.042961725           20 
 3326000   0.71590637    -4.756654    1725.9729   0.04324446  0.042951707            6 
 3327000   0.72055979   -4.7283257    1730.3493   0.04334108  0.042941644            5 
 3328000    0.7300594   -4.7287718    1733.6137  0.043409799  0.042931659            6 
 3329000   0.71532263   -4.7036904    1732.0822  0.043358421  0.042921619            8 
 3330000   0.72142714   -4.7244672    1734.5258  0.043406552  0.042911581            8 
 3331000   0.71571643   -4.7257039    1732.7062  0.043347999  0.042901561            5 
 3332000   0.71542827   -4.7263205     1733.403  0.043352415  0.042891595            9 
 3333000   0.70059282   -4.7108291     1729.456  0.043240723  0.042881551            8 
 3334000   0.71242329   -4.7331328    1733.6507  0.043332602  0.042871518            8 
 3335000   0.73093851   -4.7096772    1734.0472  0.043329515  0.042861469            7 
 3336000   0.71249687   -4.7101895    1732.7449  0.043283996  0.042851382           13 
 3337000   0.74131659   -4.7155503    1731.9583   0.04325138  0.042841405            9 
 3338000   0.71622636    -4.737385    1730.7113  0.043207293  0.042831361           12 
 3339000   0.72231484   -4.7362259    1734.6782  0.043293357  0.042821346            7 
 3340000   0.71831322    -4.725035    1736.4528   0.04332467  0.042811312           12 
 3341000   0.71826774   -4.7387628    1731.7203  0.043193661  0.042801331            7 
 3342000   0.71272299   -4.7639242    1728.3546  0.043096813  0.042791201            4 
 3343000   0.71874904   -4.7114892    1731.2142  0.043155205  0.042781137            5 
 3344000   0.71165557   -4.7313906    1738.8713  0.043333117  0.042771166            5 
 3345000    0.7190292    -4.703373    1735.2077  0.043228891  0.042761191            4 
 3346000   0.72497107   -4.7461589    1735.3577  0.043219707  0.042751201           11 
 3347000   0.71036331   -4.7424394    1732.3793  0.043132638  0.042741164            8 
 3348000   0.71539953   -4.7011311    1744.1321  0.043412289    0.0427312            9 
 3349000   0.71773119    -4.747168    1734.0738  0.043149045  0.042721244            6 
 3350000   0.71365874   -4.7219169    1737.6301  0.043224628  0.042711281            4 
 3351000   0.73513425   -4.7065443    1735.9061  0.043168857  0.042701315            5 
 3352000      0.72823   -4.7251991    1737.5434  0.043196683  0.042691358           14 
 3353000    0.7187221   -4.7403677    1736.1852  0.043150045  0.042681399            4 
 3354000   0.70888827   -4.7067812    1737.3777  0.043166808  0.042671417            6 
 3355000   0.70896835   -4.7333598    1739.7031  0.043211703  0.042661438            4 
 3356000   0.71813506    -4.714864    1740.3092  0.043213876  0.042651385            6 
 3357000   0.70097798   -4.7301133    1736.3894    0.0431037  0.042641367            4 
 3358000   0.72284882   -4.7313161    1736.1293  0.043084409  0.042631318           11 
 3359000   0.69989156   -4.7065745    1738.6413  0.043133902  0.042621326           11 
 3360000   0.70211283   -4.7251599    1733.6298  0.042996771  0.042611275            4 
 3361000   0.70917802   -4.7385906    1742.0734   0.04319333   0.04260123            4 
 3362000   0.70651135    -4.720694    1737.3881   0.04306435  0.042591203           11 
 3363000   0.72183003   -4.7243087    1734.8225   0.04298797  0.042581224            7 
 3364000   0.72754882   -4.7321281    1737.7296  0.043047205  0.042571328            6 
 3365000   0.70563682   -4.7211157    1743.0839  0.043167012  0.042561377            5 
 3366000   0.69599281   -4.7250507     1739.057   0.04305449  0.042551474           10 
 3367000   0.72027945    -4.736071    1739.5837  0.043054741  0.042541502            8 
 3368000   0.70617137   -4.7402068    1744.7689  0.043170251  0.042531624            4 
 3369000   0.71828685   -4.7248627    1737.3884  0.042974878  0.042521722           11 
 3370000   0.71632866   -4.7282331    1742.4175  0.043086487  0.042511792           20 
 3371000   0.69786568   -4.7353641    1739.8942  0.043011326  0.042501928            4 
 3372000   0.70812246   -4.7047643    1740.0353  0.043002058  0.042492019           10 
 3373000   0.71638097   -4.7322699     1741.905  0.043035502  0.042482103           10 
 3374000   0.71708897   -4.7282326    1737.4271  0.042912148   0.04247225            4 
 3375000   0.71157564   -4.7167719    1742.5057  0.043024832  0.042462382            5 
 3376000   0.71324815   -4.7327634    1745.5087  0.043086214   0.04245253            7 
 3377000   0.71063249   -4.7426142    1735.7925  0.042833692  0.042442683            6 
 3378000   0.69925493   -4.7512526    1741.6991  0.042966723  0.042432716            7 
 3379000   0.73392369   -4.7385224    1738.4326   0.04287345  0.042422768            8 
 3380000    0.7131154   -4.7257149     1738.939   0.04287325  0.042412822            8 
 3381000   0.71002324   -4.7153387    1741.0332  0.042912186  0.042402922           10 
 3382000   0.70847195   -4.7531084    1742.5501  0.042936874  0.042393054            5 
 3383000    0.7108293   -4.7518105    1743.1745  0.042939563  0.042383137            6 
 3384000    0.6892941   -4.7401546    1740.1908  0.042853397  0.042373172            6 
 3385000   0.71690831   -4.7397659     1745.844  0.042979912  0.042363332           11 
 3386000   0.70035269   -4.7737025    1742.4525  0.042883748  0.042353483            5 
 3387000   0.71073944   -4.7248471    1747.9209  0.043005632  0.042343539            6 
 3388000   0.69839883   -4.7632865    1740.1311  0.042801336  0.042333646            7 
 3389000   0.70871643   -4.7342754    1744.8057  0.042903652  0.042323785            8 
 3390000   0.70076569    -4.736067    1743.2736  0.042853334  0.042313835            7 
 3391000   0.70454286   -4.7139715    1744.7159   0.04287614  0.042303944           11 
 3392000   0.72292399   -4.7475899    1739.6654  0.042739422  0.042294026            3 
 3393000   0.71771372    -4.747429    1744.1714  0.042837493  0.042284058            7 
 3394000   0.69992846   -4.7442203    1737.3604  0.042657641  0.042274111            8 
 3395000   0.70874258   -4.7283268    1741.5433   0.04274775    0.0422642           10 
 3396000    0.7164179   -4.7255708    1737.9669  0.042647401  0.042254188           12 
 3397000   0.70328277   -4.7424008    1746.0802  0.042833879  0.042244253            4 
 3398000   0.68746655   -4.7468273    1742.9831  0.042745319  0.042234333            4 
 3399000   0.71103275   -4.7550921    1746.4757  0.042818369  0.042224368            3 
 3400000   0.71219348   -4.7509901    1744.5575  0.042758762   0.04221441            3 
 3401000   0.72967939   -4.7382501    1740.5199  0.042647258  0.042204446            9 
 3402000   0.70072099   -4.7473725     1743.266  0.042701989  0.042194493            5 
 3403000   0.70979561   -4.7411731    1736.6995   0.04252864  0.042184495            5 
 3404000    0.6976022    -4.758278    1744.4656  0.042706267  0.042174486            6 
 3405000   0.70899837   -4.7399961    1741.1042  0.042611458  0.042164594            6 
 3406000   0.68842734   -4.7455905    1746.7142  0.042736205  0.042154668           10 
 3407000   0.68969548   -4.7471514    1743.6655  0.042649091  0.042144766           12 
 3408000     0.703118   -4.7433382    1743.3765  0.042629513  0.042134818            7 
 3409000   0.69615572   -4.7610836    1744.7266  0.042650011  0.042124864            5 
 3410000    0.6882991   -4.7618274    1743.1916   0.04259999  0.042114937            7 
 3411000   0.71057465   -4.7568336    1744.1534     0.042611  0.042104961            9 
 3412000    0.7079009   -4.7544309    1747.2052  0.042673046     0.042095            3 
 3413000    0.6890711   -4.7592745    1743.4413  0.042568641  0.042085062            7 
 3414000   0.70606472   -4.7484522    1742.1875  0.042525569   0.04207507           15 
 3415000   0.69431749   -4.7461946     1744.753   0.04257572  0.042065122            8 
 3416000   0.71129969   -4.7197315    1751.5145  0.042728203  0.042055191            4 
 3417000   0.70091485   -4.7390625    1748.5747  0.042644003  0.042045393            4 
 3418000   0.69300136    -4.753423    1746.2727  0.042575403  0.042035527            8 
 3419000   0.70801326   -4.7267921     1751.475   0.04268975  0.042025672            9 
 3420000   0.71835494   -4.7451204    1741.3733  0.042431124  0.042015798            5 
 3421000   0.69843539   -4.7319663    1746.4726  0.042542936  0.042005935           13 
 3422000   0.70303874   -4.7530303    1750.7066   0.04263361  0.041996073           11 
 3423000   0.71821301    -4.761072    1745.7633   0.04250081  0.041986223            6 
 3424000   0.69440617   -4.7548145    1747.2866  0.042525472  0.041976466            6 
 3425000   0.70859027   -4.7305275    1749.7055  0.042571911  0.041966681            4 
 3426000   0.70267594   -4.7437813    1748.9921  0.042542132  0.041956929           16 
 3427000   0.70581676   -4.7606924    1745.2028  0.042437575  0.041947059            9 
 3428000   0.70357939   -4.7544731     1751.372  0.042575166  0.041937186            7 
 3429000   0.70656082   -4.7366765    1752.8285  0.042598146  0.041927383            8 
 3430000   0.70437638   -4.7540846     1751.569  0.042555127  0.041917577            8 
 3431000   0.70110442   -4.7671082    1749.3598  0.042489066  0.041907708            3 
 3432000   0.69479604   -4.7321881    1750.8119  0.042511943  0.041897834            9 
 3433000   0.70761662   -4.7512531     1748.588  0.042445577  0.041888009            6 
 3434000   0.70510481   -4.7653031    1746.0726  0.042372176  0.041878059            5 
 3435000   0.70398422   -4.7377872     1751.462  0.042490587  0.041868211            4 
 3436000   0.69571549   -4.7563708    1747.6471  0.042385699  0.041858409            7 
 3437000    0.7029505    -4.755801    1748.0504  0.042383145  0.041848601            7 
 3438000   0.70904506   -4.7497319    1747.5934  0.042359739  0.041838805            7 
 3439000   0.70246313   -4.7700672    1746.7649  0.042327346  0.041828966            6 
 3440000   0.70836525   -4.7565268    1751.0876  0.042419758  0.041819128           10 
 3441000   0.69701027   -4.7733752    1750.1519  0.042384769  0.041809275           15 
 3442000    0.7126458   -4.7562622     1748.793  0.042339557  0.041799393            8 
 3443000   0.69031307    -4.777215    1750.9287  0.042378949  0.041789521            4 
 3444000   0.70557058   -4.7722143     1748.443    0.0423065  0.041779628           11 
 3445000   0.69474303   -4.7750231    1746.0683  0.042236775  0.041769769            5 
 3446000   0.70326591   -4.7766895    1753.2325  0.042397768  0.041759933            3 
 3447000    0.7006485   -4.7535129    1751.4754   0.04234299  0.041750059           13 
 3448000   0.68717454    -4.783163    1746.8354  0.042218565  0.041740194            6 
 3449000   0.71258652   -4.7653823    1748.0176   0.04223489  0.041730237            5 
 3450000   0.69326136    -4.762693    1745.6414  0.042165251  0.041720298           11 
 3451000   0.70067633   -4.7754675    1745.2472  0.042143514  0.041710424            7 
 3452000   0.71612331   -4.7520576    1748.1551  0.042201504  0.041700527            3 
 3453000   0.70181401   -4.7762719    1751.4475  0.042268741  0.041690671           26 
 3454000   0.68503529   -4.7484697    1747.5786  0.042163158  0.041680802            8 
 3455000   0.70193273   -4.7510704    1753.4069  0.042291532  0.041670903            6 
 3456000   0.70091056   -4.7552561    1752.7612  0.042263724  0.041661063            6 
 3457000   0.69797653   -4.7626132    1747.7756  0.042131317  0.041651183            4 
 3458000   0.69332948   -4.7412866    1752.4968   0.04223291  0.041641353            6 
 3459000   0.71338649   -4.7664371     1748.339  0.042120531  0.041631441            7 
 3460000    0.6946047   -4.7728451    1749.9337  0.042146765  0.041621583            6 
 3461000   0.70282959   -4.7563759    1754.2579  0.042238704  0.041611639            7 
 3462000   0.69491499   -4.7744401    1747.8032  0.042071135  0.041601709           12 
 3463000   0.71257306   -4.7717482    1750.7305  0.042129428  0.041591831           12 
 3464000   0.70438979   -4.7536257    1755.6004   0.04223442  0.041582005            7 
 3465000   0.68685997   -4.7919311    1747.7055   0.04203236  0.041572104            6 
 3466000   0.69101937   -4.7562449    1750.8338  0.042095446  0.041562181            6 
 3467000   0.69634652   -4.7803696    1747.5091  0.042003391  0.041552291            5 
 3468000   0.69250238   -4.7380756    1752.1959    0.0421039  0.041542349            6 
 3469000   0.70241981   -4.7592851    1746.0062  0.041943071  0.041532432            9 
 3470000   0.69304522   -4.7789958    1750.2877  0.042033806  0.041522462            9 
 3471000   0.70184261   -4.7269372    1748.0882  0.041968889  0.041512558            8 
 3472000   0.69700263   -4.7644647    1747.2965    0.0419378  0.041502605            7 
 3473000   0.71304691   -4.7541709    1752.0204  0.042039072  0.041492656            6 
 3474000   0.70734347   -4.7506749    1747.4534  0.041917419  0.041482772            8 
 3475000   0.70270504   -4.7574129    1750.4785  0.041977902   0.04147284            6 
 3476000    0.6896069   -4.7559176    1755.8765  0.042095236  0.041462859           13 
 3477000   0.70859607   -4.7434801    1749.2533  0.041924392  0.041452984            6 
 3478000   0.70184625   -4.7453901    1754.1236  0.042029031  0.041443104            8 
 3479000   0.70648386   -4.7768796    1751.6901  0.041958658  0.041433209            8 
 3480000   0.69234792   -4.7588725    1754.3119  0.042009384  0.041423272            6 
 3481000   0.70500912   -4.7943948    1749.4256  0.041880341  0.041413312            4 
 3482000   0.69044749   -4.7866827     1744.724  0.041755792  0.041403354            9 
 3483000   0.68751142   -4.7620707    1753.3945  0.041951252  0.041393369            7 
 3484000   0.68462193   -4.7733755    1751.0286  0.041882621  0.041383393            6 
 3485000   0.68652621    -4.772306    1749.7155  0.041839203  0.041373373           10 
 3486000   0.68483356   -4.7800487    1751.8686  0.041878672  0.041363404            5 
 3487000   0.68794925   -4.7662878    1748.0855  0.041776252  0.041353424            6 
 3488000   0.68813433   -4.7798445    1747.9429  0.041760869  0.041343357           12 
 3489000   0.68407896   -4.7646586    1753.8467  0.041889909  0.041333356            7 
 3490000   0.69781854   -4.7723086    1755.2658  0.041911791  0.041323384            8 
 3491000   0.66898401   -4.7635257     1756.339  0.041925404   0.04131347            7 
 3492000   0.69906865   -4.7594364    1751.5266  0.041798554  0.041303528            4 
 3493000   0.68639293   -4.7749247    1746.8986  0.041676176  0.041293652           20 
 3494000   0.68614218   -4.7530213     1749.861  0.041734903  0.041283725            4 
 3495000   0.69833001   -4.7999473    1747.7722  0.041673157  0.041273793           14 
 3496000   0.69169724   -4.8044013    1749.4336  0.041700838  0.041263725           23 
 3497000   0.70412146     -4.79299     1751.161  0.041730079  0.041253735            4 
 3498000   0.69405589   -4.7763986    1752.5097  0.041750279  0.041243773           12 
 3499000    0.6967118   -4.7807097    1751.6837  0.041718675  0.041233826            6 
 3500000   0.71947532   -4.7970061     1750.962  0.041689571  0.041223893            7 
 3501000   0.69736185   -4.7838124    1751.2876  0.041685413   0.04121395            6 
 3502000   0.70192436   -4.7715902    1749.1861  0.041623504  0.041204075            6 
 3503000   0.68366796   -4.7635352    1752.8615  0.041699056  0.041194188           10 
 3504000   0.69248332   -4.7844717    1755.4316  0.041748278  0.041184306           11 
 3505000   0.68051196   -4.7884693    1749.4695  0.041594615  0.041174432            6 
 3506000   0.68364631   -4.7829369    1759.0669   0.04181087   0.04116451            5 
 3507000   0.68905566   -4.7682441    1756.2272   0.04173147  0.041154619            7 
 3508000   0.68832609   -4.7731204    1755.7658  0.041708614  0.041144662            6 
 3509000   0.68798559   -4.7782471    1757.8901  0.041747177  0.041134852            6 
 3510000   0.68793884   -4.7811835    1756.2714  0.041696851  0.041124985            4 
 3511000   0.67174541   -4.7735994    1753.5269  0.041619834  0.041115103            7 
 3512000   0.69518939   -4.7683703    1754.5661  0.041632642  0.041105212           21 
 3513000   0.68711647    -4.778941    1753.8236  0.041603179  0.041095306            4 
 3514000   0.68886137     -4.78241    1753.2421   0.04157755  0.041085446            5 
 3515000   0.68969029   -4.7718395    1758.6652   0.04169429  0.041075586           19 
 3516000   0.69272389    -4.770343    1757.0821  0.041644912  0.041065803            7 
 3517000   0.67735054   -4.7894789    1759.7517  0.041696326  0.041055985            8 
 3518000   0.69370277   -4.7933631     1758.997  0.041666596    0.0410461           18 
 3519000   0.68027203   -4.7857544    1755.5338  0.041572744  0.041036196            5 
 3520000   0.68603529   -4.7970138    1755.8117  0.041567511  0.041026298           12 
 3521000   0.69770019   -4.7844943    1752.5969  0.041479619  0.041016446            4 
 3522000   0.67062822    -4.787872    1760.7067  0.041659727  0.041006625           12 
 3523000   0.68799417   -4.7895164    1756.4645  0.041547558  0.040996829            5 
 3524000   0.68798012   -4.7759504    1761.0601   0.04164444  0.040987049           11 
 3525000   0.69499111   -4.7576838    1757.6227  0.041551363  0.040977184           14 
 3526000   0.68861913   -4.8006801    1757.7406  0.041542367   0.04096739            7 
 3527000   0.69924676   -4.7940377    1759.0941  0.041562568  0.040957552            5 
 3528000   0.69793657   -4.7780186    1758.1299  0.041528011  0.040947717           11 
 3529000    0.6787245   -4.8030504    1757.8002  0.041508459  0.040937917            7 
 3530000   0.69191816   -4.7606533    1755.1164  0.041433342  0.040928138            7 
 3531000    0.6715754   -4.8016035    1757.5651  0.041479399  0.040918443            6 
 3532000   0.70115093   -4.7780607    1757.5579  0.041467485  0.040908594            7 
 3533000   0.67699047   -4.7869696    1761.4951  0.041548616  0.040898793           10 
 3534000   0.69596471   -4.7667411    1758.9023  0.041475718  0.040888939            6 
 3535000   0.69359214   -4.8043561     1758.027  0.041443351  0.040879171            9 
 3536000   0.68034737   -4.7941601    1760.6293  0.041492959  0.040869292            5 
 3537000   0.68244215    -4.781313    1762.6847  0.041529656  0.040859502            4 
 3538000   0.68527376    -4.789982    1753.6665  0.041305504  0.040849663            6 
 3539000   0.68024281   -4.7809922    1759.1075  0.041421953  0.040839865           19 
 3540000   0.69614839   -4.8176371    1756.1248  0.041340038  0.040830015            8 
 3541000   0.67913714    -4.794688    1758.4707   0.04138357  0.040820129           12 
 3542000   0.68552037   -4.7659268     1761.766  0.041449415  0.040810329           17 
 3543000   0.68568295   -4.7826544     1765.972  0.041536644  0.040800565            6 
 3544000   0.69766134   -4.7866381     1758.914  0.041358964   0.04079078           12 
 3545000   0.67904475   -4.8164795    1765.0446   0.04149141  0.040780946            6 
 3546000   0.69543781   -4.8195185    1755.4749  0.041254815  0.040771141            7 
 3547000   0.68333006     -4.78536     1760.035   0.04135032  0.040761387            7 
 3548000   0.68580047   -4.7834529     1756.755  0.041261627  0.040751553           10 
 3549000    0.6785223   -4.8225272    1754.8373   0.04120497  0.040741703            9 
 3550000   0.70130958   -4.7875092    1761.5058  0.041349902  0.040731874            8 
 3551000   0.68545099   -4.7780814    1757.3179  0.041239978  0.040722088            5 
 3552000    0.6912048   -4.8033468    1762.9207  0.041359813  0.040712321            5 
 3553000   0.69576716   -4.7996336    1757.2473  0.041215106  0.040702556            6 
 3554000   0.67312361   -4.7889893     1760.089  0.041270142  0.040692737            7 
 3555000   0.69356049   -4.7973712    1760.6589  0.041271891  0.040682919           12 
 3556000   0.68668788   -4.7972252    1762.8697  0.041312094  0.040673173            6 
 3557000   0.67323221   -4.8170943    1755.3176   0.04112355   0.04066342            6 
 3558000   0.68145856    -4.784194    1757.6687  0.041167057  0.040653611           10 
 3559000   0.67197374   -4.8133593    1759.8774  0.041207208  0.040643799           12 
 3560000   0.68805503   -4.7880829    1764.6108  0.041306432  0.040634021            6 
 3561000   0.67818658   -4.8088094    1757.7967  0.041135372  0.040624285            6 
 3562000   0.68968481   -4.7818467    1759.1164  0.041154698  0.040614524            7 
 3563000   0.68650995   -4.8066748    1763.8396  0.041253617  0.040604737            7 
 3564000   0.67449341   -4.8093038    1763.8234  0.041241661     0.040595           24 
 3565000   0.67926482    -4.822089    1759.4338  0.041127484  0.040585175           23 
 3566000   0.67825663   -4.8101349    1761.0187   0.04115299  0.040575292           19 
 3567000   0.69008294   -4.8014135    1759.9748  0.041117064  0.040565453           12 
 3568000   0.68741924   -4.8186923    1753.9607  0.040965077  0.040555615            5 
 3569000   0.69159818   -4.8171612    1760.5408  0.041107239  0.040545791           11 
 3570000   0.68857032   -4.7927903    1757.9643   0.04103558  0.040535972            8 
 3571000   0.66932611   -4.8169609    1759.5256  0.041060525  0.040526182            6 
 3572000    0.6779425   -4.7852719    1757.1276  0.040993085  0.040516416           15 
 3573000   0.67047826   -4.8192797    1763.2111  0.041123498  0.040506653           11 
 3574000   0.68610664   -4.8036446    1763.9389  0.041128962  0.040496897            5 
 3575000   0.67621756    -4.804293    1762.2165  0.041077308  0.040487133           10 
 3576000   0.67420554    -4.798767    1760.0953   0.04101639  0.040477314            9 
 3577000   0.69411701    -4.819371    1763.3373  0.041080452  0.040467549            7 
 3578000   0.69677129   -4.8170864     1756.772  0.040916061  0.040457771            5 
 3579000   0.67877653   -4.7984485    1762.9943  0.041049508   0.04044804            4 
 3580000   0.65682284   -4.7770545    1764.4873  0.041072795  0.040438367            6 
 3581000   0.68123833   -4.8006487    1765.2297  0.041078602  0.040428698            4 
 3582000   0.67316474   -4.8401611    1760.9574  0.040967742  0.040418929            9 
 3583000   0.68835513   -4.8080885    1767.5136  0.041108793  0.040409167            5 
 3584000    0.6716866   -4.7767516    1767.5062  0.041097149  0.040399489           10 
 3585000   0.66723839   -4.7936021    1767.7849  0.041092163  0.040389812            5 
 3586000   0.69421523    -4.790714     1764.436  0.041002883  0.040380159            6 
 3587000   0.67914992   -4.8177873     1765.175   0.04100862  0.040370484            8 
 3588000   0.66935895   -4.8066882    1766.8529   0.04103616  0.040360818            7 
 3589000   0.67681274   -4.8073794    1765.9479  0.041003712  0.040351185            6 
 3590000   0.67731892   -4.8207951    1765.7741  0.040988258  0.040341542            7 
 3591000   0.67858596   -4.7992583    1762.6564  0.040904494  0.040331835            9 
 3592000   0.66325317   -4.8139567    1770.0612  0.041064895  0.040322149           10 
 3593000   0.68545367   -4.8329963    1761.3435  0.040851274  0.040312504           10 
 3594000   0.68438631    -4.797093    1762.5003   0.04086673  0.040302817            9 
 3595000   0.67322061   -4.8301302     1762.381  0.040852596  0.040293086           12 
 3596000   0.68238443   -4.8149296    1766.3494    0.0409332    0.0402834            6 
 3597000   0.67613317    -4.835166    1764.0756  0.040869141  0.040273732            8 
 3598000   0.67892886   -4.8201457    1763.1522  0.040836394  0.040263962            5 
 3599000   0.67492052   -4.7909505    1766.5248   0.04090314  0.040254348           16 
 3600000   0.66542904   -4.8004649    1767.2184  0.040907834  0.040244706           10 
 3601000   0.67273857   -4.8054163    1769.2073  0.040942499  0.040235128            3 
 3602000   0.67060209    -4.799956    1771.0752  0.040974348  0.040225548           14 
 3603000   0.69419926   -4.8211937    1769.6357  0.040929681  0.040215955            8 
 3604000   0.67383633   -4.8155482    1765.0434  0.040812138   0.04020634           14 
 3605000   0.67513815   -4.8174181    1768.4736   0.04088011  0.040196701            9 
 3606000   0.66543326   -4.8222444    1769.6439   0.04089582  0.040187005            9 
 3607000   0.69447799   -4.8154827    1769.5417   0.04088212  0.040177293            9 
 3608000   0.68444757   -4.8154353    1765.9734  0.040788374  0.040167629            8 
 3609000   0.65598634   -4.7952289    1765.7748  0.040772486  0.040157986           11 
 3610000   0.66931477   -4.8254958    1762.7223  0.040690728  0.040148308           11 
 3611000   0.66258001   -4.8453458    1764.0781  0.040710747  0.040138526           11 
 3612000   0.68529934   -4.8204589    1762.9514  0.040673481  0.040128883           14 
 3613000   0.64684375   -4.7981012    1773.6039  0.040907924   0.04011926            5 
 3614000   0.68267353   -4.8134262    1769.9706  0.040812824  0.040109679            5 
 3615000   0.68089557   -4.8115074    1768.7255  0.040772833  0.040100026           11 
 3616000   0.66899028   -4.8462893    1771.0235  0.040814517  0.040090409           37 
 3617000    0.6635992   -4.8304204     1767.404  0.040719842  0.040080778            4 
 3618000   0.66988433   -4.7896434    1773.7862  0.040855588  0.040071172            4 
 3619000   0.67351797   -4.8178301    1769.5484  0.040746716   0.04006163            5 
 3620000   0.66937437    -4.850517    1766.7664  0.040671417  0.040052011           15 
 3621000   0.67183811   -4.8308117    1768.4087  0.040697983  0.040042378            9 
 3622000   0.67688866   -4.7897896    1771.3256  0.040753857  0.040032771            6 
 3623000   0.66974293    -4.785796     1766.877  0.040640283  0.040023153            8 
 3624000   0.67188582   -4.8073249    1770.4201  0.040710542  0.040013599           12 
 3625000   0.67677515   -4.8214834    1768.7172  0.040660165  0.040004021            8 
 3626000   0.67335671   -4.8169012    1768.7485  0.040649671  0.039994368            6 
 3627000   0.68132218     -4.81381    1771.5909  0.040703771  0.039984725           12 
 3628000   0.67468896   -4.8142558    1770.0983  0.040658266  0.039975095           15 
 3629000   0.66255971   -4.8315161     1766.048  0.040554054  0.039965402           17 
 3630000   0.65812649   -4.8381217    1767.2587  0.040570678  0.039955756            6 
 3631000   0.68086552   -4.8121209    1772.6231   0.04068262  0.039946153            9 
 3632000   0.67592378   -4.8300996    1771.2612  0.040640171  0.039936604            5 
 3633000   0.66794757   -4.7949116    1773.9451  0.040690547   0.03992705            6 
 3634000   0.67414871   -4.8218488    1775.3728  0.040712089  0.039917518            5 
 3635000   0.68296819   -4.8311624    1772.1272  0.040626484  0.039907951            9 
 3636000   0.66209481   -4.8464775    1772.2935   0.04061912  0.039898376            9 
 3637000   0.68077475   -4.8226455     1766.659  0.040478852  0.039888773           18 
 3638000   0.66663312   -4.8367404    1766.1883  0.040456944  0.039879253            7 
 3639000   0.66599252    -4.814056    1770.1249  0.040535974    0.0398697            6 
 3640000   0.67609192   -4.8194722    1773.3808  0.040599378  0.039860139           14 
 3641000   0.68560771   -4.8374783    1772.1168  0.040559296  0.039850559            8 
 3642000   0.66503555   -4.8555527    1775.6593  0.040629216  0.039840986            6 
 3643000   0.67408272   -4.8210564    1769.8985  0.040486286  0.039831438           11 
 3644000   0.67510818   -4.8092528    1775.4977  0.040603223  0.039821932            9 
 3645000   0.66506225   -4.8228435    1773.1439   0.04053827  0.039812445            8 
 3646000   0.66164887   -4.8384943    1767.7103  0.040402959  0.039802866           13 
 3647000   0.66358134   -4.8420668    1773.4262  0.040522489  0.039793301            5 
 3648000   0.67045504   -4.8247051     1774.379  0.040533145   0.03978374           15 
 3649000    0.6692988   -4.8103786    1771.3372  0.040452571  0.039774196            6 
 3650000   0.67436752   -4.8219642    1777.0643  0.040572245  0.039764722            8 
 3651000   0.65960029   -4.8363623    1772.0194  0.040445982  0.039755186            7 
 3652000    0.6737926   -4.8419769    1773.5746  0.040470395  0.039745617           11 
 3653000   0.67314003   -4.8274242    1770.3609  0.040386004  0.039736088            5 
 3654000   0.66813937   -4.8303969    1772.1776  0.040416385  0.039726578            8 
 3655000   0.65242528   -4.8096295    1770.4554   0.04036606  0.039717077           18 
 3656000   0.66860635   -4.8144229    1774.8877  0.040456046  0.039707576            9 
 3657000   0.67940428   -4.8408693    1773.7099  0.040418146  0.039698092            5 
 3658000   0.67215059   -4.8411538     1776.746  0.040476263  0.039688608            7 
 3659000   0.66621938    -4.851286    1774.7313  0.040419315  0.039679065            5 
 3660000   0.66143842   -4.8753221    1772.3386  0.040353794  0.039669502            8 
 3661000   0.66151192   -4.8719194    1769.1562  0.040270332  0.039659928            7 
 3662000   0.66759299   -4.8230287    1774.9744  0.040391735    0.0396504            9 
 3663000   0.66096243    -4.822929    1775.2393  0.040386734  0.039640979            5 
 3664000   0.66498305   -4.8567805    1772.7309  0.040318661  0.039631463           10 
 3665000   0.65417619   -4.8327522    1776.5311  0.040394068  0.039621952            6 
 3666000   0.66732942   -4.8406596    1777.6773  0.040409104  0.039612446            8 
 3667000   0.66899038   -4.8342749    1772.8574  0.040288551  0.039602923            8 
 3668000    0.6681922   -4.8336285    1775.5773  0.040339362  0.039593401           14 
 3669000   0.66398338   -4.8315639    1777.6114  0.040374567  0.039583851           10 
 3670000   0.66697841   -4.8313185    1775.0957  0.040306443  0.039574319           13 
 3671000   0.65725262   -4.8176953    1777.1121  0.040341236  0.039564822            6 
 3672000   0.66497691   -4.8132856    1776.9927   0.04032754  0.039555338            9 
 3673000   0.66202597   -4.8063404    1775.7501  0.040288369  0.039545838            4 
 3674000    0.6633755   -4.8308793    1772.7868  0.040210189  0.039536314           16 
 3675000   0.65492164   -4.8220024    1774.7239  0.040243172  0.039526807           14 
 3676000   0.66725782    -4.836468    1775.0705  0.040240082  0.039517279            9 
 3677000   0.65762669   -4.8189208    1773.6908   0.04019787  0.039507723            7 
 3678000   0.65805798   -4.8089347    1773.4118  0.040180619  0.039498243            4 
 3679000   0.65316598   -4.8129298    1776.7973  0.040246383  0.039488733           13 
 3680000   0.66669014   -4.8243918    1773.2266  0.040154589   0.03947925            4 
 3681000   0.66526125    -4.849746    1774.1617  0.040164848  0.039469795           13 
 3682000   0.66008783    -4.837501    1778.2463  0.040246387  0.039460315            6 
 3683000   0.65800086   -4.8137849    1777.6555  0.040222091   0.03945089            9 
 3684000   0.66621177    -4.847348    1773.7517  0.040122868  0.039441423           25 
 3685000   0.65687596   -4.8181523    1776.5117  0.040174394  0.039431916            5 
 3686000   0.67512906   -4.8275114    1774.4089  0.040115953  0.039422431           15 
 3687000   0.65998166   -4.8386641    1776.0125  0.040141319  0.039412943            9 
 3688000   0.65847485   -4.8142762    1780.8945  0.040240746  0.039403463            6 
 3689000   0.66888685   -4.8430898    1776.0557  0.040120531  0.039394073           12 
 3690000   0.65678239   -4.8434997    1775.1558  0.040089335  0.039384598            7 
 3691000   0.66398854   -4.8063058    1784.2968  0.040284856  0.039375213            8 
 3692000   0.64187528   -4.8079277    1784.3585  0.040275337  0.039365836           12 
 3693000   0.66088842   -4.8574275    1778.7765  0.040138471  0.039356432           20 
 3694000   0.65095006     -4.83562    1781.3707  0.040186128  0.039347035            7 
 3695000   0.66720708   -4.8244662    1779.1515  0.040125202  0.039337688            5 
 3696000   0.65506745   -4.8222643    1775.2392  0.040026135  0.039328245            5 
 3697000   0.67004651   -4.8525404    1778.4671  0.040088069  0.039318833            7 
 3698000   0.66038326   -4.8362318    1777.9438  0.040065436  0.039309418           23 
 3699000   0.67422476   -4.8229927    1778.8206  0.040074357  0.039300051            7 
 3700000   0.66529552   -4.8243656    1784.1882  0.040184419  0.039290727            5 
 3701000   0.64679806   -4.8376487    1777.9545  0.040033201  0.039281296            8 
 3702000   0.64502986   -4.8666604    1778.4752  0.040034108  0.039271893           17 
 3703000   0.66497489   -4.8532581    1778.2258  0.040017684  0.039262438            9 
 3704000   0.65424112   -4.8304691    1780.4824   0.04005765  0.039253044            6 
 3705000    0.6592159   -4.8142292    1783.2247  0.040108518   0.03924365           14 
 3706000   0.66151226   -4.8331626    1779.0466  0.040003745  0.039234241           14 
 3707000   0.64026071   -4.8682685    1776.0376  0.039925313  0.039224807            8 
 3708000   0.66671216   -4.8550517    1779.8028  0.039999164  0.039215364            6 
 3709000   0.65457653   -4.8298216    1778.9945  0.039970218  0.039205979            4 
 3710000   0.65581369   -4.8416775    1782.9256  0.040047744    0.0391966           10 
 3711000    0.6475888   -4.8376404    1779.6997  0.039964513  0.039187205            7 
 3712000   0.66423867   -4.8640729    1786.6732    0.0401103  0.039177783            7 
 3713000   0.63768088   -4.8319536    1776.6503  0.039874547  0.039168344            6 
 3714000   0.65656752   -4.8537086    1781.3473    0.0399692  0.039158914           18 
 3715000   0.65791397    -4.857361    1778.7904  0.039901085  0.039149493            7 
 3716000   0.64291672   -4.8421962     1783.567  0.039997467    0.0391401            8 
 3717000   0.66783746   -4.8446181    1785.3912  0.040027603  0.039130749            4 
 3718000    0.6561111   -4.8492557    1783.2045  0.039967825  0.039121398           14 
 3719000   0.64574563    -4.846368    1779.7164   0.03987892  0.039112019            9 
 3720000   0.66202757   -4.8635451    1783.4037    0.0399508  0.039102646           17 
 3721000    0.6613079   -4.8431709    1783.7755  0.039948389  0.039093313            9 
 3722000   0.66379044   -4.8646676    1780.6382  0.039867415   0.03908401           11 
 3723000   0.64507847   -4.8359631    1783.4733  0.039920166  0.039074669           12 
 3724000   0.65281937   -4.8464894     1787.037  0.039989192  0.039065358            8 
 3725000   0.64100645   -4.8525634    1785.3635  0.039941019   0.03905607            6 
 3726000   0.66840799   -4.8678869    1784.8125  0.039917975  0.039046715           11 
 3727000   0.65075611   -4.8374675    1786.9489  0.039955034  0.039037352            6 
 3728000   0.65608144   -4.8558847    1781.6928  0.039826823  0.039028043            8 
 3729000   0.67219283   -4.8552659    1786.9296  0.039933171   0.03901876            5 
 3730000   0.64753957   -4.8348896    1784.1366  0.039860068  0.039009458           11 
 3731000   0.65858739   -4.8555893    1782.4834  0.039812459  0.039000191            5 
 3732000   0.65225292    -4.860229    1784.0893  0.039837649  0.038990893           11 
 3733000   0.64576444   -4.8557916    1783.0822  0.039804496  0.038981571            9 
 3734000   0.65834714   -4.8324759    1782.6268  0.039783672  0.038972309            6 
 3735000   0.65474942   -4.8600652    1783.1095  0.039783791  0.038963043            5 
 3736000   0.64375701   -4.8325621    1786.8406  0.039856365  0.038953746            7 
 3737000   0.64585462   -4.8647602    1786.9567   0.03984829  0.038944485           10 
 3738000   0.64994169   -4.8584863    1785.2444  0.039799456  0.038935158            5 
 3739000   0.66270183   -4.8627395    1785.9376  0.039804261  0.038925809            7 
 3740000   0.65709086   -4.8725086     1786.881  0.039814639   0.03891652            8 
 3741000   0.64631836   -4.8353204    1787.0328  0.039807377  0.038907208            8 
 3742000   0.64788342   -4.8316398    1789.2154  0.039845345  0.038897876            5 
 3743000   0.64861511   -4.8400708    1785.1749  0.039744744  0.038888545            8 
 3744000   0.64635703   -4.8248514    1782.7796  0.039680814  0.038879245            7 
 3745000   0.64806858   -4.8522558    1785.8397  0.039738311  0.038869957           10 
 3746000   0.64026136   -4.8456683     1780.043  0.039598749  0.038860614            9 
 3747000   0.65002722   -4.8842804    1779.2226  0.039569935  0.038851269           14 
 3748000   0.63289036   -4.8711266    1780.1909  0.039580907  0.038841888           17 
 3749000   0.66158427   -4.8883698    1783.5183  0.039644311  0.038832461           12 
 3750000   0.64581931   -4.8549863    1786.2638  0.039694751  0.038823123            9 
 3751000   0.64791673    -4.884193    1779.6618  0.039537497  0.038813834            9 
 3752000   0.65891828   -4.8478264    1786.5691  0.039680373  0.038804483            8 
 3753000   0.65364012   -4.8724526    1777.2625  0.039463152  0.038795109           14 
 3754000   0.64384241   -4.8780864    1786.3399  0.039654145  0.038785727            7 
 3755000   0.66526401   -4.8772056    1784.9584  0.039612926  0.038776354           10 
 3756000   0.66036062   -4.8525202    1787.7948  0.039665309  0.038766997            7 
 3757000   0.65733974   -4.8544108    1784.6428  0.039584838  0.038757646           13 
 3758000   0.64635048   -4.8476802    1782.8127  0.039533721  0.038748312           21 
 3759000   0.64491657   -4.8671085    1784.1553  0.039552968  0.038738958           11 
 3760000    0.6504865   -4.8678939    1781.9723  0.039494066  0.038729557           10 
 3761000   0.64837965   -4.8755401    1785.0938  0.039552729  0.038720155           19 
 3762000   0.64288662   -4.8963087    1781.5513  0.039463744   0.03871073            9 
 3763000    0.6354837   -4.8923152    1778.5817  0.039387494  0.038701319           10 
 3764000   0.65082559   -4.8563091    1784.4958  0.039507966  0.038692036           10 
 3765000   0.65796719   -4.8826624    1780.9126  0.039418163  0.038682712            6 
 3766000   0.65843612   -4.8675742    1786.9393  0.039541053  0.038673388            3 
 3767000   0.64910892   -4.8692729     1786.292  0.039516237  0.038664147           10 
 3768000   0.66666622   -4.8682267    1784.6986  0.039470511  0.038654829            5 
 3769000   0.65933427   -4.8672596     1781.392  0.039386929  0.038645476            7 
 3770000   0.64963929     -4.89248    1782.6352  0.039403961  0.038636171            9 
 3771000   0.62962912   -4.8660743    1788.6438  0.039526293  0.038626861            8 
 3772000   0.64507136    -4.866889    1783.5889  0.039404139  0.038617572            9 
 3773000    0.6487788   -4.8732526    1783.1757  0.039384568  0.038608261           12 
 3774000   0.65280784   -4.8664219    1787.8393  0.039477108  0.038599026            9 
 3775000   0.65692832   -4.8556437      1790.19  0.039518543  0.038589744           12 
 3776000   0.63701433   -4.8706167     1790.717  0.039519707  0.038580513           11 
 3777000   0.64974738   -4.8629996    1792.0079  0.039537725  0.038571236            9 
 3778000   0.64549178   -4.8773194    1784.5116  0.039361911  0.038561973           19 
 3779000    0.6505545   -4.8756637    1787.0862  0.039408269  0.038552708           18 
 3780000    0.6377764   -4.8665606    1787.0224  0.039396438  0.038543407           23 
 3781000   0.64652884   -4.8602608    1785.8246  0.039359619  0.038534115            8 
 3782000   0.64122395   -4.8615919    1786.4802  0.039363656  0.038524825            7 
 3783000   0.64026894   -4.8575525     1787.985  0.039386399    0.0385155           12 
 3784000   0.63651823   -4.8896669    1782.7588  0.039260896  0.038506235           17 
 3785000   0.65383215   -4.8759722    1787.5399  0.039355788  0.038496957           10 
 3786000   0.63905574   -4.8717511      1790.55  0.039411648  0.038487729           12 
 3787000   0.64579304   -4.8763788    1782.5814   0.03922589  0.038478451            8 
 3788000    0.6491937   -4.8498821    1788.5037  0.039345823  0.038469088           11 
 3789000   0.63032195   -4.8706063    1789.0095  0.039346562  0.038459734            7 
 3790000   0.64771141    -4.873711    1784.6036  0.039239304  0.038450439           13 
 3791000   0.65023972   -4.8877652     1787.622  0.039295305  0.038441102            4 
 3792000   0.64110195   -4.8722271    1786.2928  0.039255732  0.038431795            8 
 3793000   0.65463418   -4.8883011    1783.1219  0.039175717  0.038422439           13 
 3794000   0.65282503   -4.8700709    1786.1592  0.039232104  0.038413047           31 
 3795000   0.63304889   -4.8866431    1783.5797  0.039165123  0.038403671           13 
 3796000   0.63991194   -4.8910658    1781.1732  0.039101975  0.038394364            6 
 3797000    0.6439049   -4.8863302    1781.8432  0.039106383  0.038384997           18 
 3798000   0.62733056   -4.8771216    1785.3293  0.039172576  0.038375643           13 
 3799000   0.63749505   -4.8894722    1789.6873   0.03925786  0.038366315            6 
 3800000   0.64525092    -4.870317    1787.9143  0.039208646  0.038357043            7 
 3801000   0.64837924   -4.8701375    1782.6296  0.039082469  0.038347717            6 
 3802000   0.63494683   -4.8699304    1786.9817  0.039167581  0.038338377           13 
 3803000   0.63519912   -4.8627254    1787.5837  0.039170473  0.038329091            5 
 3804000   0.63679288   -4.8831135    1788.1758  0.039173146  0.038319821           22 
 3805000   0.63681719   -4.8685559    1787.0126  0.039137377  0.038310458            8 
 3806000   0.64274516   -4.8564542    1792.4763  0.039246723  0.038301132           21 
 3807000   0.64309669    -4.861983    1787.2183  0.039121318  0.038291835           10 
 3808000   0.64074713   -4.8762486    1787.8491  0.039124849  0.038282574           10 
 3809000   0.64442782   -4.8828672    1791.3389  0.039190928   0.03827332           19 
 3810000   0.64014114   -4.8886492    1783.0651  0.038999674  0.038264101            6 
 3811000   0.63972967   -4.8607735     1789.657  0.039133582  0.038254888            9 
 3812000   0.63982602    -4.849669     1786.438  0.039052947  0.038245613            4 
 3813000   0.63755822   -4.8965389    1788.3259  0.039083965  0.038236314            7 
 3814000   0.64749466   -4.8810436    1791.0187  0.039132553  0.038227024           14 
 3815000   0.64496463   -4.8667625    1789.3007  0.039084768  0.038217715           12 
 3816000   0.63857301   -4.9060335    1781.3055  0.038899927  0.038208375           10 
 3817000   0.62236655   -4.9023343    1783.1817  0.038930699   0.03819906            6 
 3818000   0.64796191    -4.862178    1789.2844  0.039053702  0.038189737           10 
 3819000   0.63227926   -4.8932622    1782.2713  0.038890445  0.038180416            9 
 3820000   0.63601864   -4.8741116    1785.6723  0.038954457  0.038171102            8 
 3821000   0.63674391    -4.881805    1788.5503  0.039007028  0.038161779            8 
 3822000    0.6573169   -4.8686597    1788.2166  0.038989548   0.03815247            8 
 3823000   0.63914389   -4.8702075    1786.5124  0.038942201  0.038143161           17 
 3824000   0.64560876   -4.8813227    1791.0127  0.039030088  0.038133864            6 
 3825000   0.65582591   -4.8736746    1787.2369  0.038937624  0.038124601            7 
 3826000   0.64388917    -4.892602    1785.3874  0.038887162  0.038115302           15 
 3827000    0.6555514   -4.8735848    1785.7883  0.038885732   0.03810602            6 
 3828000   0.64098796   -4.8821796    1785.1263  0.038861161  0.038096713            6 
 3829000   0.63888281   -4.8966657    1789.2422  0.038940588  0.038087428           10 
 3830000   0.64609085   -4.8743382    1788.5049  0.038914379  0.038078179           15 
 3831000   0.62804141   -4.8902169    1788.5455  0.038905105  0.038068925           13 
 3832000   0.64155165   -4.8622658    1787.8146  0.038879058  0.038059705            6 
 3833000   0.63238804   -4.8770147    1791.9083  0.038957916  0.038050534            4 
 3834000   0.63831579    -4.891096    1790.3362  0.038913585  0.038041342           12 
 3835000   0.64451199   -4.8817437    1787.9994  0.038852661  0.038032069           10 
 3836000   0.63263894   -4.8937304    1790.1696  0.038889678  0.038022806            8 
 3837000   0.65412092   -4.9031956    1785.0787  0.038768974  0.038013498           17 
 3838000   0.66012025   -4.8936568     1788.035  0.038823063  0.038004232            9 
 3839000   0.65739809   -4.8775145     1791.252  0.038882783  0.037994966           14 
 3840000   0.65190296   -4.8959216    1788.7353  0.038818041  0.037985736            8 
 3841000   0.63500345   -4.8998627     1789.506  0.038824654  0.037976442           10 
 3842000   0.63269519   -4.8850964    1790.2739  0.038831205  0.037967163           15 
 3843000   0.64558562   -4.8660458    1792.2798  0.038864598  0.037957946           28 
 3844000   0.63411643   -4.8828389    1789.0822  0.038785167  0.037948727           11 
 3845000   0.63814078   -4.8901991    1792.4616  0.038848323  0.037939514           19 
 3846000   0.63322641   -4.8702422     1789.309  0.038769913  0.037930238           15 
 3847000   0.63365756    -4.894135    1792.2886  0.038824378  0.037920936            7 
 3848000   0.65806409   -4.8908493     1789.007  0.038743222   0.03791163            8 
 3849000    0.6236132   -4.9025034    1790.1975  0.038758932  0.037902335            7 
 3850000   0.63065041   -4.8963023    1787.5747  0.038692092  0.037893075            5 
 3851000   0.64941053   -4.8687023    1788.6534  0.038705389   0.03788379            8 
 3852000    0.6338991   -4.9048096    1790.0473  0.038725495  0.037874516           10 
 3853000   0.63385902   -4.8620308    1796.2377  0.038849333  0.037865262            6 
 3854000   0.63100963   -4.8752142    1787.0064  0.038639647  0.037855997            8 
 3855000   0.63134848   -4.9135793    1787.7848  0.038646451  0.037846684            9 
 3856000   0.63021096   -4.8978477    1785.2592  0.038581846  0.037837338            7 
 3857000   0.64029712   -4.8829565     1792.347  0.038724981  0.037828068           13 
 3858000    0.6363829   -4.8982353    1786.9298  0.038597931  0.037818801           21 
 3859000   0.63316894   -4.9287266    1790.2304  0.038659203  0.037809477           18 
 3860000   0.63661562   -4.8974363    1792.4444  0.038696985  0.037800142           13 
 3861000   0.62104459   -4.8861893    1788.0398  0.038591897   0.03779089           25 
 3862000   0.63338576   -4.9105577    1793.3833  0.038697206  0.037781639           10 
 3863000   0.63977529   -4.8849982    1793.2542  0.038684402  0.037772378           18 
 3864000   0.62037212   -4.9302365     1785.937  0.038516586  0.037763138           11 
 3865000   0.63692634   -4.8838197    1785.5067  0.038497342  0.037753819            6 
 3866000   0.63290862   -4.9194964    1789.6938  0.038577638  0.037744568           11 
 3867000   0.62250467    -4.903664    1792.7577  0.038633689  0.037735261           18 
 3868000   0.63132654   -4.8811501    1787.4284  0.038508885  0.037726034            6 
 3869000   0.63468276   -4.8876898    1792.5308  0.038608831  0.037716766           13 
 3870000   0.64175549   -4.8928094    1792.0618  0.038588755    0.0377075            9 
 3871000   0.63454839   -4.9125122    1788.1712  0.038495031  0.037698293            5 
 3872000   0.63241516   -4.8951967    1788.4431  0.038490942  0.037688987            8 
 3873000   0.63176319   -4.8799608    1791.9886  0.038557291  0.037679774           10 
 3874000   0.65039128   -4.8932232    1790.3889  0.038512926  0.037670519            8 
 3875000   0.62227176   -4.8962079    1791.0729  0.038517696  0.037661261            9 
 3876000   0.63147918     -4.89803    1787.9334  0.038440262  0.037652036            6 
 3877000   0.63200943   -4.9210016    1790.0736  0.038476348  0.037642768           12 
 3878000   0.62797449   -4.9027107    1793.6355  0.038542967  0.037633533           13 
 3879000   0.62152225    -4.893845    1793.0025  0.038519431  0.037624371            8 
 3880000   0.64022957   -4.9229651     1789.845  0.038441688  0.037615169            6 
 3881000    0.6314218   -4.9052273    1791.4717  0.038466712  0.037605989            9 
 3882000   0.63004772   -4.9095553    1794.2907  0.038517318  0.037596791           18 
 3883000   0.63380733   -4.9273934    1792.4814  0.038468567  0.037587617           10 
 3884000   0.61783261   -4.8904007    1799.3458  0.038605944  0.037578447            7 
 3885000   0.63235168   -4.8903263    1792.2882   0.03844462  0.037569296           11 
 3886000   0.62175906   -4.9047427    1788.8454  0.038360899  0.037560077            7 
 3887000   0.63282933   -4.9041956      1795.92  0.038502702  0.037550905            4 
 3888000   0.62721739   -4.9051006    1789.8248  0.038362158  0.037541744           13 
 3889000    0.6311376   -4.9046618    1788.8875  0.038332209  0.037532509            5 
 3890000    0.6322713   -4.9047265    1790.0591  0.038347453  0.037523294           10 
 3891000   0.63532327   -4.9063068    1793.6922  0.038415407  0.037514078           18 
 3892000   0.63727092   -4.9090671    1786.7035  0.038255898  0.037504879            9 
 3893000   0.63255292    -4.915811     1790.796  0.038333676  0.037495642            5 
 3894000   0.62177102   -4.9105478    1791.6649  0.038342427  0.037486401           13 
 3895000   0.62696449    -4.928035    1789.0863  0.038277414  0.037477172            8 
 3896000   0.62130516   -4.8978233     1793.304  0.038357803   0.03746794           10 
 3897000   0.62563397   -4.9126337    1790.8375  0.038295217  0.037458727           10 
 3898000   0.62514799   -4.9124164    1789.8506  0.038264294  0.037449533           17 
 3899000   0.62776399   -4.9339059    1787.3938  0.038201971  0.037440237           18 
 3900000   0.62195266   -4.9004802    1791.9352  0.038289214  0.037431009           14 
 3901000   0.62903731   -4.9290052    1789.9085  0.038236103  0.037421775            7 
 3902000   0.62489578   -4.9151984    1792.2821  0.038276997  0.037412556           26 
 3903000   0.62504217    -4.914735    1790.4223  0.038227481  0.037403337           16 
 3904000   0.62616055   -4.8888067    1794.0504  0.038295134  0.037394162            8 
 3905000   0.62750067   -4.9117367    1789.4319  0.038186768  0.037384965           12 
 3906000    0.6149719   -4.9036595    1796.5245  0.038328309  0.037375819           10 
 3907000   0.63376702   -4.9144092    1796.7646   0.03832362  0.037366643            6 
 3908000   0.63068126   -4.9164682    1794.7289  0.038270405  0.037357494            8 
 3909000   0.62695815   -4.8908061    1793.2945  0.038230036   0.03734836           16 
 3910000   0.63533518   -4.9299711    1794.6329  0.038248784  0.037339175            9 
 3911000     0.626044   -4.9031771      1795.78  0.038263445  0.037329995            8 
 3912000   0.62497698   -4.9282687    1789.2458  0.038114472  0.037320742           11 
 3913000   0.61619829   -4.9180745    1793.7334  0.038200303  0.037311527           15 
 3914000    0.6489162   -4.9187953    1792.9576  0.038174025  0.037302284            6 
 3915000   0.62751762    -4.930145    1793.0939  0.038167176  0.037293023            6 
 3916000    0.6369413   -4.9243821    1791.6562  0.038126834  0.037283751           17 
 3917000   0.62486073   -4.8930041    1791.3746  0.038111109  0.037274582           13 
 3918000   0.61581939   -4.9204832    1790.5421  0.038083675  0.037265411            8 
 3919000   0.62560185   -4.9153862    1793.0824  0.038127975  0.037256238           11 
 3920000   0.62890067   -4.9036162    1791.4234   0.03808298  0.037247083           13 
 3921000   0.62902851   -4.9129506    1794.0519  0.038129131  0.037237899           10 
 3922000   0.61712941   -4.9088893     1794.165  0.038121812  0.037228737           18 
 3923000   0.63506528   -4.9305657    1797.1861  0.038176271  0.037219586            8 
 3924000   0.61874192   -4.9116106    1795.2616  0.038125671  0.037210452           12 
 3925000   0.62861843   -4.9270389    1798.2354  0.038179096  0.037201302            7 
 3926000   0.61535419   -4.9048852    1790.5835  0.038006951  0.037192124            6 
 3927000   0.62032301   -4.9149981    1795.4944  0.038101485  0.037182987           11 
 3928000   0.63727483   -4.9202257    1793.9748  0.038059546  0.037173875           10 
 3929000   0.61859734   -4.9253341    1798.0451   0.03813619  0.037164737           12 
 3930000   0.62956581   -4.9322108    1800.6483  0.038181685  0.037155634           10 
 3931000   0.62990347   -4.9141784     1793.446  0.038019291  0.037146503            4 
 3932000   0.62095772   -4.9420545    1795.4758  0.038052641  0.037137388           11 
 3933000   0.62596459   -4.9218282    1793.8385  0.038008274  0.037128274           13 
 3934000   0.60651816   -4.9320139    1792.8285  0.037977218  0.037119197           19 
 3935000   0.62638118   -4.9346479    1794.2664  0.037998017  0.037110058           26 
 3936000   0.61689593   -4.9328224    1789.8169  0.037894159  0.037100909            9 
 3937000   0.63526771   -4.9099099    1800.3498   0.03810748  0.037091801           17 
 3938000   0.61970274   -4.9388495    1794.8539  0.037981503  0.037082702           17 
 3939000   0.61298741   -4.9402875    1796.0707  0.037997604  0.037073576            9 
 3940000   0.63712672   -4.9298104    1792.8497  0.037919832   0.03706442           16 
 3941000   0.61880142   -4.9218102    1794.6387   0.03794804  0.037055327           11 
 3942000   0.61805088   -4.9075388    1796.5729  0.037979303  0.037046217            6 
 3943000   0.62106204   -4.9113353    1798.2391  0.038004884  0.037037126           23 
 3944000   0.62844112   -4.9043219    1796.2253  0.037952698  0.037027988           10 
 3945000   0.61868234   -4.9251786    1791.3098  0.037839244  0.037018866            7 
 3946000   0.60710697   -4.9288754    1796.7668  0.037944898  0.037009737            8 
 3947000   0.62634963   -4.9357211    1797.4266  0.037949215  0.037000621           19 
 3948000   0.61816309   -4.9306034    1798.1215   0.03795427  0.036991503           19 
 3949000   0.60879032   -4.9280121    1796.4255  0.037908869  0.036982427           13 
 3950000   0.61903908   -4.9276432    1794.3023  0.037854479  0.036973345           11 
 3951000   0.62398932   -4.9338673    1796.6534  0.037894486  0.036964234            7 
 3952000   0.61961051   -4.9279362    1794.5716  0.037840999  0.036955068            9 
 3953000   0.61412465   -4.9283574    1798.0304  0.037904342  0.036945947            8 
 3954000   0.61728998   -4.9277246    1790.2266  0.037730287  0.036936786           15 
 3955000   0.61093989     -4.95389    1790.3064  0.037722427  0.036927542           13 
 3956000     0.618333   -4.9562294    1790.9711  0.037726895  0.036918329           12 
 3957000    0.6093554   -4.9355733    1795.1334  0.037805017  0.036909146           11 
 3958000   0.61081771   -4.9116148     1799.968  0.037897254  0.036900007           13 
 3959000   0.62260449   -4.9351157    1796.8641  0.037822348  0.036890906            8 
 3960000   0.61839801   -4.9264591    1796.2639  0.037800167  0.036881732           14 
 3961000   0.62432163   -4.9355262     1794.541  0.037754375  0.036872598           27 
 3962000   0.59774521   -4.9297522    1798.9214  0.037836981  0.036863484            6 
 3963000    0.6336888   -4.9374023    1792.8306  0.037699356  0.036854365            6 
 3964000   0.60719887   -4.9292234    1796.6447  0.037770029  0.036845273            6 
 3965000   0.62096153   -4.9265079    1797.5892  0.037780353  0.036836184           10 
 3966000   0.61002835   -4.9301981    1793.3462  0.037681673  0.036827065            8 
 3967000   0.61788648   -4.9490901    1799.0026  0.037790997  0.036817977           13 
 3968000   0.60678668   -4.9240646    1801.7037    0.0378382   0.03680888           15 
 3969000   0.60630254   -4.9415485     1797.296  0.037736121  0.036799792           14 
 3970000   0.60455756   -4.9369567    1798.2296  0.037746213  0.036790701           20 
 3971000   0.61762334   -4.9475839    1796.3143  0.037696514  0.036781632           11 
 3972000   0.62296726   -4.9438472    1797.9893  0.037722165  0.036772594           12 
 3973000   0.61384463   -4.9423312    1797.7998  0.037708697  0.036763537           15 
 3974000   0.61302441   -4.9317396    1796.0278   0.03766205   0.03675452           12 
 3975000     0.615254   -4.9287612    1800.6095  0.037748627  0.036745522           19 
 3976000   0.62787917   -4.9463963    1797.2636  0.037669006  0.036736454            4 
 3977000   0.61038001   -4.9370409      1798.17  0.037678526  0.036727408           10 
 3978000   0.62426407   -4.9546174    1799.7314  0.037701763  0.036718365           15 
 3979000   0.61173059    -4.943725    1798.2379  0.037661011  0.036709294           10 
 3980000   0.61461295   -4.9617094    1795.8267  0.037601061   0.03670021           14 
 3981000   0.60629502   -4.9318536    1798.1387  0.037640014  0.036691147           13 
 3982000   0.61518866   -4.9499544    1798.4167  0.037636379  0.036682116           13 
 3983000    0.6230276   -4.9411659    1798.9919  0.037638964  0.036673034           10 
 3984000   0.61231769   -4.9642763    1800.6842  0.037664913  0.036663971           14 
 3985000   0.60237784   -4.9308838    1797.5643   0.03759022  0.036654939           10 
 3986000   0.60854533   -4.9542438    1802.4603  0.037683146  0.036645944           18 
 3987000    0.6168646   -4.9383794    1800.2615  0.037627738   0.03663695           14 
 3988000   0.59846722   -4.9450247     1798.404  0.037579489  0.036627875           16 
 3989000   0.60971952   -4.9594586    1795.3634  0.037506546  0.036618781           10 
 3990000   0.60706891   -4.9333704    1801.4521  0.037624312  0.036609736            5 
 3991000   0.61473452   -4.9450218    1798.5619  0.037554536  0.036600689           15 
 3992000   0.60955614   -4.9401743    1801.3142  0.037602585  0.036591661           10 
 3993000   0.60440551    -4.939083    1800.8761  0.037584025  0.036582654           15 
 3994000   0.61625031   -4.9289441    1795.8471  0.037469685  0.036573629            6 
 3995000    0.6175336   -4.9531493    1795.1063  0.037444854  0.036564581            6 
 3996000   0.60243388   -4.9353628    1803.7819  0.037616407  0.036555554            8 
 3997000   0.63050643   -4.9499378    1791.1051  0.037342696  0.036546499           17 
 3998000   0.62649608   -4.9455054     1799.668  0.037511839  0.036537471           11 
 3999000   0.60292067   -4.9549319    1795.5054  0.037415717  0.036528456            7 
 4000000   0.62033857   -4.9555842    1797.6907   0.03745189  0.036519362           13 
 4001000   0.61261696   -4.9461177    1803.4216  0.037561894  0.036510383            9 
 4002000   0.61379642    -4.945574    1800.2869  0.037487234  0.036501426           18 
 4003000    0.6066956   -4.9525015    1796.6913  0.037403016  0.036492394            6 
 4004000    0.6039413   -4.9487131    1801.1557   0.03748659  0.036483328            9 
 4005000   0.60796428   -4.9524677    1796.0399  0.037370785  0.036474261            7 
 4006000    0.6191726   -4.9595697    1795.7078  0.037354547   0.03646519            8 
 4007000   0.61856592   -4.9256093    1803.2607  0.037502302  0.036456203            8 
 4008000   0.61794743   -4.9397721    1798.1932  0.037387584  0.036447305           10 
 4009000   0.61169168   -4.9661894    1797.9569  0.037373345  0.036438253           17 
 4010000   0.61418407   -4.9431452    1800.2443  0.037411562  0.036429196           23 
 4011000   0.61193392   -4.9482256    1798.0391  0.037356418  0.036420139           24 
 4012000   0.59321017   -4.9362077    1797.3199  0.037332169  0.036411107           21 
 4013000   0.60622029   -4.9318466    1804.1999  0.037465735  0.036402079            9 
 4014000   0.59935045   -4.9661503    1798.4931  0.037337923  0.036393029           11 
 4015000   0.60383874    -4.953985    1797.6426  0.037310972  0.036383959           11 
 4016000    0.6075924   -4.9431915    1796.6439  0.037280957   0.03637495           12 
 4017000   0.61089145   -4.9612311    1804.6517  0.037437799   0.03636596            5 
 4018000   0.60545278   -4.9437172    1800.5816  0.037344069  0.036356932            8 
 4019000    0.5979409   -4.9589909    1796.4798  0.037249726  0.036347923           11 
 4020000   0.61184848   -4.9380606    1803.0802  0.037377285  0.036338925            6 
 4021000   0.60543151   -4.9481726    1799.2468  0.037288543  0.036329894           15 
 4022000   0.59247532   -4.9394924      1797.25  0.037237899  0.036320817            7 
 4023000   0.59785764   -4.9290305     1799.669  0.037278751  0.036311818           13 
 4024000   0.61246201   -4.9656679    1799.6731  0.037269572  0.036302821           17 
 4025000   0.61877444   -4.9509356    1798.9818  0.037246001  0.036293816           15 
 4026000   0.61666421   -4.9515261    1799.2828   0.03724298  0.036284848           13 
 4027000   0.61643515   -4.9553401    1796.0546  0.037166928  0.036275785           10 
 4028000    0.6050652    -4.953355    1800.4189   0.03724799  0.036266717           15 
 4029000   0.59034862   -4.9363808    1798.8388  0.037206065  0.036257683           16 
 4030000   0.60501907   -4.9778569    1797.1454  0.037161815  0.036248606           14 
 4031000   0.60579861   -4.9658974    1799.0609  0.037192195  0.036239541           15 
 4032000   0.59547471   -4.9668427    1800.5432  0.037213607  0.036230534            5 
 4033000   0.60609562   -4.9343426    1795.6584  0.037103447   0.03622151           22 
 4034000   0.61574373   -4.9565044    1799.0051  0.037163385  0.036212477           26 
 4035000   0.60956078   -4.9437088    1797.6816   0.03712684  0.036203469            5 
 4036000   0.60588016   -4.9470741    1799.5244  0.037155691  0.036194466            8 
 4037000   0.61592079   -4.9394109     1801.065  0.037178289  0.036185457           17 
 4038000   0.61578973   -4.9508057    1800.8946  0.037165565  0.036176512           12 
 4039000   0.60453016   -4.9473423    1799.6615  0.037130921  0.036167545           15 
 4040000   0.61977065   -4.9507166    1801.9067  0.037168043   0.03615856            7 
 4041000   0.60654136   -4.9513793    1799.9976  0.037119475  0.036149533            5 
 4042000   0.61446412    -4.958307    1796.6436  0.037041144   0.03614055            9 
 4043000   0.60084409   -4.9587269    1799.7219  0.037095431  0.036131528           14 
 4044000   0.62401449   -4.9784984    1796.8106  0.037026266  0.036122492           23 
 4045000   0.59954457   -4.9680746    1800.6116  0.037095419  0.036113402           18 
 4046000   0.62326667   -4.9754381    1799.1864  0.037056896  0.036104349            9 
 4047000    0.6168042   -4.9904407    1795.4132  0.036970044  0.036095284           15 
 4048000   0.59499049   -4.9662176    1800.8307  0.037072437  0.036086296            9 
 4049000   0.60003299   -4.9466531    1803.0276  0.037108496  0.036077309            7 
 4050000   0.58276192   -4.9479356     1801.686  0.037071728  0.036068329           14 
 4051000   0.61157172   -4.9883215    1800.7988  0.037044327  0.036059366            9 
 4052000   0.60425097   -4.9397725     1794.549   0.03690665  0.036050398           14 
 4053000   0.59505293   -4.9637529     1802.755  0.037066267  0.036041436            8 
 4054000   0.60886843    -4.973464    1799.6242  0.036992769  0.036032451           19 
 4055000   0.60487059   -4.9615721     1796.284  0.036915002   0.03602348           12 
 4056000   0.60096609    -4.986672    1800.7733  0.036998137  0.036014484           13 
 4057000      0.59289   -4.9615382    1803.7494  0.037050148  0.036005482            8 
 4058000   0.59412467   -4.9754984     1799.199  0.036947572  0.035996486           10 
 4059000   0.59593236   -4.9694631    1798.5526  0.036925199  0.035987478           23 
 4060000   0.60247819   -4.9692573    1801.5205  0.036977023  0.035978495           14 
 4061000   0.60926898   -4.9678516    1802.7575    0.0369933  0.035969508            6 
 4062000   0.60292351   -4.9870245    1796.6652  0.036859207  0.035960551            8 
 4063000   0.60672122   -4.9572526    1800.3081  0.036924851  0.035951575            9 
 4064000    0.5958372   -4.9551638    1806.5028   0.03704279  0.035942632           16 
 4065000   0.59563542   -4.9869336    1800.3998  0.036908566  0.035933718           13 
 4066000   0.60689622   -4.9763202    1798.1597  0.036853576  0.035924765           13 
 4067000   0.59481208   -4.9734548    1801.0662  0.036904069  0.035915803           11 
 4068000    0.5984259   -4.9987549    1800.8972  0.036891535  0.035906805           11 
 4069000    0.5852651   -4.9844828    1798.5203  0.036833791  0.035897803           31 
 4070000   0.59581677   -4.9780655    1803.0078  0.036916621  0.035888839           12 
 4071000   0.60695639    -4.964198    1803.3732  0.036915032  0.035879942           24 
 4072000   0.60429197   -4.9623088    1802.5731  0.036889593  0.035871017           12 
 4073000   0.61029859   -4.9935851    1802.4126  0.036877252  0.035862042           28 
 4074000   0.59909753   -4.9784321    1801.1794  0.036842976  0.035853058           17 
 4075000   0.60113883    -5.000087    1803.9823  0.036891253  0.035844097           24 
 4076000    0.6042582   -4.9788392    1801.4886  0.036831219  0.035835166           11 
 4077000    0.5903376   -4.9652774    1803.5384  0.036864084  0.035826272            8 
 4078000   0.58625439    -4.977329    1801.9939  0.036823481  0.035817356           10 
 4079000   0.59560209   -4.9846905    1801.9373  0.036813297  0.035808428           31 
 4080000   0.60477104   -4.9634899     1801.324  0.036791748  0.035799546           19 
 4081000   0.59152258   -4.9659551    1803.5801  0.036828802  0.035790639            8 
 4082000    0.6054088   -4.9771396    1799.4511  0.036735488  0.035781721           14 
 4083000   0.60219239   -4.9670762    1806.9994  0.036880549    0.0357728           20 
 4084000   0.59767054   -4.9958426     1802.109  0.036771731   0.03576388           18 
 4085000   0.60693113   -4.9766493    1800.6632  0.036733236  0.035754909            7 
 4086000   0.60652024   -4.9935809    1803.3182  0.036778394  0.035745992           16 
 4087000   0.58822104   -4.9656395     1804.172  0.036786804  0.035737072            7 
 4088000   0.60843916   -4.9683126    1809.9071  0.036894714  0.035728171            8 
 4089000   0.60138764   -4.9655697     1801.034  0.036704859  0.035719257            7 
 4090000   0.59229565   -4.9684719    1801.7995   0.03671148  0.035710361           11 
 4091000   0.60178344   -4.9523689    1802.3614  0.036713953  0.035701491            5 
 4092000   0.59656163   -4.9617698    1804.1295  0.036740988  0.035692576           13 
 4093000   0.59540354   -4.9513799    1805.5256  0.036760437   0.03568365            8 
 4094000   0.60265284   -4.9644794    1799.7605  0.036634108  0.035674724            6 
 4095000   0.60340022    -4.985269    1801.7463  0.036665573   0.03566579           11 
 4096000   0.60742239   -4.9492994    1802.6225  0.036674448  0.035656854           10 
 4097000    0.5995606   -4.9803005    1804.8635   0.03671108     0.035648           10 
 4098000   0.59144322   -4.9582095    1806.1676  0.036728641  0.035639117            9 
 4099000   0.60323537    -4.975413    1807.4482  0.036745714  0.035630275           10 
 4100000   0.60556703   -4.9687887    1802.5482  0.036637158  0.035621418           13 
 4101000   0.59550662   -5.0010087    1803.7606  0.036652861  0.035612531           15 
 4102000   0.58781463   -4.9847418     1804.225   0.03665336  0.035603619           20 
 4103000   0.59357523   -4.9685663    1803.8405  0.036636617  0.035594693           13 
 4104000    0.5966404   -4.9944663    1802.5929  0.036602358  0.035585774            6 
 4105000    0.6043992   -5.0105283    1798.9045  0.036518564  0.035576835           10 
 4106000   0.59847895   -4.9803439     1805.066  0.036634722  0.035567925            8 
 4107000   0.58912086   -5.0027446    1807.4365  0.036673901  0.035559032           14 
 4108000   0.60232824   -4.9756033    1806.0207  0.036636253  0.035550166           10 
 4109000   0.59157336   -4.9770863    1806.8683  0.036644527  0.035541313            5 
 4110000   0.59700882   -4.9655258    1802.9444   0.03655605  0.035532452            7 
 4111000   0.59528344   -4.9682694    1800.4443  0.036496478  0.035523584           24 
 4112000   0.60669457   -4.9994081    1806.5709  0.036611765  0.035514726           12 
 4113000   0.58924809   -5.0063718    1803.9078  0.036548906  0.035505821           22 
 4114000   0.59766481   -4.9746395    1808.7301  0.036637703  0.035496932           12 
 4115000   0.58833147    -4.977575     1801.496  0.036482301  0.035488051           13 
 4116000   0.60027154   -4.9816553    1804.1543  0.036527258  0.035479172            9 
 4117000   0.59881351   -4.9778804    1801.1428  0.036457429  0.035470273           17 
 4118000   0.59603389   -4.9685632    1799.2845  0.036410969  0.035461362           12 
 4119000   0.59293263   -4.9706585    1809.7029  0.036612909  0.035452519           14 
 4120000   0.59695344   -4.9750046    1806.1571  0.036532304  0.035443709            9 
 4121000   0.58500575   -4.9804937    1796.8799  0.036335839   0.03543482           19 
 4122000    0.5893618   -4.9796935    1800.5434  0.036401088  0.035425908           12 
 4123000   0.60690813   -4.9832858    1801.3824  0.036409216  0.035417014           32 
 4124000   0.59125188    -4.992137    1806.0848  0.036495408  0.035408139            8 
 4125000   0.59361027   -4.9908915    1803.0009   0.03642426  0.035399259           10 
 4126000    0.5897047   -4.9912667    1806.4713  0.036485524  0.035390389           10 
 4127000   0.59161743   -5.0012457    1799.3515  0.036332919  0.035381481           10 
 4128000   0.58756745   -4.9726226    1807.6965  0.036492582  0.035372562           10 
 4129000   0.58928224   -4.9826851    1804.9209  0.036427725  0.035363689            8 
 4130000    0.5985787   -4.9867063    1804.1019  0.036402379  0.035354844            5 
 4131000   0.59366679   -5.0016858    1802.1415  0.036354021  0.035345962            7 
 4132000   0.59441395   -4.9841625    1799.3752  0.036289433  0.035337011           42 
 4133000   0.59613207   -4.9854514    1804.3147  0.036380247  0.035328067           20 
 4134000   0.57723349   -4.9987022    1802.3359  0.036331558  0.035319163            9 
 4135000   0.58969397   -4.9658947    1804.5753  0.036367902  0.035310312           16 
 4136000   0.58072027   -5.0014542    1807.5325  0.036418692  0.035301403           11 
 4137000   0.58637167   -4.9829905    1801.0251  0.036278806   0.03529248            9 
 4138000   0.58541436   -4.9949001     1796.396  0.036176817  0.035283571           11 
 4139000   0.58140305   -5.0081835    1802.3572  0.036288098  0.035274638            9 
 4140000   0.58935036   -5.0087178    1794.9549  0.036130332  0.035265729           19 
 4141000   0.59302617   -5.0032641    1799.5984  0.036215054  0.035256783            9 
 4142000   0.59080932   -4.9976561    1800.0978  0.036216356  0.035247844           15 
 4143000   0.58472762   -4.9847178    1802.4939   0.03625581  0.035238904           11 
 4144000   0.59981487   -4.9975583    1800.7843  0.036212683  0.035229997           11 
 4145000   0.58088041   -4.9922208    1804.4649  0.036277942  0.035221154           13 
 4146000   0.57305975   -4.9948838    1808.2058  0.036344384  0.035212299           10 
 4147000   0.58264946   -4.9863664    1805.9977   0.03629125  0.035203422           29 
 4148000    0.5698976   -4.9715425    1807.1271  0.036305189  0.035194526            6 
 4149000   0.59193822   -4.9902951    1800.7967  0.036169292  0.035185633           10 
 4150000    0.5885307   -4.9799175    1802.7018  0.036198832  0.035176726           15 
 4151000   0.59858911   -4.9879521    1801.0653  0.036157258  0.035167812           14 
 4152000   0.58492129   -4.9992464    1798.6507  0.036100087  0.035158886           26 
 4153000    0.5810894   -5.0041389    1799.4001  0.036106432  0.035149965           21 
 4154000   0.59565786   -4.9839618    1798.8976  0.036087659   0.03514104           11 
 4155000   0.57542637   -5.0000034    1804.2439    0.0361862   0.03513211           19 
 4156000   0.59227721   -4.9826136    1805.3113  0.036198895  0.035123223           14 
 4157000   0.57874982   -4.9976385    1801.9713  0.036123232  0.035114303           10 
 4158000   0.58784937   -4.9904943    1803.5077  0.036145337  0.035105355           15 
 4159000    0.5833733   -4.9978564    1807.1243   0.03620911  0.035096403           32 
 4160000   0.59431946   -4.9920541    1800.9714  0.036077151  0.035087431           27 
 4161000   0.57543545   -5.0164715    1802.6575  0.036102249  0.035078473           15 
 4162000   0.58540419   -5.0013241    1794.8339  0.035936927  0.035069521           15 
 4163000   0.60072213   -4.9898387     1802.797  0.036087697  0.035060551            8 
 4164000   0.59145414   -5.0129564    1798.8231  0.035999502  0.035051591           14 
 4165000   0.58194347   -5.0073451    1797.4707  0.035963799  0.035042644           22 
 4166000   0.58305544   -4.9883299    1797.5206  0.035956165  0.035033707           29 
 4167000   0.58374131   -4.9869091    1802.0591  0.036038299  0.035024803           16 
 4168000   0.59364991   -4.9890764    1802.0675  0.036029821  0.035015889           28 
 4169000   0.58441537   -4.9983073    1799.7728  0.035975309  0.035006952            9 
 4170000   0.57825577   -4.9994704    1803.8196  0.036047554  0.034998043           13 
 4171000   0.57735947   -4.9880614    1803.6994  0.036036511  0.034989133            6 
 4172000   0.59933881   -4.9884386    1799.9945  0.035953869   0.03498019            8 
 4173000    0.5967831   -4.9966036    1802.4258  0.035993805   0.03497128           14 
 4174000    0.5906623   -4.9775913    1803.5656  0.036007938  0.034962359            6 
 4175000   0.59133171    -4.980553    1799.0666  0.035909513  0.034953473            9 
 4176000   0.59282383    -4.995249    1801.4377  0.035948229  0.034944528           11 
 4177000   0.58532647   -5.0008103     1797.147  0.035854022   0.03493559           11 
 4178000   0.58526177   -4.9984792    1803.3416  0.035968997  0.034926656           29 
 4179000   0.57688731   -4.9963976    1800.2524  0.035898788  0.034917752            7 
 4180000   0.56935127   -5.0095324    1798.1172  0.035847632  0.034908835           10 
 4181000   0.56646823   -4.9945112    1799.8823  0.035874239  0.034899895           19 
 4182000   0.58271734   -4.9967775    1801.1358  0.035890639  0.034890986            8 
 4183000   0.58473324   -5.0045778      1801.94  0.035898079  0.034882025           10 
 4184000   0.58547532   -5.0107963    1801.7389  0.035885494  0.034873104           13 
 4185000   0.58867575   -5.0138777    1797.6715  0.035795927  0.034864171            7 
 4186000   0.57500579   -4.9903625    1802.7667   0.03588881  0.034855292           12 
 4187000    0.5836753   -4.9979819    1801.2905  0.035850858  0.034846397           18 
 4188000   0.58444472   -4.9962921    1804.0772  0.035897748  0.034837519           23 
 4189000   0.58011103   -5.0057219    1801.8584  0.035845038  0.034828616           23 
 4190000   0.58744207    -4.987281    1800.6748  0.035812944  0.034819727           31 
 4191000   0.57872058   -5.0230227    1800.2676  0.035796301  0.034810791           15 
 4192000   0.58105734   -5.0010806    1801.1497  0.035805299  0.034801897           21 
 4193000   0.58872984   -5.0027803    1801.1351  0.035796469  0.034793009           11 
 4194000   0.57297433   -5.0029163    1806.2561  0.035889685  0.034784086           20 
 4195000   0.57983462   -5.0159569    1799.0624  0.035738229  0.034775175           18 
 4196000   0.56777336   -5.0145896    1800.5648  0.035759549   0.03476624           17 
 4197000   0.57934562   -5.0324479    1803.4864  0.035809038   0.03475732           13 
 4198000   0.59210472    -5.017216     1799.823  0.035727787  0.034748414           10 
 4199000   0.57346284   -5.0110949    1802.2043  0.035766538  0.034739503           13 
 4200000    0.5773109   -5.0074358     1806.923  0.035851647   0.03473061            6 
 4201000   0.57677035   -5.0054765    1801.9503  0.035744472  0.034721713           15 
 4202000   0.57567471   -4.9941842    1798.1621  0.035660839  0.034712819           20 
 4203000   0.58916647   -5.0254968    1805.3854  0.035795571  0.034703905           35 
 4204000   0.58163504   -5.0156957    1801.3395  0.035706857  0.034695016            8 
 4205000   0.57619315   -5.0130652    1797.8148  0.035628513   0.03468611           13 
 4206000   0.58422691   -5.0394604    1795.7028  0.035578198  0.034677158           15 
 4207000   0.57623925   -5.0106472    1803.4275  0.035722754  0.034668212           17 
 4208000   0.58804506   -5.0217356    1798.6023  0.035618709  0.034659277           20 
 4209000   0.57364024   -5.0081661    1797.8004   0.03559437   0.03465034           18 
 4210000   0.58801888    -5.012846    1803.6774  0.035702245  0.034641437           59 
 4211000   0.57245221   -5.0152871    1799.2407  0.035605966  0.034632555           19 
 4212000   0.57956495    -5.033607    1799.5506  0.035603644  0.034623647           16 
 4213000   0.58932806    -5.035231    1799.1502  0.035587273   0.03461473           25 
 4214000    0.5765218    -4.993856    1803.3356  0.035661596  0.034605851           25 
 4215000   0.57402256   -5.0447789    1796.2862  0.035513764  0.034596924           25 
 4216000   0.57292663   -5.0225532    1796.6382  0.035512299  0.034588003           13 
 4217000   0.57181091   -5.0084324    1798.2167  0.035535071  0.034579064           15 
 4218000   0.57744808   -5.0371433    1794.5707  0.035454613  0.034570124           22 
 4219000   0.58079749   -5.0165616    1800.3855  0.035561063  0.034561186           23 
 4220000   0.58410775   -5.0064964    1799.7937   0.03554095  0.034552237           24 
 4221000   0.56645821   -5.0429998    1802.3423  0.035582847  0.034543305           12 
 4222000   0.58406453   -5.0324336      1797.79  0.035484565  0.034534359            7 
 4223000   0.58591204    -5.024659    1799.9466  0.035518718  0.034525409            7 
 4224000   0.58251596    -5.030706    1798.9989  0.035491613  0.034516485           28 
 4225000   0.57356211   -5.0160318    1798.4904  0.035473184  0.034507507           11 
 4226000   0.58160138    -5.047094    1802.3851  0.035541589  0.034498562           13 
 4227000   0.57572688   -5.0255843    1801.1366  0.035508567  0.034489607           10 
 4228000   0.56820197   -5.0173309    1798.8485  0.035455071  0.034480682           21 
 4229000   0.57564544   -5.0105955    1800.8388  0.035485907  0.034471785           14 
 4230000   0.56531198   -5.0231865    1804.0333  0.035540451  0.034462899            9 
 4231000   0.57775248   -5.0514542    1795.3544  0.035361112  0.034453951           10 
 4232000   0.59012017   -5.0190446    1807.7526  0.035596892   0.03444503           18 
 4233000   0.58479954   -4.9935125    1798.7087   0.03541044  0.034436105           11 
 4234000   0.57199934   -5.0221027    1800.8186  0.035443603  0.034427207           18 
 4235000   0.57522218   -5.0247868    1797.8917  0.035377641    0.0344183           12 
 4236000   0.56785631   -5.0301853    1801.2515  0.035435386  0.034409393            6 
 4237000   0.57442284   -4.9937101    1801.2313  0.035426624  0.034400516           11 
 4238000   0.56852752   -5.0264252    1800.1993  0.035397972  0.034391636           13 
 4239000   0.57177551   -5.0071582    1800.2033    0.0353897  0.034382716           14 
 4240000    0.5792076   -5.0379997    1796.3672  0.035305959  0.034373808            8 
 4241000   0.57816756   -5.0365026    1798.5283  0.035340098  0.034364891           13 
 4242000    0.5775685   -5.0042493    1801.3632  0.035387459   0.03435599           14 
 4243000    0.5814629   -5.0511751    1798.5717  0.035324294  0.034347103           22 
 4244000   0.57190182   -5.0428373    1798.4869  0.035314304  0.034338189           10 
 4245000   0.57534082   -5.0325459    1798.9135  0.035314361  0.034329299           24 
 4246000   0.57533135   -5.0387283    1799.8415  0.035324256  0.034320461           13 
 4247000   0.57117348   -5.0487979    1798.0625  0.035281032  0.034311605           13 
 4248000   0.56364427   -5.0342866    1801.2674  0.035335597  0.034302751           12 
 4249000   0.57159124   -5.0429822    1800.8736  0.035319558  0.034293873           10 
 4250000    0.5654757   -5.0235158    1807.5018  0.035441211  0.034284996            7 
 4251000   0.57587564   -5.0202486    1800.2518  0.035290751  0.034276128            8 
 4252000   0.56970413   -5.0296793    1803.3384  0.035342944  0.034267298           11 
 4253000   0.57983504   -5.0470534    1795.8939  0.035188767  0.034258435           27 
 4254000     0.563064   -5.0225056    1799.0652  0.035242618  0.034249549           23 
 4255000   0.57580717   -5.0173646    1798.4328   0.03522195  0.034240683            5 
 4256000   0.57033647    -5.035541    1800.5276  0.035254691  0.034231814           13 
 4257000   0.57574475   -5.0121212     1801.881  0.035272903  0.034222968           16 
 4258000   0.57057897   -5.0243636    1801.7361  0.035261785  0.034214102           11 
 4259000    0.5761453    -5.057561    1800.5817  0.035230918  0.034205232            8 
 4260000   0.57266864      -5.0069    1798.8878  0.035189511  0.034196384           17 
 4261000   0.56116664   -5.0330603    1804.7502  0.035295904  0.034187555            6 
 4262000   0.56953235   -5.0366343    1796.8543  0.035133238  0.034178722           17 
 4263000   0.56397431   -5.0362177    1803.3954  0.035252862  0.034169875           19 
 4264000   0.55076945   -5.0336418    1802.7375  0.035231737  0.034161033           11 
 4265000   0.56418545   -5.0328418    1799.5559  0.035161311   0.03415216           15 
 4266000   0.56179359   -5.0405563    1803.1378   0.03522304  0.034143303           48 
 4267000   0.58198934   -5.0350645    1795.1097  0.035057997  0.034134442           33 
 4268000   0.56725231   -5.0266515    1801.7037  0.035178532   0.03412558           16 
 4269000   0.55569964   -5.0181321    1802.4093  0.035184064  0.034116715            9 
 4270000   0.55992323   -5.0670046    1799.3662  0.035116437  0.034107844           12 
 4271000   0.56160873   -5.0338187    1800.1941  0.035124369   0.03409896           11 
 4272000   0.56438869   -5.0371082    1796.4563  0.035043232  0.034090085           12 
 4273000   0.55039669   -5.0433536    1798.8586  0.035081883  0.034081228           16 
 4274000   0.55846766   -5.0385929    1802.2729  0.035140245  0.034072389           21 
 4275000   0.55979372   -5.0341378    1802.0817  0.035128297  0.034063536           13 
 4276000   0.57457215   -5.0301672    1799.0693  0.035061375  0.034054695           17 
 4277000   0.56720276   -5.0379267    1797.9684  0.035031728  0.034045836           12 
 4278000   0.55928037   -5.0329535    1799.8732  0.035060644  0.034037013            6 
 4279000   0.55639775   -5.0442419     1801.017  0.035074725  0.034028208           11 
 4280000   0.58577194   -5.0320168    1799.1421  0.035030025  0.034019427            6 
 4281000   0.56914232   -5.0475843    1800.7926  0.035053971  0.034010599            7 
 4282000   0.57705663   -5.0518743    1800.7894  0.035045722   0.03400176           14 
 4283000   0.57751222   -5.0424583    1803.9169   0.03509839   0.03399294           14 
 4284000   0.58033584   -5.0376995    1801.1024  0.035035449  0.033984118           24 
 4285000   0.56854882   -5.0408764    1805.8768  0.035120124  0.033975312           20 
 4286000   0.55674303   -5.0491779    1797.8073  0.034955035  0.033966467           11 
 4287000   0.56379157   -5.0518999    1802.2196   0.03503265  0.033957623           24 
 4288000   0.57708972   -5.0460696    1801.4847  0.035010197  0.033948777           17 
 4289000    0.5632233   -5.0343415    1801.7516   0.03500722  0.033939915           17 
 4290000   0.56692616   -5.0342466    1799.2653  0.034950763  0.033931084           41 
 4291000   0.57492296   -5.0459392    1798.1266  0.034920504  0.033922252           13 
 4292000   0.57031389   -5.0427348    1804.3208  0.035032635  0.033913458           45 
 4293000   0.57202861   -5.0484326    1798.5913  0.034913257  0.033904636           13 
 4294000   0.56661985   -5.0382055    1801.2401   0.03495653  0.033895788           12 
 4295000     0.565892   -5.0470039     1797.713  0.034879957  0.033886955           16 
 4296000   0.56933588   -5.0464745    1802.2267  0.034959394  0.033878113           11 
 4297000   0.56012566   -5.0563068    1795.6159  0.034823053   0.03386927           12 
 4298000   0.56107559   -5.0403641    1796.6089  0.034834205  0.033860433           36 
 4299000   0.56876743   -5.0615888     1800.206  0.034895828  0.033851596           14 
 4300000   0.55926261   -5.0382946     1799.747  0.034878817  0.033842779           23 
 4301000   0.56572237   -5.0434431     1802.577  0.034925541  0.033833955           12 
 4302000   0.56319563   -5.0640292    1802.7626  0.034921018   0.03382513           12 
 4303000   0.56553204   -5.0476538    1799.4583   0.03484891  0.033816346            5 
 4304000   0.57120813   -5.0516271    1802.2701  0.034895254   0.03380756           14 
 4305000   0.57098028    -5.060585    1799.1982  0.034827685  0.033798795           12 
 4306000   0.55246897   -5.0309561    1803.5361  0.034903547  0.033790029           17 
 4307000   0.56014769   -5.0257582    1802.8548  0.034882261  0.033781259           15 
 4308000   0.56301284   -5.0636904    1799.5502  0.034810241  0.033772511           17 
 4309000   0.56469667   -5.0505579    1798.8219  0.034788077  0.033763726           11 
 4310000   0.55756644   -5.0452723    1798.3509  0.034770898  0.033754953           32 
 4311000   0.56716078   -5.0494503    1802.6771   0.03484646  0.033746203           22 
 4312000   0.56915699   -5.0609863     1800.018   0.03478699   0.03373744           14 
 4313000   0.56884571   -5.0531267    1806.6243  0.034906567  0.033728655           31 
 4314000   0.57462929   -5.0324737    1801.4916  0.034799327  0.033719895           31 
 4315000   0.56367295   -5.0565298    1797.5238  0.034714635  0.033711107           33 
 4316000    0.5614087   -5.0766459    1801.4423  0.034782251  0.033702302           19 
 4317000   0.56783544   -5.0443491    1799.5011  0.034736721   0.03369348            8 
 4318000   0.56637775   -5.0562623    1803.0936  0.034798007  0.033684673            8 
 4319000   0.54545301   -5.0283514     1801.659  0.034762272  0.033675943           17 
 4320000   0.55398624   -5.0542844    1799.7024  0.034716481  0.033667185           20 
 4321000   0.56184397   -5.0545831    1797.2756  0.034661644  0.033658386           16 
 4322000   0.55831865   -5.0644597    1798.3255  0.034673868  0.033649579           15 
 4323000   0.55924815   -5.0679667    1802.4619  0.034745584    0.0336408           11 
 4324000   0.57146971   -5.0607269    1799.3947  0.034678437  0.033631992           11 
 4325000   0.55037605   -5.0580655    1803.3844  0.034747292  0.033623215           17 
 4326000   0.56118427   -5.0595186    1796.6547  0.034609623  0.033614444           20 
 4327000   0.56084124   -5.0671737    1797.3534  0.034615079  0.033605665           17 
 4328000   0.55692166    -5.057259    1797.2846  0.034605756  0.033596867           13 
 4329000   0.56358641    -5.066349    1802.7679  0.034703318  0.033588052           22 
 4330000   0.54977616   -5.0404445    1795.4415  0.034554301  0.033579232           44 
 4331000    0.5612028   -5.0474897    1800.6582  0.034646698  0.033570429           18 
 4332000   0.55375694   -5.0591847    1802.3048  0.034670375  0.033561654            8 
 4333000    0.5711905   -5.0582401    1799.1587  0.034601867  0.033552876           15 
 4334000   0.55153908   -5.0602502    1803.0865  0.034669406  0.033544091           40 
 4335000   0.55845516   -5.0871233    1796.6398  0.034537482  0.033535311           12 
 4336000   0.56028344   -5.0578136     1798.781  0.034570667  0.033526554           17 
 4337000   0.55864211   -5.0583124    1803.3874  0.034651207  0.033517766            8 
 4338000   0.55708684   -5.0635768    1800.9464  0.034596327  0.033509014            8 
 4339000   0.56691688   -5.0425586     1801.766  0.034604094  0.033500278           23 
 4340000   0.55716828   -5.0762217    1799.9115  0.034560513  0.033491531           21 
 4341000   0.55282022     -5.07556    1801.1439   0.03457621  0.033482764           18 
 4342000   0.56071456   -5.0730667    1798.2504  0.034512712  0.033473995           16 
 4343000   0.55141801   -5.0693322     1800.899  0.034555587  0.033465233           12 
 4344000   0.55236416    -5.042794    1800.5975  0.034541849  0.033456449           17 
 4345000   0.55451715    -5.049959    1798.6893  0.034497301  0.033447674           16 
 4346000   0.55031811   -5.0654527    1801.8744  0.034550438  0.033438929           17 
 4347000   0.54940753   -5.0656503    1796.5309  0.034440052  0.033430159           21 
 4348000   0.54882598   -5.0580898    1801.6831  0.034530878  0.033421383           19 
 4349000   0.56484396   -5.0698494    1797.3028  0.034439005   0.03341262            6 
 4350000   0.56017099    -5.064456    1802.4366  0.034529437  0.033403857           12 
 4351000   0.55614962   -5.0530487     1798.779  0.034451447  0.033395095           36 
 4352000   0.55636718   -5.0517237    1803.1286  0.034526818  0.033386308           17 
 4353000   0.56480184   -5.0738123    1799.1785  0.034443267  0.033377552           34 
 4354000   0.56569079   -5.0507718    1800.9606  0.034469465  0.033368801           18 
 4355000   0.54607642   -5.0585551    1800.1488  0.034446017  0.033360084           36 
 4356000   0.56442008   -5.0441068    1800.8634  0.034451779  0.033351374           16 
 4357000   0.54456472   -5.0758944    1797.4441  0.034378473  0.033342643           22 
 4358000   0.56311783   -5.0631576    1801.6502  0.034451013  0.033333898           32 
 4359000   0.55770744   -5.0750002    1798.2415  0.034377945  0.033325145           31 
 4360000   0.55348215   -5.0830176    1796.3589  0.034334077  0.033316376           19 
 4361000   0.55300522   -5.0731032    1799.9692  0.034395192  0.033307637           14 
 4362000   0.55930116   -5.0512237    1804.7709  0.034479041  0.033298911           20 
 4363000   0.54936155   -5.0596073    1803.3886  0.034444736  0.033290215           29 
 4364000   0.55601599   -5.0605264    1796.8717  0.034312399   0.03328153           10 
 4365000   0.55460249   -5.0849573    1798.0134  0.034326334  0.033272796           14 
 4366000   0.53899903   -5.0604392    1803.5705   0.03442454  0.033264078           15 
 4367000   0.55844013   -5.0808346    1797.6144  0.034302999    0.0332553           20 
 4368000   0.55289948    -5.078896    1796.2031  0.034268222  0.033246529           22 
 4369000   0.54894231   -5.0729176    1793.9293  0.034217009  0.033237791           23 
 4370000   0.55350024   -5.0632658    1804.6302  0.034413238  0.033229046           22 
 4371000   0.54543477   -5.0660321    1800.4423  0.034325522  0.033220322           20 
 4372000   0.56110293   -5.0698894    1799.8037  0.034305499  0.033211593           22 
 4373000   0.55398843    -5.046924     1801.779  0.034335296   0.03320288           33 
 4374000   0.55207273    -5.053409    1800.0406  0.034294327  0.033194211           15 
 4375000   0.55571955   -5.0791833    1802.8562  0.034340117  0.033185535           15 
 4376000   0.55719605   -5.0604197    1802.2478  0.034320686  0.033176873           14 
 4377000    0.5603455   -5.0759171    1803.4769  0.034336245  0.033168206           10 
 4378000   0.55993375   -5.0804181     1800.017  0.034262544  0.033159507           33 
 4379000   0.55205924   -5.0630821    1804.3156  0.034336523   0.03315081           45 
 4380000   0.55020285   -5.0542494    1798.9526  0.034226648  0.033142145           49 
 4381000   0.55275825   -5.0615566    1804.3483  0.034321469  0.033133482           18 
 4382000   0.54211444   -5.0888773    1801.5322  0.034260082  0.033124822           13 
 4383000   0.56799212   -5.0635024    1802.7611  0.034275631  0.033116141           19 
 4384000   0.54603052   -5.0823944    1800.9815  0.034233986  0.033107456           10 
 4385000   0.54276576   -5.0623779    1802.6607  0.034258091  0.033098772           11 
 4386000   0.55362525   -5.0495534    1804.7687   0.03429033   0.03309014           21 
 4387000   0.54555137   -5.0815959    1799.3491  0.034179566  0.033081496           13 
 4388000   0.55360226   -5.0794254    1801.2047  0.034207017  0.033072825           11 
 4389000   0.55568173   -5.0859348    1802.2789   0.03421962  0.033064167           33 
 4390000   0.55411102   -5.0850867    1802.8672  0.034222991  0.033055498           14 
 4391000   0.55539105   -5.0740035    1799.0688   0.03414311   0.03304685           38 
 4392000   0.54664753   -5.0694216     1800.082  0.034154561  0.033038199           12 
 4393000   0.54584124   -5.0667528    1803.5579  0.034212723   0.03302954            8 
 4394000   0.54023475   -5.0730713    1801.7795  0.034171208  0.033020913           10 
 4395000   0.53980352   -5.0634825    1804.8484  0.034221623  0.033012307           23 
 4396000   0.54601257   -5.0465337    1802.9314  0.034177498  0.033003716           15 
 4397000   0.55481628   -5.0693441    1801.0942  0.034134907  0.032995118           23 
 4398000   0.55112526   -5.0902044     1803.787  0.034178168  0.032986487           43 
 4399000   0.55014188   -5.1029933    1798.9332  0.034078449  0.032977837           27 
 4400000   0.54672298   -5.0788767    1800.2256  0.034095181  0.032969199           27 
 4401000   0.55127472   -5.0870679    1803.6986  0.034153196  0.032960547           23 
 4402000   0.54383662   -5.0859179    1794.9458  0.033979741  0.032951887            7 
 4403000   0.54417028   -5.1003329    1800.8931  0.034084583  0.032943186           15 
 4404000   0.55735167   -5.1033558    1796.9665  0.034002545  0.032934509           19 
 4405000   0.55207645    -5.104395    1801.2795   0.03407642  0.032925805           19 
 4406000    0.5542547   -5.0955102    1798.2089   0.03401061  0.032917095           22 
 4407000    0.5575182   -5.1011213    1801.5909  0.034066842  0.032908378           19 
 4408000   0.54818959   -5.0903671    1800.7163  0.034042579  0.032899684           25 
 4409000     0.538986    -5.099202    1798.5732  0.033994353  0.032891008           15 
 4410000   0.53996431   -5.0815228    1795.6357  0.033931135   0.03288234           12 
 4411000    0.5422945   -5.0941805    1800.1309  0.034008368  0.032873681           25 
 4412000   0.53836887   -5.0757394    1799.2234  0.033983518  0.032865014           14 
 4413000   0.54444734   -5.0751863    1800.8761  0.034007027   0.03285636           29 
 4414000   0.55799528   -5.1037647    1798.3489   0.03395161  0.032847719           38 
 4415000   0.54597476   -5.0911301    1798.9478  0.033955225  0.032839074           16 
 4416000    0.5448868   -5.0818311    1801.4181  0.033994152  0.032830385           80 
 4417000   0.53673592   -5.0877791    1802.2408  0.034001977  0.032821715           27 
 4418000   0.53639898   -5.0762628    1800.1479  0.033954804  0.032813069           33 
 4419000   0.54144788   -5.0902506    1804.1599  0.034022779  0.032804404           31 
 4420000   0.54791717   -5.1072664     1795.804  0.033857542  0.032795742           29 
 4421000   0.54552429   -5.1023284    1798.1931  0.033894916  0.032787051           20 
 4422000   0.54017695    -5.098683    1802.3356  0.033965318  0.032778365           33 
 4423000   0.54539875   -5.0849156    1798.4223  0.033883908  0.032769685           17 
 4424000   0.54586786   -5.0873627    1798.5358  0.033878387  0.032761025           17 
 4425000   0.54716673   -5.0823504    1802.1375   0.03393856  0.032752402           30 
 4426000   0.54099265   -5.0849572    1798.2661     0.033858  0.032743773           21 
 4427000   0.54493703    -5.102006    1804.8287  0.033973886  0.032735166           15 
 4428000   0.54927301   -5.0842634    1801.3691  0.033901104  0.032726544           16 
 4429000   0.53755062   -5.0782415    1798.9923   0.03384873  0.032717922            8 
 4430000   0.54507394   -5.0954001    1798.1411  0.033825077  0.032709304           16 
 4431000   0.53935991   -5.0916997    1798.4396  0.033823057  0.032700692           26 
 4432000   0.55285046   -5.0961124    1801.4957  0.033872889  0.032692051            8 
 4433000   0.54226573   -5.0792072    1802.0247  0.033875192  0.032683464           11 
 4434000   0.54870935   -5.0832072    1797.9792   0.03379152   0.03267485           13 
 4435000   0.53574718   -5.0840398    1799.6883  0.033816014  0.032666233           21 
 4436000   0.53352384   -5.0863587    1800.0596  0.033815367  0.032657575           32 
 4437000   0.54079254   -5.1224593     1799.892  0.033804597  0.032648928           20 
 4438000   0.54411345   -5.1002206    1800.4767  0.033807959  0.032640314           20 
 4439000   0.54346495   -5.0840273    1802.9117  0.033846056  0.032631699           17 
 4440000   0.53664437   -5.0974029    1798.2839  0.033751574  0.032623108           26 
 4441000   0.54723154   -5.0932403    1801.2007  0.033798708  0.032614536            9 
 4442000   0.54027751   -5.1068408    1798.1268   0.03373343  0.032605916           21 
 4443000   0.54210834   -5.1107421    1799.5639  0.033752794  0.032597274           11 
 4444000   0.54623366   -5.0976763     1803.309  0.033815426  0.032588694           11 
 4445000   0.54072013   -5.1047207    1796.8239  0.033686237  0.032580086           15 
 4446000   0.53463112   -5.1237491    1798.5417  0.033710858  0.032571456           18 
 4447000   0.56056315   -5.0979019    1800.0165  0.033730914   0.03256283           11 
 4448000   0.54394912   -5.1010753    1804.1549  0.033800864  0.032554238           17 
 4449000   0.54704192   -5.1055587    1799.2254  0.033700933  0.032545626           39 
 4450000   0.53416763   -5.0892414    1798.4596  0.033679019  0.032537052           26 
 4451000   0.52972618   -5.0964483    1797.8256  0.033659581  0.032528435           14 
 4452000   0.53546819   -5.1086254    1802.1912  0.033733738  0.032519821           11 
 4453000   0.54556189    -5.113423    1800.0696  0.033686459  0.032511191           35 
 4454000   0.54131989   -5.0888361    1801.1187  0.033698523  0.032502557           39 
 4455000   0.54450639   -5.0796692     1798.662  0.033645005  0.032493959           27 
 4456000   0.53109443   -5.0959868    1801.5928  0.033692264  0.032485371           19 
 4457000   0.54646426   -5.1182083    1795.7651  0.033575744  0.032476796           18 
 4458000    0.5345231   -5.0870957    1801.6743  0.033678672  0.032468216           22 
 4459000   0.53291373   -5.1078906    1797.7804  0.033598349  0.032459644           12 
 4460000   0.53384685    -5.110661    1801.3471  0.033657456  0.032451079           55 
 4461000   0.53510607   -5.1025609    1804.2173  0.033703529  0.032442527           19 
 4462000   0.53764368   -5.1031186    1799.4613   0.03360715  0.032433969           17 
 4463000   0.54460056   -5.0881467    1802.5887  0.033658015  0.032425423           12 
 4464000   0.54606124   -5.0927203     1802.326  0.033645572  0.032416888           19 
 4465000   0.55250059   -5.0874872    1803.6879  0.033663455  0.032408369            9 
 4466000   0.53914259   -5.0935757    1802.8262  0.033639837  0.032399872           13 
 4467000   0.53803361   -5.0982089    1797.0176  0.033523945  0.032391335           20 
 4468000    0.5385853   -5.1081975     1803.417  0.033635798  0.032382805           27 
 4469000   0.54291834    -5.116757    1799.2858  0.033551239  0.032374287           13 
 4470000   0.53772833   -5.0889344     1799.876  0.033554736  0.032365758           45 
 4471000   0.52040861   -5.0982032    1800.0398  0.033550283  0.032357223           15 
 4472000   0.54134991   -5.1094089    1799.5502  0.033533658  0.032348691           38 
 4473000   0.53752177   -5.1128784    1800.8961  0.033551235  0.032340166           34 
 4474000   0.53427907   -5.0960373    1804.4034  0.033609064  0.032331666           22 
 4475000   0.54438115   -5.1180025    1800.8127  0.033534687  0.032323121           30 
 4476000   0.54926136   -5.1347875    1798.6305  0.033486567  0.032314565           13 
 4477000   0.54507244   -5.0991365    1799.9313    0.0335033  0.032306066           31 
 4478000   0.53021976   -5.1088899    1799.6389  0.033490377  0.032297512           20 
 4479000   0.53845369    -5.120528    1801.3192  0.033514163  0.032288978           25 
 4480000      0.53188   -5.0983712    1803.8556  0.033553861   0.03228043           30 
 4481000   0.53473343   -5.1106533    1797.0598  0.033419991  0.032271843           47 
 4482000   0.53863153    -5.131556     1799.911  0.033465548  0.032263291           43 
 4483000   0.54141336   -5.1198201    1796.2464  0.033389962    0.0322547           39 
 4484000   0.52282744   -5.1200405    1797.2603  0.033401359  0.032246132           47 
 4485000   0.53371285   -5.1141445    1797.3434  0.033395456  0.032237536           17 
 4486000   0.54432219   -5.1075577    1796.0942  0.033364805  0.032228955           44 
 4487000   0.54577027   -5.1273919    1799.0898  0.033413004  0.032220379           61 
 4488000   0.53470372   -5.1144058     1793.964  0.033310384  0.032211803           25 
 4489000   0.52424894   -5.1191867    1795.5417   0.03333225  0.032203217           26 
 4490000   0.53684265   -5.1347925    1796.6609  0.033345599   0.03219462           30 
 4491000   0.52492538   -5.1216174    1798.1194  0.033365238     0.032186           23 
 4492000    0.5393914   -5.1205879    1793.6234  0.033274403    0.0321774           37 
 4493000   0.53002578   -5.1255874    1794.8741  0.033290194  0.032168796           14 
 4494000   0.52427182   -5.1249486    1796.8964  0.033320287  0.032160185           15 
 4495000   0.52728083   -5.1154421    1795.8196   0.03329291   0.03215162           20 
 4496000   0.53538338   -5.1390544    1798.3909  0.033333165  0.032143061           28 
 4497000   0.53636168   -5.1245193    1801.7866  0.033388678  0.032134495           23 
 4498000   0.53023559   -5.1279266     1800.599  0.033359253  0.032125932           36 
 4499000   0.53462066   -5.1318355    1798.4084  0.033311261  0.032117365           13 
 4500000   0.53296773   -5.1485705    1795.5418  0.033250773  0.032108784           29 
 4501000   0.53998624   -5.1361008    1797.1359  0.033272901  0.032100203           21 
 4502000   0.52893221   -5.1286188    1797.1357  0.033265506  0.032091679           29 
 4503000   0.53323655   -5.1376142     1799.852  0.033308386  0.032083143           25 
 4504000   0.52722546   -5.1340449    1800.4554  0.033312156  0.032074609           16 
 4505000   0.53780272   -5.1084035    1798.9469  0.033276858  0.032066088           21 
 4506000   0.53568843   -5.1092183    1801.7092  0.033320557  0.032057556           13 
 4507000   0.53293175   -5.1164363    1798.8431  0.033260171  0.032049034           38 
 4508000   0.53602492   -5.1028245    1799.0306  0.033256259  0.032040533           16 
 4509000   0.53286078   -5.1227638    1800.5635  0.033277213  0.032032034           15 
 4510000   0.52724356   -5.1109388       1798.1  0.033224316  0.032023516           18 
 4511000   0.52429718   -5.1253719     1797.413  0.033204259  0.032014975           16 
 4512000   0.54068197   -5.1407335    1798.5303  0.033217536  0.032006453           21 
 4513000   0.52759621   -5.1225714    1800.4679  0.033245954  0.031997963           19 
 4514000   0.53708551   -5.1306747    1799.5649  0.033221919  0.031989459           15 
 4515000   0.53192003   -5.1234828    1796.7937  0.033163412  0.031980964           16 
 4516000   0.53324327   -5.1443397    1797.9964  0.033178262  0.031972465           21 
 4517000   0.52636797   -5.1122242    1799.2986  0.033194941  0.031963937           15 
 4518000   0.52511076   -5.1354272    1802.4662   0.03324602  0.031955429           28 
 4519000   0.53284067    -5.095214    1804.9932  0.033285262   0.03194694           21 
 4520000   0.52877293   -5.1279751    1803.6968  0.033253997  0.031938463           25 
 4521000   0.53974379    -5.109715    1799.7303  0.033173529  0.031929983           19 
 4522000   0.52390519   -5.1103157    1798.1207   0.03313653  0.031921513           22 
 4523000   0.52267884   -5.1107347    1802.4454  0.033208884  0.031913053           12 
 4524000   0.53159474   -5.1088468    1799.8073  0.033152948  0.031904591           21 
 4525000   0.52446262   -5.1217259    1801.8453  0.033183156   0.03189612           12 
 4526000   0.53338168   -5.1172375    1800.9883  0.033160043  0.031887639           24 
 4527000   0.53123561   -5.1349764    1798.8315  0.033113016  0.031879161           50 
 4528000   0.52165539   -5.1147651    1796.2635  0.033058443  0.031870654           18 
 4529000   0.51537908    -5.122998    1801.0427   0.03313908  0.031862181           16 
 4530000    0.5317653   -5.1241733    1796.4893  0.033048001  0.031853692           60 
 4531000   0.54044039   -5.1378299    1797.8805  0.033066294  0.031845205           32 
 4532000   0.52083606    -5.142746    1794.0302  0.032988199  0.031836715           27 
 4533000    0.5279819   -5.1215871    1797.3122  0.033041257  0.031828245           32 
 4534000   0.51577138   -5.1027644    1799.9149  0.033081805  0.031819783           12 
 4535000   0.51960278   -5.1216811    1801.3734  0.033101312  0.031811325           19 
 4536000   0.53095527   -5.1085182    1799.4526  0.033058726  0.031802869           21 
 4537000   0.52516795   -5.1224146    1801.4735   0.03308856  0.031794415           28 
 4538000   0.52813115   -5.1249209    1800.1392  0.033056765  0.031785972           17 
 4539000   0.52080439   -5.1131081    1796.6797  0.032985969  0.031777521           22 
 4540000   0.52695323   -5.1353827    1796.1105  0.032968255  0.031769076           20 
 4541000   0.53431976   -5.1337114    1801.8385  0.033066111  0.031760601           21 
 4542000   0.52543939   -5.1261185    1800.5196  0.033034632  0.031752135           14 
 4543000   0.52156059   -5.1230018     1799.756  0.033013354  0.031743668           30 
 4544000   0.52648121   -5.1284519    1798.7188  0.032987067  0.031735192           27 
 4545000   0.53249894   -5.1039322    1804.2406  0.033081052  0.031726737           20 
 4546000   0.53286433   -5.1213239    1793.8642  0.032883564  0.031718298           22 
 4547000   0.50444217   -5.1376209    1798.5711  0.032962596  0.031709846           19 
 4548000   0.51486786    -5.135737    1799.1893  0.032966676  0.031701378           26 
 4549000   0.52023961   -5.1387204    1792.4824  0.032836565  0.031692886           33 
 4550000   0.53800695   -5.1346284    1799.7574   0.03296259  0.031684425           27 
 4551000   0.51667513   -5.1433638      1798.42  0.032930858   0.03167594           14 
 4552000   0.51994595    -5.143687    1798.6303  0.032927472  0.031667478           32 
 4553000   0.51897649   -5.1379778    1797.8225  0.032905456  0.031659027           21 
 4554000   0.52054494   -5.1592429    1792.7392  0.032805211  0.031650552           49 
 4555000   0.52935072   -5.1405777    1796.6468  0.032869498  0.031642089           61 
 4556000   0.52196667   -5.1524672     1795.059  0.032833242  0.031633611           53 
 4557000   0.53031567   -5.1473695     1797.751  0.032875264  0.031625104           64 
 4558000   0.52273316    -5.146438    1795.1084  0.032819739  0.031616629           46 
 4559000   0.52780627   -5.1424619    1798.6293  0.032876898  0.031608149           55 
 4560000    0.5311232   -5.1467821    1796.3804  0.032828588  0.031599661           30 
 4561000   0.52125654   -5.1283631     1797.558  0.032842907   0.03159117           63 
 4562000   0.52646832   -5.1555278    1796.9348  0.032824324  0.031582676           31 
 4563000   0.52231017   -5.1571938    1797.8246  0.032833381  0.031574178           44 
 4564000   0.52531186   -5.1566401    1793.7928   0.03275257  0.031565696           74 
 4565000   0.51266127   -5.1617822    1796.9966  0.032803882  0.031557248           81 
 4566000   0.51655227   -5.1427838     1797.865  0.032812545  0.031548778           55 
 4567000   0.51889279   -5.1624398    1794.8188  0.032749778  0.031540292          103 
 4568000   0.51342391   -5.1802248    1792.9991  0.032709411  0.031531792           55 
 4569000   0.51616273   -5.1690416    1795.4848  0.032747589  0.031523317          101 
 4570000    0.5310858   -5.1642648    1794.5456  0.032723297  0.031514842           96 
 4571000   0.52634948   -5.1525686    1795.2396   0.03272879  0.031506406          160 
 4572000   0.51675171   -5.1606069     1796.788  0.032749853  0.031497955          156 
 4573000   0.52500599   -5.1594643    1797.0588  0.032747628  0.031489508          143 
 4574000   0.52622704   -5.1611698    1795.1484  0.032705662  0.031481069          139 
 4575000   0.51646961   -5.1585321    1797.3891  0.032739328  0.031472598          139 
 4576000   0.51820067   -5.1578155    1797.3583  0.032731613  0.031464107          173 
 4577000    0.5135041   -5.1530797    1796.8822  0.032715793  0.031455652          129 
 4578000   0.51992904   -5.1608967    1796.3313  0.032698618  0.031447225          112 
 4579000   0.51668834    -5.157551    1799.5387  0.032749849  0.031438826          134 
 4580000   0.51641885   -5.1694827    1796.0506  0.032679231  0.031430407          108 
 4581000   0.52323918     -5.15888    1798.0131  0.032707798  0.031421986          181 
 4582000   0.51368387   -5.1661157    1797.5423  0.032692098  0.031413593          196 
 4583000   0.50885251   -5.1577116    1799.3657   0.03271812  0.031405157          181 
 4584000   0.51788044   -5.1629976    1799.7003  0.032717065  0.031396742          169 
 4585000   0.52230022   -5.1686457    1797.3792  0.032667743  0.031388335          146 
 4586000   0.50675799   -5.1576356    1793.4132  0.032588553  0.031379939          169 
 4587000   0.52737002   -5.1444034    1796.3602  0.032634987  0.031371535          220 
 4588000   0.52919493   -5.1451739    1794.4869  0.032593849  0.031363113          108 
 4589000   0.50895982   -5.1414982    1796.9285  0.032631083  0.031354715          135 
 4590000   0.52267912   -5.1673584    1799.3015  0.032667057  0.031346293          116 
 4591000   0.52513085   -5.1648539    1797.1424  0.032620751  0.031337885          107 
 4592000   0.52926783   -5.1775891    1796.2603  0.032597639  0.031329459          139 
 4593000    0.5237147   -5.1628438    1797.6419  0.032615609  0.031321028           53 
 4594000   0.52376115   -5.1722089    1796.5689  0.032589045  0.031312626           79 
 4595000   0.53406859    -5.170816    1796.0926  0.032573315  0.031304186          207 
 4596000   0.51859879   -5.1840011    1795.3005  0.032551866  0.031295767          146 
 4597000   0.53008495   -5.1745162    1796.8691  0.032573219  0.031287343          135 
 4598000   0.51141443   -5.1603146    1800.0935  0.032624574  0.031278948          108 
 4599000   0.52381912   -5.1600369    1796.3257  0.032549208  0.031270565          108 
 4600000   0.51360873   -5.1568152      1800.88  0.032624638  0.031262192           74 
 4601000   0.51198402    -5.172098    1795.4243  0.032518734  0.031253805           88 
 4602000   0.52243962   -5.1517423    1795.3249  0.032509868    0.0312454          138 
 4603000   0.51557651    -5.168106    1792.2028  0.032446282  0.031237025           97 
 4604000   0.50789184   -5.1669748    1794.8803  0.032487697  0.031228638           62 
 4605000   0.50815843   -5.1597776    1796.7884  0.032515172   0.03122026           75 
 4606000   0.51592613   -5.1503579    1793.7331  0.032452835  0.031211897           78 
 4607000   0.51322762   -5.1505325    1800.1254  0.032561417  0.031203555           80 
 4608000   0.51336147   -5.1579321     1793.542  0.032435294   0.03119521          136 
 4609000   0.51992102   -5.1609196    1797.4348  0.032498641  0.031186838           71 
 4610000   0.51476109   -5.1694115    1800.1352  0.032540405  0.031178478           69 
 4611000   0.51635635   -5.1685465    1798.7005  0.032507418  0.031170081           74 
 4612000   0.51485168   -5.1601845    1797.3668  0.032476273  0.031161737           77 
 4613000   0.50561394   -5.1748761    1798.3713  0.032487378  0.031153414           60 
 4614000   0.49607125   -5.1736372    1795.6695   0.03243154  0.031145056           59 
 4615000   0.50556381   -5.1542118    1798.3968   0.03247376  0.031136686           57 
 4616000   0.51139341   -5.1439804    1796.6273  0.032434779  0.031128322           58 
 4617000   0.51471841   -5.1694096    1796.6672  0.032428475  0.031119982           67 
 4618000   0.50950224   -5.1555339    1799.2434  0.032467941  0.031111625           74 
 4619000   0.51621551   -5.1631915      1797.15  0.032423143  0.031103282           87 
 4620000   0.49948305   -5.1660123    1799.2702  0.032454368  0.031094935           72 
 4621000   0.50840403   -5.1628292    1799.1491  0.032445162  0.031086617           52 
 4622000   0.50968272   -5.1488307    1796.6908  0.032393819  0.031078287           60 
 4623000   0.51691361   -5.1472811    1801.3927  0.032471568  0.031069974           35 
 4624000   0.51300969   -5.1715165    1799.5767  0.032431817  0.031061665           67 
 4625000   0.50707009   -5.1688612    1798.4347  0.032404229   0.03105336           43 
 4626000   0.49311832   -5.1555084    1798.8914  0.032405452  0.031045064           57 
 4627000   0.50922974   -5.1354653    1796.8836  0.032362287  0.031036767           46 
 4628000   0.50737674   -5.1498659     1799.191  0.032396841  0.031028468           34 
 4629000   0.51676269   -5.1717369      1798.35  0.032374703   0.03102016           31 
 4630000   0.49881234   -5.1646839    1797.5739  0.032353742  0.031011858           28 
 4631000   0.50752595    -5.165475    1801.5298   0.03241794  0.031003575           48 
 4632000   0.51361666   -5.1590282     1794.612  0.032286485  0.030995315           67 
 4633000   0.50658218   -5.1608438    1799.3623   0.03236496  0.030987033           56 
 4634000   0.50819625   -5.1572036    1799.3467  0.032357695  0.030978761           67 
 4635000   0.51261994   -5.1616021     1799.524  0.032353902  0.030970487           69 
 4636000    0.5050906   -5.1681635    1798.4074  0.032326851  0.030962216           60 
 4637000   0.52014396   -5.1782413    1795.6363   0.03227008  0.030953918           96 
 4638000    0.5017936   -5.1761544    1795.7835  0.032265767  0.030945606          118 
 4639000   0.51796775   -5.1794198    1796.2675  0.032267506  0.030937286           92 
 4640000    0.5140257   -5.1812648    1795.6835  0.032250064  0.030928966          114 
 4641000   0.50942227   -5.1560738    1796.7714  0.032262648  0.030920647           46 
 4642000   0.49829306   -5.1759477     1797.734  0.032272978  0.030912351           59 
 4643000   0.51035764   -5.1806937    1796.6791  0.032247094  0.030904064           42 
 4644000   0.50515742   -5.1720394    1799.6124  0.032292787  0.030895782           37 
 4645000   0.50860505   -5.1688309    1797.5898  0.032249548  0.030887506           44 
 4646000   0.51739437   -5.1827185    1797.6048  0.032242876  0.030879237           56 
 4647000   0.51588617   -5.1533273     1799.934  0.032277706  0.030870968           43 
 4648000    0.5105779   -5.1626677    1796.1991    0.0322038  0.030862691           50 
 4649000   0.51484101   -5.1505194     1797.088  0.032212805  0.030854425           41 
 4650000    0.5035604   -5.1612013    1797.7438  0.032217631  0.030846182           42 
 4651000   0.51291949   -5.1610002    1801.5388  0.032278699  0.030837928           28 
 4652000   0.50666591   -5.1651266    1800.9755  0.032261671  0.030829648           73 
 4653000   0.50934072   -5.1668051    1799.4928  0.032228182  0.030821397           27 
 4654000   0.50904313   -5.1666872    1795.4069  0.032148096   0.03081314           20 
 4655000   0.50130306    -5.166566    1798.4535   0.03219573  0.030804877           47 
 4656000   0.51209077   -5.1626068    1797.4062  0.032170071  0.030796643           19 
 4657000   0.51146114   -5.1690121    1796.3217  0.032143756  0.030788393           41 
 4658000   0.50960588   -5.1815537    1795.0184  0.032113539  0.030780122           34 
 4659000   0.50652236   -5.1770171    1799.8613  0.032193269  0.030771872           40 
 4660000   0.50782645   -5.1503149    1798.4559  0.032161228  0.030763626           34 
 4661000   0.50262464   -5.1765237    1796.9769  0.032127885  0.030755374           66 
 4662000   0.51220726   -5.1623736    1799.2034  0.032160793  0.030747124           63 
 4663000   0.50343011   -5.1666933    1799.4514  0.032158328  0.030738859           39 
 4664000   0.50676327   -5.1719548    1794.6529  0.032065697  0.030730605           22 
 4665000   0.51331084   -5.1883704    1798.7777  0.032132507  0.030722355           44 
 4666000   0.50595923   -5.1854094    1793.7761  0.032036293  0.030714101           13 
 4667000   0.50489538   -5.1849831    1796.7693  0.032082874  0.030705863           26 
 4668000   0.49599561   -5.1678676    1798.2648    0.0321027  0.030697642           17 
 4669000   0.50503146   -5.1824195    1793.5935  0.032012449  0.030689395            7 
 4670000   0.51165444   -5.1994192    1796.9837   0.03206609  0.030681164            7 
 4671000    0.5105836    -5.171432    1796.3444   0.03204782  0.030672917            7 
 4672000   0.51256006   -5.1781293    1801.8602  0.032139344  0.030664719           10 
 4673000   0.51752846   -5.1677285    1802.2911  0.032140151  0.030656522           14 
 4674000   0.50293438   -5.1677879    1799.3562  0.032080948  0.030648319           24 
 4675000   0.50098711   -5.1623706    1797.5687  0.032042223  0.030640116           21 
 4676000   0.50276776   -5.1676811    1797.3084  0.032030732  0.030631904           22 
 4677000   0.50544265   -5.1757457    1799.7218  0.032066884  0.030623673           32 
 4678000   0.50086635   -5.1717489    1793.3423  0.031946386  0.030615445           33 
 4679000   0.50644791   -5.1737249    1800.4271  0.032065739  0.030607221           52 
 4680000   0.51702745   -5.2054279    1795.0104  0.031962435  0.030598999           39 
 4681000    0.4997826   -5.1824916    1794.9229  0.031954051  0.030590763           19 
 4682000   0.50781384   -5.1726649    1795.7537  0.031962012  0.030582511           17 
 4683000   0.48600856    -5.181727     1798.481  0.032003719  0.030574263           27 
 4684000   0.50653726   -5.1872003    1790.8479  0.031861085  0.030566014           13 
 4685000   0.50033178   -5.1814458    1796.3683  0.031952478  0.030557756           18 
 4686000   0.49260531   -5.1949619    1794.9424  0.031920301  0.030549508           30 
 4687000   0.50164469   -5.1801031    1796.1689  0.031935299  0.030541279           30 
 4688000   0.49357785   -5.1712665    1795.7663  0.031921328   0.03053307           28 
 4689000   0.49010469   -5.1994118    1796.7172  0.031931422   0.03052485           55 
 4690000   0.51060917   -5.1715626    1794.1621  0.031879213  0.030516609           46 
 4691000   0.50288707   -5.1900413    1793.3283  0.031857606  0.030508395           20 
 4692000   0.49961137   -5.1939896    1795.6425  0.031891918  0.030500163           15 
 4693000   0.51140877   -5.1904759    1795.1702  0.031876734  0.030491915           26 
 4694000   0.50212191   -5.1944343    1795.0339  0.031867524  0.030483671           14 
 4695000   0.51137645   -5.1977951     1791.797  0.031803284  0.030475422           22 
 4696000   0.49856369   -5.1694258    1794.8929   0.03185145  0.030467199           16 
 4697000   0.48943735   -5.1847831    1797.5067  0.031891042  0.030458998           23 
 4698000   0.50524821   -5.1868006    1793.5025  0.031813228  0.030450804           13 
 4699000     0.502595   -5.1938089    1796.0991  0.031852505  0.030442604           19 
 4700000   0.49687031   -5.1830047    1800.0629  0.031916008  0.030434435           41 
 4701000   0.50506121   -5.1715822    1797.4456  0.031862824  0.030426262           58 
 4702000   0.49381354   -5.1797023    1795.1117  0.031814683  0.030418087           22 
 4703000   0.49304082   -5.1887018    1794.5657  0.031798244  0.030409901           14 
 4704000   0.49188782   -5.1854933    1794.8704  0.031796882  0.030401701           48 
 4705000   0.49023887    -5.174835    1796.9581    0.0318271  0.030393532           36 
 4706000   0.49935078   -5.1682893    1795.3841  0.031792465  0.030385375           19 
 4707000   0.50072834   -5.1942101    1794.8267  0.031775843  0.030377205           41 
 4708000    0.4979548   -5.1852823    1799.8756  0.031858462  0.030369038           41 
 4709000   0.49485581   -5.2057096    1796.1711  0.031786139  0.030360877           33 
 4710000   0.49477838   -5.1737653    1800.0014  0.031847159  0.030352704           29 
 4711000   0.49969677   -5.1891611    1795.5477  0.031761616  0.030344524           36 
 4712000   0.49685222   -5.2070719    1794.3503  0.031733699  0.030336328           32 
 4713000   0.50382826   -5.1884523    1791.2739  0.031672571  0.030328141           18 
 4714000    0.4972682   -5.1932525    1795.3951  0.031738706  0.030319937           24 
 4715000   0.50895293   -5.1729873    1792.9913   0.03168949  0.030311741           21 
 4716000    0.5026877   -5.1905425    1796.9248  0.031752277  0.030303576           35 
 4717000   0.50473659   -5.1939889    1796.5099  0.031738215  0.030295373           24 
 4718000   0.50681233   -5.2070656    1792.5589  0.031661701  0.030287188           33 
 4719000   0.49723791   -5.1923888    1793.8114   0.03167711  0.030278979           44 
 4720000   0.49973774   -5.1996561     1792.772  0.031652048  0.030270784           39 
 4721000    0.5035024   -5.1906964    1794.8584  0.031682173  0.030262606           56 
 4722000   0.49080444    -5.196963    1796.4857  0.031704181   0.03025441           41 
 4723000   0.50917603   -5.1990405    1793.4337  0.031643618  0.030246219           33 
 4724000   0.48930573   -5.1983613    1793.4267  0.031636796  0.030238001           40 
 4725000   0.49865374   -5.2087682     1791.036  0.031587937  0.030229807           23 
 4726000   0.49590775   -5.2044532    1791.1467  0.031583205  0.030221594           27 
 4727000   0.49942323   -5.2123319    1795.0801  0.031645865   0.03021338           68 
 4728000   0.49252104   -5.2060478    1795.0973  0.031639476  0.030205167           34 
 4729000   0.49881727   -5.1971654    1791.7875  0.031574461  0.030196976           91 
 4730000   0.48342171   -5.2014549    1793.7879  0.031603029  0.030188773           68 
 4731000   0.49309346   -5.2013431    1793.0173  0.031582775  0.030180572           41 
 4732000   0.49736267   -5.1817531    1795.5072   0.03161995  0.030172396           28 
 4733000   0.49222914   -5.2142267    1792.8459  0.031566411  0.030164219           35 
 4734000   0.49858129   -5.1872376    1794.1483  0.031582669  0.030156042           43 
 4735000   0.50167218   -5.1932937    1791.9185  0.031536757  0.030147852           32 
 4736000   0.50269251   -5.1979935    1793.5719  0.031559191  0.030139649           44 
 4737000   0.50168792   -5.1921536    1795.3148  0.031583189  0.030131466           54 
 4738000   0.49323329   -5.1913655    1798.4245  0.031631218  0.030123296           29 
 4739000   0.50800081    -5.185506    1793.4581  0.031537211  0.030115151           50 
 4740000   0.48611758   -5.2291114    1791.6312  0.031498438  0.030106967           17 
 4741000   0.49607555   -5.2172347    1793.7913  0.031529763  0.030098772           61 
 4742000   0.48570995   -5.2118319    1791.1723  0.031477089  0.030090594           36 
 4743000   0.49610707   -5.2110932    1789.5221  0.031441459  0.030082405           76 
 4744000   0.48920723   -5.2254533    1790.1191  0.031445319  0.030074202           20 
 4745000    0.4857505   -5.2222364    1791.5093  0.031463107  0.030065998           53 
 4746000   0.48647395   -5.2201969    1791.2493  0.031451912  0.030057802           86 
 4747000   0.49001356   -5.2129457     1793.437  0.031483691    0.0300496           23 
 4748000     0.503304   -5.2215938       1790.5  0.031425513  0.030041402           32 
 4749000   0.49450151   -5.2295699    1789.8031  0.031406666  0.030033208           34 
 4750000   0.48522823   -5.2100125    1795.2426  0.031495483  0.030025019           52 
 4751000   0.48544604   -5.2174849    1788.7547  0.031375057  0.030016835           69 
 4752000   0.49351558   -5.2136577    1789.7244  0.031385459  0.030008674           31 
 4753000   0.49970761   -5.2236533    1790.3467  0.031389765  0.030000485           45 
 4754000   0.48341076   -5.2203616    1792.3647  0.031418538  0.029992282           43 
 4755000   0.48546403   -5.2186836     1793.103  0.031424868  0.029984111           48 
 4756000   0.49178631   -5.2074944    1791.5302  0.031390704   0.02997593           39 
 4757000   0.48491096   -5.2155879    1791.9388  0.031391263  0.029967756           45 
 4758000   0.49836883   -5.2175611    1793.1163  0.031405287  0.029959577           40 
 4759000   0.49082205   -5.2301885    1788.2167  0.031312893  0.029951398           54 
 4760000   0.48860915   -5.2335442    1792.8817  0.031387985   0.02994321           87 
 4761000   0.48612247   -5.2237668    1791.0347  0.031349063  0.029935022           53 
 4762000   0.48421168   -5.2152029    1792.7904  0.031373204  0.029926871           57 
 4763000   0.49100267   -5.2087229    1788.4767  0.031291144  0.029918723           38 
 4764000   0.48908401   -5.2033492    1788.6541   0.03128768  0.029910596           39 
 4765000   0.48734952   -5.2109712    1789.8806  0.031302563  0.029902454           41 
 4766000   0.48445758   -5.2200211    1789.6584   0.03129211  0.029894303           74 
 4767000   0.48129262   -5.2096824    1793.8001  0.031357949  0.029886149           41 
 4768000   0.48693206   -5.2211418    1789.3536  0.031273657  0.029877993           63 
 4769000   0.48547011   -5.2177967    1791.8003  0.031309854  0.029869856           68 
 4770000   0.50422686   -5.2175303    1791.6043  0.031299865  0.029861734           63 
 4771000    0.4797569   -5.2219163    1790.6767  0.031277103  0.029853606           61 
 4772000   0.49419478   -5.2105914    1793.5941  0.031321495  0.029845485          118 
 4773000   0.48314283   -5.2204209    1787.6911  0.031211871  0.029837343          107 
 4774000   0.48338772   -5.2154599    1788.3948  0.031217617  0.029829192           85 
 4775000   0.48437314   -5.2204482    1793.6608  0.031302981  0.029821047           74 
 4776000   0.48893304   -5.2129665    1790.5969  0.031242967  0.029812908          122 
 4777000   0.48691779   -5.2194862    1793.1035  0.031280154  0.029804792          135 
 4778000   0.49640095   -5.2114991    1793.0317  0.031272354  0.029796687           48 
 4779000   0.48327781    -5.226282    1792.3179  0.031253363  0.029788587           79 
 4780000   0.49855835   -5.2136853    1793.4262  0.031266148   0.02978048           47 
 4781000   0.49340898   -5.2084475    1792.4066  0.031241835  0.029772379           38 
 4782000   0.48733234   -5.2279283    1790.7691  0.031206766  0.029764294           14 
 4783000   0.48048106   -5.2135416    1791.9599  0.031220989   0.02975619           15 
 4784000   0.48829725   -5.2278678    1787.8743  0.031143296  0.029748085           75 
 4785000   0.47941357   -5.2269389    1790.6385  0.031184927  0.029739968           99 
 4786000   0.47901364   -5.2315596    1788.7425  0.031145398  0.029731871          110 
 4787000   0.47809379   -5.2230497    1791.7645    0.0311915  0.029723759           84 
 4788000   0.48659069   -5.2076483    1792.5167  0.031198077  0.029715681           56 
 4789000   0.48361056   -5.2232974     1793.707  0.031212275  0.029707596           38 
 4790000   0.48863726   -5.2273401    1787.4127  0.031096254  0.029699518           50 
 4791000   0.49040884   -5.2199058    1793.1896  0.031190246  0.029691455           29 
 4792000   0.50033248   -5.2259974     1788.509  0.031102342  0.029683386           47 
 4793000   0.49032566   -5.2271917    1789.8901  0.031119864  0.029675312           43 
 4794000    0.4872426   -5.2328924    1794.8856  0.031200209  0.029667256           67 
 4795000   0.47453463   -5.2201303    1791.8583  0.031141089  0.029659205           85 
 4796000   0.48753325   -5.2120601    1794.5748  0.031181798  0.029651174           37 
 4797000   0.48132112    -5.222043    1795.4998  0.031191367  0.029643144           37 
 4798000     0.484973   -5.2238438    1791.6126  0.031117351  0.029635123           81 
 4799000   0.48089165   -5.2126531    1797.8145  0.031218561  0.029627084           55 
 4800000   0.48767901   -5.2206967    1790.5281  0.031085558   0.02961905           70 
 4801000   0.49188505   -5.2257737    1796.1862  0.031177294  0.029610999           68 
 4802000   0.48527555   -5.2230818    1793.8003  0.031129397  0.029602942           51 
 4803000   0.47780308   -5.2119926    1794.5405  0.031135757  0.029594898           40 
 4804000   0.47934493   -5.2075559    1794.4132  0.031127068  0.029586881           37 
 4805000   0.48766606   -5.2218955    1792.4852  0.031087153  0.029578845          110 
 4806000   0.47993575   -5.2246944     1790.236  0.031041685  0.029570789           39 
 4807000    0.4838696   -5.2371391     1792.784  0.031079397  0.029562746           38 
 4808000   0.48219521   -5.2373992    1791.1599  0.031044785  0.029554692           60 
 4809000   0.47524483   -5.2329018    1793.4763  0.031078469  0.029546626           70 
 4810000   0.47725194   -5.2128986     1791.066  0.031030249  0.029538571           58 
 4811000   0.47729111   -5.2353842     1792.402  0.031046941  0.029530539           80 
 4812000   0.46630935   -5.2288476     1790.168  0.031001801  0.029522486           62 
 4813000   0.48022414    -5.221663    1787.0412  0.030941222  0.029514425           71 
 4814000   0.48201434   -5.2390068    1788.1487  0.030953965  0.029506354           63 
 4815000   0.48728821   -5.2219282     1791.613  0.031007495  0.029498291           82 
 4816000   0.46879804   -5.2434623    1792.3613  0.031014004  0.029490241           66 
 4817000   0.48524476   -5.2204338    1791.4299  0.030991452  0.029482204           66 
 4818000    0.4691185   -5.2210387    1788.1602  0.030928466  0.029474184           58 
 4819000   0.48440548   -5.2306554    1795.7726  0.031053687  0.029466151           55 
 4820000   0.46846914   -5.2334291    1792.5535  0.030991589  0.029458117           43 
 4821000   0.48354925   -5.2223668     1795.882  0.031042695  0.029450094           41 
 4822000   0.48303899   -5.2263638    1794.8546  0.031018503  0.029442082           43 
 4823000    0.4828602   -5.2292093    1789.8329  0.030925303  0.029434047           53 
 4824000   0.48034331   -5.2426625    1789.5177  0.030913449  0.029426009          130 
 4825000    0.4846247   -5.2358229    1790.2572  0.030919813  0.029417973          108 
 4826000   0.48176404   -5.2390803     1788.218  0.030878195  0.029409931           70 
 4827000    0.4822787   -5.2381772    1790.3321  0.030908295  0.029401882           77 
 4828000   0.46965246   -5.2387316    1790.2321  0.030900167  0.029393838           34 
 4829000   0.48560347   -5.2510733    1789.3477  0.030878507  0.029385786           38 
 4830000   0.47929545   -5.2424605    1789.4609  0.030874067   0.02937775           48 
 4831000    0.4797372   -5.2534762    1786.7634  0.030821144  0.029369727           28 
 4832000   0.47703035   -5.2406477    1789.5753   0.03086326  0.029361691           26 
 4833000   0.48187634   -5.2409436    1791.6586  0.030892797  0.029353665           37 
 4834000   0.47994969   -5.2457528    1788.2415  0.030827498  0.029345643           21 
 4835000   0.46849444   -5.2390341    1790.4301  0.030858843  0.029337612           34 
 4836000   0.47090219   -5.2467263     1789.111  0.030829731  0.029329599           54 
 4837000   0.47871475   -5.2288172    1791.8458  0.030870474  0.029321606           46 
 4838000   0.46919496    -5.244698    1789.1093  0.030816958  0.029313602           47 
 4839000   0.47553917   -5.2545046    1791.6826  0.030854905  0.029305591          100 
 4840000   0.47577165   -5.2433974    1785.8881  0.030748762  0.029297572           57 
 4841000   0.47812591    -5.265755    1787.6465  0.030772679  0.029289542           24 
 4842000   0.48427923   -5.2488693     1789.656  0.030800909  0.029281505           68 
 4843000    0.4834802    -5.252901    1785.7767  0.030727798  0.029273473           48 
 4844000   0.48023694   -5.2494422    1792.9241  0.030844414  0.029265433           61 
 4845000   0.47180929   -5.2366074    1787.7759    0.0307495  0.029257402           57 
 4846000   0.47296596   -5.2651149    1792.6517     0.030827  0.029249376           49 
 4847000   0.47410002    -5.256001     1787.211  0.030727099  0.029241371           61 
 4848000   0.46644597   -5.2510737    1785.8917  0.030698083  0.029233372           67 
 4849000   0.46538342   -5.2465347    1790.2438  0.030766547  0.029225349           51 
 4850000   0.48028373   -5.2318406    1791.7855  0.030786693   0.02921735           53 
 4851000   0.47049813   -5.2419388    1789.9321  0.030748506  0.029209346           84 
 4852000   0.47729941   -5.2322995    1789.0829  0.030727585  0.029201332           54 
 4853000   0.47756622   -5.2514205     1789.391  0.030726543  0.029193327           32 
 4854000   0.48197816   -5.2468407    1791.3458  0.030753774   0.02918533           78 
 4855000   0.47373205   -5.2415248    1790.3483  0.030730318  0.029177339           60 
 4856000   0.47485493   -5.2448821    1789.5348  0.030710028  0.029169344           35 
 4857000   0.48673161   -5.2460332    1791.2802  0.030733652  0.029161352          108 
 4858000   0.48117111   -5.2618122    1788.1875  0.030674275  0.029153362          102 
 4859000   0.47912604   -5.2630862     1786.592  0.030640599  0.029145368           62 
 4860000   0.47792462   -5.2413165    1787.0554  0.030642239   0.02913738           74 
 4861000   0.47789929   -5.2463342    1789.0238  0.030669681  0.029129403          139 
 4862000   0.47753604   -5.2425486    1788.4203  0.030653028  0.029121431          113 
 4863000   0.47270973    -5.246082    1790.4441  0.030681406  0.029113458          135 
 4864000   0.47000528   -5.2458344    1788.3509  0.030639236  0.029105473          122 
 4865000   0.46889425   -5.2613625    1788.0093  0.030627087  0.029097473          121 
 4866000   0.46937902   -5.2544989    1787.9451  0.030619693  0.029089482           73 
 4867000   0.46539213   -5.2520276    1783.5581  0.030538287  0.029081504          123 
 4868000   0.48124651   -5.2571548    1787.9879  0.030607845  0.029073516           62 
 4869000   0.46899687   -5.2635505    1789.5277  0.030627913  0.029065548          105 
 4870000    0.4711977   -5.2742844    1788.0669  0.030596627  0.029057558          127 
 4871000   0.46920026    -5.261557     1788.777  0.030602494  0.029049576           71 
 4872000   0.46381953   -5.2636362    1787.0736  0.030567076  0.029041581           99 
 4873000   0.46421347   -5.2710818    1787.1161  0.030561531  0.029033597           52 
 4874000   0.47657165   -5.2393953    1789.6913  0.030599291  0.029025631          113 
 4875000   0.47461921   -5.2622502    1789.2449  0.030585382  0.029017677           52 
 4876000    0.4666148    -5.259666    1788.0033  0.030557891  0.029009714           54 
 4877000   0.47759869   -5.2452137    1788.4703  0.030559604  0.029001757           50 
 4878000   0.48307324    -5.231282    1788.6094  0.030555716   0.02899383           30 
 4879000   0.46538303   -5.2475833    1788.5325  0.030548141  0.028985896           49 
 4880000   0.47623383   -5.2568304    1787.2602  0.030520154  0.028977946           76 
 4881000   0.46454574   -5.2659212     1785.543  0.030484584  0.028970015           84 
 4882000   0.47067595   -5.2358179    1790.8064  0.030568182  0.028962076           82 
 4883000   0.46022697   -5.2594886    1787.5084  0.030505638  0.028954142           94 
 4884000   0.48695836   -5.2496786    1791.8096  0.030572782  0.028946206          111 
 4885000   0.46994664   -5.2419441    1787.5184   0.03049332  0.028938263          126 
 4886000   0.47283709   -5.2717816    1787.3378  0.030483998  0.028930322          106 
 4887000   0.46453076   -5.2631375    1789.2502  0.030510371  0.028922376           90 
 4888000   0.46558367    -5.269516    1785.5007  0.030440206  0.028914407          103 
 4889000    0.4653496   -5.2665673    1783.5489   0.03040071  0.028906436          105 
 4890000    0.4661087   -5.2537654    1787.7228  0.030465623   0.02889848           56 
 4891000   0.47350087   -5.2530701    1785.6239  0.030423633   0.02889055           62 
 4892000   0.46747244   -5.2530319    1784.7122  0.030401884  0.028882614          141 
 4893000   0.46965342    -5.262609    1784.5126  0.030392271  0.028874671           54 
 4894000    0.4648914   -5.2644592    1785.8254  0.030408415   0.02886674           84 
 4895000   0.47369358   -5.2436721    1785.3443  0.030394013  0.028858804           62 
 4896000   0.46379842   -5.2466109    1789.6091  0.030460394  0.028850869          133 
 4897000   0.46897085   -5.2831853    1786.6096  0.030403132  0.028842929           96 
 4898000   0.46847722   -5.2652553     1785.065  0.030370645  0.028834977          142 
 4899000   0.47539915   -5.2553706    1783.0875  0.030330807  0.028827045           91 
 4900000   0.47097309   -5.2650818    1786.7381  0.030386703  0.028819102           91 
 4901000   0.47412249   -5.2689035    1786.6001  0.030378156  0.028811168          164 
 4902000   0.46592095   -5.2786293    1785.8726  0.030359592  0.028803227          108 
 4903000   0.47033724   -5.2821241    1785.3394  0.030344338  0.028795284          115 
 4904000   0.46507709   -5.2608111    1785.8735  0.030347225  0.028787366           81 
 4905000   0.46410696   -5.2685555     1785.385  0.030332739  0.028779439          129 
 4906000   0.47365265   -5.2815998    1787.2649  0.030358488  0.028771536           63 
 4907000   0.46944968   -5.2610683    1786.5259  0.030339751  0.028763606          253 
 4908000   0.47548093   -5.2729335    1784.5682   0.03030033  0.028755697           62 
 4909000   0.46391609   -5.2792629     1789.425  0.030376603  0.028747803          150 
 4910000   0.46400593   -5.2909865    1784.3302  0.030283947  0.028739878          154 
 4911000   0.47735773   -5.2843948    1785.7827  0.030302428  0.028731964          135 
 4912000   0.47048465   -5.2863985    1785.7797  0.030296209  0.028724045          111 
 4913000   0.46983667   -5.2809739    1788.6284  0.030338361  0.028716122          187 
 4914000   0.46867515   -5.2880738     1784.717  0.030265855  0.028708197           82 
 4915000   0.46171107   -5.2899732    1787.6167  0.030308863  0.028700284          217 
 4916000   0.48175462   -5.2936034    1783.6379   0.03023525  0.028692363          202 
 4917000   0.47734015   -5.2918395    1785.6739  0.030263607  0.028684442          228 
 4918000   0.45812869   -5.2736781    1787.7238  0.030292188  0.028676525          195 
 4919000   0.45945844   -5.2724716    1780.6033  0.030165402  0.028668599          259 
 4920000   0.48183682   -5.2821665    1787.1946  0.030270911  0.028660684          285 
 4921000   0.46801658   -5.2756575    1784.2831  0.030215456  0.028652775          276 
 4922000     0.465116   -5.2857259     1782.279  0.030175387  0.028644868          186 
 4923000   0.47023455   -5.2743497    1785.2292  0.030219195  0.028636971          154 
 4924000   0.46124317   -5.2888314    1787.7837  0.030256291  0.028629102          245 
 4925000   0.47588283   -5.2722441    1788.5153  0.030262527  0.028621229          164 
 4926000   0.47111444   -5.2654872    1786.9664   0.03023018  0.028613362          215 
 4927000   0.47184563   -5.2515374    1787.7326  0.030237004    0.0286055          108 
 4928000   0.46984624   -5.2654641    1789.3552  0.030258305  0.028597643          142 
 4929000   0.46373079   -5.2731853    1782.6665  0.030139083  0.028589776          114 
 4930000   0.45217822    -5.280966    1789.0928  0.030241595  0.028581927           95 
 4931000   0.45904006   -5.2777601    1789.7732  0.030246961  0.028574077          201 
 4932000   0.45819679   -5.2752387     1785.731  0.030172529  0.028566218          207 
 4933000   0.46214043    -5.273913    1783.7378  0.030132742  0.028558347          221 
 4934000   0.45761518   -5.2774885     1784.111  0.030132938  0.028550478          198 
 4935000   0.47039239   -5.2834366    1786.5535  0.030168077  0.028542609          157 
 4936000   0.45525466   -5.2585225    1789.5719  0.030212923  0.028534765          176 
 4937000   0.47378239   -5.2887718    1784.8187  0.030126574  0.028526912          203 
 4938000   0.45747886   -5.2791933    1785.3832  0.030129999  0.028519042          119 
 4939000   0.45460011    -5.286154    1787.9588  0.030167355  0.028511191          135 
 4940000   0.46110219    -5.292435    1786.2965  0.030133206  0.028503337           93 
 4941000   0.47262301   -5.2762495    1785.1086  0.030107073  0.028495494          205 
 4942000   0.46790107   -5.2804068    1787.1292  0.030135053  0.028487642          278 
 4943000   0.45404296   -5.2963029    1784.2243  0.030079983    0.0284798          144 
 4944000   0.46031827   -5.2760742    1783.0263  0.030053707  0.028471949          131 
 4945000    0.4623869   -5.2955862    1784.0691  0.030065202  0.028464116          146 
 4946000   0.44810832   -5.2821633     1784.999   0.03007479  0.028456273          160 
 4947000   0.46785301   -5.2803948    1784.4912  0.030060158   0.02844843          140 
 4948000   0.45552188   -5.2849955    1785.3987  0.030069366   0.02844059          256 
 4949000   0.46182626   -5.2916062    1781.0864  0.029990679  0.028432755          235 
 4950000   0.46704366   -5.2854017    1782.8627  0.030014524  0.028424936          182 
 4951000   0.45437588   -5.2723356    1787.5149  0.030086765  0.028417124          271 
 4952000    0.4687492   -5.2872882    1787.4601  0.030079767  0.028409304          360 
 4953000   0.45579913   -5.2815956    1785.9538  0.030048351  0.028401491          360 
 4954000   0.46285671   -5.2890385    1785.3821  0.030032669  0.028393671          446 
 4955000    0.4596623   -5.2803668     1785.368   0.03002637  0.028385868          466 
 4956000   0.45835374   -5.2871495    1785.9648  0.030030347  0.028378069          255 
 4957000   0.45361793   -5.2842193    1787.9763  0.030058105  0.028370275          238 
 4958000   0.46178645   -5.2874494    1784.3339  0.029990822  0.028362476          244 
 4959000    0.4575007   -5.2869224    1786.2546  0.030017049  0.028354684          264 
 4960000   0.45573819   -5.2959877    1785.3492  0.029995787  0.028346871          361 
 4961000   0.46164734   -5.2837927    1785.4152  0.029990849  0.028339062          560 
 4962000   0.46133862    -5.293889    1785.2212  0.029981546  0.028331252          255 
 4963000   0.45894358   -5.2926934     1785.295  0.029976745  0.028323443          464 
 4964000   0.45339641   -5.2871945    1785.1584  0.029968412  0.028315648          299 
 4965000   0.45939661   -5.2968434    1784.2408  0.029946976  0.028307845          418 
 4966000   0.47068389   -5.2764628    1784.6122  0.029947177  0.028300054          407 
 4967000   0.45677982   -5.2824695    1786.7549  0.029977097  0.028292275          424 
 4968000    0.4538652   -5.2971014    1789.3731  0.030014982  0.028284509          541 
 4969000   0.45926163   -5.3051733    1783.9429  0.029917872  0.028276725          545 
 4970000   0.45289958   -5.2956916    1783.4167   0.02990303  0.028268926          521 
 4971000   0.45326769   -5.2925524    1783.4785  0.029898051  0.028261142          497 
 4972000   0.44679039   -5.2897382    1784.3311  0.029906326   0.02825335          596 
 4973000   0.47357415   -5.2906306    1782.4756  0.029869221  0.028245554          596 
 4974000    0.4427047   -5.2964681    1782.1354  0.029857516  0.028237755          531 
 4975000   0.45126408   -5.2915249    1782.4806  0.029857297  0.028229953          550 
 4976000   0.46402901   -5.2882318    1780.4641  0.029817526  0.028222153          583 
 4977000   0.45304916   -5.2753461    1781.3252  0.029825954  0.028214346          596 
 4978000   0.45031942   -5.3029829    1780.4221  0.029804844  0.028206534          588 
 4979000   0.45553973   -5.3034397    1783.4798  0.029850034  0.028198725          553 
 4980000   0.46078026   -5.2847482    1784.4113  0.029859627  0.028190936          561 
 4981000   0.45109192   -5.2848816    1785.1686  0.029866302  0.028183155          605 
 4982000   0.46024549   -5.2891241    1779.2795  0.029761801  0.028175377          664 
 4983000   0.45584173   -5.2893603    1781.7299  0.029796808  0.028167585          726 
 4984000   0.45203541    -5.300904     1778.626  0.029738931  0.028159805          602 
 4985000   0.45478815   -5.3161817    1778.6718  0.029733732  0.028152015          707 
 4986000   0.44184195   -5.3072563    1783.4518  0.029807658  0.028144236          707 
 4987000   0.45429745   -5.3034076    1782.1803  0.029780433  0.028136437          740 
 4988000   0.45436465     -5.31361    1784.8617  0.029819261  0.028128638          700 
 4989000   0.45762848   -5.3079715    1781.6277  0.029759265  0.028120843          779 
 4990000   0.45077888   -5.3096785    1780.0971   0.02972774  0.028113044          709 
 4991000    0.4482972   -5.3170776    1781.4721  0.029744742   0.02810524          752 
 4992000   0.45264357   -5.3115129    1782.4579   0.02975524  0.028097446          729 
 4993000   0.45039998   -5.3140231    1780.6585  0.029719249  0.028089643          722 
 4994000    0.4581653   -5.3227562    1780.1709  0.029705161  0.028081829          795 
 4995000    0.4502352   -5.3083491    1780.9022  0.029711415  0.028074035          831 
 4996000   0.46249516    -5.305664      1780.83  0.029704264  0.028066235          800 
 4997000   0.44828904   -5.3168481    1782.2284  0.029721639  0.028058435          813 
 4998000   0.44827015   -5.3141334    1780.3712  0.029684727  0.028050618          877 
 4999000   0.44212306   -5.3187718    1781.0298  0.029689768  0.028042815          866 
 5000000   0.45301125   -5.3226033    1779.7438  0.029662396  0.028034994          859 
 5001000   0.44445439   -5.3017588    1778.9295  0.029642896  0.028027198          883 
 5002000   0.44952832   -5.3074251    1781.8015  0.029684818  0.028019408          913 
 5003000   0.44895691   -5.3136007     1777.962  0.029614932  0.028011606         1029 
 5004000   0.44744784   -5.3176581    1778.4878   0.02961777  0.028003803          935 
 5005000   0.45060425   -5.3244862    1780.9584  0.029652987  0.027995998         1080 
 5006000   0.44938793   -5.3306614    1784.4296  0.029704848  0.027988193         1066 
 5007000   0.45275121   -5.3216614    1779.9869  0.029624974  0.027980394         1057 
 5008000   0.45756632   -5.3190771    1781.0477   0.02963671    0.0279726         1017 
 5009000   0.45560191   -5.3457782    1781.5993   0.02963997   0.02796482         1019 
 5010000   0.45363182   -5.3399069     1779.334  0.029596374  0.027957032         1049 
 5011000   0.44621683   -5.3393297    1778.7672  0.029581042  0.027949233         1039 
 5012000   0.44652318   -5.3321322    1775.4333  0.029519708  0.027941425         1067 
Loop time of 12551.2 on 48 procs for 5000000 steps with 4000 atoms

Performance: 68837.824 tau/day, 398.367 timesteps/s
99.4% CPU use with 48 MPI tasks x no OpenMP threads

MPI task timing breakdown:
Section |  min time  |  avg time  |  max time  |%varavg| %total
---------------------------------------------------------------
Pair    | 871.62     | 920.82     | 976.15     |  82.9 |  7.34
Neigh   | 84.819     | 88.022     | 91.763     |  21.2 |  0.70
Comm    | 797.06     | 862.76     | 914.12     |  97.8 |  6.87
Output  | 15.621     | 15.625     | 15.704     |   0.3 |  0.12
Modify  | 10502      | 10546      | 10582      |  18.1 | 84.02
Other   |            | 118.5      |            |       |  0.94

Nlocal:        83.3333 ave          93 max          77 min
Histogram: 4 6 3 12 9 5 6 1 1 1
Nghost:        2314.12 ave        2335 max        2287 min
Histogram: 1 3 4 3 3 10 9 9 3 3
Neighs:        15683.8 ave       17454 max       13850 min
Histogram: 2 2 3 8 8 9 6 5 3 2
FullNghs:      31368.7 ave       35519 max       28943 min
Histogram: 4 8 8 7 9 6 3 2 0 1

Total # of neighbors = 1505697
Ave neighs/atom = 376.42425
Neighbor list builds = 269794
Dangerous builds = 2

#clear
#
#next RN
#
#jump SELF
Total wall time: 3:29:14
