
units lj                  # Use reduced LJ style units
atom_style atomic         # Uncharged point particles
atom_modify map hash      # Needed for indexing of clusters etc
                          # Used to be able to find where atoms are in relation to each other.

lattice fcc 1.0 spacing 1 1 1
Lattice spacing in x,y,z = 1.5874011 1.5874011 1.5874011
region box block 0 10 0 10 0 10 units lattice
create_box 2 box
Created orthogonal box = (0.0000000 0.0000000 0.0000000) to (15.874011 15.874011 15.874011)
  3 by 4 by 4 MPI processor grid
create_atoms 1 box
Created 4000 atoms
  using lattice units in orthogonal box = (0.0000000 0.0000000 0.0000000) to (15.874011 15.874011 15.874011)
  create_atoms CPU = 0.002 seconds
set type 1 type/fraction 2 0.72 78393
Setting atom values ...
  2894 settings made for type/fraction
mass 1 1.0
mass 2 1.0
pair_style lj/cut  3.5
pair_modify tail  yes
pair_coeff 1  1  1.0  1.0   # Intearaction between 1 and 1 set with epsilon = 1 and sigma = 1
pair_coeff 1  2  1.5  0.8
pair_coeff 2  2  0.5  0.88

write_data data.0
System init for write_data ...
Neighbor list info ...
  update every 1 steps, delay 10 steps, check yes
  max neighbors/atom: 2000, page size: 100000
  master list distance cutoff = 3.8
  ghost atom cutoff = 3.8
  binsize = 1.9, bins = 9 9 9
  1 neighbor lists, perpetual/occasional/extra = 1 0 0
  (1) pair lj/cut, perpetual
      attributes: half, newton on
      pair build: half/bin/atomonly/newton
      stencil: half/bin/3d
      bin: standard
WARNING: Not all mixed pair coeffs generated from mixing. Use write_data with 'pair ij' option to store all pair coeffs. (../write_data.cpp:312)


#############################
#   M E L T   S Y S T E M   #
#############################

velocity all create 2.4 5300450 mom yes dist gaussian # Assign velocities
                                                    # Temperature 2.4, random number seed, zero linear momentum
                                                                                # Gaussian distribution

timestep 0.002   # simulation timestep
thermo 1000       # output thermodynamic data every 1000 steps bf 100

# Define a fix  in this case with index 1 applied to all
# particles in the simulation. This fix is for simulations
# in the anisotropic NPT ensemble. Note that we use the MTK
# correction.
fix 1 all npt temp 2.4 2.4 0.1 iso 5.68 5.68 0.5 mtk yes tchain 5 pchain 5 # Use NPT ensemble
                                                                         # Set temperature and pressure and damping
                                                                         # Numbers of thermostats in chain and in barostat
run 10000          # run for 10000 steps
Per MPI rank memory allocation (min/avg/max) = 3.642 | 3.644 | 3.648 Mbytes
Step Temp E_pair E_mol TotEng Press Volume 
       0          2.4   -4.0785584            0  -0.47945841   -3.6688173         4000 
    1000    2.4033855   -3.6346871            0 -0.030510162    5.8377539    3678.4438 
    2000    2.3803985   -3.6178291            0 -0.048124043    5.6801954    3697.6067 
    3000    2.4175361   -3.6386411            0 -0.013243535    5.8490728    3678.7169 
    4000    2.4047806    -3.703322            0 -0.097052936    5.7900973    3648.2566 
    5000     2.432562   -3.6110543            0   0.03687645    5.7073492    3706.8557 
    6000    2.3997226   -3.6103859            0 -0.011701928    5.7416704    3697.6719 
    7000    2.3659966   -3.6451784            0 -0.097070745    5.6545812    3673.9368 
    8000    2.4257255   -3.6557781            0 -0.018099445    5.4435327    3694.3471 
    9000    2.3500107    -3.593966            0 -0.069831146    5.6426951    3715.6003 
   10000    2.4492161   -3.5926066            0   0.08029904    5.7408583    3715.1989 
Loop time of 2.63481 on 48 procs for 10000 steps with 4000 atoms

Performance: 655834.777 tau/day, 3795.340 timesteps/s
99.6% CPU use with 48 MPI tasks x no OpenMP threads

MPI task timing breakdown:
Section |  min time  |  avg time  |  max time  |%varavg| %total
---------------------------------------------------------------
Pair    | 1.1882     | 1.256      | 1.3749     |   3.3 | 47.67
Neigh   | 0.21545    | 0.22402    | 0.24096    |   1.1 |  8.50
Comm    | 0.78144    | 0.89642    | 0.97709    |   4.7 | 34.02
Output  | 0.0002463  | 0.00025066 | 0.00032489 |   0.0 |  0.01
Modify  | 0.21473    | 0.24273    | 0.29488    |   4.4 |  9.21
Other   |            | 0.0154     |            |       |  0.58

Nlocal:        83.3333 ave          98 max          71 min
Histogram: 1 4 8 1 14 12 3 4 0 1
Nghost:        1720.65 ave        1748 max        1693 min
Histogram: 2 1 7 6 7 8 7 6 3 1
Neighs:        10258.0 ave       12204 max        8627 min
Histogram: 1 4 6 6 10 11 6 2 1 1

Total # of neighbors = 492384
Ave neighs/atom = 123.09600
Neighbor list builds = 909
Dangerous builds = 235

# Equilibrate just above the melting temperature to avoid step fn in T

fix 1 all npt temp 1.25 1.25 0.1 iso 5.68 5.68 0.5 mtk yes tchain 5 pchain 5
run 2000
Per MPI rank memory allocation (min/avg/max) = 3.644 | 3.646 | 3.649 Mbytes
Step Temp E_pair E_mol TotEng Press Volume 
   10000    2.4492161   -3.5926066            0   0.08029904    5.7408583    3715.1989 
   11000    1.2506575   -5.3759085            0   -3.5003913    5.3496252    2829.8885 
   12000    1.2512665   -5.3983111            0   -3.5218806    5.5697807    2811.1393 
Loop time of 0.659905 on 48 procs for 2000 steps with 4000 atoms

Performance: 523711.374 tau/day, 3030.737 timesteps/s
99.6% CPU use with 48 MPI tasks x no OpenMP threads

MPI task timing breakdown:
Section |  min time  |  avg time  |  max time  |%varavg| %total
---------------------------------------------------------------
Pair    | 0.29787    | 0.32167    | 0.36712    |   2.2 | 48.75
Neigh   | 0.040929   | 0.043281   | 0.048178   |   0.6 |  6.56
Comm    | 0.19832    | 0.24502    | 0.27011    |   2.8 | 37.13
Output  | 5.1116e-05 | 5.254e-05  | 6.9049e-05 |   0.0 |  0.01
Modify  | 0.039971   | 0.044945   | 0.048584   |   1.1 |  6.81
Other   |            | 0.004934   |            |       |  0.75

Nlocal:        83.3333 ave          92 max          73 min
Histogram: 1 0 3 3 10 16 9 3 1 2
Nghost:        2083.12 ave        2108 max        2056 min
Histogram: 2 1 3 6 8 13 6 6 0 3
Neighs:        13599.8 ave       14879 max       11792 min
Histogram: 1 0 0 9 12 4 10 4 3 5

Total # of neighbors = 652790
Ave neighs/atom = 163.19750
Neighbor list builds = 142
Dangerous builds = 10

#############################
# L I N E A R  Q U E N C H  #
#############################

# Define solid atoms. This closely follows ten Wolde  Ruiz-Montero and Frenkel  Faraday Discuss  1996  104  93-110
# Compute components of the per-atom q6 vector
compute q6 all orientorder/atom degrees 1 6 components 6 nnn NULL cutoff 1.3 # compute the Q6 parameter.
                                                                             # Use all neighbours within 1.3 unit cell.

# get number of connections
compute coord_number all coord/atom orientorder q6 0.5

# An atom is solid if it has 8 or more connections (of a possible 14)
variable is_solid atom c_coord_number>=8
group solid dynamic all var is_solid    # Must be dynamic to update
dynamic group solid defined

# do clustering
compute cluster solid cluster/atom 1.3 # Create a cluster where all atoms within are solid and max 1.3 units from another member

# define chunks one chunk per cluster
compute clus_chunks solid chunk/atom c_cluster nchunk every compress yes  # Says which atoms are in which chunk

# count the size of each chunk
compute size_chunks solid property/chunk clus_chunks count


# Find the maximum entry in the vector of chunk sizes
variable max_n equal max(c_size_chunks)


# Thermo style which includes this variable
# thermo_style custom step temp pe vol v_max_n

thermo ${N}  # Print the thermo information every 100 steps
thermo 1000  

# Reset the npt fix at a lower temperature (below freezing)
fix 1  all npt temp  ${temp} ${temp}  0.1  iso  5.68  5.68  0.5  mtk yes tchain  5  pchain  5
fix 1  all npt temp  0.45 ${temp}  0.1  iso  5.68  5.68  0.5  mtk yes tchain  5  pchain  5
fix 1  all npt temp  0.45 0.45  0.1  iso  5.68  5.68  0.5  mtk yes tchain  5  pchain  5

dump dmp2 all dcd ${N} traj.dcd
dump dmp2 all dcd 1000 traj.dcd


compute msd all msd com yes
variable twopoint equal c_msd[4]/6/(step*dt+1.0e-6)
fix 9 all vector 10 c_msd[4]
variable fit equal slope(f_9)/6/(10*dt)
thermo_style custom step temp pe c_msd[4] v_twopoint v_fit v_max_n

fix 1 all npt temp 1.25 ${temp} 0.1 iso 5.68 5.68 0.5 mtk yes tchain 5 pchain 5
fix 1 all npt temp 1.25 0.45 0.1 iso 5.68 5.68 0.5 mtk yes tchain 5 pchain 5
run 5000000 # 5000000  # Run for this many steps
Neighbor list info ...
  update every 1 steps, delay 10 steps, check yes
  max neighbors/atom: 2000, page size: 100000
  master list distance cutoff = 3.8
  ghost atom cutoff = 3.8
  binsize = 1.9, bins = 8 8 8
  4 neighbor lists, perpetual/occasional/extra = 1 3 0
  (1) pair lj/cut, perpetual
      attributes: half, newton on
      pair build: half/bin/atomonly/newton
      stencil: half/bin/3d
      bin: standard
  (2) compute orientorder/atom, occasional
      attributes: full, newton on
      pair build: full/bin/atomonly
      stencil: full/bin/3d
      bin: standard
  (3) compute coord/atom, occasional
      attributes: full, newton on
      pair build: full/bin/atomonly
      stencil: full/bin/3d
      bin: standard
  (4) compute cluster/atom, occasional
      attributes: full, newton on
      pair build: full/bin/atomonly
      stencil: full/bin/3d
      bin: standard
Per MPI rank memory allocation (min/avg/max) = 9.840 | 9.848 | 9.852 Mbytes
Step Temp PotEng c_msd[4] v_twopoint v_fit v_max_n 
   12000    1.2512665   -5.3983111 8.2692344e-31 5.7425237e-33 8.3333333e+20            2 
   13000    1.2648757   -5.4200447   0.63911475 0.0040968893  0.053946433            2 
   14000    1.2805248   -5.4316661    1.2729637 0.0075771644  0.052529684            4 
   15000    1.2205945   -5.4258432    1.9097703  0.010609835  0.052786349            1 
   16000    1.2457841   -5.4212672    2.4708599  0.012869062  0.052029082            2 
   17000    1.2342911   -5.3597435    3.0726455  0.015061988  0.050918229            3 
   18000     1.212693   -5.4579671    3.7294617  0.017266026  0.050795641            4 
   19000    1.2446403   -5.3986076    4.4238932   0.01940304  0.051372533            3 
   20000    1.2557996    -5.432639    5.0318218  0.020965924  0.052020573            1 
   21000    1.2435276   -5.4441926    5.6025648  0.022232399  0.052092228            1 
   22000    1.2488136   -5.4485097    6.1277712  0.023211254  0.051709737           10 
   23000    1.2791168   -5.4339021     6.725855  0.024369039  0.051246822            3 
   24000    1.2594762   -5.4670116    7.3981604  0.025688056  0.051150591            4 
   25000    1.2745987   -5.4153381    8.0905316  0.026968438  0.051271914            4 
   26000    1.2696388   -5.4290198    8.7289194  0.027977305  0.051434327            5 
   27000    1.2448565    -5.453518    9.3130007  0.028743829  0.051551028            1 
   28000    1.2575202   -5.3767029    9.9082186  0.029488745  0.051541869            5 
   29000    1.2505381   -5.3850658    10.511614  0.030205786   0.05150707            1 
   30000    1.2739359   -5.4079249    11.192442  0.031090115  0.051526735            3 
   31000    1.2341305    -5.428787    11.844774  0.031840789  0.051598586            2 
   32000    1.2389595   -5.4609338    12.622734  0.032871703  0.051729742            3 
   33000    1.2447555    -5.448081    13.414449  0.033874871  0.052063741            2 
   34000    1.2393788   -5.4181583    14.155821   0.03469564  0.052485433            1 
   35000    1.2463618   -5.4076728    14.923325  0.035531727   0.05287106            2 
   36000    1.2478341   -5.4367906    15.580652  0.036066324  0.053209526            3 
   37000    1.2395852   -5.4375378    16.248944   0.03659672  0.053500808            3 
   38000    1.2242723   -5.4345305    17.100367  0.037500805  0.053820157            1 
   39000    1.2553853   -5.4414779    17.674033  0.037765027  0.054119013            3 
   40000     1.256559    -5.427401    18.489973  0.038520776  0.054379966            1 
   41000    1.2445345    -5.417014    18.962644   0.03854196  0.054595973            3 
   42000    1.2437586   -5.4487762    19.576296  0.038841858  0.054669293            3 
   43000    1.2859335   -5.4297231    20.229662  0.039204771  0.054739395            2 
   44000    1.2365736   -5.4487361    20.898134  0.039579799   0.05481567            2 
   45000    1.2444862   -5.4268934    21.755142  0.040287299  0.054952895            3 
   46000    1.2394822   -5.4098677    22.488773  0.040740531  0.055102478            2 
   47000    1.2504712    -5.426949    23.055358  0.040878293   0.05521022            4 
   48000    1.2578367   -5.3948026     23.70221  0.041149671  0.055290379            3 
   49000    1.2452641   -5.4562535    24.397347  0.041492086  0.055326318            2 
   50000    1.2649676   -5.4464317    24.776221  0.041293701   0.05532394            2 
   51000    1.2066393   -5.4487679    25.602174  0.041833616  0.055318481            1 
   52000    1.2381081   -5.4311307    26.060113  0.041763002  0.055302069            3 
   53000    1.2379704   -5.4441439    26.557722  0.041757424    0.0552273            3 
   54000    1.2450215   -5.4671202    27.045995  0.041737646  0.055153186            3 
   55000    1.2478878   -5.4542571    27.751281  0.042047395  0.055043254            3 
   56000     1.241342    -5.479391    28.212541  0.041982947  0.054933946            2 
   57000    1.2382214   -5.4230568    29.019008   0.04242545  0.054821024            2 
   58000    1.1893482   -5.4267896    29.683564  0.042648798  0.054741073            2 
   59000     1.230068   -5.4641898    30.213872  0.042674959  0.054672003            3 
   60000    1.2140679   -5.4414751    30.912031  0.042933376  0.054589714            2 
   61000     1.252158   -5.4213554    31.643408  0.043228699  0.054529698            3 
   62000    1.2736687   -5.5195784    32.049309  0.043077028  0.054495357            2 
   63000    1.2249001   -5.4563904    33.000052  0.043650862   0.05446388            3 
   64000    1.2215482   -5.4388903     33.88859  0.044125768  0.054470572            3 
   65000    1.2450295   -5.4218838    34.551134  0.044296325  0.054485981            2 
   66000    1.2283483   -5.4207846     35.10264  0.044321515   0.05448781            2 
   67000    1.2412064   -5.4554886    35.480175  0.044129571  0.054483781            2 
   68000    1.2463234    -5.437292    35.986078  0.044100586  0.054421861            2 
   69000    1.2360157   -5.4403954    36.746461  0.044379783  0.054350616            2 
   70000    1.2446721   -5.3888054    37.634564  0.044803052  0.054307766            2 
   71000    1.2576984   -5.4559669    37.861924  0.044438878  0.054277521            2 
   72000    1.2327131   -5.4272438    38.398305  0.044442483  0.054218541            2 
   73000    1.2526807   -5.4478178    39.020522  0.044543974  0.054144439            1 
   74000    1.2417885   -5.4140127    39.716228  0.044725482  0.054077862            3 
   75000    1.2183922   -5.4352833    40.281905  0.044757672  0.054023762            2 
   76000     1.223679   -5.4257431    40.948453   0.04489962  0.053967629            4 
   77000    1.2433161   -5.4921725    41.344777   0.04474543  0.053920777            2 
   78000    1.2741634   -5.4043065     42.25201  0.045141036  0.053867365            1 
   79000    1.2712094   -5.4762836    42.714882  0.045057893  0.053813535            4 
   80000     1.260235   -5.4454207    43.315284  0.045120088  0.053749985            2 
   81000    1.2441971   -5.4438744    43.728535  0.044988204  0.053685949            4 
   82000     1.239208   -5.4660603    44.302437  0.045022801  0.053616241            2 
   83000    1.2684881   -5.4811711    44.819486  0.044999484  0.053547699            2 
   84000    1.2407573   -5.4216318    45.856247  0.045492308  0.053485857            2 
   85000    1.2464038   -5.4608673    46.355237   0.04544631  0.053441892            1 
   86000    1.2508456    -5.467476    47.196363  0.045732909  0.053405157            3 
   87000    1.2214988   -5.4387229    47.711592  0.045700758  0.053373134            4 
   88000    1.2500291   -5.4516092     48.62339  0.046044877   0.05334746            1 
   89000     1.232918   -5.4518586    49.115424  0.045988225  0.053336037            4 
   90000    1.2310891   -5.4124058    49.827944  0.046136985  0.053328477            2 
   91000    1.2017563   -5.4300813    50.539366  0.046281471  0.053312279            3 
   92000    1.2515925    -5.434955    50.933605  0.046135512  0.053288414            4 
   93000     1.255365   -5.4415922    51.463174  0.046113955  0.053266285            4 
   94000    1.2579348   -5.4650627    51.617126  0.045759864  0.053216671            2 
   95000    1.2318172    -5.440086    52.527401  0.046076668  0.053175034            1 
   96000    1.2398424    -5.444761    53.181957  0.046164893  0.053134965            3 
   97000    1.2153469   -5.3939258    54.297277  0.046647145  0.053107584            2 
   98000     1.214702   -5.4601448    54.520175  0.046360693  0.053092129            4 
   99000    1.2408726   -5.3926504    55.324243  0.046569228  0.053072046            3 
  100000    1.2127489   -5.4182166    55.980879  0.046650732  0.053052619            2 
  101000    1.2192509   -5.4384077    56.453804  0.046579046  0.053037422            2 
  102000    1.2096474   -5.4451016    57.449356  0.046935748  0.053019212            2 
  103000    1.2271006   -5.4693395    57.928223  0.046867494   0.05301209            3 
  104000    1.2186808    -5.429668    58.667592  0.047009288  0.053003983            2 
  105000    1.2327844   -5.4405642    59.292134  0.047057249  0.052997782            2 
  106000    1.1950131   -5.4648978    59.965354  0.047142574  0.052988435            4 
  107000    1.2438919    -5.443123    60.091164  0.046799971  0.052975559            2 
  108000    1.2197167   -5.4772704    60.528839  0.046704351   0.05295325            3 
  109000    1.2525302   -5.4970103    61.594321  0.047090459  0.052936536            3 
  110000    1.2275132    -5.439098     62.06146  0.047016257  0.052921588            1 
  111000    1.2520084   -5.4546974    62.704314  0.047075311  0.052898848            2 
  112000    1.2361845    -5.441787    63.269853  0.047075784  0.052887717            2 
  113000    1.2517186   -5.4689241     64.16466  0.047319071  0.052868955            1 
  114000    1.2225127   -5.4959481    64.202108  0.046931365  0.052841882            3 
  115000    1.2398696   -5.4611489    64.975145  0.047083438    0.0528109            5 
  116000    1.2273766   -5.4435932    65.425719  0.047001235  0.052784381            3 
  117000    1.2486008   -5.4314163    66.149364  0.047114931  0.052754443            3 
  118000    1.2300955   -5.4349857    66.673824  0.047086034  0.052728573            4 
  119000     1.244833   -5.4430741    67.082828   0.04697677  0.052695885            5 
  120000    1.2330297   -5.4435888    67.993623  0.047217794  0.052657567            2 
  121000     1.248329   -5.4442131    68.516854  0.047187916  0.052623753            6 
  122000    1.2101022   -5.4846938    68.776317  0.046978359  0.052584564            2 
  123000    1.2205976   -5.4434783    69.482852  0.047075103  0.052543829            2 
  124000    1.2268857    -5.450566    70.326075  0.047262147  0.052506071            2 
  125000     1.231223   -5.4382669    71.023103  0.047348735  0.052475333            1 
  126000    1.2390948   -5.4466321    71.690575  0.047414401  0.052446556            3 
  127000    1.2081618   -5.4466939    72.180853  0.047362764  0.052418913            4 
  128000    1.2292975   -5.4163463     72.46665  0.047178808  0.052384574            1 
  129000    1.2365517   -5.4991592    73.196804  0.047284757  0.052358508            3 
  130000    1.2275863   -5.4968609    73.671686  0.047225439   0.05233194            4 
  131000    1.2492115   -5.4754865     74.62232  0.047469669  0.052306002            2 
  132000    1.2437501   -5.4347144    75.480091  0.047651573  0.052287362            1 
  133000    1.2378687   -5.4603547    75.650088  0.047399804  0.052270031            3 
  134000    1.2476106   -5.4753826    75.988608  0.047256597  0.052245633            2 
  135000    1.2144914   -5.4371246    76.851272  0.047439057  0.052216454            1 
  136000     1.224966   -5.4432559    77.411177  0.047433319  0.052188761            2 
  137000    1.2439033   -5.4582445    77.693648   0.04725891  0.052162795            2 
  138000    1.2204781   -5.4214861     78.56844   0.04744471  0.052130206            1 
  139000     1.221467   -5.4779401    78.757573   0.04721677  0.052093975            3 
  140000    1.2220008   -5.4650144    79.255135  0.047175676  0.052051735            3 
  141000      1.23204   -5.4586588    79.788597  0.047156381  0.052009764            3 
  142000     1.223814   -5.4494454    80.215079  0.047074576  0.051967379            1 
  143000    1.2418401   -5.4086042    80.895559  0.047141934  0.051925043            3 
  144000    1.2062802   -5.4407702    81.670872  0.047263236  0.051882989            3 
  145000    1.2229076   -5.4244031    82.116756  0.047193538  0.051843084            4 
  146000    1.2575405   -5.4511046    83.012863  0.047381771   0.05180452            1 
  147000    1.2290466   -5.5070506    82.828171  0.046954746   0.05177049            2 
  148000    1.2204963   -5.4436732    84.071462  0.047337535  0.051728413            3 
  149000    1.1901679   -5.4737276     84.36392    0.0471834  0.051690074            2 
  150000    1.2326862   -5.4987006    84.610618  0.047005899   0.05164911            2 
  151000    1.2128369   -5.4675788    85.136091  0.046984598  0.051607404            2 
  152000    1.2312209   -5.4683014     85.71915  0.046995148  0.051564383            2 
  153000     1.239317   -5.4716343       86.465  0.047094226  0.051518535            1 
  154000    1.2303068   -5.4538349    86.783938  0.046961005  0.051473882            1 
  155000    1.2344961   -5.4576747    87.537718  0.047063289  0.051427815            3 
  156000    1.2192419   -5.4821868    87.780156  0.046891109  0.051380983            2 
  157000    1.1976963   -5.4570362    88.532144  0.046991584  0.051331741            5 
  158000    1.2226327   -5.4767832     89.09112  0.046988987  0.051289028            2 
  159000     1.227035    -5.389339    89.670337  0.046997032  0.051247827            1 
  160000    1.2169753   -5.5049438    89.639206  0.046687086  0.051202337            3 
  161000    1.2313241   -5.4689929    90.439468  0.046811318  0.051154879            3 
  162000     1.233096   -5.4999911    90.861529   0.04673947   0.05110858            4 
  163000     1.240182   -5.4691198    92.007206  0.047038449  0.051066112            1 
  164000     1.225054   -5.5167558    92.681823  0.047094422  0.051028971            4 
  165000    1.2065818   -5.4689844     93.02891  0.046984298  0.050994182            3 
  166000    1.2619659   -5.4871001    93.674249  0.047025225  0.050962429            1 
  167000       1.2341   -5.4331827     94.59423  0.047202709  0.050929315            4 
  168000    1.2233454   -5.4440088    95.144834  0.047194858   0.05089669            3 
  169000    1.2442157   -5.4799277    95.534209  0.047107598  0.050866143            4 
  170000    1.2547939    -5.504409    96.009616  0.047063537  0.050835422            1 
  171000    1.2393226   -5.4813099    96.752461  0.047150322  0.050805644            2 
  172000    1.2110496   -5.4905334    96.817375  0.046907643  0.050774108            3 
  173000    1.2211985   -5.4768578    97.794759  0.047107302  0.050743916            4 
  174000     1.256288   -5.4890873    98.471498  0.047160679  0.050717032            4 
  175000    1.2210707   -5.4747836    99.520636  0.047390779  0.050694381            1 
  176000     1.228716   -5.4827952    100.03878  0.047366844  0.050675384            3 
  177000    1.2419295   -5.4904328    100.72678  0.047423153  0.050656576            1 
  178000    1.1983853   -5.4676857    101.42293  0.047482646  0.050642053            2 
  179000    1.2252199   -5.4996293    101.82956  0.047406684  0.050623172            3 
  180000    1.2202811   -5.4580238    102.57266  0.047487344   0.05060601            3 
  181000    1.2318289   -5.4864241    102.99402   0.04741898  0.050591366            2 
  182000    1.2437366   -5.4439208    103.67408  0.047469819  0.050573626            3 
  183000    1.2308722   -5.4872092    104.10653  0.047407347  0.050554411            3 
  184000    1.2195012   -5.4796938    104.30926  0.047241511  0.050533874            1 
  185000    1.2183339   -5.4736037    105.26283  0.047415689  0.050515745            2 
  186000    1.2256119   -5.5130724    105.64112   0.04733025  0.050495217            3 
  187000    1.2159107   -5.4594287    106.39341  0.047412393  0.050472644            1 
  188000    1.2326349   -5.4927511    106.45813  0.047188889  0.050450667            4 
  189000    1.2125374   -5.5000387    107.19735  0.047265144  0.050425179            1 
  190000    1.2160136    -5.437735    108.05536  0.047392703  0.050404973            1 
  191000    1.2134984   -5.4821182    108.92385  0.047523494  0.050383957            1 
  192000    1.2149886    -5.472614    109.78253  0.047648667  0.050369551            1 
  193000    1.2217212    -5.461947    110.03146  0.047509265  0.050353941            1 
  194000    1.2256592    -5.516995    109.92615  0.047219138  0.050336618            5 
  195000     1.221277   -5.4823982    111.76436  0.047762547  0.050324512            3 
  196000    1.2351464   -5.4487491    112.44485  0.047808186  0.050314644            2 
  197000    1.1973435   -5.5028202    112.51183  0.047593836  0.050303236            4 
  198000    1.1974381    -5.520595    112.88791  0.047511746  0.050294415            1 
  199000     1.225655   -5.4603885    113.27361  0.047434509  0.050279033            5 
  200000    1.2304245   -5.4868272    114.20815  0.047586727  0.050263759            1 
  201000    1.2296013   -5.4546041    114.56347  0.047497292  0.050246589            5 
  202000     1.209515   -5.4926721     115.0125  0.047447402  0.050230404            2 
  203000    1.2237795   -5.4769027    116.04196  0.047636271  0.050216582            1 
  204000    1.2114469   -5.5078211    116.50499  0.047591906  0.050201182            6 
  205000    1.2211662    -5.507222    116.68221  0.047431791  0.050187829            2 
  206000     1.196144   -5.4504505    117.95809  0.047717673  0.050172885            3 
  207000    1.2237462   -5.4865411    117.20255  0.047182991  0.050156655            3 
  208000    1.2100253   -5.4432442    118.65094  0.047536433    0.0501368            2 
  209000    1.1928724   -5.4378923    119.26952  0.047555632  0.050116968            3 
  210000    1.2160545   -5.4892964    119.64152  0.047476795  0.050097984            2 
  211000    1.2065482   -5.5042437    120.06323  0.047418339  0.050078608            3 
  212000     1.235158   -5.4836137    120.40601  0.047329406  0.050060967            1 
  213000    1.2349099   -5.5014883    121.30276  0.047458045   0.05004207            2 
  214000    1.1903357   -5.4677929    122.28759  0.047619779  0.050027037            1 
  215000    1.1870939   -5.4923354    123.07545  0.047703662  0.050015984            2 
  216000    1.2312798   -5.4829514    122.83228  0.047388996  0.050001928            5 
  217000    1.2197871   -5.4714184    123.83638  0.047556214  0.049988186            5 
  218000    1.1956562   -5.4708714    123.86155  0.047347687  0.049971102            8 
  219000    1.2146714   -5.4946742    124.15829  0.047244402  0.049954029            3 
  220000    1.2191957   -5.4996206    125.23097  0.047435975  0.049937421            1 
  221000    1.2344788   -5.4937529    125.39907  0.047284716  0.049919752            5 
  222000    1.2240239   -5.4864992    125.73041    0.0471961  0.049898517            2 
  223000    1.2490867    -5.518051    126.78612  0.047378969  0.049880113            2 
  224000    1.2191383   -5.4700242     127.6878  0.047502902  0.049862776            2 
  225000    1.2063278   -5.4799446     128.2519  0.047500705   0.04984679            1 
  226000     1.230547   -5.4728511    128.25045  0.047289988  0.049827877            2 
  227000    1.2092578   -5.4862132    128.91999  0.047327456  0.049807055            5 
  228000      1.24846   -5.4911967     129.2727  0.047248795  0.049785185            3 
  229000    1.2322359   -5.4881701    129.82593  0.047243787  0.049765756            2 
  230000    1.2137311   -5.4424037    130.72838  0.047365354  0.049748404            3 
  231000    1.2318978   -5.4808068    131.12675  0.047304021  0.049729434            3 
  232000    1.2253599   -5.4806912    131.37494  0.047189276  0.049708372            3 
  233000     1.191624   -5.5357584    132.03482  0.047222755  0.049689405            4 
  234000    1.2395347   -5.5158726    132.44089  0.047165558  0.049670079            2 
  235000    1.1826254   -5.4954826    133.68557   0.04740623   0.04965197            2 
  236000    1.2008091   -5.4879891    134.00859  0.047319417   0.04963314            3 
  237000    1.2111329   -5.5050338    134.56345  0.047314854  0.049617022            2 
  238000    1.2119487   -5.5585122    134.37911   0.04705151  0.049601463            4 
  239000    1.2243974   -5.5101138    135.69322   0.04731284  0.049584237            3 
  240000    1.2299295   -5.4959174    136.19124  0.047288624  0.049569332            2 
  241000    1.2242818   -5.4846764     136.5884  0.047229736  0.049555062            2 
  242000    1.1908478   -5.4894217    137.41786  0.047320198  0.049539102            1 
  243000     1.187208   -5.5024133    138.07643  0.047351314  0.049525436            2 
  244000    1.2148321   -5.5065796     138.6221  0.047343613  0.049510287            4 
  245000    1.1886543   -5.4768182    139.22451  0.047355274  0.049497824            2 
  246000     1.213156   -5.5038458    139.58551  0.047285063  0.049485818            2 
  247000    1.2400156   -5.5169476    140.32453  0.047342958  0.049473401            2 
  248000    1.2101317   -5.4934361     141.0434  0.047393616  0.049460732            2 
  249000    1.1968379   -5.5230945    142.07067  0.047547079  0.049450995            1 
  250000    1.2126165     -5.44033    143.20134   0.04773378  0.049442183            2 
  251000    1.2226787   -5.5419473    143.20118  0.047543551  0.049434971            3 
  252000    1.2009133   -5.4887483    144.05825   0.04763831  0.049428897            2 
  253000    1.2228882    -5.519568    144.19612  0.047495429  0.049422997            3 
  254000    1.2199667   -5.4685849    145.22727  0.047646741  0.049416726            3 
  255000    1.1815849   -5.4999839    146.11659  0.047750519  0.049411392            2 
  256000    1.2064039   -5.5130638    146.81916  0.047792697  0.049405938            2 
  257000    1.2068723    -5.503227     147.1807  0.047723961  0.049401381            5 
  258000    1.2201636   -5.4926135     147.5931   0.04767219  0.049397029            3 
  259000      1.20603   -5.5040751    148.86377  0.047896966  0.049394296            3 
  260000    1.2170766   -5.4838558    148.97596  0.047748705  0.049391827            3 
  261000     1.213405   -5.5223593    148.84121  0.047522736   0.04938692            4 
  262000    1.2211889   -5.5389678    150.20104  0.047773869  0.049382184            1 
  263000     1.220863   -5.5442778    150.26015  0.047610946  0.049374837            1 
  264000    1.1851949   -5.5314654    151.18577  0.047722781  0.049371892            2 
  265000    1.1933881   -5.5377575    151.96756  0.047788542  0.049366367            2 
  266000    1.1750897    -5.483554    152.77211  0.047860936  0.049363463            2 
  267000    1.1937432   -5.5092723    153.27758  0.047839445  0.049360416            3 
  268000    1.1952509   -5.4692765    154.13736  0.047928285   0.04935879            4 
  269000    1.2005611   -5.5251198    154.62918  0.047902472  0.049358031            2 
  270000    1.2345018    -5.484658    156.41244  0.048275444  0.049361534            2 
  271000     1.210748    -5.524448    156.07459  0.047993415  0.049364338            3 
  272000    1.1824775   -5.4810088    156.17243  0.047846944  0.049364994            3 
  273000    1.1804721   -5.4764008    157.05763   0.04794189  0.049363243            4 
  274000    1.2442697    -5.489056      157.756  0.047979318   0.04936109            2 
  275000    1.2047162   -5.5024929    158.01176  0.047882352  0.049358399            3 
  276000    1.2170906   -5.5191049    158.66542  0.047906227  0.049352081            2 
  277000    1.2079372    -5.516736    158.97698  0.047827009   0.04934634            3 
  278000    1.2127763   -5.5209878    159.40821  0.047784236  0.049342068            2 
  279000    1.2188008   -5.5237337    159.46376  0.047629559  0.049337126            2 
  280000    1.2269473   -5.4909873    161.07043  0.047937629  0.049332366            4 
  281000    1.2005964   -5.5090094    161.04935  0.047760778  0.049328981            3 
  282000    1.2269619   -5.4719807    161.68739  0.047779962  0.049324734            2 
  283000    1.1864282   -5.5288225    162.62433  0.047887023  0.049322381            2 
  284000      1.18446   -5.5227146    162.79903  0.047769669  0.049319931            1 
  285000    1.2353391   -5.5057993    163.00092  0.047661088  0.049315633            3 
  286000    1.2231401   -5.5312857    163.03376  0.047504008   0.04930992            3 
  287000    1.2010142   -5.5180682    164.82284  0.047857966  0.049302988            2 
  288000    1.1755104   -5.5119638    164.73497  0.047666368  0.049297589            3 
  289000    1.2129211   -5.5079105    164.91253  0.047552632   0.04928954            6 
  290000    1.1734534   -5.5323917    165.62886  0.047594501  0.049280545            2 
  291000     1.216896   -5.5192905    166.35968  0.047640229  0.049272181            1 
  292000    1.1963006   -5.5306645    167.18112  0.047711506  0.049264293            3 
  293000    1.1889931   -5.5193511    167.60608  0.047669533  0.049257209            1 
  294000    1.1985859   -5.4714944    168.37329  0.047724854  0.049250869            3 
  295000    1.1965826   -5.5203734    168.83899   0.04769463    0.0492444            6 
  296000    1.1778334   -5.4973116    169.78526  0.047799904  0.049237526            2 
  297000    1.2075569   -5.5139592    170.47921  0.047833674   0.04923158            2 
  298000    1.2055969   -5.5123982    170.49959  0.047678856  0.049228379            3 
  299000     1.195561   -5.5054446    171.57639  0.047819505  0.049223712            2 
  300000    1.2062397   -5.4962961    171.78457  0.047717936  0.049221013            7 
  301000    1.2083494   -5.5298249    173.01014  0.047898709  0.049219511            1 
  302000    1.1995615   -5.5577902    173.21602  0.047796914  0.049217024            1 
  303000    1.1852796   -5.5212897    173.64321  0.047756658  0.049214818            1 
  304000    1.1920141   -5.4946158     174.8587  0.047932757  0.049213488            1 
  305000    1.2138383   -5.5098674    175.37818  0.047917535  0.049213806            2 
  306000    1.2208051   -5.4643361    176.01184  0.047933509  0.049211401            5 
  307000     1.222776   -5.5577693    176.21414  0.047832285  0.049207138            2 
  308000    1.2189844   -5.5316869    176.94042  0.047873489  0.049202691            2 
  309000    1.2048214   -5.5197342    178.01677  0.048008839  0.049199697            1 
  310000    1.1952375   -5.4751023    178.40735  0.047958966   0.04919769            1 
  311000    1.2299057   -5.5369894     178.7668  0.047901072  0.049196652            1 
  312000    1.2212004   -5.5035489    179.45544  0.047931474  0.049195019            1 
  313000    1.2002624   -5.5394925    179.78047  0.047864874  0.049193434            4 
  314000    1.2039422    -5.531105    180.56045  0.047919439  0.049190907            4 
  315000    1.2259432   -5.5423459    180.00947  0.047621554  0.049188138            3 
  316000     1.208122   -5.5374657    181.86806  0.047960986  0.049185306            2 
  317000    1.2104239   -5.5308241    181.93903  0.047828346  0.049183961            1 
  318000      1.23334   -5.5140582    182.87713  0.047923777  0.049181097            2 
  319000    1.1854147    -5.480639    183.19558  0.047856735   0.04917793            2 
  320000    1.1934781   -5.5189068    183.10764  0.047684282  0.049175513            2 
  321000    1.2036667   -5.5113225    184.41903  0.047876176  0.049172612           10 
  322000    1.2148537   -5.5490403    185.70257  0.048059671  0.049171565            1 
  323000    1.1842777   -5.5391259    185.64523  0.047896087  0.049170496            1 
  324000    1.1933523   -5.5169433    187.82174   0.04830806  0.049171491            2 
  325000    1.1742077   -5.4925657    188.22163  0.048261956  0.049175696            1 
  326000    1.2041853   -5.5288655    188.14217    0.0480936  0.049177925            2 
  327000    1.2042087   -5.5387795     188.6653  0.048079843  0.049178787            3 
  328000    1.1935006   -5.4877402    189.73975  0.048206236  0.049178876            4 
  329000    1.1836789    -5.532934    189.78627  0.048071497  0.049179962            4 
  330000    1.2017123   -5.5172593    190.43209  0.048088911  0.049178862            2 
  331000    1.2226743    -5.546711    191.02456   0.04809279  0.049179092            3 
  332000    1.2091851   -5.5221025    191.60758  0.048094271  0.049179676            4 
  333000    1.1998715   -5.5245941    192.72359  0.048229126  0.049180525            3 
  334000    1.2070181   -5.5571998    192.26389  0.047970032  0.049180098            5 
  335000    1.1841399   -5.5119465    193.57958  0.048154125  0.049180304            3 
  336000    1.2032842   -5.5568148    193.46374  0.047982078   0.04918122            1 
  337000    1.2001625   -5.4985191    195.07966  0.048239284  0.049182049            2 
  338000    1.2044876   -5.5370582    195.47663  0.048194436  0.049182875            2 
  339000     1.198023   -5.5342981    195.98924  0.048178279  0.049182438            5 
  340000    1.2022415   -5.5198892    196.28131  0.048108165   0.04918171            3 
  341000    1.1817584   -5.5250989    197.00379  0.048143644  0.049182451            2 
  342000    1.1992487   -5.5204907    197.53063  0.048131246  0.049180653            3 
  343000    1.2046218   -5.4978509    197.43458  0.047967585  0.049180123            1 
  344000    1.1841965   -5.5184393    198.71154  0.048137485  0.049179573            2 
  345000    1.1810638   -5.5370225    197.92245  0.047807354  0.049177036            4 
  346000    1.2249726   -5.5459622    199.16918  0.047969456   0.04917344            2 
  347000    1.1952477   -5.4858158    199.52761  0.047917292  0.049171987            5 
  348000    1.1794732   -5.5144293    199.86869  0.047861277  0.049167114            3 
  349000     1.186546   -5.5569804    200.09094  0.047777206   0.04915987            2 
  350000    1.1909871   -5.5659702    200.39466  0.047713015  0.049154165            3 
  351000      1.19048   -5.5283485    201.30734  0.047793765  0.049146275            3 
  352000    1.1898323   -5.5350836    201.10489   0.04761006  0.049138276            1 
  353000    1.2074493   -5.5139527    202.43261  0.047788623  0.049129727            3 
  354000      1.19129   -5.5261834    202.68494  0.047713027  0.049122115            3 
  355000    1.2153909   -5.5354477    204.23991  0.047943641  0.049115809            2 
  356000    1.1948886   -5.5229646    205.03061  0.047994057   0.04911019            2 
  357000    1.2061994   -5.4877825    204.26735  0.047681453  0.049104026            4 
  358000    1.1937325   -5.5228177    204.27144  0.047549217  0.049096419            2 
  359000     1.184453   -5.4995307    206.01551  0.047821614  0.049089479            3 
  360000    1.1891234   -5.5091855    206.67506  0.047841448  0.049083151            3 
  361000     1.197019   -5.5242716    206.59647  0.047690783  0.049077578            4 
  362000    1.1863733   -5.5532729    207.60404  0.047790985  0.049071795            7 
  363000    1.1986509   -5.5413414     208.0876  0.047770339  0.049067215            6 
  364000    1.1835892   -5.5558129    209.17597  0.047888273  0.049062346            2 
  365000    1.1997324   -5.5179588    210.12295  0.047973277  0.049057785            3 
  366000    1.1927588   -5.5413701    209.79311  0.047767101  0.049053885            3 
  367000    1.1894826   -5.5581889    210.73378   0.04785054  0.049050554            6 
  368000    1.1970285   -5.5274893    211.87349  0.047978598  0.049047759            3 
  369000    1.1825708   -5.5120377    212.44417  0.047977456  0.049044794            2 
  370000    1.1711222   -5.5342438    212.95713  0.047963318  0.049041838            2 
  371000    1.2049026   -5.5631201    213.54078  0.047965134  0.049038135            5 
  372000    1.1687314    -5.525081    214.04114  0.047948284  0.049035191            6 
  373000    1.2116812   -5.5432539    214.37129  0.047893497  0.049031468            2 
  374000    1.1833955   -5.5251086    214.91078  0.047885646  0.049027705            5 
  375000    1.1902623   -5.5202267    215.24284  0.047831743  0.049025522            2 
  376000    1.1961298   -5.5570533    216.00621  0.047873716  0.049023098            4 
  377000    1.1618791   -5.5874057    215.47806  0.047629986  0.049018609            3 
  378000    1.2068536   -5.5210758    217.43582  0.047935587  0.049015123            2 
  379000    1.2153807   -5.5012761    217.92645  0.047916985   0.04901146            5 
  380000    1.1788525   -5.5468666     218.2584  0.047863684  0.049006899            2 
  381000    1.1937229   -5.5443618    218.72089  0.047839215   0.04900331            1 
  382000    1.1913717   -5.5912823    218.39225  0.047642288  0.048999016            3 
  383000    1.2203994   -5.5915677    219.43558  0.047744904  0.048993235            3 
  384000    1.1713574   -5.5100308     219.4369  0.047620855  0.048987002            1 
  385000    1.1735983   -5.5339148    220.53734  0.047735354  0.048980588            5 
  386000    1.2015977   -5.5030273    221.80531  0.047885429  0.048974518            1 
  387000    1.1847116   -5.5505715    221.42007  0.047678741  0.048968352            4 
  388000    1.1978527   -5.5022373    222.34568  0.047754657  0.048962247            2 
  389000    1.1935222   -5.5591739    222.15525    0.0475911   0.04895431            2 
  390000    1.1907864   -5.5555949    223.04095  0.047658323  0.048946826            2 
  391000    1.1976485   -5.4908112    224.73333   0.04789713  0.048940202            2 
  392000    1.2250992    -5.544295    224.14221  0.047649279  0.048933094            3 
  393000    1.2231148   -5.5816775    223.52748  0.047397684  0.048925062            3 
  394000    1.2139458   -5.5544804    224.75018  0.047535994  0.048916967            4 
  395000    1.1659787   -5.5213723    225.09483  0.047488361  0.048907817            2 
  396000    1.2186828   -5.5197316    226.49294  0.047662656  0.048900333            1 
  397000    1.1781778   -5.5865324    226.72448  0.047591201  0.048893063            2 
  398000    1.1811719   -5.5475879    227.90964  0.047719774  0.048885776            2 
  399000     1.182042   -5.5454022    229.19718  0.047869085  0.048878466            3 
  400000    1.1908861    -5.552173    229.04992  0.047718733  0.048871579            3 
  401000    1.1930942   -5.5386474    229.26665  0.047644774  0.048865075            3 
  402000    1.1634187   -5.5380929    229.60007  0.047595372  0.048858568            3 
  403000     1.196328   -5.5319676    231.27791  0.047824216  0.048851923            1 
  404000    1.1884872   -5.5343682    231.08455  0.047665955  0.048845702            2 
  405000    1.1874785   -5.5526548    230.71331  0.047471875  0.048840807            2 
  406000     1.186717   -5.5376331    232.43661  0.047708664  0.048834447            4 
  407000    1.1654991   -5.5635374    232.19494  0.047541962  0.048827777            4 
  408000    1.1721871   -5.5788661    233.68939  0.047730675  0.048821175            2 
  409000    1.1932651   -5.5428068    233.53745  0.047583017   0.04881593            5 
  410000    1.1985407   -5.5454741    234.10871  0.047583071  0.048809138            8 
  411000     1.173099   -5.5375063    234.92487  0.047632779  0.048802649            1 
  412000    1.1964582   -5.5601316    235.56816  0.047647281  0.048796087            3 
  413000    1.1884467   -5.5710777    235.26068  0.047469871  0.048788886            1 
  414000    1.2044312   -5.5283582    236.87611  0.047680377  0.048781613            2 
  415000    1.1913779    -5.549292    236.57831  0.047505685  0.048775335            1 
  416000    1.1652149   -5.5517697    237.69664  0.047615512  0.048767913            2 
  417000    1.1778338   -5.5692992    238.35523   0.04763294  0.048760394            5 
  418000    1.1928954   -5.5746351    239.27858  0.047703067  0.048753704            3 
  419000     1.184121   -5.4840663    240.50273  0.047832682  0.048748389            2 
  420000    1.2002633    -5.557343    240.73726   0.04776533  0.048743601            3 
  421000    1.1962831   -5.5428918    241.35196  0.047773546  0.048738085            2 
  422000     1.188224   -5.5327839    241.91367  0.047771262  0.048733572            3 
  423000    1.1947813   -5.5597359     242.3632  0.047746887  0.048729183            2 
  424000    1.2120543   -5.5919433    242.55985  0.047672927  0.048725251            2 
  425000    1.1903167   -5.5645887    243.76142  0.047796356   0.04872306            2 
  426000    1.1389868   -5.5822606     244.4454  0.047817958  0.048719687            4 
  427000     1.166956   -5.5551671    245.37936  0.047888244  0.048716819            2 
  428000    1.1713876    -5.580689    245.97276  0.047891892  0.048715471            4 
  429000    1.2101789   -5.5610402    246.32406  0.047848497  0.048713415            3 
  430000     1.176403   -5.5585903     246.8412  0.047837443   0.04871103            2 
  431000    1.1782578   -5.5548398    248.62712  0.048071755  0.048709443            2 
  432000    1.1732072   -5.5543996    248.20552  0.047879152  0.048707335            2 
  433000    1.1761839   -5.5624962    249.27727   0.04797484  0.048705055            3 
  434000    1.1987012   -5.5786531    248.69423  0.047752348  0.048703968            2 
  435000    1.1773467   -5.5217575    250.43725  0.047976485  0.048701904            2 
  436000    1.1677713   -5.5715885    249.96772  0.047776705  0.048699522            3 
  437000    1.1761973   -5.5890267    250.06256  0.047685462  0.048696799            2 
  438000    1.1845607   -5.5595622    251.35772  0.047823005  0.048693401            2 
  439000     1.161617   -5.5351643    251.33362  0.047709495  0.048689335            2 
  440000    1.1721426   -5.5501171    252.81067  0.047880809  0.048685849            2 
  441000    1.1697716   -5.5698345    252.64736  0.047741376  0.048683414            2 
  442000    1.1549036   -5.5671815    253.58203  0.047809583  0.048679362            4 
  443000    1.1663066   -5.5644761    252.81501  0.047557375  0.048674925            2 
  444000    1.2134845   -5.6105957     254.2027  0.047710717  0.048671001            3 
  445000    1.1836375   -5.5704326     254.8217  0.047719419   0.04866711            2 
  446000    1.1763987   -5.5891683    255.72135  0.047780521  0.048662839            4 
  447000    1.1781138   -5.6128191    255.33533  0.047601664  0.048660259            2 
  448000    1.2010455   -5.4950329    258.07968  0.048005893  0.048657032            3 
  449000    1.1943104   -5.5759136    257.47788  0.047787283   0.04865349            4 
  450000    1.1619907   -5.6069236    258.01854  0.047781211  0.048650522            4 
  451000    1.1747287   -5.5646622    258.31617   0.04773026  0.048647582            2 
  452000    1.1813874   -5.5709551    259.22799  0.047792771  0.048644695            4 
  453000    1.1581843   -5.5511268    260.00411  0.047830042  0.048640668            4 
  454000    1.2053449    -5.552041    260.74645  0.047860948  0.048636477            3 
  455000    1.1714971   -5.5484839    261.79889  0.047948516  0.048632701            1 
  456000    1.1882805   -5.5545343    260.83776   0.04766772  0.048628584            2 
  457000    1.1660261   -5.5454892     261.5225  0.047688276  0.048623605            4 
  458000    1.1598938   -5.5491125    263.17112   0.04788412  0.048620346            3 
  459000    1.1847909    -5.580527    261.71781  0.047515942  0.048615747            3 
  460000     1.190818   -5.5819775    262.17155  0.047494845  0.048610906            3 
  461000    1.1617714   -5.5675591    263.97993  0.047718714  0.048606909            2 
  462000    1.1863156   -5.5575552     263.4195  0.047514339  0.048602735            3 
  463000    1.1889908   -5.6255236    263.92286  0.047502315  0.048597477            1 
  464000    1.2006093   -5.5186102    266.04976  0.047781924  0.048594011            5 
  465000    1.1771861   -5.5683882    266.50108   0.04776005  0.048589919            2 
  466000    1.1544005   -5.6042429    266.68466   0.04769039  0.048585477            2 
  467000     1.189364   -5.5709389    266.29959  0.047519555  0.048579967            4 
  468000    1.1775938   -5.6007577    266.33677  0.047424638  0.048573893            3 
  469000    1.1707321   -5.5839934    266.81207  0.047407972  0.048566694            2 
  470000    1.1760452    -5.563525    268.47328  0.047601645  0.048560486            3 
  471000    1.1639657   -5.5393122    269.42681  0.047669287  0.048554986            2 
  472000    1.1916308   -5.5660232     269.3239  0.047550124  0.048550293            1 
  473000    1.2059135   -5.5665845    270.03431  0.047574755  0.048545085            2 
  474000     1.189314   -5.5777315    270.45683  0.047548669  0.048538501            3 
  475000    1.2061942   -5.5863234     270.3155  0.047423771  0.048532372            2 
  476000    1.1811835   -5.5917978    270.00002  0.047268911  0.048524746            2 
  477000    1.1774264   -5.5774507    271.26605  0.047390995  0.048516681            2 
  478000     1.164913   -5.5911561     271.1062  0.047263982  0.048508587            2 
  479000    1.1697299   -5.5630753    272.09656  0.047337606  0.048502488            1 
  480000    1.1842982   -5.6162599    272.31924  0.047277645  0.048495227            1 
  481000    1.1837732   -5.6400657    271.72421  0.047076267  0.048486714            3 
  482000    1.1580484   -5.5850177     272.6647    0.0471412  0.048477694            2 
  483000    1.1784517    -5.607653    272.98305  0.047098525  0.048467791            3 
  484000    1.1498184   -5.6002662    274.37546  0.047240954   0.04845772            3 
  485000    1.1608688   -5.6021081    275.52412  0.047340914  0.048448532            3 
  486000    1.1678108   -5.5653951    275.14552  0.047178587  0.048439981            3 
  487000    1.1800832   -5.5830524    276.47165  0.047308632  0.048431381            2 
  488000     1.178653   -5.5601484    276.96445  0.047295841  0.048423712            4 
  489000    1.1638574   -5.5787876    277.40619  0.047274401  0.048415404            2 
  490000     1.174796    -5.577217    276.96355  0.047102644  0.048407797            2 
  491000    1.1771577   -5.5623529    278.48275  0.047264553  0.048399725            3 
  492000    1.1603767   -5.6009952    277.82481  0.047057048  0.048390722            4 
  493000    1.1759136   -5.5835569    279.85004  0.047303929  0.048383174            2 
  494000     1.205364    -5.569388    280.61148   0.04733662  0.048376448            4 
  495000    1.1595984   -5.6075164    280.46952   0.04721709  0.048369213            2 
  496000    1.1938758   -5.5801292    281.20896  0.047246129  0.048361088            5 
  497000    1.1796594   -5.5580567    281.49182  0.047198494  0.048352931            2 
  498000      1.14989   -5.5613772    282.36039  0.047249061  0.048344411            2 
  499000    1.1693476   -5.5783638    283.08137  0.047274779  0.048335857            2 
  500000    1.1608482   -5.5372152    284.32387  0.047387311  0.048328261            6 
  501000    1.1601667   -5.5757885    283.25854  0.047115526  0.048319478            1 
  502000     1.181416   -5.5673006    283.41658  0.047047905  0.048310565            2 
  503000    1.1738034   -5.5552589    285.49073     0.047298  0.048301936            3 
  504000    1.1610864   -5.5745808    284.43351   0.04702935  0.048293341            3 
  505000    1.1685746   -5.5610853    286.32143  0.047247761  0.048284109            2 
  506000    1.1494508   -5.6127598    284.75823  0.046896941  0.048274632            2 
  507000    1.1352342   -5.5819041    286.78907  0.047138242  0.048264193            3 
  508000    1.1756186    -5.601682    286.10727  0.046933607  0.048254397            2 
  509000    1.1663033   -5.5853243    287.02812  0.046992161  0.048244208            2 
  510000    1.1949112   -5.6433616    286.04498  0.046739376  0.048234733            2 
  511000    1.1987893   -5.5467731    289.51393  0.047213622  0.048225895            1 
  512000    1.1861374   -5.5693976    288.87298  0.047017087  0.048216575            2 
  513000    1.1883067   -5.5882129    289.16491  0.046972858  0.048207534            2 
  514000     1.164165   -5.5974253    290.71256  0.047132387  0.048198307            3 
  515000    1.1910035   -5.6059464    290.31773  0.046976979  0.048188864            2 
  516000    1.1592724   -5.6057635    289.54334  0.046760876   0.04817949            1 
  517000    1.1960581   -5.6014019    290.17119   0.04677163  0.048168768            1 
  518000     1.173257   -5.5726007    292.42707  0.047044253  0.048158595            1 
  519000    1.2023317   -5.6001401    292.34474  0.046940389  0.048147509            2 
  520000    1.1402154   -5.5676737    293.41816  0.047022141  0.048136737            7 
  521000    1.2110666   -5.5861753    293.37935   0.04692568   0.04812592            1 
  522000    1.1907947   -5.6300424    293.79043  0.046901409  0.048115584            3 
  523000    1.1703461   -5.5694194    295.76439  0.047126256  0.048105974            4 
  524000    1.1587198   -5.5915684      295.806  0.047042938  0.048097015            8 
  525000    1.1808016   -5.5396787    296.73301  0.047100477  0.048088839            3 
  526000     1.167659   -5.5696244    296.76288  0.047015666  0.048080299            3 
  527000    1.1541335   -5.5740951    296.74452  0.046923549  0.048071991            5 
  528000    1.1732196   -5.5854057    297.75442  0.046994068  0.048063117            2 
  529000    1.1632229   -5.5803054    299.13916  0.047123371  0.048054567            2 
  530000    1.1623486   -5.5834275    298.45756  0.046927289  0.048046675            3 
  531000    1.1665723   -5.6293971    298.78179  0.046889797  0.048038128            2 
  532000      1.16198   -5.5889578    300.04568  0.046999636  0.048029031            4 
  533000    1.1768693   -5.6319976    298.59449  0.046684567  0.048020182            2 
  534000    1.1424132   -5.5908438      301.271  0.047014825  0.048011219            5 
  535000    1.2013262   -5.5562741    302.05632  0.047049271  0.048003578            4 
  536000    1.1695042   -5.5992152    301.58662  0.046888466  0.047994721            1 
  537000    1.1689719   -5.5972461    301.70375  0.046819328  0.047984948            2 
  538000    1.1707685    -5.594741    302.06166  0.046787742  0.047975496            4 
  539000    1.1738635   -5.5279551    304.30784  0.047048213    0.0479661            3 
  540000    1.1738375   -5.6183693    302.93584  0.046749358  0.047956597            4 
  541000    1.1481313   -5.5705091    304.81361  0.046952189  0.047947452            2 
  542000    1.1476494   -5.6046181    303.72606  0.046698348  0.047938378            1 
  543000    1.1536499   -5.6301188    304.24474  0.046691948  0.047928299            2 
  544000    1.1642744   -5.5798921    305.83931  0.046850385  0.047918433            7 
  545000    1.1692354   -5.6340013    306.61965  0.046883738  0.047908985            2 
  546000    1.1631823   -5.5679411    307.78306  0.046975437   0.04790009            3 
  547000    1.1593901   -5.5558015    308.39588  0.046982919  0.047892134            2 
  548000    1.1757991   -5.5575773    309.15743  0.047012991  0.047884698            5 
  549000    1.1537345    -5.588226    308.46803  0.046822712  0.047877556            5 
  550000    1.1705792   -5.6201774    308.83937  0.046793843  0.047870361            5 
  551000    1.1744104   -5.5952916    309.96624  0.046879347  0.047862603            1 
  552000    1.1372164    -5.586258    310.49271    0.0468739  0.047854441            4 
  553000    1.1547091   -5.5699997    312.07059  0.047026912  0.047846724            2 
  554000    1.1500915   -5.6231825     311.5861  0.046869148  0.047839667            4 
  555000    1.1525939   -5.5945651     312.1814  0.046874085  0.047831751            4 
  556000    1.1805149   -5.5923627     312.6097  0.046853972   0.04782465            3 
  557000    1.1416725   -5.6170056    312.06272  0.046688019  0.047817019            2 
  558000    1.1506285   -5.5667117    315.39864  0.047102544  0.047809618            2 
  559000    1.1737283   -5.6026226    314.84195  0.046935294  0.047802779            2 
  560000    1.1571059   -5.6053968     315.3179  0.046922306  0.047796169            3 
  561000    1.1575041   -5.6161553    314.77217  0.046757601  0.047788857            2 
  562000    1.1461081   -5.6451415    315.20118  0.046738017  0.047780895            5 
  563000    1.1760066   -5.6478164    316.17712  0.046799455   0.04777252            3 
  564000    1.1735185   -5.5791177    316.86022  0.046817408  0.047763771            4 
  565000    1.1832178   -5.5940713    317.93483  0.046893042  0.047756115            3 
  566000    1.1707139   -5.5969296    319.17092  0.046992185  0.047747452            3 
  567000    1.1794798   -5.6152842    317.71112  0.046694757  0.047738599            5 
  568000    1.1797645   -5.6471372    316.40298  0.046420625   0.04772936            5 
  569000     1.156308   -5.6107775    319.31048  0.046764862  0.047719335            3 
  570000    1.1567632   -5.6316005    317.88591  0.046474549  0.047709642            2 
  571000    1.1661361   -5.6126864    319.52089  0.046631771  0.047699762            3 
  572000    1.1663701   -5.6092844     320.3882  0.046676603  0.047690251            3 
  573000    1.1334958   -5.6102645    320.40267  0.046597248  0.047681241            4 
  574000    1.1767912   -5.5942687    321.30984  0.046647769  0.047671644            4 
  575000    1.1429802   -5.6305762    320.43293  0.046439554  0.047661826            2 
  576000    1.1826803   -5.6055531    322.47905  0.046654955  0.047652227            5 
  577000    1.1539624   -5.5948785     322.4187  0.046565381   0.04764302            1 
  578000    1.1541751   -5.5994496    323.46519  0.046635696  0.047633036            3 
  579000    1.1779352   -5.6262375    323.01531  0.046490401  0.047623338            1 
  580000    1.1605217   -5.6108539    323.48876   0.04647827  0.047614194            2 
  581000    1.1314624    -5.612359    326.31301  0.046803357  0.047604977            2 
  582000    1.1686279   -5.5876846    325.23046  0.046567935  0.047596156            4 
  583000    1.1794147   -5.5851931    326.42623  0.046658981  0.047586788            3 
  584000     1.140908   -5.6123264    325.95203  0.046511419  0.047578254            5 
  585000    1.1772142   -5.6151278    325.93626  0.046429666  0.047567288            6 
  586000    1.1628992   -5.6043547    327.08098  0.046513222  0.047557837            3 
  587000    1.1735518   -5.6246326    326.85975  0.046402577  0.047547923            4 
  588000    1.1521629    -5.626393    327.28455  0.046383864  0.047538152            2 
  589000    1.1797097   -5.6422053    328.92024  0.046536537   0.04752897            2 
  590000    1.1517645   -5.6277506    327.55243  0.046264467  0.047518425            2 
  591000    1.1632162   -5.6181919    329.30867  0.046433822  0.047508871            3 
  592000    1.1604332   -5.5469653    329.93559  0.046443636  0.047499288            2 
  593000    1.1579784     -5.65694    329.23488  0.046266847  0.047488546            3 
  594000    1.1634644   -5.6157991    330.07494   0.04630681  0.047478467            5 
  595000    1.1413216   -5.5825261    332.31956  0.046543356  0.047468376            2 
  596000    1.1338023   -5.5964028    331.37305  0.046332921  0.047458398            3 
  597000    1.1756311   -5.6207994    332.36351  0.046393566  0.047447667            3 
  598000    1.1360543   -5.6107926    333.05589   0.04641247  0.047437937            2 
  599000     1.147116   -5.5907321    332.18148  0.046213339  0.047427938            6 
  600000    1.1724402   -5.6203988    332.77644   0.04621895  0.047417908            2 
  601000    1.1486822   -5.6010929    334.68984  0.046407354   0.04740739            5 
  602000    1.1501832   -5.6065953    334.68564  0.046329684  0.047396516            2 
  603000    1.1648114   -5.5961898    335.80357  0.046407348  0.047386576            3 
  604000    1.1730626   -5.5889747    334.54882  0.046157397  0.047376617            2 
  605000    1.1739993   -5.6316049    336.68189  0.046374915  0.047366009            4 
  606000    1.1758045   -5.5513901    336.77048  0.046310572  0.047355919            2 
  607000    1.1441713   -5.6174629    337.29725  0.046306596  0.047345826            2 
  608000    1.1596564   -5.6345402    337.20728  0.046218103  0.047335889            1 
  609000    1.1379336   -5.6429417    338.63998  0.046338256  0.047326413            3 
  610000    1.1436383   -5.6305763    338.29325  0.046214925  0.047317194            2 
  611000    1.1596333   -5.6122831    339.25758   0.04627081  0.047308025            2 
  612000    1.1398704   -5.6112899    342.29834  0.046609251  0.047298727            2 
  613000    1.1436607   -5.6157583    340.96483  0.046351935  0.047289371            4 
  614000    1.1177684   -5.6140834      340.517  0.046215662   0.04728013            4 
  615000    1.1668888   -5.6301041    340.86062  0.046187075   0.04727031            6 
  616000    1.1406229   -5.5872922     342.2975   0.04630648  0.047260086            2 
  617000    1.1439379    -5.601896    343.51839  0.046396325  0.047249864            3 
  618000    1.1731075   -5.6171009    343.14114  0.046270381   0.04724019            1 
  619000    1.1878801   -5.6011618    342.36416  0.046091029  0.047229855            3 
  620000    1.1515527   -5.6310732    342.36035  0.046016176  0.047219828            4 
  621000    1.1447375   -5.6120305    344.09176  0.046174417  0.047209049            3 
  622000    1.1508553   -5.5978048    344.41497  0.046143484  0.047198828            4 
  623000    1.1282088   -5.6364875    343.06927  0.045889415  0.047187083            2 
  624000    1.1551689   -5.6494667    343.56494   0.04588207  0.047176147            1 
  625000    1.1623144   -5.6411164    345.64844  0.046086458  0.047165621            2 
  626000    1.1408955   -5.6326995     346.3014   0.04609976  0.047154993            4 
  627000    1.1541255   -5.6502149       345.74  0.045951622  0.047143694            3 
  628000     1.138753   -5.6395946    346.29455  0.045952037  0.047131606            3 
  629000    1.1511643   -5.6029019    347.35568  0.046019566  0.047120767            5 
  630000    1.1709602   -5.6466761    347.60844  0.045979953  0.047109535            5 
  631000    1.1897734   -5.5985022    349.15055  0.046110743   0.04709859            2 
  632000    1.1282817   -5.6318148    348.50185  0.045952248  0.047087484            8 
  633000    1.1531024   -5.6507578     347.7889  0.045785796  0.047075738            4 
  634000    1.1264574   -5.6407803    349.25621  0.045906442  0.047064206            2 
  635000    1.1544594   -5.6523798    347.85825  0.045650689  0.047052598            5 
  636000     1.148318   -5.6036074    351.93004  0.046112426  0.047040932            4 
  637000    1.1612689   -5.6219274    350.21956  0.045816269  0.047028534            2 
  638000    1.1135646   -5.6317727    351.30406   0.04588611  0.047016833            3 
  639000    1.1687468   -5.6199362    351.31199  0.045815335  0.047004974            3 
  640000    1.1558727   -5.6026202    351.36042  0.045750055  0.046992777            2 
  641000      1.13052   -5.6419774    351.41807  0.045686176  0.046980125            3 
  642000    1.1232539   -5.6260092    352.10388  0.045704034  0.046967037            1 
  643000    1.1609676   -5.6253339    353.92937   0.04586954  0.046954907            2 
  644000    1.1592747   -5.6253055    353.55769  0.045750219  0.046943344            2 
  645000    1.1496668   -5.6263193    354.51051  0.045802392   0.04693207            2 
  646000    1.1578968   -5.6290651    356.24616  0.045955387  0.046921545            5 
  647000     1.149065   -5.6320041    356.11232   0.04586712  0.046910909            2 
  648000    1.1483867   -5.6271294     356.0408  0.045787139  0.046900441            4 
  649000     1.159333   -5.6633133     356.3923  0.045761722  0.046889978            5 
  650000    1.1241173   -5.6341107    359.41574  0.046078942  0.046880225            1 
  651000    1.1373123    -5.619783    358.20328  0.045852954  0.046870201            5 
  652000    1.1358024   -5.6641224     357.9193  0.045746332  0.046860605            1 
  653000    1.1609689   -5.6456482    359.76854  0.045912269  0.046850633            5 
  654000    1.1499959   -5.6518788    359.03848  0.045749042  0.046840711            2 
  655000    1.1386912   -5.6633692     360.0253  0.045804746  0.046830629            2 
  656000    1.1372967   -5.6335139    359.88738  0.045717401  0.046820712            3 
  657000    1.1257722   -5.6291026    361.50584  0.045853099  0.046811515            2 
  658000     1.157099   -5.6490226    362.82853  0.045950929  0.046802572            2 
  659000    1.1454602   -5.6348004    362.63512  0.045856743  0.046792647            2 
  660000    1.1337029   -5.6582549    362.80136  0.045808252  0.046783912            3 
  661000    1.1625574   -5.6525594    363.44773   0.04582044   0.04677364            1 
  662000    1.1541535   -5.6129142    364.36196   0.04586631  0.046763422            1 
  663000    1.1421781    -5.616303    366.46723  0.046061744  0.046753717            2 
  664000    1.1434802   -5.6472021     365.0306  0.045812074   0.04674456            4 
  665000    1.1467035   -5.6564015     365.4445   0.04579505  0.046735584            5 
  666000    1.1204506   -5.6580344    367.91123  0.046034939  0.046727281            2 
  667000    1.1473724   -5.6396157    366.77172  0.045823554  0.046718315            4 
  668000    1.1444076   -5.6250341     368.4349  0.045962438  0.046709913            2 
  669000    1.1210549    -5.662153     369.1658  0.045984778  0.046700667            2 
  670000    1.1420263   -5.6461775    369.03343   0.04589968  0.046691947            5 
  671000     1.122811   -5.6682883    368.28176  0.045737923  0.046683117            3 
  672000    1.1586216   -5.6541385    370.07942  0.045892785  0.046674177            2 
  673000    1.1509173   -5.6660914      369.032  0.045694899  0.046665274            3 
  674000    1.1423289    -5.604557    372.53278  0.046059938  0.046656527            5 
  675000    1.1555928   -5.6279307    371.38322  0.045849781  0.046648069            4 
  676000    1.1594542   -5.6706508     370.9952  0.045734122  0.046639113            2 
  677000     1.149656    -5.646884    373.34524  0.045955839  0.046629787            5 
  678000     1.146578   -5.6745942    373.27551  0.045879488  0.046621003            3 
  679000    1.1310253   -5.6411298    374.31645  0.045939673  0.046612917            2 
  680000    1.1451536   -5.6856178    372.61218  0.045663258  0.046603429            2 
  681000    1.1360134   -5.6648257    373.53586  0.045709234  0.046594423            4 
  682000    1.1375433   -5.6471941    374.04804  0.045704795  0.046585509            2 
  683000    1.1603271   -5.6379046     375.4634  0.045810566  0.046576507            2 
  684000    1.1613566   -5.6255418    375.86973  0.045793096  0.046567202            5 
  685000    1.1086685    -5.615768    376.68844  0.045825844  0.046557308            3 
  686000    1.1218931   -5.6518612    376.70055  0.045760513  0.046548296            2 
  687000    1.1415988   -5.6745065    374.91525  0.045477348  0.046538012            4 
  688000    1.1099729   -5.6853453    374.62683  0.045376312  0.046527592            2 
  689000    1.1470473   -5.6755707    377.13647   0.04561399  0.046517809            4 
  690000    1.1358123   -5.6567315    378.64048  0.045729526  0.046508792            1 
  691000    1.1069524   -5.6596504    379.50009  0.045767015   0.04649963            3 
  692000    1.1313701   -5.7066767     377.8025  0.045496448  0.046490528            4 
  693000    1.1462472   -5.6760355    379.40369  0.045623339  0.046481017            2 
  694000    1.1451775   -5.6655946    378.97869  0.045506566  0.046471612            5 
  695000    1.1324916   -5.6319007     380.5768   0.04563271  0.046462184            2 
  696000    1.1398557   -5.6539488    381.78077  0.045711299  0.046452958            4 
  697000    1.1101558   -5.6693721     379.8185  0.045411107   0.04644361            6 
  698000    1.1432274   -5.6485556    381.72012  0.045573081  0.046434266            3 
  699000    1.1528474   -5.6362902    382.46618  0.045596827  0.046425145            2 
  700000    1.1443409   -5.6411929    383.71628   0.04568051  0.046416459            2 
  701000    1.1460088    -5.641509    383.94353   0.04564236  0.046407748            3 
  702000    1.1494558   -5.6374299      383.214  0.045490741  0.046398705            4 
  703000    1.1350604   -5.6717038    384.41939  0.045568917  0.046388916            3 
  704000    1.1240055   -5.6343638     383.8976  0.045442424  0.046378948            5 
  705000     1.141691   -5.6235693    386.03172  0.045630227  0.046369468            3 
  706000    1.1179381   -5.6570218    385.85801   0.04554509  0.046359385            3 
  707000    1.1352787   -5.6223743    385.28281  0.045412872  0.046349423            2 
  708000    1.1313051   -5.6398101      386.576  0.045500942  0.046339178            4 
  709000    1.1429099   -5.6394492    385.54752  0.045315882  0.046329041            2 
  710000    1.1182408   -5.6824164    385.43103  0.045238384  0.046317982            3 
  711000    1.1168252   -5.6316392    387.39492  0.045404936  0.046307363            3 
  712000    1.1378149   -5.6919139    385.02511    0.0450638  0.046296674            2 
  713000    1.1364422   -5.6436032    386.88584  0.045218074  0.046286112            2 
  714000     1.146088   -5.6614591    386.50048  0.045109767  0.046274862            3 
  715000    1.1314637   -5.6700468    387.70153  0.045186658  0.046263529            3 
  716000    1.1545038   -5.6737449    388.00206  0.045158527  0.046251147            7 
  717000    1.1391391   -5.6434316     389.5623  0.045276883     0.046239            2 
  718000    1.1507773   -5.6531311    388.89207  0.045136034  0.046228011            3 
  719000    1.1443813   -5.6822904    389.95498  0.045196452  0.046216409            2 
  720000    1.1423028   -5.6945674    388.43265  0.044957483  0.046204816            2 
  721000    1.1290618   -5.6270751    390.68231  0.045155145  0.046192696            3 
  722000     1.142296   -5.6692721    391.11302  0.045142316   0.04618067            4 
  723000    1.1271806   -5.6906662    390.91327  0.045056854  0.046168476            3 
  724000    1.1625125   -5.6134727    391.86134  0.045103745  0.046156226            2 
  725000    1.1073448   -5.6840287    390.71556  0.044909835  0.046144214            2 
  726000    1.1478471   -5.6663863    392.93434  0.045102657  0.046132003            3 
  727000    1.1381803   -5.6622035     392.8447  0.045030341  0.046120109            4 
  728000    1.1330205   -5.6478307    395.21096   0.04523935  0.046108386            2 
  729000    1.1119171   -5.6263922    395.68252  0.045231198  0.046096788            3 
  730000        1.125   -5.6378156    395.57221  0.045156645  0.046085481            4 
  731000    1.1301289     -5.64301    396.09716  0.045154715  0.046074947            4 
  732000    1.1230014   -5.6539475    396.26003   0.04511157  0.046063942            5 
  733000    1.1245409   -5.6319806    398.37504  0.045290477  0.046052912            3 
  734000    1.1397582   -5.6202441    397.72234  0.045154671  0.046042331            3 
  735000    1.1252649   -5.6938915     397.1885   0.04503271  0.046031524            2 
  736000    1.1422236   -5.6636201    398.78331  0.045152096  0.046020511            2 
  737000    1.1486152   -5.6858437    398.88324  0.045102131  0.046009591            2 
  738000    1.1282367    -5.649635    398.65911  0.045015707  0.045999271            2 
  739000    1.1299026   -5.6576767    400.67195  0.045181771  0.045988808            4 
  740000    1.1453286   -5.6819833    401.35273   0.04519738   0.04597814            3 
  741000    1.1200982    -5.688292    401.76566  0.045182822  0.045967138            4 
  742000    1.1456777   -5.6338954    401.48969  0.045090935   0.04595607            2 
  743000    1.1272563   -5.6752472    400.60504  0.044931028  0.045944946            4 
  744000    1.1372256   -5.6541299    401.64954  0.044987628   0.04593353            2 
  745000    1.1549034   -5.6573526    401.51714  0.044912432  0.045922024            3 
  746000    1.1188234   -5.6772789    402.55899  0.044968609  0.045910461            8 
  747000    1.1189398   -5.6606397    403.90179   0.04505821  0.045899144            2 
  748000     1.151399   -5.6328553    403.58825   0.04496304  0.045888071            2 
  749000    1.1393957    -5.675092    404.54408  0.045009355  0.045876792            1 
  750000    1.1081543   -5.6617858    403.56893  0.044840992  0.045865698            3 
  751000    1.1244506   -5.6705486    406.42117  0.045097778  0.045854954            3 
  752000    1.1317228   -5.6874579     405.8864  0.044978547  0.045843562            3 
  753000    1.1189673   -5.6508676      407.773    0.0451276  0.045833124            2 
  754000    1.1097771   -5.6326767    408.44292  0.045141791  0.045823546            2 
  755000    1.1287285   -5.6846103    406.93806  0.044915901  0.045813851            4 
  756000    1.1450513    -5.688822    406.87768  0.044849832  0.045803724            2 
  757000    1.1554663   -5.6938724    407.01727  0.044805952   0.04579312            4 
  758000    1.1313294   -5.6852284    407.32488   0.04478066  0.045782958            3 
  759000    1.1212271   -5.6842588    408.58981  0.044860541  0.045772096            3 
  760000    1.1352906   -5.6798445     410.4275  0.045003015  0.045761833            3 
  761000    1.1241401   -5.6858035    410.59249  0.044961946  0.045750759            2 
  762000    1.1380053   -5.6787854    410.07904  0.044846789  0.045739822            2 
  763000    1.1185198   -5.6945736    408.94492  0.044664146  0.045729043            7 
  764000     1.126717   -5.7056031    410.94789  0.044824159  0.045717894            4 
  765000    1.1138386    -5.665734    412.46765  0.044931117  0.045706911            3 
  766000    1.1322547   -5.6575223    413.68938  0.045005372  0.045696297            2 
  767000    1.1493802   -5.7033794    413.94069  0.044973999  0.045686148            5 
  768000    1.1287262   -5.7120601    413.50703  0.044868384  0.045675603            3 
  769000    1.1049231   -5.6792157     415.6926  0.045046879  0.045665852            2 
  770000    1.1170627   -5.7014027    415.52865  0.044970633  0.045656385            4 
  771000     1.116486   -5.7027263    415.37329  0.044895514  0.045646701            4 
  772000    1.1377336   -5.7150764    415.57461   0.04485909  0.045636702            3 
  773000    1.1425387   -5.6855271    417.37281  0.044994913   0.04562647            3 
  774000    1.1698244   -5.6518581    418.97769   0.04510957  0.045617361            4 
  775000    1.1632354   -5.6688604    416.63085  0.044799016  0.045607881            7 
  776000    1.1142123   -5.6457537    417.72706  0.044859006  0.045598899            5 
  777000    1.1453084   -5.6697988    419.75559  0.045018832  0.045589623            2 
  778000    1.1010501   -5.6933817    416.86471  0.044651319  0.045580141            3 
  779000    1.1353511   -5.6513689    420.12197  0.044942444  0.045571409            4 
  780000    1.1484595   -5.6396375    421.91711  0.045076614  0.045562541            3 
  781000     1.132233   -5.6820944    420.33527  0.044850114  0.045553973            4 
  782000    1.1176663   -5.7031877    419.77393  0.044732942  0.045544614            2 
  783000    1.1204204   -5.6908881    420.55703  0.044759156  0.045535044            4 
  784000    1.1091676    -5.636997    420.89998  0.044738518  0.045525732            3 
  785000     1.120707    -5.693035    420.82377  0.044673436  0.045515562            2 
  786000    1.1341398   -5.6594067    422.79154  0.044825227  0.045505016            4 
  787000    1.1416867   -5.6977142    422.01385  0.044685922  0.045495103            6 
  788000    1.1278536    -5.711802    421.62806  0.044588416  0.045484789            2 
  789000    1.1223819   -5.6944938    422.50934  0.044624983  0.045473997            1 
  790000    1.1014134   -5.6825425    424.23085   0.04475009    0.0454633            4 
  791000    1.1278812   -5.7216599    422.25868  0.044485744  0.045452629            3 
  792000    1.1285153    -5.706691    423.90378  0.044602671  0.045442164            3 
  793000    1.1166182   -5.6879426    424.19302   0.04457682  0.045431498            3 
  794000    1.0915611   -5.6886406    424.82365  0.044586866  0.045420502            2 
  795000    1.1279277   -5.6810581    423.94175  0.044438339  0.045410173            2 
  796000    1.1304845   -5.6959269    427.26921  0.044730864  0.045399833            4 
  797000    1.1261612   -5.7148824      425.115  0.044449499  0.045389941            2 
  798000    1.1321282   -5.6928162    427.62143  0.044655538  0.045380278            5 
  799000    1.1296491   -5.7141321    429.39216   0.04478433  0.045370814            3 
  800000    1.1132711   -5.7235841    427.92974  0.044576014  0.045361653            3 
  801000    1.1273612   -5.6368577    430.89186  0.044828534  0.045352345            5 
  802000    1.1191838   -5.6951999    429.60811  0.044639247  0.045342418            3 
  803000    1.1109637   -5.6813357     430.6656    0.0446934  0.045332549            3 
  804000    1.1238686   -5.6691421    430.30905  0.044600856  0.045322582            2 
  805000    1.1295531   -5.7046119    429.01261  0.044411243  0.045312277            3 
  806000    1.1274453   -5.6344597    432.97603  0.044765925   0.04530188            1 
  807000    1.1169217   -5.6612864    431.28161  0.044535482  0.045291962            1 
  808000    1.1352687   -5.6595759    432.89075  0.044646323  0.045282365            3 
  809000    1.1106273   -5.7423151    430.39201  0.044333747  0.045271734            4 
  810000    1.1199907   -5.6835321    433.55175   0.04460409  0.045261688           12 
  811000    1.1246082   -5.6897012    433.44311  0.044537928  0.045251727            3 
  812000    1.1310836   -5.6997078    433.08587  0.044446415  0.045241869            1 
  813000    1.1194342   -5.6609561    435.07293  0.044595421  0.045232771            5 
  814000     1.094877   -5.6677497    435.05763  0.044539069  0.045223483            2 
  815000    1.1210109   -5.6784756    435.08941   0.04448767  0.045213569            1 
  816000    1.1133953   -5.7318658    434.81632  0.044405261  0.045203799            3 
  817000    1.1126918   -5.7057123    432.59464    0.0441243  0.045193153            4 
  818000    1.1149308   -5.7131776    435.31582  0.044347577  0.045182373            3 
  819000    1.1106506   -5.6941934    434.78455  0.044239372  0.045171132            4 
  820000    1.1291452   -5.7172368    436.61781  0.044371728  0.045159865            1 
  821000    1.1128019   -5.7127218    436.03209  0.044258231  0.045148489            3 
  822000    1.1023231   -5.7007396    435.69352  0.044170065  0.045137303            5 
  823000    1.0953889   -5.6641945    437.57532  0.044306938  0.045126153            2 
  824000    1.1137603   -5.7162538    435.71695  0.044065225   0.04511447            4 
  825000    1.1040541   -5.7038161    436.14552  0.044055103  0.045102613            3 
  826000    1.0937556    -5.705604    437.30207   0.04411845  0.045090529            3 
  827000    1.1196053    -5.716645    437.02513  0.044037196  0.045078637            2 
  828000    1.0925383   -5.7447744    437.89397  0.044071454  0.045066706            4 
  829000    1.1274174    -5.715501    439.00617  0.044130094  0.045055021            2 
  830000    1.1423187    -5.688124    440.23663  0.044200465  0.045043783            3 
  831000    1.1163205   -5.6904396    439.77183  0.044100665  0.045032768            3 
  832000    1.1162694   -5.7369298    441.15356  0.044186053   0.04502123            5 
  833000    1.1320087    -5.753917    439.27312   0.04394489  0.045009569            3 
  834000    1.1363232   -5.6972807     441.3861  0.044103328   0.04499834            1 
  835000    1.1360658   -5.7063075     444.1232  0.044323672   0.04498776            4 
  836000    1.1238363   -5.6679064    443.78064  0.044236507  0.044977129            4 
  837000    1.1060292   -5.6833374    444.32391  0.044237745  0.044966384            5 
  838000    1.1252924   -5.7058515    444.65369   0.04421775  0.044955212            7 
  839000    1.1083939   -5.7141963    443.93541  0.044093704  0.044944588            3 
  840000    1.1089592   -5.6822717    444.35443  0.044082781  0.044933318            2 
  841000    1.1045656   -5.6846137    444.41564  0.044036429  0.044922863            3 
  842000    1.1040762   -5.7145896    443.76837  0.043920068  0.044912184            2 
  843000    1.1232014   -5.7307753    445.74439  0.044063305  0.044901064            2 
  844000     1.137395   -5.7243037    447.75229  0.044209349  0.044890399            3 
  845000    1.1284894   -5.6972674    446.97983  0.044080851  0.044880013            7 
  846000     1.110784   -5.7431772    448.15691  0.044144692   0.04486988            4 
  847000    1.1362835   -5.6866216     450.6087  0.044333795  0.044859835            3 
  848000     1.117122   -5.6698089    450.88643  0.044308808  0.044850377            2 
  849000    1.1205988   -5.6944085     450.9829  0.044266087  0.044840447            2 
  850000    1.1126681   -5.7171429    450.03642  0.044121217  0.044830581            2 
  851000    1.1153197    -5.635949    453.06112  0.044365562  0.044821044            4 
  852000    1.0848086   -5.7016084    451.52336  0.044163083  0.044811433            3 
  853000    1.1302119   -5.6978554    452.33086  0.044190198  0.044802067            3 
  854000    1.1420902   -5.7335277    452.85891   0.04418998  0.044792867            2 
  855000    1.1258117   -5.7192181    451.83588  0.044038585   0.04478345            1 
  856000    1.1246158   -5.7378488    453.00176  0.044100639  0.044774592            4 
  857000    1.1209658   -5.7264488    454.29836  0.044175259  0.044765368            2 
  858000    1.0928579    -5.689893     455.2227  0.044213549  0.044756355            3 
  859000    1.1037394   -5.7380858    455.30766   0.04417032  0.044747439            3 
  860000    1.1063662   -5.6995478    457.05208  0.044287992  0.044738493            3 
  861000    1.1269292   -5.7501853     455.4338  0.044079927  0.044729928            6 
  862000    1.1048982   -5.6508629    459.23763  0.044396523   0.04472118            2 
  863000    1.1162522   -5.7227689    457.82543  0.044208713  0.044712848            3 
  864000    1.1036482   -5.7427105    457.53503  0.044129536  0.044704403            1 
  865000    1.1242008   -5.7291704    458.23917  0.044146356  0.044695975           10 
  866000    1.1071913   -5.6750437    460.21879  0.044285873  0.044687612            2 
  867000    1.1405302   -5.7026641    458.54407  0.044073825  0.044678233            3 
  868000    1.0962929   -5.6608519    462.63302  0.044415613  0.044670079            4 
  869000    1.1248472   -5.6957203    460.59589   0.04416915  0.044661901            3 
  870000    1.1109209   -5.7404886    460.21007  0.044081424  0.044653208            1 
  871000    1.1144373   -5.7206289    462.51448  0.044251289  0.044644646            3 
  872000    1.1174116   -5.7062734    463.61544  0.044305757  0.044636631            2 
  873000    1.1247743   -5.7209098     462.5245  0.044150869  0.044628499            3 
  874000    1.1052128   -5.6806509     462.5836  0.044105988  0.044620117            3 
  875000    1.1159986   -5.7111779    463.26664  0.044120632  0.044611816            3 
  876000     1.098905    -5.721089    464.12165  0.044151603  0.044603422            2 
  877000     1.097304   -5.7142039    464.89167  0.044174427  0.044595082            2 
  878000    1.1227068   -5.6993162     465.2326  0.044156473  0.044586904            2 
  879000    1.1159967   -5.7100002    465.87868  0.044167489  0.044578644            3 
  880000    1.1090432   -5.7519296    462.77614  0.043823498  0.044569851            3 
  881000    1.0992921   -5.7214499    465.79914  0.044059699  0.044560789            2 
  882000    1.1253769   -5.7322887    466.53192   0.04407898  0.044551851            4 
  883000    1.0989218   -5.7318969    466.03356  0.043982027  0.044543029            4 
  884000    1.1250983   -5.7160512    467.94195  0.044112175  0.044534259            3 
  885000    1.1034989    -5.727822    468.03952  0.044071517  0.044525489            3 
  886000     1.119613   -5.7227305    467.76172  0.043995647  0.044517237            3 
  887000    1.1273521   -5.7187918    469.05642  0.044067684   0.04450871            2 
  888000    1.1020523     -5.74484    468.13651  0.043931729  0.044500202            3 
  889000    1.1112631   -5.7654189    466.82664  0.043759528  0.044491241            4 
  890000    1.0727997   -5.7293952    470.06778  0.044013837   0.04448236            2 
  891000    1.1104535   -5.6746555    471.00972  0.044052537   0.04447392            2 
  892000    1.1245946   -5.6916683     471.7425  0.044071608  0.044465859            3 
  893000    1.1185956   -5.6911032    470.76656  0.043931183  0.044457686            7 
  894000    1.0865411   -5.7145753    473.41123  0.044128564  0.044449233            4 
  895000    1.1060276   -5.7274876    472.42939  0.043987839   0.04444087            5 
  896000    1.0778221   -5.7089932    473.41566  0.044030475  0.044432541            7 
  897000    1.0919526   -5.7260838    473.35504  0.043975756  0.044424287            4 
  898000    1.0958386   -5.7243686    473.88679  0.043976131  0.044415722            4 
  899000    1.1227148   -5.7258365    473.89855  0.043928305  0.044407432            3 
  900000    1.1086004   -5.7084571     475.7829  0.044053972  0.044398792            4 
  901000    1.1177525   -5.7389152    474.84716  0.043918532  0.044390524            5 
  902000    1.1036786   -5.7186055    476.78035  0.044048444  0.044382804            1 
  903000    1.1163175   -5.7340833    477.56542  0.044072114  0.044375058            2 
  904000    1.1329845   -5.6985067    476.53714  0.043928571   0.04436667            4 
  905000    1.0987756   -5.7010638    476.75412  0.043900011  0.044358107            3 
  906000    1.1083147   -5.7072165    477.92592  0.043959338  0.044349504            6 
  907000    1.1240702   -5.7252488    476.42349   0.04377283  0.044341048            3 
  908000    1.1119533   -5.7483732    477.26382  0.043801746  0.044332559            2 
  909000    1.1052735   -5.7341279    477.28702  0.043755686  0.044323856            7 
  910000    1.1092128   -5.7148676    477.69247  0.043744732  0.044314807            3 
  911000    1.1282153   -5.7399141    477.51858  0.043680807  0.044305862            4 
  912000    1.1085271   -5.7247232    480.06047  0.043865175  0.044297063            2 
  913000    1.0853454   -5.7310068    479.01333  0.043721553  0.044288134            3 
  914000    1.1085538   -5.7499107    478.55563  0.043631987  0.044278826            7 
  915000    1.1023074   -5.7313194    480.14733  0.043729265  0.044269701            2 
  916000     1.118114   -5.7269002    480.41785  0.043706136   0.04426064            2 
  917000    1.0848018   -5.7514654    479.21954  0.043549577  0.044251389            3 
  918000    1.1303799   -5.7384673    480.31551  0.043601626  0.044242067            4 
  919000    1.1100877   -5.7731084    481.79619  0.043688447  0.044232727            3 
  920000    1.1032678   -5.7256987    482.33003  0.043689314  0.044223332            2 
  921000     1.120721    -5.744492    482.13836  0.043624535  0.044213857            2 
  922000    1.1045678   -5.7254306    482.89836  0.043645911  0.044204695            4 
  923000    1.1070379   -5.7035485    483.26078  0.043631345  0.044194754            4 
  924000    1.0691403   -5.7132522    483.41493  0.043598027  0.044185184            3 
  925000    1.1402455   -5.7238226    483.58404   0.04356613  0.044175677            6 
  926000    1.0916112   -5.7522434    483.27916  0.043491645   0.04416591            4 
  927000    1.1139746   -5.7318885    484.84901  0.043585851  0.044156702            3 
  928000    1.1171315   -5.7346384    485.43003  0.043591059   0.04414748            3 
  929000    1.1095705   -5.7583001    484.70714  0.043479292  0.044138261            3 
  930000    1.1100443   -5.7081871    486.70096  0.043611197  0.044129309            2 
  931000    1.1030146   -5.7496047    486.24491  0.043523533      0.04412            2 
  932000    1.0897401   -5.7511553    486.95077  0.043539947   0.04411056            5 
  933000    1.0740475   -5.7271604    487.46456  0.043539171  0.044101223            2 
  934000    1.1242505   -5.7129229    488.63417   0.04359691  0.044092083            9 
  935000    1.1011359   -5.7554109    489.06045  0.043588276  0.044083357            3 
  936000    1.1054467   -5.6947862    491.67618  0.043774589  0.044074413            2 
  937000    1.1273685   -5.7579673    489.08372  0.043497307  0.044065673            3 
  938000    1.1152771   -5.7207568    491.19479  0.043638485  0.044056772            4 
  939000    1.0966935   -5.7567774    491.29729  0.043601109   0.04404746            4 
  940000    1.1063635   -5.7603032    491.07186  0.043534739  0.044038341            5 
  941000    1.1126056   -5.7227046    489.68936  0.043366043  0.044029458            4 
  942000    1.1050217   -5.7281216    490.18369  0.043363737  0.044020081            1 
  943000    1.1122435   -5.7801811     491.4877  0.043432988  0.044010488            2 
  944000    1.1050477   -5.7063522    493.96741   0.04360588  0.044001191            5 
  945000    1.1190302   -5.7096834    493.60622  0.043527886  0.043991967            3 
  946000    1.1088454   -5.7215177    493.67984  0.043488358  0.043982703            3 
  947000     1.112182   -5.7191035    494.54253   0.04351835  0.043973218            3 
  948000    1.0817745   -5.7313451    493.07694  0.043343613  0.043964095            6 
  949000    1.0902592   -5.7548713    492.32989   0.04323234  0.043954294            1 
  950000    1.0980279   -5.7176179    495.43876   0.04345954  0.043944091            3 
  951000    1.0988406   -5.7117709    495.70477  0.043437152  0.043934247            3 
  952000    1.0989711   -5.7187684    494.42793  0.043279756  0.043924632            6 
  953000    1.0882574   -5.7403811    494.98085  0.043282691  0.043914962            6 
  954000    1.0936274   -5.7159363    494.70682  0.043213384  0.043904566            3 
  955000    1.1060809   -5.7276147    496.30973  0.043308004  0.043894061            2 
  956000    1.1078093   -5.7313415    496.20066  0.043253196  0.043884063            3 
  957000    1.1087097   -5.7193404      497.054  0.043282306  0.043874347            2 
  958000    1.0972598   -5.7512727    496.22617  0.043165115  0.043864517            4 
  959000    1.0763474   -5.7802142    494.56851  0.042976061  0.043853859            3 
  960000    1.1094319   -5.7892022    495.01622  0.042970158  0.043842889            4 
  961000    1.1083862   -5.7235314     499.2636  0.043293756  0.043832262            1 
  962000    1.0868591   -5.7283725    500.06308  0.043318008  0.043821969            3 
  963000    1.0934913   -5.7521817    497.33229  0.043036716  0.043811965            5 
  964000    1.1126139   -5.7477806     498.8582   0.04312398  0.043801669            3 
  965000    1.0958717   -5.7296262    500.42445  0.043214546  0.043791809            2 
  966000    1.0992641   -5.7442612    500.32206  0.043160978  0.043781758            2 
  967000    1.1265996   -5.7297383    501.48135  0.043216249  0.043771604            3 
  968000    1.0887533   -5.7665256     500.3887   0.04307754  0.043761742            5 
  969000    1.0862129   -5.7124614    501.28989  0.043110586  0.043751994            2 
  970000    1.0992858   -5.7465696    502.42318  0.043163503  0.043741888            4 
  971000    1.1021202   -5.7430313    500.88898  0.042987382  0.043732022            5 
  972000    1.1151959   -5.7397153    503.50022  0.043167029  0.043722048            4 
  973000    1.0780738   -5.7704568    502.56335  0.043042425  0.043711964            5 
  974000    1.1021479   -5.7664038    502.53935   0.04299618  0.043701905            4 
  975000     1.087803   -5.6962871     504.8212  0.043147111  0.043692035            2 
  976000    1.0930505   -5.7581018    504.09224  0.043040662  0.043682063            3 
  977000    1.0980563   -5.7496957    505.36672  0.043105316  0.043671824            3 
  978000    1.0752279   -5.7709829    503.79041  0.042926927   0.04366155            2 
  979000    1.0984766   -5.7508402    503.11001  0.042825163  0.043651373            1 
  980000    1.1229244   -5.7507219    504.13493  0.042868617  0.043641275            3 
  981000    1.0819567   -5.7579027    505.16471  0.042912394  0.043630852            5 
  982000    1.0701585   -5.7603551    506.64964  0.042994708  0.043620639            2 
  983000     1.079125   -5.7570178     507.8197  0.043050161  0.043610471            5 
  984000     1.073487   -5.7422897    507.43232  0.042973604  0.043600591            1 
  985000    1.0927972   -5.7929994    505.89323  0.042799766  0.043590439            5 
  986000    1.0933041   -5.7515065    507.79918  0.042917442  0.043580472            2 
  987000    1.1026084   -5.7674965    509.26792  0.042997967  0.043570538            4 
  988000    1.0839358   -5.7794273    505.93584  0.042673401  0.043560219            3 
  989000    1.0863966   -5.8041992    507.15321  0.042732829  0.043549933            5 
  990000      1.09114   -5.7644675    508.59134  0.042810719  0.043539477            2 
  991000    1.0877603   -5.7580171     510.9709  0.042967617  0.043529394            3 
  992000    1.0982493   -5.7456671    511.20879  0.042944287  0.043519443            4 
  993000    1.1160932   -5.7471156    510.24507  0.042820164  0.043509842            3 
  994000    1.1164991   -5.7647541    511.19799  0.042856974  0.043499918            3 
  995000    1.0855645   -5.7537658    512.18531  0.042896592  0.043490104            3 
  996000    1.0805464   -5.7731242    511.89481  0.042829217  0.043480325            3 
  997000    1.0971807    -5.758853    513.74507  0.042940912  0.043470362            3 
  998000    1.0875477   -5.7086043    514.47307  0.042958673  0.043460645            3 
  999000    1.0952404   -5.7610491    515.19555  0.042975938  0.043450862            2 
 1000000    1.0857584   -5.7596432    513.96457  0.042830381  0.043440863            5 
 1001000    1.0863818   -5.7462234    513.39298  0.042740008  0.043430712            4 
 1002000    1.0799998   -5.7552388    516.58617  0.042962922   0.04342108            6 
 1003000    1.0945224   -5.7552263    517.41925  0.042989303  0.043411796            5 
 1004000    1.0879545   -5.7253713    517.11088   0.04292089   0.04340202            4 
 1005000    1.0788798   -5.7697981    516.11703  0.042795773  0.043392569            4 
 1006000    1.0739772   -5.7345681    517.71116  0.042885285  0.043382794            2 
 1007000    1.1006939   -5.7621551      517.807  0.042850629  0.043372863            2 
 1008000    1.1151457   -5.7249878    518.45669  0.042861829  0.043362797            4 
 1009000    1.1049123   -5.7787535    518.94753  0.042859888  0.043352944            2 
 1010000    1.1064717   -5.7434568    518.96506  0.042818899  0.043343091            3 
 1011000    1.0897904   -5.7737014    519.38919  0.042811506  0.043333529            7 
 1012000    1.1090599   -5.7585357    520.53642  0.042863671  0.043324044            3 
 1013000    1.0805158   -5.7730905    519.00941  0.042695739  0.043314194            2 
 1014000    1.0831887   -5.7455156    521.53761  0.042861408  0.043304797            3 
 1015000    1.0982669   -5.7753982    519.75448  0.042672782  0.043295384            6 
 1016000    1.0833309    -5.753472    521.46026   0.04277069  0.043285994            3 
 1017000     1.081898   -5.7972405    520.20736  0.042625971  0.043275982            5 
 1018000    1.1015432   -5.7831063    519.68036  0.042540959  0.043266049            2 
 1019000    1.0567759   -5.7501334    521.68738  0.042663345  0.043256108            3 
 1020000    1.0818239   -5.7540725    521.90641  0.042639413   0.04324622            3 
 1021000    1.1036442   -5.7301689    522.56419  0.042651338  0.043236289            6 
 1022000    1.0984786   -5.7859288    522.40748  0.042596827  0.043226186            2 
 1023000    1.0855004   -5.7836214     523.2978  0.042627713  0.043216139            2 
 1024000    1.0693586   -5.7580278    523.03468  0.042564671  0.043205937            3 
 1025000    1.0935139   -5.7460296    523.70114  0.042577328  0.043195682            1 
 1026000    1.0810547   -5.7576986    526.14903  0.042734652  0.043186047            4 
 1027000     1.084224    -5.760696    524.72294  0.042577324  0.043176162            3 
 1028000    1.0979391   -5.7773333    524.49016  0.042517036  0.043165741            3 
 1029000    1.0864125   -5.7924147    524.19883  0.042452124  0.043155327            3 
 1030000    1.0911826   -5.7527012    524.80868  0.042460249  0.043144951            4 
 1031000    1.0853599    -5.770456    525.54499   0.04247858  0.043134876            1 
 1032000    1.0891059   -5.7806068    526.38401  0.042505169  0.043124093            4 
 1033000     1.083964   -5.7342959    527.24818  0.042533735  0.043113657            3 
 1034000    1.0813945   -5.7523724    527.45542  0.042509302  0.043103522            3 
 1035000    1.0832021   -5.8051012    526.33118  0.042377711  0.043093192            2 
 1036000    1.0769467   -5.7939035    527.92837  0.042465281  0.043083071            3 
 1037000    1.0648135   -5.7349529    530.35168  0.042619068  0.043073171            4 
 1038000    1.0755046   -5.7846629    528.26929   0.04241083  0.043063138            3 
 1039000     1.050075   -5.8116171    527.23584  0.042287122  0.043052755            6 
 1040000    1.0990416   -5.7755912    529.88475  0.042458714  0.043042398            1 
 1041000    1.0766655   -5.7374197    529.06238  0.042352095    0.0430327            3 
 1042000    1.0871843   -5.8237923    531.32758  0.042492609  0.043022728            3 
 1043000    1.0728801   -5.8050682    530.26169  0.042366706  0.043012854            3 
 1044000    1.0815729   -5.7673169    530.88036  0.042375508  0.043002821            4 
 1045000    1.0873484   -5.7714319    532.99958  0.042503954   0.04299298            6 
 1046000     1.072183   -5.8005378    532.23456  0.042402371  0.042983126            6 
 1047000    1.0903128   -5.7867617    533.40226  0.042454812  0.042973141            4 
 1048000    1.0964242   -5.8052479    532.88533  0.042373197  0.042963478            4 
 1049000    1.0920624   -5.7879424    534.21462  0.042438403  0.042953514            1 
 1050000    1.0795149    -5.807778     532.0887  0.042229262  0.042943588            4 
 1051000    1.0609124   -5.7548396    534.64898  0.042392085  0.042933409            2 
 1052000    1.0957755   -5.7684547    534.66599  0.042353136   0.04292353            3 
 1053000    1.0893307   -5.7739284    535.61538  0.042388049  0.042913265            5 
 1054000    1.0892053   -5.8211678    532.40903  0.042094325   0.04290301            2 
 1055000    1.0637038   -5.8200849    534.01732  0.042181463  0.042892586            2 
 1056000    1.0881909   -5.7673647    538.00236  0.042455994  0.042882331            3 
 1057000    1.0993554   -5.7626527     536.7732  0.042318921  0.042872355            3 
 1058000    1.0767906   -5.7719863    538.96713  0.042451727  0.042862227            3 
 1059000    1.0936052   -5.7452666    537.41138  0.042289218  0.042851942            3 
 1060000    1.0926923   -5.8321718    535.71531  0.042115983  0.042841682            4 
 1061000     1.069699    -5.789684    537.28761  0.042199781  0.042830967            4 
 1062000    1.0784089   -5.7488671    538.33438  0.042242183  0.042821007            3 
 1063000    1.0526613   -5.8084646    538.57389   0.04222122  0.042810986            5 
 1064000     1.093168   -5.7494186    541.02418  0.042373448  0.042801045            2 
 1065000    1.0677339   -5.7840548    541.69287  0.042385983  0.042791571            3 
 1066000    1.1038972   -5.7680096    541.15114  0.042303872   0.04278213            2 
 1067000    1.0619712   -5.7895597    542.68651  0.042384138  0.042772936            3 
 1068000    1.0953541   -5.7608383    542.45365  0.042326283   0.04276382            7 
 1069000    1.0802903    -5.818527    542.41545  0.042283711  0.042754372            2 
 1070000    1.0798359   -5.7761524    544.32911  0.042393233  0.042745151            4 
 1071000    1.0871285   -5.7617007    544.38572  0.042358055  0.042736189            2 
 1072000    1.0659662   -5.7894488    544.85947  0.042355369  0.042727049            7 
 1073000    1.0819488   -5.7934111    543.76588  0.042230963  0.042717874            4 
 1074000    1.0824145    -5.778209    545.40442  0.042318779  0.042708519            4 
 1075000      1.08584   -5.8028637    543.96735  0.042168011  0.042699097            3 
 1076000     1.071999    -5.809186    544.08346  0.042137814  0.042689239            3 
 1077000    1.0714218   -5.7996568    543.93155  0.042086935   0.04267948            2 
 1078000    1.0883797   -5.7602387    546.40233  0.042238894   0.04266987            1 
 1079000    1.0961919   -5.7445295    547.83242  0.042310196  0.042660221            3 
 1080000    1.0877232   -5.7932682    546.20079  0.042145123  0.042650776            4 
 1081000    1.0852194   -5.7712241    547.82923  0.042231671  0.042641121            2 
 1082000    1.0826302   -5.7978118    548.63175  0.042254448   0.04263158            5 
 1083000    1.0875701   -5.7852059    547.68164  0.042142324  0.042621577            8 
 1084000    1.0887327   -5.8332752    546.88054  0.042041862  0.042611999            2 
 1085000    1.0779626   -5.7967626    547.52567  0.042052663  0.042602567            4 
 1086000    1.0701743   -5.7976053    549.68121  0.042179344  0.042593181            5 
 1087000    1.0862967   -5.8106766    548.88793  0.042079725  0.042583758            1 
 1088000    1.0928122    -5.793549    550.34802  0.042152881  0.042574584            3 
 1089000    1.0880653   -5.8245136    549.94388  0.042083248  0.042565233            4 
 1090000    1.0885618   -5.8007937    553.34101  0.042304359  0.042555765            2 
 1091000    1.0787594   -5.7976117    551.00804  0.042087384  0.042546266            1 
 1092000    1.0862713   -5.7553942    553.33828   0.04222667  0.042536993            3 
 1093000    1.0580656   -5.7925215    549.40793  0.041888375  0.042527643            3 
 1094000    1.0732378   -5.7811053    552.24485  0.042066183  0.042518374            3 
 1095000    1.1009491    -5.803836    554.38383   0.04219055  0.042509059            4 
 1096000    1.0593965   -5.7634991    553.13857  0.042057373  0.042499518            3 
 1097000    1.0749775   -5.7640751    554.37429  0.042112905  0.042490177            2 
 1098000    1.0701959   -5.7857095    551.47437  0.041854461   0.04248086            4 
 1099000     1.064861   -5.8126851    552.64242  0.041904945  0.042471121            2 
 1100000    1.0810859   -5.7743437    553.23025  0.041911383  0.042461395            2 
 1101000    1.0696704   -5.7871757    555.19688  0.042022167  0.042451783            4 
 1102000    1.0536478   -5.8378041     553.8876  0.041885027  0.042441679            4 
 1103000    1.0842631   -5.8248228    552.53029  0.041744507  0.042431489            3 
 1104000    1.1027659   -5.8038965    553.87022  0.041807837  0.042421622            3 
 1105000    1.0601152   -5.8092308     556.4399  0.041963793   0.04241197            3 
 1106000    1.0588488   -5.7723087    556.34639  0.041918805  0.042402534            5 
 1107000    1.0999912   -5.7788711    557.64134  0.041978421  0.042393061            2 
 1108000     1.056927   -5.7877612    556.96223  0.041889458  0.042383705            2 
 1109000    1.0712092   -5.8048746    557.16689  0.041867064  0.042374327            4 
 1110000    1.0808152   -5.8265509    556.58698  0.041785809  0.042364736            3 
 1111000    1.0874092   -5.7725239    559.58541  0.041973103  0.042355262            3 
 1112000    1.0493602   -5.8298942    559.16778   0.04190406  0.042346087            2 
 1113000    1.0796166   -5.8163322    559.99906   0.04192865  0.042336429            4 
 1114000     1.094473   -5.7605529    560.78838  0.041950058  0.042327202            3 
 1115000    1.0687439   -5.8120247    559.29038  0.041800477  0.042317755            2 
 1116000    1.0713349    -5.801331    561.11873  0.041899547  0.042308117           10 
 1117000    1.0710587   -5.7694401    561.30585  0.041875996  0.042298637            3 
 1118000    1.0723674   -5.7802067    561.55753  0.041857299  0.042289043            7 
 1119000    1.0575292   -5.7621821    561.86591  0.041842859  0.042279572            6 
 1120000    1.0728655   -5.7918882    562.56575  0.041857571  0.042269948            2 
 1121000    1.0975192   -5.7706197     561.4236  0.041735326  0.042260217            3 
 1122000    1.0673538   -5.8547431     562.5354  0.041780704  0.042250549            2 
 1123000    1.0657067   -5.7566292    564.59707  0.041896488  0.042241303            3 
 1124000    1.0824736   -5.7811705    564.51147  0.041852867  0.042231961            2 
 1125000     1.087734   -5.8249688    563.20049  0.041718555  0.042222672            5 
 1126000    1.0664802   -5.8120209    564.67091  0.041790328  0.042213221            3 
 1127000    1.0823585   -5.7879376     567.5745  0.041967946  0.042204102            6 
 1128000    1.0693499   -5.8073834    565.94643  0.041810463  0.042195063            2 
 1129000    1.0398245   -5.7963637    567.07964  0.041857074  0.042185847            3 
 1130000    1.0850185   -5.8169014    567.07777  0.041819894  0.042176427            4 
 1131000    1.0749067   -5.7981518    566.99027  0.041776472  0.042166716            3 
 1132000    1.0543119   -5.8164989    567.21673  0.041756238  0.042157088            3 
 1133000    1.0597774   -5.7946512    567.80792  0.041762865  0.042147505            4 
 1134000    1.0684326   -5.7885823    568.58819  0.041783377  0.042138454            4 
 1135000    1.0569837   -5.8418832    568.25328  0.041721973  0.042129246            4 
 1136000    1.0739052   -5.7852757    568.43907  0.041698875  0.042120063            4 
 1137000    1.0736541   -5.8032658    568.22613  0.041646594    0.0421109            3 
 1138000     1.066248   -5.8254718    570.08863  0.041746385  0.042101531            3 
 1139000    1.0589156   -5.8323927    569.44123  0.041662367  0.042092411            8 
 1140000    1.0853877   -5.8283147    569.97263  0.041664666  0.042083211            3 
 1141000    1.0655182   -5.8110336    570.83658  0.041691249  0.042073866            5 
 1142000    1.0653462   -5.8093835    570.05988  0.041598065  0.042064681            2 
 1143000    1.0917688   -5.8003695    572.72996   0.04175634   0.04205547            3 
 1144000    1.0521634   -5.8277926    571.97754  0.041665031  0.042046431            4 
 1145000    1.0971681    -5.808016    571.65218  0.041604962   0.04203739            1 
 1146000    1.0542779   -5.7730178    573.93655  0.041734769  0.042028204            6 
 1147000    1.0828441   -5.8091257    574.23166  0.041719824  0.042019007           14 
 1148000    1.0704998   -5.8256062    573.49924  0.041630317  0.042009677            5 
 1149000    1.0672354   -5.8285405    571.14907  0.041423634  0.042000345            4 
 1150000    1.0737745   -5.8027978    575.01845  0.041668004  0.041991325            1 
 1151000    1.0629603   -5.8098886    575.17114  0.041642857  0.041982278            4 
 1152000    1.0465733   -5.8075662    575.17525  0.041607006  0.041973076            3 
 1153000    1.0697684   -5.8486717    575.28696  0.041578994  0.041963845            2 
 1154000    1.0504354   -5.7721811    577.14338  0.041677021  0.041954698            3 
 1155000    1.0552718   -5.8170765    574.99904  0.041486222  0.041945707            2 
 1156000    1.0466128   -5.8138865    576.55938  0.041562816  0.041936455            6 
 1157000    1.0856657   -5.8159123    577.86859  0.041621189  0.041927308            4 
 1158000    1.0653457   -5.8136266    576.61649  0.041495141  0.041917974            3 
 1159000    1.0683414   -5.8510737    574.76484  0.041326204  0.041908212            4 
 1160000    1.0973893    -5.787409     578.1626   0.04153467   0.04189871            6 
 1161000     1.054359   -5.8270458    579.57268  0.041600106  0.041889259            4 
 1162000    1.0656238   -5.8369064    577.47895  0.041414153  0.041879891            3 
 1163000    1.0586479   -5.8060156    579.17012  0.041499722  0.041870724            1 
 1164000    1.0382927   -5.8497064    576.22041  0.041252893  0.041860767            2 
 1165000    1.0490186   -5.8298392    578.71298  0.041395778  0.041850901            2 
 1166000     1.039394   -5.8331239    579.35178  0.041405931  0.041841423            1 
 1167000    1.0448653   -5.7825337    580.06823   0.04142161  0.041831973            4 
 1168000    1.0746104    -5.830981    581.13556  0.041462298  0.041822832            4 
 1169000    1.0674756   -5.8287881    582.53193  0.041526371  0.041813353            3 
 1170000    1.0818395   -5.8117177     581.3408   0.04140604  0.041804387            2 
 1171000    1.0651836    -5.802242    584.74555  0.041612977  0.041795641            4 
 1172000    1.0781723    -5.801665    582.84124  0.041442068  0.041786916            3 
 1173000    1.0638518   -5.8555153    582.74893   0.04140018  0.041777748            6 
 1174000    1.0813337   -5.7936151    583.00384   0.04138301  0.041768591            2 
 1175000    1.0651844   -5.8038445    583.66925  0.041394982  0.041759758            3 
 1176000    1.0566737   -5.7986729    583.60911  0.041355521  0.041750666            2 
 1177000    1.0409956   -5.8269307    583.12236  0.041285922  0.041741366            4 
 1178000    1.0867674   -5.7750986    586.47242  0.041487862   0.04173228            2 
 1179000    1.0625914   -5.8238543    584.06954  0.041282834  0.041723327            3 
 1180000    1.0662383   -5.8843236    583.57126   0.04121266  0.041713645            2 
 1181000    1.0463173   -5.8371013    584.49116  0.041242673  0.041704224            4 
 1182000    1.0676267    -5.797056    586.64952  0.041359949  0.041694885            4 
 1183000    1.0721891   -5.8168153    585.20133  0.041222974  0.041685154            3 
 1184000    1.0747666   -5.8178599    585.82742  0.041232223  0.041675438            4 
 1185000    1.0652719   -5.8071891    586.05286  0.041213282  0.041665796            5 
 1186000    1.0715415   -5.8079046    588.17258  0.041327472  0.041656098            3 
 1187000    1.0618682   -5.8201285    586.72908  0.041191314  0.041646195            4 
 1188000    1.0464122   -5.8707014    585.19006  0.041048685  0.041636593            3 
 1189000    1.0788399   -5.7769992    590.38394  0.041378184  0.041627127            4 
 1190000    1.0574796   -5.7855468    589.51425  0.041282511   0.04161807            4 
 1191000    1.0647257   -5.8209991    590.40825  0.041310401  0.041608731            4 
 1192000    1.0429491   -5.8310255    587.35812  0.041062509  0.041599203            5 
 1193000    1.0505812   -5.8229099    587.90629   0.04106638  0.041589486            4 
 1194000    1.0588527    -5.802631    589.48944  0.041142479  0.041579802            3 
 1195000    1.1007155   -5.8242639    588.47316   0.04103718  0.041570412            9 
 1196000    1.0696504   -5.8283261    591.29282  0.041199332  0.041561243            2 
 1197000     1.070894   -5.8111093    591.56408  0.041183799  0.041551982            5 
 1198000    1.0705855     -5.84756    592.98299  0.041248121  0.041542615            7 
 1199000    1.0823831   -5.8148934    592.50193  0.041180284  0.041533324            2 
 1200000    1.0552381   -5.8189633    594.04197  0.041252915  0.041524113            2 
 1201000    1.0711755   -5.8303483    591.31898  0.041029627  0.041515074            3 
 1202000    1.0791669   -5.8319486    592.90693  0.041105583  0.041505727            2 
 1203000    1.0611907    -5.814459    594.15092  0.041157587  0.041496422            4 
 1204000    1.0690434   -5.8378396    593.34381  0.041067539  0.041487325            4 
 1205000    1.0539395   -5.8579281    592.06741  0.040945187  0.041477934            6 
 1206000    1.0745879   -5.8217582    593.43655  0.041005842   0.04146871            3 
 1207000    1.0548835    -5.843614    594.85503  0.041069803   0.04145891            2 
 1208000    1.0489898   -5.8934679    592.64195  0.040883137  0.041449217            3 
 1209000    1.0489033   -5.8462354    594.14219  0.040952729  0.041439499            2 
 1210000    1.0466777   -5.8175037    595.85819  0.041037066   0.04142996            5 
 1211000    1.0356557   -5.8299955    593.92733  0.040870309  0.041420413            5 
 1212000    1.0554916   -5.8372177    596.00725  0.040979597  0.041410893            5 
 1213000    1.0580382   -5.8382482     595.7326  0.040926944  0.041401335            6 
 1214000    1.0520778   -5.8546815    595.07584   0.04084815  0.041391589            5 
 1215000    1.0355225   -5.8361482    596.71361  0.040926859  0.041381872            2 
 1216000    1.0496358   -5.8513771    596.54539  0.040881674  0.041372387            2 
 1217000    1.0563707   -5.8173217    597.97941  0.040946276  0.041362983            5 
 1218000    1.0845508   -5.8061391    599.71493  0.041031399  0.041353772            3 
 1219000    1.0712328   -5.8712795    599.14763  0.040958958  0.041344521            7 
 1220000    1.0353559    -5.890536    598.14664  0.040857011  0.041334734            2 
 1221000    1.0215787   -5.8613915    597.82046  0.040801287  0.041325049            8 
 1222000    1.0647715   -5.8519654    598.68808  0.040827065   0.04131533            2 
 1223000     1.071205   -5.8334053    599.14881  0.040825076  0.041305584            3 
 1224000    1.0598166   -5.8278967    601.64365  0.040961577  0.041296115            3 
 1225000    1.0807512   -5.8247001    600.81522  0.040871784  0.041286788            2 
 1226000    1.0622981   -5.8328219    602.81662  0.040974484  0.041277125            5 
 1227000    1.0682355   -5.8000393    603.38202   0.04097949  0.041267804            3 
 1228000    1.0151956   -5.8535436    602.68466  0.040898796  0.041258486            5 
 1229000    1.0277557   -5.8393613    602.45239  0.040849769   0.04124886            4 
 1230000    1.0756517   -5.8605203    601.82746  0.040774218  0.041239045            3 
 1231000    1.0529296   -5.8580906    602.74851  0.040803446  0.041229444            3 
 1232000    1.0479148   -5.8446533    603.97767  0.040853468  0.041219813            2 
 1233000    1.0805585   -5.7993546    605.19234  0.040902429  0.041210412            3 
 1234000     1.070499   -5.8141417    604.00774  0.040789285  0.041201032            3 
 1235000    1.0532585   -5.8424081    603.64096  0.040731509  0.041191496            2 
 1236000    1.0450125   -5.8186332    604.18609  0.040735308  0.041182062            2 
 1237000    1.0475301    -5.874571    605.26601  0.040775128  0.041172317            3 
 1238000    1.0550425   -5.8699239    603.82148  0.040644957  0.041162509            5 
 1239000    1.0621207   -5.8292656    604.59799  0.040664379  0.041152805            3 
 1240000    1.0492106    -5.861332    606.22405  0.040740864  0.041143274            3 
 1241000    1.0634762   -5.8366982    606.58563  0.040732315   0.04113365            5 
 1242000    1.0461446   -5.8000237    609.00355  0.040861752  0.041124266            5 
 1243000    1.0327572   -5.8087095    610.45054  0.040925887  0.041114926            5 
 1244000    1.0431309   -5.8538437    605.51813  0.040562575  0.041105678            1 
 1245000    1.0501701   -5.9078747    607.27347  0.040647488   0.04109596            3 
 1246000    1.0376282   -5.8471122    609.21403  0.040744652   0.04108639            5 
 1247000    1.0587959   -5.8501896    607.35359  0.040587649  0.041077077            4 
 1248000    1.0366228    -5.816919    609.47774  0.040696965  0.041067524            3 
 1249000    1.0253346   -5.8626942    608.37122  0.040590554  0.041057876            2 
 1250000    1.0507306   -5.8819126    609.39856   0.04062657   0.04104804            3 
 1251000    1.0381459   -5.8491876    609.36378  0.040591778  0.041038234            4 
 1252000    1.0661948   -5.8136142    611.26124  0.040685652  0.041028525            6 
 1253000     1.032466   -5.8776853    608.87253  0.040494316  0.041018924            5 
 1254000    1.0601206   -5.8574651    609.34615  0.040493497  0.041009161            2 
 1255000    1.0506961   -5.8258846    612.50907  0.040671253  0.040999736            3 
 1256000    1.0502269   -5.8153748    613.48678  0.040703741  0.040990541            5 
 1257000    1.0763521   -5.8591987     611.7142  0.040553845  0.040981079           11 
 1258000    1.0371028   -5.8517658     611.6796  0.040519317  0.040971692            2 
 1259000      1.04103   -5.7927601    616.42749  0.040801396  0.040962525            2 
 1260000     1.064278   -5.8531601     615.1112  0.040681957  0.040953116            3 
 1261000    1.0450137   -5.8604332    615.29688  0.040661967    0.0409439            3 
 1262000    1.0543239   -5.8720851    613.53608  0.040513476  0.040934757            3 
 1263000    1.0604659     -5.83852    616.63156   0.04068564  0.040925855            4 
 1264000    1.0859156   -5.8504972    617.28435   0.04069649  0.040916859            8 
 1265000    1.0359843   -5.8536707    617.20015  0.040658772  0.040908173            5 
 1266000    1.0614195   -5.8455664    616.93986  0.040609522  0.040899425            4 
 1267000    1.0604013   -5.8551145    619.38951  0.040738589  0.040890768            3 
 1268000     1.035871   -5.8372953    617.80975  0.040602638  0.040881834            4 
 1269000    1.0493247   -5.8562886    618.45824  0.040613229  0.040872945            3 
 1270000    1.0354797   -5.8664985    619.52765  0.040651421   0.04086407            4 
 1271000    1.0919291   -5.8359794    620.17098  0.040661617  0.040855365            3 
 1272000    1.0324644   -5.8349505    622.06604  0.040753802  0.040846682            3 
 1273000    1.0406684    -5.869371    619.77692  0.040571938  0.040837681            7 
 1274000     1.057286   -5.8775278    621.40763  0.040646757  0.040828688            5 
 1275000    1.0365122   -5.8654268    619.49896  0.040490128  0.040819616            3 
 1276000    1.0589511   -5.8429022    620.31578  0.040511741  0.040810647            1 
 1277000    1.0499061   -5.8898484    620.52829  0.040493885  0.040801694            3 
 1278000    1.0430202   -5.8539048    621.82844  0.040546977   0.04079274            2 
 1279000    1.0482802   -5.8130933    622.18227  0.040538329  0.040783739            4 
 1280000    1.0625918   -5.8143617     624.1281   0.04063334  0.040774998            5 
 1281000    1.0597516   -5.8660469    622.82454  0.040516819  0.040766316            3 
 1282000    1.0608175   -5.8625256    623.72297  0.040543615   0.04075753            5 
 1283000    1.0391419     -5.88093    622.53242  0.040434686  0.040748611            4 
 1284000    1.0563055   -5.8407562    622.67061  0.040412163  0.040739708            4 
 1285000    1.0558141   -5.8696273    622.62633  0.040377842  0.040730724            5 
 1286000     1.047339   -5.8882977    625.14464  0.040509632   0.04072155            2 
 1287000    1.0412304   -5.8769338    622.42317   0.04030194  0.040712239            5 
 1288000    1.0778943    -5.894097    623.02278  0.040309445  0.040702757            5 
 1289000    1.0466653   -5.8681514    624.27304  0.040359001  0.040693547            5 
 1290000    1.0506662   -5.8613849    625.35829  0.040397822  0.040684558            2 
 1291000    1.0539469   -5.8426632    626.19575  0.040420588  0.040675367            2 
 1292000    1.0751456   -5.8557055      625.837  0.040366164  0.040666332            6 
 1293000    1.0417288   -5.8519548    625.95903  0.040342809   0.04065724            6 
 1294000    1.0375075   -5.8664682    626.94296  0.040374997  0.040648039            3 
 1295000    1.0370844   -5.8817992    626.78557  0.040333692  0.040638887            3 
 1296000    1.0353725   -5.8974342    624.93603  0.040183644  0.040629377            4 
 1297000    1.0432896   -5.8691967    626.10815  0.040227972  0.040619901            3 
 1298000    1.0702816   -5.8669386    628.35197  0.040341036  0.040610457            7 
 1299000    1.0378365   -5.8584014    626.63953  0.040200124  0.040601182            3 
 1300000    1.0581168   -5.8785952    624.34083  0.040021848  0.040591584            6 
 1301000    1.0443895   -5.8847572      628.918  0.040284269  0.040582162            3 
 1302000     1.068647   -5.8438294    628.08831  0.040200224  0.040572556            3 
 1303000    1.0336894   -5.8958403    627.26296  0.040116587  0.040563248            4 
 1304000    1.0474574   -5.8495918    630.02516  0.040262344  0.040553684            5 
 1305000    1.0456716   -5.8964143    627.98865  0.040101447  0.040544342            4 
 1306000    1.0518281   -5.8658763    630.40693  0.040225047  0.040534744            6 
 1307000    1.0565316   -5.8647179    630.44141  0.040196468  0.040525444            2 
 1308000    1.0279742   -5.9135035    628.54618  0.040044991  0.040515907            5 
 1309000    1.0279327   -5.8502397    630.76434  0.040155611  0.040506461            3 
 1310000    1.0729148   -5.8636132    630.92643  0.040135269  0.040496911            1 
 1311000    1.0423883   -5.8798384    631.53897  0.040143591  0.040487242            2 
 1312000    1.0642208   -5.8849049    630.29997  0.040034297  0.040477419            4 
 1313000    1.0635793   -5.8692421    632.66218  0.040153731  0.040467777            5 
 1314000    1.0260543    -5.871106    630.45898  0.039983446  0.040457844            3 
 1315000    1.0457902   -5.8431664    631.99184   0.04005018  0.040448114            4 
 1316000    1.0307748   -5.8973397    631.97215    0.0400185  0.040438318            6 
 1317000    1.0326529   -5.8755557    633.21556  0.040066791  0.040428626            3 
 1318000    1.0390732   -5.8680614    632.68812  0.040003042  0.040418753            3 
 1319000    1.0172543   -5.8778753    631.51755  0.039898759  0.040408786            5 
 1320000    1.0237306    -5.854687    631.24807  0.039851519  0.040398692            4 
 1321000    1.0484997   -5.8470656    635.00568  0.040058395  0.040388847            4 
 1322000    1.0565296   -5.8681406    633.99949  0.039964668  0.040378858            2 
 1323000    1.0495832   -5.8551716    632.79562  0.039858631  0.040368715            4 
 1324000     1.039204   -5.8866809    633.04809  0.039844416  0.040358743            6 
 1325000    1.0456931   -5.8943974    633.47147  0.039840973  0.040348733           10 
 1326000    1.0212055   -5.8755517    634.22417  0.039858231  0.040338632            1 
 1327000    1.0485054   -5.8732825    637.57631  0.040038703  0.040328706            3 
 1328000    1.0415779   -5.8811515    634.55971  0.039819259  0.040318515            4 
 1329000    1.0446597   -5.8774625    634.57006  0.039789946  0.040308713            4 
 1330000    1.0388191   -5.8715455    636.29711   0.03986824  0.040298555            2 
 1331000    1.0120517    -5.888766    633.37401  0.039655273  0.040288404            3 
 1332000    1.0542155   -5.8914665     636.4046  0.039815102  0.040278419            4 
 1333000    1.0348997   -5.8649405    637.13642  0.039830984  0.040268368            3 
 1334000    1.0401439   -5.8870049    637.44382  0.039820329  0.040258449            3 
 1335000    1.0500819   -5.8710629    636.65059  0.039740985  0.040248308            4 
 1336000    1.0398536   -5.8802165    637.16507   0.03974333  0.040238269            3 
 1337000    1.0236114   -5.8548434    637.42277  0.039729667  0.040228226            2 
 1338000    1.0313673   -5.9041267    636.64185  0.039651336  0.040218318            4 
 1339000     1.008316   -5.8587127    640.74359  0.039876997  0.040208338            3 
 1340000    1.0453387   -5.8641356    640.18452   0.03981247  0.040198656            4 
 1341000    1.0481764    -5.849992    643.14934  0.039967023  0.040189086            5 
 1342000    1.0208195   -5.8710535    641.95169  0.039862872  0.040179636            4 
 1343000    1.0565827   -5.8351462    642.63773  0.039875759  0.040169994            4 
 1344000    1.0140836   -5.8920776    638.07291  0.039563052  0.040160288            6 
 1345000    1.0234267   -5.8690092    642.35031  0.039798656  0.040150649            2 
 1346000    1.0329866   -5.8410856    643.67856  0.039851322  0.040141169            2 
 1347000     1.037819   -5.8652425    641.63809  0.039695502  0.040131709            3 
 1348000    1.0407346   -5.8515655    645.02666  0.039875535  0.040122288            4 
 1349000     1.044756   -5.9016174    642.26014  0.039675077  0.040112825            3 
 1350000    1.0450851   -5.8828285    644.67584  0.039794805   0.04010321            2 
 1351000    1.0407863   -5.8769091    645.43536  0.039812198  0.040093907            1 
 1352000    1.0338219   -5.8940191    645.74432  0.039801795  0.040084503            5 
 1353000    1.0348189   -5.8939638    646.34418  0.039809323  0.040075167            4 
 1354000    1.0447343   -5.8761331    645.55224  0.039731182  0.040065524            3 
 1355000    1.0255849   -5.8757006    645.45833  0.039696084  0.040055969            7 
 1356000    1.0293563   -5.9116386    644.54381  0.039610608  0.040046504            7 
 1357000     1.044854   -5.8828677    644.46888  0.039576817  0.040037256            4 
 1358000    1.0137794   -5.8738416    645.17182  0.039590809  0.040027886            3 
 1359000    1.0302878   -5.8890823    647.70381  0.039716937  0.040018523            3 
 1360000    1.0138014   -5.8799374    647.90518  0.039700072  0.040009194            2 
 1361000    1.0312875   -5.8528407    649.77993  0.039785692  0.040000105            9 
 1362000    1.0214794   -5.8997652    649.45878  0.039736832  0.039990977            2 
 1363000    1.0296643   -5.9105457    646.93202  0.039553193  0.039981712            5 
 1364000    1.0297531    -5.899534     648.1039   0.03959579  0.039972291            3 
 1365000    1.0102661   -5.8660677    649.65737  0.039661622  0.039962773            5 
 1366000    1.0308346   -5.9264611    647.39232  0.039494407  0.039953485            4 
 1367000    1.0360471   -5.8964629    650.40221  0.039649001  0.039943835            3 
 1368000    1.0450507   -5.9253031    648.17875  0.039484573  0.039934228            3 
 1369000    1.0265156   -5.8739891    650.62876  0.039604867  0.039924592            4 
 1370000    1.0201786   -5.8824724    649.47964  0.039506061  0.039915054            3 
 1371000    1.0568062   -5.8819713    650.85227  0.039560678   0.03990529            2 
 1372000    1.0173638    -5.905556    649.50202  0.039449831  0.039895484            4 
 1373000     1.034207   -5.8907324    648.86027  0.039382148  0.039885499            6 
 1374000    1.0565437   -5.8875574    651.25344  0.039498632  0.039875874            4 
 1375000    1.0474563    -5.869585    652.35366  0.039536585  0.039866149            3 
 1376000    1.0192383   -5.9117753    650.79922  0.039413713  0.039856181            4 
 1377000    1.0306625   -5.9269187    649.32264   0.03929573  0.039846021            3 
 1378000     1.045861   -5.8762968    653.40613  0.039514159  0.039836169            3 
 1379000    1.0231235   -5.8939515    653.04581   0.03946373  0.039826282            8 
 1380000    1.0197458   -5.9293192    650.18097  0.039262136  0.039816476            4 
 1381000    1.0188565   -5.8689314    653.40854  0.039428466  0.039806702            3 
 1382000     1.017571   -5.8899082    652.28146  0.039331974  0.039797029            4 
 1383000    1.0280001   -5.8975621    653.93873  0.039403394   0.03978709            5 
 1384000    1.0431397   -5.8644813    654.92265  0.039434167  0.039777259            3 
 1385000    1.0173986   -5.9183346    655.70884  0.039452999  0.039767387            4 
 1386000    1.0602179    -5.904284    655.42192  0.039407282  0.039757605            4 
 1387000    1.0290874   -5.9001158    655.58451  0.039388639  0.039747583            2 
 1388000    1.0155567   -5.8942693    654.12511  0.039272641  0.039737528            4 
 1389000    1.0120608   -5.9006182    657.05107   0.03941991  0.039727666            2 
 1390000    1.0502013   -5.8920739     654.2238  0.039222051  0.039717845            2 
 1391000     1.023808   -5.9074865    654.04714   0.03918327   0.03970785            3 
 1392000    1.0235671   -5.9063023    654.48424  0.039181288  0.039697685            2 
 1393000    1.0206233   -5.9072096    654.16151  0.039133854  0.039687458            3 
 1394000    1.0359033   -5.8561882    654.70368  0.039138192  0.039677394            3 
 1395000    1.0232432   -5.8745283    658.14433  0.039315671  0.039667149            3 
 1396000    1.0240282   -5.8869468    655.61061  0.039136259  0.039657065            5 
 1397000    1.0076911   -5.9290091    654.32044  0.039031284   0.03964697            5 
 1398000    1.0202016   -5.8731549     654.0666  0.038988233  0.039636536            7 
 1399000    1.0144206   -5.9048453    657.78926   0.03918211  0.039626096            4 
 1400000    1.0269508   -5.8581352    656.02129  0.039048887  0.039615922            4 
 1401000    1.0383387    -5.850738     659.6111  0.039234541  0.039605844            3 
 1402000    1.0518647   -5.8538571    659.81489  0.039218669  0.039595766            4 
 1403000    1.0237257   -5.8250723    658.76116  0.039128128  0.039585625            6 
 1404000    1.0191962   -5.8541458    659.49318  0.039143707  0.039575433            2 
 1405000    1.0166703   -5.9103562    658.65098  0.039065894  0.039565029            7 
 1406000    1.0105227   -5.9029604     657.7104  0.038982361   0.03955459            6 
 1407000    1.0299271   -5.8755647    657.43729  0.038938479  0.039544083            3 
 1408000    1.0230194   -5.8866562    657.95703  0.038941586  0.039533636            6 
 1409000    1.0389352   -5.9060246    658.86267   0.03896751   0.03952337            9 
 1410000    1.0281357   -5.9165345    658.53427  0.038920465  0.039512955            2 
 1411000    1.0345293    -5.904154     660.3088  0.038997685  0.039502484            3 
 1412000    1.0601241   -5.9047436    661.46568  0.039038343  0.039492207            3 
 1413000    1.0372313   -5.8843004    661.63278  0.039020569  0.039481703            3 
 1414000    1.0320994   -5.8456536    664.78204  0.039178574  0.039471547            2 
 1415000    1.0075254   -5.9381776    662.42912  0.039012316  0.039461363            6 
 1416000     1.035523   -5.8997162     661.1621  0.038910199  0.039451063            3 
 1417000    1.0174539   -5.9224462    662.49954  0.038961394  0.039440804           10 
 1418000    1.0285375    -5.894187    662.97434  0.038961821  0.039430669            5 
 1419000    1.0018011   -5.9170193    663.99832  0.038994498  0.039420416           16 
 1420000    1.0421845   -5.9225837    660.61851  0.038768692  0.039410057            4 
 1421000    1.0303259    -5.902793    661.77245  0.038809081  0.039399653            7 
 1422000    1.0179975   -5.9266403    662.16795  0.038804966  0.039389101            5 
 1423000    1.0242346   -5.9307478     662.4803  0.038795989  0.039378538            5 
 1424000    1.0144846   -5.8888344    664.47149   0.03888527  0.039367985            5 
 1425000    1.0129521   -5.8905715    664.56962   0.03886372  0.039357685            2 
 1426000    1.0260355   -5.9180127    662.65676  0.038724682  0.039347152            2 
 1427000     1.014856   -5.9136717    660.46868  0.038569766  0.039336553            4 
 1428000    1.0116697   -5.9231512    664.13153  0.038756509  0.039325871            3 
 1429000    1.0110224   -5.9100437    664.44975  0.038747944  0.039315281            3 
 1430000   0.99779229   -5.8935106    666.14259  0.038819498  0.039305086            4 
 1431000    1.0377529   -5.8751889    666.84552  0.038833305  0.039294792            5 
 1432000    1.0236445   -5.8879358    665.04318  0.038701302  0.039284572            4 
 1433000    1.0259503   -5.9230058    665.52451  0.038702286  0.039274268            6 
 1434000     1.026841   -5.8977837    666.45937  0.038729624  0.039264065            4 
 1435000    1.0081637   -5.8594001    668.79718  0.038838396   0.03925361            9 
 1436000    1.0196469   -5.9288587    663.79904    0.0385213  0.039243101            4 
 1437000    1.0225815   -5.9294424    667.98382  0.038737174  0.039232392            2 
 1438000    1.0326926   -5.9446038    666.88417   0.03864651  0.039221693            2 
 1439000    1.0386033   -5.9363505    665.78022  0.038555723  0.039211031            3 
 1440000    1.0121343   -5.9392152    666.07894  0.038546235  0.039200407           11 
 1441000    1.0067966   -5.9208665    668.52993  0.038661226  0.039189841            3 
 1442000    1.0214107   -5.9419705    668.73225  0.038646108  0.039179238            3 
 1443000    1.0253482    -5.888402    669.19047  0.038645789  0.039168794            2 
 1444000     1.025441   -5.9454988    666.81605  0.038481997  0.039158171            5 
 1445000     1.012836   -5.9391249    667.78033  0.038510976  0.039147605            2 
 1446000    1.0321452    -5.928559    669.30808  0.038572388  0.039137171            8 
 1447000     1.014901   -5.9580605    668.54885  0.038502007  0.039126589            2 
 1448000    1.0176686   -5.9095358    668.51239  0.038473319  0.039115978            4 
 1449000    1.0290524    -5.934704    670.47907  0.038559873   0.03910538            4 
 1450000    1.0088387   -5.9369605    669.53821  0.038479208  0.039094868            4 
 1451000    1.0276508   -5.9087178    672.45945   0.03862046  0.039084212            4 
 1452000    1.0237808   -5.9275567    671.06556  0.038513863  0.039073491            5 
 1453000    1.0221478   -5.9000957     672.6988  0.038581028  0.039062641            8 
 1454000    1.0343356   -5.9065337    673.38193  0.038593646  0.039052086            4 
 1455000    1.0112979   -5.8940645    672.12733  0.038495265  0.039041587            3 
 1456000   0.99817424   -5.9275522    673.13277  0.038526372  0.039031469            5 
 1457000    1.0420187   -5.9073723    673.13596  0.038500112  0.039020808            4 
 1458000    1.0137519   -5.9277835    673.06647  0.038469734  0.039010254            3 
 1459000    1.0350296   -5.9524749    673.55103  0.038471043  0.038999955            2 
 1460000    1.0077334   -5.9169307     673.9739   0.03846883  0.038989454            4 
 1461000    1.0121226   -5.9388892    673.62459  0.038422575  0.038979083            2 
 1462000    1.0026939     -5.94273     673.5795  0.038393725   0.03896884            4 
 1463000    1.0490768   -5.9395607    674.27286  0.038406975  0.038958516            4 
 1464000    1.0256415   -5.9229707    675.90605  0.038473705  0.038948179            4 
 1465000    1.0055111   -5.9570701    674.85711  0.038387776  0.038938004            4 
 1466000    1.0050547   -5.9191512    673.95117  0.038310094  0.038927844            3 
 1467000    1.0228559   -5.9549901    677.44644  0.038482529  0.038917722            5 
 1468000    1.0160778   -5.9242088    676.32345  0.038392566  0.038907541            4 
 1469000    1.0263688   -5.9451622     675.7022  0.038331189  0.038897342            5 
 1470000     1.045421   -5.9386381    675.14084   0.03827329  0.038886901            4 
 1471000    1.0218827   -5.8922025    678.69032  0.038448352  0.038876578            4 
 1472000    1.0332353   -5.9071194     678.8957   0.03843386  0.038866354            4 
 1473000    1.0465039   -5.9290274    678.80068  0.038402392  0.038856185            3 
 1474000    1.0325361   -5.9329024    676.56771  0.038250096  0.038845996            5 
 1475000     1.015854   -5.9670496    680.92091  0.038470108  0.038835793            3 
 1476000    1.0203903   -5.9404383    681.04277  0.038450924  0.038825455            3 
 1477000    1.0184979   -5.9191367    680.06032  0.038369461  0.038815226            5 
 1478000   0.99114183   -5.9660592    680.76952  0.038383487  0.038804956            5 
 1479000   0.99827161   -5.9261268    681.40611  0.038393403  0.038794957            5 
 1480000    1.0369152   -5.9828465    680.90928  0.038339486  0.038785094            4 
 1481000    1.0318204   -5.9336368    681.81415  0.038364514   0.03877523            2 
 1482000   0.99782967   -5.9155391    682.31297  0.038366676  0.038765411            3 
 1483000    1.0243161   -5.9694606    683.60708  0.038413525  0.038755311            5 
 1484000    1.0181873   -5.9040069     682.2876  0.038313544  0.038745319            4 
 1485000    1.0289534   -5.9582439    681.94926  0.038268758  0.038735113            3 
 1486000    1.0168126   -5.9302716     683.2492  0.038315904  0.038725189            3 
 1487000    1.0193524   -5.9483412    682.88223  0.038269571  0.038715288            4 
 1488000    1.0100938   -5.9043257    685.19113  0.038373159  0.038705332            2 
 1489000    1.0024491   -5.9438166    683.97208  0.038279163  0.038695489            3 
 1490000    1.0137791   -5.9310269    687.04101  0.038425113  0.038685819            4 
 1491000    1.0246581   -5.9522452    683.85647  0.038221354  0.038675933            6 
 1492000    1.0398897   -5.9743302    683.53775  0.038177935  0.038665821            5 
 1493000    1.0284925   -5.9511587    683.75597  0.038164544  0.038655802            6 
 1494000     1.019969   -5.9512521    684.84378  0.038199675  0.038645874            3 
 1495000    1.0289183   -5.9369076     686.4514  0.038263735  0.038636078            2 
 1496000    1.0126934   -5.9592578    687.21423   0.03828065  0.038626202            3 
 1497000    1.0160936   -5.9707484    685.12193  0.038138607  0.038616215            3 
 1498000    1.0074812   -5.9166181    686.97109  0.038216015  0.038606137            2 
 1499000    1.0287239   -5.9440985    686.99889  0.038192067  0.038596225            3 
 1500000   0.98417088   -5.9180537    689.97937  0.038332187  0.038586254            1 
 1501000   0.99434479   -5.9131858    687.58226  0.038173565  0.038576297            4 
 1502000   0.97325972   -5.9617245    689.38733  0.038248298  0.038566358            3 
 1503000    1.0136341   -5.9397912    690.54881  0.038287248  0.038556452            2 
 1504000    1.0247961   -5.9383934    688.36494  0.038140788  0.038546604            6 
 1505000    1.0202333   -5.9243671    688.36891  0.038115665  0.038536545            3 
 1506000    1.0293585   -5.9333505    690.25451  0.038194694  0.038526615            2 
 1507000    1.0036935   -5.9087868    688.56107  0.038075706  0.038516697            7 
 1508000    1.0338217   -5.9298912    690.96139  0.038183101   0.03850654            2 
 1509000     1.023511   -5.9165495    691.07937  0.038164313  0.038496609            3 
 1510000     1.000316   -5.9728515    690.91614   0.03813003  0.038486506            3 
 1511000    1.0217949   -5.8997059    692.40887  0.038187121  0.038476669            3 
 1512000   0.99659932   -5.9814095    690.34295  0.038048002  0.038466754            5 
 1513000    1.0239693    -5.957221    690.36454  0.038024044  0.038456747            3 
 1514000   0.99946043   -5.9674427    692.53501  0.038118396  0.038446903            7 
 1515000    1.0005745   -5.9750148    691.01338  0.038009537  0.038437003            8 
 1516000    1.0050884   -5.9432912    692.45258  0.038063576  0.038427254            6 
 1517000     1.014391   -5.9628671    694.13201  0.038130741  0.038417569            2 
 1518000   0.99773416   -5.9465649    692.19688  0.037999389  0.038407743            3 
 1519000    1.0130728   -5.9546594    692.90713  0.038013338  0.038397901            8 
 1520000    1.0306914   -5.9785009    693.29073   0.03800936  0.038387828            5 
 1521000    1.0225946   -5.9974181    693.02482  0.037969802  0.038377733            5 
 1522000    1.0069046   -5.9523985    696.10172  0.038113322  0.038367678            4 
 1523000   0.99429949   -5.9648877    692.60165  0.037896785  0.038357927            6 
 1524000   0.99717155   -5.9572226    693.18755  0.037903956  0.038348059            3 
 1525000   0.98928502   -5.9350944    692.82511  0.037859296  0.038337912            2 
 1526000    1.0183805   -5.9487319    694.53026  0.037927603  0.038327923            5 
 1527000    1.0203039   -5.9399298    694.78453  0.037916641  0.038318026            1 
 1528000   0.99028784   -5.9532439    693.55794  0.037824931  0.038307819            3 
 1529000   0.99005844   -5.9173516    694.30518  0.037840919  0.038297636            5 
 1530000    1.0402803   -5.9691982    693.97774  0.037798352  0.038287409            4 
 1531000   0.99148148   -5.9700911    694.05347  0.037777785  0.038277227            5 
 1532000    1.0000383   -5.9384346    694.11945  0.037756715  0.038267053            7 
 1533000   0.98930318   -5.9380769    699.62531  0.038031382  0.038257121            3 
 1534000    1.0132026    -5.928147    698.51289  0.037946159  0.038247188            4 
 1535000   0.99546955    -5.941569    698.89567  0.037942219  0.038237184            7 
 1536000    1.0108078   -5.9443329    696.79526  0.037803562  0.038227234            2 
 1537000   0.98169553   -5.9804487    699.31951  0.037915827  0.038217065            6 
 1538000   0.98055103   -5.9380827    700.32533  0.037945673  0.038207127           11 
 1539000   0.98996577   -5.9291265    697.49797  0.037767921  0.038197235            4 
 1540000   0.99532031   -5.9400209    698.20326  0.037781561  0.038187195            5 
 1541000   0.98190422   -5.9426719    698.07865  0.037750305  0.038177216           13 
 1542000   0.99514094   -5.9422432    703.61535   0.03802504  0.038167439            4 
 1543000    1.0298465   -5.9286843    699.45112  0.037775498  0.038157645            4 
 1544000    1.0260938   -5.9650832    701.84441  0.037880203  0.038147762            4 
 1545000    1.0044887    -5.935784    701.74074  0.037850094  0.038137785            4 
 1546000    1.0056144   -5.9422997    700.92355  0.037781563  0.038128047            7 
 1547000    1.0228973   -5.9595191    699.72576  0.037692618  0.038118055            3 
 1548000   0.99487338   -5.9478562    702.15604  0.037799098  0.038108004            2 
 1549000    1.0002666   -5.9834919    701.96666  0.037764507  0.038098101            2 
 1550000   0.98743857   -5.9652141    702.30092  0.037758114  0.038088278            4 
 1551000    1.0138384   -5.9635476    703.40462   0.03779307  0.038078244            2 
 1552000    1.0133071   -5.9751288    700.34029  0.037604182  0.038068204            4 
 1553000    1.0197465    -5.948917    702.74672  0.037709096  0.038058185            2 
 1554000   0.99743963   -5.9489829    700.90862  0.037586263    0.0380482            6 
 1555000    1.0229472   -5.9747228    700.17844   0.03752296  0.038038206            4 
 1556000   0.99379783   -5.9438442    701.64539  0.037577409  0.038027817            4 
 1557000     1.026164   -5.9528914    703.05473  0.037628705  0.038017663            3 
 1558000    1.0016231   -5.9628458    701.14118  0.037502203  0.038007557            3 
 1559000   0.99422297   -5.9364554     707.6584  0.037826513  0.037997686            6 
 1560000   0.98390371   -5.9452585    705.05629  0.037663263  0.037987852            5 
 1561000    1.0118443    -5.999764    703.46057  0.037553949  0.037978026           10 
 1562000   0.97179623   -5.9652723     705.7597  0.037652566  0.037968201            7 
 1563000   0.99213823   -5.9279781    705.69694   0.03762513  0.037958332            4 
 1564000    1.0003344   -5.9725353    705.56335  0.037593955  0.037948614            5 
 1565000    0.9786758   -5.9449035    705.02402  0.037541215  0.037938757            3 
 1566000    1.0036928   -5.9858386    706.21215  0.037580468   0.03792885            3 
 1567000    1.0015346   -5.9606197    704.74799  0.037478621  0.037919002            5 
 1568000   0.98904329    -5.963962    709.78754  0.037722552  0.037909243            5 
 1569000    1.0111967   -5.9738084    707.10356  0.037555957  0.037899572            3 
 1570000    1.0013068   -5.9740756    706.85061   0.03751861  0.037889728            3 
 1571000   0.99857113   -5.9315108    709.73659  0.037647814   0.03788011            5 
 1572000   0.98659421   -5.9301599    710.35141  0.037656457  0.037870739            5 
 1573000   0.99212143   -5.9843183    708.39258  0.037528745  0.037861026            5 
 1574000    1.0066198   -5.9728188    709.09402  0.037542038  0.037851423            3 
 1575000   0.98475328   -5.9576889    708.84224  0.037504881  0.037841805            4 
 1576000    1.0086288     -5.94582    709.97946  0.037541215  0.037832183            7 
 1577000   0.99554078   -5.9678242    709.21431  0.037476977  0.037822646            3 
 1578000   0.98279147   -5.9590842    708.38522  0.037409443  0.037812911            4 
 1579000    1.0257146   -6.0031127    707.28873  0.037327883  0.037803249            6 
 1580000   0.96399434   -5.9440748    712.27752   0.03756738  0.037793436            2 
 1581000   0.99804755   -5.9813588    711.30088   0.03749214  0.037783685            4 
 1582000   0.98889916   -5.9490536    712.38015  0.037525292  0.037774129            3 
 1583000    1.0143212    -5.983381    711.81733  0.037471959  0.037764529            3 
 1584000    1.0124911   -5.9852145    712.07571  0.037461896  0.037754768            8 
 1585000   0.99850336   -5.9923938     711.5914  0.037412797  0.037745141            5 
 1586000   0.99341585   -5.9403654    713.00793  0.037463637  0.037735557            2 
 1587000   0.97662549   -5.9530867    715.96322  0.037595212  0.037726058            7 
 1588000    1.0163479   -5.9459619    716.24491   0.03758632   0.03771655            3 
 1589000    1.0128431   -6.0202501     714.4296  0.037467464  0.037707178            4 
 1590000   0.99720138   -5.9825806    713.37502  0.037388628  0.037697585            5 
 1591000   0.99144386   -5.9895461    714.70303  0.037434686  0.037688119            5 
 1592000       1.0029   -5.9746063    715.44006  0.037449752  0.037678715            2 
 1593000    0.9958242   -5.9555018    715.35432  0.037421758   0.03766932            3 
 1594000   0.98506571    -5.947544    719.00092  0.037588923  0.037660053            3 
 1595000    0.9857512   -5.9511801    715.91206  0.037403974  0.037650722            8 
 1596000   0.98522396   -5.9647991    714.03493  0.037282526  0.037641212            3 
 1597000    1.0058709   -5.9641063    716.15262  0.037369684  0.037631631            4 
 1598000   0.99416171   -5.9744705    716.32605  0.037355342  0.037622331            5 
 1599000    1.0185212   -6.0007783    716.95475  0.037364746  0.037612687            3 
 1600000    1.0015863   -5.9867634    719.80703  0.037489949  0.037603502            4 
 1601000    1.0092172   -5.9730466    719.43955  0.037447405  0.037594036            7 
 1602000   0.96718406   -5.9734798    718.94613  0.037398363  0.037584631            6 
 1603000    1.0018211   -5.9767454    719.09748  0.037382901  0.037575226            6 
 1604000    1.0113448   -5.9877795    716.74667  0.037237462  0.037565541            5 
 1605000   0.98867265   -5.9800769    718.32527  0.037296224  0.037555936            2 
 1606000   0.99766706   -6.0132806    717.98465  0.037255326  0.037546228           14 
 1607000    1.0114768   -5.9882232    719.95382  0.037334257  0.037536665            4 
 1608000    1.0005145   -6.0079715    718.82293  0.037252432  0.037527073            6 
 1609000   0.99105074   -5.9708217    720.95887  0.037339904   0.03751757            3 
 1610000    0.9950373   -5.9817859    721.31306  0.037335045  0.037508331            4 
 1611000   0.95806707   -6.0167328    719.71472  0.037229191  0.037498951            4 
 1612000     1.001511   -5.9727322    718.23473  0.037129587  0.037489324            9 
 1613000    1.0096911   -5.9950121    719.24106  0.037158559  0.037479696            6 
 1614000   0.99119178   -6.0007119     721.5421  0.037254342  0.037470071            5 
 1615000   0.98819302   -5.9870673    720.61761  0.037183571  0.037460505            3 
 1616000   0.99729427   -5.9661247      722.527  0.037259024  0.037450831            4 
 1617000   0.98198918   -5.9751675    721.76042  0.037196476  0.037441371            5 
 1618000   0.96416732   -5.9975001    721.18101  0.037143645  0.037431673            5 
 1619000   0.97579063   -5.9879636    719.33321  0.037025592  0.037422022            3 
 1620000   0.99511609   -5.9697416    722.31907  0.037156331  0.037412128            4 
 1621000   0.99035007   -5.9733533    721.28889  0.037080449   0.03740216            5 
 1622000   0.97868907   -6.0029386    718.06871  0.036892145  0.037392131            5 
 1623000   0.99431411   -5.9784878    721.32456  0.037036586  0.037382017            6 
 1624000   0.99355832   -5.9494897    722.17639  0.037057491  0.037371943            4 
 1625000   0.97611964   -5.9851398    720.59078  0.036953373  0.037362035            6 
 1626000    1.0104732   -5.9896082    722.61752  0.037034518  0.037352145            2 
 1627000   0.98720821   -5.9657519     723.8142  0.037073048  0.037342396            2 
 1628000    0.9791334   -5.9840841    722.63352   0.03698984  0.037332671            2 
 1629000   0.99042803   -5.9862871    722.98391  0.036985058  0.037322775            5 
 1630000   0.98750477   -5.9738551    722.49092  0.036937163  0.037313036           12 
 1631000   0.99440623   -6.0157932    724.27935  0.037005894  0.037303083            4 
 1632000    1.0002413   -6.0398346    721.75878  0.036854513  0.037293009            5 
 1633000    1.0010392   -5.9781465     724.5545  0.036974612  0.037283197            3 
 1634000    0.9887971   -5.9659806    727.97574  0.037126466  0.037273394            9 
 1635000   0.99086892   -6.0184492    723.10292  0.036855398  0.037263588            5 
 1636000    1.0023929   -5.9799069    728.06089  0.037085416  0.037253797            5 
 1637000   0.98138045   -5.9717272    725.84111  0.036949761   0.03724401            3 
 1638000   0.99623983   -6.0148324    724.52055   0.03686002  0.037234057            4 
 1639000   0.97300532   -6.0078669    725.93173  0.036909281   0.03722408            3 
 1640000   0.99873546   -5.9766853    723.07128  0.036741427  0.037214293           10 
 1641000   0.98971567     -6.01023    726.57494   0.03689696  0.037204307            1 
 1642000    0.9760179   -6.0073872    726.27419  0.036859226  0.037194402            6 
 1643000    1.0073497   -5.9945159    724.62097   0.03675294  0.037184551            8 
 1644000   0.98107926   -5.9714978    727.25071  0.036863884  0.037174716            8 
 1645000    0.9645973   -5.9712402    726.49101  0.036802989  0.037164957            4 
 1646000     1.000447   -5.9663316    728.58623  0.036886707  0.037155204            7 
 1647000   0.97788776   -5.9966884    726.38064  0.036752714  0.037145263            7 
 1648000   0.99732008   -6.0230006    726.28596  0.036725625  0.037135387            4 
 1649000   0.98523116   -5.9665113    729.12704   0.03684693  0.037125528            5 
 1650000    1.0051974   -5.9933693    728.78373  0.036807259  0.037115677           11 
 1651000    1.0049563   -5.9689232    730.54136  0.036873681  0.037105958            3 
 1652000    1.0046058   -6.0080936    727.32729   0.03668923  0.037096039            6 
 1653000   0.97350144   -6.0064704    728.81604  0.036742087  0.037086106            4 
 1654000   0.97605356   -5.9845696    728.02789  0.036680164  0.037076111            3 
 1655000   0.97235557   -5.9828333    729.50152  0.036732201  0.037066179            3 
 1656000   0.98732304   -5.9724693    730.75418  0.036773056  0.037056284            4 
 1657000   0.97372796    -5.995154    727.98272  0.036611483  0.037046253            4 
 1658000   0.98227614   -5.9816679    731.01385  0.036741749  0.037036261            3 
 1659000    0.9839892   -5.9461964    731.18083   0.03672799  0.037026428            2 
 1660000   0.97296421    -6.025419    730.87085  0.036690304  0.037016393            6 
 1661000   0.98699504   -6.0306356    728.56705  0.036552631  0.037006229            2 
 1662000   0.96568171   -6.0525604    727.95382   0.03649989  0.036995958            2 
 1663000   0.97497297     -6.00501    729.17305  0.036539038  0.036985689            5 
 1664000    1.0029459   -6.0074243    730.63729  0.036590409  0.036975436            5 
 1665000   0.99136364   -5.9725466    731.39143  0.036606178  0.036965208            3 
 1666000   0.98982998   -5.9929135    730.86477  0.036557862  0.036954914            8 
 1667000   0.97833401    -5.981334    732.33292  0.036609324  0.036944815            5 
 1668000   0.98674175   -5.9994633    730.96374  0.036518972  0.036934812            3 
 1669000    1.0005642   -5.9959898    730.36088   0.03646699  0.036924813            6 
 1670000    0.9858277   -6.0299744    732.94779  0.036574241  0.036914788            6 
 1671000   0.95176112   -6.0058511    732.79852  0.036544909  0.036904879            3 
 1672000   0.99010122   -6.0314044    731.07259  0.036437031   0.03689498            5 
 1673000   0.98568149   -6.0113634    733.13981  0.036518221  0.036885124            3 
 1674000   0.97357245   -5.9739023    735.54509  0.036616144  0.036875333            3 
 1675000   0.98525735   -5.9864255    734.90979  0.036562676  0.036865422            2 
 1676000   0.98444969   -5.9818914    735.09376  0.036550008  0.036855515            3 
 1677000   0.99213501   -6.0089339    734.12216  0.036479932  0.036845686            3 
 1678000   0.99176414   -5.9985117    733.64243  0.036434368  0.036835696            6 
 1679000    1.0113957   -5.9801027    733.16821  0.036389131  0.036825742            6 
 1680000   0.98877798    -6.003034    735.53402  0.036484822  0.036816011            2 
 1681000   0.98882183   -6.0382258    732.84571  0.036329849  0.036806225            2 
 1682000   0.97949278    -5.995339    737.58394  0.036543002   0.03679632            3 
 1683000   0.97199022   -5.9979037    738.50975   0.03656713  0.036786481            3 
 1684000   0.97514568   -6.0327042    735.72135   0.03640743  0.036776574            5 
 1685000   0.97476194   -6.0080722    735.89996  0.036394657  0.036766778            4 
 1686000   0.99802725   -6.0686292    735.89868  0.036373007  0.036756955            5 
 1687000   0.99143434   -6.0423295    739.23652  0.036516327  0.036747275            7 
 1688000   0.98414414   -6.0087007    740.66952  0.036565438  0.036737731            3 
 1689000   0.99759716   -6.0005129    742.12411  0.036615557  0.036728435            6 
 1690000   0.98507251   -5.9898367    739.87845  0.036483158  0.036718909            7 
 1691000   0.97170295   -6.0236474     740.2687  0.036480815  0.036709361            2 
 1692000   0.98013924    -6.017987    738.34073  0.036364299  0.036699666            6 
 1693000   0.98465717   -5.9918014    742.67955  0.036556386  0.036690192            6 
 1694000   0.96960461   -6.0497202    739.55694  0.036381195  0.036680532            5 
 1695000   0.97699607   -5.9991449    741.49299  0.036454916  0.036670939            3 
 1696000   0.97488225   -5.9998707     741.2183  0.036419924  0.036661421            2 
 1697000   0.97555419   -6.0219947    742.27138  0.036450176  0.036652015            3 
 1698000   0.98455959   -6.0228303    741.41625  0.036386742  0.036642417            5 
 1699000   0.96054461    -6.013229    742.98022  0.036442035  0.036632943            2 
 1700000   0.98450481   -6.0195365     743.2056  0.036431647  0.036623292            5 
 1701000   0.96630262   -5.9858489    745.60348  0.036527703  0.036613668            8 
 1702000   0.98131015   -5.9885931    742.76734  0.036367378  0.036604032            4 
 1703000   0.98967595   -6.0223963    742.03073  0.036309979  0.036594566            7 
 1704000   0.97192155    -6.000377    745.16254   0.03644183  0.036584983            4 
 1705000   0.97707577   -6.0206111    739.54979  0.036146129  0.036575425            3 
 1706000   0.96714364   -6.0169927    742.23906  0.036256304  0.036565826            6 
 1707000   0.96585263   -5.9931587    745.27374  0.036383213  0.036556401            8 
 1708000   0.97537865   -5.9911593    747.43463  0.036467341  0.036547096            3 
 1709000    0.9535579   -6.0146868    745.02537  0.036328524  0.036537577            9 
 1710000   0.96840174   -5.9867167     745.2518  0.036318314  0.036528186            3 
 1711000   0.97062735   -6.0417672    742.51505  0.036163796  0.036518557            3 
 1712000   0.97127272   -5.9752104    746.35512  0.036329591  0.036508936            6 
 1713000   0.95670852    -6.003226    746.65458  0.036322951  0.036499311            4 
 1714000   0.98844939   -6.0414753    744.88346  0.036215649  0.036489636            8 
 1715000   0.99152203   -6.0139898    744.39405  0.036170751  0.036479886            7 
 1716000   0.98375149   -6.0472868    745.34761  0.036195979   0.03647012            2 
 1717000   0.98472613   -6.0357258    746.14976   0.03621383  0.036460425            4 
 1718000   0.94369107   -6.0447586    746.41937  0.036205829  0.036450825            3 
 1719000   0.98411552   -6.0616976    744.69016  0.036100938  0.036441139            5 
 1720000   0.98000197   -6.0157901    749.44836  0.036310483  0.036431673            4 
 1721000   0.96700047   -6.0173457    748.31875  0.036234687  0.036422249            4 
 1722000   0.97138967    -6.029358    749.40553  0.036266237  0.036412751            4 
 1723000   0.97944727    -5.970154    750.39907  0.036293242  0.036403316            7 
 1724000   0.97416051   -6.0344345    746.94792  0.036105371  0.036393753            4 
 1725000   0.95546882   -6.0254075     747.5172  0.036111942  0.036384315            6 
 1726000   0.96638814   -6.0305701    747.86012  0.036107576  0.036374725            6 
 1727000   0.94776436   -6.0063566    750.55056  0.036216491   0.03636521            4 
 1728000   0.99468587   -6.0299843    748.60149  0.036101538  0.036355627            4 
 1729000    1.0054352   -6.0270052    748.91372  0.036095706  0.036346008            3 
 1730000   0.95276888   -6.0328127    750.40899  0.036146869  0.036336545            5 
 1731000   0.99482712   -6.0338068    750.10994   0.03611159  0.036327016            5 
 1732000   0.96933566    -6.037488    750.49507   0.03610927  0.036317651            3 
 1733000   0.97634044   -6.0219642    750.60093  0.036093524  0.036308189            3 
 1734000   0.98037343   -6.0242075    750.83895  0.036084148  0.036298759            2 
 1735000   0.97030391    -6.004129    752.14248  0.036125959  0.036289395            3 
 1736000   0.97466407   -6.0387067    749.06485  0.035957414  0.036279918            3 
 1737000   0.97458251    -6.021095    750.35828  0.035998766  0.036270414            3 
 1738000    0.9536566   -6.0200771    752.42075  0.036076944  0.036260758            4 
 1739000   0.95189958   -6.0391097    751.25421  0.036000298  0.036250932            2 
 1740000   0.97447433   -6.0536809    749.84201  0.035911973  0.036241128            7 
 1741000   0.97982349   -6.0142295    750.11966  0.035904636  0.036231253            5 
 1742000   0.99011991   -6.0510077    749.44103  0.035851561  0.036221524            5 
 1743000   0.97556267   -6.0669122    748.67909  0.035794564  0.036211656            3 
 1744000    0.9497446   -6.0487005    752.51298  0.035957233  0.036201759            7 
 1745000   0.96467344   -6.0632723    750.73173  0.035851563  0.036191851            5 
 1746000   0.96588671   -6.0142597    752.48593  0.035914754  0.036181979            5 
 1747000    0.9810497   -6.0388496    753.14949  0.035925848  0.036172232            5 
 1748000   0.96792113   -6.0112955    754.47739  0.035968602  0.036162587            5 
 1749000   0.96825046   -5.9918607    754.53758  0.035950904  0.036152856            3 
 1750000   0.96736492    -6.036229    752.58951  0.035837596  0.036142967            3 
 1751000    0.9783951   -6.0237534    754.70804  0.035917954  0.036133049            6 
 1752000   0.95001659    -6.036452    752.37561  0.035786511  0.036123241            4 
 1753000   0.98329018   -6.0426556    753.37006   0.03581337  0.036113476            3 
 1754000   0.95945996   -5.9864022    756.54747  0.035943912  0.036103745            6 
 1755000   0.96895082   -6.0070639      756.692  0.035930294  0.036093922            6 
 1756000    0.9729717    -6.064883    753.19408  0.035743835  0.036084136            3 
 1757000   0.98716599   -6.0615246    751.88656  0.035661476   0.03607438            3 
 1758000   0.97005128   -6.0155696    756.83118  0.035875577  0.036064804            4 
 1759000   0.97479655   -6.0509471    755.89642  0.035810897  0.036055372            5 
 1760000   0.97545198   -6.0185866    756.46762  0.035817596  0.036045837            7 
 1761000   0.97860111   -6.0256959    756.48944  0.035798289  0.036036298            3 
 1762000   0.96414881   -6.0242209    757.40962  0.035821492  0.036026742            3 
 1763000   0.97377377   -6.0275625    757.56296  0.035808421  0.036017128            2 
 1764000   0.95273344   -6.0491685    757.09544  0.035766036  0.036007502            4 
 1765000    0.9623705   -6.0417495    758.92168  0.035831996  0.035998039            3 
 1766000   0.97329722    -6.012385    759.43022  0.035835703  0.035988418            4 
 1767000   0.96396571   -6.0439735    759.69174  0.035827756  0.035979049            3 
 1768000   0.95106554   -6.0407463    757.55985  0.035707007  0.035969547            7 
 1769000   0.98649034   -6.0292118    759.04826  0.035756937  0.035960058            3 
 1770000   0.97880198     -6.01255    759.96352  0.035779827  0.035950649            8 
 1771000   0.95405646   -6.0894399    758.58535  0.035694774  0.035940985            7 
 1772000   0.96906892   -6.0219451    758.25741  0.035659208  0.035931477            7 
 1773000   0.97997516   -6.0564984    761.10877  0.035773114   0.03592196            4 
 1774000   0.96773803   -6.0549832    759.24689  0.035665487  0.035912443            6 
 1775000   0.97580265   -6.0300556    762.71475  0.035808204  0.035902845            3 
 1776000    0.9667902   -6.0522031    759.93894  0.035657795  0.035893297            7 
 1777000   0.96945828   -6.0316589    759.09289  0.035598053   0.03588382            5 
 1778000   0.96686134   -6.0603705    761.61822  0.035696392  0.035874235            3 
 1779000   0.96887881   -6.0518003    760.93172  0.035644169  0.035864796            5 
 1780000   0.96924938   -6.0771093    761.88053  0.035668564  0.035855263            5 
 1781000   0.96038479   -6.0740671    759.18083  0.035522218  0.035845619            8 
 1782000   0.96512685   -6.0860496     758.8256  0.035485671  0.035835804            2 
 1783000   0.95596566    -6.026945    762.50667  0.035637814  0.035826071            5 
 1784000   0.99062912   -6.0708543    759.69211  0.035486365  0.035816405            4 
 1785000   0.99498122   -6.0719564    760.37656  0.035498439  0.035806536            6 
 1786000   0.96068298   -6.0998267    760.98218   0.03550682    0.0357967            2 
 1787000   0.94691982   -6.0493603    762.70779  0.035567422  0.035786985            6 
 1788000   0.96173485   -6.0455866    763.32376  0.035576238   0.03577752            3 
 1789000   0.96360007    -6.041728    765.20821  0.035644131  0.035768074            7 
 1790000   0.94235906   -6.0610677    764.24116  0.035579197  0.035758543            4 
 1791000   0.98259661   -6.0401328    763.50264  0.035524969  0.035748986            6 
 1792000   0.98254474   -6.0078106    763.28171  0.035494871  0.035739451            4 
 1793000   0.97246398   -6.0831807    764.21984  0.035518676  0.035729869           10 
 1794000   0.95838707   -6.0587489    762.65008  0.035425961  0.035720089            2 
 1795000   0.96858466   -6.0636072     763.4314  0.035442498  0.035710485            2 
 1796000   0.98098221   -6.0332665    763.38691  0.035420699  0.035700805            4 
 1797000   0.95702941   -6.0342525    763.82433  0.035421273  0.035691204            2 
 1798000   0.96790004   -6.0506973    763.57679    0.0353901  0.035681498            6 
 1799000   0.98561788   -6.0492688    765.06031  0.035439147  0.035671822            5 
 1800000   0.93998395    -6.067641    764.18602  0.035378982  0.035662001            6 
 1801000   0.96677834   -6.0494614    764.31518  0.035365315  0.035652187            9 
 1802000    0.9556863    -6.045647    767.85541  0.035509407    0.0356424            4 
 1803000   0.95443921   -6.0606382    765.12745  0.035363628  0.035632732            2 
 1804000   0.97766249    -6.038469    768.85909  0.035516403  0.035623144            3 
 1805000   0.96329665   -6.0651786    763.03978   0.03522806  0.035613513            4 
 1806000   0.97865021   -6.0642575     768.9002  0.035478968  0.035603876            6 
 1807000   0.96931136   -6.0460996    765.34388  0.035295328   0.03559427            2 
 1808000     0.920075   -6.0355074     769.8204  0.035482135  0.035584717            5 
 1809000   0.96923967   -6.0618587    768.78783  0.035414954  0.035575085            6 
 1810000   0.97247644   -6.1018925    766.96666   0.03531154  0.035565439            7 
 1811000   0.94420204   -6.0209082    766.23986  0.035258598  0.035555634            2 
 1812000   0.95584565   -6.0470839    767.59185  0.035301318   0.03554608            4 
 1813000   0.94571138   -6.0388292    769.77442  0.035382167  0.035536482            4 
 1814000   0.96495772   -6.0699597    767.29019  0.035248539  0.035526755            7 
 1815000   0.95952504   -6.0585934    767.22997  0.035226353  0.035516883            2 
 1816000   0.96135991    -6.052233    767.11984  0.035201902  0.035507289            8 
 1817000   0.96251668   -6.0644359    768.57496  0.035249264  0.035497789            3 
 1818000   0.96604369   -6.0563584    768.75277  0.035238026  0.035488054            3 
 1819000   0.94182829   -6.0759476    767.34183  0.035154015   0.03547816            4 
 1820000   0.96109289   -6.0562819    769.09025  0.035214755  0.035468358            3 
 1821000    0.9470527   -6.0168897    770.95472   0.03528074  0.035458771            6 
 1822000   0.93347032   -6.0631896     768.8076  0.035163172  0.035449044           12 
 1823000   0.94832029   -6.1009493    768.42095  0.035126209  0.035439211            8 
 1824000   0.97186311   -6.0858935    769.24086  0.035144411  0.035429417            3 
 1825000   0.96391633   -6.0328466      769.367  0.035130913  0.035419533            5 
 1826000   0.96770714   -6.0683957    769.81474  0.035132108  0.035409743            3 
 1827000   0.98360067   -6.0654468    768.55288  0.035055322  0.035399811            3 
 1828000   0.96600785   -6.0344395    772.01285  0.035193875  0.035390081            6 
 1829000   0.96383014   -6.0553964    772.51541  0.035197531  0.035380366            4 
 1830000   0.94952102   -6.0573964    771.51046  0.035132535  0.035370766            2 
 1831000   0.95258753   -6.0732634    770.19701  0.035053569  0.035361085            9 
 1832000     0.964834   -6.0526316     772.2722   0.03512883  0.035351495            5 
 1833000   0.96533241   -6.0135796    772.42203  0.035116477  0.035341868            5 
 1834000    0.9658735   -6.0376932    772.50052  0.035100896  0.035332272            4 
 1835000    0.9516673    -6.037925    774.36551  0.035166463  0.035322742            3 
 1836000   0.95831967   -6.1017344    774.48406   0.03515269  0.035313052            7 
 1837000    0.9516849   -6.0311539      773.357  0.035082426  0.035303443            2 
 1838000   0.95184967   -6.0539835    771.67639  0.034987141   0.03529369            4 
 1839000    0.9552059   -6.0774686    773.01164  0.035028623  0.035283951            3 
 1840000   0.97874786   -6.0452184    775.44523  0.035119802  0.035274359            3 
 1841000   0.96066059   -6.1067945    769.83422  0.034846742   0.03526452            6 
 1842000   0.96418974    -6.065194    775.03452  0.035063089   0.03525486            3 
 1843000   0.95372437   -6.0393637    774.48158  0.035019062  0.035245378            6 
 1844000   0.94655803   -6.0897537    776.35594  0.035084777  0.035235841            5 
 1845000   0.94002671   -6.0595795    775.06229   0.03500733  0.035226124            9 
 1846000   0.94437108   -6.0601218    775.47322  0.035006917  0.035216481            9 
 1847000    0.9485935   -6.0813655    775.55372  0.034991595  0.035206798            8 
 1848000   0.95165549   -6.0562959    776.02341   0.03499384  0.035197043            4 
 1849000   0.95857533   -6.0461956    776.88049  0.035013543  0.035187618            6 
 1850000   0.94849494   -6.0767552    775.37491  0.034926798  0.035178157            4 
 1851000   0.96120806    -6.027389    778.44098  0.035045965  0.035168647           10 
 1852000   0.93168081   -6.0977709    776.59105  0.034943802   0.03515914            7 
 1853000   0.96824672   -6.0878232    778.09477  0.034992569  0.035149531            6 
 1854000   0.97472014    -6.084302    778.73676  0.035002551  0.035140014            5 
 1855000   0.96158208   -6.1048252     777.1965  0.034914488  0.035130525            4 
 1856000   0.96300854   -6.0684156    779.18986  0.034985177  0.035120975            4 
 1857000   0.98309099   -6.1025336     776.8903  0.034863144  0.035111507            5 
 1858000   0.95902302   -6.0576241    777.50246  0.034871836  0.035101992            5 
 1859000   0.96402212   -6.0884657     779.4604  0.034940846    0.0350925            2 
 1860000   0.93503567   -6.0576494    780.17851  0.034954234  0.035083105            3 
 1861000   0.96724716   -6.0924228    779.25779  0.034894223  0.035073627            2 
 1862000   0.92317866    -6.085828    780.06422  0.034911574  0.035064119            5 
 1863000   0.91743576   -6.0590546    780.82671  0.034926942  0.035054622            4 
 1864000    0.9610515   -6.0612618    778.88436  0.034821368  0.035045242            4 
 1865000    0.9597477    -6.055478    781.84263  0.034934881  0.035035954            7 
 1866000   0.93957957   -6.0439722     780.8534  0.034871981  0.035026627            6 
 1867000   0.94146723   -6.0967251    779.12957   0.03477636  0.035017031            5 
 1868000    0.9519532   -6.1076045    779.61029  0.034779189  0.035007357            4 
 1869000    0.9319133    -6.094203    780.28088   0.03479048  0.034997783            5 
 1870000   0.95021317   -6.1178135    778.75655  0.034703946  0.034988188            5 
 1871000   0.94725639   -6.0358296    782.31677  0.034843968  0.034978662            4 
 1872000   0.95778608   -6.0669023    781.90185  0.034806884   0.03496927            2 
 1873000   0.94992895   -6.0996726    781.00411  0.034748359  0.034959931            4 
 1874000   0.95777382   -6.1138963    779.94847  0.034682874   0.03495051            6 
 1875000   0.94704279   -6.1057056    782.77882   0.03479017  0.034941023           11 
 1876000   0.94714744   -6.0923425     781.8179   0.03472894    0.0349315            5 
 1877000   0.95032606    -6.104346     781.6991  0.034705163  0.034922108            9 
 1878000   0.94844642   -6.0739118     784.4705   0.03480966  0.034912629            3 
 1879000   0.94171794    -6.061901    783.96573  0.034768748  0.034903135            3 
 1880000   0.94981759   -6.0882068    782.66404  0.034692555  0.034893691            5 
 1881000   0.96280745   -6.1062957    782.80498  0.034680355  0.034884089            5 
 1882000   0.94262261   -6.0835232    782.47583  0.034647353  0.034874548            4 
 1883000    0.9470935   -6.0870637    784.28556  0.034709044  0.034865034            8 
 1884000   0.95669294   -6.1021661    781.39371  0.034562708  0.034855485            5 
 1885000   0.95791506   -6.0760335    784.94924  0.034701558  0.034845817            3 
 1886000   0.93860626    -6.089124    783.92447  0.034637879  0.034836396            5 
 1887000   0.95173887   -6.0904457    784.25774  0.034634241  0.034826914            5 
 1888000   0.95672748   -6.1151287    783.38361  0.034577313   0.03481724            5 
 1889000   0.96225583   -6.1315941    781.23037  0.034464019  0.034807525            8 
 1890000   0.95889217   -6.1337999    782.56284  0.034504534  0.034797821            4 
 1891000   0.95055761   -6.1125059    783.31769  0.034519553  0.034787954            5 
 1892000   0.96874058   -6.0981147    786.69838  0.034650211  0.034778319            4 
 1893000   0.94924611   -6.0934112    784.71373  0.034544538  0.034768791            8 
 1894000   0.94148304   -6.0817146    786.79389  0.034617823  0.034759283            3 
 1895000   0.97838862   -6.0614507     787.8254  0.034644916  0.034750035            5 
 1896000   0.92478009   -6.0731088    785.07259  0.034505652  0.034740763           10 
 1897000   0.95499031   -6.0770726    789.06062  0.034662652  0.034731507            5 
 1898000   0.92959062    -6.084197    787.02603  0.034555059  0.034722194            5 
 1899000   0.93593727   -6.0950714    786.89057  0.034530918  0.034712795            3 
 1900000   0.94695478   -6.1170272    787.38058  0.034534236  0.034703357            8 
 1901000   0.93135571   -6.0678186    790.51848  0.034653624  0.034694086            2 
 1902000   0.92004233     -6.06601    789.23946  0.034579366  0.034684855            5 
 1903000   0.95045589   -6.0790865    789.82027   0.03458663  0.034675548            4 
 1904000   0.94905285   -6.1144582    790.01478  0.034576977  0.034666273            3 
 1905000   0.93507365   -6.1007325    791.49444  0.034623554  0.034657085            5 
 1906000   0.95650449   -6.0918555    791.96545  0.034625982  0.034647909            4 
 1907000   0.93947243   -6.0982818    789.40341  0.034495866  0.034638686            4 
 1908000   0.94902281   -6.1084021    791.66189  0.034576428   0.03462943            6 
 1909000   0.95375441   -6.0973703    789.04498   0.03444408  0.034620169            3 
 1910000    0.9452667   -6.1069673     790.4471  0.034487221  0.034611019            8 
 1911000    0.9278098   -6.0909022    792.76674  0.034570327  0.034601829            2 
 1912000   0.93653878     -6.09284    793.29426  0.034575238  0.034592629            6 
 1913000   0.95540165   -6.0795471     793.8606  0.034581835  0.034583475            9 
 1914000   0.94565507    -6.100743    790.83027   0.03443183  0.034574389            8 
 1915000    0.9506363   -6.0982783    791.43063  0.034439975  0.034565038            5 
 1916000   0.93545126   -6.1101871    792.79835  0.034481487  0.034555695            5 
 1917000    0.9410824   -6.0841551     792.9098  0.034468345  0.034546474           11 
 1918000   0.95461186   -6.1327003    794.40273  0.034515238  0.034537162            5 
 1919000   0.94767515   -6.0756704    793.32273  0.034450353  0.034527996            3 
 1920000   0.92354018   -6.1262732    791.39619  0.034348793  0.034518771            9 
 1921000   0.94460105   -6.0734071    794.32343  0.034457896  0.034509479            6 
 1922000   0.95960459   -6.0652698    794.69012  0.034455867   0.03450035            3 
 1923000   0.95300239   -6.1112679     792.8422  0.034357869  0.034491128            3 
 1924000   0.93631154   -6.0915415    796.35379  0.034492108  0.034481968            4 
 1925000   0.93748583   -6.1087115    792.77037  0.034319064  0.034472736            2 
 1926000   0.95336326   -6.1278992    794.35351  0.034369744  0.034463431            6 
 1927000   0.97175623   -6.1271769    791.79326  0.034241189  0.034454041            5 
 1928000   0.94626337   -6.1013713    794.83008  0.034354689  0.034444624            9 
 1929000    0.9421439   -6.1031278    793.02047  0.034258704  0.034435253            4 
 1930000   0.92955859   -6.0727701    796.46391  0.034389633  0.034425989            4 
 1931000   0.93676962   -6.1110879    792.96267  0.034220726  0.034416566           13 
 1932000   0.96463104   -6.1050541    795.87385  0.034328582  0.034407224            7 
 1933000   0.95611367    -6.128212    795.37204   0.03428919  0.034397967            6 
 1934000   0.92173555   -6.0846518     797.3723  0.034357648  0.034388745            6 
 1935000   0.93218502   -6.1079465    795.93989  0.034278204   0.03437948            3 
 1936000   0.94814735    -6.085814    798.06848  0.034352121  0.034370391            6 
 1937000   0.94640083   -6.0547705    800.38003  0.034433834  0.034361358            7 
 1938000   0.93174579   -6.0923168    795.97932  0.034226837  0.034352233            4 
 1939000   0.95453893   -6.0924919    796.02809  0.034211281  0.034343041            2 
 1940000   0.95038479   -6.1056884     798.2368  0.034288522  0.034333772            6 
 1941000   0.93851033   -6.0633126    799.03664  0.034305197  0.034324517            6 
 1942000   0.94277595   -6.1513816    796.56405   0.03418143  0.034315276            4 
 1943000   0.95155757   -6.1091828    799.03198  0.034269685  0.034306018            2 
 1944000   0.93830167   -6.1350963    798.47109  0.034228013  0.034296684            3 
 1945000   0.93504487   -6.0882802     797.6611  0.034175711  0.034287435            3 
 1946000   0.94005066   -6.1342046    796.96951  0.034128533  0.034278217            5 
 1947000   0.95095965    -6.082597    798.62927  0.034182044  0.034268983            7 
 1948000   0.94975745   -6.0847631     800.5309  0.034245846  0.034259956           15 
 1949000   0.93049136   -6.1164714      798.376  0.034136138  0.034250848            5 
 1950000   0.97398457   -6.0831689    800.42841  0.034206343  0.034241849            5 
 1951000   0.94641174   -6.1154296    801.74456  0.034245026  0.034232721            7 
 1952000   0.95800796   -6.1196325    798.40014  0.034084705  0.034223565            5 
 1953000   0.93796207   -6.1366601    800.21241  0.034144581  0.034214411            7 
 1954000   0.92576464   -6.1172317     801.1303  0.034166253  0.034205155            6 
 1955000    0.9599777   -6.1260676    798.01352  0.034015922  0.034195952            6 
 1956000   0.94966566   -6.0868777    803.63987  0.034238236  0.034186811            5 
 1957000   0.94565358   -6.1168692    798.64475  0.034008037  0.034177485            4 
 1958000   0.93545999   -6.1031764    800.72947  0.034079395   0.03416811            3 
 1959000   0.92736212   -6.1327463    801.12131  0.034078667  0.034158845            4 
 1960000   0.94426805   -6.1144596    801.27674  0.034067888  0.034149587            7 
 1961000   0.94953578   -6.1219472    800.12903  0.034001744   0.03414025            5 
 1962000   0.93559621   -6.1236534    799.97531  0.033977884  0.034130788            7 
 1963000   0.93614692   -6.1154656    800.85641   0.03399798  0.034121322            7 
 1964000   0.94973958   -6.1111623    800.90634  0.033982788  0.034112067            4 
 1965000   0.92467948   -6.1142206     800.5776  0.033951552  0.034102648            5 
 1966000   0.93888416   -6.1321194    799.50624  0.033888871  0.034093262            8 
 1967000   0.93754773   -6.0990768    802.39908  0.033994199  0.034083916            4 
 1968000   0.93343047   -6.1398247     798.0156  0.033791311  0.034074522            5 
 1969000   0.94450304   -6.1094769    801.22649  0.033910043  0.034064984            7 
 1970000   0.91169256   -6.1514549     799.6676  0.033826887  0.034055558            5 
 1971000   0.92665599   -6.1135886    799.82219   0.03381626  0.034046052            3 
 1972000   0.94030432   -6.1421673    799.17849  0.033771911  0.034036479            3 
 1973000   0.92932159   -6.1536743    802.85931   0.03391026  0.034027017            5 
 1974000   0.93025956   -6.1426002    803.18453  0.033906811  0.034017545            8 
 1975000   0.94686053   -6.0870406    803.71167  0.033911885  0.034008129            3 
 1976000   0.92224542   -6.1452518    802.70812  0.033852401  0.033998804            3 
 1977000   0.92983934   -6.1151537    803.08675  0.033851237  0.033989383            6 
 1978000   0.92056755   -6.1465251    804.84465  0.033908184  0.033979995            5 
 1979000   0.92258132     -6.14419    805.27134  0.033909017  0.033970655            5 
 1980000   0.92450967   -6.1163063    807.09797   0.03396877  0.033961375            3 
 1981000   0.95137099   -6.1387404      804.346  0.033835857  0.033952059            6 
 1982000   0.93442218   -6.1323517    802.81804  0.033754542  0.033942749            5 
 1983000   0.91351181   -6.1392533    802.23996  0.033713227  0.033933455           11 
 1984000   0.94587286   -6.0999698    805.20459  0.033820757  0.033924241            8 
 1985000     0.934341   -6.0758893    808.83625  0.033956182  0.033915021            8 
 1986000   0.92580557   -6.1220104    806.85518  0.033855957  0.033905759            8 
 1987000   0.93560596    -6.121028    806.08764  0.033806729   0.03389652            8 
 1988000   0.92524157   -6.1214408    806.12749  0.033791394  0.033887318            7 
 1989000   0.94847172   -6.1400164    806.21673  0.033778143  0.033878157            8 
 1990000   0.92978998   -6.1377028     807.2678  0.033805184  0.033868883            5 
 1991000   0.92704597   -6.1753588    805.70318  0.033722718  0.033859611            9 
 1992000   0.91668517   -6.1279381    809.38384  0.033859766  0.033850352            4 
 1993000   0.95723739   -6.0699077    811.47236  0.033930104  0.033841144            3 
 1994000   0.94163327   -6.1069918    809.06128  0.033812324  0.033831906            5 
 1995000   0.94983822   -6.1325272    807.50475  0.033730357  0.033822621            3 
 1996000   0.94554705     -6.09954    808.28852  0.033746181  0.033813348            4 
 1997000    0.9344738   -6.1408334    807.86997  0.033711816  0.033804046            5 
 1998000   0.92519865   -6.1594817    806.93765  0.033656058  0.033794656           17 
 1999000   0.94537732   -6.1233511    808.36678  0.033698799  0.033785384            3 
 2000000   0.91600238   -6.1538838     808.7362  0.033697342  0.033776159           13 
 2001000   0.91592443   -6.1653376    809.22908  0.033701028  0.033766816            4 
 2002000    0.9274739   -6.1109251    809.89052  0.033711727  0.033757425            4 
 2003000   0.92630326   -6.1091449    809.71425  0.033687562  0.033748179            4 
 2004000   0.95459677   -6.1215628    809.70261  0.033670268  0.033739061            5 
 2005000    0.9260058   -6.1434145    809.98292  0.033665126   0.03372986            5 
 2006000   0.94681828   -6.1235076    809.82777  0.033641898  0.033720577            3 
 2007000   0.93139361   -6.1418673    808.57321  0.033573045  0.033711376            2 
 2008000   0.92662531   -6.1488465    811.58804  0.033681443  0.033702019            7 
 2009000   0.94922455   -6.1414389     811.3147  0.033653339  0.033692941            7 
 2010000   0.94343089   -6.1322562    810.37504  0.033597638  0.033683792            3 
 2011000   0.93247519   -6.1464511    810.38424  0.033581313   0.03367468            3 
 2012000   0.94099529   -6.1481199    811.29711  0.033602432   0.03366555            7 
 2013000   0.91933194   -6.1629739    811.75346  0.033604631  0.033656392            3 
 2014000    0.9331797   -6.1738112    811.34189  0.033570916  0.033647298            6 
 2015000   0.93454515   -6.1461134    811.96569  0.033580053  0.033638217            6 
 2016000    0.9304292   -6.1381048    812.77583  0.033596884   0.03362909           12 
 2017000   0.92895561   -6.1015142    814.58203  0.033654852  0.033620202            6 
 2018000   0.92279089    -6.145049    814.53691  0.033636311  0.033611108            5 
 2019000   0.92856191   -6.1261186    814.44598  0.033615898  0.033602144            5 
 2020000   0.93472723   -6.1168376    816.52962  0.033685215  0.033593205            5 
 2021000   0.91810904   -6.1512639    815.05977   0.03360794   0.03358414            3 
 2022000    0.9010085   -6.1486033    811.56329  0.033447218  0.033575008            6 
 2023000   0.92746146   -6.1560981    813.77333  0.033521722  0.033565883            7 
 2024000   0.93429737   -6.1191661    814.46627   0.03353369  0.033556773            7 
 2025000   0.91685229    -6.113764    814.55015  0.033520582  0.033547787            8 
 2026000   0.92777492   -6.1272669    813.49089  0.033460468  0.033538802            4 
 2027000   0.92470004   -6.1305839    815.04697  0.033507933  0.033529807            3 
 2028000   0.91567511   -6.1525048    814.52195  0.033469837  0.033520863            9 
 2029000   0.93058172   -6.1249969     816.3628  0.033528947  0.033511846           10 
 2030000   0.90819808   -6.1261058     815.8253  0.033490365  0.033502856            4 
 2031000   0.94835351    -6.154597     812.9842  0.033357303  0.033493728           11 
 2032000   0.92742439   -6.1551746    814.63385   0.03340854  0.033484577            3 
 2033000   0.94296198   -6.1402152    815.45652  0.033425829  0.033475498            4 
 2034000   0.93400167   -6.1324575    818.54151  0.033535788  0.033466511            5 
 2035000   0.92063765   -6.1258269    819.65607   0.03356495  0.033457714           11 
 2036000   0.92660511    -6.153006    818.80173  0.033513496  0.033448795            3 
 2037000   0.92025784   -6.1560494    818.09263  0.033468034  0.033439952            5 
 2038000   0.90899614   -6.1955185     817.5488  0.033429375  0.033430973            4 
 2039000   0.92973939   -6.1540533    818.68888  0.033459575  0.033422017            6 
 2040000   0.92007133   -6.1357038    821.20709  0.033546041  0.033413195            4 
 2041000   0.93603493   -6.1498811    818.16525  0.033405408  0.033404456            8 
 2042000   0.93588839    -6.131803    819.67065  0.033450483    0.0333957            3 
 2043000   0.92532109   -6.1528334    820.62068  0.033472862  0.033386982            5 
 2044000   0.90466933   -6.1199549    823.34395  0.033567513  0.033378079            2 
 2045000   0.93662445   -6.1630938     818.8839  0.033369352  0.033369311            4 
 2046000   0.92269182   -6.1717279    818.13856  0.033322685  0.033360349            4 
 2047000   0.92047976   -6.1266526    819.56247  0.033364374  0.033351412            3 
 2048000     0.927365   -6.1500584    821.41874  0.033423614  0.033342692            8 
 2049000   0.89686482   -6.1593905    817.19469  0.033235509  0.033333885            7 
 2050000   0.92517694   -6.1573463    818.41089  0.033268735  0.033324878            4 
 2051000    0.9142621   -6.1444626    819.75164   0.03330699  0.033315899            7 
 2052000   0.91854803   -6.1365165    822.02886  0.033383238  0.033307081            8 
 2053000   0.91656877   -6.1401165    821.46824  0.033344221  0.033298298            2 
 2054000   0.92895226    -6.163914    821.58882   0.03333288  0.033289449            6 
 2055000    0.9186818   -6.1400266    822.02315  0.033334272  0.033280578            2 
 2056000   0.91708861   -6.1296878    822.75812  0.033347848  0.033271857            8 
 2057000   0.92450979   -6.1331873    823.97934  0.033381111  0.033263113            3 
 2058000   0.93174461   -6.1485292    824.59187  0.033389694  0.033254285            3 
 2059000   0.89805893   -6.1566863    822.82792  0.033302085  0.033245462            4 
 2060000   0.91355993   -6.1718815    821.92964  0.033249581  0.033236599            5 
 2061000   0.93324609   -6.1541975    825.14364  0.033363401  0.033227849            4 
 2062000   0.91072396   -6.1692969    825.42036  0.033358404  0.033218972            9 
 2063000   0.92524255   -6.1609523    824.58626  0.033308542  0.033210139            9 
 2064000   0.91707136   -6.1430684    823.95531  0.033266929  0.033201233            6 
 2065000   0.93656393   -6.1558284    822.50206  0.033192174   0.03319234            5 
 2066000   0.91632939   -6.1644985    821.52903   0.03313686  0.033183498           15 
 2067000   0.91026056    -6.176023    825.28172  0.033272122  0.033174644            9 
 2068000   0.93353217   -6.1853269    823.56829  0.033186988  0.033165876            5 
 2069000   0.90814721   -6.1301132    826.24482  0.033278751  0.033157185            5 
 2070000   0.91325045    -6.147208    824.50584  0.033192667  0.033148491            8 
 2071000   0.90484621   -6.1629645    825.11255  0.033201052  0.033139695            4 
 2072000   0.92215076   -6.1627345    826.11956  0.033225529  0.033130904            5 
 2073000   0.93542487   -6.1721438    825.87902  0.033199832   0.03312207            4 
 2074000   0.92124431   -6.1872388    826.98641  0.033228319  0.033113213            3 
 2075000   0.91692603   -6.1556533     824.6731  0.033119401  0.033104429            8 
 2076000   0.92075956   -6.1921554    824.98923  0.033116138  0.033095661            4 
 2077000   0.92736216   -6.1802205    827.13608  0.033186329  0.033086812            8 
 2078000   0.92402311   -6.1624748    826.16841  0.033131553  0.033078039            5 
 2079000   0.91506703    -6.180999    827.57655   0.03317206  0.033069173            8 
 2080000   0.92493601   -6.1960604    823.47634   0.03299184  0.033060348            5 
 2081000   0.90890717   -6.1356949    829.32454  0.033210177  0.033051624            7 
 2082000   0.91410731   -6.1432194    831.01724  0.033261977  0.033043035            4 
 2083000   0.89086887   -6.1980013     827.4191   0.03310206  0.033034365            6 
 2084000   0.92320684   -6.1533292    828.15673  0.033115672  0.033025674           10 
 2085000    0.9105636   -6.1409665    831.87368  0.033248348  0.033017108            4 
 2086000   0.91864965   -6.1795337    829.53482  0.033138975  0.033008533            4 
 2087000   0.92868864   -6.1532008    829.66718  0.033128381  0.033000046            7 
 2088000     0.906413   -6.1832806    829.76247  0.033116318  0.032991425            7 
 2089000   0.90242664   -6.1609327    830.22936  0.033119091  0.032982787            3 
 2090000   0.90652685   -6.1797991    828.77724  0.033045344  0.032974212            3 
 2091000   0.86998065   -6.1865922    830.43912  0.033095772   0.03296556            4 
 2092000   0.91434469   -6.1354274    833.22482  0.033190919  0.032956977            5 
 2093000   0.92574598   -6.1585577    831.77739  0.033117431  0.032948447            4 
 2094000   0.90781102    -6.147995    832.44432  0.033128157  0.032939848            6 
 2095000   0.94305065   -6.1931437    831.01868  0.033055636  0.032931216            6 
 2096000   0.93249202   -6.1599771    831.87144  0.033073769  0.032922826            3 
 2097000   0.92270564   -6.1223184    833.45171  0.033120796  0.032914449            3 
 2098000   0.92083733    -6.186588      831.198  0.033015491  0.032905992            7 
 2099000   0.91345347   -6.1655922    835.74399  0.033180244  0.032897474            6 
 2100000    0.9076971    -6.174769    833.95447  0.033093431  0.032889012            6 
 2101000   0.91434321   -6.1708581    833.75359  0.033069712  0.032880617            5 
 2102000   0.94563424   -6.1482727    834.89074  0.033099062  0.032872235            6 
 2103000   0.92268422   -6.1584902    832.84464  0.033002245   0.03286376            4 
 2104000   0.90584485   -6.1964086    833.49096  0.033012158  0.032855257            8 
 2105000   0.91340297    -6.216932    832.48165  0.032956518  0.032846738            4 
 2106000   0.92562118   -6.1337944    834.17387   0.03300783   0.03283839            3 
 2107000   0.91839573   -6.2130705    832.94188  0.032943438  0.032829961            4 
 2108000   0.92332852   -6.1904841    836.55985  0.033070835  0.032821519           10 
 2109000   0.90291251   -6.1525353    831.93884  0.032872564  0.032813012            4 
 2110000   0.93779287   -6.1648393     835.6588  0.033003902  0.032804526            3 
 2111000   0.91073797   -6.1641861      836.222  0.033010501  0.032796082            9 
 2112000   0.92702522    -6.140621    835.29701  0.032958373  0.032787723            5 
 2113000   0.92662871   -6.2183246    834.41267  0.032907898  0.032779246            5 
 2114000   0.91712671   -6.1783557    836.09205  0.032958533  0.032770828            6 
 2115000   0.91721023   -6.1537787    837.76404  0.033008827  0.032762432            3 
 2116000   0.90442342   -6.1761491     835.2228  0.032893147   0.03275409            4 
 2117000    0.9102758    -6.175799    837.06919  0.032950291  0.032745653            3 
 2118000   0.90321313   -6.2036285    838.37971  0.032986296  0.032737328            4 
 2119000   0.90199471   -6.1860162    838.72666  0.032984374  0.032729068            3 
 2120000   0.93749273    -6.147775    838.91346  0.032976158  0.032720839            7 
 2121000   0.91254118   -6.1910307      837.264  0.032895804    0.0327126            4 
 2122000   0.91182903   -6.1546146    841.39654  0.033042591  0.032704265            3 
 2123000   0.91932328   -6.1624085      837.972  0.032892605  0.032696059            5 
 2124000   0.89949569   -6.1776146    841.96426  0.033033752  0.032687798            2 
 2125000    0.9159634   -6.1961278    841.38662  0.032995554  0.032679503            3 
 2126000     0.893499   -6.1885636    840.70269  0.032953225  0.032671186            4 
 2127000   0.93342653   -6.1835293    841.11641  0.032953942  0.032662975           10 
 2128000   0.91342771   -6.1584998    838.55343  0.032838089  0.032654658            5 
 2129000   0.92917486   -6.1822789    838.80514  0.032832517  0.032646372            2 
 2130000   0.91344728   -6.1919947    839.21297  0.032833058  0.032638052            5 
 2131000    0.9305612   -6.2295916     837.8608  0.032764774  0.032629563            6 
 2132000   0.88895044   -6.2087472    839.07198  0.032796747  0.032621064            5 
 2133000   0.92119571   -6.1661705    840.22673  0.032826486  0.032612619            3 
 2134000   0.91613729   -6.1376009    843.65439  0.032944954  0.032604415            7 
 2135000   0.90019983   -6.1961944    840.21778  0.032795386  0.032596187            2 
 2136000   0.91006559   -6.1743988    841.71204  0.032838329  0.032587865            6 
 2137000     0.896829    -6.166923      841.387  0.032810287  0.032579536            5 
 2138000   0.90503389   -6.1913617     841.9401  0.032816499  0.032571254            6 
 2139000   0.90831496   -6.1829124    843.97322  0.032880365  0.032563079            3 
 2140000    0.9159921   -6.2305812    840.89497  0.032745131  0.032554802            4 
 2141000   0.89902764   -6.1836656    841.41558    0.0327501  0.032546537            7 
 2142000   0.89145587   -6.2044521     841.8827  0.032752984  0.032538335            6 
 2143000   0.91336715   -6.2052877    842.69217  0.032769177  0.032530165            2 
 2144000   0.91300223   -6.1722148    845.39155  0.032858813   0.03252198            5 
 2145000    0.9106369   -6.1972754    844.25016  0.032799152  0.032513823            7 
 2146000   0.90532811   -6.1808095    845.91662   0.03284858  0.032505624            6 
 2147000   0.90011179   -6.1718787    845.14032  0.032803148  0.032497591            4 
 2148000   0.91980086   -6.2176126    844.96389  0.032781032  0.032489516            5 
 2149000   0.88832974   -6.1824382      845.408     0.032783  0.032481335            4 
 2150000   0.89271487    -6.159044    847.04209  0.032831089  0.032473185            5 
 2151000   0.89938798   -6.2264646    842.75835  0.032649866  0.032464986            2 
 2152000   0.88968455   -6.1958727    846.05083  0.032762191  0.032456707           13 
 2153000   0.91883479   -6.1916534    844.81701  0.032699219  0.032448497            6 
 2154000    0.8828867   -6.2213679    841.21645   0.03254474  0.032440135            9 
 2155000   0.90237543   -6.2000569    846.40154  0.032730145  0.032431751            6 
 2156000   0.90772701   -6.1844817    844.64636  0.032647123  0.032423492            8 
 2157000   0.92184812   -6.2322183    841.97804    0.0325289  0.032415142            7 
 2158000   0.92031387   -6.1697829    844.28111  0.032602761  0.032406857            5 
 2159000   0.90097586   -6.2166369    844.09071  0.032580312  0.032398566            5 
 2160000   0.91616919   -6.2038691    847.63459  0.032701952  0.032390219            9 
 2161000   0.87620544   -6.1868053    848.04379  0.032702599   0.03238201           12 
 2162000   0.91022001     -6.21477    845.16263   0.03257642  0.032373703            5 
 2163000   0.88307621   -6.2146528    844.29383  0.032527887  0.032365374            5 
 2164000   0.91268889    -6.201513    847.17378  0.032623759  0.032356938            7 
 2165000    0.9161109   -6.1815411    845.57505  0.032547154  0.032348602            3 
 2166000   0.90523385   -6.2002384    847.25046  0.032596586  0.032340279            3 
 2167000   0.92462878   -6.1973679    848.43028  0.032626914  0.032332116           10 
 2168000   0.89047436   -6.1753356    846.79462  0.032548994  0.032323924            5 
 2169000   0.88635664   -6.1977192     848.6805  0.032606443  0.032315851            7 
 2170000   0.89221996   -6.1828382    846.21136  0.032496596  0.032307603            5 
 2171000   0.93550526   -6.2194866    848.32299  0.032562682  0.032299297            3 
 2172000   0.89003607   -6.2296746     845.6447  0.032444932  0.032291029            7 
 2173000   0.91886281   -6.2268753    848.44913  0.032537549  0.032282783            5 
 2174000   0.90683736   -6.2175469    851.06473  0.032622843  0.032274462            4 
 2175000   0.89641165   -6.1896858      851.095  0.032609004  0.032266311           11 
 2176000   0.92613364   -6.2004483    849.79149  0.032544098  0.032258189           13 
 2177000   0.88639235   -6.2056052    847.77527   0.03245197  0.032249926            6 
 2178000   0.88858832   -6.1947062    850.54442  0.032543022  0.032241833           11 
 2179000   0.90265278   -6.1962627    853.47057  0.032639994  0.032233709            6 
 2180000   0.91277114   -6.1705656    851.65115  0.032555472  0.032225604            5 
 2181000   0.91275639    -6.206531    850.60633  0.032500624  0.032217475            7 
 2182000    0.9183043   -6.2036135    851.85734  0.032533507  0.032209317            7 
 2183000   0.90379003   -6.1951041    852.99578  0.032562062  0.032201191            2 
 2184000   0.90073712   -6.2068593    851.32594  0.032483438  0.032193182            4 
 2185000    0.9151114   -6.2100013    852.90045  0.032528621  0.032185108            8 
 2186000   0.90908427   -6.1935491    851.90427  0.032475765  0.032177151            6 
 2187000   0.91146713   -6.2234671    850.86111  0.032421167  0.032169047            4 
 2188000   0.89638575   -6.2317887    850.98259  0.032410976  0.032160983            6 
 2189000   0.90510194   -6.2096403    851.93621  0.032432473  0.032152736            7 
 2190000   0.87489087   -6.2161945    852.63608  0.032444295  0.032144592            3 
 2191000   0.89489874   -6.2006597    852.09108  0.032408759  0.032136463            7 
 2192000   0.88835691   -6.1886764    852.77336  0.032419912  0.032128371            3 
 2193000   0.92334756   -6.1963628    854.14989  0.032457436  0.032120312            4 
 2194000   0.87109678   -6.2119007    852.00119   0.03236103  0.032112191            9 
 2195000   0.91052542   -6.2012796    853.54049  0.032404726  0.032104024            5 
 2196000    0.9108662    -6.239952    851.50815  0.032312847  0.032095859            6 
 2197000   0.90881255   -6.2123167    853.71641    0.0323819  0.032087618            8 
 2198000   0.89141449   -6.2084113    855.94803  0.032451775  0.032079501            4 
 2199000   0.89728804   -6.1912975    853.92262  0.032360263  0.032071346            3 
 2200000   0.91213376   -6.1976307    853.92337  0.032345582  0.032063138            4 
 2201000   0.90450604   -6.2081266    854.98275  0.032370996  0.032054989            4 
 2202000   0.87447798   -6.1738962    854.05774  0.032321289  0.032046906            5 
 2203000   0.90852577   -6.2452476    850.72911  0.032180705  0.032038633            7 
 2204000   0.86939793   -6.2240505    852.36992  0.032228143  0.032030364            5 
 2205000   0.90161941   -6.2139452    855.59524  0.032335421  0.032022123            8 
 2206000   0.91131857   -6.2082155     853.7225  0.032250019  0.032013924            8 
 2207000   0.87971357   -6.2073644    852.71169   0.03219724   0.03200563            6 
 2208000   0.90754556   -6.2317279    852.15533   0.03216166  0.031997284            8 
 2209000   0.89716925   -6.2024562    854.41389  0.032232303  0.031988984            6 
 2210000   0.90486079   -6.2106163    854.59636  0.032224599  0.031980723            6 
 2211000   0.89046037   -6.2429069    853.90214  0.032183859  0.031972381            5 
 2212000   0.90488888   -6.2281296    854.53435  0.032193126  0.031964054            6 
 2213000   0.88917488   -6.2114496    857.07902  0.032274402  0.031955791            6 
 2214000   0.92401075   -6.2310013    857.94004  0.032292233  0.031947539            6 
 2215000   0.88256747   -6.1911826    856.10448  0.032208596  0.031939428            6 
 2216000     0.887371   -6.1783827    857.71684  0.032254694  0.031931352            4 
 2217000   0.90350836    -6.245255    856.01946  0.032176344  0.031923363            5 
 2218000    0.9085396   -6.1955811    858.28604  0.032246996   0.03191521            8 
 2219000   0.91236853   -6.2013661    857.59825  0.032206634  0.031907161            4 
 2220000   0.90712271   -6.2508725     856.7829   0.03216152  0.031899023            6 
 2221000   0.91316295   -6.1957979    857.31127  0.032166864  0.031890881            5 
 2222000   0.88948762   -6.2053646    860.93405  0.032288256  0.031882733            5 
 2223000   0.89656783   -6.1966259    858.57574  0.032185325  0.031874602            5 
 2224000   0.89473708   -6.2040681    858.16513  0.032155468  0.031866526            7 
 2225000   0.89267915   -6.2208479    855.19836  0.032029901  0.031858374            6 
 2226000   0.87032394   -6.1925891    861.86557  0.032265108  0.031850367            5 
 2227000   0.89711083   -6.2207266      857.285  0.032079217  0.031842357            4 
 2228000    0.8912611   -6.2381712     858.0078  0.032091854  0.031834251            5 
 2229000   0.89254284   -6.2187598    859.85749  0.032146609  0.031826094            4 
 2230000   0.88662724   -6.2675982     857.0417  0.032026969  0.031817904            4 
 2231000   0.89088813   -6.2324628    860.21428  0.032131118    0.0318097            4 
 2232000   0.89805381   -6.2219892    859.40686  0.032086576  0.031801536           10 
 2233000    0.8957167   -6.1751847     862.6329    0.0321926   0.03179348            5 
 2234000   0.88610649   -6.2388183    860.11955  0.032084436  0.031785441           11 
 2235000   0.89173419   -6.2096638    861.86352  0.032135105  0.031777323            8 
 2236000   0.88576391   -6.2239513    859.75999  0.032042337  0.031769269            6 
 2237000   0.90551217   -6.2189909    859.97891  0.032036169  0.031761115            3 
 2238000   0.90211678   -6.2507767    858.55418  0.031968803  0.031753024            4 
 2239000   0.88485162   -6.2346675    861.71197  0.032072055  0.031744799            6 
 2240000   0.88121644   -6.2229032    862.78028  0.032097481  0.031736567            7 
 2241000   0.88439237   -6.2135502    862.40544  0.032069219   0.03172838            4 
 2242000   0.90419567   -6.2054473    861.28373  0.032013222  0.031720263            5 
 2243000   0.88759807   -6.2255807    857.02531  0.031840738  0.031711977            7 
 2244000   0.89712403    -6.236886    861.03163  0.031975328  0.031703705            5 
 2245000   0.90721333   -6.2222105     858.8976  0.031881871  0.031695459            4 
 2246000    0.8961283   -6.2308467    859.64203  0.031895296  0.031687181            3 
 2247000   0.89673061   -6.2565695    860.34045  0.031907004  0.031678807            4 
 2248000   0.90367341    -6.241312    858.63337  0.031829529   0.03167055           15 
 2249000   0.89519337   -6.2282208     856.7542  0.031745746  0.031662138            4 
 2250000   0.89049808   -6.1981752    859.09975  0.031818509  0.031653802            7 
 2251000   0.90770728    -6.251769    856.87584  0.031722043  0.031645379            6 
 2252000   0.87097382   -6.2395235    860.86591  0.031855607   0.03163697            6 
 2253000   0.88585581   -6.2030262    864.00571  0.031957601  0.031628645            3 
 2254000   0.90125363   -6.2453515    861.61838   0.03185516  0.031620245            7 
 2255000    0.8980112   -6.2249164    861.31123  0.031829683  0.031611808            3 
 2256000   0.89658834   -6.2413981    863.40523  0.031892924  0.031603414            5 
 2257000   0.90417453   -6.2254991    865.04774  0.031939438  0.031595161            8 
 2258000    0.8847185   -6.2153112    861.37859   0.03178988  0.031586903            5 
 2259000   0.88969572   -6.2428207    861.04509  0.031763505  0.031578614            3 
 2260000     0.893812   -6.2269451    863.21696  0.031829534  0.031570262            9 
 2261000   0.89971554   -6.1998573    863.73965  0.031834721  0.031562042           14 
 2262000   0.88289716   -6.2483206    860.89967  0.031716021    0.0315537            6 
 2263000   0.89083021   -6.1979276    866.82013  0.031920022   0.03154545            5 
 2264000   0.88297055   -6.1850222    861.08006  0.031694643  0.031537319            9 
 2265000   0.89925547   -6.2184761    862.08529  0.031717634   0.03152898            9 
 2266000   0.88861334   -6.2280615    862.10371  0.031704314  0.031520616            6 
 2267000   0.86191765   -6.2814979    860.97809  0.031648952  0.031512279            6 
 2268000   0.90592432   -6.2239223    863.88588  0.031741839  0.031504077            3 
 2269000   0.91211195     -6.24553    861.09458  0.031625333   0.03149571            4 
 2270000   0.89466673   -6.2146843     867.2564  0.031837607  0.031487368           13 
 2271000   0.87429849   -6.2422805    864.30472  0.031715277  0.031479134            4 
 2272000   0.87082255    -6.189061    866.90301  0.031796619  0.031470885            3 
 2273000   0.88684103   -6.2248222    863.32694  0.031651523  0.031462493            4 
 2274000   0.89981968   -6.2032178    863.78229  0.031654291  0.031454166            3 
 2275000   0.86432707    -6.253396    863.24447  0.031620677  0.031445797            6 
 2276000   0.88780852     -6.26322    863.19131  0.031604837  0.031437345            4 
 2277000   0.89336292   -6.2234436    865.13054  0.031661929  0.031429015           16 
 2278000   0.89520389   -6.2399927    864.58997  0.031628255  0.031420685            3 
 2279000   0.88071783   -6.2393209    863.02531  0.031557164  0.031412341            6 
 2280000   0.88920087   -6.2587446    865.14296  0.031620722  0.031404005            6 
 2281000    0.8785672   -6.2271858    866.55603  0.031658484  0.031395653            9 
 2282000   0.86787325   -6.2332476    866.33348  0.031636484  0.031387224            6 
 2283000   0.88693322   -6.2340307    863.88936  0.031533412  0.031378829            5 
 2284000   0.89564494   -6.2708309    862.20387   0.03145811   0.03137035            3 
 2285000   0.88174128   -6.2613093    865.18928   0.03155322  0.031361951            9 
 2286000   0.88807926   -6.2467119    866.36398  0.031582239  0.031353547            6 
 2287000   0.89397255   -6.2248605    864.91873  0.031515768  0.031345248            5 
 2288000   0.87520393   -6.2500142    863.84273  0.031462803  0.031336848            6 
 2289000   0.88757066   -6.2343469    864.65137  0.031478497  0.031328493            8 
 2290000   0.87795557    -6.202282     865.6051  0.031499458  0.031320217            5 
 2291000   0.87360967   -6.2235393       866.59  0.031521533  0.031311819            2 
 2292000   0.87437163   -6.2319574    863.98445  0.031413047  0.031303446            7 
 2293000   0.89274448   -6.2441791    867.63567  0.031532042  0.031295041            3 
 2294000   0.86975602   -6.2592675    866.44722  0.031475124  0.031286671            5 
 2295000   0.90082958   -6.2266912    866.08182  0.031448142  0.031278401            4 
 2296000   0.89481478   -6.2660536    865.36336  0.031408368  0.031270129            3 
 2297000   0.88630528   -6.2408963    868.74249  0.031517287  0.031261843            4 
 2298000   0.88210306   -6.2446983    868.80364  0.031505789  0.031253608            5 
 2299000   0.87110599   -6.2617205     867.2557  0.031435976  0.031245273            5 
 2300000    0.8824479   -6.2774555    865.34994  0.031353259  0.031236912            9 
 2301000   0.88296163    -6.265486    868.51445  0.031454239  0.031228449            5 
 2302000   0.87588027   -6.2310572    869.05139  0.031460013  0.031220171            4 
 2303000   0.89710722   -6.2632393    866.00086   0.03133597  0.031211951            8 
 2304000   0.88414454   -6.2814246    869.36963  0.031444214  0.031203581            6 
 2305000   0.89820732   -6.2721941    869.52748  0.031436279  0.031195196            6 
 2306000   0.88878455   -6.2769903    869.52289  0.031422481   0.03118682            7 
 2307000   0.89295284   -6.2769924    869.72115  0.031416022  0.031178405            4 
 2308000    0.8956696   -6.2278553    871.20281  0.031455907  0.031170035            5 
 2309000    0.8829041   -6.2702538     870.1627  0.031404746  0.031161701           12 
 2310000   0.88341822   -6.2342155    871.30037  0.031432192   0.03115354            7 
 2311000   0.89514212   -6.2383636    869.84377  0.031366067  0.031145366            5 
 2312000    0.8983575   -6.2467756    870.25254  0.031367234  0.031137122            7 
 2313000    0.8670935   -6.3022225    867.88206  0.031268268  0.031128805           11 
 2314000   0.88577923   -6.2595137    869.69558  0.031320066  0.031120547            6 
 2315000   0.87214652   -6.2575548    873.28429   0.03143572  0.031112272            7 
 2316000   0.88156173   -6.1860071    873.11578  0.031416083  0.031104032           11 
 2317000   0.86789614   -6.2378224    871.52275  0.031345229  0.031095788            7 
 2318000    0.8889681   -6.2686859     870.6239  0.031299392  0.031087575            8 
 2319000   0.87810539   -6.2656436    870.13116  0.031268189  0.031079272            3 
 2320000   0.86152337   -6.2722403    871.14412  0.031291096  0.031070942            6 
 2321000   0.88726445   -6.2610849    868.89813  0.031196974  0.031062712            3 
 2322000   0.87245466   -6.2639224    871.14159  0.031264054   0.03105436            4 
 2323000   0.87580174   -6.2712973    871.97583  0.031280522  0.031046043            5 
 2324000   0.88126749    -6.250743    872.47221  0.031284861  0.031037776            5 
 2325000    0.8966861   -6.2976575    871.42076  0.031233719  0.031029504            9 
 2326000    0.8740716   -6.2625134    874.10483  0.031316453  0.031021219            2 
 2327000   0.87868884   -6.2537278    871.74485   0.03121848   0.03101288            4 
 2328000   0.89100712   -6.2675922    873.80048  0.031278654  0.031004583            5 
 2329000   0.87683471   -6.2648446    874.04887  0.031274112  0.030996322            5 
 2330000   0.89411953   -6.2424476    875.32422  0.031306302  0.030988093            8 
 2331000   0.87920426   -6.2463934    874.43706  0.031261156  0.030979863            4 
 2332000   0.87959444   -6.2605794    874.70903   0.03125747  0.030971604            3 
 2333000   0.88097547   -6.2399495    873.80806   0.03121189  0.030963273           10 
 2334000   0.89591526   -6.2677356    873.35152  0.031182217  0.030955064            8 
 2335000   0.86540019   -6.2415511    875.70954  0.031253017  0.030946921            4 
 2336000   0.89646936   -6.2697558    871.78614  0.031099677  0.030938538           14 
 2337000   0.87396398   -6.2454329    874.08807  0.031168452  0.030930345           10 
 2338000   0.88055269   -6.2650121     874.5559  0.031171796  0.030922043            3 
 2339000   0.85389709   -6.2590729    875.35566  0.031186962   0.03091382           11 
 2340000   0.87062931   -6.2506029    877.30087  0.031242908  0.030905618            7 
 2341000   0.89075812   -6.2736914    873.06104  0.031078636  0.030897359            5 
 2342000   0.86838823   -6.2517122    875.90806  0.031166669  0.030889117            5 
 2343000   0.87765689   -6.2749285    873.28878  0.031060207  0.030880856            2 
 2344000   0.87662288   -6.2827658    875.13671  0.031112653  0.030872555           23 
 2345000   0.89414974   -6.2787321    876.68521  0.031154414  0.030864268            6 
 2346000   0.88156085   -6.2504143    876.01443  0.031117307  0.030856003            4 
 2347000    0.8743562   -6.2795622    874.20464   0.03103979  0.030847788           10 
 2348000   0.87392983   -6.2734482    875.37984  0.031068279  0.030839627            3 
 2349000    0.8595746   -6.2930906    872.90679  0.030967319  0.030831333           12 
 2350000   0.88547204    -6.270072    876.19889  0.031070882  0.030823034            3 
 2351000   0.85457089   -6.2596783    875.05079  0.031016971  0.030814735           10 
 2352000   0.87173649   -6.2906818    875.23025  0.031010142  0.030806426            8 
 2353000   0.88425575   -6.3028617    873.25385  0.030926967  0.030798113            4 
 2354000   0.87077895   -6.2636717    877.85613  0.031076753  0.030789804            8 
 2355000   0.88687848    -6.302127    876.20434  0.031005108  0.030781562            7 
 2356000   0.87886745   -6.2612869     876.2381  0.030993141  0.030773312            7 
 2357000    0.8562767   -6.2734082    877.55842  0.031026673  0.030765032            3 
 2358000   0.87613194   -6.2411472     879.1034  0.031068116  0.030756792            6 
 2359000   0.87847171   -6.2482675    878.92769  0.031048738  0.030748541            2 
 2360000   0.86390573   -6.2530859     878.4704  0.031019435   0.03074036            8 
 2361000   0.86958894   -6.2950877    875.95927  0.030917664  0.030731976           12 
 2362000   0.85890214    -6.298845    876.21469  0.030913586  0.030723541           10 
 2363000   0.88672372   -6.2522333    878.06233  0.030965663  0.030715229            9 
 2364000   0.86886143   -6.2705155    877.37601   0.03092837  0.030706894            7 
 2365000   0.89652235   -6.2773522    877.28253  0.030911999  0.030698586            7 
 2366000   0.87140729   -6.2595031    881.17996  0.031036206   0.03069029            2 
 2367000   0.86378946   -6.3089744    876.07628  0.030843412  0.030681977            6 
 2368000   0.88120885   -6.2443139    878.80449  0.030926397  0.030673683           10 
 2369000   0.90380186   -6.2670579    877.84541  0.030879605  0.030665372            8 
 2370000   0.88427246   -6.2584202    881.07631   0.03098018  0.030657021            5 
 2371000   0.87858777   -6.3041452    876.89909  0.030820297  0.030648696            7 
 2372000   0.88590728   -6.2883731     877.6385  0.030833281  0.030640335            7 
 2373000   0.87388832    -6.306279    878.12409   0.03083734  0.030631996           15 
 2374000    0.8784311   -6.2436715    881.75471  0.030951794  0.030623716            9 
 2375000   0.87562472   -6.2321397     879.7448  0.030868239  0.030615472            4 
 2376000    0.8659781   -6.2749442    880.44784  0.030879905  0.030607162            4 
 2377000   0.87480042   -6.2691876     881.8206   0.03091504  0.030598843           11 
 2378000    0.8755199   -6.3084855    879.14755  0.030808367  0.030590501            4 
 2379000   0.86559991   -6.2818419    882.55476  0.030914767  0.030582241            5 
 2380000    0.8711369   -6.2863492     879.5571  0.030796817  0.030573998            4 
 2381000   0.87110662   -6.2684897    880.91682  0.030831472  0.030565777           10 
 2382000    0.8832609   -6.2633274    881.10417  0.030825083  0.030557436            6 
 2383000   0.86121377   -6.3152837    879.57835   0.03075879  0.030549065            5 
 2384000   0.89332505   -6.2580373    881.87657  0.030826222  0.030540822           11 
 2385000   0.87825764   -6.2711652    881.04904  0.030784383   0.03053263            8 
 2386000   0.87222531   -6.2740013    883.37644  0.030852767  0.030524387            6 
 2387000   0.87296884   -6.2715534    880.69826  0.030746343  0.030516128            6 
 2388000   0.86925705   -6.3071154    882.28137  0.030788713  0.030507937            9 
 2389000   0.89425996   -6.2629862    883.67011  0.030824268  0.030499696            7 
 2390000   0.85368645   -6.2284374    882.82433   0.03078188   0.03049156            4 
 2391000   0.88037541   -6.3027013     879.7923  0.030663331  0.030483309           11 
 2392000   0.87594742   -6.2417868    883.57824  0.030782408   0.03047496            6 
 2393000   0.85851888   -6.3002389    878.09211  0.030578497  0.030466614            5 
 2394000   0.86846872   -6.2867194    881.54026  0.030685751  0.030458292           11 
 2395000   0.87498249   -6.2906144    879.94399  0.030617397  0.030450015            6 
 2396000   0.86011469   -6.2772175    879.35413  0.030584103  0.030441736            5 
 2397000   0.86945382   -6.2978254    880.78996  0.030621261  0.030433387            7 
 2398000   0.86565328    -6.279654    883.97497  0.030719175   0.03042512           10 
 2399000    0.8715122    -6.299359    883.24946  0.030681168  0.030416787            3 
 2400000   0.85201956   -6.2954876    881.90748  0.030621788  0.030408449           11 
 2401000   0.88515458   -6.2568927    885.41272  0.030730693  0.030400116            4 
 2402000   0.86715825   -6.2953399    882.37301  0.030612441  0.030391872            7 
 2403000   0.86031417   -6.2920098    884.30368  0.030666656   0.03038366            9 
 2404000   0.87507179   -6.2983023    883.56208  0.030628192  0.030375434            5 
 2405000   0.88185395   -6.3186259    881.60487  0.030547639  0.030367219            5 
 2406000   0.87782215    -6.296544    881.95779  0.030547167  0.030358983            6 
 2407000   0.87420199   -6.2975882     883.8488  0.030599945  0.030350749            3 
 2408000   0.85953847   -6.2947942    882.07249  0.030525765  0.030342474            5 
 2409000   0.85922435   -6.3124244     883.8769  0.030575512  0.030334134            7 
 2410000   0.86108132   -6.2847513    884.59219  0.030587559  0.030325926            3 
 2411000   0.87855951   -6.2688019    886.32876  0.030634894  0.030317723            3 
 2412000   0.85372219   -6.2761054    887.56365  0.030664858  0.030309553            5 
 2413000   0.86721591   -6.3194068    882.87871  0.030490355  0.030301262            5 
 2414000   0.87597706   -6.2737376    885.21807  0.030558481  0.030293014           11 
 2415000   0.86934982   -6.3134415     883.6254   0.03049087  0.030284702            8 
 2416000   0.87243214   -6.3171972    881.16214  0.030393286  0.030276344            8 
 2417000   0.88946659   -6.3179885    886.21236  0.030554833  0.030268016            7 
 2418000   0.84889094   -6.2876645    882.70939  0.030421471   0.03025977           10 
 2419000    0.8825224   -6.2651223    883.83589  0.030447702  0.030251375            6 
 2420000   0.86961946   -6.3003129    885.63628  0.030497117  0.030243073            5 
 2421000   0.85921251   -6.2716096     884.5859  0.030448365  0.030234855           10 
 2422000   0.88064042   -6.2828247    885.90597  0.030481213  0.030226695            5 
 2423000   0.86834713   -6.2821202    886.52363  0.030489876  0.030218489            4 
 2424000   0.87248652   -6.2915426    884.85043  0.030419775   0.03021025            6 
 2425000   0.85404621   -6.2786906    885.98023  0.030446056  0.030202032            5 
 2426000   0.85928403   -6.2764448    887.36122  0.030480943  0.030193813            4 
 2427000   0.86315164    -6.274451    886.48464  0.030438286  0.030185585            7 
 2428000   0.87963003   -6.3140438    886.47093  0.030425279   0.03017731            7 
 2429000   0.85625819   -6.2981527    887.80197  0.030458418  0.030168977           15 
 2430000   0.87568049   -6.2884895    885.01913   0.03035045  0.030160606            8 
 2431000   0.86684784   -6.3219283    886.04795  0.030373233  0.030152329            7 
 2432000    0.8665688   -6.2854443     887.8883  0.030423804  0.030143962            4 
 2433000   0.86785589    -6.294578    888.52942  0.030433259  0.030135652            8 
 2434000   0.85600448   -6.3189622     885.1208  0.030304054  0.030127365            9 
 2435000    0.8679754   -6.3087386    888.22976  0.030398007  0.030119278           10 
 2436000   0.84976852   -6.2793056    889.01753  0.030412477  0.030111099            5 
 2437000   0.85239037   -6.3016905    890.12059  0.030437717  0.030102877            5 
 2438000   0.85291486   -6.2727993    889.44835  0.030402254  0.030094718            4 
 2439000   0.85574292   -6.3524133    886.33659   0.03028347  0.030086503            6 
 2440000   0.86813918    -6.306485    888.34786  0.030339749   0.03007829            9 
 2441000   0.86467247    -6.313998    886.20925   0.03025431  0.030070086            5 
 2442000   0.86025024   -6.3225182    886.13293  0.030239316  0.030061898            6 
 2443000   0.85607602   -6.2892902    889.11633  0.030328705  0.030053749            6 
 2444000   0.85958612   -6.3427766    886.74176   0.03023533  0.030045635            9 
 2445000   0.86818597   -6.2959358    892.35921  0.030414424   0.03003746            5 
 2446000    0.8641856   -6.3094998    890.23514  0.030329625  0.030029361            8 
 2447000   0.86319942   -6.2735761    891.47698  0.030359521  0.030021276            6 
 2448000   0.87632237   -6.2811316    891.56345  0.030350063  0.030013154            7 
 2449000   0.87137219   -6.2742141    892.20423  0.030359474  0.030005128            6 
 2450000   0.88749122   -6.2981454    890.86256  0.030301448  0.029997058            6 
 2451000   0.86843624   -6.2971118    893.07759  0.030364395  0.029989044           11 
 2452000   0.87995554    -6.327591    891.82572  0.030309466  0.029980921            5 
 2453000   0.84387551   -6.2983496    891.94609  0.030301199  0.029972825            5 
 2454000   0.86207577    -6.308598    890.57177  0.030242182  0.029964756           12 
 2455000   0.87254588   -6.2906873    892.22375  0.030285939  0.029956749            5 
 2456000   0.84925748   -6.3129351    892.32302  0.030276975  0.029948751            5 
 2457000      0.85992   -6.2656572    894.85731  0.030350608  0.029940778            9 
 2458000   0.86358846   -6.3199666     890.5472  0.030192135  0.029932697            6 
 2459000   0.85168408   -6.3232087    889.04105  0.030128814  0.029924542            5 
 2460000   0.85719111    -6.345852    890.63905  0.030170699   0.02991627            5 
 2461000   0.86317541   -6.3101213    890.76261  0.030162624  0.029908155           11 
 2462000   0.85520441   -6.3031726    892.80482  0.030219497  0.029900036           22 
 2463000   0.85779639   -6.2969832    891.26485  0.030155124  0.029891915            8 
 2464000   0.87265432      -6.2848    893.10116   0.03020499  0.029883826            3 
 2465000   0.84990803   -6.3123244    891.95264  0.030153909   0.02987578            7 
 2466000   0.87141837   -6.2732797    893.09993  0.030180452  0.029867699            3 
 2467000   0.84781057   -6.3475072    891.01505  0.030097793  0.029859603            4 
 2468000   0.86700461   -6.2748873    892.91148  0.030149631  0.029851444            8 
 2469000   0.84751309   -6.2900243    894.35911   0.03018628    0.0298433            7 
 2470000   0.86490275   -6.3197675    891.47496  0.030076753  0.029835195            8 
 2471000   0.86628237   -6.3709775    889.70097  0.030004754  0.029826958            4 
 2472000    0.8687961   -6.3275288    892.37098  0.030082625  0.029818724           13 
 2473000   0.85929598   -6.3242702    894.39852  0.030138783   0.02981051            5 
 2474000   0.85809934   -6.3439131     892.3772  0.030058515  0.029802266            5 
 2475000    0.8534157   -6.2877134     893.8547  0.030096118  0.029794074            8 
 2476000   0.82915724   -6.2935754    894.20214  0.030095656  0.029785947           10 
 2477000    0.8693134   -6.3435071    890.63191  0.029963394  0.029777701            6 
 2478000   0.85649552   -6.3259889    892.34604  0.030008947  0.029769323           16 
 2479000    0.8447916   -6.3156885    891.27971  0.029960996  0.029761066            8 
 2480000   0.87199586   -6.3017844     892.8367  0.030001233  0.029752846           11 
 2481000   0.84839516   -6.3302141    890.21055  0.029900932  0.029744637            8 
 2482000   0.84069637   -6.3157495    892.23627  0.029956899  0.029736445           10 
 2483000   0.86732046   -6.3142248    892.38684  0.029949887  0.029728201            6 
 2484000   0.84492987   -6.3158273    891.39934  0.029904701  0.029719988            9 
 2485000   0.84543264   -6.3247039    894.60049  0.030000016  0.029711787            6 
 2486000   0.84985953   -6.3000928    895.30807  0.030011668  0.029703613            4 
 2487000   0.85708172    -6.317842    893.80651  0.029949287  0.029695381            9 
 2488000   0.84829837    -6.290034    895.61441  0.029997803  0.029687176            3 
 2489000   0.86930005   -6.3175294    893.69213  0.029921392  0.029678935            7 
 2490000   0.85974996   -6.2983759    896.27344  0.029995764  0.029670831           10 
 2491000   0.85594875   -6.2859216    897.19196  0.030014451   0.02966278            9 
 2492000   0.84902467   -6.3087342    896.98621  0.029995526  0.029654663            9 
 2493000   0.86772941   -6.3291038    893.46789  0.029865887  0.029646544            5 
 2494000   0.84945818     -6.29317    897.03301  0.029973036  0.029638397            4 
 2495000   0.86400722   -6.3151427    894.80412  0.029886577  0.029630334            4 
 2496000   0.86087041   -6.2870867    898.44114  0.029996032  0.029622299            5 
 2497000   0.84195079   -6.3324288    895.96088  0.029901244  0.029614238            7 
 2498000   0.85559884    -6.315814    897.22528  0.029931455  0.029606106            5 
 2499000   0.84686998    -6.311228    897.19764  0.029918555  0.029597998            3 
 2500000   0.85531656   -6.3378161    895.53201  0.029851067  0.029589821            5 
 2501000   0.85630788   -6.3326708    894.64817  0.029809682  0.029581729            6 
 2502000   0.85813877    -6.329124    897.20128  0.029882803  0.029573577            8 
 2503000   0.84994464   -6.3144597    895.09715  0.029800811  0.029565404            6 
 2504000   0.84286917   -6.3035414    898.44834  0.029900437   0.02955719           11 
 2505000   0.83931662   -6.3115842    898.36001  0.029885563  0.029549089            6 
 2506000   0.84630254   -6.3199654    895.64448  0.029783336  0.029540903            5 
 2507000   0.85056663   -6.3350494    898.17872  0.029855695  0.029532699            5 
 2508000   0.85521247   -6.3181204    897.70704  0.029828118  0.029524481            5 
 2509000   0.85429297   -6.3332554     895.3712  0.029738647  0.029516295           16 
 2510000   0.84800292   -6.3180489    897.78301  0.029806873  0.029508178            4 
 2511000   0.84954619   -6.3391655      898.481  0.029818167  0.029499937            5 
 2512000   0.86231614   -6.3328924    896.88783  0.029753445  0.029491751           14 
 2513000   0.86577703   -6.3459905    898.40455  0.029791901  0.029483601            3 
 2514000   0.84553466   -6.3071578    897.34378  0.029744888  0.029475465            5 
 2515000   0.85950551   -6.2908392    896.08672  0.029691409  0.029467415            6 
 2516000   0.86381662   -6.3366696    897.43292  0.029724196   0.02945936            6 
 2517000   0.85519476   -6.3553895    896.81414    0.0296919  0.029451144           10 
 2518000   0.84747908    -6.361361    896.35158  0.029664799  0.029442993            8 
 2519000   0.84887825   -6.3487205    897.36853  0.029686666  0.029434751           12 
 2520000   0.83810716   -6.3138502    898.89608  0.029725399  0.029426671            6 
 2521000    0.8273157   -6.3474087    896.72683  0.029641902  0.029418577            5 
 2522000   0.83623601   -6.3617563    898.70437  0.029695492  0.029410455            3 
 2523000   0.85542768   -6.3514122    896.69024  0.029617197  0.029402224            3 
 2524000   0.85172357   -6.3263445    897.75743  0.029640697  0.029394009            6 
 2525000    0.8608164   -6.3940842    898.78974  0.029663028  0.029385858            8 
 2526000   0.86448717    -6.359257     899.1111  0.029661887  0.029377697            7 
 2527000   0.83384882   -6.3305827    897.62063  0.029600997   0.02936956           10 
 2528000   0.84694963   -6.3401709    898.21511  0.029608884  0.029361402            9 
 2529000   0.84715597   -6.3341741    901.28765   0.02969842  0.029353263            8 
 2530000   0.84021082   -6.3375729    899.33052  0.029622217  0.029345149            9 
 2531000   0.84874908   -6.3286723     899.8386  0.029627242  0.029337005            3 
 2532000    0.8446475   -6.3794464    897.05613  0.029523964   0.02932888            3 
 2533000   0.84703243   -6.3008463     901.0979  0.029645279  0.029320805            9 
 2534000      0.84508    -6.329808    900.05481  0.029599277  0.029312679            6 
 2535000    0.8368066   -6.3299959    899.76446  0.029578056  0.029304512            5 
 2536000   0.84956017   -6.3310011    899.82505  0.029568384  0.029296247            7 
 2537000   0.83647024   -6.3325441    902.34888   0.02963963  0.029288104           10 
 2538000   0.84028645   -6.3269675     901.4801  0.029599425  0.029279915            9 
 2539000   0.84867007    -6.346992    900.82262  0.029566188   0.02927174           11 
 2540000   0.81779038   -6.3320389    899.74178  0.029519087  0.029263612           14 
 2541000   0.81814209   -6.3563454    900.80297  0.029542272  0.029255457            4 
 2542000   0.85804506   -6.3540398    902.45331  0.029584753    0.0292473            3 
 2543000   0.85152942   -6.3670349    903.53013  0.029608406  0.029239199           11 
 2544000   0.84975581   -6.3594814    898.61992  0.029435925  0.029231069            6 
 2545000   0.84587771    -6.361976    900.51855  0.029486528  0.029222931           13 
 2546000    0.8612494   -6.3201009    902.89047  0.029552581   0.02921476            3 
 2547000   0.84860602   -6.3206775    904.12284  0.029581299  0.029206649            6 
 2548000   0.85905284   -6.3273052     903.6298  0.029553565  0.029198536            6 
 2549000   0.86068257   -6.3449326    901.44049  0.029470397  0.029190415            6 
 2550000   0.84332434   -6.3727495    898.73775  0.029370515  0.029182221           11 
 2551000   0.83373246   -6.3663002    898.31665  0.029345245  0.029173919           10 
 2552000   0.84565782   -6.3606435    901.81712  0.029448051  0.029165729            3 
 2553000   0.85125538   -6.3530892    901.84737  0.029437504  0.029157542            4 
 2554000    0.8436749   -6.3908189    899.58186  0.029352057  0.029149364           18 
 2555000   0.83932305   -6.3577244    901.98153  0.029418837  0.029141089            6 
 2556000   0.85025244   -6.3689485     899.1291  0.029314329  0.029132819            5 
 2557000   0.83814321   -6.3982725    900.05101   0.02933291  0.029124598            8 
 2558000   0.86309085   -6.3792322    898.54638  0.029272426  0.029116366            6 
 2559000    0.8450879   -6.3556647    904.20995   0.02944542  0.029108167           10 
 2560000    0.8559707   -6.3359575    901.05675  0.029331274  0.029099999            9 
 2561000   0.84111029   -6.3654945    900.46682  0.029300626  0.029091801            6 
 2562000   0.85361605   -6.3413708    902.69344  0.029361613  0.029083615            6 
 2563000   0.82970759   -6.3776871    903.63718  0.029380842  0.029075443           14 
 2564000   0.83319667   -6.3613751    902.64933  0.029337277   0.02906724            5 
 2565000   0.83197718   -6.3490805    903.76056  0.029361942  0.029059073           19 
 2566000   0.84564589   -6.3494553    900.68057  0.029250473  0.029050972            4 
 2567000   0.84542892   -6.3553077     903.2115  0.029321241  0.029042917            7 
 2568000   0.84196939    -6.382709    902.57773  0.029289257  0.029034757           10 
 2569000   0.84301856   -6.3858582    901.25178  0.029234844  0.029026523            6 
 2570000   0.84890996   -6.3374438    904.30727  0.029322544  0.029018305            8 
 2571000   0.83471549   -6.3658333    903.93014  0.029298915   0.02901018           15 
 2572000    0.8606718   -6.3403318    905.28646  0.029331469  0.029002122            7 
 2573000   0.84726685   -6.3422551    903.50464  0.029262361  0.028993984            6 
 2574000   0.83862649   -6.3633395    901.44556  0.029184329  0.028985809            9 
 2575000   0.83945433   -6.3788811    905.10939  0.029291566  0.028977657            8 
 2576000   0.81242067   -6.3507865    904.73351  0.029268035  0.028969432            8 
 2577000   0.85886425   -6.3329475    905.21033  0.029272097  0.028961341           11 
 2578000   0.82849451   -6.3328469     905.2559  0.029262215    0.0289533            6 
 2579000   0.83757508   -6.3534534    904.41216  0.029223606  0.028945202            7 
 2580000   0.83776136   -6.3924816    900.82348  0.029096366  0.028936985            7 
 2581000   0.83644303   -6.3952617    901.43125  0.029104715  0.028928764            6 
 2582000   0.84008859    -6.371595    904.99769  0.029208549  0.028920547            7 
 2583000    0.8443531    -6.343753    904.93671  0.029195274  0.028912329            7 
 2584000   0.83344983    -6.350138     903.8454  0.029148781  0.028904116            4 
 2585000   0.85086188   -6.3407415     904.6671  0.029163994   0.02889592            7 
 2586000   0.83501115   -6.3596619    903.92799  0.029128899  0.028887637            9 
 2587000   0.82681913   -6.3727814     901.9726  0.029054651  0.028879334            7 
 2588000   0.84885297   -6.3457019    905.16579  0.029146245  0.028871078            5 
 2589000   0.83668104   -6.3589333    905.24311  0.029137476  0.028862858           12 
 2590000   0.83481253    -6.355947    904.64324  0.029106925  0.028854657            5 
 2591000    0.8421783   -6.3698375    906.26201  0.029147755  0.028846488            6 
 2592000   0.83528533   -6.3539946    904.63341   0.02908415  0.028838314            4 
 2593000   0.84255661   -6.3431236    906.36572  0.029128607  0.028830128            6 
 2594000   0.82945291   -6.3674674    904.55204  0.029059112  0.028821939            9 
 2595000   0.82904515   -6.3459018    904.65874   0.02905134  0.028813707           11 
 2596000   0.83701516   -6.3723304    904.73314  0.029042538   0.02880549            8 
 2597000   0.83762774   -6.3510226    906.29857  0.029081587  0.028797202            6 
 2598000   0.83814378   -6.3787726    904.88125  0.029024931  0.028788929           10 
 2599000   0.84184259   -6.3654242    905.71131  0.029040378  0.028780594            5 
 2600000   0.84038219   -6.3657917    905.50091  0.029022465  0.028772367           10 
 2601000   0.84325358   -6.3851594    903.63209  0.028951432  0.028764126            7 
 2602000   0.84557055   -6.3612885    906.93584  0.029046113  0.028755888            5 
 2603000   0.83206182   -6.3639027    906.70453  0.029027549  0.028747723            6 
 2604000   0.85435505   -6.3905272    905.60323  0.028981158  0.028739522            4 
 2605000   0.83772451   -6.3799105    904.32045  0.028928997  0.028731294            5 
 2606000   0.82763091   -6.3775393    904.74325  0.028931416  0.028723067            4 
 2607000   0.82286008   -6.3742465    903.74334  0.028888356   0.02871484            4 
 2608000   0.82930895   -6.3814483    902.81628  0.028847657  0.028706604            8 
 2609000   0.82575861   -6.3713091    905.48928  0.028921978  0.028698408           15 
 2610000   0.84364466   -6.3803771    905.99545  0.028927058  0.028690153            7 
 2611000   0.82785373   -6.3557696    905.12539   0.02888821  0.028681894            9 
 2612000   0.84100875   -6.3933196    904.59444  0.028860211  0.028673582            3 
 2613000    0.8162066   -6.3673124    904.69769  0.028852459   0.02866529            8 
 2614000   0.82264693    -6.359228     908.1928  0.028952844  0.028657058            7 
 2615000   0.84274204   -6.3954434    903.94954   0.02880655  0.028648839            9 
 2616000   0.83478936   -6.3713555    908.16542  0.028929836  0.028640625            8 
 2617000   0.84332391   -6.3647216    906.79344  0.028875093  0.028632478            6 
 2618000    0.8410212    -6.355108    906.78671   0.02886385  0.028624277            5 
 2619000   0.82978952   -6.3614083    910.44296  0.028969166  0.028616141           12 
 2620000   0.83238188   -6.3836145    909.02323  0.028912953  0.028607984            7 
 2621000     0.828982   -6.3847712    905.80146  0.028799487  0.028599764            4 
 2622000   0.83163441   -6.3768249    908.44668  0.028872574  0.028591577            6 
 2623000   0.82493012   -6.3661626    908.98523  0.028878677  0.028583442           11 
 2624000   0.81032797   -6.3361561    909.64492  0.028888622  0.028575273            6 
 2625000   0.82614941    -6.369869     910.3272  0.028899276  0.028567133            6 
 2626000   0.82865371   -6.3911896    907.62493  0.028802517  0.028558893           22 
 2627000   0.84028272   -6.4110321    906.73073  0.028763188  0.028550624            4 
 2628000   0.82197275   -6.3847975    906.95549   0.02875937   0.02854239            7 
 2629000   0.81923421   -6.3844119    906.46841  0.028732991  0.028534177            5 
 2630000   0.82444159   -6.3917586    908.58438  0.028789112  0.028525953           13 
 2631000   0.82880695   -6.3466242    913.36695  0.028929651  0.028517748           11 
 2632000   0.81882151    -6.396054    910.31362  0.028821986  0.028509641            7 
 2633000   0.84891901   -6.3859443    909.75887  0.028793482  0.028501434           12 
 2634000   0.83135502   -6.4275347    908.82316  0.028752947  0.028493222            7 
 2635000   0.81165391    -6.418201    907.41189  0.028697403  0.028484921            7 
 2636000   0.83797522   -6.3751455    910.54703   0.02878563  0.028476664           10 
 2637000   0.82112779   -6.3728503    910.23983  0.028765005  0.028468499            8 
 2638000   0.83927812   -6.4007336    905.89922  0.028616983  0.028460301           18 
 2639000   0.83125797   -6.4020387    908.86328  0.028699737  0.028452052            7 
 2640000    0.8152092    -6.374205     909.9625  0.028723564  0.028443902            6 
 2641000   0.82772708   -6.3745768    910.61922   0.02873341  0.028435828            5 
 2642000   0.81746355   -6.3940351    909.92648  0.028700684  0.028427763            8 
 2643000   0.81462539   -6.3962382    908.74116  0.028652452  0.028419663            9 
 2644000   0.82891999   -6.4188052    910.33347  0.028691801  0.028411483            9 
 2645000   0.82937728   -6.3694469    913.60283  0.028783958  0.028403407            5 
 2646000    0.8070024   -6.3801954    908.89604  0.028624844   0.02839529            7 
 2647000   0.83884593   -6.3857294    909.68719  0.028638937  0.028387182            4 
 2648000   0.82070082    -6.407817    910.93101  0.028667265    0.0283791            7 
 2649000   0.83243706    -6.390543    910.60552  0.028646203  0.028370971            4 
 2650000   0.82618993    -6.388527    910.73422  0.028639441  0.028362808           11 
 2651000   0.83367731   -6.3963481    912.07968  0.028670932  0.028354677            6 
 2652000      0.86056    -6.376955    912.80712  0.028682979  0.028346596            8 
 2653000   0.83578959   -6.3710158    911.12337  0.028619279  0.028338525           10 
 2654000   0.83467871   -6.3576655    914.12093  0.028702616  0.028330511            4 
 2655000   0.80672835   -6.4116538    910.07726  0.028564886  0.028322452            8 
 2656000   0.83660734   -6.4291397     909.6015  0.028539204  0.028314344           19 
 2657000   0.82412364   -6.3994914    911.72224  0.028594977  0.028306209            6 
 2658000   0.82736226   -6.4112637    910.10507  0.028533517   0.02829808            8 
 2659000   0.83686431   -6.3992981    913.40487  0.028626203  0.028289971            4 
 2660000   0.81222118   -6.4017841    911.70853  0.028562297   0.02828186            3 
 2661000   0.81224703   -6.3991232     910.7526  0.028521627   0.02827374           10 
 2662000   0.81112332   -6.4022062    909.64609  0.028476274  0.028265575            8 
 2663000   0.83245103   -6.4002696      912.834   0.02856534  0.028257489            4 
 2664000   0.82571268   -6.4050218     913.0134  0.028560229  0.028249408            6 
 2665000   0.82618027   -6.3895762    913.02074  0.028549742  0.028241399            7 
 2666000   0.82479172   -6.4197594    913.33558  0.028548874  0.028233326            9 
 2667000   0.84099058   -6.4080111    912.81928  0.028522037  0.028225281            8 
 2668000   0.82383191   -6.4230309    913.40636  0.028529684  0.028217239            6 
 2669000   0.82244251   -6.4025005    912.38065  0.028486969  0.028209176            5 
 2670000   0.84543969   -6.3929103    913.14673   0.02850021  0.028201128            8 
 2671000   0.84190893   -6.4012534    911.07095  0.028424777  0.028193031            4 
 2672000   0.81424191   -6.4041764    911.25257  0.028419803  0.028184945           14 
 2673000   0.82571836   -6.3990663    910.36754  0.028381579   0.02817687            6 
 2674000   0.81897241   -6.3746237    914.29409  0.028493334  0.028168778            5 
 2675000   0.83535543   -6.4049805    911.70298  0.028401962  0.028160746            6 
 2676000   0.82816036    -6.370483    914.71129   0.02848503   0.02815267            7 
 2677000   0.81951679   -6.4271103    911.73131  0.028381625  0.028144546            6 
 2678000   0.82652345   -6.3904711    914.42213  0.028454759  0.028136347           10 
 2679000   0.79385328   -6.3977242    911.70049  0.028359478  0.028128182            7 
 2680000   0.82719749   -6.4105068    912.01937  0.028358811  0.028120034            4 
 2681000   0.83703297   -6.4125494    912.17241   0.02835299   0.02811188           11 
 2682000   0.82175587   -6.4421293    912.03963  0.028338293  0.028103645            6 
 2683000   0.82403936   -6.3809825    916.38849  0.028462806   0.02809551            7 
 2684000   0.82291354   -6.4047461    914.45362  0.028392127  0.028087466           11 
 2685000   0.81343497   -6.3933592     916.3481  0.028440351  0.028079367            9 
 2686000   0.83486993   -6.4508362    914.45526  0.028371037  0.028071212           11 
 2687000   0.81841734   -6.4176262     913.0979  0.028318382  0.028063037            6 
 2688000   0.82097721   -6.4194942    910.83428   0.02823767  0.028054798            7 
 2689000   0.81683463   -6.3940088    916.32866  0.028397442  0.028046613            7 
 2690000   0.81099167   -6.3942404    912.40949  0.028265474  0.028038517            7 
 2691000   0.82240579   -6.4272759    913.08407   0.02827586    0.0280304            9 
 2692000   0.82632029   -6.3984444    915.65175  0.028344841  0.028022314            5 
 2693000   0.83038657   -6.4110514    914.54979  0.028300216  0.028014219            5 
 2694000   0.79579109   -6.3992964    915.46042   0.02831788  0.028006152            7 
 2695000   0.81834113   -6.3973856    912.56253  0.028217765  0.027998067           13 
 2696000   0.81998768   -6.4306522     914.0738  0.028254012  0.027990001            5 
 2697000    0.8217759   -6.4080543    917.34067  0.028344478  0.027981896           20 
 2698000   0.82310924   -6.4298415    914.28188  0.028239495  0.027973767           14 
 2699000    0.8290368   -6.4301897    914.54695  0.028237216  0.027965621            7 
 2700000   0.80661062   -6.4264148    915.15541  0.028245537  0.027957484            5 
 2701000   0.81191327   -6.3988716    915.39471  0.028242463  0.027949363            5 
 2702000   0.83141976   -6.3890002    915.13362  0.028223958  0.027941287            6 
 2703000   0.79391956   -6.4293026    914.09699  0.028181557  0.027933216            9 
 2704000   0.83308474   -6.4229271    916.16239  0.028234788  0.027925052           15 
 2705000   0.80732198   -6.3725516    918.08101  0.028283457  0.027916868           11 
 2706000   0.82613168   -6.3756326    915.08099  0.028180617  0.027908812            7 
 2707000   0.82597433   -6.4116349    912.30465  0.028084739  0.027900672            6 
 2708000   0.83186479   -6.4497741    912.63679  0.028084589  0.027892397           29 
 2709000   0.82625281    -6.433318    914.89184  0.028143591  0.027884182           14 
 2710000   0.82250685   -6.4401377    913.94749  0.028104166  0.027875979           18 
 2711000   0.80163206   -6.4446963    913.69422  0.028086014  0.027867737            7 
 2712000   0.81329541   -6.3806961    914.38863  0.028096996  0.027859562           23 
 2713000    0.8218685   -6.4059937    914.87556  0.028101596  0.027851394            3 
 2714000   0.82476689   -6.4432573    915.87152  0.028121823  0.027843272            6 
 2715000   0.81988529   -6.4130729    915.07953  0.028087156  0.027835158            4 
 2716000   0.82272767   -6.4237351    914.59408  0.028061919  0.027826973            5 
 2717000   0.81154872   -6.4004467    915.89093  0.028091367  0.027818802            7 
 2718000   0.83242946   -6.4423569    915.94767  0.028082771  0.027810649            8 
 2719000   0.80828917   -6.4423478    913.21234  0.027988609  0.027802433           10 
 2720000   0.82169699   -6.4464671      918.278  0.028133517  0.027794254           14 
 2721000   0.82363872   -6.4218302    918.52422  0.028130718  0.027786116           20 
 2722000   0.81671871   -6.4245655    918.70434  0.028125898     0.027778            3 
 2723000   0.83506907   -6.4197069    915.38723  0.028014054  0.027769831           11 
 2724000   0.81682875   -6.4072008    918.52623  0.028099799  0.027761694           10 
 2725000   0.80525796    -6.453121    916.26293  0.028020273  0.027753538            7 
 2726000   0.82869844   -6.4345707    916.88903  0.028029134  0.027745354            5 
 2727000   0.80244313   -6.4161625    918.61183  0.028071502   0.02773725           11 
 2728000   0.81153552   -6.4060556    916.59447  0.027999587  0.027729171            4 
 2729000   0.81458544    -6.395705    918.55987  0.028049343   0.02772106            6 
 2730000   0.82333335   -6.4030581    920.09833   0.02808603   0.02771304            6 
 2731000   0.81044415   -6.4338967    914.76231  0.027912923  0.027704966           12 
 2732000   0.82064574   -6.4193735     917.2235  0.027977779  0.027696859            6 
 2733000   0.82384334   -6.4386127    916.24568  0.027937727  0.027688801           11 
 2734000   0.80978803   -6.4301905    917.40601  0.027962875  0.027680696           12 
 2735000   0.81621469   -6.4310171    917.40668  0.027952672  0.027672574           10 
 2736000   0.82392307    -6.469417    914.57204  0.027856117   0.02766446           18 
 2737000   0.80995826    -6.404375    920.97339  0.028040841  0.027656385            3 
 2738000   0.80981577   -6.4033989    919.11734  0.027974109  0.027648333            5 
 2739000    0.8150337    -6.434609    917.94301  0.027928167    0.0276403           15 
 2740000    0.8193253    -6.415421    916.31302  0.027868401  0.027632192           10 
 2741000   0.83881995   -6.4232637    916.06389  0.027850659  0.027624112            6 
 2742000   0.80053819   -6.4268918    917.61295   0.02788758  0.027616051            6 
 2743000   0.78657141   -6.4093326    918.49479  0.027904204   0.02760797            8 
 2744000   0.79237231   -6.3923065    918.97049  0.027908482  0.027599858            4 
 2745000   0.81210077   -6.4405989    918.00199  0.027868913  0.027591772            6 
 2746000   0.82764049   -6.4466443    918.00718  0.027858921  0.027583656            5 
 2747000   0.80867784   -6.4209156    920.15038  0.027913796  0.027575499            5 
 2748000   0.79657522   -6.4285552    917.35949  0.027819004  0.027567357           13 
 2749000   0.82689739   -6.3918781    917.49855    0.0278131  0.027559222            7 
 2750000    0.8105718   -6.4319037    917.33018  0.027797884  0.027551095            9 
 2751000   0.80880579   -6.4371677    919.09899   0.02784136  0.027542968           10 
 2752000   0.82825423   -6.4327452    916.88206  0.027764113  0.027534871            9 
 2753000   0.79979445     -6.42886     916.6452  0.027746858  0.027526741            6 
 2754000   0.79971162   -6.4385348    916.90109  0.027744526  0.027518662           11 
 2755000    0.8068435   -6.4325568    918.57701  0.027785149   0.02751055            8 
 2756000   0.80404966   -6.4223132    919.08073  0.027790298  0.027502406            6 
 2757000   0.80495887   -6.4624781    916.69754  0.027708183  0.027494177            7 
 2758000   0.80076981    -6.435966    917.55095  0.027723923  0.027485986            5 
 2759000   0.80529083   -6.4718484    919.74493  0.027780142  0.027477772           11 
 2760000   0.81734663   -6.4708487    917.15325  0.027691825  0.027469597           15 
 2761000   0.80763623   -6.4374473    921.21292  0.027804326  0.027461475            6 
 2762000   0.80793137   -6.4336714    919.07301  0.027729695   0.02745342           12 
 2763000   0.80103851   -6.4098769    921.23686  0.027784921   0.02744537            5 
 2764000   0.80117544   -6.4431443    918.81519  0.027701857  0.027437318            4 
 2765000   0.81943165   -6.4566456    920.00629  0.027727736  0.027429311            8 
 2766000   0.82245632   -6.4635546    922.17748  0.027783125  0.027421199           19 
 2767000   0.81115295   -6.4336194    920.30415  0.027716665  0.027413102            5 
 2768000   0.81233219   -6.4599344    917.42346  0.027619926  0.027405018            4 
 2769000   0.82825343   -6.4603133    919.99513  0.027687346  0.027396896            6 
 2770000   0.81307629   -6.4532209    920.89279  0.027704356  0.027388837            9 
 2771000   0.81828609   -6.4302721    920.92199  0.027695236  0.027380756            9 
 2772000   0.81052656   -6.4384944    921.38671  0.027699216  0.027372673            4 
 2773000   0.79879671   -6.4707711    919.61397  0.027635953  0.027364574            7 
 2774000     0.816248   -6.4454349    920.97094  0.027666755  0.027356454            6 
 2775000   0.81965624   -6.4360747    920.42365   0.02764035  0.027348408           16 
 2776000   0.81723968   -6.4386449    920.69184  0.027638444  0.027340326            8 
 2777000   0.80261168   -6.4256051    920.89158  0.027634485  0.027332252            8 
 2778000   0.81345491   -6.4477721    919.97903  0.027597163  0.027324201            5 
 2779000   0.79461717   -6.4324317    918.79438  0.027551709  0.027316153            5 
 2780000   0.80520768   -6.4042538     922.6019  0.027655932  0.027308146            5 
 2781000   0.80778701   -6.4940349    920.35293  0.027578597  0.027300083            9 
 2782000   0.81045213   -6.4456676    920.99116  0.027587801  0.027291944           12 
 2783000   0.79422333   -6.4533055    922.57958  0.027625452  0.027283868            8 
 2784000    0.8104948   -6.4534014    919.16702  0.027513381  0.027275806            4 
 2785000   0.80869811   -6.4482026    922.26889  0.027596316  0.027267793           10 
 2786000   0.80820626   -6.4321283    920.76726  0.027541495  0.027259773            5 
 2787000   0.81181295    -6.439782    921.87576  0.027564758   0.02725171            9 
 2788000   0.80283913   -6.4583406    921.46372  0.027542555  0.027243655            8 
 2789000   0.78652934   -6.4662026    920.82187  0.027513502  0.027235575            6 
 2790000   0.80857173   -6.4821892    919.75049  0.027471639  0.027227488           12 
 2791000   0.79089299   -6.4758551    922.50245  0.027543964  0.027219434            6 
 2792000   0.80465002   -6.4576919    920.71166  0.027480649  0.027211361            4 
 2793000   0.81746875   -6.4432706    922.61858  0.027527706  0.027203301            4 
 2794000   0.78902894   -6.4592476    923.13531  0.027533265  0.027195233            7 
 2795000   0.79832684   -6.4444346    920.64281    0.0274491   0.02718717            5 
 2796000   0.80520045   -6.4516305    921.91543  0.027477213  0.027179118           14 
 2797000   0.80414002   -6.4609037    922.20645  0.027476059  0.027171035            7 
 2798000   0.79437196   -6.4560057     921.8196  0.027454718  0.027162986           10 
 2799000   0.80249845   -6.4695762    922.05661  0.027451965  0.027154874            6 
 2800000   0.81265094   -6.4572993    920.78762  0.027404393   0.02714682            7 
 2801000   0.80442025   -6.4742731    921.68463  0.027421297  0.027138757            4 
 2802000   0.80805662   -6.4731935    920.91816  0.027388715   0.02713066            6 
 2803000   0.78806115   -6.4657203    923.89208  0.027467359  0.027122622            4 
 2804000   0.81155184   -6.4763524    924.00554  0.027460935  0.027114626            4 
 2805000   0.81446493   -6.4571847    922.19348  0.027397311  0.027106542           10 
 2806000   0.79435269    -6.459961    920.85715   0.02734786  0.027098554            8 
 2807000   0.80743146   -6.4504505    925.18982  0.027466744   0.02709056            8 
 2808000   0.81022459   -6.4384368    925.30514  0.027460385  0.027082582           14 
 2809000    0.7981052   -6.4365322     923.7051  0.027403142  0.027074611           10 
 2810000   0.80528421   -6.4606257    923.25442  0.027380024  0.027066608           10 
 2811000   0.80559207   -6.4501238    926.95734  0.027480059  0.027058616           16 
 2812000   0.81492804   -6.4469166    923.93532  0.027380729  0.027050597           12 
 2813000   0.80966923   -6.4569837    924.20791  0.027379071  0.027042627            9 
 2814000   0.79904666   -6.4576789    922.62964  0.027322603  0.027034637            9 
 2815000   0.79557708   -6.4555102    924.42217  0.027365961  0.027026616            7 
 2816000   0.80427344   -6.4703605    925.90664  0.027400173  0.027018636            4 
 2817000    0.8054096   -6.4495169    925.16997  0.027368654  0.027010647            9 
 2818000     0.810161   -6.4691289    922.91021  0.027292116  0.027002693            7 
 2819000   0.81016648   -6.4636203    925.68683  0.027364516  0.026994673           13 
 2820000   0.78205373   -6.4650489    921.53099  0.027232003  0.026986606            6 
 2821000   0.79383788   -6.4493113    923.85276  0.027290936  0.026978558            8 
 2822000   0.80268703   -6.4588198    923.80553   0.02727987  0.026970542            7 
 2823000   0.80631694   -6.4759704    922.87427  0.027242717   0.02696253            8 
 2824000    0.7890888   -6.4634564     922.2021  0.027213235  0.026954523           11 
 2825000   0.78854304   -6.4875707    927.84087  0.027369937  0.026946497           11 
 2826000   0.80682133   -6.4688133    924.51523  0.027262185  0.026938473           18 
 2827000   0.79436855   -6.5147391    922.55632  0.027194798  0.026930444           15 
 2828000    0.7841469   -6.4537928    926.30798  0.027295733  0.026922489           11 
 2829000   0.80658909    -6.447136     925.0908   0.02725023  0.026914523           18 
 2830000   0.79962146   -6.4770715    922.99644  0.027178929  0.026906513           16 
 2831000   0.79769974   -6.4518298    926.29106  0.027266309  0.026898591            9 
 2832000   0.79838382    -6.442767    925.62195  0.027236992  0.026890635            6 
 2833000   0.79122085   -6.5120297    922.20962  0.027127004  0.026882595           31 
 2834000   0.79352411   -6.4541697    924.58284  0.027187216  0.026874594            6 
 2835000   0.78366714   -6.4859189    920.42975  0.027055548  0.026866554           10 
 2836000   0.79953935   -6.4618066    928.49815  0.027283091  0.026858518            8 
 2837000   0.78973981   -6.4712372    926.12044  0.027203632  0.026850472           13 
 2838000   0.79674335   -6.4736102    926.22925  0.027197241  0.026842419           13 
 2839000   0.79746307   -6.4681332    926.96034  0.027209121  0.026834459            9 
 2840000   0.80566394    -6.453866    926.30615  0.027180345  0.026826464            7 
 2841000   0.78344191   -6.4698628    925.80243  0.027156002  0.026818404            6 
 2842000   0.78347374   -6.4766554    923.38978  0.027075703  0.026810367            5 
 2843000   0.78662856   -6.4963131    926.70025  0.027163215  0.026802356            8 
 2844000   0.79057071   -6.4855918    926.93549  0.027160557  0.026794351           10 
 2845000   0.80651779   -6.4777927    925.81627  0.027118227  0.026786382            7 
 2846000   0.79509357   -6.4822277       924.17  0.027060494  0.026778317            6 
 2847000   0.78888911   -6.4665756    926.59279  0.027121906  0.026770279            3 
 2848000   0.79673863   -6.4849382    925.52077  0.027081015  0.026762196           11 
 2849000   0.80755055   -6.4944877    926.76102  0.027107787  0.026754177           13 
 2850000   0.79035408   -6.4460136     928.5049  0.027149266  0.026746169            5 
 2851000   0.80626795   -6.4860166    924.63707  0.027026688   0.02673813            7 
 2852000   0.78700011   -6.4986537    922.76374  0.026962475  0.026730029           13 
 2853000   0.78466539   -6.4637351    924.35323  0.026999452    0.0267219           12 
 2854000   0.81125779   -6.4845405    923.80597  0.026974012  0.026713836            9 
 2855000   0.79869069   -6.5142616    927.48541  0.027071962   0.02670578            6 
 2856000   0.79810654   -6.4856339    923.35188  0.026941873  0.026697745            5 
 2857000   0.78822939   -6.4734934     925.3398  0.026990427  0.026689713           10 
 2858000   0.77747423   -6.4709959    924.87164  0.026967333  0.026681711           10 
 2859000    0.8075463   -6.4661416    924.89105  0.026958466   0.02667373            8 
 2860000    0.7873968   -6.4447847    928.38841  0.027050944  0.026665746           10 
 2861000   0.79082249   -6.4860884    924.31583  0.026922866  0.026657723           14 
 2862000   0.80223734    -6.457498    925.57819  0.026950215   0.02664973           15 
 2863000   0.78060049    -6.487233    925.11385  0.026927286  0.026641663            4 
 2864000   0.80052412   -6.4722258    924.39964  0.026897103  0.026633594            7 
 2865000   0.79315743   -6.4885998    923.47748  0.026860892  0.026625582            9 
 2866000   0.79345548   -6.4692897    924.63213  0.026885093   0.02661756            9 
 2867000    0.7884735   -6.4847344     926.7858  0.026938315  0.026609619            9 
 2868000   0.78106647   -6.4778371    926.91264  0.026932608  0.026601601            8 
 2869000   0.79412533   -6.4551301    927.95006  0.026953354  0.026593636            9 
 2870000     0.784489   -6.4766101     927.8082  0.026939843  0.026585646           11 
 2871000   0.79728326   -6.4968042    925.05693  0.026850602  0.026577647           12 
 2872000   0.80666675   -6.4980645    926.36082  0.026879086  0.026569661           10 
 2873000   0.77706111   -6.5118527    923.70263  0.026792628  0.026561631            7 
 2874000    0.7951993   -6.4903378    925.11557  0.026824274  0.026553591            3 
 2875000   0.80595423   -6.5207732    926.21018  0.026846672  0.026545555            5 
 2876000   0.78282726   -6.5087885    924.54412  0.026789062  0.026537502            6 
 2877000   0.78679212   -6.4849852    927.32795  0.026860386   0.02652946            5 
 2878000   0.79735314   -6.4761035    929.39785  0.026910987  0.026521448           10 
 2879000   0.80211422   -6.4939583    927.71478  0.026852923  0.026513388            9 
 2880000   0.79702335   -6.5050533    925.88984  0.026790794  0.026505355            8 
 2881000   0.77917508   -6.4942298    926.80876  0.026808075  0.026497359           12 
 2882000   0.79505164   -6.5121336    928.01369  0.026833613  0.026489347            6 
 2883000   0.79269316   -6.4628928    926.87712  0.026791453  0.026481314            4 
 2884000   0.79819874   -6.4871235    928.90255  0.026840688  0.026473366            4 
 2885000   0.79960843   -6.4717708    928.18085  0.026810539  0.026465402            5 
 2886000   0.79181697   -6.4578638     928.3556  0.026806295  0.026457421            7 
 2887000    0.7868611   -6.5086072    928.19562  0.026792392  0.026449479           13 
 2888000   0.78385036   -6.5051458    925.09114  0.026693535  0.026441506           10 
 2889000   0.78934403   -6.4973887     928.4156  0.026780189  0.026433534            4 
 2890000   0.76788328   -6.4976999    927.00167  0.026730152  0.026425548           15 
 2891000    0.7909388   -6.4940485    927.30576  0.026729671   0.02641758           11 
 2892000   0.76971717   -6.4866452    927.05631  0.026713241  0.026409632           13 
 2893000   0.78245215   -6.5128132    928.36855  0.026741806  0.026401671           10 
 2894000   0.78232924   -6.4814628    929.66323  0.026769846  0.026393766           12 
 2895000   0.79571174    -6.532156    930.55157  0.026786171  0.026385885            4 
 2896000   0.77680869   -6.5014125    930.64179  0.026779518  0.026377933            7 
 2897000   0.80064237   -6.4786266    930.70085  0.026771972  0.026370061           17 
 2898000   0.79102444   -6.4945856    928.67231  0.026704403  0.026362128           12 
 2899000   0.78855775   -6.4677099    930.19744  0.026739032  0.026354228            7 
 2900000   0.79480066   -6.4818742    927.73492  0.026659049  0.026346322            8 
 2901000   0.80217777   -6.4782368    930.53574  0.026730315  0.026338512           44 
 2902000   0.79637472   -6.5220678    928.39387  0.026659599  0.026330607            5 
 2903000   0.79566532    -6.485333    930.78241  0.026718981  0.026322688           10 
 2904000   0.79201341   -6.4815887    928.96525  0.026657635  0.026314828            7 
 2905000   0.78324659   -6.4782121    931.83588  0.026730805  0.026307003            5 
 2906000   0.78637638   -6.4910793    929.85978   0.02666494  0.026299213            9 
 2907000    0.8089616   -6.5145232     930.5175  0.026674622  0.026291378            5 
 2908000    0.7784769   -6.5162168    929.15787  0.026626486  0.026283557           10 
 2909000   0.76735958   -6.4967504    930.75955  0.026663216  0.026275678            5 
 2910000    0.8119693    -6.491966    930.36492  0.026642753  0.026267861            8 
 2911000    0.7920443   -6.5089461    931.30525  0.026660519  0.026260032            8 
 2912000   0.77586284   -6.5278034     930.0446  0.026615287  0.026252179           10 
 2913000    0.7809484   -6.4821811    928.13876  0.026551629  0.026244278            7 
 2914000   0.80988618   -6.4833072    931.03513  0.026625347  0.026236435           17 
 2915000   0.77693701   -6.5184714    928.90567  0.026555336  0.026228578           12 
 2916000   0.78279929   -6.5238941    928.63602  0.026538524  0.026220656            8 
 2917000    0.7890206   -6.5275705     929.9837  0.026567927  0.026212702           14 
 2918000   0.79509618   -6.5227359    929.44741  0.026543506  0.026204731            9 
 2919000    0.7943525   -6.5182897    929.65559  0.026540356  0.026196734           13 
 2920000   0.80211826   -6.5072334    929.70419  0.026532654   0.02618876           12 
 2921000   0.77268526    -6.493255    929.47221  0.026516952  0.026180818            8 
 2922000   0.78059585   -6.5089899    928.28405  0.026473992  0.026172836           17 
 2923000   0.78510678   -6.5044205    930.13904   0.02651782  0.026164916            7 
 2924000   0.78165109   -6.4725241    930.14831  0.026509015  0.026157002            6 
 2925000   0.80096489   -6.4908861    933.47501   0.02659473  0.026149112            5 
 2926000   0.77960071   -6.5218281    929.35913  0.026468419  0.026141179           11 
 2927000   0.77441857     -6.51931    929.62986  0.026467084  0.026133171            6 
 2928000   0.78387196   -6.5160463    930.36021  0.026478831  0.026125175            8 
 2929000   0.79361901   -6.5124997    930.74459  0.026480727  0.026117254            5 
 2930000   0.77769139   -6.4996918    931.48949  0.026492875  0.026109354           18 
 2931000   0.77709074   -6.5276809     930.3898   0.02645257  0.026101419            9 
 2932000   0.77369483   -6.5400077    930.55137   0.02644814  0.026093489            8 
 2933000   0.78387386   -6.5235601    930.29842  0.026431936  0.026085576            5 
 2934000   0.79082238   -6.5062415    931.35456  0.026452924  0.026077739            4 
 2935000   0.76218254   -6.5083978    930.04981  0.026406866  0.026069875           10 
 2936000   0.77861943   -6.5349479    934.48887  0.026523867  0.026062036            7 
 2937000   0.79260483   -6.5131182    931.77877   0.02643794  0.026054174            6 
 2938000   0.78151676   -6.5348944    931.98007  0.026434652  0.026046257            6 
 2939000   0.78307306   -6.5335294    933.05333  0.026456089  0.026038401           18 
 2940000    0.7699606   -6.5161828    929.95973  0.026359403  0.026030549            9 
 2941000   0.79156372   -6.5162191     931.8633  0.026404378  0.026022716            8 
 2942000   0.78804226    -6.516888    934.68736  0.026475395  0.026014913            6 
 2943000   0.75431123   -6.5100182    934.33719  0.026456484  0.026007101            7 
 2944000   0.76472417   -6.4828225    933.57362  0.026425884  0.025999262            4 
 2945000   0.77710818   -6.4914786    933.64929  0.026419052  0.025991447            7 
 2946000   0.78934673   -6.5013111    932.15687  0.026367868  0.025983667            5 
 2947000   0.78951088    -6.501799    932.77523  0.026376406  0.025975849            8 
 2948000     0.792806   -6.5115687     934.3096  0.026410832  0.025968075           10 
 2949000   0.76966191   -6.4947231    933.50202  0.026379056   0.02596032            3 
 2950000   0.77339196   -6.5235259     933.6841  0.026375257  0.025952525            9 
 2951000   0.77433766   -6.4993919    934.05861  0.026376895  0.025944759            7 
 2952000   0.77986867   -6.5329762    932.59876  0.026326749  0.025936982            8 
 2953000   0.80903094   -6.5430856     933.9831    0.0263569  0.025929192           11 
 2954000   0.78307124   -6.5185913    932.53935  0.026307249  0.025921425           22 
 2955000   0.77748608   -6.5009922    937.58214  0.026440557  0.025913677            4 
 2956000   0.77177152   -6.5147141    934.06273  0.026332395  0.025905925           11 
 2957000   0.76529136   -6.5262692    932.83864  0.026288993  0.025898111            8 
 2958000    0.7650077   -6.5197944    934.30144  0.026321316  0.025890333           11 
 2959000   0.78173336   -6.5418108    930.91136  0.026216947  0.025882549            6 
 2960000   0.77027882   -6.5506397    933.99328  0.026294856  0.025874723            9 
 2961000    0.7818791   -6.5215743     933.4429  0.026270486   0.02586692            7 
 2962000   0.77465711    -6.535107    933.46325  0.026262189  0.025859126           11 
 2963000   0.77291854   -6.5482999    932.14208  0.026216168  0.025851371            8 
 2964000   0.78572828   -6.5604239    932.37886  0.026213981  0.025843598           11 
 2965000    0.7782586   -6.5109926    930.69125  0.026157708   0.02583583            7 
 2966000   0.78040256   -6.5234272    935.06829  0.026271867  0.025827988           10 
 2967000   0.78358395   -6.5371895    932.16302  0.026181413  0.025820232           13 
 2968000   0.77571262   -6.5276961    935.58234  0.026268597  0.025812502            6 
 2969000   0.78728879    -6.553745     936.2556  0.026278646  0.025804747           15 
 2970000   0.77904668   -6.5298217    932.68519  0.026169618   0.02579697            6 
 2971000   0.78693039   -6.5385225    935.04219  0.026226921  0.025789284           17 
 2972000   0.75971716   -6.5348136    934.01684  0.026189346  0.025781633            9 
 2973000   0.77982178   -6.5211753    938.49708  0.026306118  0.025773944           11 
 2974000   0.76533718   -6.4872799    940.23107   0.02634586  0.025766348           16 
 2975000   0.76532274   -6.5027148    936.72674  0.026238844   0.02575873           10 
 2976000   0.78275295   -6.5132776     938.5712  0.026281676  0.025751092           26 
 2977000    0.7638925   -6.5141116     937.0778  0.026231044  0.025743477            7 
 2978000   0.76673072   -6.5038406    935.17761  0.026169062  0.025735861            4 
 2979000   0.78980244   -6.4879551    939.12838  0.026270795  0.025728265            8 
 2980000    0.7766006   -6.5241029    938.02237  0.026231051  0.025720658            5 
 2981000   0.77145951   -6.5434538    936.12707  0.026169269  0.025712975           10 
 2982000   0.77870798    -6.525505    937.71966  0.026204998  0.025705293            5 
 2983000   0.77026901   -6.5130937    937.08382  0.026178451  0.025697659           13 
 2984000   0.77459149   -6.5180601     936.5996  0.026156155  0.025689984            6 
 2985000    0.7643831   -6.5520772    937.69021   0.02617784  0.025682269            7 
 2986000   0.78019033   -6.5891213    934.08375  0.026068424  0.025674557           15 
 2987000   0.75542055   -6.5626947    935.09418  0.026087886  0.025666832           13 
 2988000   0.77192606   -6.5445352    937.46765   0.02614535  0.025659142            9 
 2989000   0.77878759   -6.5573851    937.43084  0.026135576  0.025651456            8 
 2990000   0.78325878   -6.5564909    937.56354  0.026130533  0.025643795            7 
 2991000    0.7742229   -6.5463955    936.46828  0.026091282  0.025636157            9 
 2992000   0.76496187   -6.5315847    936.79984  0.026091796  0.025628519           11 
 2993000   0.76469666   -6.5174409    939.98374  0.026171727  0.025620927            8 
 2994000   0.76998148   -6.5554778    937.93914  0.026106077  0.025613324           12 
 2995000   0.78681633   -6.5246814    940.36067  0.026164738  0.025605728            9 
 2996000   0.76510643   -6.5268091    938.68761  0.026109468  0.025598199            9 
 2997000   0.77138482   -6.5312013    938.99207  0.026109222  0.025590666            7 
 2998000   0.76649738   -6.5603422    935.17811  0.025994499  0.025583065            7 
 2999000   0.77817327   -6.5484046    938.36003  0.026074248  0.025575413            6 
 3000000   0.78167465   -6.5348264    938.67386  0.026074274  0.025567776            7 
 3001000    0.7869367   -6.5335496    938.46158  0.026059691  0.025560123           12 
 3002000   0.76600229    -6.535533     939.8325  0.026089066   0.02555249            8 
 3003000   0.77105174   -6.5470752    937.03592  0.026002773  0.025544882            7 
 3004000   0.76090306   -6.5413361    938.10512  0.026023777  0.025537294            4 
 3005000   0.76876348   -6.5350977    939.26494  0.026047281  0.025529717           10 
 3006000   0.75792665   -6.5329113    940.64389  0.026076843   0.02552217           12 
 3007000   0.77169718   -6.5336011    940.17345  0.026055134  0.025514631           12 
 3008000   0.78738931   -6.5373982    941.23361  0.026075843  0.025507102            9 
 3009000   0.76889016   -6.5228691    939.25267  0.026012315  0.025499506            6 
 3010000   0.78697842   -6.5621993    938.03816  0.025970049  0.025491935            6 
 3011000   0.77817759    -6.575671    937.30805  0.025941217  0.025484391            8 
 3012000   0.77084365     -6.54074    938.16357  0.025956274  0.025476816           11 
 3013000   0.77448108   -6.5144112    940.20944  0.026004244  0.025469244            8 
 3014000   0.78217023   -6.5425877    939.81784  0.025984789  0.025461761            7 
 3015000   0.75528236   -6.5070266    941.44601  0.026021172   0.02545426            8 
 3016000   0.77219068   -6.5446368    941.17248  0.026004987  0.025446755            9 
 3017000   0.78023159   -6.5140771    944.00644  0.026074645  0.025439259           13 
 3018000    0.7713872   -6.5397575    940.64617  0.025973221  0.025431797            5 
 3019000   0.76998209   -6.5257848     941.9258  0.025999939  0.025424314            7 
 3020000   0.76446054   -6.5238244    943.95372  0.026047288  0.025416846           14 
 3021000    0.7650788   -6.5333163    939.02745  0.025902776  0.025409379            8 
 3022000   0.77635221   -6.5289386    940.68842  0.025940007  0.025401877           10 
 3023000   0.76051999   -6.5344565    939.64708   0.02590272  0.025394421           10 
 3024000   0.76701204   -6.5334579    942.45152  0.025971437  0.025386946           12 
 3025000   0.75674423    -6.546545    942.00972  0.025950681  0.025379468           15 
 3026000   0.76866555   -6.5385428    943.46483  0.025982177  0.025371976            5 
 3027000    0.7629829   -6.5545874    941.52877  0.025920294  0.025364486           11 
 3028000   0.77276302    -6.541039    940.67798  0.025888319  0.025356991           15 
 3029000   0.74923879    -6.548423    942.03132  0.025917006  0.025349525            7 
 3030000    0.7684798   -6.5239195     944.6151  0.025979513  0.025342079           17 
 3031000   0.75214686   -6.5727155     941.7259  0.025891507  0.025334581            5 
 3032000   0.76013559   -6.5229143     944.9971  0.025972875  0.025327076            6 
 3033000    0.7548701   -6.5321269     941.2861   0.02586235  0.025319614            9 
 3034000   0.77635839   -6.5464058    940.93977  0.025844314  0.025312127            5 
 3035000   0.75501416   -6.5608452    940.91624  0.025835152  0.025304642           11 
 3036000   0.74705214   -6.5430553    943.48811  0.025897236  0.025297124            7 
 3037000    0.7571503   -6.5747904    939.72129   0.02578535  0.025289594           13 
 3038000   0.77721348   -6.5798368    940.96613  0.025811009   0.02528202            6 
 3039000   0.77040977   -6.5639351    938.75121  0.025741779  0.025274468            9 
 3040000   0.77931842   -6.5378251     941.6724  0.025813388  0.025266969           16 
 3041000   0.76079009   -6.5927652    941.90813   0.02581136  0.025259495           15 
 3042000   0.76090574   -6.5613424     941.7351  0.025798134  0.025251987           10 
 3043000   0.75549199    -6.558773    941.37978  0.025779926  0.025244473           12 
 3044000    0.7457936   -6.5318911     940.1122  0.025736755   0.02523699            8 
 3045000   0.76209531   -6.5578901    942.79218  0.025801647  0.025229523           10 
 3046000   0.75949068   -6.5400463    942.93284  0.025797024   0.02522203           11 
 3047000   0.75052672   -6.5566033    942.31225  0.025771586  0.025214526           10 
 3048000   0.77120094    -6.572993    940.67257  0.025718301  0.025207009           15 
 3049000   0.76917167   -6.5842179    939.30136  0.025672389  0.025199493           12 
 3050000   0.74719642   -6.5576446     941.2533  0.025717303  0.025191991           12 
 3051000   0.76277984   -6.5890861    940.70936  0.025694017  0.025184429            6 
 3052000   0.76391347   -6.5921863    941.03384  0.025694458  0.025176909           10 
 3053000   0.75891141   -6.5642633      942.879  0.025736407  0.025169415           12 
 3054000   0.75254442   -6.5628672     940.8599  0.025672885  0.025161931           10 
 3055000   0.77282638   -6.5509332    942.58096  0.025711428  0.025154421           30 
 3056000   0.76312722   -6.5663315    942.96369  0.025713451  0.025146868            6 
 3057000   0.76799616   -6.5481121    942.15446  0.025682981  0.025139362           14 
 3058000   0.77756248   -6.5437323    941.83274  0.025665815  0.025131865            9 
 3059000   0.75097129   -6.5661829    942.28017  0.025669613  0.025124361           10 
 3060000   0.76487188   -6.5400967     941.3633  0.025636255  0.025116836           16 
 3061000   0.77416678    -6.565968     941.5947   0.02563418  0.025109325            9 
 3062000   0.75041975   -6.5713931    942.57726  0.025652549  0.025101846            7 
 3063000   0.76362304   -6.5506378    942.56981  0.025643971  0.025094385            6 
 3064000   0.74581201   -6.5370265    941.31555  0.025601489   0.02508695           26 
 3065000   0.76611534   -6.5575215     943.2652  0.025646145  0.025079508           28 
 3066000   0.75815693   -6.5680611    941.27402   0.02558366  0.025072025           22 
 3067000   0.76767999   -6.5703036    946.15774  0.025708014  0.025064577           12 
 3068000   0.76479041    -6.545147    944.64755  0.025658615  0.025057115            7 
 3069000   0.76836295    -6.561556    941.23568   0.02555761  0.025049661            8 
 3070000   0.76924724   -6.5580112    942.14742  0.025574034  0.025042175           16 
 3071000   0.75718662   -6.5759206    942.05294  0.025563143  0.025034711            9 
 3072000   0.74293118   -6.5620287    941.41791  0.025537595  0.025027215            9 
 3073000   0.75750692   -6.5727531    942.39506  0.025555783  0.025019733            8 
 3074000   0.76405042   -6.5941948    941.34818   0.02551909  0.025012227           13 
 3075000   0.76007313    -6.613889    942.42527   0.02553998  0.025004702           11 
 3076000   0.75835846   -6.5608516    946.23778  0.025634964  0.024997245           12 
 3077000   0.75891998   -6.5693468    945.73381  0.025612984  0.024989834            5 
 3078000   0.75501118   -6.5346366     946.1043  0.025614693  0.024982434           14 
 3079000   0.76832235    -6.590159    941.87143  0.025491811  0.024975014            9 
 3080000   0.75615242   -6.5791617    944.04125  0.025542242  0.024967575           13 
 3081000   0.77481988   -6.5580955    944.71696  0.025552228   0.02496015           12 
 3082000   0.76784243   -6.5674729    945.09983  0.025554289  0.024952701            9 
 3083000   0.76900408   -6.5994157    943.36185  0.025499023  0.024945205            9 
 3084000   0.76885531   -6.5702105     944.3902  0.025518542  0.024937764           11 
 3085000   0.77078275   -6.5672078    944.91159  0.025524354  0.024930322           10 
 3086000   0.74997749   -6.5686647    942.68892  0.025456063  0.024922889           10 
 3087000   0.75262371   -6.5541475    944.15151  0.025487299  0.024915469           14 
 3088000   0.75775573   -6.5583754    944.40689  0.025485937  0.024908002           21 
 3089000   0.74245578   -6.5838128    942.54074  0.025427343  0.024900525           20 
 3090000   0.77086971     -6.60486    942.65775  0.025422269  0.024893024           10 
 3091000   0.74939783   -6.5385026    943.42908   0.02543484  0.024885598           15 
 3092000   0.76819935   -6.5466062    947.95022  0.025548464  0.024878183            7 
 3093000   0.74531845   -6.5857345     947.1381  0.025518324  0.024870783           12 
 3094000   0.76719001   -6.5801749    943.37047  0.025408599  0.024863358           13 
 3095000    0.7657832   -6.5637305    946.82841  0.025493495  0.024855947           14 
 3096000   0.75175507   -6.5725111    944.17965  0.025413965  0.024848517           11 
 3097000   0.75165718   -6.5888023    945.39648  0.025438502  0.024841082            6 
 3098000   0.75886592   -6.5993765    943.76552  0.025386419  0.024833631            6 
 3099000   0.76416849   -6.5814538     943.8593  0.025380749  0.024826181           17 
 3100000    0.7454188   -6.5766228    945.62416  0.025420004  0.024818768           25 
 3101000   0.76435391   -6.5689474    945.47078  0.025407685  0.024811356            9 
 3102000    0.7425779   -6.5901386    945.33806  0.025395929  0.024803946           14 
 3103000   0.74555622   -6.5455449    947.64743  0.025449765  0.024796512           16 
 3104000   0.75607928   -6.6033063    943.63477  0.025333837  0.024789076           35 
 3105000   0.75472177   -6.6003332    944.63785  0.025352599  0.024781547           13 
 3106000   0.75000187   -6.5840905    944.44792  0.025339341  0.024774071            5 
 3107000   0.76802599   -6.5937361    943.94845  0.025317789  0.024766611           11 
 3108000   0.75751835   -6.5708513    943.44158  0.025296053  0.024759156            9 
 3109000   0.73487764   -6.5846495    946.39663  0.025367123  0.024751734           29 
 3110000   0.77868268   -6.5780069    945.61672  0.025338069  0.024744333            8 
 3111000   0.76382342   -6.5983352    944.88079  0.025310211  0.024736943           11 
 3112000   0.74522772   -6.6074697    943.39376  0.025262258  0.024729491            5 
 3113000   0.75321765   -6.6263485    942.53673  0.025231201  0.024722047           10 
 3114000   0.75951063   -6.6054265    945.08597  0.025291318  0.024714603            9 
 3115000   0.75211238   -6.6181211    943.18379  0.025232311   0.02470718            8 
 3116000   0.75017399   -6.5838456    944.79506  0.025267305  0.024699729           14 
 3117000   0.74524391   -6.6038269    943.43746  0.025222903  0.024692242            9 
 3118000    0.7627566   -6.5976791     945.2199  0.025262452  0.024684773            7 
 3119000   0.75388888   -6.6266069    944.08549  0.025224043  0.024677332           14 
 3120000     0.758306   -6.5955506    946.29624  0.025275006   0.02466989           11 
 3121000   0.74031126   -6.5790383    945.48702  0.025245301   0.02466249           14 
 3122000   0.75684792   -6.5911073    947.24742  0.025284204  0.024655107            7 
 3123000   0.74093054   -6.5843659    948.08316  0.025298409  0.024647722           17 
 3124000   0.75190342   -6.6112517    945.18679  0.025213049  0.024640374            9 
 3125000   0.73842642   -6.5751233    947.10891  0.025256237  0.024633008            6 
 3126000   0.75153834   -6.6095697    945.57453  0.025207255   0.02462562            4 
 3127000    0.7354698   -6.5798447    946.67005  0.025228389  0.024618246            8 
 3128000    0.7301431   -6.5835901    947.22777  0.025235182  0.024610863            7 
 3129000   0.73998546   -6.5679042    948.12786  0.025251088  0.024603491            5 
 3130000   0.74845588   -6.6053125    945.11395  0.025162778  0.024596121            5 
 3131000   0.75803421   -6.6149829    945.25054  0.025158377  0.024588698           10 
 3132000   0.75698803   -6.5877624    947.04291  0.025198034   0.02458131            9 
 3133000   0.75265874   -6.5699965    947.63956  0.025205861  0.024573938            4 
 3134000   0.74776821   -6.5753798     945.7736  0.025148202  0.024566607            9 
 3135000   0.75894888   -6.6195757    946.46369  0.025158524  0.024559243            5 
 3136000    0.7672202   -6.5831344      947.495  0.025177907  0.024551853           10 
 3137000   0.75734348    -6.569678     947.0741    0.0251587  0.024544488           22 
 3138000   0.75701888   -6.6088957    945.38239  0.025105757  0.024537107           15 
 3139000   0.75060901   -6.5927748    945.71302  0.025106537  0.024529675            7 
 3140000   0.76047958   -6.5798241    947.57457  0.025147945  0.024522321            7 
 3141000   0.73335827    -6.625978    945.13416  0.025075193  0.024514943           11 
 3142000   0.74747801   -6.6072815    945.16714  0.025068087  0.024507551           17 
 3143000   0.73880734   -6.5735085    947.47186  0.025121218  0.024500151            7 
 3144000   0.76025127   -6.6231501    946.45478   0.02508627  0.024492802            9 
 3145000   0.76026387   -6.6047836    947.01364  0.025093101  0.024485418           14 
 3146000   0.73137293   -6.5824119    948.49456  0.025124353  0.024478042           16 
 3147000   0.74280563   -6.5720142    948.14574  0.025107132  0.024470735           11 
 3148000   0.74871478   -6.5941013    947.59828  0.025084664  0.024463374            5 
 3149000   0.74722557   -6.6093565    947.16418  0.025065211  0.024456003           21 
 3150000   0.74122647   -6.6339213    943.01263  0.024947424  0.024448607           15 
 3151000   0.76055303   -6.6140764     943.3596  0.024948683  0.024441178           11 
 3152000   0.74790635   -6.6112103    943.96558  0.024956789  0.024433755           14 
 3153000   0.74184178   -6.6477947    942.45219  0.024908875  0.024426303           10 
 3154000   0.74016202   -6.6236049    942.65279  0.024906277  0.024418811            7 
 3155000   0.76576572   -6.6159504    945.81541  0.024981918  0.024411341            9 
 3156000   0.76512456   -6.6088226    946.79777  0.024999941  0.024403925           14 
 3157000   0.74143277   -6.6579849    942.37339  0.024875235  0.024396487            7 
 3158000   0.73420108   -6.6387539    945.49861  0.024949826  0.024389016           11 
 3159000   0.75321775   -6.6085082    943.40465   0.02488669  0.024381567           14 
 3160000   0.74545704   -6.6119805    945.16896  0.024925342  0.024374132           11 
 3161000   0.75396759   -6.6142702    945.87096  0.024935963  0.024366679           16 
 3162000   0.74623926   -6.6098639    947.95043  0.024982881  0.024359314            7 
 3163000   0.75588628   -6.6085156    946.72658  0.024942738   0.02435189           13 
 3164000   0.74039754   -6.6046864    944.68926  0.024881196  0.024344444           15 
 3165000   0.75364128   -6.6049124    947.23867   0.02494046  0.024337034            9 
 3166000   0.74601499   -6.6387244    943.51604  0.024834598  0.024329604            5 
 3167000   0.74561171   -6.6174813    944.65225  0.024856653   0.02432219           10 
 3168000    0.7503262   -6.6011413    946.27283  0.024891436  0.024314767           11 
 3169000   0.73882372   -6.6156879    946.53088  0.024890367   0.02430735           25 
 3170000   0.74600219   -6.6050341     946.2205  0.024874356  0.024299912           10 
 3171000   0.75305935   -6.6013717    945.13203  0.024837907   0.02429247           12 
 3172000   0.72341617   -6.5850345    944.22918  0.024806357  0.024285035           15 
 3173000   0.73794918   -6.6291146    945.61516   0.02483494  0.024277565           11 
 3174000   0.74664527   -6.6216472     945.2228  0.024816814  0.024270087            8 
 3175000   0.73052552   -6.6477715       944.07   0.02477874  0.024262604            8 
 3176000   0.75108208   -6.6154082    944.85881  0.024791635  0.024255128           10 
 3177000   0.73263929   -6.6041795    947.67294  0.024857647  0.024247675            8 
 3178000   0.75604886   -6.5919817    946.59097  0.024821454   0.02424023           17 
 3179000   0.75476835    -6.610638    945.08082  0.024774059  0.024232794           13 
 3180000   0.73961761   -6.6172698    943.26262  0.024718622   0.02422527           21 
 3181000   0.75460983   -6.6243156    943.76122  0.024723913  0.024217731           10 
 3182000   0.73786345   -6.6350879    945.59195  0.024764088  0.024210214            8 
 3183000   0.75150116    -6.598166     945.5427  0.024755019  0.024202717           20 
 3184000   0.74547539   -6.6178328    944.57183  0.024721834  0.024195261           17 
 3185000   0.75936352   -6.5963937     945.6705  0.024742818  0.024187777           19 
 3186000   0.74702163   -6.6216735    943.60046  0.024680908  0.024180308            6 
 3187000   0.73025137   -6.6074616    945.80919  0.024730917   0.02417288           18 
 3188000   0.75006881   -6.6285149    945.32535  0.024710512  0.024165471            6 
 3189000   0.74207517   -6.6251657     944.6205  0.024684345  0.024158016           11 
 3190000   0.74125548    -6.616996    947.32378  0.024747225  0.024150541            7 
 3191000   0.72828136    -6.637838    944.54239  0.024666834  0.024143082            7 
 3192000   0.74334496   -6.6309982    944.25077  0.024651493  0.024135561           17 
 3193000   0.74210168   -6.6207304    947.00921  0.024715764  0.024128097           39 
 3194000   0.75025321   -6.6202219    945.02101  0.024656152  0.024120636           16 
 3195000   0.73348158   -6.6467402    943.98546  0.024621426  0.024113178           22 
 3196000   0.74089948   -6.6110677    945.80095  0.024661059  0.024105739           14 
 3197000   0.73935435   -6.6339427     946.6015  0.024674213  0.024098296           28 
 3198000   0.75648907    -6.646981    945.42334  0.024635797  0.024090806           18 
 3199000   0.72847464   -6.6299455    944.84098  0.024612925   0.02408332           11 
 3200000   0.74230525   -6.6504349    943.43035  0.024568499  0.024075823           26 
 3201000   0.73311107   -6.6307029    945.34656  0.024610709  0.024068378            8 
 3202000   0.76443188   -6.6040389    948.19821  0.024677239  0.024060973           16 
 3203000   0.75220075    -6.617873    948.53132  0.024678201  0.024053615           23 
 3204000   0.74141442   -6.5921022    946.80944  0.024625714   0.02404625            8 
 3205000   0.74033189   -6.6088824    946.68395  0.024614767  0.024038838           15 
 3206000   0.74461636   -6.6201695     947.4311   0.02462651  0.024031478           18 
 3207000   0.75368228   -6.6140093    948.01133  0.024633908  0.024024123            9 
 3208000   0.75324933   -6.6381326    949.46138  0.024663897  0.024016767           10 
 3209000   0.75489016   -6.6006145    950.20014  0.024675396  0.024009454            4 
 3210000   0.74810816   -6.6304885    949.22195  0.024642314  0.024002142            7 
 3211000   0.73738355   -6.6157113    950.29343  0.024662447   0.02399485           11 
 3212000   0.73877141   -6.6108768    948.99216  0.024621009  0.023987502            9 
 3213000   0.73975022   -6.6337118    948.54606  0.024601776  0.023980157            6 
 3214000    0.7405112   -6.6300332    946.61979  0.024544176  0.023972799           21 
 3215000   0.73770678   -6.5996688    946.75736  0.024540108  0.023965484           13 
 3216000   0.73694932   -6.6141525    946.61367  0.024528754  0.023958151           11 
 3217000   0.72854339   -6.6199913    948.60452    0.0245727  0.023950794           18 
 3218000   0.74392215   -6.6407334    948.32842  0.024557914   0.02394346           17 
 3219000   0.73758061   -6.6331016    946.48972  0.024502685  0.023936078           31 
 3220000    0.7288141   -6.6451743     947.7906  0.024528742  0.023928669           13 
 3221000   0.74214084   -6.6435143    947.74793  0.024520023  0.023921274           11 
 3222000   0.72771268   -6.6464325    945.97377  0.024466526  0.023913885            8 
 3223000   0.73243543     -6.65202    945.72379  0.024452472  0.023906519           13 
 3224000    0.7318006   -6.6334735     946.2778  0.024459207  0.023899118           14 
 3225000   0.73005498   -6.6336896     949.3189  0.024530204  0.023891757           12 
 3226000   0.74127163   -6.6249909     948.3786  0.024498311  0.023884378           25 
 3227000   0.72591594   -6.6514816    948.08635  0.024483172  0.023876985           13 
 3228000   0.72794209   -6.6388725    948.34015  0.024482139  0.023869613           23 
 3229000   0.73151938   -6.6421829    948.31569  0.024473926  0.023862234           12 
 3230000   0.73869542   -6.6484306     945.9557  0.024405462  0.023854849            8 
 3231000   0.74422207   -6.6238053    947.53805   0.02443872  0.023847482            7 
 3232000   0.74324689   -6.6229917    947.83975  0.024438937  0.023840156           16 
 3233000   0.71449176   -6.6582888    947.14926   0.02441358  0.023832815           21 
 3234000   0.74408625   -6.6157335    950.21424  0.024485009  0.023825485           15 
 3235000   0.73228122   -6.6315687    947.53593  0.024408447  0.023818155           15 
 3236000   0.72522309   -6.6411952    945.89678  0.024358693  0.023810781           13 
 3237000   0.72613342   -6.6315849    946.53591  0.024367622  0.023803412           16 
 3238000   0.73021219   -6.6369321     946.3148  0.024354406  0.023796061           13 
 3239000    0.7232129   -6.6478887    946.36746  0.024348242  0.023788713            9 
 3240000   0.74859655   -6.6095587    947.93741  0.024381106  0.023781374            7 
 3241000   0.74367097   -6.6245319    948.65918  0.024392142  0.023774068           15 
 3242000   0.74123344   -6.6379374    948.16691  0.024371965  0.023766743           12 
 3243000   0.74613323   -6.6222848    946.99239  0.024334269  0.023759384            9 
 3244000   0.72620342   -6.6458167    947.99674  0.024352567  0.023751984           17 
 3245000   0.73396276   -6.6730422    948.04751  0.024346366  0.023744588           13 
 3246000   0.72736718   -6.6486818    949.34895  0.024372277  0.023737259            6 
 3247000   0.74185084   -6.6539317    950.08979  0.024383785  0.023729901           46 
 3248000   0.73390486   -6.6218105    949.48996  0.024360888  0.023722582            9 
 3249000   0.74257811   -6.6650192    946.67059  0.024281076  0.023715234           21 
 3250000   0.72556998   -6.6477846    945.39605  0.024240924  0.023707889            9 
 3251000   0.73479286   -6.6257314    949.86358  0.024347985  0.023700526            7 
 3252000   0.72658345   -6.6350517    947.24405  0.024273372  0.023693176           17 
 3253000   0.72427294   -6.6561273    947.73718  0.024278542  0.023685872           11 
 3254000   0.75219542   -6.6611946    949.21771  0.024308997  0.023678569           18 
 3255000   0.73439566   -6.6624892    947.43966  0.024256008  0.023671272           11 
 3256000   0.73454095   -6.6658439    947.69559  0.024255108  0.023663975            7 
 3257000   0.72997564   -6.6125706    949.26351  0.024287778  0.023656666           11 
 3258000   0.72463472   -6.6517768    947.53056  0.024235998   0.02364937            8 
 3259000   0.72495076   -6.6718418    948.27565  0.024247613  0.023642069            8 
 3260000   0.72966064   -6.6582397    947.96758    0.0242323  0.023634746           22 
 3261000   0.72327425   -6.6865039     946.9074  0.024197777  0.023627386           13 
 3262000   0.73458345   -6.6444277    950.60683  0.024284867  0.023620022           15 
 3263000   0.74039543   -6.6755715    946.37743   0.02416941  0.023612687           19 
 3264000   0.73096393   -6.6601576    947.98831  0.024203133  0.023605348           17 
 3265000   0.72821044   -6.6516019    947.98091  0.024195531  0.023598004           22 
 3266000   0.73443327   -6.6492368    949.18117  0.024218748  0.023590653           18 
 3267000   0.73884644   -6.6756055    945.58732  0.024119664  0.023583262            9 
 3268000   0.73595232   -6.6552668    945.78015  0.024117201  0.023575843           24 
 3269000   0.73160949   -6.6652701    947.25443  0.024147406  0.023568458           19 
 3270000   0.71370209     -6.66822    947.37964  0.024143212  0.023561063           10 
 3271000   0.72800454   -6.6873416    946.40033  0.024110882  0.023553684           13 
 3272000   0.72799183   -6.6518718    947.54941  0.024132778  0.023546349           25 
 3273000   0.73399015   -6.6877803    947.78896  0.024131504  0.023538988           22 
 3274000   0.72410924   -6.6864408    947.18202  0.024108685  0.023531611           24 
 3275000   0.71639429   -6.6741854    949.02165  0.024148134   0.02352423           11 
 3276000   0.73203257   -6.6900173    945.98705   0.02406357  0.023516859           10 
 3277000   0.73692317   -6.6727958    947.25203  0.024088395   0.02350947           18 
 3278000   0.72562297   -6.6420919    948.17153  0.024104422  0.023502147           10 
 3279000   0.72187981   -6.6590869    946.12708  0.024045112  0.023494827           12 
 3280000   0.72924266   -6.6452137    949.05602  0.024112196  0.023487532           15 
 3281000   0.73705621   -6.6213065    950.66911  0.024145817  0.023480256            9 
 3282000   0.73555976    -6.633968    949.53763  0.024109731  0.023472968           10 
 3283000     0.734899   -6.6342736    949.15635  0.024092709  0.023465686           22 
 3284000   0.74592655   -6.6456808    948.73422   0.02407466    0.0234584           20 
 3285000   0.72750278   -6.6336876    949.44091  0.024085259  0.023451126           11 
 3286000    0.7365711   -6.6521629    950.01662  0.024092529  0.023443847            9 
 3287000   0.73021541    -6.666131    947.72863  0.024027194  0.023436517           17 
 3288000   0.71589559   -6.6544292    950.68767  0.024094882  0.023429211            8 
 3289000   0.72295346    -6.678811    951.20824  0.024100746  0.023421917            9 
 3290000   0.73315769   -6.6854568    948.61196  0.024027658  0.023414598            9 
 3291000   0.72716876   -6.6791602     947.8198  0.024000299   0.02340725           13 
 3292000   0.72727214   -6.6578813    948.29211  0.024004964  0.023399911           17 
 3293000   0.71550593   -6.6944183    945.13318  0.023917734  0.023392559            8 
 3294000   0.71765739   -6.6909431    946.57604  0.023946975  0.023385203            7 
 3295000   0.72457094   -6.6646447    948.01196  0.023976023  0.023377846            9 
 3296000   0.72738072   -6.6885032    947.11486  0.023946067  0.023370485            9 
 3297000   0.71333747   -6.6788119    948.93986  0.023984932  0.023363136           14 
 3298000   0.71449966    -6.696413    947.37645  0.023938156  0.023355789           29 
 3299000   0.72413408   -6.6598097     950.0616  0.023998727  0.023348437           11 
 3300000   0.72740711   -6.7090378     948.0106  0.023939662  0.023341077           21 
 3301000   0.72131389   -6.6970136     945.5353  0.023869921  0.023333734           50 
 3302000   0.72118343   -6.6681696      947.766  0.023918988  0.023326402           14 
 3303000   0.71435765   -6.6848171    948.21351  0.023923037  0.023319095           11 
 3304000   0.71782393    -6.688011    947.28789  0.023892451  0.023311783           39 
 3305000   0.72231782   -6.6554861    950.39616  0.023963595  0.023304505           20 
 3306000   0.72745272   -6.6869345    949.18913  0.023925921  0.023297183           26 
 3307000   0.74822798   -6.6935043    946.77784  0.023857924  0.023289879           14 
 3308000   0.71645942   -6.6887262    949.28849  0.023913958  0.023282606           33 
 3309000      0.71976   -6.6889341    948.44167  0.023885405  0.023275323           10 
 3310000   0.70372179   -6.6787307    948.29948  0.023874609  0.023268025           10 
 3311000    0.7133485   -6.6846636     948.2298  0.023865645   0.02326076           34 
 3312000    0.7299769   -6.6542518    948.25763  0.023859139  0.023253505            7 
 3313000   0.73613065    -6.675971    949.04353  0.023871706  0.023246282            4 
 3314000    0.7111958   -6.6752884    949.54353  0.023877075  0.023239048            7 
 3315000   0.73427302   -6.6743887    949.34682  0.023864927  0.023231772           20 
 3316000   0.73216623   -6.6956086    947.07164  0.023800554  0.023224476           12 
 3317000   0.72084665   -6.6768757    948.08122  0.023818742  0.023217202            9 
 3318000   0.71794572    -6.658526    947.94766  0.023808209  0.023209906           13 
 3319000   0.72352392   -6.6772854    946.04565   0.02375328  0.023202614           28 
 3320000    0.7096276   -6.6785737    948.01557  0.023795571  0.023195286           25 
 3321000   0.71804092   -6.6548141     948.1927  0.023792851  0.023187976            7 
 3322000   0.72524927   -6.6798026    947.30916  0.023763525  0.023180625           25 
 3323000   0.72230195   -6.6930283    947.03861  0.023749589  0.023173261           26 
 3324000   0.73146268   -6.6665463    948.13963  0.023770047  0.023165953           22 
 3325000   0.72052561   -6.6835665    947.74861  0.023753098  0.023158648           13 
 3326000    0.7289142   -6.7078138    948.46404  0.023763882  0.023151372           16 
 3327000   0.73737611   -6.6918555    946.22213  0.023700584  0.023144032            7 
 3328000   0.71450374   -6.6824287    947.28716  0.023720131  0.023136758           14 
 3329000   0.72385478   -6.6592849    950.43409  0.023791782  0.023129447           10 
 3330000   0.72872388   -6.6717013    946.76264  0.023692759   0.02312214           10 
 3331000    0.7159496   -6.6794622    947.34646  0.023700252  0.023114824            9 
 3332000   0.73080018     -6.65414    949.79777  0.023754446  0.023107533           13 
 3333000   0.69558252   -6.7023053      946.945  0.023675993   0.02310024           22 
 3334000   0.70247129    -6.676263     947.5031  0.023682841  0.023092966           15 
 3335000   0.72567209   -6.6540857    949.42064  0.023723654  0.023085716           11 
 3336000    0.7109104   -6.6508697    951.49179   0.02376828  0.023078452            9 
 3337000   0.71009488   -6.6879017    948.70294  0.023691513  0.023071177           18 
 3338000   0.71901607    -6.672034    950.27857  0.023723751  0.023063856           23 
 3339000   0.71852237   -6.6775451    948.94224  0.023683294  0.023056569           17 
 3340000   0.71622104   -6.6851823    945.23285  0.023583654  0.023049268           11 
 3341000   0.71359845   -6.6844019     948.2211   0.02365113  0.023041974           31 
 3342000   0.72857587   -6.6798064    946.31353  0.023596487  0.023034681            7 
 3343000   0.71922165   -6.6975476     945.3823  0.023566216  0.023027395           10 
 3344000   0.70830477   -6.6842917    946.83321  0.023595325  0.023020086           12 
 3345000   0.71890275   -6.6832315    946.97324   0.02359176  0.023012766           14 
 3346000    0.7180473   -6.7085065    950.94733  0.023683685  0.023005437            9 
 3347000   0.71342638   -6.7113296    947.94982  0.023601977  0.022998125            9 
 3348000   0.70962841   -6.7002384    947.10004  0.023573776  0.022990785           12 
 3349000   0.71783722   -6.6863691    947.11075  0.023567004  0.022983442           25 
 3350000   0.72532244    -6.711608    946.19578  0.023537209  0.022976104           24 
 3351000   0.71829793   -6.7012917    948.06516  0.023576673  0.022968774           14 
 3352000   0.72143258   -6.6987563    949.05362  0.023594213   0.02296147           17 
 3353000   0.71134886   -6.7024259    947.21054  0.023541369  0.022954186           18 
 3354000   0.70596724   -6.6990915    945.29656  0.023486796  0.022946894           11 
 3355000    0.7161213   -6.7045995    945.31292  0.023480202  0.022939563           13 
 3356000   0.70962943   -6.7060776    945.94794  0.023488974  0.022932225            8 
 3357000   0.70776025   -6.7174626     947.1553  0.023511948  0.022924882           10 
 3358000   0.71023018   -6.6984071    948.24908   0.02353209  0.022917511           10 
 3359000    0.7189216   -6.7273826    947.59609  0.023508884  0.022910207           13 
 3360000   0.71607406   -6.7072814    947.42714  0.023497697  0.022902883           25 
 3361000   0.73691371   -6.7292656    945.14908  0.023434223   0.02289555            8 
 3362000   0.71793111   -6.6899663      947.484  0.023485128  0.022888286           14 
 3363000   0.71658515   -6.6953246     947.4341  0.023476908  0.022881053           12 
 3364000   0.72948749   -6.6906272    949.91347  0.023531348  0.022873825           19 
 3365000   0.71281126   -6.6950889    946.82254  0.023447809  0.022866568            8 
 3366000   0.70361258   -6.7010324    947.70989  0.023462812  0.022859324           21 
 3367000   0.70189505   -6.6681287    947.69374  0.023455443  0.022852081           12 
 3368000    0.7221847   -6.6594609    951.02086  0.023530801  0.022844835            9 
 3369000   0.72586572   -6.7002748    947.44555   0.02343538  0.022837603           14 
 3370000   0.69767993   -6.7185904    948.02398  0.023442729  0.022830357           21 
 3371000    0.7141682   -6.7136489    948.96224   0.02345897  0.022823138           33 
 3372000   0.70191989   -6.7285097     947.2722  0.023410246  0.022815873           41 
 3373000   0.71955629   -6.7002074    948.16048  0.023425251  0.022808591           24 
 3374000   0.71253863   -6.6987985    947.26918  0.023396295  0.022801332            9 
 3375000   0.69428243   -6.7247251    944.47191  0.023320294  0.022794033           15 
 3376000   0.71064152   -6.6775258    948.99356  0.023424999   0.02278675           20 
 3377000   0.71419497   -6.7243215    947.99267  0.023393364  0.022779504           14 
 3378000   0.69673515   -6.7036571    949.22919  0.023416943  0.022772222           14 
 3379000   0.70618126   -6.7245003    948.25091  0.023385886  0.022764948           18 
 3380000   0.72060209   -6.7086302    948.09084  0.023375021  0.022757673           13 
 3381000   0.71804484   -6.6947369    947.94487  0.023364509  0.022750437           22 
 3382000   0.71336456   -6.6865747    950.94259  0.023431465  0.022743183           14 
 3383000   0.72970095   -6.7432978     947.3405  0.023335809   0.02273592           22 
 3384000    0.7133584   -6.7237848    946.54202   0.02330925   0.02272865           20 
 3385000   0.71670122   -6.7106773    948.46588  0.023349726  0.022721388           16 
 3386000   0.70605312   -6.7186421    946.84833  0.023303021  0.022714115           17 
 3387000   0.71773786     -6.70057    950.17213  0.023377919  0.022706885           18 
 3388000   0.70232278   -6.6917612    949.94213  0.023365361  0.022699665           13 
 3389000   0.70597002   -6.7177766    946.92705  0.023284328  0.022692434           23 
 3390000   0.70004235   -6.7116847    950.35508  0.023361728  0.022685201           11 
 3391000   0.71308455   -6.7260967    950.32832  0.023354181  0.022677987           43 
 3392000   0.70457699    -6.697424    949.14007  0.023318103  0.022670761           30 
 3393000   0.71294927   -6.7143025    948.39109  0.023292835  0.022663501           31 
 3394000   0.71465872   -6.7167903    947.46426  0.023263216  0.022656211           36 
 3395000   0.70109153   -6.7565916    948.78022  0.023288665  0.022648945           13 
 3396000   0.71507745   -6.7408978    947.37127  0.023247234  0.022641653            9 
 3397000   0.70804482   -6.7404278    947.20384  0.023236283  0.022634361           40 
 3398000   0.71475654   -6.7420465    947.34123  0.023232814  0.022627088            9 
 3399000   0.71430093   -6.7190168    948.61456  0.023257197  0.022619837           22 
 3400000   0.70723286   -6.7269915     949.7288  0.023277667  0.022612621           27 
 3401000   0.71338522   -6.7354023    948.60717  0.023243339  0.022605413           24 
 3402000   0.70396438    -6.720355    948.08083  0.023223614  0.022598184           13 
 3403000   0.70407517   -6.7255659    946.86499  0.023187016  0.022590968           14 
 3404000   0.71573386   -6.7221772     949.7223  0.023250154  0.022583755           17 
 3405000   0.70671175   -6.7278232    947.96049  0.023200208  0.022576537           23 
 3406000   0.69446297   -6.7246057    947.66249  0.023186105  0.022569308           18 
 3407000   0.69718011   -6.7381562     949.5221  0.023224785  0.022562063           14 
 3408000   0.70983675   -6.7089613    948.58445  0.023195042   0.02255489           21 
 3409000   0.70317627   -6.7436098    947.32984  0.023157569  0.022547713           24 
 3410000   0.71641265    -6.731269    949.75512  0.023210047  0.022540532           18 
 3411000    0.7092986   -6.7132705    952.92317   0.02328064   0.02253336           27 
 3412000   0.71463139   -6.7371612    950.56132  0.023216132  0.022526183           12 
 3413000   0.71606316   -6.6931265    950.46615  0.023207006   0.02251899           14 
 3414000   0.71762295   -6.7111578    948.73281  0.023157899  0.022511797            8 
 3415000   0.71505633   -6.7234075    946.03054  0.023085177   0.02250462           13 
 3416000   0.70222888   -6.7466062    946.51236  0.023090173  0.022497462           12 
 3417000   0.70817003   -6.7208707    949.21038  0.023149214  0.022490308           29 
 3418000   0.71171099   -6.7295514    949.41247  0.023147369  0.022483145           31 
 3419000   0.70093506   -6.7304972    948.14375  0.023109675     0.022476           10 
 3420000   0.71208614    -6.710181    951.28953  0.023179569   0.02246886           15 
 3421000   0.70667746   -6.7062583    951.29759   0.02317299  0.022461743           10 
 3422000   0.70277796   -6.7193494    950.97353  0.023158327  0.022454648           12 
 3423000   0.70449261   -6.7161547    953.22205  0.023206302  0.022447572            8 
 3424000   0.70199849   -6.7097795    950.26413  0.023127534  0.022440488            8 
 3425000   0.70489165   -6.7060412    951.29257  0.023145805  0.022433405            8 
 3426000   0.69349631   -6.7308641    950.56398  0.023121327  0.022426297           23 
 3427000   0.70759008   -6.7569743    949.76864   0.02309524   0.02241915           16 
 3428000   0.69296525   -6.7311044     947.5727   0.02303512  0.022411998           10 
 3429000   0.70529003   -6.7438176     948.8503  0.023059451   0.02240484           18 
 3430000   0.69121504   -6.7361836    948.10641  0.023034655  0.022397713           19 
 3431000   0.70064941   -6.7221537    950.41197   0.02308394  0.022390587           12 
 3432000   0.71280673   -6.7446025    950.84105  0.023087632  0.022383439           20 
 3433000     0.686725    -6.727023    949.35914  0.023044935  0.022376284           13 
 3434000    0.7010664   -6.7286994    951.85138  0.023098704  0.022369149            8 
 3435000    0.6879563   -6.7255283    950.97499  0.023070718  0.022362046           12 
 3436000   0.68129913   -6.7088201    951.29668  0.023071805  0.022354983           19 
 3437000   0.70203217   -6.7177204    951.82818  0.023077979  0.022347899           16 
 3438000   0.71550502   -6.7303443    949.34527  0.023011084  0.022340796           16 
 3439000   0.72018612   -6.7498608    949.85548  0.023016756  0.022333698           31 
 3440000   0.70072582    -6.742153    952.40911  0.023071926  0.022326589           13 
 3441000   0.70682757   -6.7498375    950.26066   0.02301319  0.022319479           14 
 3442000   0.69494253   -6.7316055    951.32095  0.023032175  0.022312388           11 
 3443000   0.69835411   -6.7443075    950.11224   0.02299623  0.022305296           27 
 3444000   0.67746123   -6.7529485    951.14871  0.023014632  0.022298195           20 
 3445000   0.69359104    -6.764047    948.44894  0.022942645  0.022291107           35 
 3446000    0.6966147   -6.7551019    949.02065  0.022949813  0.022284009           32 
 3447000   0.70564301   -6.7543494    951.49915  0.023003074   0.02227693           31 
 3448000   0.70824602   -6.7307425    951.92164  0.023006613  0.022269854           51 
 3449000   0.70923211   -6.7406327    950.90196  0.022975306  0.022262778           19 
 3450000   0.69724897   -6.7246867    952.80687  0.023014659    0.0222557           11 
 3451000   0.68233228   -6.7672116     947.1672  0.022871805  0.022248615           35 
 3452000   0.71431579    -6.731169    951.59708   0.02297212  0.022241519           96 
 3453000   0.69851624   -6.7344093     951.2405  0.022956861  0.022234423           61 
 3454000   0.70333718    -6.764746    950.36138  0.022929004  0.022227311           89 
 3455000   0.69004009   -6.7253592    952.36032  0.022970582  0.022220213           81 
 3456000   0.70595284   -6.7500555    951.28415  0.022937986  0.022213167           22 
 3457000    0.6962229   -6.7384188    951.18351  0.022928925  0.022206091           29 
 3458000   0.68222512   -6.7445173    950.90289  0.022915531  0.022199032           32 
 3459000   0.70628273   -6.7370534    951.65578  0.022927045  0.022191973           32 
 3460000   0.69365278   -6.7860412    949.67675  0.022872754  0.022184927           26 
 3461000   0.68897124   -6.7574206     951.2824  0.022904806  0.022177843           24 
 3462000   0.68961515   -6.7313728    952.56883  0.022929155  0.022170754           14 
 3463000   0.69489239   -6.7366473    953.44966   0.02294373  0.022163753           18 
 3464000   0.70132631   -6.7554964     953.3318  0.022934272  0.022156742           24 
 3465000   0.71002145   -6.7603569    950.61657  0.022862351  0.022149727           14 
 3466000   0.69165747   -6.7224272    953.23188  0.022918635  0.022142696           39 
 3467000   0.70248541   -6.7507948    952.60142  0.022896871   0.02213568           25 
 3468000   0.69776947   -6.7334459    954.44574  0.022934586  0.022128668           20 
 3469000   0.69050585   -6.7305746    954.13301  0.022920462  0.022121681           22 
 3470000   0.68984342   -6.7338672    951.78037  0.022857358  0.022114723           25 
 3471000   0.69674857   -6.7460123     953.4458  0.022890757  0.022107716           15 
 3472000   0.69277126   -6.7473644     951.0347  0.022826294  0.022100703           15 
 3473000   0.68301611   -6.7857451    950.53835  0.022807812  0.022093688           34 
 3474000    0.6899771   -6.7858497    949.52203  0.022776867   0.02208665           22 
 3475000   0.68683592    -6.734967    952.77878  0.022848412  0.022079611           18 
 3476000   0.69430011   -6.7592475    953.26442  0.022853481  0.022072623           17 
 3477000   0.69111625   -6.7366426    951.35877  0.022801236  0.022065609           13 
 3478000   0.69294055   -6.7593359    952.98019   0.02283353  0.022058621           26 
 3479000    0.6912686    -6.742322    951.92796  0.022801762  0.022051621           10 
 3480000   0.69262873     -6.72961    953.05736  0.022822255  0.022044629           20 
 3481000    0.6941975   -6.7417253    950.86321  0.022763172  0.022037668           36 
 3482000   0.69648752   -6.7464212     953.5245  0.022820326  0.022030736           11 
 3483000   0.69069828   -6.7381142    952.60942   0.02279188  0.022023792            9 
 3484000   0.69690441   -6.7526868    951.21555  0.022751998  0.022016863           26 
 3485000   0.68355137   -6.7265778    953.54734  0.022801228  0.022009942           28 
 3486000   0.70293503    -6.743461    953.92792  0.022803785  0.022002985           23 
 3487000   0.67722315   -6.7515445    950.76737  0.022721713  0.021996028           21 
 3488000   0.69314596   -6.7727298    953.12127  0.022771437  0.021989021           27 
 3489000    0.7027467   -6.7763604    951.08178  0.022716198  0.021982019           20 
 3490000   0.68048605   -6.7599361    951.98419  0.022731237  0.021975012           32 
 3491000   0.68883566   -6.7737062    951.10124  0.022703648  0.021968032           23 
 3492000   0.68753038   -6.7772277    953.47526  0.022753801   0.02196104           16 
 3493000   0.69068321    -6.755997    950.54287  0.022677328  0.021954069            8 
 3494000   0.69222965    -6.736503    952.44232   0.02271614  0.021947101           17 
 3495000   0.69484461   -6.7746224    952.80579  0.022718307  0.021940157           15 
 3496000   0.69628184   -6.7910419    951.68188  0.022685018  0.021933203           11 
 3497000   0.68247903   -6.7711057    951.14812  0.022665812  0.021926247           12 
 3498000   0.68864918     -6.77251    952.33633  0.022687639  0.021919286           16 
 3499000   0.69202498   -6.7687213    952.41381     0.022683  0.021912342            8 
 3500000   0.70742663   -6.7601526    953.32124  0.022698125  0.021905397           17 
 3501000   0.70626498   -6.7471852    951.72041  0.022653537  0.021898446           17 
 3502000   0.71276222   -6.7512048    951.32544   0.02263767  0.021891507           10 
 3503000   0.70130546   -6.7674365    952.37959  0.022656285  0.021884565           22 
 3504000   0.68031061   -6.7945794     950.7499  0.022611061   0.02187761           11 
 3505000   0.71471654   -6.7780389    952.71884  0.022651423  0.021870655           11 
 3506000   0.68006226   -6.7900299    952.45054  0.022638585  0.021863732           18 
 3507000   0.69157355   -6.7756198    954.45094  0.022679663  0.021856752           25 
 3508000   0.68523419   -6.7466966    955.41579  0.022696118  0.021849809           19 
 3509000   0.69835798   -6.7692475    953.43721  0.022642662  0.021842868           15 
 3510000   0.68591363   -6.7627823    954.01138  0.022649843  0.021835902           45 
 3511000   0.68786652   -6.7644746    955.48954  0.022678476  0.021828958           10 
 3512000   0.70188831   -6.7436991    950.92593  0.022563732  0.021822022           10 
 3513000   0.68900878   -6.8014512    952.10908  0.022585375  0.021815082           11 
 3514000   0.69332724    -6.777834    951.94359  0.022575023  0.021808123            8 
 3515000   0.69126554    -6.780363    953.13918  0.022596946  0.021801174           56 
 3516000   0.69246902   -6.7679606    952.24373  0.022569296  0.021794213           20 
 3517000   0.69408163   -6.7690314    953.41535  0.022590639  0.021787281           12 
 3518000   0.68857165    -6.789945    950.71362   0.02252022  0.021780325           15 
 3519000   0.70090947   -6.7400946    952.44106  0.022554728  0.021773398           14 
 3520000   0.68025431   -6.7637177    952.53991  0.022550661  0.021766487           18 
 3521000   0.69383979   -6.7477652    954.55067  0.022591846  0.021759619           15 
 3522000   0.66992895   -6.7447626    954.08342  0.022574376  0.021752724           10 
 3523000   0.69564521   -6.7914908    951.73511  0.022512421  0.021745853           12 
 3524000   0.68745586   -6.7693495    952.37382  0.022521137  0.021738946           20 
 3525000   0.68442411   -6.7517814    951.05285  0.022483519  0.021732045           16 
 3526000   0.67744569   -6.7833406    951.99658  0.022499446  0.021725134           29 
 3527000   0.68184386   -6.7634283    954.63008   0.02255529   0.02171825           13 
 3528000   0.67265331   -6.7481191    956.04466   0.02258231  0.021711383           17 
 3529000   0.67143776   -6.7589534    955.62474  0.022565995  0.021704545           12 
 3530000   0.67933772   -6.7665919    955.28232  0.022551518  0.021697721           55 
 3531000    0.6952521   -6.7632746    952.46648  0.022478676  0.021690822           36 
 3532000   0.68775891   -6.7722314    952.33597  0.022469233  0.021683938           25 
 3533000   0.68335865   -6.7537902    953.50201  0.022490377  0.021677058           26 
 3534000   0.68452035   -6.7985282    953.29612  0.022479158  0.021670173           25 
 3535000   0.68694039    -6.756101    956.36949   0.02254525  0.021663299           18 
 3536000   0.66667547   -6.7680949    954.38975  0.022492217  0.021656422            9 
 3537000     0.688397   -6.8087683    952.66343  0.022445185  0.021649535           23 
 3538000   0.70397627   -6.7733652    954.52954  0.022482795  0.021642681           34 
 3539000    0.6857959   -6.7613694    954.08988  0.022466089  0.021635828           13 
 3540000   0.67031699   -6.7770803    953.55402  0.022447128  0.021628951            9 
 3541000     0.690643    -6.770932    956.00662  0.022498508    0.0216221           14 
 3542000   0.68952299   -6.7872209     953.0684  0.022423028  0.021615252           10 
 3543000   0.68224292   -6.7744177    952.37286   0.02240034    0.0216084           16 
 3544000   0.69132622   -6.7844092    953.57147  0.022422204  0.021601554            7 
 3545000   0.66478738   -6.7776598    955.70258  0.022465975  0.021594731            8 
 3546000   0.68501915   -6.7726975    954.88965  0.022440535  0.021587902           18 
 3547000   0.67176201   -6.7709876    954.12832  0.022416322  0.021581048            9 
 3548000   0.69578042   -6.7882442    954.44673  0.022417482  0.021574182           29 
 3549000   0.66858136    -6.811732    951.75025   0.02234785   0.02156729           26 
 3550000   0.69175474   -6.8178865    950.62113   0.02231505  0.021560394           27 
 3551000       0.6693    -6.797946    951.68403  0.022333709  0.021553485           24 
 3552000   0.69413611   -6.8069898     951.8601  0.022331553  0.021546591           20 
 3553000   0.69957965   -6.8177431    950.57855   0.02229521  0.021539683           36 
 3554000   0.67090277   -6.7904695    952.29195  0.022329112  0.021532787           25 
 3555000   0.68357243    -6.801878    952.08994  0.022318095  0.021525899           40 
 3556000   0.67996267   -6.7794351    953.41516  0.022342875  0.021519012           36 
 3557000   0.68078832   -6.7941574    952.83055  0.022322897  0.021512116           41 
 3558000   0.69947378   -6.7906848    953.18707  0.022324974  0.021505254           64 
 3559000   0.67355666   -6.7787309    952.47445  0.022302015  0.021498389           32 
 3560000   0.70248732   -6.7990201    953.40371  0.022317503  0.021491499           46 
 3561000   0.67147092   -6.7790196    955.16961   0.02235256  0.021484634           69 
 3562000   0.67336633   -6.7689835    954.37448  0.022327683  0.021477782           33 
 3563000   0.69022754   -6.7868515    954.92237  0.022334231  0.021470951           34 
 3564000   0.68237179   -6.7731541    953.75126  0.022300581  0.021464107           47 
 3565000   0.68086538    -6.789554    952.48867  0.022264812  0.021457279           18 
 3566000   0.69335638   -6.7826076    954.80444  0.022312685  0.021450471           27 
 3567000   0.68573453   -6.7575281    956.54343  0.022347057  0.021443652           55 
 3568000   0.67539827   -6.7796302    954.54935  0.022294221  0.021436868           16 
 3569000   0.67824581   -6.7893726    954.07209   0.02227683  0.021430063           33 
 3570000   0.67688083    -6.792327    955.48591  0.022303593  0.021423261           22 
 3571000   0.68918616   -6.7803647    954.26769  0.022268918  0.021416471           30 
 3572000   0.68757996   -6.7580158    954.27933  0.022262956  0.021409693           14 
 3573000   0.67987384   -6.7763194    955.10485  0.022275978  0.021402917           22 
 3574000    0.6724336   -6.7893207    954.89326  0.022264812  0.021396124           17 
 3575000   0.68783248   -6.7986388    952.67883  0.022206966  0.021389331           11 
 3576000   0.67540162   -6.7839215    955.57907  0.022268341  0.021382561           26 
 3577000   0.68047523   -6.8087037    955.99692  0.022271851   0.02137578           12 
 3578000   0.67730262   -6.7898289    953.59723  0.022209736  0.021369011           11 
 3579000   0.68008397   -6.8133714    955.29697  0.022243107  0.021362213           20 
 3580000   0.66833026   -6.7675086    953.44068  0.022193684  0.021355409           13 
 3581000   0.68072105   -6.7822488    955.97549  0.022246474  0.021348626           15 
 3582000   0.68675553   -6.8151822    954.10733  0.022196802  0.021341856           18 
 3583000   0.68400816   -6.7959479    953.76823   0.02218272  0.021335052           22 
 3584000   0.67187247   -6.7889017    952.45254  0.022145939   0.02132828           31 
 3585000   0.67761551   -6.7720772    956.63859  0.022237066  0.021321541           15 
 3586000   0.67795469    -6.775657    954.76854  0.022187408  0.021314821           52 
 3587000   0.68911188   -6.7633751    954.72434  0.022180196  0.021308087           26 
 3588000   0.67567345   -6.8014209    952.37657  0.022119485  0.021301354           16 
 3589000   0.67275008   -6.7854402     956.0368   0.02219831  0.021294612           11 
 3590000   0.66791617   -6.7940786    953.65914  0.022136935  0.021287886           15 
 3591000    0.6806888   -6.8098256    951.12608  0.022071987  0.021281143           32 
 3592000   0.67729607   -6.8057462    954.26738   0.02213872  0.021274398           14 
 3593000   0.68455111   -6.7910146    953.89471  0.022123915  0.021267639           25 
 3594000   0.66377087   -6.8002637    954.25636  0.022126145  0.021260894           19 
 3595000   0.67789192   -6.8050503     955.2179  0.022142279  0.021254125           14 
 3596000   0.67978574   -6.8154253    954.14343  0.022111222  0.021247339           17 
 3597000   0.67765363   -6.8274362    954.20177  0.022106426  0.021240559           20 
 3598000    0.6841822   -6.8279993    953.50933  0.022084244  0.021233798           18 
 3599000   0.67196781   -6.8159059    954.71976  0.022106135  0.021227031           14 
 3600000   0.67718113   -6.7937364    955.29327   0.02211327  0.021220274           25 
 3601000   0.66292485   -6.7722869    956.50184  0.022135098  0.021213533           13 
 3602000    0.6700433   -6.7826568    955.06401  0.022095688  0.021206808           19 
 3603000   0.67368396   -6.7664055    954.47268  0.022075878  0.021200076           20 
 3604000   0.66260897   -6.7795126    957.58162  0.022141639  0.021193393           12 
 3605000    0.6919694   -6.8094572    955.09475  0.022078011  0.021186678           16 
 3606000   0.68730114   -6.8084574    953.62066  0.022037823  0.021179944           12 
 3607000   0.67619876   -6.8129846    954.11983  0.022043245  0.021173215           15 
 3608000   0.66623807   -6.7934237    955.02597  0.022058065  0.021166523           16 
 3609000   0.67541654    -6.817198    956.24244  0.022080042  0.021159826           31 
 3610000   0.67923511   -6.8310377    954.75325  0.022039549  0.021153131           18 
 3611000   0.68103499   -6.8178139    953.89074  0.022013541  0.021146428           16 
 3612000   0.67074518   -6.8130385    953.42369  0.021996671    0.0211397           14 
 3613000   0.65648361   -6.7980397    955.30482   0.02203397  0.021132998           10 
 3614000   0.68048859   -6.7781654    956.48091  0.022054992  0.021126295           12 
 3615000   0.67483703   -6.8062841    956.20593  0.022042553  0.021119613           10 
 3616000   0.66724101   -6.7746947    958.18407  0.022082044  0.021112941           12 
 3617000    0.6782961   -6.7882194    957.70835  0.022064979  0.021106277           12 
 3618000    0.6754896   -6.7835446    957.69995  0.022058687  0.021099631           22 
 3619000   0.66916412    -6.781805    957.89988  0.022057195  0.021092991           27 
 3620000   0.67677224   -6.7958916     958.3161  0.022060684  0.021086346           19 
 3621000   0.66263182    -6.821241     954.9002  0.021975978  0.021079681           21 
 3622000    0.6623027   -6.7976054     954.0997  0.021951493   0.02107301           26 
 3623000   0.66925811   -6.8112057    955.09572  0.021968344   0.02106633           24 
 3624000   0.67474217   -6.8031146    956.13721  0.021986231  0.021059657           31 
 3625000   0.67830953   -6.8088352    955.35403  0.021962162  0.021052986           45 
 3626000   0.68364741   -6.8344373     953.9581  0.021924023   0.02104633           51 
 3627000   0.68084586   -6.8055972    954.69295  0.021934862  0.021039657           16 
 3628000   0.67696548   -6.8185123    956.05129  0.021960017   0.02103298           44 
 3629000    0.6645655   -6.7932178    957.07133  0.021977389  0.021026329           48 
 3630000   0.66143058   -6.8193732       954.85   0.02192034  0.021019674           76 
 3631000   0.66434718   -6.8240563    955.64955  0.021932653  0.021013005           82 
 3632000   0.66517047    -6.823488    954.94597  0.021910471  0.021006345           81 
 3633000   0.66376999   -6.8270175    952.42857  0.021846696  0.020999671           67 
 3634000   0.65946029   -6.8116661    955.76206  0.021917127  0.020992997           69 
 3635000   0.67226421   -6.8403757    955.19522  0.021898102  0.020986315           37 
 3636000   0.65915666   -6.7989333    956.71486  0.021926908  0.020979664           42 
 3637000   0.67627495   -6.8491068    954.10136  0.021860997  0.020973013           90 
 3638000   0.67572836   -6.8279918    953.69693  0.021845724  0.020966322           40 
 3639000   0.66020157   -6.8306884    953.96677    0.0218459   0.02095965           34 
 3640000   0.67582368   -6.8268684    955.71767  0.021879983   0.02095298           67 
 3641000   0.66879086   -6.8366791    954.96673  0.021856787  0.020946322           69 
 3642000   0.68382171   -6.8296823     956.6777  0.021889934  0.020939659           64 
 3643000   0.66521474   -6.8314804    954.36373  0.021830994  0.020933013           90 
 3644000   0.68092028   -6.8342714    956.49158  0.021873664  0.020926333           39 
 3645000   0.65794281   -6.8238525    954.74972   0.02182784  0.020919674           20 
 3646000   0.67704163   -6.8325761    954.84092  0.021823938  0.020913017           53 
 3647000   0.67252516   -6.8437269    954.43837  0.021808755  0.020906371          145 
 3648000   0.67159156   -6.8174723    958.07274  0.021885799  0.020899732           28 
 3649000   0.65550504   -6.8259679    953.47192  0.021774731  0.020893096           71 
 3650000   0.65878002   -6.8204201    955.31742    0.0218109  0.020886452           52 
 3651000   0.67876186    -6.831143    956.27283  0.021826733  0.020879805           51 
 3652000   0.65630984   -6.8517604    953.94917  0.021767734  0.020873141           89 
 3653000   0.67776042   -6.8491883     955.4024  0.021794927  0.020866476          112 
 3654000   0.66071227   -6.8378341    955.84452  0.021799045  0.020859844          102 
 3655000   0.65943116    -6.833643    957.94623  0.021840999  0.020853216           96 
 3656000   0.67169188   -6.8238098    954.42815  0.021754836  0.020846557          116 
 3657000   0.64754596   -6.8474689    954.25926  0.021745038  0.020839906          173 
 3658000   0.65741445   -6.8037691    954.30963  0.021740241  0.020833256           86 
 3659000   0.66319222   -6.8071041     956.5196  0.021784632   0.02082662           80 
 3660000   0.65217276   -6.8325097     952.8033  0.021694064  0.020819977          123 
 3661000   0.65331801    -6.852949    952.95942  0.021691692  0.020813318          124 
 3662000   0.65587433   -6.8571746    954.82695  0.021728267  0.020806645          119 
 3663000   0.65840859   -6.8299376    953.92717  0.021701865  0.020799998          138 
 3664000   0.66469597   -6.8235094    954.06125  0.021698991   0.02079334          107 
 3665000    0.6734324   -6.8425507    954.12192   0.02169445  0.020786707           78 
 3666000   0.65353163   -6.8221469    956.85223  0.021750596  0.020780051          138 
 3667000   0.67498214   -6.8213261    955.47746  0.021713423  0.020773419          112 
 3668000    0.6679271   -6.8050226    955.24957  0.021702326  0.020766772           97 
 3669000   0.68076268   -6.8294151    953.46575  0.021655895  0.020760117           97 
 3670000   0.67447924    -6.850867    953.28661  0.021645927   0.02075346          156 
 3671000   0.66541828   -6.8600633    956.30302  0.021708504  0.020746797          156 
 3672000   0.65556831   -6.8682052    952.82404  0.021623639  0.020740118          172 
 3673000   0.65734059   -6.8415116    953.44375  0.021631812   0.02073343          153 
 3674000   0.67160677   -6.8334855    955.00317  0.021661295  0.020726777          119 
 3675000   0.65801599   -6.8544753    955.50734  0.021666833  0.020720106          132 
 3676000   0.66152735    -6.856683    952.49038  0.021592546  0.020713444          109 
 3677000   0.67388463   -6.8511723    955.09888  0.021645791  0.020706771          145 
 3678000   0.66150323   -6.8423376    955.01047  0.021637903  0.020700102          133 
 3679000   0.65967569   -6.8520095    954.23376  0.021614428  0.020693405          147 
 3680000   0.67099452   -6.8588433    954.87815  0.021623146  0.020686714          244 
 3681000   0.64211562   -6.8721269    954.37947  0.021605983  0.020680029          180 
 3682000   0.66643988   -6.8465277    954.99465  0.021614038  0.020673349          172 
 3683000   0.66291942   -6.8553323    952.27478  0.021546628  0.020666682          128 
 3684000   0.66392803   -6.8264564    956.31123  0.021632085  0.020660025          117 
 3685000   0.65934172   -6.8740055    953.99698   0.02157388  0.020653364          121 
 3686000   0.69159255   -6.8561894    952.26344  0.021528835   0.02064669          132 
 3687000   0.65624663   -6.8547454    951.98787  0.021516768  0.020640007          111 
 3688000   0.65581265   -6.8542521    952.82245  0.021529792  0.020633333          158 
 3689000   0.66727246   -6.8583431    953.91475   0.02154863  0.020626653          180 
 3690000   0.66272441   -6.8758593    952.15657  0.021503084  0.020619989          148 
 3691000   0.64824371    -6.855905    954.26389  0.021544836  0.020613341           89 
 3692000   0.64476911   -6.8348252    953.75689  0.021527557  0.020606688          109 
 3693000   0.67344338   -6.8361374    954.49195  0.021538315  0.020600092          113 
 3694000   0.66903023   -6.8503502    953.23181  0.021504056  0.020593477          117 
 3695000   0.65898293   -6.8428667    955.43707  0.021547972  0.020586865          120 
 3696000   0.65719365   -6.8508141    953.72907  0.021503632  0.020580242           94 
 3697000   0.66630695   -6.8600963    952.84595  0.021477909  0.020573605          116 
 3698000   0.65481057   -6.8717276    953.59647  0.021489014  0.020566962          115 
 3699000   0.65735922   -6.9010957    951.43556  0.021434522  0.020560312          127 
 3700000   0.64884358   -6.8528282    952.53541    0.0214535  0.020553654          125 
 3701000   0.65769532   -6.8619173     952.1679  0.021439428   0.02054701          133 
 3702000   0.64019158   -6.8398157    952.14249  0.021433065   0.02054038          114 
 3703000   0.66861643   -6.8473745    956.18865  0.021518333  0.020533759           83 
 3704000   0.66160156   -6.8747513    955.46457  0.021496233  0.020527133           70 
 3705000   0.66830703   -6.8584787    951.99875  0.021412477  0.020520506           72 
 3706000   0.66891701   -6.8281544    955.30868  0.021481127  0.020513888           53 
 3707000   0.65816266   -6.8572751     953.6256  0.021437497  0.020507278           54 
 3708000   0.68234159   -6.8446031    952.40638  0.021404315  0.020500662           54 
 3709000   0.65747236   -6.8495065    956.75694  0.021496291  0.020494051           73 
 3710000   0.63453463   -6.8578233    953.02137   0.02140659  0.020487456           30 
 3711000   0.65399951    -6.826959    955.85657  0.021464488  0.020480845           41 
 3712000   0.66293227   -6.8068394    956.48593  0.021472834  0.020474245           77 
 3713000   0.66865081   -6.8460934    954.01925   0.02141169  0.020467666           76 
 3714000   0.64984533   -6.8526338    953.08561  0.021384976  0.020461072           91 
 3715000   0.64887486   -6.8640338    952.42296  0.021364355  0.020454469           62 
 3716000   0.66251937   -6.8368385    952.37353  0.021357497  0.020447878          100 
 3717000   0.66369537   -6.8558788      955.451  0.021420747    0.0204413           98 
 3718000   0.66379743    -6.861454    951.64929  0.021329776  0.020434706           97 
 3719000   0.65504773    -6.854928    954.41753   0.02138607  0.020428118           95 
 3720000   0.64629601   -6.8658289    953.61444  0.021362331  0.020421538           69 
 3721000    0.6625463   -6.8678974    953.76966  0.021360066  0.020414958          143 
 3722000   0.64647266   -6.8732883    952.52204  0.021326394  0.020408361           68 
 3723000   0.64316059   -6.8566677    956.45176  0.021408626  0.020401804           78 
 3724000   0.66243523   -6.8596008    953.71367  0.021341606  0.020395235           43 
 3725000   0.64832929   -6.8536901    952.37464   0.02130592  0.020388664           41 
 3726000   0.65615701   -6.8574275    952.44728  0.021301827  0.020382105           58 
 3727000    0.6622983    -6.873418    953.02643  0.021309061  0.020375579           55 
 3728000   0.66409153   -6.8369826    954.29746  0.021331757  0.020369004           53 
 3729000   0.65982303    -6.875687    953.58503  0.021310115  0.020362448           39 
 3730000   0.65841855   -6.8598511    953.19476  0.021295683  0.020355889           47 
 3731000   0.65218192   -6.8632767    954.81321  0.021326124  0.020349317           64 
 3732000   0.66186417   -6.8638862      954.789  0.021319869  0.020342749           64 
 3733000   0.66494796   -6.8604184    953.06358   0.02127564  0.020336183           30 
 3734000   0.66430383   -6.8431814    954.57101  0.021303584  0.020329626           18 
 3735000    0.6576442   -6.8446753    953.91481   0.02128324  0.020323083           16 
 3736000   0.64986291   -6.8899606    953.45832  0.021267361  0.020316532           22 
 3737000   0.65988815   -6.8730396    954.19853  0.021278176   0.02030999           45 
 3738000   0.65218679   -6.8515083    953.66742  0.021260643   0.02030347           17 
 3739000   0.65270862   -6.8586741    954.38378  0.021270923  0.020296922           35 
 3740000   0.66016167   -6.8470149    954.62073  0.021270515  0.020290389           27 
 3741000   0.63676032   -6.8575429    954.04214  0.021251941  0.020283851           20 
 3742000   0.65212847   -6.8711244    952.83183  0.021219308  0.020277306            9 
 3743000   0.63178461   -6.8774664    951.43947   0.02118264  0.020270748           29 
 3744000   0.66841833   -6.8743144    952.06568  0.021190921  0.020264173           35 
 3745000    0.6463144   -6.8730362    950.59105  0.021152449  0.020257616           28 
 3746000   0.65777016   -6.8845641     952.5252  0.021189829  0.020251052           29 
 3747000    0.6447047   -6.8808094    950.89744  0.021147973  0.020244488           18 
 3748000    0.6546922   -6.8859322     952.4368  0.021176556  0.020237929           38 
 3749000   0.65736951   -6.8939342    953.27871  0.021189622  0.020231368           39 
 3750000   0.65551013   -6.8730028    953.02443  0.021178321  0.020224815           33 
 3751000   0.66203465   -6.8786395    955.33681  0.021224047  0.020218265           50 
 3752000   0.65917626   -6.8994294    953.70317  0.021182107  0.020211735           31 
 3753000    0.6585516   -6.8817911    952.70841  0.021154375  0.020205177           29 
 3754000   0.65272405   -6.8911886    951.89122  0.021130599  0.020198619           35 
 3755000   0.66191199   -6.8722379    952.89561  0.021147262  0.020192053           54 
 3756000   0.65399478   -6.8879183    954.33408  0.021173546  0.020185491           55 
 3757000   0.65849855   -6.8822452    952.68715   0.02113138  0.020178915          104 
 3758000   0.65864144   -6.9001874    950.48708  0.021076971  0.020172337           67 
 3759000   0.65046849   -6.9008202    950.64119   0.02107478  0.020165761          101 
 3760000   0.65196465   -6.9015923    952.20319  0.021103794  0.020159172           57 
 3761000   0.65110814   -6.9123534    951.68342  0.021086666  0.020152609           47 
 3762000   0.65524104   -6.9136624     953.3193  0.021117298  0.020146036           73 
 3763000   0.63834338   -6.8863531    952.46323  0.021092728  0.020139497           56 
 3764000   0.64889387   -6.8842539    953.62685  0.021112886  0.020132969           57 
 3765000   0.64271433   -6.8625157    953.89314  0.021113173  0.020126436           56 
 3766000   0.65776807   -6.8874839    953.70887  0.021103489  0.020119932           40 
 3767000   0.64108073    -6.882686     953.5245  0.021093808  0.020113449           82 
 3768000   0.65509068   -6.8796154     954.4962    0.0211097  0.020106963           91 
 3769000   0.64681173   -6.8905909    954.31039  0.021099991   0.02010049           58 
 3770000   0.64439678   -6.8741716    953.38744  0.021073993  0.020093987           59 
 3771000   0.65817051   -6.8752428    953.31844   0.02106688  0.020087471          102 
 3772000   0.64985876   -6.8906124    952.95414  0.021053246   0.02008097           51 
 3773000   0.63830212   -6.8893337    954.00652   0.02107091  0.020074453           60 
 3774000   0.65550849   -6.8997883    953.44873   0.02105301  0.020067952           33 
 3775000   0.65400744   -6.8769662    954.28741  0.021065947  0.020061441          130 
 3776000   0.65341801   -6.9080011    950.45893  0.020975877  0.020054958           56 
 3777000    0.6513648    -6.894315    954.50999  0.021059703  0.020048479           56 
 3778000   0.64985314   -6.8881384    952.07004   0.02100031  0.020042001           43 
 3779000   0.65999036   -6.8793241    952.74948  0.021009735   0.02003552           56 
 3780000   0.65386988   -6.9188444    953.26081   0.02101545  0.020029042           86 
 3781000   0.65510888   -6.8800571    954.21996  0.021031032  0.020022582           83 
 3782000   0.66128123    -6.898228    953.46688  0.021008877  0.020016102           93 
 3783000   0.64855851   -6.9218028     953.6114  0.021006507  0.020009618           63 
 3784000   0.64089492   -6.8996185    954.26418  0.021015332  0.020003125           68 
 3785000   0.64232988   -6.9210955    949.56127  0.020906237  0.019996614           48 
 3786000   0.65818738   -6.9091068    952.15544  0.020957815  0.019990119           84 
 3787000   0.63673553   -6.9085233    955.38684  0.021023388  0.019983628           52 
 3788000   0.63769307   -6.9210416    950.31393  0.020906238  0.019977134           40 
 3789000   0.64977753     -6.91749    951.74357  0.020932163  0.019970643          134 
 3790000   0.64727106   -6.9118168    953.91099  0.020974296  0.019964136           47 
 3791000   0.64119883    -6.909148    952.27509  0.020932803  0.019957647          110 
 3792000    0.6414217   -6.9301941    953.18807  0.020947347  0.019951155           21 
 3793000   0.64788147   -6.9202473    953.68494  0.020952741  0.019944657          167 
 3794000   0.65832925   -6.9254544    952.56541  0.020922628  0.019938152          119 
 3795000   0.63972707   -6.9344015    951.55695   0.02089497  0.019931628           76 
 3796000    0.6474339   -6.9159355    950.88268  0.020874664  0.019925112           54 
 3797000   0.64463671   -6.9306644    951.30491  0.020878433  0.019918579          103 
 3798000   0.66176166   -6.9517268    950.31217  0.020851153  0.019912061           44 
 3799000   0.64584757   -6.9197223    952.49626  0.020893574  0.019905539          177 
 3800000   0.64621535   -6.9106189    954.41296  0.020930109  0.019899029           74 
 3801000   0.63408275   -6.9205033    951.88593    0.0208692  0.019892538           70 
 3802000   0.65338327   -6.9185614    951.65074  0.020858555  0.019886047           93 
 3803000   0.64519213   -6.9031225    954.29169  0.020910941  0.019879559           75 
 3804000   0.64024533   -6.9341918    953.52753  0.020888703  0.019873078          114 
 3805000   0.66252912   -6.9275431    951.85841  0.020846658  0.019866599           74 
 3806000   0.64686552   -6.9244124    952.15248   0.02084762  0.019860108           60 
 3807000   0.63380578    -6.941998    952.00822  0.020838986  0.019853607           81 
 3808000   0.64322772   -6.9185582      952.221   0.02083817  0.019847113           65 
 3809000   0.63821584   -6.9329078    951.48285   0.02081655   0.01984062           74 
 3810000   0.64253048   -6.9217574    954.46962  0.020876413  0.019834134           77 
 3811000   0.65115998   -6.9099146    952.72417  0.020832768  0.019827663           97 
 3812000   0.62887719   -6.9230013    951.83561  0.020807879  0.019821193           25 
 3813000   0.64701258    -6.918923    953.40939  0.020836817  0.019814739           53 
 3814000   0.65023572   -6.9170505    953.07761  0.020824104  0.019808275           71 
 3815000   0.63968624   -6.9307392    952.28057  0.020801236  0.019801797           51 
 3816000   0.63179761   -6.8892937    953.68554  0.020826466  0.019795357           45 
 3817000   0.64048705   -6.9068145    954.30736  0.020834586  0.019788921           29 
 3818000   0.64187473   -6.9072482    952.46958  0.020789016  0.019782485           29 
 3819000   0.65918043   -6.9154527    952.12967  0.020776156   0.01977603           77 
 3820000   0.64450001   -6.9292178    952.11077  0.020770305  0.019769585           51 
 3821000   0.63866339   -6.9185122    953.51899  0.020795581  0.019763168           31 
 3822000   0.63040702    -6.884564    952.67705  0.020771783  0.019756741           43 
 3823000   0.64813658    -6.908747    952.64798  0.020765716  0.019750309           37 
 3824000   0.63527295   -6.8967028    955.52448  0.020822971  0.019743891           51 
 3825000   0.64341834   -6.8898495    954.63147  0.020798071  0.019737495           24 
 3826000    0.6412313   -6.8953571    954.09805  0.020781017   0.01973112           26 
 3827000   0.64676008   -6.9272218    955.05072  0.020796331  0.019724735           45 
 3828000   0.64809357   -6.9057111    953.31158  0.020753039  0.019718347           35 
 3829000   0.63666592   -6.9273266    951.10723  0.020699644  0.019711932           55 
 3830000   0.64720576   -6.9198868    951.79889  0.020709288  0.019705514           20 
 3831000   0.63548741   -6.9232139     952.3655  0.020716208  0.019699086           75 
 3832000    0.6478912   -6.8982709    953.14527  0.020727759  0.019692674           34 
 3833000   0.64176408   -6.8926139    952.93187  0.020717712  0.019686297           46 
 3834000   0.65081148   -6.9040015    953.47433  0.020724099  0.019679895           49 
 3835000   0.64567174   -6.9192467    953.47303  0.020718666  0.019673501           61 
 3836000   0.63515601   -6.9099131    952.18776  0.020685344  0.019667081           40 
 3837000   0.64463655   -6.9194452    952.65914  0.020690191  0.019660661           63 
 3838000   0.63845055   -6.9237278    952.81616  0.020688209  0.019654252           95 
 3839000   0.64272533   -6.8968281    954.37791  0.020716721  0.019647854           42 
 3840000   0.63610364    -6.936038     951.3441  0.020645488  0.019641435           66 
 3841000   0.63049547   -6.9183623    953.27741  0.020682058  0.019635028           50 
 3842000   0.64307285   -6.9309564    953.68138  0.020685437  0.019628646           70 
 3843000   0.63751698   -6.9248631    951.82093  0.020639711  0.019622244           44 
 3844000   0.63234979   -6.9161177    950.80879    0.0206124  0.019615836           50 
 3845000   0.64643904   -6.9285705    950.19011  0.020593631  0.019609435           77 
 3846000   0.64940246   -6.9328996     952.3256  0.020634547   0.01960303          150 
 3847000   0.63771379   -6.9461905     951.6655  0.020614884  0.019596628          177 
 3848000    0.6288686   -6.9272401    952.48666   0.02062731  0.019590233          107 
 3849000   0.63466679   -6.9374319    952.28232  0.020617527  0.019583829          108 
 3850000   0.64552042   -6.9269957     954.5853  0.020662019  0.019577427           88 
 3851000   0.64450934   -6.9244066    954.07245  0.020645556  0.019571048           65 
 3852000   0.63757595   -6.9357573    953.70614  0.020632272  0.019564696           41 
 3853000   0.63720175   -6.9099847    953.38747  0.020620025   0.01955833           55 
 3854000   0.64370234   -6.9096737    950.49811  0.020552199  0.019551971           66 
 3855000   0.62839702   -6.9154343    950.86273   0.02055475  0.019545623           34 
 3856000   0.64140236   -6.9256749     952.2384  0.020579149  0.019539253           49 
 3857000   0.63905781   -6.9189776     952.7245  0.020584316  0.019532894           41 
 3858000   0.62755528   -6.9406641    952.73757  0.020579263  0.019526543           57 
 3859000   0.63591779   -6.9232949     953.5357  0.020591166   0.01952018           49 
 3860000   0.63990856    -6.948064    950.74155  0.020525508  0.019513824           75 
 3861000   0.63435046   -6.9253897    952.92342  0.020567284  0.019507476           85 
 3862000   0.63506176   -6.9332336    953.90745  0.020583192  0.019501127          132 
 3863000   0.62323462    -6.938117    952.41912  0.020545757  0.019494765          128 
 3864000   0.63478124   -6.9341908    951.33728  0.020517108  0.019488408           66 
 3865000   0.63330122   -6.9339968    952.06348  0.020527457  0.019482054           89 
 3866000   0.62126736   -6.9419578    953.59637   0.02055519  0.019475692           77 
 3867000   0.63301899   -6.9509815    951.17459  0.020497685  0.019469324           78 
 3868000   0.63939656   -6.9533447      953.289  0.020537939  0.019462964           69 
 3869000    0.6267529   -6.9497252    951.50702   0.02049425  0.019456606           87 
 3870000   0.63037324   -6.9257167    954.15094  0.020545886  0.019450245           73 
 3871000   0.62422927   -6.9358513     952.6543  0.020508359  0.019443894          106 
 3872000   0.62276601   -6.9429783    951.11424  0.020469917  0.019437545           96 
 3873000   0.63438741   -6.9426048    950.55287  0.020452553  0.019431183          140 
 3874000   0.63630486   -6.9369141    952.83884  0.020496447  0.019424833          220 
 3875000   0.63482491   -6.9477946     951.9951  0.020473013  0.019418478          177 
 3876000   0.61969916   -6.9435988    951.80363  0.020463614  0.019412134          209 
 3877000   0.62336116   -6.9522334    953.95376  0.020504552  0.019405788          172 
 3878000   0.63653841   -6.9628866    950.89332  0.020433499  0.019399443          254 
 3879000   0.62302783   -6.9381975    951.63055   0.02044407   0.01939311          218 
 3880000    0.6283865   -6.9575896    952.66665  0.020461054  0.019386763          123 
 3881000   0.63694353   -6.9672296    952.13303  0.020444323   0.01938041          180 
 3882000   0.62738122   -6.9548328    951.80218  0.020431955  0.019374087          267 
 3883000   0.64450623   -6.9357969    953.60271  0.020465334   0.01936779          196 
 3884000   0.64306089   -6.9162847    953.01215  0.020447394  0.019361504          267 
 3885000   0.63034618   -6.9312492     955.3452  0.020492175  0.019355208           88 
 3886000   0.63632136   -6.9681275    952.07499  0.020416774  0.019348909          114 
 3887000    0.6381049   -6.9279869    952.36057  0.020417644  0.019342597           84 
 3888000   0.63197905   -6.9702905    949.39245  0.020348775  0.019336289          154 
 3889000   0.63712942   -6.9175711    950.56091   0.02036858  0.019329999           55 
 3890000   0.63403153   -6.9312897    951.90978   0.02039224  0.019323704           78 
 3891000   0.62453002   -6.9409708    953.48521   0.02042074  0.019317414           58 
 3892000    0.6356209   -6.9357728     954.9655  0.020447189  0.019311132          181 
 3893000   0.61879718   -6.9590787     952.7391  0.020394278   0.01930484          181 
 3894000   0.62146794   -6.9534139    952.69042  0.020387999  0.019298561          109 
 3895000   0.60925939   -6.9562568    951.09629  0.020348658   0.01929228           95 
 3896000   0.63200482   -6.9392143    955.19295  0.020431061  0.019286018          153 
 3897000   0.62998804   -6.9545474    952.57512  0.020369838  0.019279761          116 
 3898000   0.60919825   -6.9665734    953.99541  0.020394976  0.019273502          181 
 3899000   0.63561704   -6.9443394     952.4116  0.020355895  0.019267239          132 
 3900000   0.62839204    -6.928991    952.66242  0.020356035  0.019260971          220 
 3901000   0.61688147   -6.9474976    953.70739  0.020373139  0.019254719          233 
 3902000    0.6264829   -6.9459294    953.92649  0.020372597  0.019248477           95 
 3903000   0.62841362   -6.9359661    951.85715  0.020323195  0.019242249          122 
 3904000   0.62707666   -6.9428505    954.32996  0.020370773   0.01923602          113 
 3905000   0.62816984     -6.95126    951.80735  0.020311723   0.01922978          121 
 3906000   0.61808464   -6.9648512    953.66724  0.020346203  0.019223551          131 
 3907000   0.62431771   -6.9296232    953.87658  0.020345461   0.01921732           98 
 3908000   0.62602484   -6.9495344    951.86522  0.020297365  0.019211074          180 
 3909000   0.63244866   -6.9625023    952.66819   0.02030929   0.01920483          133 
 3910000   0.62706059   -6.9671656     953.8691  0.020329691  0.019198579           70 
 3911000   0.62819329   -6.9546838    952.16352  0.020288151  0.019192348           86 
 3912000    0.6340617   -6.9742762     953.0274  0.020301367  0.019186124           52 
 3913000   0.60740025   -6.9585838     954.0135   0.02031718  0.019179879           92 
 3914000   0.62681025   -6.9536597    953.28683  0.020296517  0.019173646           75 
 3915000   0.63365284   -6.9626128    952.95958  0.020284367    0.0191674           32 
 3916000   0.62049059   -6.9734369    952.62878  0.020272148   0.01916117           97 
 3917000   0.62870431   -6.9785098    950.92093  0.020230638  0.019154915          106 
 3918000   0.62226692   -6.9688893    951.52832  0.020238394  0.019148663           86 
 3919000   0.61488196    -6.958171    953.82012  0.020281962  0.019142422          139 
 3920000   0.62537291    -6.966628    953.51183  0.020270234  0.019136185          148 
 3921000   0.62746178   -6.9592078    953.33794  0.020261369  0.019129946          109 
 3922000   0.61044698   -6.9423774    952.04825    0.0202288  0.019123714           76 
 3923000   0.60648651   -6.9465553    952.73426  0.020238216  0.019117485          145 
 3924000   0.63029465   -6.9527121    953.56086  0.020250613  0.019111259          110 
 3925000   0.62455357   -6.9520709    952.65776  0.020226279  0.019105038          172 
 3926000   0.62078514   -6.9385609     952.6848  0.020221702  0.019098806          173 
 3927000   0.63114088   -6.9555587     952.9977  0.020223192  0.019092573          137 
 3928000   0.61777907   -6.9638115    953.19148  0.020222155  0.019086348          175 
 3929000   0.60355727   -6.9718732     950.8873  0.020168136  0.019080118          172 
 3930000   0.62474811   -6.9567802    952.74504  0.020202397  0.019073876           80 
 3931000   0.62901699   -6.9951839    952.60977   0.02019439  0.019067658          138 
 3932000   0.61361821   -6.9584506     952.6794   0.02019073  0.019061444          161 
 3933000   0.62068681   -6.9816252    953.15924  0.020195763  0.019055213          121 
 3934000   0.62756179    -6.968555    953.42793  0.020196321  0.019048979           81 
 3935000   0.61953822   -6.9859827    951.59272  0.020152324  0.019042734          121 
 3936000   0.61791352   -6.9594605    954.60541  0.020210988  0.019036512          163 
 3937000   0.63662486   -6.9600325    951.52296   0.02014061  0.019030285          177 
 3938000   0.61691337     -6.96365     951.8475  0.020142363  0.019024043          182 
 3939000   0.60948065   -6.9640639    951.85181   0.02013734   0.01901781           99 
 3940000   0.63533385   -6.9703803    952.84753   0.02015329  0.019011589          134 
 3941000   0.61877161    -6.971575    952.43124  0.020139373  0.019005378          134 
 3942000   0.62059211    -6.974967    951.59519   0.02011659   0.01899916           98 
 3943000    0.6102845   -6.9643897    950.75328  0.020093695  0.018992949           93 
 3944000   0.61993301   -6.9926264     951.1613  0.020097222  0.018986735          157 
 3945000   0.62898567   -6.9852161    951.45617  0.020098356  0.018980533           98 
 3946000   0.60871051   -6.9727448    952.52811    0.0201159  0.018974338          217 
 3947000   0.60658851   -6.9615331    952.64946  0.020113366  0.018968158          213 
 3948000   0.63519134   -6.9618466     952.2425  0.020099681  0.018961972          116 
 3949000   0.62986875   -6.9670218    953.75137  0.020126432  0.018955811          106 
 3950000   0.61129003   -6.9636346    951.13202  0.020066076  0.018949614           84 
 3951000   0.61435328   -6.9860373    952.71562  0.020094398  0.018943425          173 
 3952000   0.62484225   -6.9636853    952.95982  0.020094463  0.018937227          118 
 3953000   0.60493739    -6.993151    951.15299   0.02005129  0.018931032           74 
 3954000   0.61991985   -6.9734957    950.96454  0.020042247  0.018924831          148 
 3955000   0.60998358   -6.9805497    952.86289  0.020077178  0.018918638          175 
 3956000   0.61665963   -6.9740853    951.95411   0.02005296  0.018912456           71 
 3957000   0.63189472   -6.9736915    951.83509  0.020045386  0.018906282           93 
 3958000   0.60825887   -6.9899324    951.16535   0.02002622  0.018900106          221 
 3959000   0.61779849   -6.9557025    950.90168  0.020015612  0.018893935          235 
 3960000   0.61202198   -6.9963952    951.53923  0.020023974  0.018887751          248 
 3961000   0.62474699   -6.9654267    952.69716   0.02004328   0.01888157          256 
 3962000   0.61217475   -6.9631334    949.57312  0.019972512  0.018875394          161 
 3963000   0.63116608   -6.9723617     951.9563  0.020017586  0.018869214          137 
 3964000   0.61569313    -6.991972    953.07031  0.020035955   0.01886302          153 
 3965000   0.62205728   -6.9758523    952.31765  0.020015083  0.018856824          180 
 3966000   0.62972814   -6.9893882    950.43855  0.019970553  0.018850615          198 
 3967000   0.62012733   -6.9910754    949.50241  0.019945854  0.018844401          269 
 3968000    0.6194856    -6.990266    949.47783  0.019940311  0.018838192          268 
 3969000    0.6102942   -6.9899372    950.32442  0.019953062  0.018831995          112 
 3970000   0.62844193   -6.9799371    951.50409  0.019972798  0.018825811          250 
 3971000   0.61920125   -6.9601823    951.15409  0.019960423   0.01881963          203 
 3972000   0.60824712   -6.9653815    952.83817   0.01999073  0.018813443          318 
 3973000   0.62146895   -6.9753545    951.74981   0.01996287  0.018807273          228 
 3974000   0.63137397   -6.9997397     950.2254  0.019925881  0.018801113          317 
 3975000   0.62316741   -6.9846655    950.16814  0.019919667   0.01879495          264 
 3976000   0.59904434    -6.987631    950.66878   0.01992515  0.018788789          275 
 3977000   0.60118195   -6.9919712     951.0508  0.019928145   0.01878262          218 
 3978000   0.60640332   -6.9753269    950.13201  0.019903888  0.018776461          264 
 3979000   0.61369285   -6.9993628    952.83216  0.019955436  0.018770305          190 
 3980000   0.60168502   -6.9807006    951.32756  0.019918919  0.018764145          317 
 3981000   0.61131149   -6.9899392    950.93813  0.019905763  0.018757976          207 
 3982000   0.61268235   -6.9819883    951.09974  0.019904147  0.018751811          111 
 3983000    0.6156062   -6.9921287    949.46015  0.019864845  0.018745642          189 
 3984000   0.60884528   -6.9953594    951.59053   0.01990442  0.018739472          143 
 3985000   0.61715541   -7.0097941    950.76794  0.019882224  0.018733312          221 
 3986000   0.62017189   -7.0071618     951.2557  0.019887433  0.018727162          289 
 3987000   0.61743644   -6.9764617    951.31841  0.019883756  0.018721014          188 
 3988000   0.61541505   -6.9741798    951.20641  0.019876429   0.01871488          234 
 3989000   0.63668391   -7.0028155    951.98913  0.019887798  0.018708742          140 
 3990000    0.6148244   -6.9694844    951.54558   0.01987355  0.018702615          235 
 3991000   0.62534361   -6.9649923    952.21526  0.019882554  0.018696493          290 
 3992000   0.61262665   -7.0144705    950.42749  0.019840253  0.018690359          235 
 3993000    0.6149122     -7.00823    950.10867  0.019828631  0.018684238          371 
 3994000   0.60740161   -6.9987851    951.33798  0.019849315  0.018678105          250 
 3995000   0.61499295   -7.0022487    951.05007  0.019838341  0.018671971          169 
 3996000   0.62069424   -6.9899497    951.81024  0.019849229  0.018665847          318 
 3997000   0.60083667    -7.000037    949.59273   0.01979803  0.018659713          263 
 3998000   0.61201084   -6.9844228    952.84568  0.019860882  0.018653582          292 
 3999000   0.60040224   -7.0029725    950.99918  0.019817437  0.018647472          186 
 4000000   0.61460446   -6.9964076    948.38422  0.019758005  0.018641342          199 
 4001000   0.60185195     -7.01112     951.5625  0.019819264   0.01863521          286 
 4002000   0.62426576   -6.9796011    952.88582  0.019841867  0.018629095          118 
 4003000   0.62021703   -6.9843529    952.00308  0.019818534  0.018622996          189 
 4004000    0.6125239   -7.0077255    950.87159  0.019790035  0.018616906          293 
 4005000   0.60900571   -6.9984616    952.39219  0.019816733  0.018610812          311 
 4006000   0.61600436   -6.9914701    951.81254  0.019799728  0.018604718          125 
 4007000   0.61035015   -7.0076983    952.40291  0.019807065   0.01859863          165 
 4008000   0.62102657   -6.9926759    951.03969  0.019773779  0.018592537          233 
 4009000   0.60538954   -7.0054704     951.2541  0.019773304   0.01858644          211 
 4010000    0.6111799   -7.0240237    951.33563  0.019770067  0.018580342          151 
 4011000    0.6186701   -6.9951044    952.35605  0.019786339  0.018574264          132 
 4012000   0.61670073   -7.0109508    950.78714  0.019748819  0.018568158          320 
 4013000   0.60022938   -7.0107961    950.82209  0.019744624  0.018562065          179 
 4014000   0.59299009   -7.0276077    949.59507  0.019714231  0.018555966          364 
 4015000   0.59888136   -7.0010127    949.34392  0.019704108  0.018549865          178 
 4016000   0.61277014   -7.0061425    951.60835  0.019746189  0.018543768          306 
 4017000   0.60458205   -6.9949728    951.02129  0.019729095  0.018537677          286 
 4018000   0.61540656   -7.0140161    950.48074  0.019712974  0.018531593          343 
 4019000   0.60980545   -7.0027951    950.56892  0.019709897  0.018525516          196 
 4020000   0.61098097   -7.0179028    951.69055  0.019728245  0.018519444          349 
 4021000   0.60454674   -6.9987381    950.87307  0.019706397  0.018513376          212 
 4022000    0.5916936   -6.9954101    950.08453  0.019685159  0.018507299          377 
 4023000   0.61145803   -7.0069926    951.21571  0.019703698  0.018501221          384 
 4024000   0.61916137   -6.9986489    950.85391  0.019691309  0.018495147          431 
 4025000   0.59834627   -7.0385914    947.01976  0.019607034  0.018489064          554 
 4026000   0.59937114   -7.0195956    950.24387  0.019668899  0.018482982          372 
 4027000   0.59391749   -7.0038081    949.13899  0.019641151  0.018476896          417 
 4028000   0.61058745   -7.0045981    951.62042  0.019687612  0.018470824          369 
 4029000   0.60636501   -7.0200149    948.67475  0.019621799  0.018464735          352 
 4030000   0.60552533    -7.033314    950.71471  0.019659113  0.018458646          302 
 4031000   0.62025411   -6.9938119    949.55588   0.01963028  0.018452574          451 
 4032000   0.60763241   -7.0315072    949.25297   0.01961915  0.018446499          450 
 4033000   0.60256396   -7.0088888    952.16227    0.0196744  0.018440435          545 
 4034000   0.60278661    -7.010571    948.72771  0.019598573  0.018434374          512 
 4035000    0.5962355   -7.0113553    951.81858   0.01965755  0.018428304          595 
 4036000   0.60323966    -7.034542    950.74784  0.019630571  0.018422256          553 
 4037000   0.61010604    -7.031713    950.85222  0.019627863  0.018416213          438 
 4038000   0.59821449   -7.0149574    950.71652  0.019620202  0.018410155          446 
 4039000   0.60759266   -7.0101221    951.51352  0.019631788  0.018404097          363 
 4040000   0.60594522   -7.0303378    951.35549  0.019623669  0.018398037          443 
 4041000   0.59129707   -7.0336468    950.52649  0.019601718  0.018391989          488 
 4042000   0.60660875   -7.0126268    949.66346  0.019579075  0.018385946          493 
 4043000    0.6178283   -6.9968205    951.81762  0.019618633  0.018379919          525 
 4044000    0.6025861   -7.0251997    950.88392  0.019594542  0.018373879          526 
 4045000   0.60636141    -6.987919    951.71712  0.019606863  0.018367852          482 
 4046000   0.60356973   -7.0045688    949.70266  0.019560526  0.018361819          547 
 4047000   0.60350888   -7.0177952    950.31774  0.019568358  0.018355779          538 
 4048000   0.59527023   -7.0218782    948.73696  0.019530982  0.018349741          518 
 4049000   0.59538503    -7.013881    950.64832  0.019565496  0.018343704          470 
 4050000   0.61719668   -7.0241896    948.95905  0.019525906   0.01833766          466 
 4051000   0.59160131    -7.024077    951.98908  0.019583417  0.018331617          518 
 4052000   0.59792787   -7.0024041    948.78147  0.019512617  0.018325575          573 
 4053000   0.60910051   -7.0387057    950.40471  0.019541178  0.018319542          431 
 4054000    0.5993606   -7.0183019    950.04215  0.019528905  0.018313515          441 
 4055000   0.58918916   -6.9945829    950.32645  0.019529931  0.018307471          359 
 4056000   0.61639284   -7.0119241    950.24787  0.019523502  0.018301432          481 
 4057000   0.59700378   -7.0201328    950.99015  0.019533936  0.018295404          406 
 4058000   0.59663874   -7.0074406    949.42734  0.019497029  0.018289379          492 
 4059000   0.60336388   -7.0183905    947.86863  0.019460225   0.01828334          484 
 4060000   0.60697392   -7.0087193    949.51706  0.019489266  0.018277308          507 
 4061000   0.60179646    -7.015762    946.73777  0.019427435  0.018271275          544 
 4062000   0.59671125   -7.0419776    949.07499  0.019470601  0.018265228          394 
 4063000   0.60186507   -7.0403197    948.74724  0.019459087  0.018259196          319 
 4064000   0.60229586   -7.0390982    950.32126  0.019486574   0.01825319          326 
 4065000   0.60662398   -7.0309547    948.59711  0.019446435   0.01824718          334 
 4066000   0.60176291   -7.0335825    950.06574  0.019471752   0.01824117          391 
 4067000   0.60149577    -7.020231    950.55239  0.019476936  0.018235171          319 
 4068000   0.60127766   -7.0273381    948.07958  0.019421492  0.018229174          537 
 4069000   0.59734789   -7.0484469    947.10224  0.019396703  0.018223153          368 
 4070000   0.59636725   -7.0265941    949.50837  0.019441203   0.01821712          382 
 4071000    0.6030134   -7.0159705     948.2526  0.019410722  0.018211101          506 
 4072000    0.6050448   -7.0204506    950.16112  0.019445013  0.018205092          533 
 4073000   0.60138245    -7.047638     947.9976  0.019395974  0.018199082          410 
 4074000   0.59360683   -7.0350752    949.47499  0.019421432  0.018193064          283 
 4075000   0.58665068   -7.0433326    948.48742  0.019396471   0.01818704          377 
 4076000   0.60561074   -7.0146236    950.93525  0.019441758  0.018181021          540 
 4077000   0.59862921   -7.0398371    948.87246  0.019394826  0.018174991          363 
 4078000   0.59713688   -7.0350054    948.99397  0.019392553  0.018168953          599 
 4079000   0.59462544   -7.0378599    948.15781  0.019370716  0.018162918          647 
 4080000   0.59292756   -7.0440589     947.6338  0.019355265  0.018156884          641 
 4081000   0.60058992    -7.058269    948.94131  0.019377222  0.018150858          603 
 4082000   0.59575297   -7.0358736    948.97535   0.01937317  0.018144836          607 
 4083000   0.59862267   -7.0534451    947.32929  0.019334829  0.018138825          343 
 4084000   0.59748255   -7.0550413    947.70458  0.019337753  0.018132804          552 
 4085000   0.60029889   -7.0390496    947.99359  0.019338914   0.01812679          480 
 4086000   0.60112541   -7.0552222    947.07734  0.019315495  0.018120763          635 
 4087000   0.59250941   -7.0680967    947.34069  0.019316138  0.018114733          558 
 4088000   0.59212019   -7.0454789    945.44925  0.019272856  0.018108721          399 
 4089000   0.60270636    -7.073122    948.71936  0.019334788  0.018102694          415 
 4090000   0.60159902   -7.0678544    948.96473   0.01933506  0.018096664          628 
 4091000   0.60173785   -7.0672274    948.76437  0.019326252  0.018090624          364 
 4092000   0.59129221   -7.0547685    948.39415   0.01931399  0.018084599          566 
 4093000   0.60679656    -7.079545    946.86668  0.019278172   0.01807857          430 
 4094000   0.57979182   -7.0595322    947.35479  0.019283398  0.018072565          668 
 4095000   0.61121634   -7.0615944     945.7719  0.019246477  0.018066555          585 
 4096000   0.59420168   -7.0565632    946.84251   0.01926356  0.018060547          573 
 4097000   0.60797316   -7.0763362    946.97535   0.01926156   0.01805455          582 
 4098000   0.59309332   -7.0807119    946.71188  0.019251502  0.018048525          712 
 4099000   0.61718108   -7.0805964    948.18572  0.019276769  0.018042504          754 
 4100000   0.59022216   -7.0872456    945.67407  0.019221018  0.018036479          686 
 4101000   0.60081579   -7.0456724    947.03815  0.019244049   0.01803045          777 
 4102000   0.59254684     -7.07356    947.82508  0.019255345  0.018024427          776 
 4103000   0.58695086   -7.0846214    946.84273    0.0192307  0.018018397          654 
 4104000   0.58887289   -7.0624975    947.11236  0.019231489   0.01801238          600 
 4105000   0.58803658   -7.0831367    945.91712   0.01920254  0.018006363          480 
 4106000   0.59545284   -7.0996251    945.18835  0.019183072  0.018000331          756 
 4107000   0.58782188   -7.0696468    945.37332  0.019182155  0.017994288          696 
 4108000    0.6154588   -7.0915995     946.8515  0.019207471  0.017988262          762 
 4109000    0.5831661   -7.0893527    946.74231  0.019200582  0.017982242          553 
 4110000   0.58627167   -7.0966178    945.27747   0.01916621   0.01797622          750 
 4111000   0.58446384   -7.0715816    946.84944  0.019193413  0.017970201          741 
 4112000   0.59050846   -7.0755123     945.4405  0.019160192  0.017964179          830 
 4113000   0.59948607    -7.111505    944.82011  0.019142964   0.01795817          790 
 4114000   0.60553886     -7.08109    946.69876  0.019176365  0.017952151          704 
 4115000   0.59906424   -7.1092223    944.93212  0.019135928  0.017946127          680 
 4116000   0.58695519   -7.0978612    944.41773  0.019120864  0.017940107          715 
 4117000   0.60085851   -7.0697704    944.78221  0.019123597  0.017934097          781 
 4118000   0.58577433   -7.1019844     946.1277  0.019146181  0.017928091          681 
 4119000   0.58247432   -7.0883676    945.93486  0.019137632  0.017922086          755 
 4120000   0.59598947   -7.0902465    944.89249  0.019111903  0.017916085          662 
 4121000   0.60341285   -7.1088476    944.29244  0.019095131  0.017910067          657 
 4122000   0.59525669    -7.089929    945.36071  0.019112096  0.017904056          775 
 4123000   0.58580572   -7.1021721     945.8008  0.019116355  0.017898045          668 
 4124000    0.5703436   -7.0971059    945.45809  0.019104795  0.017892039          756 
 4125000   0.58811882   -7.0854838    945.61997  0.019103434  0.017886046          641 
 4126000   0.58955223   -7.0912847    945.20425  0.019090407  0.017880036          550 
 4127000   0.57880591   -7.1047838    944.63163  0.019074219  0.017874033          774 
 4128000   0.57515886   -7.1085879    944.83978    0.0190738  0.017868031          819 
 4129000    0.5901938   -7.1025946    945.31279  0.019078727   0.01786203          775 
 4130000   0.59763967   -7.0798819    945.33848  0.019074626  0.017856029          813 
 4131000   0.59049821   -7.1064935    946.10106  0.019085392  0.017850031          874 
 4132000   0.59833429   -7.0786216    946.28113  0.019084405  0.017844036          765 
 4133000   0.58632346   -7.1023981    945.20179  0.019058025  0.017838048          759 
 4134000   0.59794856   -7.0853907    945.57437  0.019060925  0.017832077          778 
 4135000   0.58963276    -7.095288    944.06807  0.019025959  0.017826104          810 
 4136000   0.59485261    -7.084128    945.40317  0.019048259  0.017820131          834 
 4137000   0.58562606   -7.0827551    944.74056  0.019030307  0.017814162          860 
 4138000   0.59762603   -7.0916936    945.65868  0.019044198  0.017808191          602 
 4139000   0.57645225   -7.1169088    943.99575  0.019006116  0.017802211          810 
 4140000   0.58251934   -7.0877796    945.88082  0.019039469  0.017796235          906 
 4141000   0.59672894   -7.0857871    945.68973  0.019031026  0.017790261          616 
 4142000   0.58174276   -7.0764301    945.09585  0.019014483  0.017784284          792 
 4143000   0.58362333   -7.1125509    947.02972  0.019048792  0.017778313          715 
 4144000   0.59101104   -7.1012133    945.86127  0.019020698  0.017772347          841 
 4145000   0.58611265   -7.1131584    944.72108  0.018993186  0.017766368          933 
 4146000   0.58488099   -7.0837131    946.87986  0.019031996  0.017760413          942 
 4147000   0.57528601   -7.1079974    944.82832  0.018986181  0.017754451         1001 
 4148000   0.57916839   -7.1081128    944.29882  0.018970966  0.017748498         1029 
 4149000   0.60297293   -7.0945576    945.03729  0.018981226  0.017742547          941 
 4150000   0.56967449   -7.0933886    945.47552  0.018985452  0.017736609          928 
 4151000   0.59595825   -7.0919656    944.85849  0.018968491  0.017730671          906 
 4152000   0.58084587   -7.0915726    945.13796  0.018969532  0.017724731          881 
 4153000   0.58513144   -7.0955318    945.99271  0.018982115  0.017718799          863 
 4154000   0.59240457   -7.1063128    945.66431  0.018970958  0.017712857          871 
 4155000   0.58232115   -7.0902313    945.17667  0.018956612  0.017706916          926 
 4156000   0.57417134   -7.0917623    945.75218   0.01896359  0.017700977          985 
 4157000   0.57988781   -7.1246169    945.32054  0.018950376  0.017695045         1122 
 4158000   0.59472953   -7.1092347    943.85872  0.018916521  0.017689124         1010 
 4159000   0.58914528   -7.1076261    946.02515  0.018955381  0.017683198          972 
 4160000   0.58238009   -7.0984678    945.65114  0.018943332  0.017677272          999 
 4161000   0.58294723   -7.1063677    944.89557  0.018923648  0.017671347         1084 
 4162000   0.57234238   -7.0991755    946.65983  0.018954426  0.017665424         1046 
 4163000   0.58925614   -7.1290088    943.70574  0.018890739  0.017659497         1100 
 4164000   0.59310518   -7.1146653    944.12253  0.018894543  0.017653583         1007 
 4165000   0.58549867   -7.1019503    947.49509  0.018957485  0.017647677         1039 
 4166000   0.59973229    -7.089714      946.078  0.018924588  0.017641775         1024 
 4167000   0.60165129   -7.0911373    945.26069  0.018903702  0.017635869         1056 
 4168000   0.56273434   -7.0946632    945.84503  0.018910849  0.017629978         1022 
 4169000    0.5898241   -7.0971174    944.62199  0.018881866  0.017624083         1048 
 4170000   0.57861911   -7.1014934    944.79273   0.01888075  0.017618185         1144 
 4171000   0.58708902   -7.1035032    946.38149  0.018907965  0.017612292         1098 
 4172000   0.57915052   -7.1102406    944.72833  0.018870413  0.017606398         1081 
 4173000   0.59576057   -7.1170879    945.23001  0.018875909  0.017600518         1169 
 4174000   0.57769248   -7.1047217    945.72381  0.018881245   0.01759463         1141 
 4175000   0.59733618   -7.1189658    946.39375  0.018890095  0.017588729         1124 
 4176000   0.57807521    -7.111272          944  0.018837803  0.017582834         1029 
 4177000   0.57351441   -7.1080732    945.33016  0.018859831  0.017576956         1114 
 4178000   0.58068899   -7.1147133    944.99411  0.018848614   0.01757107          958 
 4179000   0.58733803   -7.1130521    945.51668  0.018854524  0.017565193         1104 
 4180000   0.58253518   -7.1226331    944.11948  0.018822159  0.017559306         1195 
 4181000   0.59549373   -7.1093429    945.85124  0.018852173  0.017553428         1178 
 4182000   0.57075331   -7.1155742     946.0007  0.018850644  0.017547544         1091 
 4183000   0.57578182   -7.1228448    945.57637  0.018837684  0.017541655         1128 
 4184000   0.57394578   -7.1196678    945.37847   0.01882924  0.017535774         1105 
 4185000   0.58169287   -7.0996408    944.22787  0.018801829    0.0175299         1013 
 4186000   0.57761081   -7.1198782    944.56924  0.018804134  0.017524027         1124 
 4187000   0.57786355   -7.1137478    944.91075   0.01880644  0.017518157         1056 
 4188000   0.57610357   -7.1120624    945.95246  0.018822677  0.017512285         1104 
 4189000   0.56856508   -7.1392373    943.81259  0.018775615  0.017506419         1087 
 4190000   0.58806259   -7.1226621    944.82144  0.018791198  0.017500555         1044 
 4191000   0.58176266    -7.102316    945.46263  0.018799464   0.01749469         1030 
 4192000   0.58159394   -7.1120449    943.42612  0.018754495  0.017488827          981 
 4193000   0.58376345   -7.1259746    945.17581  0.018784796  0.017482974         1099 
 4194000   0.57931695   -7.1260809    945.11052   0.01877902  0.017477128         1108 
 4195000   0.59405318   -7.1097811    944.75311  0.018767444  0.017471269         1117 
 4196000   0.56748427   -7.1183711    945.11802  0.018770218  0.017465419         1088 
 4197000   0.57594382   -7.1139771    943.27346  0.018729121  0.017459558         1048 
 4198000   0.57867788   -7.1022611    944.44816  0.018747978  0.017453706         1044 
 4199000   0.59392163   -7.1024069    945.30339  0.018760486  0.017447863         1014 
 4200000   0.56539241    -7.105935    943.83727   0.01872693  0.017442011          998 
 4201000   0.58260713   -7.1040881    942.95346  0.018704941  0.017436164         1147 
 4202000   0.58167398   -7.1128988    944.51627  0.018731482  0.017430319         1084 
 4203000   0.59620019   -7.1210838    943.03725  0.018697701  0.017424465         1011 
 4204000   0.58102809   -7.1216815    943.55059  0.018703429  0.017418618         1019 
 4205000   0.58468053   -7.1134812    944.07039  0.018709282  0.017412785         1059 
 4206000   0.59093405   -7.1169411    944.80458  0.018719381  0.017406945          971 
 4207000   0.56928866   -7.1246666    944.59742  0.018710828  0.017401096         1005 
 4208000   0.57539714   -7.1277102    946.37145  0.018741513  0.017395246          979 
 4209000   0.57700308   -7.1201516     944.5438  0.018700875  0.017389401         1038 
 4210000   0.56611568   -7.1229008    944.68899  0.018699307  0.017383568         1052 
 4211000   0.58075081    -7.128099    943.34787  0.018668326   0.01737774         1154 
 4212000   0.56944103   -7.1135731    944.69856  0.018690617  0.017371903         1066 
 4213000   0.57735961   -7.1101085     943.4542  0.018661567  0.017366076         1007 
 4214000   0.58691261   -7.1167701    945.35592  0.018694746  0.017360251          964 
 4215000   0.58841208   -7.1121968    944.47166  0.018672828  0.017354424         1041 
 4216000   0.56439304   -7.1390097     945.4662  0.018688057  0.017348595         1052 
 4217000   0.58289293   -7.1381377    942.96671  0.018634233  0.017342771         1077 
 4218000   0.58025994    -7.121639    945.39811  0.018677851  0.017336954         1068 
 4219000   0.57800483   -7.1306248    944.08133  0.018647415  0.017331132         1119 
 4220000   0.57045576   -7.1174761    943.11195  0.018623854  0.017325317         1088 
 4221000   0.57942092   -7.1241992    944.62108  0.018649236   0.01731951         1113 
 4222000   0.58134598    -7.120837     943.9385  0.018631346  0.017313704         1093 
 4223000   0.58587569   -7.1257857    942.44733  0.018597508  0.017307903         1120 
 4224000    0.5737145   -7.1248082    944.48149  0.018633236  0.017302104         1081 
 4225000   0.57202007   -7.1293872    944.00322  0.018619393  0.017296304         1156 
 4226000   0.56328201   -7.1416633    943.21247  0.018599394  0.017290494         1275 
 4227000   0.58884706   -7.1336384    943.74269  0.018605447  0.017284691         1188 
 4228000   0.57398388   -7.1353315     943.5427  0.018597105  0.017278896         1141 
 4229000   0.56479609   -7.1343421    944.57651  0.018613079  0.017273097         1181 
 4230000   0.58571267   -7.1181183     944.6115  0.018609368  0.017267292         1194 
 4231000   0.56901636   -7.1563358    943.89787  0.018590914  0.017261505         1236 
 4232000   0.57676174   -7.1534144    944.43462   0.01859709  0.017255721         1162 
 4233000   0.57664133   -7.1245104    942.15196  0.018547759  0.017249936         1149 
 4234000   0.57363105   -7.1342225    943.49726  0.018569856  0.017244154         1223 
 4235000   0.57563782   -7.1300707    943.53454  0.018566205  0.017238386         1118 
 4236000   0.58052056    -7.134055    941.72761  0.018526275  0.017232609         1164 
 4237000    0.5782338   -7.1375015    944.38444  0.018574157  0.017226833         1209 
 4238000   0.57558159   -7.1542568     943.5757  0.018553872  0.017221053         1284 
 4239000    0.5864142   -7.1296489      943.904  0.018555949  0.017215277         1162 
 4240000   0.57358564   -7.1415825    943.81253  0.018549775  0.017209493         1214 
 4241000   0.57964058   -7.1673755     942.9924  0.018529286  0.017203715         1289 
 4242000   0.58013301   -7.1310007    942.64135  0.018518021  0.017197945         1238 
 4243000   0.57359633   -7.1255076    944.81932  0.018556433  0.017192174         1205 
 4244000   0.57770171   -7.1403138    941.68935  0.018490601  0.017186399         1309 
 4245000   0.55887181   -7.1445184    943.37839  0.018519403  0.017180623         1269 
 4246000   0.57260372   -7.1116817    942.08221  0.018489602  0.017174856         1186 
 4247000   0.58084426   -7.1428243    941.82043  0.018480112  0.017169087         1309 
 4248000   0.56824272   -7.1414113    942.19827  0.018483174  0.017163321         1248 
 4249000   0.57286832   -7.1292408    944.21121  0.018518302   0.01715756         1129 
 4250000   0.57672514    -7.127287    942.60693  0.018482489  0.017151807         1221 
 4251000   0.57403717   -7.1473233    941.81166  0.018462551  0.017146052         1262 
 4252000   0.57140407   -7.1437085    944.75513  0.018515897  0.017140292         1211 
 4253000   0.58264934   -7.1528968    942.36081  0.018464629  0.017134529         1354 
 4254000   0.56432974   -7.1541081    943.82475  0.018488966  0.017128768         1232 
 4255000   0.57902833    -7.145099     943.9394  0.018486866  0.017123004         1184 
 4256000   0.57172109   -7.1412306    941.52858  0.018435318  0.017117248         1294 
 4257000   0.57580311   -7.1523946    940.70608  0.018414887  0.017111495         1329 
 4258000   0.57351549   -7.1296369    943.47713  0.018464794  0.017105743         1334 
 4259000   0.55695079   -7.1602433    941.67356  0.018425169   0.01709999         1437 
 4260000   0.57981276   -7.1428785    941.00201  0.018407708  0.017094228         1282 
 4261000   0.56887782   -7.1328554    942.58121  0.018434272  0.017088485         1240 
 4262000    0.5573199   -7.1495167    943.54437  0.018448779   0.01708274         1354 
 4263000   0.55878566   -7.1340559    942.02435  0.018414738  0.017076986         1290 
 4264000   0.56473638   -7.1529673    942.23264   0.01841449  0.017071247         1359 
 4265000    0.5605317   -7.1665322    940.41084  0.018374577  0.017065502         1330 
 4266000   0.56641017   -7.1562306    942.89924  0.018418879  0.017059761         1349 
 4267000   0.57203977   -7.1574852    942.93837  0.018415326  0.017054034         1456 
 4268000   0.55309914   -7.1767844     940.6825  0.018366965  0.017048293         1398 
 4269000   0.57066596   -7.1691412    942.44316  0.018397032   0.01704255         1401 
 4270000   0.56159048   -7.1496999    942.83119  0.018400297  0.017036814         1445 
 4271000   0.56918277   -7.1448396    942.55149  0.018390531  0.017031068         1374 
 4272000   0.56339764   -7.1493655    942.44404   0.01838413  0.017025317         1410 
 4273000   0.55495172   -7.1640984     943.8755  0.018407744   0.01701958         1418 
 4274000   0.57453876   -7.1573065    941.88142  0.018364557  0.017013843         1325 
 4275000   0.58128178   -7.1465507    941.99151  0.018362408  0.017008113         1312 
 4276000   0.56667837   -7.1573979    940.49213  0.018328892   0.01700238         1411 
 4277000   0.56220772   -7.1472778    942.78103  0.018369204   0.01699665         1314 
 4278000   0.56858931   -7.1590751    940.88739  0.018328023  0.016990922         1256 
 4279000   0.57256863   -7.1475972    941.90995  0.018343654  0.016985202         1323 
 4280000   0.56367205   -7.1521652    942.51409  0.018351131  0.016979482         1327 
 4281000   0.56389275   -7.1343827    945.11121    0.0183974  0.016973762         1299 
 4282000   0.55332435   -7.1662441    943.31963  0.018358237  0.016968048         1339 
 4283000   0.57495387   -7.1706263    941.04598  0.018309712  0.016962335         1374 
 4284000    0.5614327   -7.1600445    941.81426  0.018320383  0.016956635         1320 
 4285000   0.56129431     -7.16015    943.30049  0.018345011  0.016950921         1376 
 4286000   0.56930902   -7.1622892    942.16742  0.018318701  0.016945211         1403 
 4287000   0.54846456   -7.1789611    942.09961   0.01831311  0.016939497         1334 
 4288000   0.56869389   -7.1675191    941.43251  0.018295874  0.016933785         1389 
 4289000   0.55823985   -7.1363099    943.03904  0.018322823  0.016928074         1383 
 4290000    0.5615895   -7.1659956     941.6552   0.01829167  0.016922371         1310 
 4291000     0.558975   -7.1775211    942.83325  0.018310286  0.016916659         1397 
 4292000   0.55486735   -7.1684424    940.36859  0.018258166  0.016910962         1453 
 4293000   0.55914831   -7.1544062    940.64244  0.018259229  0.016905264         1420 
 4294000   0.56162957   -7.1572423    942.31469   0.01828743  0.016899572         1386 
 4295000   0.56249949   -7.1616238     943.0713  0.018297852  0.016893886         1311 
 4296000   0.56509628    -7.167949    941.33789  0.018259968  0.016888199         1360 
 4297000   0.56784761   -7.1702783    943.11812  0.018290244  0.016882511         1378 
 4298000   0.57521948   -7.1526185    943.35662  0.018290612  0.016876822         1365 
 4299000   0.57705475   -7.1549012    942.65288  0.018272716  0.016871136         1285 
 4300000   0.55619962    -7.169396    942.52443  0.018265977  0.016865456         1354 
 4301000   0.55604727   -7.1701663    942.99056  0.018270762  0.016859773         1386 
 4302000    0.5455221   -7.1715113      942.572  0.018258407  0.016854087         1348 
 4303000   0.56121951   -7.1919434    940.98272  0.018223385  0.016848399         1451 
 4304000   0.55445648   -7.1638575    941.95177  0.018237914  0.016842713         1422 
 4305000   0.56162214   -7.1875015    940.96772  0.018214629  0.016837039         1309 
 4306000   0.55775749   -7.1822159    940.27889  0.018197068  0.016831356         1265 
 4307000   0.56937321   -7.1805526    941.56555  0.018217738  0.016825685         1378 
 4308000   0.57032386   -7.1684307    944.01719  0.018260933  0.016820004         1352 
 4309000   0.56314689   -7.1916562    941.41609  0.018206391  0.016814332         1415 
 4310000   0.55487942   -7.1735847    942.99762  0.018232746  0.016808663         1248 
 4311000   0.55696773   -7.1670116    942.26943   0.01821444  0.016803005         1387 
 4312000   0.56571028   -7.1886357    941.77369  0.018200636  0.016797336         1309 
 4313000   0.56403848   -7.1832666    941.13119  0.018184002  0.016791672         1332 
 4314000   0.56039081   -7.1722254    942.04714   0.01819748  0.016786021         1336 
 4315000    0.5587236   -7.1715264    942.14101  0.018195075  0.016780365         1240 
 4316000   0.56374659   -7.1583165    943.30589  0.018213351  0.016774714         1457 
 4317000   0.57746107   -7.1803374    943.86569  0.018219938  0.016769063         1454 
 4318000   0.55167339   -7.1648645    941.12966  0.018162916  0.016763415         1404 
 4319000   0.56012622   -7.1912615    941.86895  0.018172975  0.016757764         1314 
 4320000   0.56450692   -7.1945494    941.36215  0.018158992  0.016752123         1480 
 4321000   0.55934224   -7.1927588    941.87319  0.018164645  0.016746479         1330 
 4322000   0.55777494   -7.1756505    942.96938  0.018181578  0.016740835         1274 
 4323000   0.56978321   -7.1680125     941.7232   0.01815335  0.016735198         1247 
 4324000   0.56555508   -7.1702996    941.02887  0.018135771   0.01672956         1298 
 4325000   0.56127175   -7.1548608    942.43455  0.018158662  0.016723922         1408 
 4326000   0.56673866   -7.1980472    940.61967  0.018119504  0.016718284         1360 
 4327000   0.56406626   -7.1642691    940.68904  0.018116652  0.016712649         1357 
 4328000   0.55595632   -7.1849266    940.06975  0.018100542  0.016707018         1327 
 4329000   0.54684768   -7.1810263    942.36745  0.018140592  0.016701382         1169 
 4330000   0.55341821   -7.1689109    941.98767  0.018129093  0.016695754         1343 
 4331000   0.55905084   -7.1809486    941.14297  0.018108654  0.016690128         1370 
 4332000   0.55941181   -7.1725514     940.6206  0.018094425  0.016684498         1387 
 4333000   0.56330782   -7.1917827    940.34775  0.018085002  0.016678872         1376 
 4334000   0.55864486   -7.1772385    941.16572  0.018096557  0.016673249         1323 
 4335000   0.55627572   -7.1854063     942.3073  0.018114327   0.01666762         1375 
 4336000   0.54815112   -7.1816798    938.87094  0.018044106  0.016661996         1366 
 4337000   0.56538491   -7.1864802     942.2894   0.01810563  0.016656378         1311 
 4338000   0.54544396     -7.18109    941.09387   0.01807849  0.016650769         1259 
 4339000     0.562023   -7.1880101    941.43036  0.018080786  0.016645152         1432 
 4340000   0.55894292   -7.1962254    939.40775  0.018037783  0.016639536         1483 
 4341000   0.54688597   -7.2040285    940.64428  0.018057365  0.016633922         1415 
 4342000    0.5412695   -7.1756808    939.94108  0.018039711  0.016628311         1372 
 4343000    0.5536691   -7.2016371    938.45966  0.018007131  0.016622698         1360 
 4344000   0.55457836    -7.178619    940.57986  0.018043659  0.016617085         1381 
 4345000   0.56547887   -7.1819543    940.52954  0.018038541  0.016611486         1294 
 4346000   0.55893946   -7.1769331    941.86531  0.018060004  0.016605892         1234 
 4347000   0.55568017   -7.1673747    941.11349  0.018041437  0.016600311         1469 
 4348000   0.55275247   -7.1779034    942.11506  0.018056483  0.016594724         1381 
 4349000   0.56214309   -7.1850283    939.29235  0.017998244  0.016589139         1297 
 4350000   0.55305491   -7.1914271    939.72088  0.018002316  0.016583551         1478 
 4351000   0.55362809   -7.1843085    940.33594  0.018009958  0.016577969         1398 
 4352000   0.55442462   -7.1938962    939.73678  0.017994347  0.016572376         1505 
 4353000   0.56344167   -7.1930866    941.97195  0.018033003  0.016566784         1461 
 4354000   0.55370911   -7.1932463    939.86914  0.017988615  0.016561194         1511 
 4355000   0.55965004   -7.2136176    941.07357  0.018007531  0.016555606         1479 
 4356000   0.54675081   -7.1954693    941.31057  0.018007931  0.016550029         1535 
 4357000   0.55375645   -7.1860607    940.98175  0.017997509  0.016544449         1393 
 4358000   0.54668985   -7.2004511    942.30848  0.018018749   0.01653887         1484 
 4359000    0.5499099   -7.1890918    941.28115  0.017994975  0.016533292         1384 
 4360000   0.55553046   -7.1961435    940.58402  0.017977523  0.016527725         1498 
 4361000   0.55395099   -7.1893322    940.82496  0.017978005  0.016522169         1454 
 4362000   0.55663723   -7.1937295    941.40414  0.017984948  0.016516614         1498 
 4363000   0.54657377   -7.1859125       942.72  0.018005959  0.016511067         1337 
 4364000   0.55427321   -7.1825981    940.55232   0.01796044  0.016505501         1435 
 4365000    0.5489159   -7.1847695    941.18801  0.017968461  0.016499949         1458 
 4366000   0.55367158    -7.187918    941.45503  0.017969442  0.016494393         1404 
 4367000   0.55545261   -7.1960789    941.01017  0.017956839  0.016488833         1397 
 4368000   0.55139594   -7.1739069    940.42305  0.017941527  0.016483294         1372 
 4369000   0.55186989   -7.1772299    939.03272  0.017910901  0.016477741         1281 
 4370000   0.55374362   -7.1984352    938.25224  0.017891919  0.016472197         1307 
 4371000   0.55166556   -7.1870672    939.36348  0.017909012  0.016466655         1403 
 4372000   0.56006599   -7.1914386    940.88304  0.017933879  0.016461122         1391 
 4373000   0.54605756   -7.1759356    941.82944  0.017947813  0.016455581         1456 
 4374000   0.54751074   -7.2175236    940.42471  0.017916947  0.016450038         1469 
 4375000   0.55787274   -7.1986844    940.36702  0.017911753  0.016444496         1443 
 4376000   0.53629586   -7.2058138    938.97311  0.017881115  0.016438956         1477 
 4377000   0.54250195   -7.2202554    939.69784  0.017890828  0.016433416         1505 
 4378000   0.56401815   -7.2147001    940.72993  0.017906387  0.016427879         1391 
 4379000   0.54808245   -7.2002281    940.33202  0.017894725  0.016422344         1456 
 4380000   0.55271154     -7.20137    940.45551  0.017892989  0.016416808         1438 
 4381000   0.55094138    -7.209216    940.25681  0.017885125  0.016411267         1587 
 4382000   0.54913636   -7.2235093    939.30075  0.017862862  0.016405727         1593 
 4383000   0.55374589   -7.2106917    939.43225  0.017861287  0.016400192         1602 
 4384000   0.56372876   -7.1934933    939.63122  0.017860995   0.01639466         1485 
 4385000   0.55511891   -7.1997401    940.15153   0.01786681  0.016389128         1605 
 4386000   0.53831266   -7.2334327    938.56604  0.017832612  0.016383592         1639 
 4387000   0.54554345   -7.2171236     939.7256  0.017850574  0.016378051         1652 
 4388000   0.54141334   -7.1967129    939.90105  0.017849838  0.016372513         1587 
 4389000   0.53773247    -7.215088    939.15499  0.017831605  0.016366987         1560 
 4390000   0.53653328   -7.2013522    940.60642  0.017855095  0.016361463         1483 
 4391000   0.54373256   -7.2346552    938.88256  0.017818313  0.016355937         1640 
 4392000   0.54981188   -7.1982171    940.46695  0.017844318  0.016350422         1581 
 4393000   0.55305889   -7.2179993    940.28074  0.017836724  0.016344899         1572 
 4394000   0.54967556   -7.2194312    939.96294  0.017826637  0.016339387         1625 
 4395000   0.55029351   -7.2088099    940.29217  0.017828824  0.016333873         1644 
 4396000    0.5444216   -7.2018501    939.81178  0.017815662  0.016328351         1607 
 4397000   0.53882014   -7.2076349    938.80747  0.017792576  0.016322844         1576 
 4398000   0.56225639   -7.1937058    940.08371  0.017812712  0.016317337         1542 
 4399000   0.53917503   -7.2167271    936.17937    0.0177347  0.016311828         1651 
 4400000   0.54062872    -7.221152    938.17275  0.017768423  0.016306325         1617 
 4401000   0.54746493   -7.2103867    938.57902  0.017772079  0.016300821         1540 
 4402000   0.55151272   -7.2133542    938.52786  0.017767073   0.01629532         1577 
 4403000   0.54452114   -7.2174747    940.04682  0.017791786  0.016289824         1620 
 4404000   0.53397323   -7.2089173    941.03907  0.017806522  0.016284325         1745 
 4405000   0.55224947   -7.2132855    939.81129  0.017779253  0.016278823         1574 
 4406000   0.54618545   -7.2144555    938.86089  0.017757242  0.016273327         1678 
 4407000   0.55410688   -7.2112183    938.47187  0.017745856   0.01626784         1641 
 4408000   0.53772209   -7.2078289    938.12094  0.017735196  0.016262352         1599 
 4409000   0.55574805   -7.2036019    940.14742  0.017769476  0.016256864         1640 
 4410000   0.55061002   -7.2025329    938.25911  0.017729764  0.016251374         1625 
 4411000   0.53964398   -7.2313516    939.12009   0.01774201  0.016245886         1675 
 4412000    0.5556102   -7.2288741     939.4237  0.017743724  0.016240397         1679 
 4413000   0.54937439   -7.2301934    937.63924  0.017706006  0.016234909         1706 
 4414000   0.56426483   -7.2155431    939.07815   0.01772916  0.016229435         1688 
 4415000   0.55017804   -7.2002567    938.61577  0.017716417  0.016223959         1696 
 4416000   0.56223176   -7.2360947    938.55224  0.017711206   0.01621848         1718 
 4417000    0.5366329   -7.2058274    938.70489  0.017710076  0.016213006         1642 
 4418000   0.53445135   -7.2129291    940.33873  0.017736886  0.016207542         1641 
 4419000   0.52475564   -7.2169685    938.19005  0.017692352  0.016202068         1714 
 4420000   0.53613778   -7.1977984    938.62876  0.017696621  0.016196593         1711 
 4421000   0.54713162   -7.2089858    939.53948  0.017709784  0.016191129         1692 
 4422000   0.54001532    -7.223308    938.48938   0.01768599  0.016185664         1728 
 4423000   0.54721927   -7.2115081    940.32586  0.017716592  0.016180194         1701 
 4424000    0.5319725   -7.2022972    937.32688  0.017656097  0.016174732         1799 
 4425000   0.54626574   -7.1972849    939.06576  0.017684854  0.016169277         1778 
 4426000   0.53927139   -7.2174146    938.75512   0.01767501  0.016163827         1727 
 4427000   0.52983165   -7.2279692    939.61887  0.017687276  0.016158378         1733 
 4428000   0.55594626   -7.2381883     939.9973  0.017690404  0.016152921         1808 
 4429000   0.54059652   -7.2283595     938.7194  0.017662365  0.016147471         1809 
 4430000   0.54033986   -7.2204327    937.61562  0.017637615  0.016142007         1779 
 4431000   0.54737729   -7.2401578    936.29973  0.017608887  0.016136546         1890 
 4432000   0.54393066   -7.2214529    937.00978  0.017618265  0.016131086         1793 
 4433000    0.5419427   -7.2252641    938.47946  0.017641918  0.016125636         1806 
 4434000   0.54246101   -7.2175317    939.17322  0.017650978  0.016120182         1817 
 4435000   0.53867928   -7.2269588    939.13225  0.017646228  0.016114739         1677 
 4436000   0.53565815   -7.2155344    935.96441   0.01758274  0.016109294         1789 
 4437000   0.53664293    -7.238638    938.21474  0.017621042  0.016103849         1613 
 4438000   0.54468889   -7.2385359    937.23124  0.017598604  0.016098408         1745 
 4439000   0.53563085   -7.2344471    937.55262  0.017600672  0.016092968         1869 
 4440000   0.54495637   -7.2558167    938.21927  0.017609221  0.016087526         1766 
 4441000   0.54679661   -7.2474648    938.10628  0.017603135  0.016082086         1842 
 4442000   0.53466473   -7.2328175     936.9077  0.017576686  0.016076651         1772 
 4443000   0.54472085   -7.2299994    938.12087  0.017595485  0.016071215         1911 
 4444000   0.54240246   -7.2111821    938.18782  0.017592781  0.016065785         1742 
 4445000     0.552582   -7.2372176     938.5559  0.017595724  0.016060351         1789 
 4446000    0.5374787   -7.2308856    938.87282  0.017597706  0.016054924         1889 
 4447000   0.54783864   -7.2330466    937.76644  0.017573016  0.016049502         1788 
 4448000   0.54495999   -7.2340674    938.59508   0.01758459  0.016044084         1885 
 4449000   0.53313706   -7.2412909    936.76996  0.017546452  0.016038664         1789 
 4450000   0.54080746   -7.2382175    936.78002  0.017542697  0.016033248         1858 
 4451000   0.53665499   -7.2359139    937.74054  0.017556739  0.016027835         1807 
 4452000   0.55172182   -7.2470873    936.06134  0.017521364  0.016022423         1791 
 4453000   0.54888238   -7.2324391    937.90398  0.017551912  0.016017008         1774 
 4454000   0.53786539   -7.2385111    938.41365  0.017557507  0.016011599         1808 
 4455000   0.53489233   -7.2467155     938.9687  0.017563949  0.016006198         1849 
 4456000   0.52810679   -7.2131905    937.32518  0.017529271   0.01600079         1795 
 4457000   0.54010655   -7.2248219    936.69999  0.017513649  0.015995396         1757 
 4458000   0.53306681   -7.2447663    935.98243  0.017496307  0.015990007         1765 
 4459000    0.5204516   -7.2644457    937.25712  0.017516205  0.015984615         1841 
 4460000   0.53818657   -7.2261024    936.37047  0.017495711  0.015979219         1775 
 4461000   0.52904948   -7.2326497    939.23191  0.017545242  0.015973833         1781 
 4462000   0.54664103   -7.2456958     935.8725  0.017478569  0.015968444         1753 
 4463000   0.53623671   -7.2511704    936.61163  0.017488454  0.015963056         1834 
 4464000   0.53203571   -7.2321133    938.25471  0.017515209  0.015957676         1798 
 4465000   0.54644086   -7.2213201    938.29084  0.017511961  0.015952297         1682 
 4466000   0.53424845    -7.230338    938.06416  0.017503809  0.015946915         1747 
 4467000    0.5384883     -7.23437    937.66053  0.017492361  0.015941538         1814 
 4468000   0.52778653   -7.2390696    935.78473   0.01745346   0.01593615         1734 
 4469000   0.52755944   -7.2391622    938.49886  0.017500165   0.01593078         1731 
 4470000   0.53136775    -7.250409     938.6301  0.017498697  0.015925408         1732 
 4471000   0.52642373   -7.2380569    937.21181  0.017468348  0.015920036         1755 
 4472000   0.54086345   -7.2573089    938.01997  0.017479502  0.015914665         1832 
 4473000   0.53149617   -7.2506058    938.13169  0.017477675   0.01590929         1768 
 4474000   0.54013813   -7.2558271    935.16289  0.017418471  0.015903918         1891 
 4475000   0.53048727   -7.2555161    938.00273  0.017467462  0.015898549         1910 
 4476000   0.53907138   -7.2522447      937.261   0.01744975  0.015893187         1936 
 4477000   0.52351585   -7.2309979    938.51796   0.01746925  0.015887824         1811 
 4478000   0.53168091   -7.2614812    936.92958  0.017435789  0.015882461         1804 
 4479000   0.54062657   -7.2403516    937.19489  0.017436833  0.015877107         1807 
 4480000   0.52552659   -7.2547309     937.9809  0.017447561  0.015871749         1854 
 4481000   0.52826064   -7.2434479    938.90143  0.017460787  0.015866392         1736 
 4482000   0.53398414   -7.2417873    936.66743  0.017415355  0.015861043         1812 
 4483000   0.51715517   -7.2296759    938.09101  0.017437932  0.015855687         1785 
 4484000   0.52539737   -7.2212556     937.9091  0.017430663  0.015850348         1753 
 4485000   0.52586198   -7.2591402     936.8244  0.017406622  0.015845001         1818 
 4486000   0.52059807   -7.2498025    936.52117  0.017397109   0.01583966         1834 
 4487000   0.54446486   -7.2452398    937.55257  0.017412387  0.015834322         1797 
 4488000   0.53812284   -7.2471485    938.45724  0.017425305  0.015828988         1722 
 4489000   0.53251451   -7.2360803     937.9759  0.017412488   0.01582365         1836 
 4490000   0.53950332   -7.2388232    937.44484  0.017398754  0.015818319         1886 
 4491000   0.53243502   -7.2535613    935.19598   0.01735315  0.015812991         1894 
 4492000    0.5262455   -7.2418557    939.86894  0.017435978  0.015807667         1812 
 4493000   0.54246407   -7.2645891    935.92972  0.017359035  0.015802343         1883 
 4494000   0.53906064   -7.2527789    937.20216  0.017378767  0.015797015         1910 
 4495000   0.53639148   -7.2383504    937.47064  0.017379878   0.01579169         1896 
 4496000    0.5244466   -7.2473395    935.97741  0.017348336   0.01578636         1826 
 4497000   0.52527507   -7.2817158     937.9395  0.017380837  0.015781036         1908 
 4498000   0.52839149   -7.2508969     937.6875  0.017372304  0.015775718         1826 
 4499000   0.53419451   -7.2457452    937.56115  0.017366103  0.015770401         1834 
 4500000   0.52851303   -7.2343741    937.96608  0.017369742  0.015765085         1859 
 4501000   0.51904378   -7.2459854    937.70467  0.017361043  0.015759772         1882 
 4502000   0.53620205   -7.2496677    936.40039  0.017333044  0.015754464         1989 
 4503000   0.52362764   -7.2668204    936.36103  0.017328467  0.015749155         1946 
 4504000   0.52268675   -7.2694305     937.4649  0.017345043   0.01574385         1939 
 4505000   0.53582378   -7.2557659    937.51722  0.017342161   0.01573854         1810 
 4506000   0.53353179   -7.2394173    938.08675  0.017348845  0.015733238         1840 
 4507000    0.5347551   -7.2446032    937.02683  0.017325398  0.015727934         1856 
 4508000   0.52888237    -7.230052    936.64183  0.017314438  0.015722635         1876 
 4509000   0.54664987   -7.2357883    936.51325  0.017308221  0.015717333         1972 
 4510000   0.52692041   -7.2623951     937.2336  0.017317694  0.015712038         1872 
 4511000   0.52705548   -7.2458062    936.63908  0.017302872  0.015706737         1981 
 4512000    0.5331213   -7.2516001    935.54354  0.017278804   0.01570144         1934 
 4513000   0.53519866   -7.2757045    935.39704   0.01727227  0.015696145         1958 
 4514000   0.52733939   -7.2656204    936.24639  0.017284123   0.01569085         2049 
 4515000   0.53180737   -7.2604641     937.0124  0.017294433  0.015685562         2013 
 4516000   0.51591331    -7.247584    936.70336  0.017284901  0.015680282         1970 
 4517000    0.5169013   -7.2596003    935.69469  0.017262466  0.015674995         2052 
 4518000   0.53778299   -7.2607402    938.51952  0.017310748  0.015669712         1908 
 4519000   0.53558767   -7.2515274    936.16741  0.017263543   0.01566443         1996 
 4520000   0.53744925   -7.2577587      937.894  0.017291556  0.015659145         2059 
 4521000   0.52312384   -7.2459803    938.20362  0.017293438  0.015653866         2001 
 4522000   0.53020163   -7.2639612    936.59649  0.017259997  0.015648593         1943 
 4523000   0.53287389   -7.2391663    937.47539  0.017272374  0.015643316         2003 
 4524000   0.53035431   -7.2671878    936.53039  0.017251149  0.015638049         1909 
 4525000   0.52640171   -7.2580071    936.93036  0.017254703  0.015632787         2027 
 4526000   0.52687824   -7.2475946    936.96583  0.017251543  0.015627525         1983 
 4527000   0.52831405   -7.2496184    935.33696  0.017217748  0.015622263         2039 
 4528000   0.53741686   -7.2573057     935.6407  0.017219536  0.015616997         2019 
 4529000   0.52518772   -7.2720156    936.08685  0.017223943  0.015611742         2006 
 4530000   0.52080941   -7.2645819    936.44156  0.017226666  0.015606486         2025 
 4531000   0.52036532    -7.268564     937.7144  0.017246274  0.015601236         1888 
 4532000   0.51856563    -7.249531    936.13068  0.017213347  0.015595987         1915 
 4533000   0.52498636   -7.2716938    934.36741  0.017177134  0.015590734         1939 
 4534000   0.52321079   -7.2627817    937.98712  0.017239875  0.015585488         1871 
 4535000   0.52667811   -7.2730471    937.23499  0.017222253  0.015580237         1964 
 4536000   0.53779112   -7.2625711    936.31146  0.017201489  0.015574998         1956 
 4537000   0.54115651   -7.2632217    937.50878   0.01721969  0.015569758         1964 
 4538000   0.52728441   -7.2765475    936.12451  0.017190475  0.015564527         1949 
 4539000   0.53465616   -7.2605343    937.56502  0.017213135  0.015559288         2033 
 4540000   0.52496693    -7.275714    936.13877  0.017183164  0.015554055         1999 
 4541000   0.52733345   -7.2623183    934.55407  0.017150299   0.01554882         2020 
 4542000    0.5305047   -7.2636546    936.73215  0.017186485  0.015543588         1970 
 4543000   0.53015106   -7.2589104    934.76174  0.017146558   0.01553836         1976 
 4544000   0.52660698   -7.2607455    937.39122  0.017191007  0.015533139         1953 
 4545000   0.52801587   -7.2656015    935.97124  0.017161189  0.015527918         1988 
 4546000   0.52545478   -7.2609395    937.60471  0.017187357  0.015522698         1940 
 4547000   0.53355459   -7.2771403    937.74209  0.017186095  0.015517482         1980 
 4548000   0.52881735    -7.264153    937.86301  0.017184532  0.015512267         1942 
 4549000   0.52838026   -7.2529126    937.27291  0.017169944  0.015507052         1879 
 4550000   0.53640546     -7.26773    937.42825  0.017169016  0.015501834         1895 
 4551000    0.5293896    -7.271146    937.71407  0.017170477  0.015496622         1856 
 4552000   0.52411148   -7.2525084    935.87519   0.01713304  0.015491413         1941 
 4553000   0.52657422     -7.26879    936.21221  0.017135446  0.015486201         1979 
 4554000   0.52422983   -7.2766057    935.75969  0.017123402  0.015480991         2023 
 4555000   0.52121025    -7.256179    935.79592  0.017120306  0.015475789         1989 
 4556000   0.51507728   -7.2868677    935.38912  0.017109107  0.015470584         2001 
 4557000   0.53297133   -7.2645899    936.37589  0.017123398  0.015465387         2021 
 4558000   0.51473613   -7.2776688    937.12095  0.017133263  0.015460179         1966 
 4559000   0.52436448   -7.2704963    936.20779  0.017112813  0.015454983         2020 
 4560000   0.53105888   -7.2766352    935.47686  0.017095703  0.015449789         1979 
 4561000   0.52510586   -7.2717258    935.54636  0.017093224  0.015444595         1920 
 4562000   0.51595904   -7.2752187    935.17445  0.017082684  0.015439405         2027 
 4563000   0.53716655   -7.2532477    937.08386  0.017113812  0.015434222         1935 
 4564000   0.51226817   -7.2739436    935.47335  0.017080656  0.015429031         2116 
 4565000   0.52105825   -7.2862835    935.36665  0.017074966  0.015423839         2035 
 4566000   0.52651097    -7.276852    938.28197  0.017124434  0.015418655         1920 
 4567000   0.51575496   -7.2704025     935.3199  0.017066636  0.015413466         1960 
 4568000   0.52831112   -7.2513297    936.18777  0.017078732   0.01540828         1944 
 4569000   0.51672835   -7.2838273    933.98932  0.017034897  0.015403094         2062 
 4570000   0.53024279     -7.26758    937.95392  0.017103463  0.015397908         2019 
 4571000   0.52177054   -7.2665487    936.33373  0.017070184  0.015392729         2029 
 4572000    0.5077369   -7.2813542    935.36954  0.017048876  0.015387555         2012 
 4573000   0.51646974   -7.2627181    936.26891  0.017061537  0.015382373         2003 
 4574000    0.5262504   -7.2622195    935.86442  0.017050438  0.015377205         1952 
 4575000   0.52280992   -7.2826673    935.83105  0.017046103  0.015372036         1988 
 4576000   0.52488078   -7.2658179    936.75379  0.017059182  0.015366864         2034 
 4577000   0.52183466   -7.2721484    936.82803  0.017056806  0.015361704         1927 
 4578000   0.52428607   -7.2646677    935.44481  0.017027902   0.01535654         2094 
 4579000    0.5177063   -7.2824733    935.94137   0.01703322  0.015351378         2005 
 4580000   0.52327495   -7.2854751    936.32874  0.017036549  0.015346218         2050 
 4581000    0.5151172    -7.270955    936.89592  0.017043148  0.015341064         1955 
 4582000   0.52439998    -7.279704    933.25973  0.016973296  0.015335906         1999 
 4583000   0.53055921   -7.2801649    937.03719  0.017038279  0.015330759         1923 
 4584000   0.52348393   -7.2836114    934.66814  0.016991495   0.01532561         1995 
 4585000   0.52130533   -7.2851933    935.93113  0.017010744  0.015320464         1998 
 4586000   0.50795978   -7.2863008    935.79865  0.017004627  0.015315315         1947 
 4587000   0.51310141   -7.2782819    935.71371  0.016999377  0.015310173         1975 
 4588000   0.50775424   -7.2830304    936.92298  0.017017636  0.015305027         2085 
 4589000   0.52970027   -7.2892037    936.89742  0.017013464  0.015299893         2021 
 4590000   0.52098814   -7.2784447    936.63399  0.017004974  0.015294752         1904 
 4591000   0.52134919   -7.2995702     933.4308  0.016943128   0.01528961         1994 
 4592000   0.51229682   -7.2805697    938.02012  0.017022723  0.015284478         1888 
 4593000   0.51621647   -7.2838011    935.95133  0.016981481  0.015279348         1977 
 4594000   0.51302489   -7.2901189    935.94781  0.016977721  0.015274212         1997 
 4595000   0.52049042   -7.2584227    935.86331  0.016972494  0.015269093         2028 
 4596000   0.50649503   -7.2897502    936.45628  0.016979553  0.015263971         1953 
 4597000   0.51491431   -7.2909552    934.40295  0.016938637  0.015258848         2000 
 4598000   0.52535665   -7.2656067    935.47534  0.016954388  0.015253725         2007 
 4599000   0.51243039   -7.2882637    933.77469  0.016919886  0.015248603         2052 
 4600000   0.51842834   -7.2759098    935.73528  0.016951726  0.015243481         1928 
 4601000   0.50716761   -7.2894429    935.28799   0.01693994  0.015238363         1981 
 4602000    0.5152763   -7.2793251    936.86399  0.016964798  0.015233249         1993 
 4603000   0.51533746   -7.2787936     935.3297  0.016933335   0.01522814         1963 
 4604000   0.51745583    -7.282484    934.18862  0.016909003  0.015223034         1946 
 4605000   0.51285164   -7.2706443    935.88444   0.01693602  0.015217932         1938 
 4606000   0.51410633   -7.2902003    936.07795  0.016935844  0.015212833         1934 
 4607000   0.51285242   -7.2816493    934.86888  0.016910297  0.015207733         1970 
 4608000   0.51479653   -7.2880224    935.06258  0.016910131  0.015202631         1957 
 4609000   0.51598273   -7.2891507    936.44566  0.016931468   0.01519753         2013 
 4610000     0.514547   -7.2785236    935.78282  0.016915814  0.015192424         1966 
 4611000   0.49444396   -7.2707689     937.4644  0.016942536  0.015187327         2026 
 4612000   0.52375893    -7.271487    934.48892  0.016885099  0.015182237         1966 
 4613000   0.51410344   -7.2737432    935.78676  0.016904884  0.015177146         2025 
 4614000   0.51544416   -7.2889678     933.5057  0.016860022  0.015172057         2031 
 4615000   0.52838106   -7.2829544    935.38617  0.016890325  0.015166972         2082 
 4616000   0.51913832   -7.2842139    936.30891  0.016903324  0.015161883         2028 
 4617000   0.51685817   -7.2755272    934.90397  0.016874304  0.015156797         1994 
 4618000   0.51505657   -7.2727301    935.27443  0.016877336  0.015151711         1957 
 4619000    0.5234679   -7.2839908    936.08587  0.016888321   0.01514663         1967 
 4620000   0.51540708   -7.2844217    934.53189  0.016856636  0.015141552         1984 
 4621000   0.50552341   -7.2915121    934.52259   0.01685282  0.015136469         2034 
 4622000   0.51502426   -7.2881278     934.7689  0.016853615  0.015131391         1999 
 4623000   0.51196056    -7.303137    934.63796  0.016847609   0.01512631         2078 
 4624000   0.51878828   -7.2816409    935.27497  0.016855446  0.015121235         2053 
 4625000   0.51069513   -7.2809842    936.76748  0.016878693  0.015116163         2002 
 4626000   0.50611229   -7.2837849    935.66399  0.016855166  0.015111095         1973 
 4627000   0.51470665   -7.2727542    935.52567  0.016849032  0.015106031         1935 
 4628000    0.5031466   -7.2918956    934.25838  0.016822572  0.015100965         2058 
 4629000   0.51685783   -7.2774269    933.95335  0.016813447  0.015095898         2085 
 4630000   0.51630546   -7.2879618    936.55649  0.016856668  0.015090835         1982 
 4631000    0.5132434   -7.2758057    934.15051  0.016809733  0.015085778         2103 
 4632000   0.50552113   -7.2872278     933.8652  0.016800972  0.015080716         2119 
 4633000   0.51569164   -7.2916945    934.37454  0.016806507  0.015075661         2017 
 4634000   0.51105957   -7.2913688    934.45698  0.016804362  0.015070602         1972 
 4635000   0.51669353   -7.2745243    936.34687  0.016834715  0.015065542         1909 
 4636000    0.5069068   -7.3059771    933.36321  0.016777452  0.015060488         1982 
 4637000   0.50850808   -7.3031639     933.5902  0.016777913  0.015055435         2095 
 4638000   0.50493772   -7.2907237    937.04457  0.016836362  0.015050387         1982 
 4639000   0.51628231    -7.292269     935.5978  0.016806744  0.015045346         2035 
 4640000   0.51479135   -7.2847341    933.61819  0.016767568  0.015040296         1978 
 4641000   0.50821252   -7.2816847    934.40476  0.016778079  0.015035253         1973 
 4642000   0.50635782   -7.2883223    935.28912   0.01679034  0.015030214         1947 
 4643000   0.48593235   -7.2985147    934.14287  0.016766151  0.015025181         2066 
 4644000   0.51617752   -7.3021176    934.29051   0.01676519  0.015020138         2119 
 4645000   0.50473155   -7.2889036    935.42242  0.016781888  0.015015098         2054 
 4646000   0.50991988   -7.2790813    935.32479  0.016776524  0.015010067         2055 
 4647000   0.50908996   -7.3003678    935.78915  0.016781241   0.01500504         2070 
 4648000   0.51426903   -7.2983112     934.9326  0.016762274  0.015000018         2017 
 4649000   0.51155932   -7.2927771    934.22603  0.016746003  0.014994994         1970 
 4650000   0.50166576    -7.302763    934.44668  0.016746356   0.01498997         1979 
 4651000   0.50477217   -7.2826884     934.9602  0.016751957  0.014984948         1997 
 4652000   0.49533114   -7.2894075    934.04116  0.016731892  0.014979923         2118 
 4653000   0.51155399   -7.3096178    934.31193  0.016733146  0.014974904         2100 
 4654000   0.50787399   -7.2879752    933.63204  0.016717376  0.014969884         2054 
 4655000   0.51507946    -7.286874    935.65465  0.016749994  0.014964869         2070 
 4656000   0.51323594   -7.3013829    934.20284  0.016720412  0.014959848         2086 
 4657000   0.50532773   -7.2999968    934.20516  0.016716863   0.01495483         2001 
 4658000   0.51079522   -7.2873298    934.40144  0.016716785  0.014949822         2085 
 4659000   0.51123087   -7.3284137    932.61866   0.01668131  0.014944814         2114 
 4660000   0.49527703   -7.2893666     935.6412  0.016731781    0.0149398         2029 
 4661000   0.51514709   -7.3156868    934.16424  0.016701785    0.0149348         2110 
 4662000   0.49993276   -7.2925106    936.18107  0.016734253  0.014929795         2028 
 4663000   0.50626791   -7.3053222    933.72361  0.016686747  0.014924795         2039 
 4664000   0.50531458   -7.3103885    933.04901  0.016671116    0.0149198         2117 
 4665000   0.50854761   -7.3045968    936.60899  0.016731136  0.014914811         2065 
 4666000   0.51193888   -7.2916838    935.38901  0.016705762  0.014909822         2106 
 4667000   0.50802209    -7.288742    933.65377  0.016671198  0.014904834         2078 
 4668000   0.49839442   -7.3014179    936.21709  0.016713387  0.014899846         2119 
 4669000   0.51051928    -7.300484    933.66833  0.016664317  0.014894859         2115 
 4670000   0.51137792   -7.3030345    932.85064  0.016646157  0.014889868         2063 
 4671000   0.50346346   -7.3086314    932.80633  0.016641803  0.014884884         2147 
 4672000   0.51714127   -7.2974186    935.74686   0.01669069  0.014879903         2154 
 4673000     0.501897   -7.2857575    933.72303  0.016651028  0.014874917         2137 
 4674000   0.49818072   -7.2978061    934.10328  0.016654245  0.014869939         2220 
 4675000   0.49801481   -7.2904556    933.33277  0.016636948  0.014864963         2161 
 4676000   0.50855866   -7.2853733    935.47854  0.016671631  0.014859989         2165 
 4677000   0.49692276   -7.2869326     935.0295  0.016660065  0.014855019         2172 
 4678000   0.50315975   -7.3041489    933.10953  0.016622302  0.014850047         2121 
 4679000   0.49351858   -7.3219792    934.19592  0.016638098  0.014845079         2077 
 4680000   0.50199698    -7.294359    934.96273  0.016648197  0.014840111         2106 
 4681000    0.5094514    -7.300645    933.23762  0.016613929   0.01483515         2096 
 4682000   0.49361785   -7.2930477    934.80938  0.016638356  0.014830186         2154 
 4683000    0.5039284   -7.3034349    934.68595  0.016632606  0.014825227         2039 
 4684000   0.49700438   -7.3057655    936.02159  0.016652818  0.014820278         2051 
 4685000   0.50928817   -7.2953161    933.58223  0.016605874  0.014815337         2148 
 4686000   0.50764687   -7.2877085     935.1406  0.016630043  0.014810394         2045 
 4687000   0.50007613   -7.2994156    934.40903  0.016613488  0.014805461         1965 
 4688000   0.49619099   -7.3016013    932.75733  0.016580584  0.014800518         2055 
 4689000    0.4985268   -7.3082042    936.10451  0.016636534  0.014795577         2028 
 4690000   0.50235865   -7.2932495    933.65449  0.016589454  0.014790645         2076 
 4691000   0.49969338   -7.2873996    934.20159  0.016595637  0.014785708         2091 
 4692000   0.50268946   -7.3014254    934.96385  0.016605638  0.014780769         1992 
 4693000   0.50454042   -7.3014508    933.99195  0.016584842  0.014775829         2050 
 4694000    0.5065494   -7.3032975     934.6825  0.016593568    0.0147709         2109 
 4695000   0.49668968   -7.3099844    934.24395   0.01658225  0.014765968         2079 
 4696000   0.49667822    -7.300771     934.2172  0.016578244   0.01476104         2094 
 4697000    0.4935815   -7.3064798    932.48593  0.016543998  0.014756116         2052 
 4698000   0.49570093    -7.307131    934.80153  0.016581551  0.014751188         2121 
 4699000    0.5093046    -7.304071    934.11936  0.016565925  0.014746258         2134 
 4700000   0.49983946   -7.3155416    934.71289  0.016572923  0.014741334         2125 
 4701000   0.50118186   -7.3336021    933.11363  0.016541048  0.014736405         2214 
 4702000   0.49522553   -7.3212627    934.85342  0.016568365  0.014731479         2200 
 4703000   0.49473465   -7.3153839    933.25499  0.016536519  0.014726554         2144 
 4704000   0.49521428   -7.3111581    933.87412  0.016543972  0.014721633         2211 
 4705000   0.50453995   -7.3120757    933.61144  0.016535803  0.014716712         2302 
 4706000   0.49190458   -7.3104511    934.02668  0.016539642  0.014711797         2241 
 4707000   0.50184785     -7.32545    932.84477  0.016515204  0.014706881         2179 
 4708000   0.50661943   -7.3125554    934.28771  0.016537237  0.014701967         2180 
 4709000   0.49212964   -7.3109498    934.00168  0.016528663  0.014697052         2241 
 4710000   0.50028299   -7.2864232    934.04538  0.016525927  0.014692141         2133 
 4711000   0.50036416    -7.310564    933.55585  0.016513759  0.014687231         2115 
 4712000   0.49502847   -7.3204803    933.50841  0.016509416  0.014682324         2262 
 4713000   0.48418676   -7.3100744    932.76451   0.01649276  0.014677416         2210 
 4714000   0.49315074   -7.3233027    934.14088  0.016513592  0.014672513         2202 
 4715000   0.48332002   -7.3080937    934.20407  0.016511207   0.01466761         2248 
 4716000   0.50415596   -7.3274696    934.58258  0.016514394  0.014662704         2219 
 4717000   0.49739045   -7.3289984    932.76921  0.016478857  0.014657802         2213 
 4718000   0.49409225   -7.3034159    933.58942  0.016489851  0.014652905         2248 
 4719000   0.49703805   -7.3151247    935.28453  0.016516291  0.014648007         2264 
 4720000   0.50052905   -7.3226849    933.64131   0.01648378   0.01464311         2287 
 4721000   0.49684898   -7.3401429     932.1636  0.016454205  0.014638216         2357 
 4722000   0.48400345   -7.3211849     933.0206  0.016465844   0.01463332         2292 
 4723000   0.48971816   -7.3140942    933.41094  0.016469245  0.014628432         2331 
 4724000   0.51122562   -7.3148546    934.37684  0.016482798  0.014623542         2268 
 4725000    0.4981964   -7.3230709    931.43995  0.016427512  0.014618657         2288 
 4726000   0.49504238   -7.3230971    934.22831  0.016473203  0.014613773         2301 
 4727000   0.49784307   -7.3223662     933.5262  0.016457341  0.014608892         2247 
 4728000   0.49113098   -7.3287732    933.40093  0.016451652  0.014604003         2334 
 4729000   0.49605343   -7.3308182    933.41525  0.016448425  0.014599123         2257 
 4730000   0.50537383   -7.3223525    932.70396  0.016432417  0.014594248         2306 
 4731000   0.49500318   -7.3219779    933.20797  0.016437821  0.014589372         2270 
 4732000   0.48673232   -7.3194123    933.06065  0.016431753  0.014584498         2361 
 4733000   0.48001928   -7.3117417    933.42414  0.016434681  0.014579627         2263 
 4734000    0.4905117   -7.3163339    932.94621  0.016422796   0.01457476         2337 
 4735000    0.4948144   -7.3258761     932.1431  0.016405194  0.014569891         2340 
 4736000   0.49403964   -7.3221303    931.94274  0.016398204   0.01456502         2345 
 4737000   0.49617902   -7.3458411    932.00196  0.016395784  0.014560153         2311 
 4738000   0.49480573    -7.322997      934.587   0.01643779  0.014555294         2264 
 4739000   0.49797497   -7.3289575    933.18968   0.01640975  0.014550433         2274 
 4740000   0.49304356   -7.3332612    932.11062  0.016387317  0.014545572         2283 
 4741000   0.48732372   -7.3417355    932.32399  0.016387611  0.014540712         2321 
 4742000   0.49452191   -7.3307145    932.41103  0.016385685  0.014535852         2348 
 4743000   0.48754274   -7.3248242    933.99326   0.01641003  0.014530995         2355 
 4744000   0.49801584   -7.3264565    933.09381  0.016390771  0.014526141         2301 
 4745000    0.4941817   -7.3328465    931.84531   0.01636539  0.014521288         2250 
 4746000   0.48069759   -7.3219116      933.293  0.016387361  0.014516436         2266 
 4747000   0.50257438   -7.3331974    932.52583  0.016370442  0.014511587         2218 
 4748000   0.49885403   -7.3408844    932.78218  0.016371493  0.014506745         2366 
 4749000   0.49061727   -7.3304212    932.02683  0.016354791  0.014501905         2342 
 4750000    0.4983535   -7.3389788    933.72609   0.01638116  0.014497063         2157 
 4751000   0.49919819   -7.3395285    933.07015  0.016366206  0.014492224         2256 
 4752000   0.49164056   -7.3281867    933.64185  0.016372788  0.014487385         2340 
 4753000   0.47854979    -7.325891    931.40729  0.016330165  0.014482548         2311 
 4754000   0.48811974    -7.329628    931.59899   0.01633009  0.014477716         2373 
 4755000   0.48160308   -7.3294915    931.78861  0.016329979  0.014472886         2297 
 4756000   0.49276021   -7.3325555    931.90593  0.016328601  0.014468052         2333 
 4757000   0.49082682   -7.3311405    933.32867  0.016350092  0.014463227         2337 
 4758000   0.49294857   -7.3401416    932.60114  0.016333914  0.014458401         2282 
 4759000   0.48696142   -7.3170808    931.31374  0.016307938  0.014453574         2325 
 4760000   0.49343969   -7.3380784    931.94732  0.016315604  0.014448751         2319 
 4761000   0.49904483   -7.3432297    931.37471  0.016302155  0.014443932         2381 
 4762000   0.48404083   -7.3333982     932.7148  0.016322183   0.01443911         2219 
 4763000   0.48382746   -7.3314239    932.18059  0.016309409  0.014434296         2300 
 4764000   0.48070259   -7.3561748    932.96114  0.016319639  0.014429478         2322 
 4765000   0.48357866   -7.3095443    933.14475  0.016319425  0.014424666         2279 
 4766000   0.49011203   -7.3214235    933.63004  0.016324487  0.014419864         2298 
 4767000   0.49550848   -7.3493174    932.00665  0.016292683  0.014415058         2338 
 4768000   0.49361225   -7.3337343    931.93297  0.016287978  0.014410251         2345 
 4769000   0.49468645   -7.3349535    930.96975  0.016267732  0.014405447         2276 
 4770000    0.4923327   -7.3389147    932.73646  0.016295186  0.014400648         2324 
 4771000   0.49253101   -7.3531073    933.46602  0.016304514  0.014395851         2297 
 4772000   0.49896596   -7.3428044    932.29096  0.016280577  0.014391055         2288 
 4773000   0.47432693   -7.3349105    932.99921  0.016289532  0.014386261         2268 
 4774000   0.48603589   -7.3286559    930.51336  0.016242727  0.014381469         2270 
 4775000   0.48480229   -7.3260336    931.92417  0.016263947  0.014376675         2296 
 4776000   0.48688198   -7.3253758    933.20228  0.016282843  0.014371879         2387 
 4777000   0.48836639   -7.3368553     932.1654  0.016261346  0.014367086         2383 
 4778000    0.4978715   -7.3425814    933.07439  0.016273796  0.014362297         2354 
 4779000   0.48061106   -7.3314061    932.39653  0.016258571  0.014357516         2220 
 4780000   0.48790355   -7.3358271    931.64375  0.016242046  0.014352734         2320 
 4781000   0.49291473   -7.3511817    933.31417  0.016267764  0.014347953         2286 
 4782000   0.48952402   -7.3406057    932.05469  0.016242414   0.01434317         2283 
 4783000   0.47546533     -7.33282    931.68735  0.016232618  0.014338392         2281 
 4784000   0.47845965   -7.3380849    931.40686  0.016224339  0.014333612         2305 
 4785000   0.48262312   -7.3519312    931.24355  0.016218104  0.014328836         2381 
 4786000   0.48842744   -7.3583312    932.23986  0.016232063  0.014324059         2304 
 4787000   0.48494715   -7.3378203    933.63396  0.016252941  0.014319289         2323 
 4788000    0.4675312   -7.3321786    932.37498  0.016227635  0.014314518         2395 
 4789000   0.46813255   -7.3535903    930.43887  0.016190556  0.014309746         2428 
 4790000   0.49777322   -7.3242001    932.91918  0.016230327  0.014304982         2349 
 4791000   0.48665181    -7.349225    931.13701  0.016195941  0.014300226         2337 
 4792000   0.48973325   -7.3412279    931.79149  0.016203942  0.014295466         2349 
 4793000   0.48716642   -7.3217499    931.99206  0.016204049  0.014290712         2309 
 4794000   0.47777285   -7.3475153      932.263  0.016205378  0.014285954         2332 
 4795000   0.48481958   -7.3508827    931.50751  0.016188869  0.014281198         2247 
 4796000   0.47338697    -7.326027    931.02095  0.016177039  0.014276443         2361 
 4797000    0.4891303   -7.3472508    931.82479  0.016187631   0.01427169         2381 
 4798000   0.48799283   -7.3518535     931.0661   0.01617108  0.014266939         2271 
 4799000   0.48454638   -7.3466829    931.64715    0.0161778  0.014262194         2301 
 4800000   0.48727174   -7.3304346    933.41611  0.016205141  0.014257451         2353 
 4801000   0.47996727   -7.3406715    931.83469  0.016174316  0.014252711         2340 
 4802000   0.47675493   -7.3408882    932.27283  0.016178551  0.014247962         2345 
 4803000    0.4911617   -7.3351303    931.75778  0.016166246  0.014243222         2306 
 4804000   0.47729696   -7.3291439    931.84953  0.016164473   0.01423848         2300 
 4805000   0.48013609    -7.358417    931.99357  0.016163607  0.014233748         2357 
 4806000   0.47296453   -7.3463858    931.80206  0.016156923  0.014229014         2286 
 4807000   0.47221695   -7.3488247    932.94621  0.016173397   0.01422428         2283 
 4808000   0.48121768   -7.3493118    931.08537   0.01613778  0.014219548         2326 
 4809000   0.47449849   -7.3482045    931.39985  0.016139874  0.014214818         2283 
 4810000   0.48058316   -7.3519356    930.63294  0.016123232  0.014210092         2375 
 4811000   0.48323313   -7.3362226    931.80555  0.016140192   0.01420536         2255 
 4812000   0.48310507   -7.3646783    931.15973  0.016125653   0.01420064         2309 
 4813000   0.48052346   -7.3542826    932.69553  0.016148894  0.014195921         2362 
 4814000   0.48343535   -7.3391544    931.60537  0.016126668  0.014191201         2341 
 4815000   0.48861727   -7.3382462    931.87267  0.016127945  0.014186483         2262 
 4816000   0.46777996   -7.3542361    932.52518  0.016135887  0.014181767         2330 
 4817000   0.47906682     -7.35785    931.40736  0.016113199  0.014177054         2312 
 4818000   0.47802823   -7.3526468     930.6932  0.016097502  0.014172335         2387 
 4819000   0.49285109   -7.3527343    930.13906  0.016084579  0.014167623         2278 
 4820000   0.48456557   -7.3446935    931.43951  0.016103726  0.014162915         2330 
 4821000    0.4730124   -7.3228985    931.25218  0.016097148  0.014158212         2270 
 4822000   0.48502564   -7.3532038    933.05026  0.016124884  0.014153509         2312 
 4823000   0.48650482   -7.3681579    931.08144  0.016087522  0.014148805         2337 
 4824000   0.47927042   -7.3633005    930.15105  0.016068115  0.014144104         2368 
 4825000   0.47406869   -7.3385515    933.47741  0.016122235    0.0141394         2330 
 4826000   0.48155076   -7.3387059    930.49731  0.016067435    0.0141347         2345 
 4827000   0.47521667    -7.335793    931.32864  0.016078459  0.014130006         2283 
 4828000    0.4799166   -7.3451706    930.99165  0.016069312  0.014125312         2277 
 4829000   0.47745751   -7.3638592    931.04624  0.016066926  0.014120625         2358 
 4830000    0.4787804    -7.334021    932.40183  0.016086988  0.014115938         2322 
 4831000   0.48170359   -7.3445236    931.77885  0.016072912  0.014111247         2347 
 4832000   0.47888004   -7.3518283    932.47923  0.016081664   0.01410656         2318 
 4833000   0.48154686   -7.3568349    928.89561  0.016016546  0.014101871         2299 
 4834000   0.47792734   -7.3558355    932.29444  0.016071825  0.014097188         2347 
 4835000   0.47133279   -7.3448322    931.53615  0.016055432   0.01409251         2244 
 4836000   0.46800443    -7.360874    932.29687   0.01606522   0.01408783         2408 
 4837000   0.48087297   -7.3748407    931.60994  0.016050064  0.014083152         2348 
 4838000   0.48108769   -7.3701136      931.045  0.016037016  0.014078477         2343 
 4839000   0.48310867   -7.3529354    930.53641  0.016024943  0.014073799         2373 
 4840000   0.46698499   -7.3594716    931.72422  0.016042084  0.014069128         2308 
 4841000   0.48395914   -7.3451403    931.39843  0.016033162  0.014064458         2312 
 4842000   0.48106169   -7.3653329    931.83656  0.016037391  0.014059791         2369 
 4843000   0.47320228   -7.3458806    930.06657  0.016003623  0.014055132         2403 
 4844000   0.47205521   -7.3522356    931.43146    0.0160238  0.014050466         2321 
 4845000   0.47010843    -7.360495    930.77567  0.016009214  0.014045807         2330 
 4846000   0.47780063   -7.3631198    932.41289  0.016034064  0.014041144         2310 
 4847000   0.48088992   -7.3645951    931.21648  0.016010186  0.014036485         2280 
 4848000   0.48708777   -7.3479118     932.6204  0.016031016   0.01403183         2324 
 4849000   0.47197875   -7.3550775    930.99105  0.015999709  0.014027175         2354 
 4850000   0.47816041   -7.3560318    929.85518  0.015976893  0.014022524         2326 
 4851000   0.47715803   -7.3575533    929.47529  0.015967074  0.014017874         2384 
 4852000   0.46731816   -7.3659617    930.67132  0.015984325  0.014013227         2383 
 4853000   0.47849244   -7.3612168    931.31074  0.015992011  0.014008581         2354 
 4854000   0.46925473   -7.3620476    931.51526  0.015992227  0.014003941         2339 
 4855000   0.47288579   -7.3505514    931.68271  0.015991808  0.013999299         2315 
 4856000   0.47613724   -7.3508249    930.40442  0.015966578  0.013994661         2335 
 4857000   0.47279099   -7.3596686    930.28274  0.015961203  0.013990021         2386 
 4858000   0.47278928   -7.3534416     930.9209  0.015968864   0.01398538         2371 
 4859000   0.48328208    -7.373011    931.89553  0.015982293  0.013980745         2448 
 4860000   0.47668618   -7.3678557    930.95723  0.015962915   0.01397611         2356 
 4861000   0.47325061   -7.3572309    932.27592  0.015982238  0.013971483         2327 
 4862000   0.47614831   -7.3617537    930.52406  0.015948925  0.013966856         2348 
 4863000   0.47841214   -7.3611322    931.13922  0.015956186  0.013962229         2338 
 4864000   0.47367092   -7.3658951    930.75612  0.015946343  0.013957604         2334 
 4865000   0.46567099   -7.3694231    931.24313  0.015951407  0.013952983         2353 
 4866000    0.4744273   -7.3532624    930.75798   0.01593982  0.013948363         2395 
 4867000   0.47520555   -7.3612431    930.42427  0.015930831  0.013943737         2248 
 4868000    0.4715679   -7.3485681    930.88026  0.015935365  0.013939121         2287 
 4869000   0.47293668   -7.3625319    930.33017  0.015922677  0.013934502         2360 
 4870000   0.47510268   -7.3598145    932.24719  0.015952211  0.013929888         2432 
 4871000   0.48408631   -7.3567493    931.92648  0.015943449  0.013925275         2339 
 4872000   0.46026532   -7.3698167    931.66003  0.015935619  0.013920665         2354 
 4873000    0.4709055   -7.3616983    929.53136  0.015895946  0.013916051         2433 
 4874000   0.46021187   -7.3514625    931.84236  0.015932197  0.013911444         2441 
 4875000   0.47381851    -7.357364     930.7699  0.015910597  0.013906839         2400 
 4876000   0.47739521   -7.3670731    931.90595  0.015926749  0.013902235         2416 
 4877000   0.47816015   -7.3632006    930.82636  0.015905037  0.013897633         2437 
 4878000   0.47167468   -7.3594728    929.98273  0.015887364  0.013893032         2374 
 4879000   0.47808042   -7.3661107    932.90884  0.015934086  0.013888436         2270 
 4880000   0.46978211   -7.3774659    929.69658  0.015875966  0.013883837         2389 
 4881000   0.46889436   -7.3541084    929.83645  0.015875102  0.013879241         2345 
 4882000   0.46108941   -7.3835157     930.5472  0.015883982   0.01387465         2436 
 4883000   0.47919304   -7.3738546    931.14231  0.015890885  0.013870059         2343 
 4884000   0.46995061   -7.3638538    931.16492  0.015888017  0.013865467         2363 
 4885000    0.4852778   -7.3726557    930.63339  0.015875698  0.013860882         2352 
 4886000    0.4670982   -7.3726316    929.87691  0.015859546  0.013856293         2378 
 4887000   0.47176491   -7.3737403    931.32176  0.015880938  0.013851707         2432 
 4888000   0.46952599   -7.3635817    929.05886   0.01583911  0.013847127         2370 
 4889000   0.47730098   -7.3601861    930.02031  0.015852259  0.013842547         2344 
 4890000   0.47157435      -7.3643    930.31265  0.015853999  0.013837967         2324 
 4891000   0.47279957   -7.3724998    931.13149  0.015864709  0.013833388         2253 
 4892000   0.46817124   -7.3658501    930.20135  0.015845621   0.01382881         2393 
 4893000   0.47228865   -7.3636207    932.10902  0.015874873   0.01382424         2318 
 4894000   0.47643863   -7.3662323     930.4782   0.01584386  0.013819667         2335 
 4895000   0.47716175   -7.3654643    928.26689  0.015802977  0.013815095         2368 
 4896000   0.46110205   -7.3759829    930.14713  0.015831753  0.013810526         2323 
 4897000   0.46491768   -7.3752081    929.97442  0.015825581  0.013805955         2367 
 4898000   0.46343589   -7.3673503     931.4461  0.015847388  0.013801384         2314 
 4899000   0.47023966   -7.3932474    928.78545  0.015798895  0.013796816         2399 
 4900000   0.47391987   -7.3814547    929.50106  0.015807841  0.013792254         2401 
 4901000   0.46072809   -7.3679741    930.17095  0.015816006  0.013787694         2335 
 4902000   0.46585667   -7.3763115    931.30289  0.015832022  0.013783135         2357 
 4903000   0.47221395   -7.3717339    929.58389  0.015799577  0.013778576         2347 
 4904000   0.46448252   -7.3888322    929.61494  0.015796882   0.01377402         2437 
 4905000   0.47497641   -7.3659835    931.34102  0.015822987  0.013769467         2414 
 4906000   0.46956832   -7.3856849    930.18688  0.015800158  0.013764914         2369 
 4907000   0.47697584   -7.3779672    929.90859  0.015792212  0.013760363         2366 
 4908000   0.46437839   -7.3816923    930.40796  0.015797473  0.013755818         2339 
 4909000   0.46572134   -7.3806849    931.34827  0.015810217  0.013751272         2380 
 4910000   0.46496052   -7.3668112    929.13999  0.015769518  0.013746726         2348 
 4911000   0.46244564   -7.3627185    930.79286  0.015794354  0.013742179         2358 
 4912000   0.46259065   -7.3721928    930.90574  0.015793053  0.013737643         2407 
 4913000   0.47072124   -7.3815338     929.1369  0.015759836  0.013733108         2397 
 4914000   0.45973948   -7.3680758    928.54099  0.015746523  0.013728573         2400 
 4915000   0.47348671   -7.3725168    930.11791  0.015770056  0.013724037         2351 
 4916000   0.46542483   -7.3682155    929.03268  0.015748452  0.013719501         2387 
 4917000   0.46960791   -7.3934768    931.25832  0.015782969  0.013714971         2390 
 4918000   0.46223101   -7.3620616    930.02505  0.015758863  0.013710438         2363 
 4919000   0.46388112   -7.3757439    930.39018  0.015761845  0.013705907         2327 
 4920000   0.45768743   -7.3699111    928.22848  0.015722027  0.013701381         2352 
 4921000   0.45930173   -7.3663956    930.77603  0.015761973  0.013696857         2297 
 4922000   0.46566129   -7.3879794    929.39876  0.015735452  0.013692338         2344 
 4923000   0.46884562   -7.3901994    929.69961  0.015737349  0.013687816         2342 
 4924000   0.46085247    -7.397819    929.03818  0.015722959  0.013683299         2362 
 4925000   0.46325943   -7.3794164     930.7125  0.015748096  0.013678784         2331 
 4926000   0.47308914   -7.3826716    928.83883  0.015713203  0.013674272         2435 
 4927000   0.45322093   -7.3900191    931.20091  0.015749965  0.013669761         2335 
 4928000   0.44859172   -7.3847398    929.80007   0.01572308  0.013665247         2370 
 4929000   0.46542646   -7.3830771    929.96885  0.015722744  0.013660737         2384 
 4930000   0.46363516   -7.3887237    928.19271  0.015689532  0.013656224         2258 
 4931000   0.45780817   -7.3631273    931.10725  0.015735606  0.013651722         2377 
 4932000   0.46801367   -7.3756796    929.61034  0.015707123  0.013647217         2342 
 4933000   0.45626075   -7.3785308    929.91792  0.015709134  0.013642713         2336 
 4934000   0.46759053   -7.3717245      931.531  0.015733195  0.013638213         2330 
 4935000   0.46218994   -7.3914644    931.44641  0.015728578  0.013633716         2327 
 4936000   0.46171687   -7.3941952    929.35106  0.015690017  0.013629217         2395 
 4937000   0.47264891   -7.3826542    930.03484   0.01569838  0.013624722         2423 
 4938000   0.45867411   -7.4012233    928.77157  0.015673882  0.013620226         2377 
 4939000   0.46513872   -7.3822944    929.49093  0.015682846  0.013615734         2357 
 4940000   0.45901814   -7.3909202      930.239  0.015692291  0.013611244         2368 
 4941000   0.46273295   -7.3867057    929.98571  0.015684843  0.013606757         2368 
 4942000   0.45711585   -7.3752352    929.44088  0.015672482  0.013602267         2419 
 4943000   0.46133427   -7.3864959    929.97361  0.015678293  0.013597781         2348 
 4944000   0.45359237   -7.3998856    928.02978  0.015642357  0.013593296         2427 
 4945000   0.46425466   -7.3659788    928.92115  0.015654215  0.013588816         2365 
 4946000   0.47342423   -7.3816616    929.16256  0.015655118   0.01358434         2355 
 4947000   0.46324914   -7.3947318    930.91611  0.015681492  0.013579867         2351 
 4948000   0.46409739   -7.3763685    929.27861  0.015650745  0.013575389         2414 
 4949000   0.46606926   -7.4059347    929.31926  0.015648267  0.013570916         2463 
 4950000   0.45568704   -7.3737512    928.23935  0.015626925  0.013566443         2415 
 4951000   0.45883941   -7.3834292    930.20291  0.015656819  0.013561972         2373 
 4952000   0.45961584   -7.3813073    929.57587  0.015643105  0.013557502         2450 
 4953000    0.4671014   -7.3805905     930.5939  0.015657075  0.013553036         2345 
 4954000   0.45537998   -7.3866483    930.31482   0.01564922  0.013548574         2382 
 4955000   0.46095495   -7.3938923    929.48272  0.015632067  0.013544109         2347 
 4956000   0.45768338   -7.3811282     928.9776   0.01562042   0.01353965         2346 
 4957000   0.45935149    -7.380226    929.28278  0.015622399   0.01353519         2351 
 4958000   0.45456301   -7.3946384    929.64141  0.015625276  0.013530733         2410 
 4959000   0.44986808   -7.3811712    928.37226  0.015600798  0.013526276         2300 
 4960000   0.45015638   -7.3896879    929.27127  0.015612757  0.013521821         2353 
 4961000   0.45610263   -7.3917609    930.08674  0.015623307  0.013517368         2322 
 4962000   0.45049584   -7.3825204    929.90753  0.015617149  0.013512916         2380 
 4963000   0.46691033   -7.3808564    929.79582  0.015612127   0.01350847         2321 
 4964000   0.45931741   -7.3807663    929.26443  0.015600061  0.013504024         2432 
 4965000   0.45608147   -7.3908726    928.87781   0.01559043  0.013499578         2389 
 4966000   0.45290694   -7.4003785    928.09694  0.015574187  0.013495133         2346 
 4967000   0.46059734   -7.3950227     929.7131  0.015598166  0.013490687         2350 
 4968000    0.4504751   -7.3933398    927.68568  0.015561018  0.013486248         2296 
 4969000   0.46126229   -7.3875013    929.01736   0.01558022  0.013481807         2351 
 4970000   0.46501224   -7.3864578    929.41665   0.01558378  0.013477369         2341 
 4971000   0.46388829     -7.38635      928.082  0.015558271  0.013472934         2398 
 4972000   0.46094873   -7.3963867     929.4868  0.015578687  0.013468501         2315 
 4973000    0.4514544   -7.4003515    928.97489  0.015566976  0.013464068         2383 
 4974000   0.46774594   -7.3901301    929.85739  0.015578632  0.013459639         2355 
 4975000   0.46584597   -7.3836586    929.21602  0.015564757  0.013455213         2341 
 4976000    0.4607195   -7.4002509    928.51785  0.015549937  0.013450785         2407 
 4977000   0.46145175   -7.3921219    928.58466  0.015547932  0.013446363         2419 
 4978000   0.45286254   -7.3651269    928.16321  0.015537753   0.01344194         2410 
 4979000   0.45894658    -7.387064    931.12111  0.015584139  0.013437521         2390 
 4980000   0.45830294   -7.3849529    929.74156  0.015557924  0.013433101         2337 
 4981000   0.44860197   -7.3877841    928.12978  0.015527835  0.013428686         2371 
 4982000   0.44670491   -7.3944872    929.51385   0.01554787   0.01342427         2305 
 4983000   0.46065288   -7.3965394    928.92333  0.015534874  0.013419859         2331 
 4984000   0.45442867   -7.3960332    928.91164  0.015531562  0.013415448         2368 
 4985000   0.44592971    -7.386651    929.91371  0.015545197   0.01341104         2356 
 4986000   0.46429089   -7.3874557    928.10908  0.015511918  0.013406631         2342 
 4987000   0.46202627    -7.393685    929.65854  0.015534699  0.013402224         2369 
 4988000   0.46007709    -7.394587    929.25026  0.015524764  0.013397816         2389 
 4989000   0.45840969   -7.3969362     929.0849   0.01551889  0.013393413         2385 
 4990000   0.45384965   -7.3956731    926.52252  0.015472988  0.013389008         2376 
 4991000    0.4485724   -7.3957131    928.45737  0.015502194  0.013384613         2329 
 4992000   0.46727358    -7.393305    926.85941  0.015472413   0.01338022         2358 
 4993000   0.44784948   -7.4008007    928.64312  0.015499084  0.013375823         2405 
 4994000   0.45083531    -7.395442    930.40192  0.015525329  0.013371428         2384 
 4995000    0.4615568   -7.4020272    929.34805  0.015504639  0.013367037         2355 
 4996000   0.45702666   -7.4043564    928.92672  0.015494508   0.01336265         2390 
 4997000   0.44119816   -7.3993731    929.49384  0.015500864  0.013358261         2391 
 4998000    0.4540906   -7.3959952    928.74013  0.015485196  0.013353873         2398 
 4999000   0.45568713   -7.4035364    928.04262  0.015470471  0.013349485         2426 
 5000000   0.44313144   -7.3952069    928.93452  0.015482242  0.013345101         2361 
 5001000   0.45558782   -7.4018419    928.34289  0.015469288  0.013340718         2362 
 5002000   0.45339612   -7.3837626     928.8123  0.015474015  0.013336335         2366 
 5003000   0.45234822   -7.3944114    929.68518  0.015485462  0.013331951         2326 
 5004000    0.4484565   -7.3929779    927.25853  0.015441955  0.013327573         2341 
 5005000   0.45451882   -7.4018507    928.51603  0.015459807    0.0133232         2387 
 5006000   0.45718001   -7.3992108    927.60658   0.01544158  0.013318831         2394 
 5007000   0.45130243   -7.3920517     928.8885  0.015459831  0.013314459         2353 
 5008000   0.44152694   -7.4043081    929.51637  0.015467192  0.013310091         2374 
 5009000   0.45921305    -7.408795    927.68947   0.01543371  0.013305721         2331 
 5010000   0.43836506   -7.4045318    928.57705  0.015445393  0.013301352         2342 
 5011000   0.45960808   -7.4010213    927.35218  0.015421941  0.013296988         2458 
 5012000   0.44950411   -7.3982807    928.24492  0.015433708  0.013292624         2318 
Loop time of 13015.8 on 48 procs for 5000000 steps with 4000 atoms

Performance: 66380.849 tau/day, 384.148 timesteps/s
99.4% CPU use with 48 MPI tasks x no OpenMP threads

MPI task timing breakdown:
Section |  min time  |  avg time  |  max time  |%varavg| %total
---------------------------------------------------------------
Pair    | 975.79     | 1049.3     | 1134.3     | 113.7 |  8.06
Neigh   | 89.685     | 93.612     | 97.696     |  19.5 |  0.72
Comm    | 822.84     | 907.73     | 989.13     | 126.1 |  6.97
Output  | 16.208     | 16.212     | 16.338     |   0.5 |  0.12
Modify  | 10794      | 10830      | 10865      |  15.9 | 83.21
Other   |            | 119.1      |            |       |  0.91

Nlocal:        83.3333 ave          88 max          77 min
Histogram: 3 0 2 3 8 9 7 8 4 4
Nghost:        2425.15 ave        2441 max        2408 min
Histogram: 1 1 1 13 7 8 9 4 2 2
Neighs:        16792.8 ave       18995 max       14691 min
Histogram: 5 3 6 4 6 4 7 9 3 1
FullNghs:      33585.2 ave       35606 max       31170 min
Histogram: 3 0 3 3 8 11 11 3 5 1

Total # of neighbors = 1612092
Ave neighs/atom = 403.02300
Neighbor list builds = 267426
Dangerous builds = 2

#clear
#
#next RN
#
#jump SELF
Total wall time: 3:36:59
