
units lj                  # Use reduced LJ style units
atom_style atomic         # Uncharged point particles
atom_modify map hash      # Needed for indexing of clusters etc
                          # Used to be able to find where atoms are in relation to each other.

lattice fcc 1.0 spacing 1 1 1
Lattice spacing in x,y,z = 1.5874011 1.5874011 1.5874011
region box block 0 10 0 10 0 10 units lattice
create_box 2 box
Created orthogonal box = (0.0000000 0.0000000 0.0000000) to (15.874011 15.874011 15.874011)
  3 by 4 by 4 MPI processor grid
create_atoms 1 box
Created 4000 atoms
  using lattice units in orthogonal box = (0.0000000 0.0000000 0.0000000) to (15.874011 15.874011 15.874011)
  create_atoms CPU = 0.017 seconds
set type 1 type/fraction 2 0.16 78393
Setting atom values ...
  677 settings made for type/fraction
mass 1 1.0
mass 2 1.0
pair_style lj/cut  3.5
pair_modify tail  yes
pair_coeff 1  1  1.0  1.0   # Intearaction between 1 and 1 set with epsilon = 1 and sigma = 1
pair_coeff 1  2  1.5  0.8
pair_coeff 2  2  0.5  0.88

write_data data.0
System init for write_data ...
Neighbor list info ...
  update every 1 steps, delay 10 steps, check yes
  max neighbors/atom: 2000, page size: 100000
  master list distance cutoff = 3.8
  ghost atom cutoff = 3.8
  binsize = 1.9, bins = 9 9 9
  1 neighbor lists, perpetual/occasional/extra = 1 0 0
  (1) pair lj/cut, perpetual
      attributes: half, newton on
      pair build: half/bin/atomonly/newton
      stencil: half/bin/3d
      bin: standard
WARNING: Not all mixed pair coeffs generated from mixing. Use write_data with 'pair ij' option to store all pair coeffs. (../write_data.cpp:312)


#############################
#   M E L T   S Y S T E M   #
#############################

velocity all create 2.4 5833274 mom yes dist gaussian # Assign velocities
                                                    # Temperature 2.4, random number seed, zero linear momentum
                                                                                # Gaussian distribution

timestep 0.002   # simulation timestep
thermo 1000       # output thermodynamic data every 1000 steps bf 100

# Define a fix  in this case with index 1 applied to all
# particles in the simulation. This fix is for simulations
# in the anisotropic NPT ensemble. Note that we use the MTK
# correction.
fix 1 all npt temp 2.4 2.4 0.1 iso 5.68 5.68 0.5 mtk yes tchain 5 pchain 5 # Use NPT ensemble
                                                                         # Set temperature and pressure and damping
                                                                         # Numbers of thermostats in chain and in barostat
run 10000          # run for 10000 steps
Per MPI rank memory allocation (min/avg/max) = 3.642 | 3.644 | 3.648 Mbytes
Step Temp E_pair E_mol TotEng Press Volume 
       0          2.4   -7.2871769            0   -3.6880769   -3.4159639         4000 
    1000    2.3620848   -4.7733708            0   -1.2311293    5.5019582    4611.8374 
    2000    2.4059083   -4.7506769            0   -1.1427167     5.652047    4614.5558 
    3000    2.3529931   -4.7443616            0   -1.2157543    5.7694274    4595.4384 
    4000    2.3952129   -4.7735723            0   -1.1816512    5.1679196    4652.2854 
    5000    2.3497576   -4.7346044            0   -1.2108492     5.640939    4621.2823 
    6000    2.3535117   -4.8621454            0   -1.3327604    5.3704269     4576.273 
    7000    2.4145949   -4.7984222            0   -1.1774354     5.359674    4619.3708 
    8000    2.3738403   -4.7900604            0   -1.2301901    5.3355085    4628.1149 
    9000    2.3913198   -4.7872999            0    -1.201217    5.7688864    4582.4615 
   10000    2.4167612   -4.7064649            0   -1.0822294    5.6689774    4629.2992 
Loop time of 2.35022 on 48 procs for 10000 steps with 4000 atoms

Performance: 735249.413 tau/day, 4254.916 timesteps/s
99.5% CPU use with 48 MPI tasks x no OpenMP threads

MPI task timing breakdown:
Section |  min time  |  avg time  |  max time  |%varavg| %total
---------------------------------------------------------------
Pair    | 0.92261    | 1.0078     | 1.1216     |   3.4 | 42.88
Neigh   | 0.19034    | 0.20143    | 0.2104     |   0.8 |  8.57
Comm    | 0.68864    | 0.82456    | 0.95914    |   6.5 | 35.08
Output  | 0.00025262 | 0.00025652 | 0.00033601 |   0.0 |  0.01
Modify  | 0.245      | 0.30141    | 0.3727     |   8.0 | 12.82
Other   |            | 0.01477    |            |       |  0.63

Nlocal:        83.3333 ave          91 max          76 min
Histogram: 2 0 8 5 13 3 9 3 2 3
Nghost:        1493.38 ave        1512 max        1464 min
Histogram: 1 0 2 2 4 11 15 6 5 2
Neighs:        8242.10 ave        9116 max        7275 min
Histogram: 2 2 4 4 8 12 8 2 3 3

Total # of neighbors = 395621
Ave neighs/atom = 98.905250
Neighbor list builds = 907
Dangerous builds = 210

# Equilibrate just above the melting temperature to avoid step fn in T

fix 1 all npt temp 1.25 1.25 0.1 iso 5.68 5.68 0.5 mtk yes tchain 5 pchain 5
run 2000
Per MPI rank memory allocation (min/avg/max) = 3.642 | 3.644 | 3.648 Mbytes
Step Temp E_pair E_mol TotEng Press Volume 
   10000    2.4167612   -4.7064649            0   -1.0822294    5.6689774    4629.2992 
   11000    1.2468163   -6.4188179            0   -4.5490609    5.5834997    3778.3246 
   12000    1.2720526   -6.4339587            0   -4.5263568    5.6767717    3769.5316 
Loop time of 0.53842 on 48 procs for 2000 steps with 4000 atoms

Performance: 641878.588 tau/day, 3714.575 timesteps/s
99.4% CPU use with 48 MPI tasks x no OpenMP threads

MPI task timing breakdown:
Section |  min time  |  avg time  |  max time  |%varavg| %total
---------------------------------------------------------------
Pair    | 0.21855    | 0.23689    | 0.2556     |   1.9 | 44.00
Neigh   | 0.031743   | 0.033984   | 0.035984   |   0.5 |  6.31
Comm    | 0.14739    | 0.16935    | 0.22025    |   3.2 | 31.45
Output  | 5.0704e-05 | 5.5062e-05 | 0.00018312 |   0.0 |  0.01
Modify  | 0.048759   | 0.09362    | 0.10275    |   3.3 | 17.39
Other   |            | 0.004518   |            |       |  0.84

Nlocal:        83.3333 ave          92 max          77 min
Histogram: 4 4 10 4 6 4 9 1 4 2
Nghost:        1713.62 ave        1733 max        1688 min
Histogram: 3 0 2 3 10 9 7 5 4 5
Neighs:        10128.9 ave       11697 max        9165 min
Histogram: 5 4 11 8 6 5 4 4 0 1

Total # of neighbors = 486186
Ave neighs/atom = 121.54650
Neighbor list builds = 143
Dangerous builds = 11

#############################
# L I N E A R  Q U E N C H  #
#############################

# Define solid atoms. This closely follows ten Wolde  Ruiz-Montero and Frenkel  Faraday Discuss  1996  104  93-110
# Compute components of the per-atom q6 vector
compute q6 all orientorder/atom degrees 1 6 components 6 nnn NULL cutoff 1.3 # compute the Q6 parameter.
                                                                             # Use all neighbours within 1.3 unit cell.

# get number of connections
compute coord_number all coord/atom orientorder q6 0.5

# An atom is solid if it has 8 or more connections (of a possible 14)
variable is_solid atom c_coord_number>=8
group solid dynamic all var is_solid    # Must be dynamic to update
dynamic group solid defined

# do clustering
compute cluster solid cluster/atom 1.3 # Create a cluster where all atoms within are solid and max 1.3 units from another member

# define chunks one chunk per cluster
compute clus_chunks solid chunk/atom c_cluster nchunk every compress yes  # Says which atoms are in which chunk

# count the size of each chunk
compute size_chunks solid property/chunk clus_chunks count


# Find the maximum entry in the vector of chunk sizes
variable max_n equal max(c_size_chunks)


# Thermo style which includes this variable
# thermo_style custom step temp pe vol v_max_n

thermo ${N}  # Print the thermo information every 100 steps
thermo 1000  

# Reset the npt fix at a lower temperature (below freezing)
fix 1  all npt temp  ${temp} ${temp}  0.1  iso  5.68  5.68  0.5  mtk yes tchain  5  pchain  5
fix 1  all npt temp  0.45 ${temp}  0.1  iso  5.68  5.68  0.5  mtk yes tchain  5  pchain  5
fix 1  all npt temp  0.45 0.45  0.1  iso  5.68  5.68  0.5  mtk yes tchain  5  pchain  5

dump dmp2 all dcd ${N} traj.dcd
dump dmp2 all dcd 1000 traj.dcd


compute msd all msd com yes
variable twopoint equal c_msd[4]/6/(step*dt+1.0e-6)
fix 9 all vector 10 c_msd[4]
variable fit equal slope(f_9)/6/(10*dt)
thermo_style custom step temp pe c_msd[4] v_twopoint v_fit v_max_n

fix 1 all npt temp 1.25 ${temp} 0.1 iso 5.68 5.68 0.5 mtk yes tchain 5 pchain 5
fix 1 all npt temp 1.25 0.45 0.1 iso 5.68 5.68 0.5 mtk yes tchain 5 pchain 5
run 5000000 # 5000000  # Run for this many steps
Neighbor list info ...
  update every 1 steps, delay 10 steps, check yes
  max neighbors/atom: 2000, page size: 100000
  master list distance cutoff = 3.8
  ghost atom cutoff = 3.8
  binsize = 1.9, bins = 9 9 9
  4 neighbor lists, perpetual/occasional/extra = 1 3 0
  (1) pair lj/cut, perpetual
      attributes: half, newton on
      pair build: half/bin/atomonly/newton
      stencil: half/bin/3d
      bin: standard
  (2) compute orientorder/atom, occasional
      attributes: full, newton on
      pair build: full/bin/atomonly
      stencil: full/bin/3d
      bin: standard
  (3) compute coord/atom, occasional
      attributes: full, newton on
      pair build: full/bin/atomonly
      stencil: full/bin/3d
      bin: standard
  (4) compute cluster/atom, occasional
      attributes: full, newton on
      pair build: full/bin/atomonly
      stencil: full/bin/3d
      bin: standard
Per MPI rank memory allocation (min/avg/max) = 9.766 | 9.771 | 9.776 Mbytes
Step Temp PotEng c_msd[4] v_twopoint v_fit v_max_n 
   12000    1.2720526   -6.4339587 5.0256356e-30 3.4900246e-32 8.3333333e+20            2 
   13000    1.2396347   -6.4587132   0.53992026 0.0034610272  0.044977536            1 
   14000    1.2343705   -6.4120662    1.0360082 0.0061667155  0.042471109            2 
   15000    1.2247742   -6.3972782    1.5532522 0.0086291784  0.042291435            2 
   16000    1.2636386    -6.409981    2.0569573  0.010713319  0.042334484            1 
   17000    1.2403714   -6.4207431    2.6101642  0.012794922  0.042783387            2 
   18000    1.2645082   -6.4582047    3.0888795  0.014300367  0.042795955            3 
   19000    1.2340862   -6.4447552    3.6043542  0.015808571  0.042769244            1 
   20000    1.2314852   -6.4100354    4.1407102  0.017252959  0.042789349            1 
   21000    1.2426956   -6.4625282    4.6919295  0.018618768  0.042999774            2 
   22000    1.2286576   -6.4194392    5.2594565  0.019922183   0.04330712            3 
   23000    1.2460221   -6.3989463    5.7909676  0.020981766  0.043562679            2 
   24000      1.21848   -6.4479351    6.3600754  0.022083595  0.043764021            1 
   25000    1.2647374   -6.4551711    6.9119289  0.023039762  0.044040616            2 
   26000    1.2451716    -6.462991    7.5030507  0.024048239   0.04427286            3 
   27000    1.2699638   -6.4797853    7.9317636  0.024480751  0.044477951            2 
   28000    1.2440257   -6.4720687    8.3595907  0.024879734  0.044386023            1 
   29000    1.2532207   -6.4458478    8.8044501  0.025300144  0.044152832            1 
   30000    1.2788601   -6.4442003    9.2161389  0.025600385  0.043802633            2 
   31000    1.2695493   -6.4480359    9.7512782  0.026213113  0.043548316            2 
   32000    1.2598152   -6.4263041    10.269765   0.02674418  0.043309758            2 
   33000    1.3014588   -6.4229529    10.866305  0.027440164  0.043194937            2 
   34000    1.2252003   -6.4225918    11.401782  0.027945544  0.043171474            4 
   35000    1.2644221   -6.4049641    11.920144  0.028381294  0.043102841            2 
   36000     1.279017   -6.4367394    12.474974  0.028877254  0.043082671            4 
   37000    1.2217461   -6.4290685    12.908973  0.029074263  0.043067661            3 
   38000    1.2572356   -6.4467218    13.344011  0.029263181  0.042981479            1 
   39000    1.2436222   -6.4485392    13.951031  0.029809894  0.042959979            3 
   40000    1.2603184   -6.4604607    14.489816  0.030187116  0.042955194            2 
   41000    1.2511107   -6.3953716    15.059208  0.030608146  0.042956901            3 
   42000    1.2322765   -6.4243898    15.610892  0.030973992  0.042994226            3 
   43000    1.2196997   -6.4303946    16.152124  0.031302566  0.043045278            2 
   44000     1.247128   -6.4110202    16.618146  0.031473762  0.043070396            2 
   45000    1.2549291    -6.474296    17.036425  0.031548934  0.043055851            3 
   46000    1.2352435   -6.3868534    17.829635  0.032300064  0.043116847            2 
   47000    1.2545126   -6.4284293    18.292385  0.032433306  0.043177937            2 
   48000    1.2452636   -6.4170515    18.706119  0.032475901  0.043195025            1 
   49000     1.262304   -6.4164194    19.253277  0.032743669  0.043194722            1 
   50000    1.2527024   -6.4436445    19.635523  0.032725872  0.043170399            5 
   51000    1.2406686   -6.4911747    20.202706  0.033010957  0.043150617            3 
   52000    1.2500417   -6.4653428    20.839699  0.033396953  0.043164075            5 
   53000    1.2640433   -6.4536179    21.482386  0.033777336  0.043230432            2 
   54000    1.2364061   -6.4167254     22.13279  0.034155539  0.043287333            2 
   55000     1.239206   -6.4146609      22.5813  0.034214091  0.043341438            1 
   56000    1.2458793   -6.4631854    23.092938  0.034364491  0.043386306            3 
   57000    1.2249728   -6.4701357    23.765927  0.034745507  0.043441365            2 
   58000    1.2328277    -6.445047    24.257429  0.034852628  0.043511767            2 
   59000    1.2040059   -6.4574606    24.972182  0.035271444  0.043586718            2 
   60000     1.266519   -6.4345765    25.565984  0.035508311  0.043679492            3 
   61000    1.2294297   -6.4487951    26.115749  0.035677253   0.04378009            2 
   62000    1.2528689   -6.4096673    26.555731  0.035693187  0.043857641            1 
   63000    1.2618805   -6.4543923    27.126053  0.035881022  0.043914738            1 
   64000    1.2706406    -6.441608    27.666239  0.036023749  0.043977176            2 
   65000    1.2368564   -6.4428453    28.205432  0.036160811  0.044037007            2 
   66000     1.258079   -6.4150871    28.662002  0.036189396  0.044092811            4 
   67000    1.2171541   -6.4472707    29.331343   0.03648177  0.044145218            2 
   68000    1.2429008   -6.4759832    29.888688  0.036628294  0.044210825            1 
   69000     1.239778   -6.4017358    30.482692  0.036814845   0.04427437            2 
   70000     1.273988   -6.4323728    31.058105  0.036973935  0.044326075            3 
   71000    1.2441199   -6.4600137    31.577364  0.037062633  0.044376499            1 
   72000    1.2652334    -6.447593    32.297237  0.037381061   0.04443892            3 
   73000    1.2544528   -6.4652205    32.934801  0.037596804  0.044511958            2 
   74000    1.2531976    -6.441409    33.523829  0.037752059  0.044584041            3 
   75000    1.2238333   -6.4670362     33.81068  0.037567422  0.044647695            2 
   76000    1.2487713   -6.4537009    34.477547  0.037804328  0.044707873            2 
   77000    1.2673431   -6.4762629    35.117248   0.03800568  0.044766297            1 
   78000    1.2087642   -6.4559083    35.884895  0.038338563  0.044828819            3 
   79000    1.2619859   -6.4213987     36.51848  0.038521603  0.044912851            2 
   80000    1.2380589   -6.4567727    36.825635  0.038360036  0.044978608            2 
   81000     1.244498   -6.4448876    37.733937  0.038820923  0.045043166            1 
   82000    1.2121497   -6.4035848    38.209882   0.03883118  0.045110511            1 
   83000    1.2291563   -6.4133975    38.696965  0.038852374  0.045177506            2 
   84000    1.2461222   -6.4345424    39.211594   0.03890039  0.045239125            1 
   85000    1.2466828   -6.4737156    39.894223  0.039111983  0.045296941            2 
   86000    1.2348288   -6.4356695    40.439987  0.039186033   0.04535178            1 
   87000     1.259132   -6.4333891    40.913486  0.039189163  0.045402933            2 
   88000    1.2634043   -6.4143042     41.56813  0.039363759  0.045450715            1 
   89000    1.2385026   -6.4071984    41.992095  0.039318441  0.045505388            2 
   90000    1.2272938   -6.4915003    42.519682  0.039370076  0.045548315            3 
   91000    1.2293226   -6.4306205    43.284392  0.039637721  0.045588986            1 
   92000    1.2362277   -6.4932139    43.628255  0.039518347  0.045629485            2 
   93000    1.2276235   -6.4286289    44.201281  0.039606883  0.045656517            3 
   94000    1.2542339   -6.4549091    44.674574  0.039605119  0.045676401            3 
   95000    1.2349071    -6.451627    45.155273  0.039609889  0.045696854            2 
   96000    1.2265038   -6.4721159    45.623876  0.039604058  0.045714294            1 
   97000    1.2190345   -6.4434886    46.482584  0.039933491  0.045736203            1 
   98000    1.2383903   -6.4597532    47.029089  0.039990722  0.045763992            1 
   99000     1.209056   -6.4238324    47.485453  0.039970919  0.045787471            2 
  100000    1.2363969    -6.444545    47.728328  0.039773607  0.045801305            2 
  101000    1.2356034   -6.4519204    48.319569  0.039867631  0.045801829            2 
  102000    1.2632357   -6.4581173    48.659813  0.039754749  0.045797535            2 
  103000    1.2469606   -6.4428806     49.49875  0.040047533  0.045799936            2 
  104000    1.2331517   -6.4400025    50.124513  0.040163872  0.045812218            1 
  105000    1.2251027   -6.4538763    50.794135  0.040312805  0.045825612            2 
  106000    1.2332585   -6.4887701    51.118468  0.040187475  0.045834398            2 
  107000    1.2137877    -6.496108    51.789759  0.040334703  0.045838351            2 
  108000    1.2390677    -6.479848    52.427627  0.040453416  0.045849592            3 
  109000    1.2206939   -6.4397917    53.147324  0.040632511  0.045863479            3 
  110000    1.2579766   -6.4376819    53.555894  0.040572647  0.045876271            2 
  111000    1.2299879   -6.4708269    54.090488  0.040608474  0.045887344            2 
  112000    1.2109463   -6.4666202    54.420843  0.040491699  0.045885744            1 
  113000    1.2708561   -6.4575678    54.790227  0.040405772   0.04588354            1 
  114000    1.2223654   -6.4711539    55.291825  0.040418001  0.045875794            3 
  115000     1.226942   -6.4711861    55.827124  0.040454438   0.04586527            1 
  116000     1.239422    -6.461451    56.341541  0.040475245  0.045860418            3 
  117000      1.21476   -6.4451922    57.083042  0.040657437  0.045854957            3 
  118000    1.2270387   -6.4963266    57.535911  0.040632705  0.045851024            3 
  119000    1.2449179   -6.4697375    57.812187  0.040484725  0.045845818            1 
  120000    1.2431735   -6.4957414    57.928952  0.040228439  0.045826346            2 
  121000    1.2592588   -6.4738738    58.528746  0.040309054   0.04579758            2 
  122000    1.2172624   -6.4238475    58.973534  0.040282469  0.045760603            1 
  123000    1.2123233   -6.4502731    59.672021  0.040428199  0.045729498            2 
  124000    1.2161429   -6.4677764    60.235239  0.040480671  0.045699269            2 
  125000    1.2355027   -6.4638622    60.593387  0.040395591  0.045667721            2 
  126000    1.2594744   -6.4484106    61.178446  0.040461935   0.04563712            1 
  127000     1.246243   -6.4860716    61.351883  0.040257141  0.045606932            2 
  128000    1.2213762   -6.4213675     62.10181  0.040430866  0.045573438            2 
  129000    1.2247105   -6.4782574    62.691239  0.040498216  0.045542441            1 
  130000    1.1893761    -6.467404     63.29692  0.040574949  0.045516351            3 
  131000    1.2462017   -6.4989872    63.681575  0.040509908  0.045487842            2 
  132000    1.2459924   -6.4532887    64.142652  0.040494099  0.045462322            6 
  133000    1.2155656   -6.4710509    64.682775  0.040528055  0.045432486            3 
  134000    1.2282895   -6.4824762    65.064891  0.040463241  0.045400697            1 
  135000    1.2283322   -6.5075894    65.730367    0.0405743  0.045365667            2 
  136000    1.2213086   -6.4572454    66.252658  0.040595991  0.045337577            2 
  137000    1.2389725   -6.4697097    66.569784  0.040492569  0.045308898            4 
  138000    1.2078417   -6.4691621    67.455515  0.040734007  0.045286437            3 
  139000    1.2416412   -6.4667295    67.944887  0.040734345  0.045270353            3 
  140000    1.2439412    -6.474746     68.46659  0.040753922  0.045253213            2 
  141000    1.2241329   -6.4726124    69.083862  0.040829706  0.045232796            3 
  142000     1.249193   -6.5175744    69.356746  0.040702316  0.045208253            2 
  143000    1.2336532   -6.4800168    69.764983  0.040655584  0.045184646            4 
  144000    1.2372427   -6.4662673     70.70149  0.040915214  0.045164916            1 
  145000    1.2378787   -6.4735839    71.218791  0.040930339  0.045147948            2 
  146000    1.2272445   -6.4648479    71.554039  0.040841346  0.045130435            2 
  147000    1.2188864   -6.4922312    72.211307  0.040936115  0.045112959            2 
  148000     1.236083   -6.5034291    72.930352  0.041064388  0.045099452            1 
  149000    1.2288968   -6.4908735    73.441716  0.041074785   0.04509212            5 
  150000    1.2289502   -6.5034461    73.847887  0.041026604    0.0450843            1 
  151000    1.2211822   -6.4388173    74.791492  0.041275657  0.045073836            1 
  152000      1.21733   -6.4809736    75.081553  0.041163132  0.045063626            1 
  153000    1.2622515   -6.4738276    75.503065  0.041123673  0.045051739            1 
  154000    1.2155521   -6.4399647    75.887891  0.041064876  0.045032039            2 
  155000    1.2279627   -6.4966882    75.895662  0.040804119  0.045010598            3 
  156000    1.2347398   -6.4303644    76.781756  0.041015895  0.044989624            2 
  157000    1.2049375   -6.4866507    77.270599  0.041014118  0.044966026            2 
  158000    1.2118821   -6.4545818     77.60558  0.040931213  0.044945554            2 
  159000    1.2146691   -6.5053165    77.917609  0.040837321  0.044921433            4 
  160000    1.2180318   -6.4853537    78.619944  0.040947887  0.044895937            2 
  161000    1.2264253   -6.4653821    79.262759  0.041026272  0.044876779            2 
  162000    1.2485519   -6.4387849    79.601209  0.040947124  0.044853187            1 
  163000    1.1914071   -6.4660151    79.763595  0.040778934  0.044827228            3 
  164000    1.2232305   -6.4819014    80.266853  0.040786003  0.044799798            2 
  165000     1.224416   -6.4790123    80.572143  0.040693002  0.044770058            3 
  166000    1.2425522   -6.4942789     81.05939  0.040692465  0.044738077            2 
  167000     1.224408   -6.4882591    81.159728  0.040498866  0.044702636            3 
  168000    1.2247749   -6.4879586    81.634494  0.040493301  0.044663606            1 
  169000    1.2029271     -6.46987    82.297815  0.040580776  0.044624127            2 
  170000    1.2470136   -6.4289447    82.566691  0.040473868  0.044582772            4 
  171000    1.2374182   -6.4656293    82.838668  0.040369721  0.044540337            2 
  172000    1.2250042   -6.5100993    83.214479  0.040317092  0.044495847            4 
  173000    1.2154171   -6.4753295    83.902917  0.040415663  0.044452129            3 
  174000    1.2448338    -6.462089    84.195861  0.040323688  0.044409165            2 
  175000     1.192003   -6.4143136    84.982794  0.040467997  0.044365142            2 
  176000    1.2179457   -6.4267813    85.459831  0.040463935  0.044322914            5 
  177000    1.2172482   -6.5139649    85.499712  0.040254102  0.044283249            1 
  178000    1.2072063   -6.5060252    86.158727  0.040336482  0.044242438            4 
  179000    1.2094724   -6.4875921    86.330237  0.040190986  0.044200264            2 
  180000    1.2088267    -6.474374    86.933082  0.040246797  0.044158236            2 
  181000    1.2329447   -6.5046329    87.367884  0.040224624  0.044115159            2 
  182000     1.199574   -6.4809989    88.032381  0.040307867  0.044070176            1 
  183000    1.2052634   -6.4706027    88.231839  0.040178433  0.044028182            2 
  184000    1.2371347   -6.5084243    88.834489  0.040233011  0.043989508            8 
  185000    1.2368149   -6.4054149    89.680287  0.040396525  0.043950228            1 
  186000    1.2165209   -6.4762648    90.062306  0.040350495  0.043908554            2 
  187000    1.2024179   -6.4758228    90.131641  0.040165615  0.043868481            2 
  188000    1.2356594   -6.4397447       91.015  0.040343528  0.043830711            2 
  189000    1.2259602   -6.5078569    91.550631  0.040366239  0.043796034            3 
  190000     1.222608   -6.4946306    91.879365  0.040297967  0.043761882            4 
  191000     1.215889    -6.453939    92.395258  0.040312067  0.043729207            2 
  192000    1.2438632   -6.5330286    92.606483  0.040193786  0.043696686            3 
  193000    1.2054587   -6.4824435    93.421434  0.040337407  0.043665393            2 
  194000    1.2178395   -6.4961694    94.106423  0.040423721  0.043634468            2 
  195000    1.2211006   -6.4434556    94.889179  0.040550931  0.043603468            1 
  196000    1.2214641    -6.505574    95.081474  0.040425797  0.043576446            2 
  197000    1.2334572   -6.4859556    96.033472  0.040623296  0.043555448            1 
  198000    1.2507267   -6.4714023    96.658291  0.040681099  0.043535724            2 
  199000    1.2444305   -6.4922115    97.179435  0.040694906  0.043517924            2 
  200000    1.2325396   -6.4937782    97.162302  0.040484293  0.043499789            1 
  201000    1.2354803   -6.4919315    98.119292   0.04067964   0.04348197            2 
  202000    1.2283701   -6.4754517    98.975875  0.040831632  0.043465444            1 
  203000     1.230627   -6.4633705    99.538959  0.040861642  0.043450244            1 
  204000    1.2061377     -6.46511    99.897245  0.040807698  0.043435126            1 
  205000    1.1948912   -6.4709584     99.88866  0.040605146  0.043418201            2 
  206000    1.2051579   -6.4721975    100.79878  0.040776207  0.043401101            4 
  207000    1.2259628   -6.4905483    100.75173   0.04056028  0.043381149            1 
  208000    1.2410861   -6.5129968    100.58929  0.040300195  0.043358522            2 
  209000    1.2461048   -6.4532299    101.96936  0.040657641  0.043338369            2 
  210000    1.2293858   -6.4655365    101.82461   0.04040659  0.043317089            2 
  211000    1.2243933   -6.4686738    102.77461  0.040590289     0.043296            2 
  212000    1.2094938   -6.4508982    103.06955  0.040514759  0.043274546            2 
  213000    1.2143036   -6.4750016    103.26174  0.040399743  0.043252634            2 
  214000    1.2247393   -6.5150934    103.91086  0.040463729  0.043231739            3 
  215000    1.2217061   -6.4915523    104.39892  0.040464696  0.043210175            2 
  216000    1.1958229   -6.5272589     104.6886  0.040389121  0.043189377            2 
  217000    1.2697398   -6.4564739    105.50726  0.040517379  0.043166781            1 
  218000     1.197772   -6.4829658    105.91252  0.040486436  0.043143225            1 
  219000    1.2116336    -6.454357    105.73188  0.040232832  0.043118793            1 
  220000    1.2188155   -6.4709619    106.42683  0.040313192  0.043095405            3 
  221000    1.2100677   -6.4780055    107.27159  0.040449319  0.043070439            4 
  222000    1.1997231    -6.495162    107.65769  0.040412046  0.043045901            3 
  223000    1.2167911   -6.5002326    107.98798  0.040354252  0.043023471            1 
  224000    1.2344722   -6.5060792    108.61874  0.040408757  0.042999582            1 
  225000     1.226058   -6.4562364    109.58161  0.040585783  0.042979249            2 
  226000    1.2248017   -6.4923284    109.58367  0.040406957  0.042958968            2 
  227000     1.213974   -6.5059149    109.86098  0.040330757  0.042937232            3 
  228000    1.2172104   -6.4865274    110.23837  0.040291803  0.042913418            2 
  229000    1.2155021   -6.4812414    110.69724  0.040282837  0.042891196            1 
  230000    1.2264849   -6.4641809    111.06606  0.040241325  0.042867348            1 
  231000    1.2121661   -6.4783872     111.8725  0.040358044  0.042843559            2 
  232000    1.2156108   -6.4936204    112.15285  0.040284789  0.042820984            2 
  233000    1.2130844   -6.5134069    112.77302  0.040333697  0.042799772            2 
  234000    1.1999407   -6.5385464    113.54821  0.040437397  0.042778541            3 
  235000    1.2074957   -6.5248214    113.95363   0.04040909  0.042759838            1 
  236000    1.2336613   -6.5388907    114.72214  0.040509229  0.042740747            1 
  237000     1.210933   -6.4772569    115.62369  0.040655304   0.04272641            1 
  238000    1.1901984   -6.4812805    115.76132  0.040532676  0.042712941            2 
  239000    1.1993492   -6.4760846    116.19293  0.040513573  0.042699506            1 
  240000    1.1962047   -6.5001801    116.81342  0.040560215  0.042685783            2 
  241000     1.176019   -6.4650323    117.62371    0.0406721  0.042672034            3 
  242000    1.2220505   -6.4897023    117.53769  0.040474412  0.042659887            3 
  243000     1.229782   -6.4758835    119.10393   0.04084497  0.042648183            3 
  244000    1.1940644   -6.4957583     119.4337  0.040790197  0.042640048            2 
  245000    1.2212764   -6.4926665    119.90808   0.04078506  0.042632978            4 
  246000    1.2315603   -6.4927938    120.97831  0.040981812  0.042627523            2 
  247000     1.226551   -6.4700454    121.28259  0.040918554  0.042623834            2 
  248000    1.1795926   -6.4948767    121.73906  0.040906943  0.042619798            1 
  249000     1.234929    -6.481031    122.42344  0.040971699   0.04261648            1 
  250000    1.2072745   -6.4816479    123.36027   0.04112009  0.042615591            2 
  251000    1.2320211   -6.5229276    123.17789  0.040895714  0.042613958            3 
  252000    1.2357447   -6.5373323    124.19289  0.041069076  0.042609744            1 
  253000    1.2251161   -6.5055185    124.34249  0.040956025  0.042609333            1 
  254000    1.2274226   -6.5042826     124.4619  0.040833957  0.042605383            2 
  255000    1.2130989   -6.5149687    125.24971  0.040931278   0.04260113            1 
  256000    1.2027915   -6.5082898    125.90087  0.040983357  0.042597774            1 
  257000     1.183635   -6.5062586    126.00574  0.040857891  0.042594026            3 
  258000    1.2329767   -6.4771967    127.16017  0.041072408  0.042590819            2 
  259000      1.23714   -6.4937271    127.36515  0.040979779  0.042586692            3 
  260000     1.203481   -6.5068077    127.12871   0.04074638  0.042578302            2 
  261000    1.2141855   -6.4992917    127.21436  0.040617611  0.042568355            2 
  262000    1.2196346   -6.5204825    127.78932  0.040645459  0.042558682            1 
  263000    1.2052621   -6.4955751     128.6285  0.040756814  0.042549892            2 
  264000    1.1985492   -6.5079183    129.13755  0.040763117  0.042542122            3 
  265000    1.1985807   -6.4689137    129.71291  0.040790224  0.042535438            2 
  266000    1.1775012   -6.4630296    130.55055  0.040899296  0.042526888            3 
  267000    1.2219453     -6.53166    131.37681  0.041003998  0.042519439            2 
  268000     1.228439   -6.5144591    131.31928  0.040833109  0.042512942            2 
  269000    1.1963574   -6.5192539    131.84128  0.040843023  0.042505946            1 
  270000    1.2005796   -6.5055448    132.47109   0.04088614   0.04249936            3 
  271000    1.1977309   -6.4951938    132.34911  0.040697758  0.042492388            1 
  272000    1.2031397   -6.5120693    132.77428  0.040678394  0.042485843            2 
  273000    1.2101658    -6.525009    133.44539  0.040734245  0.042478117            2 
  274000    1.2035614   -6.4543047    134.28326  0.040840407  0.042470984            2 
  275000    1.1906488   -6.5195498     134.7812  0.040842788   0.04246441            2 
  276000    1.1761432   -6.5482528    134.67816  0.040663697   0.04245771            4 
  277000    1.2183528   -6.4795623    135.65176  0.040809795  0.042449071            2 
  278000    1.2048388   -6.5243247    135.85895  0.040725105    0.0424403            2 
  279000    1.2169378   -6.5496347     136.2382  0.040692413    0.0424323            2 
  280000    1.2057026   -6.4979734    137.06752  0.040793905  0.042422436            3 
  281000    1.1693124   -6.5000752    137.50067  0.040777187  0.042415203            2 
  282000    1.2126159   -6.4879949    138.01308  0.040784007  0.042406661            2 
  283000    1.2261695   -6.5555866    137.95779  0.040623613  0.042396662            1 
  284000    1.2180609   -6.5326098    138.74236  0.040710786  0.042387064            3 
  285000    1.1980223    -6.464359    138.86583  0.040604044  0.042377296            2 
  286000    1.2150246     -6.50996    139.84262  0.040746683  0.042367591            1 
  287000    1.1947703   -6.5123156    139.78373   0.04058761  0.042356911            1 
  288000    1.2113238   -6.5426947    139.84195  0.040463526  0.042345942            4 
  289000    1.1827106   -6.5126606      140.742  0.040583045  0.042334487            1 
  290000    1.2010935   -6.5160067    141.31835  0.040608722  0.042323705            2 
  291000    1.1810809   -6.5189524    141.91049  0.040638744  0.042312074            3 
  292000    1.1929082   -6.5229315    142.37976  0.040633493  0.042302089            2 
  293000    1.1991584   -6.5002234    142.62568  0.040564756  0.042290729            4 
  294000    1.2149472   -6.5186221     143.8024  0.040760317  0.042281054            1 
  295000    1.1952345   -6.5237081    144.03232  0.040687095  0.042270537            2 
  296000    1.2065662   -6.5013246    143.90245  0.040513078  0.042260073            1 
  297000    1.1865751   -6.5221256    144.67763  0.040594172  0.042249926            2 
  298000    1.2054417   -6.4953849     145.6999  0.040743821  0.042240672            1 
  299000    1.2079558   -6.5088054    146.54606  0.040843382  0.042233059            2 
  300000    1.1994909   -6.5557034    146.04899  0.040569165  0.042224243            3 
  301000    1.2164043    -6.522806    146.71455  0.040618646  0.042217187            2 
  302000    1.2272128   -6.4834121    147.84427  0.040795881  0.042209805            2 
  303000    1.1952348    -6.536452    148.09648  0.040730604  0.042202538            3 
  304000    1.2155242   -6.5065134    148.68861  0.040758939  0.042194696            2 
  305000    1.2111821   -6.5472739    148.74597  0.040640976  0.042187547            2 
  306000     1.193417   -6.5273757    149.17814  0.040625856  0.042178984            1 
  307000    1.2173307   -6.5105633    149.26105   0.04051603  0.042169751            3 
  308000    1.2188269    -6.534663    149.75704  0.040518678  0.042159703            2 
  309000      1.21849   -6.5215734    150.85554  0.040683803   0.04215029            1 
  310000    1.2065867   -6.5146536    150.57594  0.040477404  0.042139566            1 
  311000    1.2056277   -6.4976319    151.41581  0.040572298  0.042130603            1 
  312000    1.2109203    -6.487931    152.65338  0.040772805  0.042121271            1 
  313000    1.2013946   -6.4892056      152.664  0.040645366  0.042112833            3 
  314000    1.2025608   -6.4937742    153.19236  0.040656146  0.042103099            2 
  315000    1.2038111   -6.5163233    153.41814   0.04058681  0.042093782            2 
  316000    1.1916688   -6.5103067    154.14662  0.040650479  0.042084624            1 
  317000    1.1861673   -6.5125601    154.11921  0.040515038  0.042074184            1 
  318000    1.2083733   -6.5405059    153.91471  0.040334044  0.042063631            2 
  319000    1.2073656   -6.5421598    154.86717  0.040456418  0.042052365            5 
  320000    1.1976482   -6.5081799    155.24932   0.04042951  0.042041724            4 
  321000     1.202894   -6.5416169    155.70926  0.040422964  0.042031078            2 
  322000    1.1880504   -6.5815485    155.98061  0.040367652  0.042018164            2 
  323000    1.1938523   -6.4899581    157.16798  0.040549015  0.042006658            1 
  324000     1.216076    -6.492388    157.16164  0.040422231  0.041995628            4 
  325000    1.1937984   -6.5431508    157.66963   0.04042811  0.041984752            2 
  326000    1.1810694   -6.5169449    158.53309  0.040524819  0.041973703            3 
  327000    1.2115956   -6.5171359    158.94092   0.04050482  0.041962437            3 
  328000    1.2078912   -6.5369609    159.21268  0.040450376  0.041952291            3 
  329000    1.1990174   -6.5216047    159.83379  0.040484748  0.041941871            2 
  330000    1.2166371   -6.4975678    160.56396  0.040546455  0.041932546            2 
  331000    1.2060796   -6.4985901    160.63683  0.040442304  0.041923099            1 
  332000    1.1993566   -6.5580372    161.76481  0.040603617  0.041912843            2 
  333000    1.1995805   -6.5158097    162.28943  0.040612969  0.041903643            1 
  334000    1.2047608   -6.5122243    162.56058  0.040559026  0.041895376            2 
  335000    1.1938595   -6.5564379    162.53048  0.040430467  0.041886014            4 
  336000    1.2098998   -6.5557048    163.36461  0.040517017   0.04187636            2 
  337000    1.1873175   -6.5359644    163.73725  0.040488933   0.04186688            2 
  338000    1.1916186   -6.5587719    164.16529  0.040474677  0.041858379            2 
  339000    1.2245503   -6.5129773    164.72814  0.040493643  0.041850242            1 
  340000    1.2093251   -6.5712986    165.37557  0.040533228  0.041843129            2 
  341000    1.2198857   -6.5120549    166.54345  0.040699767  0.041835798            3 
  342000    1.1779045   -6.5032203    166.71744  0.040623158  0.041831515            2 
  343000    1.2216826   -6.4973883    167.71419  0.040746887  0.041826832            1 
  344000    1.1719223   -6.5476926    167.63068  0.040608208  0.041822062            2 
  345000    1.2268198   -6.5358346    168.94768  0.040808617  0.041817318            4 
  346000    1.1728652   -6.5128861    169.24045  0.040761187  0.041813841            2 
  347000    1.2122279   -6.5314369    169.79999  0.040778097  0.041810532            2 
  348000    1.2175944   -6.4947936    170.28541  0.040777158   0.04180745            2 
  349000    1.2017666    -6.537626    170.45433  0.040700651  0.041804935            3 
  350000     1.198424   -6.5577432    170.95462  0.040703481  0.041801395            2 
  351000    1.1900106   -6.5117607    171.26368  0.040660894  0.041797414            3 
  352000    1.1808183   -6.5151395    171.00765  0.040484765   0.04179279            2 
  353000    1.1965503   -6.5498507     172.1181  0.040632223  0.041787258            3 
  354000     1.233042   -6.5170275    172.90165  0.040701894  0.041780508            1 
  355000    1.2082317   -6.5185594    173.54238  0.040737648  0.041775609            1 
  356000    1.1983596   -6.5290987    173.49948  0.040613174  0.041770895            3 
  357000    1.2034541   -6.5581673    174.19315  0.040661333  0.041766376            2 
  358000    1.2161308   -6.4994244    175.24683  0.040793024  0.041761252            4 
  359000    1.2110715   -6.5584963    174.97465  0.040616214  0.041756893            3 
  360000    1.1983666   -6.5611403    175.86242  0.040708892  0.041751493            4 
  361000     1.186844   -6.5308874    176.30941  0.040699311   0.04174703            2 
  362000    1.1873219   -6.5244647    176.95972  0.040736584  0.041743142            3 
  363000    1.2078798    -6.518422    177.23225  0.040686926  0.041738538            2 
  364000    1.1843828   -6.5283211    177.70086  0.040682431  0.041733027            2 
  365000    1.1843214   -6.5298142    177.58907   0.04054545  0.041728353            2 
  366000    1.1896157   -6.5089847    178.97125  0.040749373  0.041723402            5 
  367000    1.1937088   -6.5167167    178.94076  0.040631416  0.041718502            5 
  368000    1.1796517   -6.5281259    179.68382  0.040689271   0.04171432            2 
  369000    1.1949825   -6.5969794    180.01151  0.040653007  0.041708735            3 
  370000    1.1960457   -6.5265543    179.77845  0.040490642   0.04170321            2 
  371000    1.2027468   -6.5516874    180.30314  0.040499358   0.04169699            4 
  372000    1.1774056   -6.5559054    181.41464  0.040639481  0.041690762            1 
  373000    1.1880682   -6.5451964      182.339  0.040737041  0.041686198            3 
  374000    1.1832056   -6.5360077    182.57493  0.040680688  0.041680827            3 
  375000    1.1992895    -6.547173    183.04509  0.040676686   0.04167626            3 
  376000    1.2061778   -6.5451473    183.31865  0.040629133  0.041670786            2 
  377000    1.1913515   -6.5479694     183.7319   0.04061271  0.041665453            3 
  378000    1.2066029   -6.5323361    184.19297  0.040606916  0.041660927            3 
  379000    1.1861645    -6.540281    185.17463  0.040715617  0.041655794            1 
  380000    1.2033459   -6.5186889    185.22516  0.040619552  0.041652181            2 
  381000    1.2053412   -6.5436777    186.35865   0.04076086  0.041648044            2 
  382000     1.170541   -6.5451328    186.19417  0.040618275  0.041643637            2 
  383000     1.189627   -6.5518831    186.65637  0.040612787  0.041638993            3 
  384000    1.2353211   -6.5190324    187.98636  0.040795651  0.041634708            2 
  385000    1.1574082   -6.5441764    187.82369  0.040654479  0.041631514            5 
  386000    1.2015932   -6.5268708    189.20522  0.040847414  0.041628707            3 
  387000    1.1704191   -6.5191724    189.29781  0.040761802  0.041626952            1 
  388000    1.2042233   -6.5626247    190.30901  0.040873928  0.041625115            1 
  389000    1.1722331   -6.5316061    190.53941  0.040818212  0.041623336            4 
  390000    1.1899683   -6.4892381    191.31516  0.040879308  0.041621947            2 
  391000    1.2043701   -6.5019532    191.21326   0.04075304  0.041619534            2 
  392000    1.2094261    -6.547578    191.01315  0.040606536  0.041615965            2 
  393000    1.1996739   -6.5396895    192.08703  0.040730922  0.041612113            2 
  394000    1.1757741   -6.5501149    192.49719  0.040714297  0.041608959            2 
  395000    1.1938061   -6.5314664    193.40085  0.040801868  0.041606655            2 
  396000    1.1797874   -6.5821975    192.89614  0.040592621   0.04160384            1 
  397000    1.1524654   -6.5716806    194.49869  0.040826761  0.041600458            2 
  398000    1.2030004   -6.5357243    194.48314  0.040720926  0.041597648            3 
  399000    1.2189987   -6.5225509    195.84096  0.040902457   0.04159601            1 
  400000    1.1903152   -6.5391151    195.14787  0.040655806  0.041594561            2 
  401000    1.1861077   -6.5291866    196.43595  0.040822101  0.041593431            4 
  402000    1.1973772   -6.5585436    196.87105  0.040810748  0.041592049            3 
  403000    1.1835716   -6.5396783    196.80718  0.040696273  0.041589318            1 
  404000    1.1960154   -6.5458638     197.8941   0.04081974  0.041587438            2 
  405000    1.1815727   -6.5419106    198.06441  0.040753993  0.041585352            1 
  406000    1.1961705   -6.5155811    199.15862  0.040878206  0.041583274            1 
  407000    1.2148557   -6.5373914    199.48233  0.040844047  0.041581089            1 
  408000    1.1940249   -6.5473366    199.01035  0.040647538  0.041577496            2 
  409000    1.1839573   -6.5593116    199.72333  0.040693424  0.041573791            1 
  410000    1.1849002   -6.5350681    200.15243  0.040681388  0.041570324            2 
  411000    1.1605415   -6.5479502    200.88271  0.040730477  0.041567134            1 
  412000    1.1888794   -6.6085816    200.80457  0.040615812  0.041563076            1 
  413000    1.1957219   -6.5850806    201.49255  0.040656286  0.041558225            3 
  414000    1.1920629   -6.5531706    201.02478  0.040463925  0.041553161            2 
  415000    1.1896022   -6.5353562    202.80527   0.04072395  0.041548053            2 
  416000     1.196213   -6.5732106    202.41473  0.040547823  0.041542398            1 
  417000    1.1875215   -6.5490073    203.41211  0.040649903  0.041535925            2 
  418000    1.1861412   -6.5146464    203.40118  0.040550474    0.0415291            2 
  419000    1.2227608   -6.6098733    202.25155  0.040225049  0.041521417            3 
  420000    1.1771808   -6.5744729    203.68321  0.040413336  0.041514081            3 
  421000    1.1814674   -6.5179369      204.318  0.040442992  0.041506918            2 
  422000    1.1870674   -6.5242407    204.62239  0.040407265  0.041499381            2 
  423000    1.1837074   -6.5607596    204.66282  0.040319703  0.041491146            2 
  424000    1.1834303   -6.5402512    205.49343   0.04038786  0.041482239            3 
  425000    1.1785995   -6.5045227      205.698  0.040332941  0.041473964            2 
  426000    1.1786416   -6.5518883    206.26738  0.040349644  0.041465979            6 
  427000    1.2067581   -6.5326655    206.58178  0.040316507  0.041457176            3 
  428000    1.1689149   -6.5216832    206.84588   0.04027373  0.041448907            2 
  429000     1.164378    -6.548491    206.68833  0.040149249  0.041439407            1 
  430000    1.1671024   -6.5658246    206.86743  0.040090588  0.041428361            1 
  431000     1.165753   -6.5886179    207.15469   0.04005311  0.041417519            1 
  432000    1.1739495   -6.5521162     207.5259  0.040032002  0.041406074            2 
  433000    1.1737016   -6.5468883    209.07308  0.040237314  0.041395829            4 
  434000     1.172477   -6.5442015    209.38721  0.040204917  0.041385287            3 
  435000    1.1659493   -6.5629895    209.73477  0.040179074  0.041375219            4 
  436000    1.1638915   -6.5277862    210.62041  0.040256195  0.041365546            1 
  437000    1.2064268   -6.5593708    211.04577  0.040245188  0.041356037            1 
  438000     1.196081   -6.5625476    211.13145  0.040169605  0.041346492            1 
  439000    1.1781581   -6.5923082    211.33469  0.040116684  0.041335587            2 
  440000    1.1564453   -6.5680304    211.45084  0.040047508  0.041324406            2 
  441000    1.2052666   -6.5499319    212.60842  0.040175438  0.041314352            3 
  442000    1.1808322   -6.5596449    212.43957   0.04005271  0.041304112            2 
  443000    1.1637138     -6.55161    212.90703  0.040050231  0.041294096            2 
  444000    1.1629532    -6.554695    213.52186  0.040075424  0.041284168            4 
  445000    1.1884076   -6.5439876    214.39347   0.04014859  0.041273899            1 
  446000    1.1663142   -6.5416648    213.70081   0.03992915  0.041264265            2 
  447000    1.1673772   -6.5691283    215.18036  0.040115653  0.041255202            1 
  448000    1.1784835   -6.5768015    216.07538  0.040192593  0.041246833            2 
  449000    1.1697791   -6.5585204     216.6262  0.040205309  0.041238354            1 
  450000     1.162828   -6.5587131    216.57378  0.040106256  0.041230015            2 
  451000    1.2013741   -6.5783695    216.74069  0.040048168   0.04122127            2 
  452000    1.1453574    -6.551319    217.30624  0.040063835  0.041212395            2 
  453000    1.1830525   -6.5780204    217.43864  0.039999749  0.041203002            4 
  454000    1.2077052   -6.5950959    218.18185  0.040048064  0.041193351            2 
  455000    1.1898978   -6.5672087    217.83512  0.039896543  0.041182326            3 
  456000    1.1760672   -6.5651304    218.72535  0.039971738  0.041171493            4 
  457000    1.2068821   -6.5671607    219.68597  0.040059441  0.041161047            2 
  458000    1.1838706   -6.5604992    220.01633  0.040032084  0.041150876            4 
  459000    1.2028505   -6.5586249    220.31686   0.03999943  0.041141327            1 
  460000    1.1844529   -6.5818759    220.58608  0.039961246  0.041131749            4 
  461000    1.1769772   -6.5649292    221.33141  0.040009293  0.041121905            2 
  462000    1.1562009   -6.5904433    221.83476  0.040013485  0.041112579            2 
  463000    1.1736363   -6.5620793    222.44901  0.040037618  0.041102643            3 
  464000     1.179066   -6.5812086    222.36999  0.039937139  0.041093349            1 
  465000    1.1381259   -6.5785824    222.54401  0.039882439  0.041083011            1 
  466000    1.1692897   -6.5803226    222.91513   0.03986322  0.041072728            1 
  467000    1.2121382    -6.530075    224.20009  0.040007153  0.041062412            2 
  468000     1.169781   -6.6015495    223.59549  0.039814012  0.041052663            3 
  469000    1.1722774   -6.5617498    223.97294  0.039796187  0.041042172            2 
  470000     1.170149   -6.5879632    225.75938  0.040028258   0.04103227            2 
  471000    1.1549855   -6.5359469    226.73811  0.040116438  0.041023312            1 
  472000    1.1684602   -6.5507618    226.50467  0.039990231   0.04101428            2 
  473000    1.1769538   -6.6018777    226.36562  0.039881187  0.041004671            2 
  474000    1.1424335   -6.5844812    227.82307  0.040053282  0.040995713            1 
  475000    1.1673809   -6.5514961    228.04263  0.040007478  0.040986864            5 
  476000    1.1870546   -6.5212654     229.0206  0.040094644  0.040978478            4 
  477000    1.1643848   -6.5695151    228.11354  0.039852122  0.040969811            2 
  478000    1.1497082   -6.5964804    228.92073  0.039909471  0.040960929            2 
  479000    1.1628175   -6.5260717    229.68549  0.039959202  0.040951828            3 
  480000    1.1800141   -6.5657313     229.2991  0.039808872  0.040942689            8 
  481000    1.1473696   -6.5941767    230.53558  0.039940328   0.04093336            4 
  482000    1.1448712   -6.5550396    231.14893  0.039963508  0.040924416            2 
  483000    1.1594727   -6.5519182    231.00434  0.039855821  0.040915048            2 
  484000      1.15477   -6.5614386    231.18776  0.039805055  0.040905112            2 
  485000    1.1669443   -6.5326008    232.28376  0.039911299  0.040895688            2 
  486000    1.1599496    -6.570023    232.01364   0.03978286  0.040885981            4 
  487000    1.1475019   -6.5505245    233.31874  0.039924493  0.040876264            1 
  488000    1.1848517   -6.5408003    233.51034    0.0398754  0.040867145            2 
  489000    1.1764118   -6.5600881    234.47438  0.039958143   0.04085777            2 
  490000    1.1618874   -6.5934753    234.02102  0.039799492  0.040848104            2 
  491000    1.1886772   -6.5731576    234.73142  0.039839006  0.040838976            1 
  492000    1.1493819   -6.5693002    234.84412   0.03977712  0.040828773            1 
  493000    1.1738488   -6.5738217    235.56351  0.039818038  0.040819257            3 
  494000    1.1381181   -6.5913368    235.84596  0.039785081  0.040809468            2 
  495000    1.1753523   -6.6153055    235.45344  0.039638626  0.040799108            2 
  496000    1.1875655   -6.5819242    236.53011  0.039739602  0.040789158            3 
  497000    1.1757352   -6.6190968    236.58197  0.039668339  0.040778569            3 
  498000    1.1948356   -6.6206954    237.75248  0.039784552  0.040767925            3 
  499000    1.1831821   -6.5702388    237.81289  0.039714912  0.040757639            2 
  500000    1.1787794   -6.5377784    238.47721  0.039746202  0.040748527            2 
  501000    1.1874374   -6.5621512    238.55262  0.039679411  0.040739007            2 
  502000     1.168361   -6.5884238    239.42582  0.039745322  0.040729887            5 
  503000    1.1659176   -6.5809812    240.43813  0.039834018  0.040720961            3 
  504000    1.1771713   -6.5583701    240.81807  0.039817802   0.04071176            2 
  505000    1.1841219   -6.5599671     241.2562  0.039811254  0.040703332            4 
  506000    1.1929541     -6.56092    241.28089  0.039736643  0.040695122            4 
  507000    1.1733901   -6.5765726    242.19217  0.039808049  0.040686528            4 
  508000    1.1814355   -6.5570446     242.6581  0.039806118   0.04067849            1 
  509000    1.1649047   -6.5829482    243.00445  0.039784619  0.040670276            2 
  510000    1.1606944   -6.5440998    243.94383  0.039860104  0.040662317            5 
  511000    1.1820184    -6.579844    243.77591  0.039754715  0.040653866            2 
  512000    1.1643324   -6.5580018    243.82602  0.039685224  0.040645487            1 
  513000    1.1725526   -6.5774234    245.11977  0.039818027  0.040636925            3 
  514000    1.1499215   -6.5879741    245.91475  0.039869448   0.04062937            3 
  515000     1.164694   -6.5719748    245.56414  0.039735297  0.040621326            3 
  516000    1.1792111   -6.5445501    246.84525   0.03986519   0.04061395            1 
  517000    1.1698951   -6.5599756    247.02159  0.039816504  0.040606703            2 
  518000    1.1300723   -6.5400518    247.79447  0.039863974   0.04059939            3 
  519000    1.1723438   -6.5749143    248.06371  0.039830396  0.040592354            3 
  520000    1.1514356   -6.5871141    248.75535   0.03986464  0.040585666            5 
  521000    1.1526398   -6.5990464    249.53748  0.039913225  0.040578876            3 
  522000    1.1687669   -6.5934732    249.82124  0.039882063  0.040572134            2 
  523000    1.1718983   -6.5568166    250.78032  0.039958623   0.04056582            1 
  524000    1.1753064   -6.5799909      250.211  0.039791825  0.040559595            2 
  525000    1.1587809   -6.5706091    250.74544  0.039800864  0.040553272            7 
  526000    1.1650636   -6.6128724    250.89767  0.039749314  0.040547027            2 
  527000    1.1648217    -6.588658    250.99302  0.039688965  0.040540717            2 
  528000    1.1765732   -6.5997136    251.58367  0.039707018  0.040533293            1 
  529000    1.1678295   -6.6106389    251.61984  0.039637655  0.040525568            2 
  530000    1.1617036   -6.5458204    252.90651  0.039765174  0.040517827            2 
  531000    1.1685329   -6.5698094    253.35043  0.039759954  0.040510074            2 
  532000    1.1781289   -6.5717584    253.78622   0.03975348  0.040502852            2 
  533000    1.1687871   -6.6056821    254.05392   0.03972075  0.040495003            1 
  534000    1.1389991   -6.5487344    254.78572  0.039760568  0.040487863            2 
  535000    1.1564086   -6.5744949    255.80335  0.039844758  0.040481112            3 
  536000    1.1825903   -6.5770819    255.40536  0.039708545  0.040474524            3 
  537000    1.1751598   -6.6071813    255.45167  0.039641786  0.040467005            3 
  538000     1.143648   -6.5978131    256.02052  0.039656214  0.040459508            2 
  539000    1.1584168   -6.5932067    256.20412  0.039611027   0.04045218            4 
  540000    1.1557145   -6.5923185    257.02285  0.039664019  0.040444255            2 
  541000    1.1631387   -6.5843828    257.27262  0.039629178  0.040436294            1 
  542000    1.1561068   -6.5892962     257.7961  0.039636546  0.040428501            2 
  543000    1.1784639    -6.597227    258.62084  0.039690122   0.04042117            4 
  544000    1.1779871    -6.604527    258.74619  0.039636365  0.040414332            3 
  545000    1.1462138   -6.6273931    259.26642  0.039643183  0.040407418            2 
  546000    1.2008549   -6.5868016    260.60673  0.039775142  0.040400639            1 
  547000    1.1608061   -6.5629954    261.86336  0.039893869  0.040394589            2 
  548000    1.1810402   -6.5946737    261.81645  0.039813937  0.040389268            3 
  549000    1.1679321    -6.620282    262.04629  0.039776304  0.040383575            2 
  550000    1.1378301   -6.5826293     262.3471  0.039749561  0.040378064            3 
  551000    1.1688851   -6.5889767    262.13558   0.03964543  0.040372386            4 
  552000     1.165583   -6.5949737    263.47001  0.039775063  0.040365831            4 
  553000    1.1838964   -6.5920862    262.97704  0.039628848  0.040359512            2 
  554000    1.1877936   -6.5637258    263.59643  0.039650486  0.040352813            3 
  555000    1.1597777   -6.5670197    263.83009  0.039614128  0.040346756            2 
  556000    1.1768011   -6.6240332    264.77638  0.039684709  0.040340511            2 
  557000    1.1864142   -6.6175443    264.55558  0.039580428  0.040334445            7 
  558000     1.173565    -6.606326    265.90957  0.039711704  0.040327656            3 
  559000    1.1794382   -6.5885406    265.29891  0.039549629  0.040320546            4 
  560000    1.1370942   -6.6017288    265.71936  0.039541571  0.040313368            2 
  561000    1.1716712   -6.5967138    265.96892  0.039508158  0.040306577            2 
  562000      1.15883   -6.6058483    266.48222   0.03951397  0.040299057            3 
  563000    1.1641014   -6.5642175    267.15637  0.039543572  0.040292322            3 
  564000    1.1653508   -6.5695107     268.2655  0.039637338  0.040285445            2 
  565000    1.1728278   -6.6027252     268.2743  0.039568481  0.040278192            3 
  566000    1.1557066   -6.5722573    269.78048  0.039720329  0.040271112            2 
  567000    1.1591235   -6.5972135    269.73365  0.039643393  0.040264896            2 
  568000    1.1617881   -6.5909653    270.27568  0.039653123  0.040258017            3 
  569000    1.1739171   -6.5587738    270.80634  0.039661152  0.040251856            2 
  570000    1.1379473   -6.6144527    271.50571  0.039693818  0.040245307            3 
  571000    1.1764361   -6.6074185    270.79863  0.039521107  0.040239579            2 
  572000    1.1600087   -6.5882915    272.55425  0.039707786  0.040233904            2 
  573000    1.1588851   -6.5626762    272.68267  0.039657165  0.040228184            1 
  574000    1.1467678   -6.5826792    273.25607  0.039671323   0.04022302            1 
  575000    1.1541144   -6.6030955    273.83628  0.039686417  0.040217472            2 
  576000    1.1703391   -6.5897944    274.21648  0.039672523  0.040212306            2 
  577000    1.1850984   -6.6089127    273.97943  0.039569531  0.040206281            2 
  578000    1.1600761   -6.6057691    273.61876  0.039449071  0.040199791            1 
  579000    1.1680345   -6.6141383    274.74315  0.039542767  0.040193772            1 
  580000     1.170972   -6.6146288    274.86374  0.039491916  0.040187418            4 
  581000    1.1527156   -6.5701534    276.24249  0.039621699  0.040181429            2 
  582000    1.1410907   -6.6213117    276.23829   0.03955302  0.040175343            2 
  583000    1.1720464    -6.547275    276.63855  0.039542389  0.040168947            4 
  584000    1.1682876   -6.5874391    276.35803  0.039434651  0.040162308            2 
  585000    1.1527382   -6.6220646     276.4677  0.039382863  0.040155499            3 
  586000    1.1639371   -6.5926038    276.52327   0.03932356  0.040148609            3 
  587000    1.1608516   -6.6023241    277.79624  0.039437286   0.04014133            2 
  588000    1.1484982   -6.6033196    277.33647  0.039305055    0.0401343            2 
  589000    1.1529201   -6.6072178     278.0027  0.039332583  0.040126632            2 
  590000     1.141647     -6.58051    278.93167  0.039397129  0.040118373            2 
  591000    1.1430795   -6.6083227    278.64446  0.039289969  0.040110603            3 
  592000    1.1355258   -6.5875544    280.04165  0.039420277  0.040102635            3 
  593000    1.1408623   -6.6507827    279.56891  0.039287368  0.040094565            3 
  594000    1.1436201   -6.6217361    279.84323  0.039259713  0.040086415            2 
  595000    1.1605292   -6.5767211    281.43682  0.039416922  0.040078048            2 
  596000    1.1424896   -6.6448572     280.8702   0.03927156   0.04007018            4 
  597000    1.1597613   -6.6452442    279.80036  0.039056443  0.040061538            2 
  598000    1.1730402    -6.605883    282.35094  0.039346564  0.040053592            2 
  599000    1.1584937   -6.6252218    282.60789  0.039316623    0.0400455            6 
  600000    1.1266191    -6.633849    282.91093  0.039293185  0.040037358            4 
  601000    1.1535853   -6.6103276    283.39249  0.039294577  0.040029362            1 
  602000    1.1480438   -6.5695571    283.25592  0.039210399  0.040020751            1 
  603000    1.1702891   -6.5777402    283.13542   0.03912872  0.040012224            2 
  604000    1.1599347   -6.6116228    284.08803  0.039195369  0.040003542            1 
  605000    1.1535418    -6.609857    284.41944  0.039176231  0.039994251            3 
  606000    1.1331418    -6.611162    284.58947  0.039134966  0.039985572            2 
  607000    1.1306829   -6.6262815    284.52187  0.039061213  0.039976644            1 
  608000     1.141145   -6.6327524    285.21686  0.039092223  0.039967866            2 
  609000    1.1327246   -6.6335572    285.49126   0.03906558  0.039959233            5 
  610000    1.1788492   -6.6085162    286.40564  0.039126453  0.039950323            4 
  611000      1.13493   -6.6081645    286.78826  0.039114602  0.039941958            2 
  612000    1.1300055   -6.6056429    287.85293   0.03919566  0.039933717            1 
  613000    1.1492922   -6.5894901    288.63407   0.03923791  0.039926153            2 
  614000    1.1550439     -6.58058    289.78095  0.039329662  0.039918422            3 
  615000     1.161472   -6.5683498    289.97139  0.039291517   0.03991098            2 
  616000    1.1544153   -6.5857797    289.69553  0.039190412  0.039903334            3 
  617000    1.1659568   -6.6179993     290.2226  0.039198081  0.039895485            2 
  618000    1.1537405   -6.6609728    290.24091  0.039137124  0.039887683            3 
  619000    1.1537666   -6.6055842    290.40773  0.039096355  0.039879713            1 
  620000    1.1413977   -6.6104743    290.26518  0.039014137  0.039871311            4 
  621000     1.146815   -6.6372871    289.80024  0.038888922  0.039862455            2 
  622000    1.1365904   -6.6151785    292.56417  0.039196701  0.039853712            2 
  623000    1.1535626   -6.6157096    291.79632  0.039031075  0.039845054            2 
  624000    1.1358046   -6.6331623    293.10986  0.039143945  0.039836742            3 
  625000    1.1300315   -6.6139067    292.29814  0.038973085  0.039828302            1 
  626000    1.1585529   -6.6201949    293.30918  0.039045418  0.039820016            3 
  627000    1.1662991   -6.5960218     294.4078  0.039129161  0.039812386            1 
  628000    1.1323896   -6.6751923    293.51031  0.038947758  0.039803995            2 
  629000    1.1265827   -6.6083466    294.01707  0.038952977  0.039795689            3 
  630000    1.1859212   -6.6178705    295.28531  0.039058904  0.039787286            1 
  631000    1.1463577   -6.5999063    295.58942  0.039037166  0.039779007            2 
  632000    1.1522715   -6.6231086    295.63466  0.038981363  0.039770856            2 
  633000    1.1624794   -6.5619507    297.01172  0.039101069  0.039762348            6 
  634000    1.1307258   -6.6074833    296.24068  0.038938049  0.039753879            1 
  635000    1.1489028    -6.623559    296.75737  0.038944536  0.039744878            3 
  636000    1.1233768   -6.5962665    295.60975  0.038732933  0.039735092            3 
  637000    1.1584269   -6.6000047     297.2452  0.038886081  0.039725462            3 
  638000    1.1583724   -6.6121104    297.75423  0.038891618  0.039716024            3 
  639000    1.1394015   -6.6332226    296.94757  0.038725556  0.039706364            2 
  640000    1.1756895   -6.6135388    298.59353  0.038879366  0.039696464            2 
  641000    1.1333247   -6.6023232    299.28937  0.038909175  0.039687699            1 
  642000    1.1772228   -6.6087606    298.73145  0.038776148  0.039677868            2 
  643000    1.1364662   -6.5979366    299.47866  0.038812683  0.039668732            2 
  644000    1.1459863   -6.6197784    298.95536    0.0386847  0.039659229            2 
  645000    1.1311405     -6.60384    299.33176  0.038673353  0.039648986            3 
  646000    1.1351223   -6.6350109    299.61971  0.038650634  0.039638732            5 
  647000    1.1347598    -6.591492    300.14262  0.038658245  0.039628465            2 
  648000    1.1346453   -6.6454615    301.11146  0.038723181  0.039618123            3 
  649000    1.1462592   -6.6216438    301.90017  0.038764788  0.039607704            2 
  650000    1.1447821   -6.6404165    301.31438  0.038630049  0.039598097            4 
  651000    1.1504788   -6.6178404    302.22899  0.038687786  0.039588114            3 
  652000    1.1418759   -6.5984341    303.98211  0.038852519  0.039578726            3 
  653000    1.1598867   -6.6329865    303.11573  0.038682456   0.03956963            1 
  654000    1.1379436   -6.6353649    303.55976  0.038679888   0.03955988            6 
  655000    1.1801813   -6.6607435    304.72427  0.038768991  0.039550521            2 
  656000    1.1519065   -6.6157938    305.00382  0.038745404  0.039540413            1 
  657000    1.1340994   -6.6193755    304.96098  0.038680997  0.039530454            2 
  658000    1.1296904   -6.5961218    304.67424  0.038585897  0.039520394            2 
  659000    1.1414529   -6.6144781    305.65069  0.038650821  0.039510492            5 
  660000    1.1685692   -6.6275653    307.22026  0.038790436  0.039500591            2 
  661000    1.1780279   -6.6399012     308.4799  0.038890558  0.039491486            2 
  662000    1.1650587   -6.6866802    306.72322  0.038610677  0.039481894            4 
  663000    1.1596307   -6.6405481    307.87596   0.03869733  0.039472221            5 
  664000    1.1212748   -6.6653851    307.44013  0.038584354  0.039462594            1 
  665000    1.1323333   -6.6306435    308.44016  0.038651649  0.039452672            2 
  666000    1.1512942   -6.6291674    307.80507  0.038514148  0.039442612            2 
  667000    1.1430563   -6.6613951     308.4832   0.03854113  0.039432355            1 
  668000    1.1677034   -6.5810204    310.19176  0.038696576  0.039422691            1 
  669000    1.1080558   -6.6623879    309.23154  0.038519126  0.039413199            3 
  670000    1.1392082   -6.6597885    308.79114  0.038406858  0.039402935            2 
  671000    1.1675145   -6.6407878    310.06232  0.038507491  0.039392634            4 
  672000    1.1443137   -6.6531786    311.08842  0.038577433  0.039383511            9 
  673000    1.1140504   -6.6152331    312.16749  0.038653726  0.039374291            3 
  674000    1.1307527   -6.6054333    312.24761  0.038606282  0.039365497            1 
  675000    1.1752422   -6.6539726    311.52996  0.038460489  0.039356763            4 
  676000     1.133314   -6.6293057    312.09536  0.038473294  0.039347501            2 
  677000    1.1626482   -6.6208368    313.23194  0.038556369  0.039338525            4 
  678000    1.1479222   -6.6552106    313.10442  0.038483827  0.039329176            5 
  679000    1.1523449   -6.6324931    315.33292  0.038700653  0.039320222            3 
  680000    1.1538709    -6.632934    314.58877  0.038552546  0.039311636            3 
  681000    1.1429039   -6.5949217    315.21633  0.038572727  0.039303236            2 
  682000    1.1679795   -6.6104267    316.64522  0.038690765  0.039294448            2 
  683000    1.1493906   -6.6010707    316.05355  0.038561927   0.03928557            3 
  684000    1.1488034   -6.6074437    317.46939  0.038678045  0.039276854            1 
  685000    1.1500995   -6.6221366    317.13017  0.038580312  0.039268708            2 
  686000    1.1241924   -6.6770039    317.61048  0.038582419  0.039260754            2 
  687000    1.1415656   -6.6396534    318.01643    0.0385755  0.039252206            2 
  688000    1.1388531   -6.6422919    319.32647  0.038678109  0.039244197            3 
  689000    1.1155882   -6.6256701     319.0263  0.038585668   0.03923621            2 
  690000    1.1268074   -6.5985831    320.74726  0.038737591  0.039228584            5 
  691000     1.114112   -6.6092898    319.57914  0.038540658  0.039220599            1 
  692000     1.125369   -6.6713096    320.19396  0.038559003  0.039212914            3 
  693000    1.1558809   -6.6465507    320.44691  0.038533779  0.039204818            3 
  694000    1.1513874   -6.5929273     321.5987  0.038616559   0.03919691            1 
  695000    1.1259135   -6.6172767    321.61608  0.038563079  0.039188452            2 
  696000    1.1547282   -6.6856924    321.79998  0.038529691  0.039180487            2 
  697000     1.127572   -6.6181101    322.62705  0.038573296  0.039172534            2 
  698000    1.1181071   -6.6341663    323.43316  0.038614274  0.039164896            2 
  699000    1.1552367   -6.6414569    324.20264  0.038650768  0.039157226            2 
  700000    1.1489076   -6.6310359    324.39927   0.03861896  0.039149618            3 
  701000    1.1383459   -6.6202473    324.82919  0.038614977   0.03914244            3 
  702000    1.1536335   -6.6722016    324.53789  0.038525391  0.039135403            4 
  703000    1.1509085   -6.6639722    326.41554  0.038693165  0.039128293            3 
  704000    1.1651176   -6.6360566    325.81618  0.038567256  0.039121351            2 
  705000    1.1436559   -6.6535238    327.10846  0.038665302  0.039114692            1 
  706000    1.1377529   -6.6019647    327.99207  0.038714834  0.039107994            3 
  707000    1.1433034   -6.6497437    328.79018  0.038754147  0.039100912            6 
  708000    1.1486793   -6.5732889    329.94666  0.038835529  0.039094424            1 
  709000    1.1397267   -6.6413189    329.40896  0.038717555  0.039087567            4 
  710000    1.1435913   -6.6553688     328.3144  0.038534554    0.0390812            3 
  711000    1.1587088   -6.6603676    329.13614  0.038576669  0.039074653            2 
  712000    1.1307949   -6.6448794    330.83944  0.038721845  0.039068109            1 
  713000    1.1177734   -6.5982965    331.83198  0.038783542  0.039061498            3 
  714000    1.1527528   -6.6153728    331.54865  0.038696154  0.039055002            4 
  715000    1.1463314   -6.6677815    331.34425  0.038618211  0.039048627            5 
  716000    1.1536054    -6.639702    331.04571  0.038529529   0.03904227            4 
  717000     1.143164   -6.6534815    332.50778  0.038645721   0.03903553            3 
  718000    1.1467196   -6.6264186    333.56788  0.038714935  0.039028798            3 
  719000    1.1500305   -6.6435748    332.11274  0.038492436  0.039022537            4 
  720000    1.1186923   -6.6454204    333.82927  0.038637647  0.039016142            4 
  721000    1.1413415   -6.6781748    333.35016  0.038528682   0.03900997            3 
  722000     1.146517   -6.6526519    333.94505  0.038543981  0.039003397            3 
  723000    1.1363684   -6.6240384    335.53915  0.038674406  0.038997163            2 
  724000    1.1318709   -6.6333578    335.42155  0.038607453  0.038991178            3 
  725000    1.1385317   -6.6267566    336.13294  0.038635971  0.038985153            4 
  726000    1.1335155   -6.6478797    336.87445  0.038667866  0.038978872            2 
  727000    1.1397405     -6.70123    336.13298  0.038529686  0.038972286            2 
  728000    1.1488075   -6.6860284    336.51833  0.038520872  0.038965598            2 
  729000    1.1346266   -6.6347406    337.36371  0.038564667  0.038958908            2 
  730000    1.1295431   -6.6608103      336.949  0.038464498  0.038952637            2 
  731000    1.1083821   -6.6290421    338.09835  0.038542903  0.038946749            3 
  732000    1.1296883   -6.6539567    338.20749  0.038502675  0.038940619            3 
  733000     1.108538   -6.6215865    339.52986  0.038600484  0.038935045            1 
  734000    1.1334727   -6.6205036    340.09094  0.038611596  0.038929552            3 
  735000     1.100997   -6.6288367    340.22542  0.038574311  0.038924273            2 
  736000    1.1333416   -6.6200172    341.37858  0.038652466  0.038918488            1 
  737000    1.1491037   -6.6276468    340.27461  0.038475194  0.038912451            3 
  738000    1.1329371   -6.6600807    339.90684  0.038381531  0.038906048            1 
  739000    1.1535589   -6.6472721    341.71211  0.038533166  0.038899103            2 
  740000     1.141658   -6.6363788    341.32573  0.038437582  0.038892148            3 
  741000    1.1549621   -6.6455409    341.75067  0.038433499  0.038885734            5 
  742000    1.1335439   -6.6254126     342.9185   0.03851286  0.038879535            1 
  743000    1.1410735   -6.6458611    343.86313  0.038566973  0.038873323            1 
  744000    1.1331638   -6.6209827    345.15337  0.038659652  0.038867228            1 
  745000    1.1366466   -6.6811228    342.72122  0.038335707  0.038860894            2 
  746000     1.118678   -6.6183805    344.19469  0.038448916  0.038854258            2 
  747000    1.1349433    -6.646556    344.61868  0.038444744  0.038847548            2 
  748000    1.1149339   -6.6471559    345.08926  0.038445773  0.038841192            1 
  749000    1.1162656   -6.6477998    345.14066  0.038400162  0.038834444            2 
  750000    1.1229672   -6.6362023    346.04778  0.038449753  0.038827793            4 
  751000    1.1219121   -6.6548747    347.03794  0.038508426  0.038821223            2 
  752000    1.1146226   -6.6861094     345.8018  0.038320235  0.038814156            2 
  753000    1.1219168   -6.6557596    346.83156  0.038383307  0.038807684            2 
  754000    1.1262755   -6.6729874    347.44633  0.038400346  0.038801301            3 
  755000    1.1189643    -6.645254    348.70507  0.038488419  0.038794512            3 
  756000    1.1004266   -6.6868677    347.07842  0.038258204  0.038787877            6 
  757000     1.150668   -6.6618715    348.32924  0.038345359  0.038781088            1 
  758000    1.1162681   -6.6578396    348.21887  0.038282638  0.038774743            4 
  759000    1.1031517   -6.6493799    350.30581  0.038461332   0.03876851            3 
  760000    1.1283544   -6.6389962    350.71159  0.038455218   0.03876219            1 
  761000    1.1513189   -6.6880787    350.04749  0.038331963  0.038755853            4 
  762000     1.142291   -6.6529476    351.23568  0.038411601   0.03874957            3 
  763000    1.1439893   -6.6846423    351.24122  0.038361863   0.03874329            2 
  764000    1.1476849   -6.6279231    352.30187  0.038427342  0.038737035            4 
  765000     1.110138   -6.6519481    352.02424  0.038346867  0.038730682            3 
  766000    1.1471835   -6.6323812    352.82467  0.038383885  0.038724251            3 
  767000      1.11749   -6.6502376    352.45719  0.038293914  0.038717299            3 
  768000    1.1390687   -6.6539783    353.58818  0.038366773  0.038710306            2 
  769000    1.1119685   -6.6717198    353.15654  0.038270106  0.038703685            3 
  770000    1.1394848   -6.6666918    353.88109  0.038298819  0.038696828            2 
  771000    1.1303052   -6.6621647    353.84977  0.038245759  0.038689855            4 
  772000    1.1337706   -6.6799554    353.21087  0.038127252  0.038683002            2 
  773000    1.1301123   -6.6778355    354.56261  0.038223653   0.03867605            2 
  774000    1.1242194     -6.67066    354.66903  0.038185727  0.038668841            2 
  775000    1.1186181   -6.6515774    355.84866  0.038263296  0.038661446            4 
  776000    1.1429223   -6.6536711    356.39399   0.03827255  0.038654483            4 
  777000    1.1258964   -6.6625016    355.24242  0.038099787  0.038647639            2 
  778000    1.1287969   -6.6201578    357.13475  0.038253508  0.038640624            2 
  779000     1.116922   -6.6479281    357.17691  0.038208912   0.03863432            4 
  780000    1.1448329   -6.6946714    357.27593  0.038170505  0.038627485            2 
  781000    1.1014658   -6.6440052    358.86175  0.038290839   0.03862056            3 
  782000    1.1285087   -6.6392192     359.2165  0.038279678  0.038614318            1 
  783000    1.1179023   -6.6714706    358.07879  0.038109705  0.038608007            2 
  784000    1.1202014   -6.6487395    361.02781  0.038374555  0.038601567            4 
  785000    1.0952753   -6.6995721    359.87662  0.038203462    0.0385949            2 
  786000    1.1472125   -6.6718422    360.12382  0.038181066  0.038588017            2 
  787000    1.1406869   -6.6222149    361.02133  0.038227587  0.038581748            2 
  788000    1.1069516   -6.6869079    360.54021  0.038128194  0.038575383            2 
  789000    1.1634335   -6.6692875    361.37896  0.038168458   0.03856879            2 
  790000     1.117011    -6.679071    362.15295  0.038201788   0.03856206            6 
  791000    1.1126268   -6.6510524     362.3984  0.038179351  0.038555752            3 
  792000    1.1342655   -6.6724276    361.76897  0.038064917  0.038549322            2 
  793000    1.1185779   -6.6548126    363.33708  0.038181703   0.03854256            2 
  794000    1.1433878   -6.6261823    364.89129  0.038296735  0.038536188            2 
  795000    1.1389065   -6.6743607    363.40965  0.038093255  0.038529801            2 
  796000    1.1481483   -6.6337798    364.72984   0.03818361  0.038523051            2 
  797000    1.1216085   -6.6874764    364.43369  0.038104736  0.038516543            2 
  798000     1.123712   -6.6797943    364.35404  0.038048667  0.038509529            4 
  799000    1.1472101     -6.67474    365.89144  0.038161393  0.038502792            5 
  800000    1.1067967   -6.6691151    365.57531  0.038080761  0.038495769            5 
  801000    1.1150033   -6.6964661    365.18776  0.037992901  0.038488873            2 
  802000    1.1267282   -6.6891166    365.59905  0.037988264  0.038481287            4 
  803000    1.1378235     -6.67772    365.62019   0.03794315  0.038474064            2 
  804000    1.1095259   -6.7147244     367.8919  0.038131415  0.038466684            2 
  805000    1.1240305   -6.6943569    367.30162  0.038022942  0.038459701            2 
  806000    1.1274699   -6.6687947    367.54994  0.038001442  0.038452455            3 
  807000    1.1307294   -6.6588369    368.04638  0.038005615  0.038445231            1 
  808000    1.1370769   -6.6496432    367.37239  0.037889066  0.038437958            3 
  809000     1.118048   -6.6989392    368.25425   0.03793307  0.038430427            1 
  810000     1.089103   -6.6603052    368.79919  0.037942303  0.038423257            1 
  811000    1.1061575   -6.6651262    370.13382  0.038032657  0.038416028            2 
  812000    1.1095935   -6.7126392    368.37682  0.037805503  0.038408165            2 
  813000    1.0905547   -6.6582678    369.27419  0.037850983  0.038400271            3 
  814000    1.1141043   -6.6532116     369.8865  0.037867168  0.038392528            2 
  815000    1.1199994   -6.6396216    369.61496  0.037792941  0.038384664            1 
  816000    1.1308376   -6.6652014    370.59903  0.037847123  0.038377136            8 
  817000    1.1192236   -6.6960605    371.06428  0.037848254  0.038369354            1 
  818000    1.1186644   -6.6703528    371.23012  0.037818879  0.038361532            2 
  819000    1.1114549   -6.6417566    371.86786  0.037837593  0.038354018            6 
  820000    1.1199025   -6.7050661    370.42952  0.037645276  0.038346376            2 
  821000    1.1115159   -6.6533587    371.86255  0.037744879  0.038338421            2 
  822000    1.1162082   -6.6946065    372.52114  0.037765728  0.038330292            2 
  823000    1.1195881   -6.6634038    374.03736  0.037873366  0.038322572            2 
  824000    1.1118236   -6.6762255    374.07181  0.037830887  0.038315019            3 
  825000    1.0832679   -6.6572088    373.38102  0.037715254  0.038307616            3 
  826000     1.126394   -6.6873537    376.14147   0.03794809  0.038299973            2 
  827000    1.1278239   -6.6815802    374.31022  0.037717676  0.038292587            2 
  828000    1.1166439   -6.6693169    375.00699   0.03774225  0.038284901            1 
  829000    1.1262615   -6.6662991    375.39351  0.037735576  0.038276729            5 
  830000    1.0996707   -6.6866371    374.87494  0.037638046  0.038268776            3 
  831000    1.1333233   -6.7212279    375.12994  0.037618325  0.038260115            2 
  832000     1.173685    -6.695503      375.913  0.037651543  0.038251416            4 
  833000     1.114546   -6.6348535    376.18527  0.037633581  0.038242948            2 
  834000    1.1266804   -6.6779503    375.97813  0.037567759   0.03823471            3 
  835000    1.1318855   -6.6453398    377.26152   0.03765085  0.038226469            3 
  836000    1.1257259   -6.6512927    378.09713  0.037689108  0.038218256            1 
  837000    1.1018015   -6.6656614    378.51038  0.037685223  0.038209937            3 
  838000    1.1254107   -6.6697117    378.01865  0.037591353  0.038201562            3 
  839000    1.1317573    -6.663409    377.76342  0.037521197  0.038193114            2 
  840000    1.1319028    -6.657334    378.71811  0.037571241   0.03818463            6 
  841000    1.1534976   -6.6899196    378.37557  0.037492625  0.038175898            2 
  842000    1.1217465   -6.7007782    378.89143  0.037499152  0.038167029            2 
  843000    1.1226572    -6.690838    378.50587  0.037416555  0.038157941            3 
  844000    1.1177924   -6.6727888    378.85432  0.037406628  0.038148946            2 
  845000    1.1148125    -6.651553    380.28143    0.0375031  0.038139834            4 
  846000    1.1133636   -6.6944641    378.47416  0.037280748  0.038130543            1 
  847000    1.1096058   -6.6946515    379.98071  0.037384958  0.038120987            3 
  848000    1.1419764   -6.6616959    381.35719  0.037476139  0.038111622            2 
  849000    1.0989529   -6.6704781    380.27738  0.037326009  0.038102236            4 
  850000    1.1099274   -6.6832129    380.80194  0.037333524  0.038092622            3 
  851000    1.1015757   -6.6915597    381.74043  0.037381554  0.038082894            3 
  852000     1.093314   -6.7136149    380.88225  0.037253741  0.038072995            1 
  853000    1.1250622   -6.7040781    381.18198  0.037239349  0.038063181            1 
  854000    1.1076545   -6.6977163    381.44024  0.037220945  0.038053427            4 
  855000    1.0948143   -6.6666927    383.18022     0.037347  0.038043715            2 
  856000    1.1314621   -6.6806655    383.89087  0.037372553  0.038034044            2 
  857000    1.0834241   -6.6849488    383.03531  0.037245752  0.038024315            2 
  858000    1.1057875   -6.6916694    382.84803  0.037184152  0.038014392            1 
  859000    1.1308845   -6.7352747    383.64448  0.037218129  0.038004651            3 
  860000    1.1194733   -6.7362516    384.11092   0.03722005  0.037994906            3 
  861000    1.1391414   -6.6409697    384.80909  0.037244395  0.037984994            3 
  862000    1.0806782   -6.6597386    385.26075  0.037244852  0.037975196            3 
  863000    1.1001112   -6.7096438    385.66922  0.037241138  0.037965248            2 
  864000    1.0978939   -6.6957476    383.79042  0.037016823  0.037954793            4 
  865000    1.1139988   -6.6889585    386.70692  0.037255001  0.037944413            2 
  866000    1.1187993   -6.7215316    383.76978  0.036929347  0.037933927            2 
  867000     1.108133   -6.6962284    385.77297  0.037079293  0.037923395            4 
  868000    1.0929342    -6.689966    386.67235  0.037122922  0.037912612            4 
  869000    1.0986388   -6.6701828    385.65632  0.036982769  0.037902055            3 
  870000    1.1144409   -6.7121142    386.95257  0.037064422   0.03789175            4 
  871000    1.1275283   -6.6793204      386.958  0.037022388  0.037881059            4 
  872000    1.1137915   -6.6393366    387.54376   0.03703591  0.037870613            2 
  873000    1.0913094    -6.658153    388.02708  0.037039622  0.037860174            2 
  874000    1.0892102   -6.7220391    387.85116  0.036980469  0.037849948            1 
  875000     1.099581    -6.696253    387.68877   0.03692274  0.037839349            2 
  876000    1.1176884   -6.7410794    387.67318  0.036879108  0.037828904            1 
  877000    1.1183322   -6.6919282    389.17746  0.036979994  0.037818486            2 
  878000    1.1184202   -6.7207972    389.19831  0.036939855  0.037808409            2 
  879000     1.106563   -6.6989251    391.47241  0.037113425  0.037798766            3 
  880000    1.1001016   -6.7122591    390.74079  0.037001969  0.037789352            2 
  881000    1.1154589   -6.6882583    392.41585  0.037118412  0.037779642            3 
  882000    1.1391512   -6.7010961    392.24926  0.037060587  0.037769925            3 
  883000    1.0968974    -6.687031    392.84992  0.037075304  0.037760443            2 
  884000    1.0940672   -6.7076491    393.59148  0.037103269  0.037751006            2 
  885000    1.1166829   -6.6788135    392.14399  0.036925046  0.037741459            2 
  886000    1.1332617   -6.6802086    394.37218  0.037092944  0.037732109            2 
  887000    1.1050254    -6.701612    393.82832   0.03700003  0.037722953            3 
  888000     1.131636   -6.6672146    394.67622  0.037037934   0.03771354            1 
  889000    1.1163201   -6.6668391    395.01959  0.037028458  0.037704032            5 
  890000    1.1071467   -6.6680732    394.68659  0.036955673  0.037694125            3 
  891000    1.1102227   -6.6995104    395.30399   0.03697194    0.0376845            1 
  892000    1.1013909   -6.6930582    395.94786  0.036990645  0.037674808            3 
  893000    1.0971718   -6.6938739    394.98603  0.036859465  0.037664706            3 
  894000    1.1312751   -6.6956491    394.35715  0.036759615  0.037654454            2 
  895000    1.0949639    -6.677438    396.23661  0.036893539  0.037644324            2 
  896000    1.0853252   -6.7158934    396.92283  0.036916185  0.037634263            2 
  897000    1.1057512   -6.7116245    396.21995  0.036809731  0.037624093            3 
  898000    1.1090121   -6.6757651    397.77393  0.036912948  0.037613921            5 
  899000    1.0925954   -6.6515832    397.91211  0.036884697   0.03760388            2 
  900000    1.1063289   -6.6390606    399.27117  0.036969553  0.037593981            1 
  901000    1.1059655   -6.6736345    400.11226  0.037006313  0.037584063            4 
  902000    1.1201578   -6.7150434      398.147  0.036783721  0.037574173            1 
  903000    1.1051749   -6.6824562    400.62911  0.036972048  0.037564359            3 
  904000    1.0929472   -6.7145816    399.83965  0.036858375  0.037554875            2 
  905000    1.1051169   -6.6843885    400.02434  0.036834654  0.037545166            2 
  906000    1.1109004   -6.7048458    399.94418  0.036786625  0.037535223            2 
  907000    1.1172321   -6.7342515    400.53733  0.036800564  0.037525361            4 
  908000      1.09247   -6.6944507    401.16783  0.036817899  0.037515568            3 
  909000    1.0956964   -6.6757887    401.10307  0.036771458  0.037505476            6 
  910000    1.1333849   -6.6578391    400.86885  0.036709601  0.037495535            2 
  911000     1.104605   -6.7031524    402.03953  0.036776393  0.037485713            2 
  912000    1.0970437   -6.6723545    402.80665  0.036806163   0.03747616            3 
  913000    1.1219236   -6.7115154    402.69242  0.036755423  0.037466573            2 
  914000    1.1032312   -6.7222548    403.49135  0.036788052  0.037456763            3 
  915000    1.1283257   -6.6872303    403.47835  0.036746662  0.037446922            2 
  916000    1.0979963   -6.7205268    402.55796  0.036622813  0.037436821            3 
  917000    1.0886183   -6.6813061     403.9617  0.036710442  0.037427015            5 
  918000    1.1207074   -6.6969882    404.33607  0.036704436   0.03741713            2 
  919000    1.1084181   -6.6802161    404.72864  0.036700094  0.037407201            1 
  920000    1.1170165   -6.6940883    405.05293  0.036689577  0.037397503            3 
  921000    1.0831682   -6.7109313    406.84975  0.036812319  0.037388007            2 
  922000    1.1315742   -6.7441741    406.85665  0.036773016  0.037378739            3 
  923000     1.108201   -6.7017545    407.49577  0.036790879  0.037369283            2 
  924000    1.0811748   -6.7294476     407.0992  0.036715296  0.037360259            3 
  925000    1.0963018   -6.7088323    407.36846  0.036699862   0.03735106            2 
  926000    1.1105029   -6.7041734    407.89853  0.036707931  0.037342113            4 
  927000    1.1293071   -6.7102182    409.57178   0.03681875  0.037332833            3 
  928000    1.0922357   -6.6831356    410.09276  0.036825858  0.037323941            2 
  929000    1.1088134   -6.7335564    408.56628   0.03664929  0.037314904            9 
  930000    1.0930712   -6.6974368    409.21202  0.036667744  0.037306014            1 
  931000    1.0973073   -6.7113209    409.14772  0.036622603   0.03729699            4 
  932000     1.073636   -6.6941728    411.62362  0.036804687  0.037288062            2 
  933000     1.110978   -6.6758031    411.86642  0.036786926  0.037279354            2 
  934000    1.1223896   -6.7472644    411.35233  0.036701671  0.037270624            2 
  935000    1.1197285   -6.7038925    413.24029  0.036830685  0.037262211            5 
  936000    1.0625418   -6.7033674     413.7161  0.036833699   0.03725391            1 
  937000    1.1161196   -6.6866336    413.57601  0.036781929  0.037245618            4 
  938000    1.1137949   -6.7152219    414.38228  0.036814346  0.037237379            5 
  939000    1.1020843   -6.6908954    414.19257  0.036758304  0.037228944            4 
  940000    1.1165681   -6.6606821     413.6452  0.036670674  0.037220243            2 
  941000    1.1149274   -6.6974359    414.36123  0.036695114  0.037211531            3 
  942000    1.0929869   -6.6814688    414.00706  0.036624828  0.037202696            2 
  943000     1.077229   -6.7072237    414.70345   0.03664753  0.037193695            5 
  944000      1.10944   -6.7211739    414.73292   0.03661131  0.037184669            5 
  945000    1.1060219   -6.6653332    416.26111  0.036707329  0.037175917            2 
  946000    1.1140484   -6.7233114    416.24459  0.036667071  0.037167039            3 
  947000    1.0904073   -6.6868464    417.78005  0.036763468  0.037158381            2 
  948000    1.0911439   -6.6942279    416.62759  0.036623382  0.037149893            2 
  949000    1.1182088   -6.7059333    417.98428  0.036703923  0.037141467            3 
  950000    1.1008116   -6.7208836    417.87009  0.036655271  0.037133355            2 
  951000    1.0981862   -6.7224978    418.96031   0.03671226   0.03712503            3 
  952000    1.1094505   -6.7132763    419.99262   0.03676406  0.037116702            2 
  953000    1.1121602   -6.7284534    418.46568  0.036591963  0.037108636            4 
  954000    1.0724857   -6.7289946    418.91525  0.036592876  0.037100766            3 
  955000    1.0991949   -6.7066026    419.56601  0.036611345  0.037092663            2 
  956000    1.1080517   -6.6997723    420.65483  0.036667959  0.037084575            4 
  957000    1.0821378   -6.7228377    420.92599  0.036653256   0.03707664            4 
  958000    1.0505346    -6.729933    422.15351  0.036721774  0.037068934            3 
  959000    1.0826261   -6.7315945    421.85443  0.036657493  0.037061285            2 
  960000    1.0882877   -6.7289937    421.63755  0.036600482  0.037053564            2 
  961000    1.1169682   -6.6738127    423.37883  0.036713391  0.037045831            3 
  962000    1.1040396   -6.7496779    422.37061  0.036587891   0.03703819            2 
  963000    1.0874397   -6.7373043    422.84617   0.03659105  0.037030432            3 
  964000    1.1004127   -6.7489491    423.28561   0.03659108  0.037022683            3 
  965000    1.1125983   -6.6742462    424.68858  0.036674316  0.037014973            3 
  966000    1.0806471   -6.7097687    423.87947  0.036566552  0.037007256            3 
  967000     1.084205   -6.7287571    424.47963  0.036580457  0.036999476            1 
  968000    1.0942648   -6.7200066    424.93239  0.036581645  0.036991478            2 
  969000    1.1091989   -6.7246003    426.03247  0.036638499  0.036983646            3 
  970000    1.0994841   -6.7053162      427.766  0.036749656  0.036975842            3 
  971000    1.0921047   -6.6999557     426.1781  0.036575532  0.036967951            3 
  972000    1.0951699   -6.7100824    427.05574  0.036613147  0.036960056            2 
  973000    1.0987082   -6.6631649    428.05204  0.036660846  0.036952301            1 
  974000    1.1118075   -6.6810177    427.95429  0.036614843  0.036945079            4 
  975000    1.1113396   -6.7546765    428.09303  0.036589148   0.03693747            1 
  976000    1.0821539   -6.7434018    427.85779  0.036531574  0.036929957            3 
  977000    1.0746129   -6.7363893    429.16148   0.03660538  0.036922327            1 
  978000    1.0919178   -6.7326964     428.8075   0.03653779  0.036915063            2 
  979000    1.0755744   -6.7308008    429.87026  0.036590931  0.036907618            2 
  980000    1.1086279   -6.6986649     431.1437   0.03666188  0.036900148            3 
  981000    1.0927572    -6.709655    431.07737  0.036618873  0.036893072            1 
  982000    1.0784218   -6.7278719    432.32616  0.036687556  0.036886032            1 
  983000    1.0897376   -6.7125904     431.3661  0.036568845  0.036879313            2 
  984000    1.1025648   -6.6953571    433.08881  0.036677576  0.036872574            4 
  985000    1.1100983   -6.7038535    432.86467  0.036621377  0.036865942            2 
  986000    1.0602467   -6.6833152    433.04305  0.036599311  0.036858906            1 
  987000    1.0640685   -6.7074128    433.32954  0.036586418  0.036851517            2 
  988000    1.1135441   -6.7456277    433.63863  0.036575458  0.036844174            3 
  989000    1.1067953   -6.7137466    433.85147   0.03655641  0.036836867            4 
  990000    1.0936568   -6.7179414    435.02415  0.036618195  0.036829749            2 
  991000    1.0907516   -6.7120065    434.54297  0.036540781  0.036822201            3 
  992000    1.0805312    -6.727301    435.99997  0.036626342  0.036814818            1 
  993000    1.1161343   -6.7481638    434.27167  0.036444416  0.036807371            4 
  994000    1.0804874   -6.7359179    434.20719  0.036402347  0.036800109            3 
  995000    1.0692067   -6.7513051    435.14384  0.036444207  0.036792767            5 
  996000    1.0975933    -6.752021    435.50153  0.036437544  0.036785321            3 
  997000    1.1286372   -6.7031246    436.64855   0.03649687  0.036777863            2 
  998000    1.1034211   -6.7264699    436.68977  0.036463742  0.036770418            2 
  999000    1.0840881   -6.7433455    437.04693  0.036457034  0.036763041            2 
 1000000    1.0878385   -6.7314063    435.67826  0.036306522  0.036755678            4 
 1001000    1.0949408   -6.7345219    438.31809  0.036490018  0.036748359            2 
 1002000    1.0819766   -6.7044014    438.90545  0.036502449  0.036741135            2 
 1003000     1.084936   -6.7060316    438.45011  0.036428224  0.036733765            3 
 1004000    1.0736597   -6.7197147    438.74641  0.036416534  0.036726613            4 
 1005000    1.0874946   -6.7148433    440.67915   0.03654056  0.036719418            1 
 1006000    1.1128868   -6.6967678    439.28758  0.036388964  0.036711996            2 
 1007000    1.0726055   -6.6973475    439.90359  0.036403806  0.036704689            4 
 1008000    1.0999517   -6.7310846     438.4304    0.0362459  0.036697331            2 
 1009000    1.0903145   -6.7274631    440.34825  0.036368372  0.036689608            3 
 1010000    1.0962033   -6.7183699    440.32613  0.036330539  0.036681997            2 
 1011000    1.0846482   -6.7569149    440.46728  0.036306238  0.036674242            3 
 1012000    1.0766069   -6.7266637    439.90093  0.036223726  0.036666417            1 
 1013000    1.1063993   -6.7310321    440.43014  0.036231502  0.036658477            3 
 1014000    1.0793553   -6.7268685    441.52568  0.036285806  0.036650395            3 
 1015000     1.098777   -6.7163111    442.49584  0.036329708  0.036642544            1 
 1016000    1.0921531   -6.7522613    442.29891  0.036277798  0.036634846            6 
 1017000    1.0965003   -6.7246275    441.33849  0.036163429  0.036627128            2 
 1018000     1.120506   -6.7236825    443.21343  0.036281387  0.036619317            1 
 1019000    1.0592121   -6.7239626    442.82298  0.036213852  0.036611615            2 
 1020000    1.0831908   -6.7210739    444.11848  0.036284189  0.036603752            2 
 1021000    1.1255619     -6.71476    445.36922  0.036350736  0.036595992            3 
 1022000    1.0861533   -6.7607776    444.56231  0.036249373  0.036588501            4 
 1023000    1.1090253   -6.7098667    445.19819  0.036265737  0.036580786            3 
 1024000    1.0934645   -6.7654716    444.90122  0.036206154  0.036573113            3 
 1025000    1.0723495   -6.7208182    445.71936  0.036237346  0.036565478            2 
 1026000    1.1077901   -6.7205269    446.71063   0.03628254  0.036557951            4 
 1027000    1.0766118   -6.7408294    446.47203  0.036227851  0.036550332            4 
 1028000    1.0863976   -6.7675325    445.61981  0.036123525  0.036542898            2 
 1029000    1.0721449   -6.7353625    447.15848  0.036213029  0.036535158            3 
 1030000    1.1052743   -6.7133538     449.0283   0.03632915  0.036527595            3 
 1031000    1.0761548   -6.7387237    448.39009  0.036242329  0.036520096            2 
 1032000    1.0993467   -6.7500778    447.69615  0.036151175  0.036512583            3 
 1033000    1.0988314   -6.7340275    448.92772  0.036215531  0.036505046            2 
 1034000    1.0821736   -6.7621734    447.82021  0.036091248  0.036497491            2 
 1035000    1.1191877   -6.7594436    450.19419  0.036247519  0.036489771            2 
 1036000    1.0883752   -6.7399251    448.50779  0.036076881  0.036482186            2 
 1037000    1.0974179   -6.7777655    449.86446  0.036151113  0.036474342            5 
 1038000    1.0954136   -6.7643538    449.04446  0.036050455  0.036466823            2 
 1039000    1.0877664   -6.7443276    450.82396  0.036158482  0.036459266            6 
 1040000    1.0829426   -6.7249277    451.43702  0.036172838  0.036451573            2 
 1041000    1.0754842   -6.7595861     451.1439  0.036114625  0.036444353            3 
 1042000    1.0883681   -6.7489385    452.70787  0.036205044  0.036437233            3 
 1043000    1.0730568    -6.730995    453.22195  0.036211405  0.036430162            2 
 1044000    1.0783778   -6.7393856    453.28779  0.036181976  0.036422814            1 
 1045000    1.0527858   -6.7383419    453.59034  0.036171479  0.036415461            2 
 1046000    1.0973903   -6.7251897    454.54584  0.036213021  0.036408188            3 
 1047000    1.0848342   -6.7647361    454.31409  0.036159988  0.036400907            4 
 1048000    1.0810759   -6.7490327    455.01244  0.036181015  0.036393683            3 
 1049000    1.0862633   -6.7358738    456.57115  0.036270349  0.036386659            2 
 1050000    1.1012561   -6.7492011    456.09339  0.036197888  0.036379889            3 
 1051000    1.0925486   -6.7725224    454.69256  0.036052376  0.036372946            3 
 1052000    1.1138157    -6.774397    455.70801  0.036098543  0.036365771            2 
 1053000     1.098128   -6.7480521    456.41317  0.036120067   0.03635876            2 
 1054000    1.0837445   -6.7588732    457.74118  0.036190795  0.036351663            3 
 1055000    1.0770809   -6.7575559    457.10334  0.036106109  0.036344499            2 
 1056000    1.0692288    -6.767157    458.75254  0.036202063  0.036337513            6 
 1057000    1.0836466   -6.7444823    458.72801  0.036165879   0.03633039            2 
 1058000    1.0899557   -6.7675757    458.21542  0.036091322  0.036323311            2 
 1059000    1.0717113   -6.7543404    457.84463  0.036028063  0.036316114            2 
 1060000    1.0697855   -6.7329749     459.7057  0.036140385  0.036308955            4 
 1061000     1.080772   -6.7278372    460.33973  0.036156121  0.036301999            3 
 1062000     1.088876   -6.7474233    458.59285     0.035985  0.036294953            2 
 1063000    1.1056018   -6.6969637    460.83369  0.036126818  0.036288011            2 
 1064000    1.0886957   -6.6802091    461.55728  0.036149536  0.036280838            6 
 1065000    1.0896105   -6.7335156    458.94636  0.035911296  0.036273416            4 
 1066000    1.0566036   -6.7358079    460.76647  0.036019893  0.036265984            5 
 1067000    1.1067053   -6.8017406    458.83742  0.035835475  0.036258565            3 
 1068000    1.0842578   -6.7172275      462.175  0.036062344  0.036251323            1 
 1069000    1.1069122   -6.7429483    462.15306  0.036026899  0.036244559            3 
 1070000    1.0799638    -6.766158     462.9499  0.036055288  0.036237638            3 
 1071000    1.0687998   -6.7512956    462.32438  0.035972952  0.036230613            2 
 1072000    1.0691629   -6.7590277    463.83376  0.036056729  0.036223628            2 
 1073000      1.08479    -6.739449    464.28755  0.036058368  0.036216781            2 
 1074000    1.0715666   -6.7834835    463.74377  0.035982601  0.036209691            2 
 1075000    1.0884478   -6.7775629     464.9898  0.036045721  0.036202349            3 
 1076000    1.0666407   -6.7448298    464.92097   0.03600689  0.036195257            3 
 1077000    1.0509807   -6.7185468    464.76078  0.035961063  0.036188305            2 
 1078000    1.0489823   -6.7412025    464.60244  0.035915464  0.036181067            4 
 1079000    1.0570629   -6.7553054    464.25804  0.035855579  0.036173938            2 
 1080000    1.0591828   -6.7509354    465.83003  0.035943675  0.036166512            2 
 1081000     1.085617   -6.7290682    466.04439  0.035926949  0.036159502            4 
 1082000    1.0664144   -6.7431178    466.60734  0.035937102  0.036152156            2 
 1083000    1.0750035   -6.7351363    466.68677  0.035910031  0.036145316            3 
 1084000    1.0728933   -6.7627637    466.22601  0.035841483  0.036138499            4 
 1085000    1.0960446   -6.7368401    467.42724   0.03590071  0.036131484            2 
 1086000    1.0771869   -6.7217952    469.03908  0.035991335  0.036124349            3 
 1087000    1.0770972   -6.7626149    468.50958  0.035917631  0.036117047            2 
 1088000    1.0728434   -6.7725814    468.83151  0.035909276  0.036109743            3 
 1089000    1.0736831   -6.7723935     467.5233  0.035776194  0.036102368            4 
 1090000    1.0706605   -6.7373262     469.3967  0.035886598  0.036095237            4 
 1091000    1.0689617   -6.7641234    470.72086  0.035954848   0.03608839            1 
 1092000     1.079069   -6.7382939    468.99329  0.035790086  0.036081294            1 
 1093000    1.0745529   -6.7350188    469.39197  0.035787738  0.036074114            3 
 1094000    1.0790216   -6.7528549    471.72156  0.035932477  0.036066725            5 
 1095000    1.0675317   -6.7487693    471.85928  0.035910143  0.036059396            3 
 1096000    1.0684808   -6.8039505    470.13648  0.035746387  0.036051887            2 
 1097000    1.0658071   -6.7243773    472.46879  0.035890974  0.036044746            2 
 1098000    1.0750958   -6.7816915    471.98976  0.035821931  0.036037666            2 
 1099000    1.0924988     -6.74325    471.77943  0.035773387    0.0360307            4 
 1100000    1.0650514    -6.732595     472.9094   0.03582647  0.036023394            5 
 1101000    1.0677756   -6.7418877    472.61707  0.035771803  0.036016107            2 
 1102000    1.0881661   -6.7612071    473.38961  0.035797763  0.036008716            3 
 1103000    1.0822099   -6.7572765    471.56209  0.035627236  0.036001385            5 
 1104000    1.0744976   -6.7363488     472.7603  0.035685409  0.035993925            3 
 1105000    1.0856552   -6.8006948     474.1783  0.035760053  0.035986606            4 
 1106000    1.0898511   -6.7589647    472.65636  0.035613047   0.03597914            4 
 1107000     1.060578   -6.7666093    476.07221  0.035838016  0.035971659            5 
 1108000    1.0706111    -6.750888    474.27595  0.035670574  0.035964282            3 
 1109000     1.084369   -6.7564292    475.57711  0.035736182  0.035956838            2 
 1110000    1.0736984   -6.7338566    476.26695  0.035755777  0.035949692            3 
 1111000    1.0756812   -6.7392573    477.72549  0.035832995  0.035942536            6 
 1112000    1.0759743   -6.7357036    476.95211  0.035742814   0.03593544            2 
 1113000    1.0968326   -6.7255518    476.62078  0.035685892  0.035928408            4 
 1114000     1.079205   -6.7604287    477.60839  0.035727737  0.035921155            4 
 1115000    1.1042974    -6.750429    478.03813  0.035727813  0.035914006            3 
 1116000    1.0835467   -6.7619842    479.25201   0.03578644  0.035907131            8 
 1117000    1.0864551   -6.7684081    477.46957  0.035621424  0.035900005            3 
 1118000    1.0681641   -6.7558684    478.84104  0.035691789  0.035892666            3 
 1119000    1.0939089   -6.7981383    477.57343  0.035565493   0.03588549            3 
 1120000    1.0701592   -6.8063674    478.77622  0.035623231  0.035878088            3 
 1121000    1.0873737   -6.7397031    479.35011  0.035634115  0.035870962            2 
 1122000    1.0602997   -6.7966188    479.81655  0.035636998  0.035863648            5 
 1123000    1.0912796   -6.7329484    480.11162  0.035627161  0.035856382            3 
 1124000    1.0856958   -6.7956224    478.16342  0.035451024  0.035848954            3 
 1125000    1.0546753   -6.7524672    481.31193  0.035652736  0.035841524            4 
 1126000    1.0698393   -6.7938154    479.90176  0.035516708  0.035834123            3 
 1127000     1.089744   -6.7635149    481.47293   0.03560137  0.035826607            2 
 1128000     1.079244   -6.7565393    482.21477  0.035624613  0.035819255            4 
 1129000    1.0550596   -6.7751785    480.90712  0.035496539   0.03581208            2 
 1130000    1.0694249   -6.7619435    482.85732  0.035608947  0.035804799            2 
 1131000     1.083105   -6.7568511    482.21681  0.035530269   0.03579759            3 
 1132000    1.0659638   -6.7599287    481.10319  0.035416901  0.035789894            5 
 1133000     1.062024   -6.7284611    483.68102  0.035575244   0.03578221            4 
 1134000    1.0662682   -6.7811198    482.65855  0.035468735  0.035774553            7 
 1135000    1.0555584   -6.7605291    483.17335  0.035475282  0.035766941            5 
 1136000    1.0631109   -6.7927627    482.18318  0.035371419   0.03575894            2 
 1137000    1.0742108   -6.7715072    481.65198  0.035301377  0.035751032            2 
 1138000    1.0706666    -6.785871    480.98411  0.035221449  0.035742841            4 
 1139000    1.0621382   -6.7609839    484.33931  0.035436004  0.035734862            3 
 1140000    1.0667953    -6.765943    484.42595  0.035411254  0.035726981            4 
 1141000    1.0889325   -6.8222723    485.07352  0.035427514  0.035718984            4 
 1142000    1.0532586   -6.7798921    485.53016  0.035429813  0.035710996            2 
 1143000    1.0718205   -6.7657593    484.58231  0.035329711  0.035703127            6 
 1144000    1.0821081   -6.7573195    487.07462  0.035480377  0.035695254            1 
 1145000    1.0495873   -6.8013082    485.68446  0.035348214  0.035687406            2 
 1146000    1.0617194   -6.8104549    485.68705  0.035317557  0.035679218            3 
 1147000    1.0688617   -6.7651488    486.16552  0.035321529    0.0356713            6 
 1148000    1.0605145   -6.7800082    487.07797  0.035356995   0.03566336            4 
 1149000    1.0393958   -6.7661499    487.24737   0.03533851  0.035655412            5 
 1150000    1.0745583   -6.7952151    487.23377  0.035306795  0.035647629            3 
 1151000    1.0764709    -6.767656    486.38437  0.035214623  0.035639824            2 
 1152000    1.0611597    -6.751111    487.95202  0.035297455  0.035631768            3 
 1153000    1.0628304   -6.7277684    489.15518  0.035353801  0.035623935            1 
 1154000    1.0840326   -6.7980366    486.81789  0.035154383  0.035615761            2 
 1155000    1.0744667    -6.817008    487.12638  0.035146203  0.035607612            2 
 1156000    1.0747372   -6.7627906    488.69229  0.035228683  0.035599403            1 
 1157000    1.0604732   -6.7638843    491.21629  0.035380027  0.035591174            2 
 1158000    1.0428337   -6.7753289    488.89191  0.035182204  0.035583157            1 
 1159000    1.0488851   -6.7748306    489.76306  0.035214485  0.035575195            7 
 1160000    1.0773178    -6.789255    489.11816  0.035137799  0.035567245            3 
 1161000    1.0530285   -6.7877859     489.7629  0.035153811  0.035559016            1 
 1162000    1.0813829   -6.7683931    490.34634    0.0351654  0.035551014            8 
 1163000    1.0695847   -6.7583163    490.93141  0.035177086  0.035542852            2 
 1164000    1.0508168   -6.7853644    490.56483  0.035120621  0.035534761            4 
 1165000     1.081433   -6.7774082    490.19757  0.035064204  0.035526473            3 
 1166000    1.0827445   -6.7972225    490.79172  0.035076595  0.035518196            2 
 1167000    1.0758556   -6.7776731    492.01083  0.035133593  0.035509819            1 
 1168000    1.0562329   -6.7674618    491.31033  0.035053534  0.035501399            2 
 1169000    1.0345583   -6.7768263    491.92715  0.035067518  0.035492871            2 
 1170000    1.0433352   -6.7906753    491.56764   0.03501194  0.035484399            6 
 1171000    1.0686953   -6.7714679    493.72811  0.035135789  0.035475988            8 
 1172000    1.0727958   -6.7936446    492.45467  0.035015264  0.035467533            4 
 1173000    1.0685189   -6.8218568    492.81571  0.035011062  0.035458979            3 
 1174000     1.041233    -6.786699    493.17433  0.035006696  0.035450614            2 
 1175000    1.0513905   -6.7835749    494.59327  0.035077537  0.035442121            2 
 1176000    1.0651236   -6.7876146    493.71462  0.034985446  0.035433635            4 
 1177000    1.0313797   -6.7848546    493.55957  0.034944744  0.035425217            4 
 1178000    1.0439453   -6.7679955     494.3831  0.034973337  0.035416881            3 
 1179000    1.0604306   -6.8051181    493.33274  0.034869433  0.035408315            4 
 1180000    1.0521725   -6.7589608    494.05843  0.034891132  0.035399786            2 
 1181000    1.0515509   -6.7825001    494.68528   0.03490582  0.035391321            3 
 1182000    1.0664833   -6.7915016    495.58366  0.034939626  0.035382686            3 
 1183000    1.0665191   -6.8025379     495.1623   0.03488041  0.035374075            4 
 1184000    1.0612031   -6.7790048    495.91807  0.034904144  0.035365288            1 
 1185000     1.057086   -6.8014776     495.3545  0.034835056  0.035356629            3 
 1186000    1.0550509   -6.7779459    496.53385   0.03488855  0.035347936            5 
 1187000    1.0581009    -6.768533    497.41298  0.034920878  0.035339342            2 
 1188000    1.0648773   -6.8028977    495.81095  0.034779107  0.035330657            3 
 1189000    1.0452267   -6.7855714    497.36467  0.034858752  0.035321829            2 
 1190000     1.075248   -6.7506862    497.95457  0.034870768  0.035313108            1 
 1191000    1.0429713   -6.8030067    497.34813  0.034799057  0.035304503            4 
 1192000    1.0355578   -6.7800887     499.2745  0.034904537  0.035295952            3 
 1193000    1.0885518   -6.7959314    499.08375  0.034861955  0.035287443            2 
 1194000     1.057962   -6.7811422    499.56367  0.034866253  0.035278793            4 
 1195000    1.0677383   -6.7998977    499.77106  0.034851539  0.035270364            4 
 1196000    1.0500841   -6.7891818    500.14496   0.03484845  0.035262022            4 
 1197000    1.0968215   -6.7778277    499.18315  0.034752378   0.03525365            4 
 1198000    1.0856408   -6.7588998    503.01691  0.034990046  0.035245412            3 
 1199000    1.0448591   -6.7550196    501.62698   0.03486426  0.035237118            3 
 1200000     1.059642   -6.7524228    502.98751  0.034929688  0.035228853            5 
 1201000    1.0739351   -6.7476712    501.88755  0.034824282  0.035220653            3 
 1202000    1.0574761   -6.7732728     501.6975  0.034782134   0.03521253            2 
 1203000    1.0529083   -6.7763728    503.53959  0.034880825  0.035204302            3 
 1204000    1.0219412   -6.7793906    503.33973  0.034838021  0.035196135            3 
 1205000    1.0536934   -6.7953836    503.48641  0.034819254  0.035188155            5 
 1206000    1.0558477   -6.7881062    504.19233   0.03483916  0.035179996            2 
 1207000     1.061107   -6.7830684    504.42678  0.034826483  0.035171692            2 
 1208000    1.0645395   -6.7791326    503.71878  0.034748812  0.035163368            5 
 1209000     1.062504   -6.7887045    503.84964   0.03472909  0.035155172            2 
 1210000    1.0581667   -6.7939544    506.03027  0.034850569  0.035146948            3 
 1211000    1.0703083   -6.8014879    506.10125  0.034826676  0.035138924            3 
 1212000    1.0638345    -6.800428     504.8789  0.034713896  0.035130592            3 
 1213000    1.0212767   -6.7727465    504.93503  0.034689134  0.035122422            3 
 1214000    1.0617153   -6.7928699    504.91676  0.034659306  0.035114254            2 
 1215000    1.0381087    -6.783237    505.90398   0.03469849     0.035106            3 
 1216000    1.0593342   -6.8218462    506.92396  0.034739855   0.03509787            3 
 1217000    1.0548892   -6.8143829    506.80065  0.034702865  0.035089671            5 
 1218000    1.0714104   -6.7869351    507.97353   0.03475462  0.035081812            3 
 1219000    1.0399378   -6.8180255    507.95811  0.034725055  0.035073794            7 
 1220000    1.0637158   -6.7987263    508.42435  0.034728439  0.035066084            5 
 1221000    1.0742814   -6.8116441    509.71856  0.034788326  0.035058236            6 
 1222000    1.0586579   -6.7638537    511.42953  0.034876537   0.03505088            3 
 1223000    1.0359634   -6.7847127    511.99218  0.034886358  0.035043515            5 
 1224000    1.0535038   -6.7939914     511.7607  0.034842096  0.035036218            2 
 1225000    1.0573459   -6.7947874    511.53705  0.034798439  0.035028848            3 
 1226000    1.0885804   -6.8068239    510.74742  0.034716383   0.03502139            1 
 1227000    1.0678153   -6.7729308    512.54701   0.03481031  0.035013816            1 
 1228000     1.044813   -6.7997344    511.90732  0.034738553  0.035006417            8 
 1229000    1.0478854   -6.8367253    513.83601  0.034841064  0.034999126            3 
 1230000    1.0715381   -6.8041105    513.24121   0.03477244  0.034991712            3 
 1231000    1.0705385   -6.7847763    513.82616  0.034783791  0.034984463            2 
 1232000    1.0551336   -6.8130068    514.87727  0.034826655  0.034977103            5 
 1233000    1.0423582   -6.8347002    513.85006  0.034728985  0.034969621            5 
 1234000    1.0678931   -6.7787641     515.1769  0.034790444  0.034962128            1 
 1235000    1.0662105   -6.8125157      514.658   0.03472726  0.034954908            2 
 1236000    1.0704523   -6.8205932    515.38644  0.034748277  0.034947749            1 
 1237000    1.0347006    -6.798613    518.60067   0.03493672  0.034940684            1 
 1238000    1.0884358   -6.8140977    515.67901  0.034711834  0.034933688            3 
 1239000    1.0737875   -6.8079801    517.85784  0.034830363  0.034926756            4 
 1240000    1.0615188   -6.8017552    519.61389  0.034920288  0.034919852            2 
 1241000    1.0577386   -6.8131217    518.30941  0.034804554  0.034912794            5 
 1242000    1.0399649   -6.8024807    517.95469   0.03475273  0.034905614            2 
 1243000    1.0772398   -6.8185741    517.97252  0.034725966  0.034898594            3 
 1244000    1.0516837   -6.7962365    519.64279   0.03480994    0.0348915            2 
 1245000    1.0444854   -6.8006885    519.57763  0.034777619  0.034884537            3 
 1246000    1.0502419   -6.8419446    518.64492  0.034687327  0.034877503            2 
 1247000    1.0550939   -6.7837799    519.92445  0.034745018  0.034870622            3 
 1248000    1.0521436   -6.8143245     519.8122  0.034709682  0.034863733            3 
 1249000    1.0629141   -6.7750882    522.52385  0.034862814  0.034856929            4 
 1250000    1.0497115   -6.7973013    522.55478  0.034836985  0.034850163            2 
 1251000    1.0547755   -6.8077011    519.45447  0.034602616  0.034843237            3 
 1252000    1.0656433   -6.8013633    522.49011  0.034777031  0.034836145            3 
 1253000    1.0590628   -6.8188331    521.78233  0.034702203   0.03482917            3 
 1254000    1.0534062   -6.7991643    523.16114  0.034766158  0.034822236            2 
 1255000    1.0651601   -6.8200373    524.00897  0.034794753  0.034815337            3 
 1256000    1.0353165   -6.8079954    522.50461  0.034667238   0.03480835            3 
 1257000    1.0413032   -6.7621276    525.39216   0.03483109   0.03480139            3 
 1258000     1.043241   -6.8131368    523.46124  0.034675493  0.034794517            3 
 1259000    1.0483698   -6.8198988     522.5699  0.034588953  0.034787336            3 
 1260000    1.0600915   -6.7800604    525.15588  0.034732532  0.034780266            3 
 1261000    1.0596356   -6.8211155    523.96858  0.034626525  0.034773175            3 
 1262000    1.0523209   -6.8227636     524.9471  0.034663702  0.034766238            4 
 1263000    1.0413482   -6.7896599    525.81782  0.034693707  0.034759224            6 
 1264000    1.0511752   -6.7946525    523.99813   0.03454629  0.034752285            3 
 1265000    1.0502308   -6.8203965    525.04949  0.034588241  0.034745227            6 
 1266000    1.0394933   -6.8139302     525.7245  0.034605351  0.034737873            3 
 1267000     1.035977   -6.8222496    525.24939   0.03454679  0.034730878            3 
 1268000    1.0482894   -6.8523145    525.77535  0.034554111  0.034723816            3 
 1269000    1.0493271   -6.8205513    524.85431  0.034466398  0.034716531            1 
 1270000     1.044145    -6.817601    527.36571  0.034604049  0.034709375            2 
 1271000    1.0495801    -6.816137    527.67952  0.034597399  0.034702441            4 
 1272000    1.0570062   -6.8335331    527.63067  0.034566999  0.034695351            4 
 1273000    1.0390933      -6.8097    527.70615  0.034544786   0.03468831            2 
 1274000    1.0432675   -6.8307688    528.32135  0.034557911  0.034681294            1 
 1275000    1.0491066   -6.7993065    529.22758  0.034590038   0.03467439            3 
 1276000    1.0234824   -6.8192272    528.62922  0.034523852  0.034667501            3 
 1277000    1.0557135   -6.8795037    528.78224  0.034506802  0.034660497            3 
 1278000    1.0446084   -6.8379607    529.40145  0.034520178  0.034653586            1 
 1279000    1.0558639    -6.799416    530.36386  0.034555894  0.034646529            3 
 1280000    1.0543647   -6.8263458    528.37602   0.03439948  0.034639497            3 
 1281000     1.026511   -6.8195584    531.36441  0.034567032  0.034632405            4 
 1282000     1.028684   -6.8371565    530.38183  0.034476198  0.034625303            2 
 1283000    1.0224127   -6.8134601    530.25634  0.034441175  0.034618212            5 
 1284000    1.0493842    -6.788098    530.67519  0.034441536  0.034611183            3 
 1285000    1.0519624   -6.8611062    530.65305  0.034413298  0.034604111            2 
 1286000    1.0343496    -6.791345    532.60792  0.034513214  0.034596901            1 
 1287000    1.0523733   -6.8373952    531.62661  0.034422857  0.034589673            4 
 1288000     1.023005   -6.8026886    532.57383  0.034457417  0.034582398            2 
 1289000    1.0402013   -6.8119568     532.1012  0.034400129  0.034575117            4 
 1290000    1.0529905   -6.8315492     531.9367  0.034362836  0.034567828            4 
 1291000    1.0683743   -6.8126804    533.96944  0.034467431  0.034560556            2 
 1292000    1.0537307    -6.793677    536.15508  0.034581726  0.034553471            5 
 1293000    1.0407056   -6.8067489    533.85903  0.034407001  0.034546343            4 
 1294000     1.050575   -6.8250696    534.20076  0.034402419  0.034539145            2 
 1295000    1.0388973   -6.8549629    533.19681  0.034311249  0.034531975            5 
 1296000    1.0544213   -6.8219748    534.79048  0.034387248   0.03452462            4 
 1297000    1.0345523   -6.8428427    534.34872  0.034332351  0.034517456            2 
 1298000    1.0426992   -6.7955999    534.56163   0.03431957  0.034510331            3 
 1299000    1.0318153   -6.8034427    536.04336  0.034388206  0.034503155            3 
 1300000    1.0303667   -6.8175458    536.01819   0.03436014  0.034496215            8 
 1301000    1.0333591   -6.8284518    535.39998  0.034294131  0.034489098            3 
 1302000    1.0525199    -6.836403     536.6774  0.034349552  0.034481854            1 
 1303000    1.0406016   -6.8015456     536.7998  0.034331018  0.034474539            3 
 1304000    1.0567339   -6.8252832     537.9564  0.034378605  0.034467227            5 
 1305000    1.0388075      -6.8653    537.79312  0.034341834  0.034459828            2 
 1306000    1.0366455   -6.8214289     537.8251  0.034317579  0.034452401            1 
 1307000    1.0532352   -6.8312363    536.75582  0.034223146  0.034445108            3 
 1308000    1.0464692   -6.8478345    537.08002  0.034217637  0.034437781            2 
 1309000    1.0439466   -6.8062323    539.15048  0.034323305  0.034430599            2 
 1310000    1.0423563   -6.8316422    539.00599  0.034287913  0.034423365            2 
 1311000    1.0422237   -6.8339547    539.75691  0.034309491  0.034416169            2 
 1312000    1.0258321   -6.8457427    539.92051  0.034293732   0.03440898            2 
 1313000    1.0598789    -6.825492    539.00014  0.034209199  0.034401862            2 
 1314000    1.0390317    -6.832738    540.93618  0.034305948  0.034394672            3 
 1315000    1.0608766   -6.8273603    541.33836  0.034305346  0.034387539            2 
 1316000    1.0421035   -6.7944587    540.75828  0.034242546  0.034380246            2 
 1317000    1.0608277   -6.7949795     541.9245  0.034290338  0.034372973            2 
 1318000    1.0304763   -6.7756556    541.88104  0.034261573  0.034365986            4 
 1319000    1.0465341   -6.8452123     540.8323  0.034169339  0.034358909            2 
 1320000    1.0264694   -6.8261594    542.33387   0.03423825  0.034351729            3 
 1321000    1.0562434   -6.8150052    542.18689  0.034203059  0.034344484            4 
 1322000    1.0522715   -6.8564481    541.34101  0.034123866  0.034337314            3 
 1323000    1.0331816   -6.8336887    542.01833  0.034140737  0.034330013            3 
 1324000    1.0603574   -6.8283175    543.22615  0.034190971  0.034322866            2 
 1325000    1.0170608   -6.8427694     543.1489  0.034160308  0.034315769            2 
 1326000     1.061768   -6.8373106    545.33866  0.034272163  0.034308557            3 
 1327000    1.0524566   -6.8669012    542.98708  0.034098661   0.03430131            3 
 1328000    1.0585372   -6.8410607     542.9619  0.034071404  0.034294098            3 
 1329000    1.0154989   -6.8374617    544.00403  0.034111113   0.03428685            3 
 1330000    1.0366392   -6.8118029    543.99255  0.034084746  0.034279709            4 
 1331000    1.0439043   -6.8127793    546.55812  0.034219767   0.03427261            3 
 1332000    1.0623351   -6.8395779    546.42464  0.034185726  0.034265746            3 
 1333000    1.0537299   -6.8183308    546.44791  0.034161535  0.034258824            6 
 1334000    1.0240299   -6.8378338    545.72755  0.034090926  0.034252018            6 
 1335000    1.0151489    -6.837766    547.20503  0.034157618   0.03424511            2 
 1336000    1.0437138   -6.8248788    548.71497  0.034226233  0.034238273            3 
 1337000     1.032817   -6.8371529    547.52493   0.03412646  0.034231407            2 
 1338000    1.0439274   -6.8388074    548.67172  0.034172379  0.034224549            2 
 1339000     1.031314   -6.8416021    548.27224  0.034121996  0.034217687            3 
 1340000    1.0499564   -6.8284627    546.35108  0.033977057  0.034210705            3 
 1341000    1.0401351   -6.8354329    549.15311  0.034125846  0.034203875            4 
 1342000    1.0579083   -6.8378038    550.19527  0.034165131  0.034196969            4 
 1343000    1.0600978   -6.7823115    551.29683  0.034208043  0.034190118            3 
 1344000    1.0168343   -6.8391742    549.65657  0.034080889  0.034183267            7 
 1345000    1.0242195   -6.8669362    548.41797  0.033978808  0.034176232            3 
 1346000    1.0392507   -6.8085434    550.72949  0.034096675  0.034169167            1 
 1347000    1.0199702   -6.8712933    548.85658  0.033955492  0.034162064            3 
 1348000    1.0287113   -6.8527459     549.0159  0.033940152  0.034154936            6 
 1349000    1.0285145   -6.8678759    550.57215  0.034011129  0.034148003            1 
 1350000     1.018157   -6.8295995    552.45438  0.034102122   0.03414093            2 
 1351000    1.0301257   -6.8721866    551.92207  0.034044046  0.034133921            7 
 1352000    1.0227501   -6.8340691    551.09701  0.033968011    0.0341269            4 
 1353000    1.0401961   -6.8289758    551.57219  0.033972172  0.034119727            2 
 1354000    1.0501394   -6.8584488    553.61165  0.034072603  0.034112721            5 
 1355000    1.0514207   -6.8332385     552.6548   0.03398861  0.034105693            7 
 1356000    1.0230072   -6.8211088    552.81733  0.033973533  0.034098522            3 
 1357000      1.03264   -6.8571606    553.91415  0.034015853  0.034091518            2 
 1358000    1.0464383   -6.8967356    553.37275  0.033957582  0.034084423            1 
 1359000    1.0390079   -6.8445248     552.7579  0.033894892  0.034077341            2 
 1360000    1.0083438   -6.8380861    553.59708  0.033921389  0.034070158            4 
 1361000    1.0582977   -6.8434438     553.6176  0.033897722  0.034062978            5 
 1362000     1.026638   -6.8325054    553.88996  0.033889498  0.034055886            4 
 1363000    1.0385986   -6.8383053    552.67328  0.033790247  0.034048561            2 
 1364000    1.0359011   -6.8652424    554.25892  0.033862348  0.034041282            2 
 1365000    1.0365387     -6.85641    553.53704   0.03379347  0.034033912            4 
 1366000   0.99617245   -6.8327809    553.64221  0.033775147  0.034026548            4 
 1367000    1.0592935   -6.7721102    557.74686  0.034000662  0.034019399            2 
 1368000    1.0341077   -6.8344662    555.05299  0.033811707  0.034012232            5 
 1369000    1.0569348   -6.8197473    554.93871  0.033780053  0.034005055            6 
 1370000    1.0497394    -6.814345    556.17453  0.033830568  0.033997717            3 
 1371000    1.0260165   -6.8245763    556.28227   0.03381244  0.033990461            2 
 1372000    1.0167955   -6.8216305    557.48678  0.033860956  0.033983308            3 
 1373000    1.0367105   -6.8452514    557.35659  0.033828392  0.033976065            3 
 1374000    1.0321536   -6.8616281    556.92791  0.033777772  0.033968862            6 
 1375000    1.0445662   -6.8610893    558.59561   0.03385428  0.033961627            2 
 1376000    1.0215104   -6.8079036    559.28931  0.033871688  0.033954239            3 
 1377000    1.0160576    -6.828419    558.30624  0.033787596  0.033946854            3 
 1378000    1.0270199   -6.8835362    556.88761  0.033677287  0.033939394            2 
 1379000    1.0392924   -6.8703228    557.46945  0.033688026  0.033931989            2 
 1380000    1.0453677   -6.8452391     559.3644  0.033778043   0.03392451            3 
 1381000    1.0312929   -6.8606809    558.42687  0.033697011  0.033917194            2 
 1382000    1.0415708   -6.8541974    560.52429  0.033799101  0.033909745            3 
 1383000    1.0257281   -6.8752824    559.14193  0.033691367  0.033902329            2 
 1384000    1.0173328   -6.8500459    561.06084  0.033782565  0.033894906            2 
 1385000    1.0272308   -6.8523615    561.20592  0.033766902   0.03388758            2 
 1386000    1.0205295   -6.8725012    559.71225  0.033652733  0.033880076            2 
 1387000    1.0238447   -6.8467304    560.47635  0.033674378  0.033872801            6 
 1388000    1.0279929   -6.8569754    561.30686   0.03369998  0.033865354            6 
 1389000    1.0569018   -6.8434414    561.38079  0.033680153  0.033857968            4 
 1390000    1.0314114    -6.856932    560.78303  0.033620086   0.03385037            3 
 1391000    1.0279053   -6.8424959    560.64406   0.03358759  0.033842733            2 
 1392000    1.0376453   -6.8421546    560.23178   0.03353878  0.033835081            2 
 1393000     1.031095   -6.8422181    560.50828  0.033531244  0.033827367            3 
 1394000    1.0066914   -6.8755521    561.72245  0.033579774  0.033819703            2 
 1395000    1.0284685   -6.8774376    563.14282  0.033640551  0.033811925            2 
 1396000     1.043434   -6.8282622    562.23731  0.033562399  0.033804257            3 
 1397000    1.0330525   -6.8393583    564.11597   0.03365044  0.033796519            4 
 1398000    1.0384419   -6.8309189    561.88614  0.033493451  0.033788792            2 
 1399000    1.0228824   -6.8429961    561.90562  0.033470671  0.033781102            2 
 1400000    1.0080053   -6.8465758     562.1859  0.033463446  0.033773199            1 
 1401000    1.0340823   -6.8719662    562.12753  0.033436089  0.033765315            5 
 1402000    1.0340377   -6.8342077    562.67197  0.033444601   0.03375735            3 
 1403000    1.0271419   -6.8973676    561.63694  0.033359286  0.033749454            7 
 1404000    1.0237448   -6.8725036    565.60722  0.033571179  0.033741395            3 
 1405000    1.0296762   -6.8571826    565.28425  0.033528129  0.033733392            5 
 1406000    1.0310946   -6.8530481    563.59072  0.033403907  0.033725577            4 
 1407000    1.0156239   -6.8333877    564.30676  0.033422575  0.033717742            3 
 1408000    1.0172773   -6.8277783    564.62841  0.033417875  0.033709768            2 
 1409000    1.0055459   -6.8744404    562.78951  0.033285398  0.033701806            2 
 1410000    1.0524487    -6.919192    561.94471  0.033211862  0.033693592            4 
 1411000    1.0314501   -6.8579454    564.55158  0.033342285   0.03368543            3 
 1412000    1.0308633   -6.8697143    564.67686  0.033326066  0.033677547            1 
 1413000    1.0396563   -6.8607522    566.04026  0.033382889  0.033669583            2 
 1414000    1.0305829   -6.8667969    564.93813  0.033294327  0.033661596            2 
 1415000     1.009545   -6.8396612    566.50201  0.033362898  0.033653604            2 
 1416000    1.0175621   -6.8498154    568.31559  0.033446068  0.033645837            2 
 1417000     1.010673   -6.8761857    566.90309  0.033339396  0.033638078            2 
 1418000    1.0355525   -6.8704256    567.51401  0.033351787   0.03363019            3 
 1419000    1.0303498   -6.8397082    568.48895  0.033385539  0.033622437            8 
 1420000     1.015447   -6.8669481    567.62241  0.033311174   0.03361463            4 
 1421000    1.0227493   -6.8406108    567.96124  0.033307603  0.033606699            3 
 1422000    1.0416195   -6.8694484    568.75879  0.033330918   0.03359896            5 
 1423000    1.0226008   -6.8903464    570.64613  0.033418021  0.033591298            5 
 1424000    1.0189603   -6.8481508    571.45761  0.033442042   0.03358371            2 
 1425000    1.0269347   -6.8410605    571.35313  0.033412464  0.033576389            3 
 1426000    1.0162023   -6.8935616    570.22532  0.033323125  0.033568729            3 
 1427000    1.0058346   -6.8392119    572.06428  0.033407164  0.033561259            4 
 1428000    1.0370962   -6.8327451    572.23943  0.033393991  0.033553749            3 
 1429000    1.0001322   -6.8725952    571.59803  0.033333219  0.033546333            3 
 1430000     1.051233   -6.8390774    573.84069  0.033440599  0.033538937            2 
 1431000    1.0151076   -6.8897838    571.88489  0.033303336  0.033531575            3 
 1432000    1.0186313   -6.8716017    573.58001  0.033378725  0.033524008            5 
 1433000    1.0473107   -6.8537107    572.66148  0.033302017  0.033516691            2 
 1434000    1.0269793   -6.8589642     572.7863  0.033286047  0.033509291            6 
 1435000   0.99378045   -6.8822529    574.03556  0.033335398  0.033501794            4 
 1436000    1.0060496   -6.9059735    573.79409  0.033298172  0.033494218            7 
 1437000     1.020393   -6.8371385     575.3072  0.033362746   0.03348665            5 
 1438000     1.011062    -6.874856    574.07926  0.033268386  0.033479109            2 
 1439000    1.0211355   -6.8409695    574.93044  0.033294559  0.033471653            3 
 1440000    1.0235724   -6.8422016    575.02698  0.033277024  0.033464104            3 
 1441000       1.0475   -6.8565656    575.48124  0.033280201  0.033456609            3 
 1442000    1.0300466   -6.8580673    574.69639  0.033211766  0.033448926            3 
 1443000    1.0279395   -6.8435259    576.24396  0.033278122  0.033441165            3 
 1444000    1.0155661   -6.8650823     575.0821  0.033188025  0.033433434            2 
 1445000    1.0335389   -6.8785314    574.93162  0.033156379  0.033425624            2 
 1446000    1.0221913    -6.877305    574.94595  0.033134275  0.033417762            4 
 1447000    1.0149766   -6.8663001    574.58857  0.033090795  0.033409929            5 
 1448000    1.0238495   -6.8707695    574.86602   0.03308391  0.033402045            2 
 1449000    1.0102221    -6.868175    576.59691  0.033160623  0.033394223            9 
 1450000    1.0291371   -6.8565746    575.17327  0.033055935  0.033386243            3 
 1451000     1.001623    -6.861684    574.48976  0.032993898  0.033378092            8 
 1452000   0.99379854   -6.9229658    575.21974  0.033013071  0.033369958            3 
 1453000     1.017847   -6.9134058    575.43742  0.033002835  0.033361635            2 
 1454000    1.0444811   -6.8297276    578.36173  0.033147738  0.033353434            2 
 1455000    1.0161523   -6.8579861    577.07589  0.033051311  0.033345314            3 
 1456000    1.0180812   -6.8786078    574.46609   0.03287924  0.033337052            3 
 1457000    1.0092615   -6.8599704    576.64433  0.032981259  0.033328812            5 
 1458000    1.0122334   -6.8822031    577.56547  0.033011287  0.033320628            2 
 1459000    1.0055267   -6.8668409    577.65805  0.032993948  0.033312521            4 
 1460000    1.0104413    -6.842182    578.54752  0.033022119  0.033304549            3 
 1461000    1.0363618   -6.8492272    578.11168  0.032974657  0.033296501            2 
 1462000    1.0419923   -6.8666154    576.74283  0.032874078  0.033288384            3 
 1463000    1.0198373   -6.8979126    577.33664  0.032885432  0.033280253            2 
 1464000    1.0100414   -6.9056602     577.7184  0.032884699  0.033271955            1 
 1465000    1.0189233   -6.8610598    578.15861  0.032887293  0.033263745            2 
 1466000    1.0171118   -6.8301937     579.6895  0.032951882  0.033255648            4 
 1467000    1.0329549   -6.8783207    578.82629  0.032880385  0.033247467            3 
 1468000    1.0258916   -6.8827245    580.85981  0.032973422  0.033239337            3 
 1469000    1.0240894   -6.8491459     581.3125  0.032976656  0.033231295            4 
 1470000    1.0084801   -6.8522121    579.83946  0.032870718  0.033223277            5 
 1471000    1.0116453   -6.8836506    582.00782  0.032971211  0.033215309            7 
 1472000   0.99652899   -6.8841197    580.24749  0.032849156   0.03320711            4 
 1473000    1.0324994   -6.9165554    580.24589  0.032826765  0.033199053            3 
 1474000    1.0228549   -6.8547442    581.41089  0.032870358  0.033191013            2 
 1475000    1.0015623   -6.9008135    580.97605  0.032823506  0.033182902            3 
 1476000    1.0181886   -6.8818056    582.59176  0.032892489  0.033174708           10 
 1477000    1.0014175    -6.867354    582.77882  0.032880773  0.033166728            4 
 1478000    1.0121179    -6.883921    581.45322  0.032783786   0.03315874            2 
 1479000    1.0187003    -6.920469    582.10398  0.032798286  0.033150811            3 
 1480000    1.0316448   -6.8215756     585.4184  0.032962748  0.033142834            3 
 1481000    1.0075518   -6.8792212    584.32314  0.032878862  0.033134928            4 
 1482000    1.0331274   -6.8984774    582.66113  0.032763222  0.033127007            3 
 1483000    1.0239854   -6.8595501    585.28694  0.032888679  0.033119012            4 
 1484000    1.0305092   -6.8911214     583.0836   0.03274279  0.033110845            5 
 1485000    1.0126821   -6.8948612     583.2312  0.032729024  0.033102597           10 
 1486000    1.0189892   -6.8712802    583.75964  0.032736633  0.033094441            4 
 1487000   0.99818585   -6.8483757    585.50564  0.032812466  0.033086551            3 
 1488000    1.0059208   -6.8948644    583.83878  0.032697064  0.033078468            3 
 1489000    1.0324707   -6.8915616    584.71142  0.032723943  0.033070454            4 
 1490000    1.0375326   -6.9085802    584.86121  0.032710358  0.033062288            4 
 1491000    1.0112589   -6.8892332    585.46471   0.03272215  0.033054235            3 
 1492000    1.0204175   -6.8806275    584.95944  0.032671998  0.033046237            2 
 1493000    1.0026074   -6.9081638    585.48034  0.032679188  0.033038177            3 
 1494000   0.99701785    -6.896133    586.99364  0.032741725  0.033029999            2 
 1495000    1.0182871   -6.8853522    586.59415  0.032697556  0.033021864            2 
 1496000    1.0016881   -6.8783639    586.14066  0.032650438  0.033013701            3 
 1497000    1.0097165   -6.8895626    586.92311  0.032672184  0.033005643            3 
 1498000    1.0198929   -6.8650785    587.92269   0.03270598  0.032997485            2 
 1499000    1.0045708   -6.8411821    588.14922  0.032696754  0.032989243            2 
 1500000   0.99134106   -6.9019995    587.05997  0.032614443   0.03298098            3 
 1501000    0.9960763   -6.9213186     587.3773  0.032610332   0.03297269            4 
 1502000   0.99711119   -6.8401192    587.77508   0.03261069  0.032964345            2 
 1503000   0.99859239   -6.8490197    590.15816  0.032721122  0.032956169            2 
 1504000    1.0096135   -6.8906509    588.22314  0.032592151  0.032948061            2 
 1505000    1.0272839   -6.8654372    588.62731  0.032592874   0.03293988            4 
 1506000   0.99850254   -6.8504187    590.39983  0.032669313  0.032931632            5 
 1507000    1.0340057    -6.863071    589.78021  0.032613372  0.032923481            2 
 1508000    1.0067273   -6.8801767        589.3  0.032565208  0.032915193            3 
 1509000    1.0124604   -6.8631781    591.05545   0.03264057  0.032906908            4 
 1510000    1.0151082   -6.8698906    590.49992  0.032588296  0.032898631            6 
 1511000    1.0140184   -6.8500148    589.06848  0.032487783  0.032890344            2 
 1512000    1.0129164   -6.9101887    590.69938  0.032556183  0.032882111            3 
 1513000    1.0056825   -6.9069543    591.69517  0.032589511  0.032873904            3 
 1514000    1.0118428   -6.9235025    591.76471  0.032571814  0.032865717            2 
 1515000    1.0283883   -6.8893902    591.22859  0.032520825  0.032857686            1 
 1516000    1.0319707   -6.8989521    592.02121  0.032542943  0.032849553            3 
 1517000   0.99672074    -6.881235    591.61043  0.032498925  0.032841476            2 
 1518000   0.98671472    -6.872777    593.49634  0.032581046  0.032833439            4 
 1519000   0.98680018   -6.9166972    591.62604  0.032456992  0.032825369            3 
 1520000    1.0125697   -6.9007796    591.67105  0.032438106  0.032817202            2 
 1521000    1.0068934   -6.9253162    592.07874  0.032439116  0.032808937            2 
 1522000   0.99213585    -6.899972    594.25745  0.032537092    0.0328007            1 
 1523000    1.0012219   -6.8951609     593.2145  0.032458662  0.032792519            5 
 1524000    1.0256696   -6.9057533    592.78118  0.032413669  0.032784262            5 
 1525000    1.0022143   -6.8864336    594.06138  0.032462371   0.03277602            2 
 1526000    1.0132478   -6.8999243    594.79031  0.032480904  0.032767625            5 
 1527000   0.98708344   -6.8760897    594.08052  0.032420897   0.03275939            2 
 1528000    1.0070307   -6.8769574    594.75962  0.032436716  0.032751085            3 
 1529000     0.991666   -6.8943765    593.72192  0.032358945  0.032742765            3 
 1530000   0.99769644   -6.9275821    595.45406  0.032432138  0.032734421            4 
 1531000    1.0112544   -6.9106921    594.11893  0.032338283  0.032726106            4 
 1532000    1.0109198   -6.9188617    595.48508  0.032391486  0.032717769            2 
 1533000   0.99750054   -6.8941687    595.77252  0.032385982  0.032709477            3 
 1534000   0.99390422   -6.9169442    593.68858  0.032251661  0.032701103            2 
 1535000    1.0018397   -6.9033047    594.79856   0.03229091   0.03269276            5 
 1536000    1.0016211   -6.8448182    596.99536  0.032389071  0.032684418            3 
 1537000    1.0078445   -6.8765787    595.99022  0.032313502  0.032676287            2 
 1538000    1.0041456   -6.8931239    597.29501  0.032363188  0.032668051            2 
 1539000    1.0275813   -6.9204567    596.03415  0.032273887  0.032659809            3 
 1540000   0.99850424   -6.8622812    597.13241   0.03231236  0.032651527            3 
 1541000    1.0003705   -6.9062623    598.82128  0.032382721  0.032643283            2 
 1542000    1.0097132   -6.8842044    597.91154  0.032312556  0.032634984            4 
 1543000   0.99205826    -6.892698    595.84651  0.032180088  0.032626683            5 
 1544000   0.99175718   -6.8794501    598.74378  0.032315618  0.032618288            2 
 1545000    1.0122955     -6.87288    598.57716  0.032285715  0.032610061            4 
 1546000    1.0239991   -6.9203134    599.28101  0.032302771  0.032601889            3 
 1547000     1.010712   -6.9247856    597.38059  0.032179519   0.03259359            3 
 1548000    1.0132133   -6.9012725    597.81682  0.032182215  0.032585179            1 
 1549000    1.0012568   -6.9308615    598.47821   0.03219702  0.032576874            6 
 1550000   0.98986346   -6.8920385    599.40427  0.032226036  0.032568596            3 
 1551000   0.99836884   -6.8993439    598.84491  0.032175204  0.032560263            2 
 1552000    1.0046765   -6.8992204    599.73674  0.032202359   0.03255175            9 
 1553000    1.0294465   -6.9008027    599.85329  0.032187878   0.03254326            1 
 1554000    1.0029542   -6.9226188    599.03894  0.032123495  0.032534618            2 
 1555000    0.9841438   -6.9293752    598.34982  0.032065907  0.032526104            2 
 1556000    1.0395112   -6.9055241    600.61366  0.032166541  0.032517684            4 
 1557000    1.0116164   -6.8891678    600.63254  0.032146893  0.032509403            3 
 1558000    1.0255091   -6.8976663    601.75153  0.032186111  0.032501103            3 
 1559000    1.0113043   -6.8902845    600.22028  0.032083615  0.032492721            2 
 1560000    1.0045771   -6.9070447    600.74638  0.032091153  0.032484408            1 
 1561000   0.98555803   -6.8982434    601.43695  0.032107461  0.032476077            3 
 1562000     1.024536   -6.9190781    602.36547  0.032136442  0.032467606            3 
 1563000   0.98460603   -6.9075126    602.97929  0.032148608  0.032459232            3 
 1564000     1.013551   -6.9172242    601.33823  0.032040613  0.032450927            5 
 1565000   0.98890352   -6.9352805    601.96081  0.032053291  0.032442524            4 
 1566000   0.99459756   -6.9145447    602.86828  0.032081113  0.032434126            2 
 1567000    1.0040453   -6.9012134    603.24008  0.032080413  0.032425894            3 
 1568000   0.99151188   -6.9271793    602.98146  0.032046208  0.032417629            3 
 1569000   0.99191184   -6.9195306    603.31575  0.032043539  0.032409392            3 
 1570000    1.0162884   -6.9190068    604.17611  0.032068795  0.032401101            2 
 1571000    1.0052626   -6.8708153    604.49162  0.032065119  0.032392845            4 
 1572000   0.98730358    -6.883461    606.07136  0.032128465  0.032384707            3 
 1573000   0.97723303   -6.9168398    604.96104  0.032049218  0.032376413            3 
 1574000     1.019489   -6.8901125    607.28309  0.032151794  0.032368209            3 
 1575000    1.0186438   -6.9455493    604.47494  0.031982801  0.032359961            4 
 1576000   0.97978268   -6.9023967    606.58455  0.032074056  0.032351673            3 
 1577000    1.0206182   -6.9321481    605.04293  0.031972254  0.032343436            6 
 1578000   0.99047107    -6.908646    608.60051  0.032139866  0.032335237            4 
 1579000   0.98377659   -6.9220057    605.59008  0.031960633  0.032326896            3 
 1580000   0.98609065   -6.9185007    605.86544  0.031954928  0.032318588            6 
 1581000    1.0164641   -6.9478599    606.65546  0.031976358  0.032310279            4 
 1582000    1.0040593   -6.9137186    608.01178   0.03202759  0.032302024            2 
 1583000    1.0112767   -6.9137901    608.62874  0.032039837  0.032293831            3 
 1584000    1.0090131   -6.9105126    606.21565  0.031892658   0.03228563            2 
 1585000   0.99458395   -6.9065578    607.50324  0.031940234  0.032277516            2 
 1586000   0.99313702   -6.9220577    607.84917  0.031938271  0.032269323            4 
 1587000   0.99579131   -6.8987311    609.43988  0.032001674  0.032261158           11 
 1588000   0.99311035   -6.8951634    608.07417  0.031909854  0.032252908            3 
 1589000   0.97230528   -6.9233362    608.79337   0.03192749  0.032244717            4 
 1590000    0.9976179   -6.9291509    608.86474   0.03191115  0.032236521            7 
 1591000   0.98659957   -6.9428009    607.45874  0.031817449  0.032228252            4 
 1592000   0.99902225   -6.9363221    609.17143  0.031887114  0.032219957            1 
 1593000   0.98902602   -6.9210122    610.09696  0.031915514  0.032211742            3 
 1594000    1.0119997   -6.9154407    610.36424  0.031909464  0.032203521            3 
 1595000   0.97847373   -6.9215754    610.35502  0.031888977   0.03219529            2 
 1596000   0.99379396   -6.9228478    609.13765  0.031805433  0.032186931            4 
 1597000    1.0050659   -6.9207669    612.31197  0.031951157  0.032178719            7 
 1598000   0.97925477   -6.9218441     611.8931  0.031909319  0.032170592            4 
 1599000   0.99148335   -6.9051484    610.89565   0.03183738  0.032162434            4 
 1600000   0.99019453   -6.9017769    612.24589  0.031887807  0.032154364            1 
 1601000    1.0060493   -6.9405474    610.04602  0.031753384  0.032146199            3 
 1602000   0.99766015   -6.9305187    610.73971  0.031769648   0.03213804            5 
 1603000    1.0120734   -6.9207116      613.061  0.031870503  0.032130017            3 
 1604000   0.99793437   -6.8936687    615.30684  0.031967313  0.032122025            5 
 1605000   0.98979211   -6.9423987    613.27306    0.0318418  0.032114095            3 
 1606000   0.97280303   -6.9030022    613.17531  0.031816901   0.03210603            7 
 1607000    1.0219315   -6.8724909     615.6895  0.031927479  0.032098043            2 
 1608000     1.013809   -6.9247762    614.33658   0.03183751  0.032090158            2 
 1609000    1.0032342   -6.9185164    614.32799  0.031817278  0.032082265            5 
 1610000   0.99923877   -6.8981339    616.21588  0.031895232  0.032074419            2 
 1611000   0.99341638   -6.8959258    617.01373  0.031916704  0.032066648            3 
 1612000   0.99268335    -6.926503    616.79211  0.031885448  0.032058678            5 
 1613000   0.99543544   -6.9222233    615.38163   0.03179281  0.032050867            2 
 1614000    1.0097247   -6.9471711    616.21323  0.031816048  0.032043096            2 
 1615000   0.98655599    -6.928331    616.63613   0.03181817  0.032035361            3 
 1616000   0.96835062   -6.9172593    615.66161  0.031748227  0.032027509            3 
 1617000    1.0006637   -6.9392928    617.46802  0.031821687  0.032019657            6 
 1618000    0.9895127   -6.9476522    618.13892  0.031836574  0.032011918            2 
 1619000   0.98481821   -6.9496266    616.74118  0.031744965  0.032004066            3 
 1620000   0.99624324   -6.9460571    615.86536  0.031680317  0.031996163            6 
 1621000   0.99995258   -6.9447198    618.23493   0.03178259  0.031988378            5 
 1622000   0.98369132   -6.9272974    618.63537  0.031783568  0.031980506            6 
 1623000   0.98269481   -6.9271571    618.90083  0.031777615  0.031972691            5 
 1624000   0.98890115   -6.9296154     619.2525  0.031776093  0.031964893            3 
 1625000   0.99458053   -6.9241146    621.04325  0.031848372   0.03195708            3 
 1626000    1.0160168   -6.9451176    618.77477  0.031712524  0.031949247            1 
 1627000   0.98366322   -6.9322853    618.58085    0.0316831  0.031941296            5 
 1628000    0.9881746   -6.9414642    620.11229  0.031742029   0.03193354            3 
 1629000   0.99689854   -6.9379459    619.14557   0.03167309  0.031925687            1 
 1630000    1.0079631   -6.9281165    620.15066  0.031705044  0.031917896            4 
 1631000    1.0107254   -6.9349134    617.56187  0.031553335  0.031910029            2 
 1632000   0.98193445   -6.8988652    620.36598  0.031677184  0.031902082            5 
 1633000   0.97029727   -6.9541293    620.74637  0.031677198  0.031894151            5 
 1634000   0.98079745   -6.9116544    622.26145   0.03173508  0.031886326            2 
 1635000   0.99943637   -6.9164114    620.24862  0.031613079   0.03187857            4 
 1636000   0.99508883   -6.9039835    622.99733  0.031733768  0.031870775            3 
 1637000   0.97923853   -6.9126048    622.94735  0.031711838  0.031863131            7 
 1638000   0.99522168   -6.9442463    619.87138  0.031535988   0.03185525            4 
 1639000    0.9799903   -6.9395686     621.7881  0.031614201  0.031847336            6 
 1640000     1.009843   -6.9428904    621.98296  0.031604825  0.031839368            3 
 1641000    0.9778559   -6.9484507    624.07789   0.03169195  0.031831623            3 
 1642000   0.99295702   -6.9340236    623.43754  0.031640151  0.031823841            3 
 1643000   0.99741855   -6.9126618    623.99831  0.031649336  0.031816176            2 
 1644000   0.99717325   -6.9321014    624.89438  0.031675506   0.03180835            4 
 1645000   0.99070827   -6.9357632    625.20089  0.031671778  0.031800612            5 
 1646000    0.9967872   -6.9380566    625.36298  0.031660742  0.031792919            7 
 1647000   0.99385951    -6.957423    622.71098  0.031507336  0.031785082            2 
 1648000   0.99682188   -6.9577056    625.44973  0.031626706  0.031777433            2 
 1649000   0.99233028   -6.9407896     623.4028  0.031504083  0.031769758            2 
 1650000   0.97414571   -6.9525337    623.56609  0.031493237  0.031762039            5 
 1651000   0.99029876   -6.9257855    625.65966  0.031579833  0.031754184            5 
 1652000   0.98573855   -6.9526097     625.2221  0.031538645  0.031746341            3 
 1653000   0.99807343   -6.9251833    625.62366  0.031539809  0.031738566            4 
 1654000   0.98898033    -6.919143    625.73543  0.031526372  0.031730742            3 
 1655000    1.0060132   -6.9290668    627.37934  0.031590098  0.031723086            2 
 1656000   0.97391199   -6.9384234    627.03085  0.031553485  0.031715441            3 
 1657000   0.97114843   -6.9414909    627.01289  0.031533539  0.031707704            1 
 1658000   0.98205452   -6.9710541    626.26885  0.031477124  0.031699897            3 
 1659000   0.98561011   -6.9296541    627.55197  0.031522602  0.031691976            3 
 1660000   0.99142252    -6.919139    627.30776  0.031491353  0.031684091            4 
 1661000   0.97740458   -6.9494645    626.40526  0.031427115  0.031676139            4 
 1662000   0.98702889   -6.8981406    627.68038  0.031472141   0.03166821            4 
 1663000    1.0068884   -6.9356414     627.7086   0.03145463  0.031660242            4 
 1664000   0.98973877   -6.9491211    626.37502  0.031368941  0.031652289            2 
 1665000    1.0247136   -6.9510281    627.22714   0.03139275  0.031644401            4 
 1666000    0.9876129   -6.9509752    627.62261  0.031393688   0.03163661            2 
 1667000   0.96109773   -6.9811424     630.2588  0.031506638  0.031628774            2 
 1668000   0.98392663   -6.9479514    628.20592  0.031385188  0.031620954            2 
 1669000   0.98686218   -6.9203273    631.25462  0.031518605  0.031613162            2 
 1670000   0.98109203   -6.9532495     630.8372  0.031478902  0.031605312            4 
 1671000    1.0018499   -6.9728626    630.14391  0.031425489   0.03159742            3 
 1672000   0.96711205   -6.9769208    628.52199  0.031325857  0.031589595            4 
 1673000   0.97032406   -6.9373278    629.63303  0.031362474  0.031581725            4 
 1674000    1.0094002   -6.9874212    631.08011  0.031415776  0.031573806            2 
 1675000   0.97182253   -6.9374527    630.31214  0.031358813  0.031565955            2 
 1676000   0.98742838   -6.9457353    630.97064  0.031372844  0.031558206            6 
 1677000   0.98082463   -6.9331565    630.77599  0.031344464  0.031550478            2 
 1678000   0.99237862   -6.9123873    630.42285  0.031308246  0.031542538            3 
 1679000    0.9789266   -6.9495503    631.40048  0.031338122  0.031534555            3 
 1680000   0.98525855   -6.9375302    631.41315  0.031320097   0.03152658            5 
 1681000   0.96924634    -6.955272     630.7602  0.031269096  0.031518482            2 
 1682000   0.96361819   -6.9526239     632.2119  0.031322429  0.031510553            2 
 1683000   0.98516788   -6.9274683    632.80453  0.031333162  0.031502579            2 
 1684000   0.98411348   -6.9365276    633.62586  0.031355199  0.031494625            4 
 1685000   0.98454795   -6.9487568    631.15996  0.031214637  0.031486722            5 
 1686000   0.97279958   -6.9100556    632.24252   0.03124963  0.031478821            4 
 1687000    0.9793991   -6.9424523    630.78228  0.031158974  0.031470812            2 
 1688000   0.97946373   -6.9453567    633.79687   0.03128934  0.031462893            3 
 1689000   0.96742096   -6.9822691    631.41035  0.031153066  0.031454821            3 
 1690000   0.96632582   -6.9676727    632.42525  0.031184677  0.031446715            5 
 1691000   0.99039636    -6.959437    632.62865  0.031176259  0.031438734            2 
 1692000   0.98252946   -6.9380365    634.11526  0.031231051  0.031430749            5 
 1693000   0.99399535   -6.9551652    633.09265  0.031162269  0.031422777            3 
 1694000   0.99446132   -6.9292404    632.70727  0.031124915  0.031414859            6 
 1695000   0.97357934   -6.9467669    632.75754  0.031109024    0.0314069            3 
 1696000   0.98865551   -6.9584851    632.92728  0.031099021  0.031398876            7 
 1697000   0.97752367   -6.9548221    634.65619  0.031165596  0.031390883            1 
 1698000   0.97286041    -6.962239    633.44324  0.031087713  0.031382949            3 
 1699000   0.98500897   -6.9420354    635.52665  0.031171603  0.031374966            3 
 1700000    0.9806416    -6.948552    634.99786  0.031127346  0.031366958            3 
 1701000   0.98044753   -6.9718347     636.2983  0.031172756  0.031359073            5 
 1702000   0.96559722   -6.9268492    634.94684   0.03108827  0.031351147            4 
 1703000   0.99333149   -6.9161602     635.3644  0.031090448  0.031343146            3 
 1704000   0.98497872   -6.9564717    636.36826  0.031121296  0.031335116            2 
 1705000    0.9776899   -6.9218854    637.30945  0.031149044  0.031327166            4 
 1706000   0.98339901   -6.9373837    635.79325  0.031056724  0.031319099            5 
 1707000   0.98902589   -6.9646729    635.82277  0.031039971   0.03131106            2 
 1708000   0.97963226   -6.9034649    636.70313  0.031064751  0.031302977            5 
 1709000   0.95302868   -6.9780308     634.4167  0.030935084  0.031294925            3 
 1710000   0.98305747   -6.9302715    638.79262  0.031130245  0.031286923            1 
 1711000   0.96141588   -6.9626261     636.8064  0.031015313   0.03127904           10 
 1712000   0.98918718   -6.9765332    637.54555  0.031033175  0.031271042            5 
 1713000   0.98671414   -6.9800051    638.35485  0.031054429  0.031263089            5 
 1714000   0.95806776   -6.9655619     636.7015  0.030955927  0.031255185            5 
 1715000   0.97816223   -6.9404405    638.99118  0.031049134  0.031247231            4 
 1716000   0.98612978   -6.9679377    636.74916  0.030922162   0.03123929            3 
 1717000   0.96283422   -6.9627176     638.4285  0.030985658  0.031231424            4 
 1718000   0.96360564   -6.9382588    640.32041  0.031059391  0.031223607            4 
 1719000   0.97849951   -6.9290608    641.57974  0.031102373  0.031215679            2 
 1720000   0.97791357   -6.9795672    637.75969   0.03089921  0.031207699            3 
 1721000   0.97258374   -6.9703559    639.29424  0.030955561  0.031199755            3 
 1722000    0.9676666   -6.9268273    639.57048  0.030950952  0.031191873            7 
 1723000   0.96393219   -6.9728695    639.80858  0.030944505  0.031184024            9 
 1724000   0.98230472    -6.961917    639.72448   0.03092249  0.031175914            3 
 1725000   0.99659852   -6.9891025    638.88722  0.030864117  0.031167833            2 
 1726000   0.97313261   -6.9636527    639.90169  0.030895215  0.031159777            3 
 1727000   0.95619206   -6.9738668    642.15291  0.030985954  0.031151889            5 
 1728000   0.95480456   -6.9700385    640.69745  0.030897832  0.031143908            2 
 1729000    0.9889126   -6.9562344    640.77904  0.030883894  0.031136066            4 
 1730000   0.94939793   -6.9641966    643.07488  0.030976632  0.031128234            3 
 1731000   0.95489042   -6.9512135    641.76298   0.03089558  0.031120296            3 
 1732000   0.98582127   -6.9666788    644.23592  0.030996724  0.031112522            2 
 1733000   0.98444775   -6.9329901    644.76982  0.031004511  0.031104664            3 
 1734000   0.98254589   -6.9453796    643.25831   0.03091399   0.03109687            3 
 1735000   0.99340966   -6.9216937    642.87417  0.030877722  0.031089035            1 
 1736000   0.95219582   -6.9534258    643.47239  0.030888651  0.031081169            3 
 1737000   0.97961068   -6.9632419     644.0909  0.030900542  0.031073232            4 
 1738000   0.97031629   -6.9914918    641.25378  0.030746729  0.031065222            2 
 1739000   0.96202746   -6.9696901    644.66556  0.030892542  0.031057274            4 
 1740000    1.0000905   -6.9761644    644.06612  0.030846079  0.031049346            3 
 1741000    0.9781866   -6.9924172    642.67785  0.030761911  0.031041322            4 
 1742000   0.96582316   -6.9456018    643.83937  0.030799817  0.031033149            4 
 1743000   0.97760689    -6.957321    643.40917  0.030761578  0.031025069            5 
 1744000   0.99000176   -6.9625854    644.34931  0.030788862  0.031016994            4 
 1745000   0.98959296    -6.945308    645.31315  0.030817247  0.031009019            1 
 1746000   0.96603939   -7.0046701    643.11352  0.030694613  0.031001044            4 
 1747000   0.98663882   -6.9651742    643.42014  0.030691669  0.030992948            2 
 1748000   0.99331883   -6.9735276    644.23043   0.03071274  0.030984882            3 
 1749000   0.96228746   -6.9585797    645.40602  0.030751192  0.030976905            3 
 1750000   0.96902388   -6.9335571    647.37057   0.03082717  0.030968854            3 
 1751000   0.96476393   -6.9626704    645.97803  0.030743291  0.030960903            6 
 1752000   0.99863523    -6.970054    646.60568  0.030755597  0.030952819            3 
 1753000   0.98504123    -6.970536    644.66161  0.030645636  0.030944883            4 
 1754000   0.95765777   -6.9647762    647.09221  0.030743644  0.030936905            3 
 1755000    0.9836682   -6.9878246    645.19955  0.030636256  0.030928997            2 
 1756000   0.98047019   -6.9418668    646.46728  0.030678971  0.030920884            7 
 1757000   0.97153123    -6.957119    646.51982  0.030664002  0.030912836            4 
 1758000   0.93796945   -6.9507479     647.6566  0.030700446  0.030904762            4 
 1759000   0.97823091   -6.9272747    647.91202  0.030695093  0.030896733            3 
 1760000   0.99307595    -6.992944    646.60865   0.03061594  0.030888718            5 
 1761000   0.95386989   -6.9937448    648.02973  0.030665802  0.030880674            5 
 1762000   0.97830772   -6.9877173    646.68386  0.030584746  0.030872652            3 
 1763000   0.98111179   -6.9880846    648.87453  0.030670946   0.03086458            4 
 1764000   0.96983736   -6.9706006    648.80608  0.030650325  0.030856537            4 
 1765000   0.97318823   -6.9759161    649.07372  0.030645596  0.030848504            6 
 1766000    0.9559775   -6.9993666    646.72629  0.030517473  0.030840359            3 
 1767000   0.97675835    -6.990184    650.47363   0.03067693  0.030832234            3 
 1768000   0.95762523   -6.9879716    647.43556  0.030516382  0.030824076            2 
 1769000   0.96217026   -6.9452493    648.27027  0.030538453  0.030815922            2 
 1770000    0.9705395   -6.9649209    649.37511  0.030573216  0.030807841            3 
 1771000   0.96736485   -6.9820406    647.67319   0.03047587  0.030799697            9 
 1772000   0.96844454   -6.9733994    648.74876  0.030509253  0.030791653            5 
 1773000   0.95155311   -6.9879747    649.31269  0.030518551  0.030783626            3 
 1774000   0.97781196   -6.9865083    650.45976  0.030555231  0.030775616            4 
 1775000    0.9759088    -6.967659    648.79322  0.030459776  0.030767509            4 
 1776000   0.97121289   -6.9712225    649.41344  0.030471727  0.030759331            3 
 1777000   0.96737796    -6.980809    650.87275  0.030523014  0.030751226            2 
 1778000   0.98606184   -6.9752679     650.7516  0.030500169  0.030743141            4 
 1779000   0.95572018   -6.9918672    648.86948   0.03039486  0.030734957            3 
 1780000   0.96181984   -7.0115673    650.56307  0.030457073  0.030726817            6 
 1781000   0.95812551   -6.9783188    650.87024  0.030454344  0.030718661            5 
 1782000    0.9642814    -6.991217    651.84083  0.030482642  0.030710486            7 
 1783000    0.9521811   -6.9386629    652.70667  0.030506014  0.030702389            3 
 1784000   0.96539322   -6.9674139    651.18314  0.030417748  0.030694364            4 
 1785000   0.94946405   -6.9577668    652.00075  0.030438877   0.03068628            2 
 1786000   0.96691432   -6.9696024    651.03814   0.03037692  0.030678133            4 
 1787000   0.94228191   -6.9929264    651.13837  0.030364595  0.030669982            4 
 1788000   0.95048371   -6.9600279    652.74343  0.030422419  0.030661812            2 
 1789000   0.97911093   -6.9855033    650.75128  0.030312618  0.030653657            4 
 1790000   0.97154859   -6.9989333    652.24893  0.030365406  0.030645526            2 
 1791000   0.94050785    -6.961554    652.07015  0.030340134  0.030637365            3 
 1792000   0.96673793    -6.991618    653.13035  0.030372505  0.030629198            2 
 1793000   0.95220054   -6.9882842    652.43014  0.030323022  0.030621078            3 
 1794000   0.95172851   -6.9497269    653.37946  0.030350217  0.030612934            2 
 1795000   0.96270121   -6.9818454    653.70133  0.030348251  0.030604824            3 
 1796000   0.99047813    -6.971698    653.78719  0.030335337  0.030596661            3 
 1797000   0.96443618   -6.9598787    652.32059  0.030250445  0.030588486            3 
 1798000   0.95564434   -6.9908568    653.59237  0.030292564   0.03058016            3 
 1799000   0.95052696   -7.0038007    652.17529  0.030210084  0.030571907            3 
 1800000   0.96056344   -6.9716572    653.22405  0.030241854  0.030563526            2 
 1801000   0.97959406   -6.9770906    652.32762  0.030183584  0.030555185            2 
 1802000   0.97726607   -6.9865436    652.14261  0.030158278  0.030546825            8 
 1803000   0.95482783   -6.9980074    653.25129  0.030192794  0.030538418            1 
 1804000    0.9886608   -7.0044503     653.8974  0.030205904  0.030530055            8 
 1805000   0.95085624   -6.9582884    655.61048  0.030268259  0.030521757            2 
 1806000   0.95448719   -7.0369945    653.88927  0.030172078  0.030513479            3 
 1807000   0.96322044   -7.0184414     653.9903   0.03016004  0.030505101            3 
 1808000   0.94728098   -6.9846073    655.36981  0.030206942  0.030496841            4 
 1809000   0.97473932   -7.0235872    653.77037  0.030116564  0.030488546            2 
 1810000   0.94115667   -7.0022965    653.92504  0.030107046  0.030480121            1 
 1811000   0.96287974   -6.9957066    654.18688   0.03010247  0.030471675            4 
 1812000   0.96876546   -6.9954316    655.14542   0.03012994   0.03046331            1 
 1813000   0.97691047   -6.9622218    655.10167   0.03011131  0.030454999            2 
 1814000   0.97532131   -6.9952985    657.39237  0.030199944  0.030446734            3 
 1815000   0.97907689    -7.014774    655.38145  0.030090976  0.030438392            3 
 1816000   0.96389687   -6.9690831    655.70066  0.030089054  0.030430105            2 
 1817000   0.96140979   -7.0233192    655.99504  0.030085995  0.030421752            5 
 1818000   0.95192695   -7.0258694    655.92348  0.030066166   0.03041335            3 
 1819000   0.96984607   -6.9856782    656.06282  0.030056021  0.030404982            6 
 1820000   0.96453104   -7.0351273    655.63799  0.030020054  0.030396622            2 
 1821000    0.9426725   -6.9941477    656.78343  0.030055987   0.03038821            3 
 1822000   0.96354394   -6.9766137    657.38151  0.030066846  0.030379892            3 
 1823000   0.95764253   -7.0269955     658.0696  0.030081806  0.030371605            2 
 1824000   0.94264106   -7.0017826    659.38361  0.030125348  0.030363355            2 
 1825000   0.96652966   -6.9839845    659.38546  0.030108925  0.030355072            9 
 1826000    0.9735666   -7.0191968    657.42463  0.030002949  0.030346762            3 
 1827000   0.94952405   -6.9543583    657.82206  0.030004655  0.030338492            4 
 1828000    0.9545842   -6.9869395    657.90592  0.029992064   0.03033014            3 
 1829000   0.95509426   -7.0194046    658.58258  0.030006496  0.030321811            3 
 1830000   0.94845538   -7.0232167    657.30423  0.029931887  0.030313482            2 
 1831000   0.96846955   -7.0119226    658.04414  0.029949214  0.030305113            3 
 1832000    0.9355345   -7.0087455    657.68149   0.02991637   0.03029671            3 
 1833000   0.95356789   -6.9766778    659.62994  0.029988632  0.030288426            4 
 1834000   0.96456694   -6.9982225    658.72493  0.029931158  0.030280165            3 
 1835000   0.95797675   -7.0260967    660.25178  0.029984186  0.030271917            4 
 1836000   0.94564673   -6.9974634    659.02663  0.029912247  0.030263545            7 
 1837000   0.95218138   -6.9749097    661.73396  0.030018779  0.030255214            2 
 1838000   0.93957605   -6.9974857    660.20622   0.02993318  0.030246886            5 
 1839000   0.95459136   -6.9832245    660.07121  0.029910785  0.030238577            5 
 1840000    0.9675509   -6.9964284    660.65772  0.029921092  0.030230174            9 
 1841000   0.92499616   -7.0209733    660.02722    0.0298763  0.030221745            4 
 1842000   0.96187258   -6.9970244    662.04665  0.029951441  0.030213368            4 
 1843000   0.95134693   -6.9570816     663.0009  0.029978337  0.030205077            2 
 1844000   0.95741628   -7.0021459    660.51539  0.029849756  0.030196845            4 
 1845000   0.96459016   -6.9762494    661.24572  0.029866564  0.030188611            4 
 1846000   0.94301854   -7.0064384    662.87965  0.029924145  0.030180366            4 
 1847000   0.96777099    -6.989772    663.20667  0.029922697  0.030172115            3 
 1848000   0.96750689   -7.0055167    663.27334  0.029909512  0.030163916            4 
 1849000    0.9513581   -7.0039581    661.26428  0.029802789  0.030155664            2 
 1850000   0.95532685   -7.0161562    663.42084  0.029883822  0.030147484            4 
 1851000   0.95332689   -6.9902169    663.72665  0.029881445  0.030139239            5 
 1852000   0.94087391    -7.016687    664.71284  0.029909685  0.030131052            6 
 1853000   0.94121046   -6.9974214    664.97604   0.02990538  0.030122832            5 
 1854000   0.97240714    -6.970162    664.53153   0.02986927  0.030114671            6 
 1855000   0.96452671   -6.9763494    663.57123  0.029810028  0.030106524            6 
 1856000   0.96299954   -7.0271883    664.04789  0.029815368  0.030098357            2 
 1857000   0.93984823   -7.0079849    664.51826  0.029820421   0.03009008            2 
 1858000   0.94762322   -6.9897441    664.20747  0.029790432  0.030081764            3 
 1859000   0.95435532   -7.0141024     664.7183  0.029797306  0.030073531            8 
 1860000   0.95628931   -7.0268249    665.03174  0.029795329  0.030065317            2 
 1861000   0.97116644   -6.9875255    665.26532  0.029789778    0.0300571            2 
 1862000    0.9562783   -6.9908689    664.18604  0.029725476  0.030048859            5 
 1863000   0.95498213   -7.0082802    664.40651  0.029719382  0.030040625           14 
 1864000   0.96518942   -7.0069331    663.74425  0.029673831  0.030032262            2 
 1865000   0.94118135   -6.9628971    666.84748  0.029796581  0.030023956            3 
 1866000   0.93017324   -6.9533586    666.71005  0.029774475  0.030015665            4 
 1867000   0.93883461   -7.0000951    665.51191  0.029705049  0.030007552            3 
 1868000   0.94951922   -7.0163755    665.33855  0.029681413  0.029999335            3 
 1869000   0.96403408   -6.9827885    667.21292  0.029749105  0.029991093            4 
 1870000   0.94813519   -6.9836004    667.90341  0.029763966  0.029982838            5 
 1871000   0.95452471   -6.9558561    666.68812   0.02969393  0.029974604            6 
 1872000   0.94736515   -7.0292224    665.07281  0.029606161  0.029966393            4 
 1873000   0.94585839   -7.0096854    667.17489   0.02968388  0.029958168            3 
 1874000   0.94341734   -6.9807889    667.50532  0.029682734  0.029949906            6 
 1875000   0.97142827   -6.9993245    668.81264  0.029725006  0.029941776            4 
 1876000   0.95328777   -7.0169288    665.86005  0.029578005  0.029933552            6 
 1877000   0.95271021   -7.0158155     667.3058  0.029626434  0.029925239            4 
 1878000   0.96281579   -7.0211412    669.39417  0.029703327   0.02991698            2 
 1879000     0.947452   -7.0261164    668.39952  0.029643406  0.029908704            6 
 1880000   0.95456328   -7.0215785    668.21852  0.029619615  0.029900413            6 
 1881000   0.93929068   -7.0286176    667.89767  0.029589654  0.029892138            3 
 1882000   0.93576786   -7.0146414    666.74303  0.029522805  0.029883924            3 
 1883000   0.93341369   -7.0224929    667.95115  0.029560593  0.029875733            3 
 1884000    0.9389478   -7.0050937    668.26334  0.029558711  0.029867515            2 
 1885000   0.93370371   -7.0173384    670.34101  0.029634881  0.029859271            3 
 1886000   0.94426631   -6.9952598    669.93896  0.029601403  0.029851119            2 
 1887000   0.94018319   -6.9951015    671.92474  0.029673412  0.029842933            2 
 1888000   0.95637967   -7.0421421    670.83567  0.029609625  0.029834752            3 
 1889000   0.95798669   -7.0419457    668.59373  0.029495047  0.029826522            3 
 1890000    0.9378068   -7.0484042    669.77548  0.029531547  0.029818369            5 
 1891000   0.94893227   -7.0210703    672.80836  0.029649584  0.029810229            4 
 1892000   0.93827142    -7.027964    671.44138  0.029573704  0.029802108            7 
 1893000   0.93803263   -7.0496884    671.92857  0.029579528  0.029794124            6 
 1894000   0.97655736   -7.0206767    671.78714  0.029557688  0.029786114            3 
 1895000   0.93406923   -7.0277361    670.94892  0.029505229  0.029778004            2 
 1896000   0.95584964   -7.0238614    673.12445  0.029585287  0.029769959            4 
 1897000   0.96304329   -7.0092211    672.75048  0.029553263  0.029761891            4 
 1898000    0.9317544   -6.9946482    674.99763  0.029636355  0.029753967            4 
 1899000   0.94543918    -7.012428    674.89287  0.029616152  0.029746064            3 
 1900000   0.95382337   -7.0334221    674.12592  0.029566926  0.029738105            2 
 1901000   0.93657424   -6.9746368     676.6184  0.029660635  0.029730179            4 
 1902000   0.95669408    -7.015802    674.13523  0.029536244   0.02972232            3 
 1903000   0.95691045   -7.0284286    672.91884  0.029467457  0.029714463            4 
 1904000    0.9557261   -7.0102898    673.72839  0.029487412  0.029706549            3 
 1905000   0.94660582   -7.0292109    674.57396  0.029508922  0.029698678            6 
 1906000   0.93648053   -7.0340812    675.86897   0.02955006  0.029690742            4 
 1907000   0.95775639   -6.9929593    674.97129  0.029495337  0.029682744            5 
 1908000   0.93213591   -7.0086825    676.46259  0.029545012  0.029674861            4 
 1909000   0.94793999   -7.0150362    676.85294  0.029546575   0.02966697            6 
 1910000   0.96857526   -7.0094307    676.80052  0.029528819  0.029659063            7 
 1911000   0.94786554   -7.0246383    675.98386  0.029477754  0.029651092            3 
 1912000   0.93235096   -7.0432188    673.83842  0.029368829  0.029643024            5 
 1913000   0.93898675   -7.0115529    675.84107  0.029440716   0.02963489            6 
 1914000   0.96946033   -7.0476252    674.91327  0.029384939  0.029626769            4 
 1915000   0.95286717   -7.0240026    673.57388  0.029311309  0.029618682            3 
 1916000   0.93312266   -7.0485785    674.99647  0.029357884  0.029610532            5 
 1917000   0.92536711   -7.0436947    676.94332    0.0294272  0.029602456            3 
 1918000   0.93365649   -7.0040081    675.97557  0.029369811  0.029594336            2 
 1919000   0.93843717   -7.0101547    675.60118  0.029338248  0.029586229            4 
 1920000   0.94253968   -7.0161094    675.12014   0.02930209   0.02957811            2 
 1921000   0.96442492   -7.0406081    674.81217  0.029273476  0.029569835            3 
 1922000   0.95464927   -6.9848875    677.02905  0.029354364  0.029561586            4 
 1923000   0.91766044   -7.0257158    676.55834  0.029318701  0.029553475            4 
 1924000   0.92635217   -6.9877934    676.87434  0.029317149  0.029545323            3 
 1925000   0.93678273   -7.0396639    675.16111  0.029227754  0.029537093            2 
 1926000    0.9465978   -7.0270341    675.82916  0.029241483  0.029528972            3 
 1927000   0.94578129   -7.0141021    677.11731  0.029282015  0.029520747            3 
 1928000   0.94342452   -7.0068932    674.96306  0.029173714  0.029512404            3 
 1929000   0.93287155   -7.0254673    676.37698  0.029219673  0.029504112            3 
 1930000   0.93784401   -7.0507855    675.81738  0.029180371  0.029495808            6 
 1931000   0.95760604    -7.003918    678.42419  0.029277757  0.029487607            4 
 1932000   0.93083961   -7.0163325    677.55712  0.029225204  0.029479317            8 
 1933000   0.95471819   -7.0052837    678.52793  0.029251937  0.029471068            6 
 1934000    0.9482837   -7.0444191    676.39337  0.029144837  0.029462795            5 
 1935000   0.94743392   -7.0015959    680.12935   0.02929067  0.029454568            4 
 1936000   0.94576203   -7.0144994    677.61219  0.029167191    0.0294463            2 
 1937000   0.94625236   -7.0064581     677.4032  0.029143142  0.029437897            4 
 1938000      0.92459   -7.0277168    678.13403   0.02915953  0.029429629            3 
 1939000   0.94353587   -7.0286478    676.55333  0.029076557  0.029421267            3 
 1940000   0.94581541    -6.957832    678.88977  0.029161932  0.029412941            2 
 1941000   0.93559442   -7.0267045    678.23041  0.029118599  0.029404713            2 
 1942000   0.95339087   -7.0118633    679.20068   0.02914524  0.029396467            4 
 1943000   0.95221377   -7.0252694    680.57936   0.02918937   0.02938818            6 
 1944000   0.93721612   -7.0276256     679.5122   0.02912861   0.02937996            5 
 1945000   0.92824827   -7.0327491    680.28543  0.029146762  0.029371761            3 
 1946000   0.95345228    -7.020729    678.31498  0.029047404  0.029363496            4 
 1947000   0.93859288    -7.015359    679.76087  0.029094371  0.029355123            3 
 1948000   0.94391979    -7.010858    678.76126  0.029036673  0.029346808            2 
 1949000   0.94680602   -7.0646426      680.081  0.029078203  0.029338465            3 
 1950000   0.93394237   -7.0284254    679.01241  0.029017624  0.029330151            3 
 1951000   0.95755319   -7.0516573    679.45591  0.029021694  0.029321856            3 
 1952000   0.93437058   -6.9996317    682.08253   0.02911896  0.029313625            2 
 1953000   0.95289506   -7.0378996    678.93668  0.028969819  0.029305404            7 
 1954000   0.95239829    -7.053697    677.26175  0.028883561  0.029297021            4 
 1955000   0.94692766   -7.0155326    680.54716   0.02900883  0.029288667            3 
 1956000   0.93694808   -7.0298202     680.9022  0.029009126  0.029280384            2 
 1957000   0.94800272   -7.0441607    679.39401   0.02893008  0.029272022            3 
 1958000   0.94465512   -7.0283235    681.14463  0.028989812  0.029263673            2 
 1959000   0.93601485    -7.062023    678.84143  0.028877039   0.02925533            3 
 1960000   0.94460073   -7.0433081    680.90644  0.028950104  0.029246949            6 
 1961000    0.9244076   -7.0589108    681.51928  0.028961384  0.029238656            5 
 1962000   0.93031524   -7.0549339    681.68715  0.028953752  0.029230249            3 
 1963000    0.9363151   -7.0238884    683.19127  0.029002856  0.029222021            8 
 1964000   0.93592569   -7.0295755    682.03012  0.028938821  0.029213828            3 
 1965000    0.9276689    -7.070311     681.4416  0.028899135  0.029205574            4 
 1966000   0.92512787   -7.0725153    681.76904  0.028898315  0.029197241            5 
 1967000   0.92642818   -7.0694044    682.80446  0.028927489  0.029188871            4 
 1968000   0.96388775   -7.0443833    684.05172  0.028965605  0.029180511            4 
 1969000   0.93996634   -7.0630017    681.18184  0.028829433  0.029172213            3 
 1970000   0.93248531   -7.0539968    683.57255  0.028915928  0.029163963            4 
 1971000   0.91667592   -7.0632114    682.66697   0.02886297  0.029155627            4 
 1972000   0.93987425   -7.0671767    683.73297  0.028893381  0.029147345            4 
 1973000   0.94415323   -7.0282297    685.59963  0.028957578  0.029139031            2 
 1974000   0.92099527   -7.0664511    683.96245  0.028873795  0.029130732            3 
 1975000   0.92121122   -7.0608069    682.78771  0.028809608   0.02912241            3 
 1976000   0.90287193   -7.0439861    683.88528  0.028841316  0.029114091            5 
 1977000   0.94379296   -7.0710526    683.79081  0.028822745  0.029105849            2 
 1978000   0.93114373    -7.022127    686.85048  0.028937078  0.029097589            4 
 1979000   0.94117378   -7.0284674    684.11157  0.028807124  0.029089407            3 
 1980000    0.9584369   -7.0453303    685.08402  0.028833503  0.029081205            3 
 1981000   0.95355713   -7.0210058    686.09043  0.028861283  0.029072909            3 
 1982000   0.93852421   -7.0428329    685.54905  0.028823959  0.029064678            6 
 1983000   0.93464731   -7.0186274    686.96242  0.028868819  0.029056403            1 
 1984000   0.93424493   -7.0328699    683.88391  0.028724963  0.029048057            3 
 1985000   0.92995198   -7.0595947    684.87915  0.028752273  0.029039653            6 
 1986000   0.93020873   -7.0241045    683.21604  0.028668011  0.029031286            2 
 1987000   0.94862126   -7.0654037    685.41567  0.028745834  0.029022864            4 
 1988000   0.93269902   -7.0396224    684.49837  0.028692923  0.029014457            5 
 1989000   0.93059402   -7.0389501    684.45356   0.02867662  0.029006126            2 
 1990000   0.94432368   -7.0273333    683.45455  0.028620375   0.02899778            2 
 1991000   0.92090869    -7.068568    685.50003  0.028691614  0.028989406            6 
 1992000   0.92798612   -7.0560076    686.22825  0.028707675  0.028981071            5 
 1993000   0.92495521   -7.0544905     686.6673  0.028711628  0.028972745            4 
 1994000   0.91409179   -7.0442068    686.37778   0.02868513  0.028964376            2 
 1995000   0.91552489   -7.0465511    687.61128  0.028722276  0.028955982            3 
 1996000   0.93664169    -7.035605    686.00172  0.028640686  0.028947608            4 
 1997000   0.95838066   -7.0401836    686.46144  0.028645528  0.028939245            5 
 1998000   0.92554274   -7.0283002    687.57567  0.028677664  0.028930926            3 
 1999000   0.93184889    -7.077441    686.93388  0.028636563  0.028922558            6 
 2000000     0.912051   -7.0446544    686.07258  0.028586358  0.028914241            3 
 2001000   0.93130962   -7.0684533    687.69016  0.028639437  0.028905936            2 
 2002000   0.92688242   -7.0949974    688.51758  0.028659573  0.028897637            4 
 2003000   0.91695597   -7.0650633    688.07734  0.028626949  0.028889291            3 
 2004000   0.92835164   -6.9962775      687.235  0.028577636  0.028881046            3 
 2005000   0.94140093   -7.0153372    687.75772  0.028585109  0.028872757            3 
 2006000    0.9432077   -7.0585209    685.72808  0.028486544   0.02886439            4 
 2007000    0.9498252   -7.0571078    688.25285  0.028577182   0.02885601            7 
 2008000    0.9480492   -7.0671324    689.03798  0.028595534   0.02884773            4 
 2009000   0.92064825   -7.0710827    688.72024   0.02856812  0.028839444            4 
 2010000   0.93367845   -7.0375461     689.4618  0.028584652  0.028831111            3 
 2011000   0.92617016   -7.0811748    688.87914  0.028546293  0.028822767            3 
 2012000   0.93835085   -7.0696066    689.47908  0.028556953  0.028814409           10 
 2013000   0.89794325   -7.1048173    689.39723  0.028539379  0.028806127            7 
 2014000   0.91810841   -7.0324315    692.10624  0.028637299  0.028797892            6 
 2015000   0.93912684   -7.0512959    689.76667  0.028526331  0.028789659            5 
 2016000   0.92911325   -7.0520216    689.22989  0.028489992  0.028781379            5 
 2017000   0.92516411   -7.0493084    689.76638  0.028498033  0.028773013            4 
 2018000    0.9367938    -7.041695    689.51112   0.02847337  0.028764735            4 
 2019000   0.93225504    -7.083518     689.9199  0.028476139  0.028756422            3 
 2020000   0.94708579   -7.0520452    689.72022  0.028453804  0.028748177            3 
 2021000   0.95010138   -7.0760863    691.45502  0.028511258  0.028739886            3 
 2022000   0.93801817   -7.0365443    690.43809  0.028455246  0.028731684            2 
 2023000   0.92798292   -7.0576337    691.90112  0.028501447  0.028723471            5 
 2024000   0.90842225   -7.0694795    691.65926  0.028477407  0.028715205            3 
 2025000   0.92168814   -7.0757906    689.60751   0.02837891   0.02870698            4 
 2026000   0.91827816   -7.0738603     689.8504  0.028374893  0.028698709            2 
 2027000   0.94617852    -7.047416    691.44008  0.028426249  0.028690371            5 
 2028000   0.94322556   -7.0711767    690.23594  0.028362752   0.02868207            3 
 2029000   0.92333203   -7.0705737    690.26972  0.028350161  0.028673716            4 
 2030000   0.91645186   -7.0637141    691.56938  0.028389548   0.02866535            5 
 2031000   0.95118635   -7.0703018    691.33258  0.028365853  0.028657038            5 
 2032000   0.92640956    -7.092951    691.33229  0.028351882  0.028648721            3 
 2033000    0.9451497   -7.0968033     691.8504  0.028359174  0.028640398            3 
 2034000   0.90226851   -7.0618877    692.84275  0.028385888  0.028632132            4 
 2035000   0.92645681   -7.0744275    692.34465  0.028351542  0.028623843            6 
 2036000    0.9389092   -7.0377722    694.11968  0.028410268  0.028615535            5 
 2037000    0.9214151   -7.0722049    693.28474  0.028362164  0.028607263            2 
 2038000   0.93728515   -7.0328264    692.66923  0.028323079  0.028598993            3 
 2039000   0.93430933   -7.0585597    693.12327  0.028327745  0.028590683            4 
 2040000   0.92594727   -7.0791119    692.63932   0.02829409  0.028582331            2 
 2041000   0.96477987   -7.0760409    692.61017  0.028279037  0.028574077            1 
 2042000   0.93785519   -7.0425544    693.01415  0.028281674  0.028565791            6 
 2043000    0.9272138    -7.070779    693.81944  0.028300679   0.02855741            4 
 2044000   0.91785802   -7.0782602    694.06214  0.028296728   0.02854916            4 
 2045000   0.92629534   -7.0720722    692.99148  0.028239262  0.028540849            3 
 2046000   0.92629261   -7.0757254    692.68587  0.028213012  0.028532479            4 
 2047000   0.93889635   -7.0259025    695.46816  0.028312496   0.02852414            4 
 2048000     0.926209   -7.0682915    694.83003  0.028272706  0.028515854            5 
 2049000   0.90953739   -7.0409207    693.47701   0.02820388  0.028507523            4 
 2050000    0.9157842   -7.0622132    694.10307  0.028215572  0.028499116            8 
 2051000   0.92128217   -7.0964046    692.29002   0.02812815  0.028490602            3 
 2052000   0.93432631   -7.0758394    692.27591  0.028113869  0.028482141            2 
 2053000   0.92323661   -7.0430518    694.90248   0.02820679  0.028473668            3 
 2054000   0.92492241   -7.0377947    694.91379  0.028193516  0.028465344            7 
 2055000   0.91610479   -7.0798349    693.56404  0.028125062  0.028456903            3 
 2056000   0.92557469   -7.0560013    693.73044  0.028118127  0.028448506            9 
 2057000   0.94160281   -7.0957339     693.6867  0.028102686  0.028440164            4 
 2058000   0.93525017   -7.0848031    694.51707  0.028122654  0.028431794            6 
 2059000   0.93718719   -7.1144182    695.91413  0.028165539  0.028423379            5 
 2060000   0.91160963   -7.0732563    696.33344  0.028168829  0.028415014            6 
 2061000   0.94269427   -7.0803704     697.9539  0.028220682  0.028406715            3 
 2062000   0.93130426   -7.0668138    695.65527  0.028114099  0.028398416            4 
 2063000    0.9308647   -7.0603394    696.06628  0.028117074  0.028390166            3 
 2064000   0.90854886   -7.0988001    693.46636   0.02799848  0.028381826            3 
 2065000   0.90974834   -7.0717077    696.81435   0.02812003  0.028373446            6 
 2066000   0.93500619   -7.0996167    696.24566  0.028083481  0.028365074            3 
 2067000   0.93021531   -7.0790663     696.6752  0.028087212  0.028356767            3 
 2068000   0.91406108    -7.052969    698.10159  0.028131108  0.028348507            7 
 2069000   0.89855582   -7.0823256    697.49043  0.028092896  0.028340274            2 
 2070000   0.92366138   -7.0597924    696.78605  0.028050968  0.028331958            2 
 2071000   0.91560105   -7.0506311    698.09597  0.028090133  0.028323629            4 
 2072000   0.90624654   -7.0703192    697.59641  0.028056483  0.028315223            5 
 2073000   0.92116317   -7.0562939    697.81403  0.028051698  0.028306915            4 
 2074000   0.92866804   -7.0426331    698.51643  0.028066395  0.028298608            2 
 2075000   0.90570917   -7.0610994    699.08841   0.02807584  0.028290299            4 
 2076000   0.90083718   -7.0752715    695.37029  0.027913066  0.028281984            3 
 2077000   0.90782769   -7.0531416    697.53512  0.027986484  0.028273614            4 
 2078000   0.93705734   -7.0805632    695.70179  0.027899494  0.028265299            2 
 2079000   0.91534184   -7.0621099    698.09438  0.027981978  0.028256935            3 
 2080000   0.90968375     -7.09237    698.52279  0.027985689  0.028248545            2 
 2081000   0.92984308   -7.1032067    697.30555  0.027923496  0.028240175            6 
 2082000   0.91931045   -7.0665975    698.05386  0.027940036  0.028231792            4 
 2083000   0.90556013   -7.0873618    698.60587  0.027948707  0.028223463            3 
 2084000   0.92356572   -7.0634574    699.30972   0.02796344  0.028215164            2 
 2085000    0.9430173   -7.0924121    700.91828   0.02801432  0.028206846            5 
 2086000   0.90873723   -7.0910802    698.90239  0.027920357  0.028198503            3 
 2087000   0.90809215   -7.1239986    699.63155  0.027936094  0.028190202            4 
 2088000   0.95076336   -7.0849548    700.42475  0.027954372  0.028181944            4 
 2089000   0.89556865   -7.0937952    700.50789  0.027944307  0.028173757            3 
 2090000   0.90669894   -7.0264983    701.75777  0.027980772  0.028165583            2 
 2091000   0.90372822   -7.0949374    703.19559  0.028024693  0.028157521            3 
 2092000   0.91069208   -7.0534943    704.49769  0.028063165  0.028149462            4 
 2093000   0.91573238   -7.0833204    703.02236  0.027991016  0.028141483            5 
 2094000   0.92181171   -7.0977439    701.55922  0.027919421  0.028133358            5 
 2095000   0.92165708   -7.0978846    702.61348   0.02794803  0.028125339            5 
 2096000   0.90920499   -7.0859854    701.67631  0.027897436   0.02811726            3 
 2097000   0.90034192   -7.0789943    704.47649   0.02799541  0.028109191            2 
 2098000   0.91807369    -7.097554    704.49293  0.027982719  0.028101148            4 
 2099000   0.92308436   -7.0815252    704.14711  0.027955658  0.028093121            6 
 2100000   0.91956899   -7.0723937    705.17642  0.027983191  0.028085086            2 
 2101000   0.90778857   -7.0622677    704.23967  0.027932717  0.028077151            4 
 2102000   0.93480926   -7.0986969    703.57963  0.027893262  0.028069189            5 
 2103000   0.90903916   -7.0696111    703.86215  0.027891193  0.028061219            6 
 2104000   0.91909458   -7.0880098     704.5964  0.027907018  0.028053227            4 
 2105000    0.9164739   -7.1050585    705.12645  0.027914745  0.028045194            3 
 2106000   0.91793413   -7.1024171    705.16612   0.02790306  0.028037223            8 
 2107000   0.94148457   -7.0833368    703.87362  0.027838697  0.028029304            5 
 2108000   0.91281814   -7.0692741     705.5303  0.027890983  0.028021341            2 
 2109000   0.93360015   -7.0704699     706.7816  0.027927201  0.028013372            4 
 2110000   0.93040123   -7.0697703     704.4481  0.027821805  0.028005441            5 
 2111000   0.92677652   -7.0994948    704.51286  0.027811182  0.027997443            5 
 2112000   0.91948175   -7.0758538    707.10969  0.027900477  0.027989442            8 
 2113000   0.92537458    -7.078293    705.10739  0.027808305   0.02798155            2 
 2114000   0.91038164    -7.093618    706.41263  0.027846603  0.027973623            3 
 2115000   0.91683429   -7.1068435    705.55123  0.027799497  0.027965689            4 
 2116000   0.89837684   -7.0934426    708.20153  0.027890735  0.027957799            4 
 2117000   0.91405815   -7.0695547    707.80343  0.027861889  0.027949944            2 
 2118000   0.92400322   -7.0999884    708.92159  0.027892729  0.027942082            6 
 2119000   0.89697698    -7.086605    707.37907  0.027818903  0.027934216            4 
 2120000   0.92296538   -7.0837695    708.57529  0.027852802  0.027926324            2 
 2121000    0.8981914   -7.0911987    708.17923  0.027824109  0.027918472            3 
 2122000   0.91459228   -7.0767724    708.48642  0.027823061  0.027910572            2 
 2123000   0.92119108   -7.1107464    708.02883  0.027791993  0.027902672            8 
 2124000   0.92051363    -7.106557    707.25743  0.027748644  0.027894789            3 
 2125000    0.9128839    -7.072849    710.33334  0.027856209  0.027886933            2 
 2126000   0.90553114   -7.0898032    708.37153  0.027766209  0.027879058            2 
 2127000   0.90199594   -7.1154222    708.09798  0.027742438  0.027871171            7 
 2128000   0.90877622   -7.0912167    709.74497  0.027793897  0.027863201            5 
 2129000   0.90616181   -7.1087059     708.9282  0.027748873  0.027855243            4 
 2130000    0.8975278    -7.084455    708.12331  0.027704355  0.027847331            3 
 2131000   0.90967219   -7.1204581    709.72351   0.02775393  0.027839355            3 
 2132000   0.89433124   -7.0644154    709.08196  0.027715837  0.027831428            3 
 2133000   0.91485197   -7.1068489    707.11622  0.027626044  0.027823506            2 
 2134000   0.91370417   -7.0875552    709.36384  0.027700868  0.027815585            6 
 2135000   0.90617998   -7.1068716    709.40615  0.027689545  0.027807627            6 
 2136000   0.89047315   -7.0449765    710.98692  0.027738254  0.027799691            7 
 2137000     0.926679   -7.1036301    708.93396  0.027645218  0.027791795            4 
 2138000   0.90183293   -7.0823972    709.31353  0.027647082   0.02778385            5 
 2139000   0.89949099    -7.107663    708.09598  0.027586722  0.027775834            9 
 2140000   0.91541829   -7.0954961    708.33777  0.027583246  0.027767802            7 
 2141000   0.90524155   -7.0934601    710.75256  0.027664353  0.027759782            3 
 2142000   0.89036461   -7.1013309    710.25758  0.027632181  0.027751734            3 
 2143000   0.91218626   -7.0806051    710.64999  0.027634546  0.027743697            8 
 2144000   0.92834755   -7.0995718    709.92987  0.027593667  0.027735696            3 
 2145000   0.91941967   -7.1060803    710.19826   0.02759123  0.027727634            2 
 2146000    0.9016065   -7.0896886    711.44665   0.02762685  0.027719589            4 
 2147000    0.8883328   -7.1118452    712.00986  0.027635843  0.027711618            4 
 2148000   0.90343755   -7.0923277    709.59061   0.02752912  0.027703627            3 
 2149000    0.8855872   -7.1036825    712.24284  0.027619158  0.027695613            3 
 2150000   0.90612871   -7.1097828    710.04816  0.027521247   0.02768751            2 
 2151000   0.90592718   -7.1390711    709.98932  0.027506172  0.027679458            3 
 2152000   0.93132078   -7.1025666    709.27716  0.027465813  0.027671412           13 
 2153000   0.91562904   -7.1047541    711.30326  0.027531478  0.027663388            4 
 2154000    0.9117248   -7.1340529    709.97943   0.02746748  0.027655357            5 
 2155000   0.90626898     -7.10631    710.81201   0.02748693  0.027647365            5 
 2156000   0.89492232   -7.1240275    710.92753  0.027478646  0.027639367            2 
 2157000   0.91308484   -7.1208272    711.38185  0.027483459  0.027631328            8 
 2158000   0.90971078   -7.1229516    710.78045    0.0274475  0.027623344            3 
 2159000    0.9047028   -7.1224839     711.6405  0.027467983  0.027615332            3 
 2160000   0.90845459   -7.0969279    711.13732  0.027435853  0.027607361            3 
 2161000   0.90078891   -7.1181129    711.16653  0.027424284  0.027599374           11 
 2162000   0.89752391   -7.1133956    712.16229   0.02744998   0.02759137            6 
 2163000    0.8982823   -7.0705007    712.67596   0.02745708  0.027583421            2 
 2164000   0.91293477   -7.1123201    710.56676  0.027363168  0.027575511            3 
 2165000   0.90881509   -7.0920018    712.52992  0.027426094  0.027567588            2 
 2166000   0.90031886   -7.1084505    712.92863  0.027428771  0.027559628            5 
 2167000   0.89345295   -7.1043582     713.2998  0.027430388  0.027551685            4 
 2168000   0.89889402   -7.1090533    713.91574  0.027441411   0.02754375            3 
 2169000   0.89808447   -7.1015056    712.92537  0.027390709  0.027535783            5 
 2170000   0.89696581   -7.1122098    713.54461  0.027401867  0.027527874            3 
 2171000   0.90828186   -7.0874752    715.51713   0.02746496  0.027519985            2 
 2172000   0.90537941   -7.1086739    712.99127  0.027355405  0.027512055            5 
 2173000   0.89500751   -7.0920939    714.30079  0.027393035  0.027504107            2 
 2174000   0.90849891    -7.122184    713.43285  0.027347165  0.027496192            3 
 2175000   0.88022768    -7.090097    715.90944   0.02742948  0.027488248            5 
 2176000   0.88179909   -7.0735497    716.28889  0.027431407  0.027480439            3 
 2177000   0.90149648   -7.1142758    713.37899  0.027307418  0.027472589            3 
 2178000   0.90601103   -7.0789882    714.50919  0.027338123  0.027464707            3 
 2179000   0.91330412   -7.1230751    715.68712  0.027370626  0.027456854            5 
 2180000   0.89920605   -7.1291194    715.32732  0.027344316  0.027448957            4 
 2181000   0.91191642   -7.0981952    716.69366  0.027383985  0.027441017            2 
 2182000   0.90760655   -7.1164369    717.60935  0.027406406   0.02743319           11 
 2183000   0.90239935   -7.1033129    718.03995   0.02741029  0.027425376            4 
 2184000   0.90191746   -7.0835895    715.90233  0.027316175  0.027417517            2 
 2185000   0.92081836   -7.0957823    715.66706  0.027294701  0.027409612            7 
 2186000   0.91606273   -7.1311783    715.17046  0.027263284  0.027401668            3 
 2187000   0.89269108   -7.1171298      715.586  0.027266651  0.027393659            2 
 2188000   0.90422647   -7.1132838    714.96194  0.027230421  0.027385637            5 
 2189000   0.88123379   -7.1252397    714.89287  0.027215352  0.027377646            3 
 2190000   0.90274003   -7.1220604    716.80073  0.027275523  0.027369656            4 
 2191000   0.89605452   -7.1162014    716.10982  0.027236795  0.027361653            6 
 2192000   0.89972197   -7.1410568    715.91153  0.027216831  0.027353627            2 
 2193000   0.89983438   -7.1058859     716.8911  0.027241644  0.027345728            3 
 2194000   0.90316744   -7.1275102    717.36843  0.027247358  0.027337875            5 
 2195000   0.90784385   -7.1222844      716.924  0.027218071   0.02732999            4 
 2196000   0.88119979   -7.1317299    717.28829  0.027219501  0.027322101            4 
 2197000   0.90871065   -7.1182602    718.36231   0.02724785  0.027314267            2 
 2198000   0.91240499   -7.1445509    718.13977  0.027227016  0.027306381            7 
 2199000   0.88231763   -7.1146188      717.433  0.027187851  0.027298512            4 
 2200000   0.90466876    -7.103521    716.77859  0.027150704  0.027290667            2 
 2201000   0.91376746   -7.0900371    719.51094   0.02724182  0.027282871            4 
 2202000   0.88493785   -7.1041404    717.93531  0.027169819  0.027275019            2 
 2203000   0.91232099   -7.1436884    717.33695  0.027134852  0.027267128            4 
 2204000   0.88250811   -7.1248848    719.61717  0.027208756  0.027259335            4 
 2205000   0.88739184   -7.1221376    719.42939  0.027189319  0.027251568            2 
 2206000   0.88431792   -7.1391519    717.84793  0.027117253  0.027243742            2 
 2207000   0.90067225   -7.1419285    717.95315  0.027108939  0.027235893            2 
 2208000   0.89823239   -7.0633818    720.45682  0.027191154  0.027228095            4 
 2209000   0.88282518   -7.1209335    720.56323  0.027182859  0.027220301            4 
 2210000   0.90222042   -7.0921656    721.41152  0.027202546  0.027212551           11 
 2211000   0.89954327   -7.1168015     720.9638  0.027173368  0.027204762            7 
 2212000   0.90237704   -7.1243003    719.89207  0.027120708  0.027196965            5 
 2213000   0.88779442   -7.1314494    719.61615  0.027098063  0.027189085            5 
 2214000    0.8852363   -7.1071063    719.29959  0.027073908  0.027181238            5 
 2215000   0.90291736   -7.0869666    720.14777  0.027093596  0.027173496            5 
 2216000   0.91184986   -7.1277088    720.84599  0.027107626  0.027165717            3 
 2217000   0.88157228   -7.1241851    719.97322  0.027062593  0.027157859            3 
 2218000   0.88558424   -7.1317919    719.84573  0.027045602  0.027150023            8 
 2219000   0.89492605   -7.1238767    719.16538  0.027007863   0.02714216            4 
 2220000   0.90666015   -7.1148992    719.72173  0.027016581   0.02713438            6 
 2221000   0.88878003   -7.1440037     721.2625  0.027062228  0.027126594            6 
 2222000   0.87888872   -7.1157374    722.31069   0.02708936  0.027118773            4 
 2223000   0.91127281   -7.1565286    721.21253  0.027036007   0.02711094            3 
 2224000   0.89352898   -7.0956028    722.30241  0.027064689  0.027103159            8 
 2225000   0.88782201   -7.1213263    724.08144  0.027119155  0.027095463            8 
 2226000   0.89183444   -7.1450358    720.21337  0.026962166   0.02708768            8 
 2227000   0.88224748   -7.1715899    720.66294  0.026966881  0.027079791            3 
 2228000   0.88589663   -7.1377944      721.018  0.026968058  0.027071887            4 
 2229000   0.88960131   -7.1438474    721.53569  0.026975313  0.027064096            3 
 2230000   0.91304568   -7.1170778    722.34552   0.02699348  0.027056279            3 
 2231000   0.88671017   -7.1203687    723.46596  0.027023232  0.027048471            3 
 2232000    0.8708258    -7.110441    725.04635   0.02707013  0.027040762            2 
 2233000   0.89117735    -7.098776     723.6147  0.027004579   0.02703306            5 
 2234000   0.89655227   -7.1154088    722.32736   0.02694447  0.027025309            4 
 2235000   0.86934941   -7.1319577    723.79498  0.026987136  0.027017612            4 
 2236000   0.90204396   -7.1243334    723.30438  0.026956782   0.02700987            3 
 2237000   0.89716046   -7.1471965    722.60584   0.02691871  0.027002083            7 
 2238000   0.89718326   -7.0993635    724.77463  0.026987438  0.026994373            4 
 2239000   0.87793633   -7.1359906    723.15859  0.026915237  0.026986631            4 
 2240000   0.89763943   -7.1406988    722.06371  0.026862489  0.026978853            4 
 2241000    0.8866498   -7.1501212    722.36448  0.026861687  0.026971072            9 
 2242000   0.88420739   -7.1261147     724.0175  0.026911147  0.026963278            3 
 2243000   0.91021252   -7.1305941    724.79181  0.026927917  0.026955512            5 
 2244000   0.88470746   -7.1396244    723.69178  0.026875066  0.026947773            4 
 2245000    0.8832473    -7.148224    724.21249  0.026882423  0.026940034            5 
 2246000    0.8971107   -7.1094308    723.70969  0.026851799  0.026932322            4 
 2247000   0.89666772   -7.1201623    723.90263  0.026847005  0.026924599           15 
 2248000   0.89171633   -7.1320575    725.75654  0.026903786  0.026916828            3 
 2249000   0.90062281    -7.118953    724.45978  0.026843774  0.026909016            4 
 2250000   0.88820443   -7.1161943    724.43653  0.026830983   0.02690124            5 
 2251000   0.88164661   -7.1465834    725.15811  0.026845776  0.026893557            1 
 2252000   0.91343533   -7.1004837    727.15852  0.026907879  0.026885847            3 
 2253000   0.90400599   -7.1162684    725.07227   0.02681877  0.026878141            3 
 2254000   0.88839356   -7.1332399    724.88417  0.026799918  0.026870452            5 
 2255000   0.90062919   -7.1452899    726.30872  0.026840677  0.026862769            7 
 2256000   0.88698356   -7.1750996    726.17789  0.026823947  0.026855087            4 
 2257000   0.86386359   -7.1113703    726.06528  0.026807904  0.026847311            5 
 2258000   0.88562433   -7.1209172    726.11601  0.026797904  0.026839593            4 
 2259000      0.88426   -7.1263532     728.4177  0.026870949  0.026831929            2 
 2260000   0.91339542   -7.1418915    725.36798  0.026746607  0.026824191            5 
 2261000   0.88570698   -7.1542455    726.20727  0.026765711  0.026816493            3 
 2262000   0.88852116   -7.1425882      725.282  0.026719791  0.026808794            5 
 2263000   0.89900023   -7.1439218    727.10642  0.026775166  0.026801055            4 
 2264000   0.90209255   -7.1539327    726.50645  0.026741256  0.026793353            4 
 2265000   0.86892044   -7.1382367    727.64253  0.026771248  0.026785679            3 
 2266000   0.88675704   -7.1271066    726.59124  0.026720772   0.02677799            4 
 2267000   0.90259786   -7.1682941    728.03307  0.026761986  0.026770311            2 
 2268000   0.89193512   -7.1090855    728.25486  0.026758335  0.026762656            5 
 2269000   0.90566436   -7.1288548     728.3163  0.026748799  0.026755042            6 
 2270000    0.8824674   -7.1421858    727.72565  0.026715332  0.026747411            3 
 2271000   0.89837994   -7.1475461    729.05162  0.026752224  0.026739727            3 
 2272000   0.88306479   -7.1396598    727.35998  0.026678403  0.026732051            3 
 2273000   0.88585267   -7.1079449    729.00779  0.026727078   0.02672434            2 
 2274000   0.87709986   -7.1060464    730.26037  0.026761227  0.026716665            6 
 2275000   0.88566432   -7.1291859     729.2459  0.026712304  0.026708934            2 
 2276000   0.89761827    -7.120199    729.07876  0.026694448  0.026701263            4 
 2277000   0.88170341     -7.15724     727.8551  0.026637941  0.026693581            3 
 2278000   0.89698051   -7.0952975    728.04328  0.026633132  0.026685961            6 
 2279000   0.88611038   -7.1138835    730.60498  0.026715115  0.026678373            3 
 2280000    0.8794897   -7.1456868    729.04755  0.026646475  0.026670744            7 
 2281000   0.89126335   -7.1213253    731.22559  0.026714365  0.026663083            5 
 2282000   0.89617696   -7.1613138    727.77599  0.026576687   0.02665539           17 
 2283000   0.88700375   -7.1209788    729.91907  0.026643272  0.026647743            3 
 2284000   0.88238007   -7.1609099    728.73417  0.026588375  0.026640136            4 
 2285000   0.87865517   -7.1525774    728.05842  0.026552094  0.026632502            3 
 2286000   0.89511452   -7.1577342    729.33019   0.02658684   0.02662487            3 
 2287000   0.87012166   -7.1375654    728.79935  0.026555872  0.026617204            3 
 2288000   0.87950565   -7.1466198    728.46058  0.026531927  0.026609538            8 
 2289000   0.88200793   -7.1444538    729.52505  0.026559089  0.026601931            6 
 2290000   0.87122512   -7.1506991    730.34762  0.026577424  0.026594297            3 
 2291000   0.87730312   -7.1485338    732.72621  0.026652343  0.026586665            4 
 2292000   0.89314281   -7.1319151    731.47506  0.026595225  0.026579035            6 
 2293000   0.90323127   -7.1289703     732.5456  0.026622532  0.026571438            3 
 2294000   0.87467381   -7.1581775    730.80414  0.026547666  0.026563788            3 
 2295000   0.89767029    -7.133574    731.99573  0.026579366  0.026556138            6 
 2296000    0.8768345   -7.1357165    732.14973  0.026573379  0.026548504            4 
 2297000   0.88577752   -7.1605517    732.96302  0.026591315  0.026540939            3 
 2298000   0.88347022   -7.1693398    729.80898  0.026465368  0.026533305            3 
 2299000   0.87203134    -7.172774    730.77952  0.026489036  0.026525614            2 
 2300000   0.87853041   -7.1467022    733.47436  0.026575158  0.026517956            4 
 2301000   0.86845619   -7.1525228    733.35391  0.026559246  0.026510329            2 
 2302000   0.86799843   -7.1309399     732.0637  0.026501003  0.026502717            5 
 2303000   0.88436575   -7.1821018    730.81613  0.026444353  0.026495098            6 
 2304000   0.87656837   -7.1622082    732.81913  0.026505321  0.026487553            6 
 2305000    0.8784945   -7.1621389    731.47493  0.026445225  0.026480018            3 
 2306000   0.87389319   -7.1485422    732.56001   0.02647297  0.026472426            3 
 2307000   0.88455053   -7.1340514    733.55462  0.026497422  0.026464836            5 
 2308000   0.87186539   -7.1779542    731.71481  0.026419512  0.026457163            4 
 2309000   0.87785502   -7.1555601    732.00384  0.026418502  0.026449433            4 
 2310000   0.86588077   -7.1566111    730.45485  0.026351185  0.026441775            5 
 2311000   0.87346609   -7.1557353    732.13008   0.02640019   0.02643411            6 
 2312000   0.88153067    -7.157678    732.11498  0.026388227  0.026426459            3 
 2313000   0.87194012   -7.1031375     734.0434  0.026446296  0.026418798            7 
 2314000   0.87606112   -7.1448055    733.46498  0.026414037  0.026411168            6 
 2315000   0.87551166    -7.147271    732.69968  0.026375078  0.026403504            4 
 2316000   0.87304566   -7.1641658    733.33246  0.026386459  0.026395834            6 
 2317000   0.88376968   -7.1690905    733.31323  0.026374379  0.026388248            3 
 2318000   0.87979603    -7.149679    734.21499   0.02639542  0.026380599            4 
 2319000   0.87524213   -7.1927483    731.34946  0.026281065  0.026372909            3 
 2320000   0.91877655   -7.1612662    735.91823  0.026433845  0.026365223            7 
 2321000   0.88106092   -7.1398029    733.59864  0.026339173  0.026357561            3 
 2322000   0.88325208    -7.198717    731.43019  0.026250007  0.026349877            4 
 2323000   0.87036459   -7.1720772    732.55065  0.026278901   0.02634221            4 
 2324000   0.87647719   -7.1805867    734.21712  0.026327349  0.026334553            3 
 2325000   0.88150291   -7.1459504    734.29116  0.026318679  0.026326874            2 
 2326000   0.87909342   -7.1361555    734.23532  0.026305364  0.026319181            4 
 2327000   0.87966402   -7.1587806    732.85614  0.026244669   0.02631157            2 
 2328000   0.88902951   -7.1739154    733.36449  0.026251592  0.026303852            4 
 2329000     0.891684   -7.1452387    733.66202  0.026250967  0.026296105            2 
 2330000   0.88252221   -7.1752407    735.00222  0.026287633  0.026288427            4 
 2331000   0.88239088   -7.1581119    735.17344  0.026282477  0.026280741           12 
 2332000   0.88347087   -7.1402936    736.49419  0.026318403  0.026273103            5 
 2333000    0.8836814   -7.1800766    733.54412  0.026201747  0.026265459            9 
 2334000   0.89531076   -7.1623128    735.82957  0.026272121  0.026257787            3 
 2335000   0.85507218   -7.1498549    736.81791  0.026296142  0.026250116            3 
 2336000   0.87942496    -7.189365    735.32766  0.026231723  0.026242498            3 
 2337000   0.88653307   -7.1790979    734.46819  0.026189851  0.026234831            5 
 2338000   0.87605184   -7.1271671     735.7403  0.026223991  0.026227171            3 
 2339000   0.89100963   -7.1733444    733.46489  0.026131712  0.026219481            4 
 2340000   0.88954884   -7.1755774    734.97546   0.02617434  0.026211745            4 
 2341000   0.88679119    -7.141021    734.33866   0.02614049  0.026204067            5 
 2342000   0.87124223   -7.1605073    736.40849  0.026202978  0.026196349            4 
 2343000    0.8841825    -7.161479     734.7865  0.026134105  0.026188535            4 
 2344000   0.89125012   -7.1717315      735.252  0.026139505  0.026180829            5 
 2345000     0.872884   -7.1301159    736.36563  0.026167933  0.026173125            3 
 2346000     0.874751   -7.1647713     735.7847  0.026136143  0.026165485            7 
 2347000   0.88556854   -7.1668833    735.02838  0.026098153  0.026157825            4 
 2348000   0.86548801   -7.1452978    736.58531  0.026142295  0.026150163            3 
 2349000   0.89193322   -7.1436873    736.34131   0.02612251  0.026142448            7 
 2350000   0.86535091   -7.1535998    737.70025  0.026159583  0.026134818            6 
 2351000   0.87479233   -7.1640439     736.5729  0.026108496  0.026127201            4 
 2352000   0.86663818   -7.1374049    737.04587  0.026114154   0.02611957            5 
 2353000   0.87659464   -7.1769877     735.7656  0.026057714   0.02611191            3 
 2354000       0.8589   -7.1780171    736.80712  0.026083515  0.026104261            5 
 2355000   0.86087191   -7.1584378    737.31958  0.026090573  0.026096585            2 
 2356000   0.85392582   -7.1639844    737.54633  0.026087519  0.026088949            3 
 2357000   0.87454231   -7.1732581    736.81697  0.026050663  0.026081295            3 
 2358000   0.88455929   -7.1794926    737.44402  0.026061776  0.026073618            4 
 2359000   0.88791587   -7.1539317    738.34416  0.026082527   0.02606598            3 
 2360000   0.87104068   -7.1690066    735.37877  0.025966764  0.026058252            7 
 2361000   0.86437364   -7.1729788    736.49589  0.025995196   0.02605053            4 
 2362000   0.87132345   -7.1735785    738.23702  0.026045619  0.026042868            8 
 2363000   0.86076842   -7.1728217    737.63637  0.026013414  0.026035232            5 
 2364000   0.86074369   -7.1704833      737.927  0.026012655   0.02602758            4 
 2365000   0.87535768   -7.1620662    737.72823  0.025994652  0.026019921            3 
 2366000   0.88304715   -7.1730837    740.07487  0.026066317  0.026012297            4 
 2367000   0.86910158   -7.1789243    739.01933  0.026018143  0.026004676           17 
 2368000   0.87096971   -7.1537333    739.13606  0.026011264  0.025997024            4 
 2369000   0.86991839   -7.1717942    741.07463  0.026068476  0.025989401            6 
 2370000   0.85190242   -7.1899281      737.478  0.025931013  0.025981754           13 
 2371000   0.87565908   -7.2016017    738.36553   0.02595127  0.025974078            4 
 2372000   0.84879185    -7.176609     739.3826  0.025976061  0.025966416            2 
 2373000   0.86196455    -7.177132    740.12771  0.025991281  0.025958864            3 
 2374000    0.8826265   -7.1633482    741.26651  0.026020307  0.025951265            3 
 2375000   0.87794351   -7.1688976    738.64745  0.025917454  0.025943689            5 
 2376000    0.8507779   -7.1837473    738.92671  0.025916341   0.02593606            4 
 2377000   0.87211381   -7.1969763    738.30647  0.025883693  0.025928447            7 
 2378000   0.86717749   -7.1793019    740.28743  0.025942228   0.02592081            4 
 2379000   0.87225501   -7.1771555    740.02166  0.025922014  0.025913155            5 
 2380000   0.86552867   -7.1805436    740.00648  0.025910591  0.025905556            6 
 2381000   0.87612666   -7.2001004    738.32879  0.025840991  0.025897957            3 
 2382000   0.87527988   -7.1855366    740.69463   0.02591291  0.025890392            1 
 2383000   0.85391743   -7.1576099    741.53941  0.025931578   0.02588286            3 
 2384000   0.88776851   -7.1878408    740.49727  0.025884273  0.025875261            3 
 2385000   0.86881675   -7.1984001    739.50139  0.025838623   0.02586772            4 
 2386000   0.86793597   -7.1884353    742.95037  0.025948253  0.025860136            4 
 2387000   0.86988263   -7.1727679    742.51542  0.025922197  0.025852623            3 
 2388000    0.8715267   -7.1945806    741.03591  0.025859712  0.025845057            2 
 2389000   0.83833918   -7.1639292    742.23764  0.025890806  0.025837489            8 
 2390000   0.88217373    -7.195942    740.85134  0.025831637  0.025829908            2 
 2391000   0.85130317     -7.18225     741.8476  0.025855556  0.025822362            4 
 2392000   0.86507815   -7.1803625    740.24225  0.025788819  0.025814803            5 
 2393000   0.85584133   -7.1799882    740.45503  0.025785452  0.025807212            4 
 2394000   0.86722636   -7.1788924    741.27336  0.025803166  0.025799614            4 
 2395000    0.8774082   -7.1412097    744.23595  0.025895475  0.025792093            4 
 2396000   0.86901103   -7.1765189    742.47605  0.025823458  0.025784546            3 
 2397000   0.87394997   -7.1816924    742.87215  0.025826455  0.025776989            4 
 2398000   0.86051492   -7.1851624    740.64194  0.025738183  0.025769431           12 
 2399000   0.85917586    -7.160914    741.87995  0.025770458  0.025761872            3 
 2400000    0.8502853   -7.1799268     740.2951  0.025704691  0.025754293            2 
 2401000   0.87313597   -7.1814652    741.98354  0.025752587  0.025746692            4 
 2402000   0.85428334   -7.1602975    742.35282  0.025754677  0.025739105            3 
 2403000   0.87477272   -7.2104907    740.74933  0.025688352  0.025731471            3 
 2404000   0.87495585   -7.1631115    742.96209  0.025754371  0.025723803            4 
 2405000    0.8694485   -7.2128955    740.05154  0.025642811  0.025716119            4 
 2406000   0.85713153   -7.2152084    741.89576  0.025696029  0.025708425            5 
 2407000   0.87764504   -7.1899738    743.10382  0.025727178  0.025700719            4 
 2408000   0.85977713   -7.2054031    743.71084  0.025737501  0.025693017            2 
 2409000   0.87588847   -7.1677309    742.66895  0.025690776  0.025685412            6 
 2410000   0.88792844   -7.1969752    742.86133  0.025686768  0.025677785            4 
 2411000   0.88332105   -7.2064254    742.00484   0.02564651  0.025670155            8 
 2412000   0.85161722   -7.2059753    742.03525  0.025636928  0.025662511            6 
 2413000   0.87067251   -7.1687684    744.63776  0.025716182  0.025654868            5 
 2414000   0.87744634   -7.1862487    744.14048  0.025688362  0.025647243            6 
 2415000   0.87902376   -7.1897916    744.88394   0.02570338  0.025639653            4 
 2416000   0.87606619    -7.207383     744.5767  0.025682143   0.02563205            7 
 2417000   0.85915703   -7.2108725     743.8272  0.025645676  0.025624433            7 
 2418000    0.8641035   -7.1962293    743.62369  0.025628056  0.025616816            3 
 2419000   0.86292018    -7.215375    742.20985  0.025568756  0.025609156            4 
 2420000    0.8804233   -7.1965047    742.42158  0.025565481  0.025601559            5 
 2421000   0.86447995   -7.1952412    744.02858  0.025610236   0.02559395            3 
 2422000   0.87184875   -7.2215057    744.44927  0.025614137  0.025586363            3 
 2423000   0.84960399    -7.182473    744.56136   0.02560742  0.025578846            5 
 2424000   0.87086648   -7.1897275    743.51974  0.025561047  0.025571321            3 
 2425000   0.86633523    -7.227682    743.96733  0.025565888  0.025563759            7 
 2426000   0.87564122   -7.1970744    743.62712  0.025543663  0.025556171            5 
 2427000   0.87011257   -7.1794476    744.18914  0.025552436  0.025548579            3 
 2428000   0.85130138   -7.2165499    743.88261  0.025531391   0.02554098            2 
 2429000   0.85567524   -7.1981839    744.82348  0.025553159   0.02553336            4 
 2430000   0.87395117   -7.1740475    745.63966  0.025570633  0.025525768            4 
 2431000   0.87333606   -7.1781913     744.4846   0.02552052  0.025518219            6 
 2432000   0.84966118   -7.2207861    744.37482  0.025506264   0.02551063            2 
 2433000   0.85304378   -7.1889442    745.29288  0.025527226  0.025503035            4 
 2434000   0.86786767   -7.2036197    745.33516  0.025518185  0.025495378            5 
 2435000   0.86829855   -7.2033879    745.89614  0.025526904  0.025487772            4 
 2436000   0.86159253   -7.1937204    745.80575  0.025513333  0.025480172            7 
 2437000   0.88012648   -7.2204148    744.72916   0.02546605  0.025472575            3 
 2438000   0.88360604   -7.2147708    744.10244  0.025434183  0.025464958            5 
 2439000   0.88139201   -7.1794773    746.73764  0.025513791  0.025457336            4 
 2440000    0.8742713   -7.1951193    747.67523  0.025535356  0.025449791            4 
 2441000     0.864879   -7.2195462     745.0241  0.025434388  0.025442273            8 
 2442000   0.86387536   -7.1907038    746.06827  0.025459605  0.025434696            3 
 2443000   0.84882118   -7.2088525    745.68145  0.025435989  0.025427179            9 
 2444000   0.85514471   -7.1791168    746.73335  0.025461448  0.025419623            4 
 2445000   0.85013919   -7.2309785    744.85923  0.025387158  0.025412064            1 
 2446000   0.84968575   -7.2233884    747.06125  0.025451801  0.025404478            2 
 2447000   0.85895449   -7.2377667    747.80791  0.025466827  0.025396961            3 
 2448000   0.86226119   -7.1983219    746.12192  0.025399031  0.025389461            2 
 2449000   0.84970357   -7.1951136    746.92157  0.025415869  0.025381981            7 
 2450000   0.84739743   -7.2054091    745.71573  0.025364481  0.025374494            2 
 2451000   0.86434618    -7.207729     746.2345   0.02537177  0.025366985            5 
 2452000   0.85449833   -7.2079993    749.28876  0.025465224  0.025359537            3 
 2453000   0.85711914   -7.1859901    749.07911  0.025447721  0.025352149            6 
 2454000   0.86106666   -7.1603917    748.43472  0.025415469  0.025344701            3 
 2455000   0.84128255   -7.2122127    746.49971  0.025339433   0.02533726            6 
 2456000   0.86096462   -7.2019706    747.58447  0.025365922  0.025329751            5 
 2457000   0.83870111   -7.2138678    747.86643  0.025365162  0.025322305            3 
 2458000   0.86390118   -7.1765313     748.9991  0.025393243  0.025314829            2 
 2459000   0.86031071    -7.235732    747.67446  0.025338026  0.025307309            1 
 2460000   0.85730985   -7.2074084    747.83767  0.025333254  0.025299812            4 
 2461000   0.84249687   -7.2086101    748.04882   0.02533011  0.025292324            5 
 2462000   0.87269119   -7.2136614    748.81112  0.025345624  0.025284835            4 
 2463000   0.86024857   -7.1965119    748.59153  0.025327904  0.025277395            3 
 2464000   0.85994287   -7.1919398     750.1569  0.025370566  0.025269943            4 
 2465000   0.86174828   -7.1748605    751.84948  0.025417494  0.025262514            4 
 2466000   0.86550395    -7.195176    749.75263  0.025336329  0.025255103           15 
 2467000   0.83493759   -7.1631122    750.77225    0.0253605  0.025247688            2 
 2468000   0.84752701   -7.1970373    749.00571  0.025290576  0.025240244            4 
 2469000   0.85851397    -7.193645    748.12814  0.025250714  0.025232806            8 
 2470000   0.85614269   -7.1963439    750.46214  0.025319235   0.02522537            2 
 2471000   0.84513434   -7.2451245    748.63006  0.025247203  0.025217942            5 
 2472000   0.84465756   -7.2202289    750.63225  0.025304485  0.025210436            6 
 2473000   0.86945466   -7.1970604    751.35645  0.025318656  0.025202971            4 
 2474000   0.84301437   -7.2016363    748.75748   0.02522088  0.025195491            7 
 2475000   0.86721146   -7.2231375    750.09848  0.025255841  0.025188043            4 
 2476000   0.86916658   -7.2116795    751.17333  0.025281816  0.025180634            4 
 2477000   0.84169312   -7.1929466    751.68356  0.025288775  0.025173251            3 
 2478000   0.86855608   -7.2278481     750.6623  0.025244226  0.025165801            4 
 2479000   0.84797258   -7.1990793    751.35968  0.025257486  0.025158331            5 
 2480000   0.86054462   -7.1984471    751.86329  0.025264224  0.025150895            3 
 2481000   0.85277525   -7.2073823    751.19414  0.025231564  0.025143462            3 
 2482000    0.8534994   -7.1985936    749.00485  0.025147893  0.025136025            5 
 2483000   0.85980777   -7.1976853    751.79613  0.025231445  0.025128626            3 
 2484000   0.83206854   -7.2290645    751.66534    0.0252169  0.025121236            3 
 2485000   0.84005766   -7.1916025    750.56743  0.025169934  0.025113815            3 
 2486000   0.87246396   -7.1885231    751.14525  0.025179178  0.025106411            4 
 2487000   0.86245574   -7.2168533    751.38749  0.025177171  0.025099033            5 
 2488000   0.84000669   -7.2150283    752.89808  0.025217647  0.025091632            5 
 2489000   0.85975581   -7.2456185    752.25217   0.02518589  0.025084259            3 
 2490000   0.84672705   -7.2143262    751.62173  0.025154676  0.025076896            2 
 2491000   0.87163018   -7.2406169    751.89072  0.025153577  0.025069519            4 
 2492000   0.86240993   -7.2428754    751.00349  0.025113814  0.025062124            3 
 2493000   0.84002264   -7.2357023    751.93955   0.02513503  0.025054747            2 
 2494000   0.85750937   -7.2482495    751.79796   0.02512022   0.02504737            3 
 2495000    0.8470042   -7.2212155    752.72733  0.025141193  0.025039961            4 
 2496000   0.85321415   -7.2280607    752.99488  0.025140053  0.025032531            3 
 2497000   0.85304751   -7.2428897    752.01203  0.025097184   0.02502509            3 
 2498000   0.84858477   -7.2107683    752.67425  0.025109229  0.025017628            3 
 2499000   0.84817786   -7.2200521    751.78858  0.025069647  0.025010261           11 
 2500000   0.83476492   -7.2114327    753.56841  0.025118947  0.025002919            3 
 2501000   0.82744323   -7.2043887    752.12731  0.025060886  0.024995596            4 
 2502000   0.85225036   -7.2130136    753.62647  0.025100802  0.024988292            3 
 2503000   0.85459339   -7.2276358     754.6172  0.025123758  0.024980935            2 
 2504000   0.85209571   -7.2149041    754.41753   0.02510708  0.024973567            4 
 2505000   0.83866436   -7.2301677    755.40479    0.0251299  0.024966237            4 
 2506000   0.85676112   -7.2184018    754.53757  0.025091034  0.024958906            4 
 2507000   0.84621211    -7.200206    755.04185  0.025097788  0.024951575           10 
 2508000   0.83803411     -7.24941    754.33012  0.025064132  0.024944233            3 
 2509000   0.84992588   -7.2498987    752.98131  0.025009343  0.024936825            4 
 2510000   0.85011173   -7.2386364    752.32301  0.024977523  0.024929425            3 
 2511000   0.84283085   -7.2371612    753.08041  0.024992712   0.02492201            6 
 2512000   0.84239826   -7.2089461    754.43097  0.025027567  0.024914586            4 
 2513000   0.83932607     -7.20823    752.64061  0.024958238  0.024907234           11 
 2514000    0.8645966   -7.2366812     754.5647  0.025012089  0.024899897            4 
 2515000   0.85783563   -7.2154414    754.84187  0.025011328  0.024892558            6 
 2516000   0.84928884   -7.2145001    755.96866  0.025038708  0.024885217            3 
 2517000   0.85426793   -7.2401518    753.67488  0.024952817  0.024877897            3 
 2518000   0.86186011   -7.2233615    755.55787  0.025005225  0.024870561            2 
 2519000   0.85489076   -7.2337267    758.61663  0.025096488  0.024863313            6 
 2520000   0.84528708   -7.2476012    756.25075  0.025008292  0.024856002            5 
 2521000   0.84713354   -7.2446486    755.48159  0.024972947  0.024848637            4 
 2522000   0.82602943   -7.2218401    757.00246  0.025013298  0.024841347            5 
 2523000   0.84492014    -7.247947    754.99006  0.024936916  0.024834082            3 
 2524000   0.82171032   -7.2449423    757.55088  0.025011585  0.024826764            8 
 2525000   0.85249845   -7.2254572    756.95215  0.024981919  0.024819478            4 
 2526000   0.87250839    -7.265035    754.52617  0.024891996  0.024812126            5 
 2527000   0.84740267   -7.2109991    757.57995   0.02498285  0.024804838            8 
 2528000    0.8448198   -7.2323704    756.81895  0.024947882  0.024797558            3 
 2529000   0.85028762    -7.218029    757.02559  0.024944826  0.024790278            6 
 2530000   0.84180263   -7.2233921    757.46255  0.024949359  0.024783051           10 
 2531000   0.86103942    -7.245288    757.57521  0.024943211  0.024775774            4 
 2532000    0.8519923   -7.2265955    757.16166  0.024919749  0.024768481            3 
 2533000    0.8265516    -7.222689     757.2808  0.024913831  0.024761191            5 
 2534000   0.85187545   -7.2247931    758.12421  0.024931735  0.024753898            3 
 2535000   0.84467571   -7.2492646    755.50989   0.02483596  0.024746619            6 
 2536000   0.85187934   -7.1940122    756.52377  0.024859482  0.024739341            4 
 2537000   0.83713119   -7.2013593    758.49592  0.024914463  0.024732076            5 
 2538000   0.83728499   -7.2201455    757.10723   0.02485905  0.024724793            5 
 2539000   0.83132326   -7.2410281    757.04357   0.02484717  0.024717512            4 
 2540000   0.83953954   -7.2532634    757.15924  0.024841182  0.024710218           11 
 2541000   0.82972656   -7.2425126    757.13541  0.024830625  0.024702911            2 
 2542000   0.84782865   -7.2421916      759.122  0.024885982  0.024695606            3 
 2543000   0.86549018   -7.2384622    757.72121  0.024830293  0.024688303            6 
 2544000    0.8297191   -7.2201474    757.51467  0.024813767  0.024681034            3 
 2545000   0.85262167   -7.2104561     758.9501  0.024851018  0.024673789            5 
 2546000   0.83972371   -7.2465457    757.84616  0.024805124  0.024666524            8 
 2547000    0.8435387   -7.2333102    758.21715  0.024807524  0.024659252            4 
 2548000   0.84583117   -7.2239487    758.48688  0.024806609   0.02465196            6 
 2549000   0.82507592   -7.2438631    759.04868  0.024815244  0.024644669            6 
 2550000   0.84008021   -7.2477129    757.11798  0.024742418  0.024637418           11 
 2551000   0.84623912   -7.2827725    757.88232  0.024757687  0.024630164            4 
 2552000   0.85359756   -7.2584898    758.34159  0.024762983  0.024622924            2 
 2553000   0.83990816   -7.2136811    759.78232  0.024800311    0.0246157            3 
 2554000    0.8326942   -7.2282266    762.02322  0.024863718  0.024608471            4 
 2555000   0.84169644   -7.2641899    758.58493  0.024741844  0.024601245            6 
 2556000   0.81850489   -7.2484816    759.08525  0.024748476   0.02459391            6 
 2557000   0.84404802    -7.237606    757.32361  0.024681385  0.024586641            7 
 2558000   0.83823177   -7.2322842    759.44474  0.024740837  0.024579386            4 
 2559000   0.82278649   -7.2502359    759.58467  0.024735726  0.024572149            5 
 2560000   0.82301059   -7.2272479    760.00195  0.024739647  0.024564912            5 
 2561000   0.84491767   -7.2523435    759.19266  0.024703653  0.024557634            6 
 2562000   0.83872852   -7.2489817    760.81316   0.02474672  0.024550357            7 
 2563000   0.83300954   -7.2436276    760.31115  0.024720742  0.024543063            5 
 2564000   0.85174394   -7.2931113     758.1002  0.024639242   0.02453577            4 
 2565000    0.8400727   -7.2322046    760.31571  0.024701615   0.02452851            3 
 2566000   0.84298437   -7.2369546    760.93275  0.024712028  0.024521278            5 
 2567000   0.84049781   -7.2623974    760.81743  0.024698657   0.02451408            5 
 2568000    0.8307445   -7.2509318    760.44694  0.024677017  0.024506872            4 
 2569000   0.83380529    -7.257549    760.92508  0.024682921  0.024499691            5 
 2570000   0.83247588   -7.2523827    760.25616  0.024651627  0.024492482            5 
 2571000   0.84562821   -7.2516225     759.1509  0.024606214    0.0244853            5 
 2572000   0.84391012   -7.2526918    760.03531  0.024625302  0.024478145            3 
 2573000   0.83174924   -7.2282213    763.96748  0.024743084   0.02447103           13 
 2574000   0.85331045   -7.2444737    761.75048  0.024661696  0.024463924           12 
 2575000   0.85484848   -7.2813521    762.60116  0.024679649  0.024456805            1 
 2576000   0.83926901   -7.2626214     762.9252  0.024680551  0.024449677            4 
 2577000    0.8457877   -7.2333155    763.15552  0.024678422  0.024442537            3 
 2578000   0.83776901    -7.236629    762.78703  0.024656938  0.024435419           12 
 2579000   0.82688894   -7.2201586    763.88461  0.024682842   0.02442832           11 
 2580000   0.83659888   -7.2267074     763.6757  0.024666528  0.024421262            7 
 2581000   0.83906242   -7.2541297    763.20509  0.024641776  0.024414215            2 
 2582000   0.82377616   -7.2523889    764.77004  0.024682741  0.024407151            4 
 2583000   0.84303161   -7.2572958     764.5411  0.024665799  0.024400058            3 
 2584000   0.83570906   -7.2530503    762.34696  0.024585493  0.024392944            3 
 2585000   0.85921339   -7.2494383    763.17484   0.02460267  0.024385848            3 
 2586000   0.83878324   -7.2552667    763.95309  0.024618236  0.024378753            5 
 2587000   0.84025058   -7.2735739    761.84528  0.024540822  0.024371631            3 
 2588000   0.84191208   -7.2717912    762.58139  0.024555042  0.024364462            9 
 2589000   0.82762465   -7.2583522    762.27969  0.024535847  0.024357287            4 
 2590000   0.81106578   -7.2703691    763.26762   0.02455816  0.024350103            7 
 2591000   0.83433616   -7.2592649    764.31781  0.024582459  0.024342959           11 
 2592000   0.82636318   -7.2309371    764.05998  0.024564686  0.024335833            7 
 2593000    0.8386614   -7.2406778    764.43858  0.024567379  0.024328736            4 
 2594000   0.84517005   -7.2634262    765.21458  0.024582838  0.024321595           17 
 2595000   0.83233556    -7.249299    764.08571  0.024537113  0.024314459            4 
 2596000   0.83149055     -7.27706    762.19481  0.024466962  0.024307318            3 
 2597000   0.84805165    -7.283485    762.32907  0.024461849  0.024300152            7 
 2598000   0.84390263   -7.2664271      761.202  0.024416282  0.024292973            9 
 2599000   0.84740975   -7.2735815    765.31371  0.024538724  0.024285808            4 
 2600000   0.84955615   -7.3047363     762.9253  0.024452734  0.024278604            5 
 2601000   0.84981288   -7.2631435    763.82732  0.024472232  0.024271457            4 
 2602000   0.81716794   -7.2397828    764.17639  0.024474007  0.024264307            3 
 2603000   0.82907183   -7.2594742    763.62137  0.024446836  0.024257157            6 
 2604000      0.82948   -7.2754086    763.41854  0.024430957  0.024249995            5 
 2605000   0.84767715    -7.263019    763.87583  0.024436207  0.024242824            3 
 2606000   0.83372802   -7.2649552    762.10919  0.024370337  0.024235689            3 
 2607000   0.83319859   -7.2693744    764.53661  0.024438582   0.02422857            7 
 2608000   0.82905816   -7.2515472    765.06606  0.024446129  0.024221415            3 
 2609000   0.84340348   -7.2554345    763.89427  0.024399331  0.024214345            5 
 2610000   0.85027189   -7.2663211    764.43168  0.024407142  0.024207253            9 
 2611000   0.84054688   -7.2556592    763.10458  0.024355438  0.024200099            3 
 2612000    0.8216448   -7.2586698     765.2455  0.024414417  0.024192923            3 
 2613000   0.81481405   -7.2655716    764.89925  0.024394031  0.024185766            5 
 2614000   0.84072152   -7.2584973    764.76468  0.024380409  0.024178626            6 
 2615000   0.82861355   -7.2684481    764.85576  0.024373988  0.024171476            3 
 2616000   0.84658098   -7.2267494    765.99365  0.024400919  0.024164343            3 
 2617000   0.83101724   -7.2728601    765.65969  0.024380961  0.024157248            5 
 2618000    0.8253549   -7.2733102    763.91422  0.024316088  0.024150111           16 
 2619000   0.82307923   -7.2677603    763.87892   0.02430568  0.024142975            3 
 2620000    0.8295036   -7.2489606    765.21028  0.024338749  0.024135845            7 
 2621000   0.83459684   -7.2670141    765.62652  0.024342697   0.02412873            4 
 2622000   0.84093369   -7.2609115    766.42274  0.024358719   0.02412157            6 
 2623000   0.82314615   -7.2713419    767.18839  0.024373758  0.024114436            4 
 2624000   0.84032083   -7.2795672    764.45234  0.024277577  0.024107229            9 
 2625000   0.83939521   -7.2991856    765.10509   0.02428905  0.024100026            6 
 2626000   0.82499454   -7.2692445    767.43168  0.024353633  0.024092838            5 
 2627000   0.83093694   -7.2303128     765.3856  0.024279457  0.024085719            3 
 2628000   0.82246997   -7.2618238    766.27261  0.024298345    0.0240786            3 
 2629000   0.82383245   -7.2506567    767.35351  0.024323365  0.024071499            3 
 2630000    0.8212552   -7.2925026     767.1834  0.024308726  0.024064388            5 
 2631000   0.83943882   -7.2908353    767.39203  0.024306095  0.024057264            6 
 2632000   0.83824189   -7.2678333     767.8607  0.024311699  0.024050139            5 
 2633000   0.81104164   -7.2576081    765.68277  0.024233535  0.024043022            5 
 2634000   0.83858488   -7.2702245    766.45973  0.024248916  0.024035895            5 
 2635000   0.83753115   -7.2560982    766.50382  0.024241107  0.024028811            4 
 2636000    0.8333915   -7.2676076    768.02931  0.024280138  0.024021738            5 
 2637000   0.82987588   -7.2470699    767.87663  0.024266105  0.024014635            7 
 2638000   0.82381042   -7.2631625    766.31498  0.024207575  0.024007536            2 
 2639000   0.84532351   -7.2777923    765.88194  0.024184727  0.024000432            3 
 2640000   0.84802252   -7.2631552    767.36923  0.024222514  0.023993317            5 
 2641000   0.81408905   -7.2659485    769.18119  0.024270516  0.023986227            4 
 2642000   0.83623282   -7.2765666    766.84055  0.024187501  0.023979133            3 
 2643000   0.81221371   -7.2826571    768.07143   0.02421716  0.023971974            4 
 2644000   0.81784263   -7.2634892    767.12534  0.024178182  0.023964813            3 
 2645000   0.82766703   -7.2886169    766.88736  0.024161542  0.023957689            8 
 2646000   0.82599468   -7.2767535    766.85545  0.024151406  0.023950532            5 
 2647000   0.84256669   -7.2348949    767.57821  0.024165036  0.023943403            6 
 2648000   0.83435459   -7.2740611    764.78797  0.024068101   0.02393626            7 
 2649000   0.82695144   -7.2969948    767.10254  0.024131828  0.023929075            6 
 2650000   0.84176317   -7.2511499     766.9611  0.024118274  0.023921985            6 
 2651000   0.81848271   -7.2708455    767.35093   0.02412143  0.023914927            3 
 2652000   0.82283011   -7.2528452    769.53793  0.024181056  0.023907889            9 
 2653000   0.81081031   -7.3053951    766.70857  0.024083069  0.023900844            2 
 2654000   0.82572525   -7.2513534    770.59477  0.024196018   0.02389381            8 
 2655000   0.82080532   -7.3041527    768.81685    0.0241311  0.023886817            3 
 2656000   0.82352496    -7.302145    767.58941  0.024083503   0.02387983            6 
 2657000   0.81414748   -7.2661637    771.09789  0.024184478  0.023872825            5 
 2658000   0.84594991   -7.2854892    769.30708  0.024119234  0.023865876            4 
 2659000   0.83931198   -7.2657622    769.70723  0.024122704  0.023858912            4 
 2660000   0.83592502   -7.2997515      769.519  0.024107738  0.023851896            4 
 2661000   0.80375955    -7.278733    769.23943  0.024089923  0.023844893            9 
 2662000   0.82130315   -7.2816406    768.56207  0.024059669  0.023837892           11 
 2663000   0.82258439   -7.2749739    770.36949  0.024107194  0.023830907           13 
 2664000   0.83084106   -7.2760393    769.73624  0.024078336  0.023823929            4 
 2665000   0.82807243   -7.2832814    770.03846  0.024078751  0.023816946            7 
 2666000   0.83959257   -7.2831865    769.41735  0.024050305  0.023809977            4 
 2667000   0.84547309   -7.2895131    769.00578  0.024028427  0.023803007            2 
 2668000   0.83355837   -7.2530731    772.09516  0.024115916  0.023796033            5 
 2669000   0.82642317   -7.2902673    769.96299  0.024040308  0.023789036            3 
 2670000   0.82296801   -7.2791487    769.64001  0.024021224  0.023782054            5 
 2671000   0.80495488   -7.2649672     769.9949  0.024023303  0.023775051            7 
 2672000   0.82266117   -7.2765121    770.54655  0.024031516  0.023768077            5 
 2673000   0.84439164   -7.3067031    769.24749  0.023982027  0.023761123            3 
 2674000   0.83192699   -7.2858726    771.40459  0.024040283  0.023754172            5 
 2675000   0.82489968   -7.2683844    769.36106  0.023967634  0.023747228            9 
 2676000   0.84996583   -7.2440583    774.47906  0.024118057  0.023740317            5 
 2677000   0.81476488   -7.3051644    769.28619  0.023947397  0.023733373            2 
 2678000   0.81290548   -7.2717852    773.26227  0.024062182  0.023726418            5 
 2679000   0.79702206   -7.2474603    771.17806  0.023988368  0.023719469            8 
 2680000   0.81912891   -7.2610006    771.25097  0.023981684   0.02371254            3 
 2681000   0.80744007   -7.2572759    771.83144  0.023990782  0.023705573            9 
 2682000   0.81762697   -7.2998489    772.60783   0.02400596  0.023698615            6 
 2683000   0.81417511   -7.2805243    771.09546  0.023950039  0.023691631            6 
 2684000   0.81982785   -7.2724685    770.14538  0.023911618  0.023684632            5 
 2685000   0.80944658   -7.2805738    772.37861  0.023972024  0.023677648            3 
 2686000   0.85326023   -7.2741281    772.93185  0.023980263  0.023670695            7 
 2687000   0.79868397   -7.2641188    772.56129  0.023959847  0.023663757            3 
 2688000   0.81678629   -7.2843629    772.88264  0.023960895  0.023656818            3 
 2689000   0.81616821   -7.2701149     770.2001  0.023868852  0.023649853            7 
 2690000   0.82525417   -7.2780936    772.43832  0.023929316  0.023642906            6 
 2691000   0.82108717   -7.2743378    772.62169  0.023926102  0.023635968            3 
 2692000   0.81048539   -7.2959623    773.02294  0.023929635  0.023629049            4 
 2693000   0.80969419   -7.2866357    774.17078  0.023956269  0.023622147            6 
 2694000   0.81004695   -7.3292543    772.49133  0.023895426  0.023615193            6 
 2695000   0.83278821   -7.2893593    772.35184  0.023882246  0.023608265            4 
 2696000   0.81477533   -7.2901707    771.11002  0.023835003  0.023601329            5 
 2697000   0.82699392   -7.3025843    771.58906  0.023840967  0.023594394            4 
 2698000   0.82017452   -7.3166365    773.32707  0.023885813  0.023587461            3 
 2699000   0.81675743   -7.2748458    771.67372  0.023825914  0.023580542            5 
 2700000   0.81700212   -7.2852797     773.0956  0.023860975  0.023573629            6 
 2701000   0.81861696   -7.2987499    773.70706  0.023871006  0.023566707            7 
 2702000   0.81891504   -7.3116405     772.8029  0.023834286  0.023559735            7 
 2703000   0.81312809   -7.2772775    774.80627  0.023887233  0.023552778           11 
 2704000   0.83705972   -7.2936897    773.15359  0.023827465   0.02354588            4 
 2705000   0.82283789   -7.2628864    773.55742  0.023831097  0.023538957            2 
 2706000   0.81773839   -7.2818754    774.54366  0.023852663  0.023532016            4 
 2707000   0.83611567   -7.2585311    772.50161  0.023780988  0.023525076            9 
 2708000   0.83042068   -7.2985635    772.26518   0.02376493  0.023518136            4 
 2709000   0.80938955   -7.2890789    773.13721  0.023782983  0.023511208            2 
 2710000   0.81305609    -7.299579    772.89191  0.023766664  0.023504269            8 
 2711000   0.80198224   -7.2842118    773.41324  0.023773922  0.023497265            7 
 2712000   0.82386119   -7.2956711    773.43752  0.023765902  0.023490308            5 
 2713000   0.82506062    -7.286461    774.37163  0.023785835  0.023483374            5 
 2714000   0.83272528   -7.2756666    774.59201  0.023783837  0.023476449            4 
 2715000   0.80168762   -7.2986209    772.63031  0.023714865   0.02346953            2 
 2716000   0.83515424   -7.2850483    774.38921  0.023760101  0.023462583            4 
 2717000   0.80339387   -7.3051886     774.0547  0.023741096  0.023455651            3 
 2718000   0.82398963   -7.2916774    773.45118  0.023713858  0.023448723            8 
 2719000   0.79352714   -7.3085965    774.05579  0.023723667  0.023441778            4 
 2720000   0.79215875   -7.3008821    776.82779  0.023799871  0.023434845            5 
 2721000   0.81773019   -7.2631766    775.90685   0.02376292  0.023427921            5 
 2722000   0.82325097   -7.2809657     775.4949  0.023741578   0.02342103            4 
 2723000   0.83799029   -7.3008485    774.87485  0.023713883  0.023414105            4 
 2724000   0.81243071   -7.2788162    776.43096  0.023752783  0.023407245            3 
 2725000   0.82610726   -7.2836977    778.38203  0.023803732  0.023400395            5 
 2726000   0.82287268   -7.3194018    775.25736  0.023699479  0.023393558            6 
 2727000   0.82678909   -7.2826604    776.64278  0.023733125  0.023386725            3 
 2728000   0.81681634   -7.2830902    773.82125  0.023638235  0.023379886            4 
 2729000   0.82205146   -7.2748367    777.15003  0.023731221  0.023373035            4 
 2730000   0.82306075   -7.3034403    775.45437  0.023670768  0.023366146            5 
 2731000   0.82452518     -7.30059    775.52802  0.023664348   0.02335924            4 
 2732000   0.80255673   -7.3186108    776.42605  0.023683079   0.02335234            5 
 2733000    0.8127512   -7.3002739    776.14963  0.023665985   0.02334548            4 
 2734000   0.82561545    -7.319619    775.99424  0.023652592  0.023338589            4 
 2735000   0.80549047   -7.3206744     775.7895  0.023637706  0.023331735            4 
 2736000   0.82385378   -7.3180493    776.87341   0.02366208   0.02332489            6 
 2737000   0.81887771   -7.2936072    777.69153  0.023678344  0.023318069            5 
 2738000    0.8276642   -7.2692146    778.42118  0.023691904  0.023311275            6 
 2739000   0.82225708   -7.2909594    778.55018  0.023687178  0.023304454            4 
 2740000   0.81527241   -7.2905507    776.01045  0.023601291   0.02329765            7 
 2741000   0.82525349   -7.3338345    777.79059  0.023646801  0.023290864            7 
 2742000   0.78904679   -7.3095726    777.46643  0.023628326   0.02328407            6 
 2743000   0.81423256   -7.3344819      777.943   0.02363419  0.023277242            3 
 2744000   0.82618394   -7.3114663    776.38512  0.023578265   0.02327041            4 
 2745000   0.81474285   -7.2686425    776.91516  0.023585767  0.023263573            5 
 2746000   0.81966065   -7.3002384    778.23632  0.023617271  0.023256792            5 
 2747000   0.80541438   -7.3025853    776.94882  0.023569616  0.023249991            6 
 2748000   0.81268791   -7.2985543    779.18136  0.023628741  0.023243195            4 
 2749000     0.825642   -7.2986331     777.5801  0.023571605   0.02323643            4 
 2750000   0.80820295    -7.254651    779.24877  0.023613599  0.023229707           10 
 2751000   0.81411485   -7.3064926    778.28579  0.023575845  0.023222953            4 
 2752000   0.80763351   -7.3019633    779.12423  0.023592667  0.023216155            7 
 2753000    0.8000337   -7.2798183      779.266  0.023588388  0.023209376            6 
 2754000   0.80015163    -7.359558     778.5791  0.023559038   0.02320257            5 
 2755000   0.81364876   -7.3201243    777.72555  0.023524669  0.023195783           13 
 2756000   0.79327405   -7.3282209    778.71257  0.023545977  0.023188968            4 
 2757000   0.81284594   -7.2956043     779.7356  0.023568359  0.023182194            8 
 2758000    0.8118918   -7.2928202     779.6795  0.023558119  0.023175428            7 
 2759000   0.78572583   -7.3160576    779.40278  0.023541222  0.023168643            3 
 2760000   0.79026052   -7.2972006    779.46018  0.023534426  0.023161859            8 
 2761000   0.81010401   -7.3285523    777.74073  0.023474005   0.02315507            7 
 2762000   0.83089108   -7.3226662     777.4298  0.023456125   0.02314827            3 
 2763000   0.80463561   -7.3147981    778.35827  0.023475638   0.02314147            7 
 2764000   0.80455809   -7.3125103    779.75888  0.023509373  0.023134693            7 
 2765000   0.81505971   -7.3073643    778.22612  0.023454675  0.023127915            5 
 2766000   0.79461814   -7.2912058    779.52983  0.023485473  0.023121176            4 
 2767000    0.8130473   -7.2988988    779.38937  0.023472756  0.023114446            8 
 2768000   0.81883656   -7.3157773    779.97372  0.023481868    0.0231077            5 
 2769000   0.82519465   -7.3040569    780.77941  0.023497635  0.023100957           13 
 2770000   0.81011441   -7.3102035    781.31336  0.023505215   0.02309425            3 
 2771000   0.81002197   -7.3133765    782.16578  0.023522368  0.023087527            3 
 2772000   0.78617011   -7.3118778    779.66115  0.023438587  0.023080834            5 
 2773000   0.80647744   -7.3052471    780.87746  0.023466687  0.023074103            8 
 2774000   0.81797899   -7.2977528    779.92176  0.023429517  0.023067405            9 
 2775000    0.8015834   -7.3271911    781.13105  0.023457389   0.02306068            4 
 2776000   0.80515127   -7.3248423    781.53862  0.023461174   0.02305395            9 
 2777000   0.83823607   -7.3150245    781.70072   0.02345759  0.023047267            7 
 2778000   0.81771277    -7.324716    780.83529  0.023423185  0.023040578           10 
 2779000   0.80917821   -7.3139379    781.14813  0.023424137  0.023033915            3 
 2780000   0.81095894   -7.2957504    782.51231  0.023456604  0.023027208            3 
 2781000    0.7865382   -7.3387047    782.70171  0.023453845  0.023020539            4 
 2782000   0.82473642   -7.2847407    781.51931  0.023409996  0.023013904            3 
 2783000   0.80467359   -7.3302944     781.0392  0.023387208  0.023007263            5 
 2784000   0.81171404   -7.3109251    781.31305  0.023387005  0.023000581            5 
 2785000   0.80622575    -7.294407     781.0759  0.023371511  0.022993907            7 
 2786000   0.79954507   -7.2906633    782.97096  0.023419806  0.022987221            6 
 2787000   0.78534961   -7.3206902    781.30296  0.023361528  0.022980536            4 
 2788000   0.79023949   -7.3036525    781.76079  0.023366834  0.022973822            7 
 2789000   0.79895544   -7.3036037    782.02793  0.023366437  0.022967158            6 
 2790000    0.8143434   -7.3269772    780.51252  0.023312799  0.022960501            5 
 2791000   0.80023742   -7.3443364     782.3367  0.023358912  0.022953852            6 
 2792000   0.80131575   -7.3157233     782.1029  0.023343568   0.02294724            3 
 2793000   0.79096664   -7.3311133    783.07403  0.023364185  0.022940631            4 
 2794000   0.82006431   -7.3358325    783.14141  0.023357833  0.022934036            4 
 2795000   0.80303461   -7.3047005    783.27071  0.023353331  0.022927427           11 
 2796000   0.81017814    -7.331729    783.86062   0.02336256  0.022920833            3 
 2797000   0.80726272   -7.3307393    782.98582  0.023328144  0.022914206            7 
 2798000   0.79116566   -7.2943557    782.24011  0.023297597  0.022907589            5 
 2799000   0.82165083   -7.3514903    783.25042  0.023319353  0.022900982            3 
 2800000   0.82021839   -7.3244051     783.9161  0.023330836   0.02289433            7 
 2801000    0.7857838   -7.3391876    781.83278  0.023260525  0.022887669            4 
 2802000   0.79560963   -7.3439589    781.11268  0.023230808  0.022880991            9 
 2803000   0.79914561   -7.2870526    784.18725  0.023313927  0.022874297            4 
 2804000    0.8105991   -7.3178592    784.59884  0.023317845  0.022867629            6 
 2805000   0.80786712    -7.312791    782.97543  0.023261302  0.022860995            5 
 2806000   0.79765796   -7.3209496    783.81914  0.023278069  0.022854324            4 
 2807000   0.78585492   -7.3634086    782.98443  0.023244996   0.02284766            4 
 2808000   0.78421616   -7.3291056    782.11837  0.023211015  0.022840991            4 
 2809000   0.80367061     -7.31165    785.37667  0.023299415  0.022834307            6 
 2810000   0.80153482   -7.3494852    782.64275  0.023210046  0.022827616            3 
 2811000   0.80200461   -7.3480717    782.80725  0.023206666  0.022820933            3 
 2812000   0.78014974   -7.3433938    783.41304  0.023216365  0.022814232            5 
 2813000   0.81042453   -7.3186662    783.59775  0.023213584   0.02280753            6 
 2814000   0.81271036   -7.3294284    783.19279  0.023193342  0.022800882            4 
 2815000   0.79676477   -7.3082701     781.6937  0.023140725  0.022794213            4 
 2816000   0.78787993    -7.323473    783.24904  0.023178535  0.022787537            2 
 2817000    0.7923511   -7.2990768    784.00592  0.023192697   0.02278087            5 
 2818000    0.8004293   -7.3274601     783.8166  0.023178868  0.022774187            3 
 2819000   0.78591502   -7.3492126    782.21926  0.023123426  0.022767459            6 
 2820000    0.7859492   -7.3254014    783.83307  0.023162916  0.022760774            5 
 2821000   0.81087592   -7.3501451    782.32554  0.023110172  0.022754056            4 
 2822000   0.82075404   -7.3462898    783.99258   0.02315121  0.022747377            4 
 2823000   0.80659247   -7.3116694    784.78683  0.023166455  0.022740731            4 
 2824000   0.79537012   -7.3139095    784.14117  0.023139199  0.022734075            5 
 2825000   0.78427197   -7.3044921    784.04422  0.023128148  0.022727414            4 
 2826000   0.80156549    -7.345893    784.31497  0.023127948  0.022720751            4 
 2827000   0.82746651   -7.3391554    785.21655  0.023146343  0.022714121            7 
 2828000   0.80661052    -7.302921    784.83849  0.023127018   0.02270747            7 
 2829000   0.79983863   -7.3331291    783.32852  0.023074364  0.022700821            3 
 2830000   0.80950783   -7.3428969    781.78281  0.023020695  0.022694156            4 
 2831000   0.81295979   -7.3290277    785.27923  0.023115484  0.022687501            6 
 2832000   0.81700164   -7.3233605    785.55859  0.023115542  0.022680863            5 
 2833000   0.80514473   -7.3763427    784.46067  0.023075087  0.022674211            5 
 2834000   0.79639378    -7.311441    784.92189  0.023080507  0.022667589            7 
 2835000   0.80276065   -7.3494553    783.89076  0.023042056  0.022660953            3 
 2836000   0.80239268    -7.378222     784.6819  0.023057178    0.0226543            5 
 2837000   0.79275439   -7.3219028    785.14867  0.023062762  0.022647681           17 
 2838000   0.80196151   -7.3214702    785.54749  0.023066346  0.022641084            9 
 2839000   0.78401911   -7.3564292     784.4217  0.023025176  0.022634457            4 
 2840000   0.78247435   -7.3383523    786.40086  0.023075143  0.022627836            9 
 2841000   0.79755729   -7.3408617     785.4435  0.023038939  0.022621185            4 
 2842000   0.81024709   -7.3203757    786.55288  0.023063361  0.022614589            3 
 2843000   0.80237877   -7.3304752    787.41819  0.023080613  0.022607976            3 
 2844000   0.78780347   -7.3507708    786.46066   0.02304444  0.022601414            3 
 2845000   0.79962264   -7.3611376    786.64077  0.023041616  0.022594827            3 
 2846000   0.78868228   -7.3376698    787.13288  0.023047929  0.022588249            4 
 2847000   0.79394665   -7.3749404    785.77101  0.022999971  0.022581643            8 
 2848000   0.79554909   -7.3020595     789.1641  0.023091178  0.022575054            4 
 2849000   0.79782185    -7.334198    788.23757  0.023055972  0.022568481            6 
 2850000   0.79117652   -7.3456965    785.98645   0.02298206  0.022561912            9 
 2851000    0.7782583   -7.3308566    788.07604  0.023035077  0.022555334            4 
 2852000   0.78407013   -7.3484516    787.17621  0.023000707  0.022548775            7 
 2853000    0.8033688   -7.3212778    786.24817  0.022965538  0.022542219            4 
 2854000   0.78445562   -7.3513752    787.47009   0.02299317  0.022535718            3 
 2855000   0.79325175   -7.3365664    785.91684  0.022939779  0.022529147            6 
 2856000   0.78766216   -7.3354467    786.50054  0.022948778  0.022522554            9 
 2857000    0.7916612   -7.3227996    787.61332  0.022973204  0.022515948            3 
 2858000   0.79463408   -7.3553747    786.71798  0.022939059  0.022509412            4 
 2859000   0.78643904    -7.342783    787.37564  0.022950205  0.022502862            2 
 2860000   0.77714204   -7.3556257    787.24954  0.022938506  0.022496333            5 
 2861000   0.79096843   -7.3538694    787.82026  0.022947112  0.022489771            4 
 2862000   0.77897032    -7.340725    785.56809  0.022873518  0.022483216            3 
 2863000   0.78906923   -7.3605216    788.27854  0.022944421  0.022476685            4 
 2864000    0.8004485   -7.3568693    786.66944   0.02288959  0.022470132            4 
 2865000    0.7865757   -7.3517525    784.75218  0.022825834   0.02246355            4 
 2866000   0.79494772   -7.3392398    788.09178  0.022914974  0.022456975            6 
 2867000   0.78538972   -7.3385462    786.22929  0.022852845    0.0224504            6 
 2868000   0.81447459   -7.3417208    788.60305   0.02291385  0.022443833            7 
 2869000    0.7960049   -7.3409737    787.83745  0.022883625  0.022437294            3 
 2870000   0.79070326   -7.3386357     788.2797  0.022888493  0.022430813            4 
 2871000     0.789911   -7.3188709    788.39099  0.022883751  0.022424289            5 
 2872000   0.78104248   -7.3627826    787.91131  0.022861865  0.022417799            6 
 2873000   0.82535856   -7.3468954    788.51983  0.022871558  0.022411304            5 
 2874000   0.78850306   -7.3500955    786.89466  0.022816477  0.022404734            4 
 2875000   0.79875187   -7.3886435    786.38559  0.022793785  0.022398128            4 
 2876000   0.80120436   -7.3606143    788.72174  0.022853551  0.022391536            3 
 2877000   0.77991524   -7.3613774    787.59776  0.022813051   0.02238502            3 
 2878000   0.79736009   -7.3442363    788.75539  0.022838643  0.022378479            4 
 2879000   0.78803266   -7.3260221    789.15734  0.022842345  0.022371938            5 
 2880000    0.7900594   -7.3541734    789.48681  0.022843947  0.022365419           11 
 2881000   0.80607085   -7.3522663    788.83061  0.022817037  0.022358895           10 
 2882000   0.79154557   -7.3550408    789.62862  0.022832195  0.022352379            4 
 2883000   0.77718374   -7.3605174    788.88133  0.022802674   0.02234586            4 
 2884000   0.79306607   -7.3723573    786.88955  0.022737215  0.022339307            6 
 2885000   0.77507542   -7.3482882    788.68082  0.022781075  0.022332771            4 
 2886000   0.78161446    -7.356155    787.68826  0.022744521  0.022326245            6 
 2887000   0.77149282   -7.3700269     788.8549  0.022770318  0.022319737            7 
 2888000   0.79181981   -7.3738462    789.57703  0.022783271  0.022313212           10 
 2889000   0.80838792   -7.3759045    788.37964  0.022740846  0.022306661            8 
 2890000   0.78905686   -7.3610512    787.98985  0.022721737  0.022300105            7 
 2891000   0.79704361   -7.3638114    788.00458  0.022714302  0.022293554            8 
 2892000    0.7973811   -7.3504128    787.35151   0.02268763  0.022286979            8 
 2893000    0.8049173   -7.3505017    789.28794  0.022735567  0.022280421           13 
 2894000   0.77914979   -7.3479858    790.35045  0.022758306  0.022273907            5 
 2895000   0.77848684   -7.4012697    789.33456  0.022721202  0.022267365            5 
 2896000   0.81149056   -7.3735617    789.33693  0.022713425  0.022260801            2 
 2897000   0.77583746   -7.3401562    789.90284  0.022721863  0.022254294            4 
 2898000   0.77276226   -7.3499926    790.99578   0.02274545  0.022247838            3 
 2899000   0.78749919   -7.3602334    790.95272  0.022736367  0.022241373            5 
 2900000   0.77277243    -7.338677    791.38176  0.022740855  0.022234897            4 
 2901000   0.79973524   -7.3579104    790.64578  0.022711875   0.02222842           11 
 2902000   0.80186183   -7.3848311    789.27373  0.022664649  0.022221913            6 
 2903000   0.78117579   -7.3575905    789.56696  0.022665259  0.022215431            6 
 2904000   0.77256258   -7.3485007    790.67319  0.022689198  0.022208978            7 
 2905000   0.78636989   -7.3643924    789.10707  0.022636462  0.022202543            4 
 2906000   0.77005602   -7.3849122    790.99371  0.022682774  0.022196085            6 
 2907000   0.78390439   -7.3695175    790.99047  0.022674879  0.022189641            5 
 2908000   0.77905854      -7.3426    791.26982  0.022675086  0.022183188            5 
 2909000     0.787827   -7.3474366    789.37977  0.022613148  0.022176693            5 
 2910000   0.78354809   -7.3562359    790.24896  0.022630268  0.022170223            6 
 2911000   0.77363112   -7.3578627    789.75899  0.022608468  0.022163763            9 
 2912000   0.77817133   -7.3533232    792.67193  0.022684064  0.022157294            4 
 2913000   0.78510135   -7.3444862    791.21769  0.022634675  0.022150789            6 
 2914000   0.81191959   -7.3572485    790.53236  0.022607308   0.02214429            2 
 2915000   0.78457496   -7.3520627    790.08653  0.022586808  0.022137803            6 
 2916000   0.78671423   -7.3659426     789.7338  0.022568982  0.022131283            3 
 2917000   0.78460944   -7.3641793    789.75761  0.022561925  0.022124774            4 
 2918000   0.78190492   -7.3437963    791.67655  0.022608995  0.022118303            5 
 2919000   0.77595589   -7.3390409    791.56374  0.022598028   0.02211184           14 
 2920000   0.76927186    -7.373552    789.88096  0.022542265  0.022105351            4 
 2921000   0.77903219   -7.3745832    790.63196  0.022555973  0.022098858            3 
 2922000   0.79851738   -7.3832129    791.57977  0.022575284  0.022092348            7 
 2923000    0.7799695   -7.3639325    790.66398  0.022541452  0.022085854            9 
 2924000   0.78868701   -7.3690628    792.31043  0.022580667  0.022079377            7 
 2925000    0.7819701   -7.3677884    792.84626  0.022588213  0.022072949            4 
 2926000    0.7892893   -7.3750826    792.41142  0.022568108  0.022066472            5 
 2927000   0.81324161   -7.3581824       793.36  0.022587405  0.022060041            3 
 2928000   0.79445666   -7.3341554    793.30355  0.022578084  0.022053614           13 
 2929000     0.779876   -7.3592561    792.01639  0.022533754  0.022047194            6 
 2930000   0.76925444   -7.3548385    793.54567  0.022569558  0.022040751            7 
 2931000   0.79026042   -7.3572646    792.88788  0.022543156  0.022034342            4 
 2932000   0.76396748   -7.3836692    792.39773  0.022521536  0.022027914            9 
 2933000     0.791166   -7.3699078    793.86402  0.022555518  0.022021498           10 
 2934000   0.77661528    -7.340796    794.68591  0.022571174  0.022015123            6 
 2935000   0.78398737   -7.3644443    793.41782  0.022527479  0.022008712            2 
 2936000    0.7839446   -7.3964788    792.07667   0.02248174  0.022002288            2 
 2937000    0.7814688   -7.3837354    792.60657  0.022489121  0.021995858            4 
 2938000   0.76184995   -7.3491535    792.81556  0.022487394  0.021989426            5 
 2939000   0.77484459   -7.3401547    794.05727  0.022514951  0.021983019            5 
 2940000   0.79149928   -7.3629573    791.72387  0.022441153  0.021976595            3 
 2941000    0.7657509     -7.37801    792.18959  0.022446718  0.021970153            5 
 2942000   0.78404685   -7.3832093     790.8687  0.022401674  0.021963675            7 
 2943000   0.79152678   -7.3691696    792.22765  0.022432542  0.021957199            8 
 2944000   0.79790273   -7.4000846    791.97763  0.022417845  0.021950726            5 
 2945000   0.76593378   -7.3809978    791.47388  0.022395979  0.021944276            4 
 2946000   0.78038883   -7.3839876    792.77696  0.022425237   0.02193781            6 
 2947000   0.78706915   -7.3727163    794.21121  0.022458184  0.021931366            3 
 2948000   0.77358175   -7.3613556    792.36857  0.022398478  0.021924923            5 
 2949000   0.79082607   -7.3780917    791.70367  0.022372094  0.021918459            7 
 2950000   0.77001672   -7.3945791    791.87822  0.022369441  0.021911964            5 
 2951000   0.78092838   -7.3981431     792.9933   0.02239335  0.021905467            4 
 2952000   0.78380049   -7.3942878    792.09327  0.022360356  0.021898979            5 
 2953000   0.77405809   -7.3742281    791.19726  0.022327499  0.021892489            5 
 2954000   0.78949082   -7.3829079    793.01777  0.022371298  0.021886001            4 
 2955000    0.7795176   -7.4086134    791.09951  0.022309631  0.021879495            4 
 2956000   0.77888713   -7.3972917    790.62468  0.022288698  0.021872994            7 
 2957000   0.77806352   -7.3860328    793.46428  0.022361185  0.021866522            4 
 2958000   0.78000047   -7.3797351    792.27301  0.022320065  0.021860031            4 
 2959000   0.76522306   -7.3761544    791.67538   0.02229569   0.02185353            6 
 2960000   0.79483732   -7.3642407    791.88872  0.022294164  0.021847044            4 
 2961000    0.7951961   -7.3393213    792.84165  0.022313454  0.021840555            2 
 2962000   0.78372633   -7.3778635    793.13008  0.022314036  0.021834082            7 
 2963000    0.7808691   -7.3914571    791.56044  0.022262359  0.021827632           11 
 2964000   0.77306497   -7.3740208    793.65365  0.022313699  0.021821187            6 
 2965000   0.76498036   -7.3921658    792.01418  0.022260095  0.021814706            5 
 2966000   0.79072962   -7.4035876    791.77779  0.022245948  0.021808198            4 
 2967000   0.77528871   -7.3812467    792.83139  0.022268043  0.021801686            8 
 2968000   0.76131538   -7.3869902    792.55966  0.022252911  0.021795192           12 
 2969000   0.77566979   -7.3759792    793.25393  0.022264902  0.021788704            3 
 2970000   0.76503123   -7.4097017    791.73745  0.022214855  0.021782193            4 
 2971000   0.76925414   -7.4058381    792.74785  0.022235719  0.021775693            3 
 2972000   0.77451331   -7.3943439    793.82356    0.0222584  0.021769212            5 
 2973000   0.77176661   -7.3725721    792.59861  0.022216577  0.021762722            4 
 2974000   0.75692729   -7.3724818    794.72616  0.022268722   0.02175625            4 
 2975000    0.7711808   -7.4038306    792.87109  0.022209274  0.021749793           12 
 2976000   0.76752248   -7.4053347    792.81109  0.022200131  0.021743276           10 
 2977000   0.78448289   -7.3939107    792.10643  0.022172949  0.021736768            5 
 2978000    0.7854676   -7.3711968    794.46419   0.02223148  0.021730296            8 
 2979000   0.76827034   -7.3841007    794.45115  0.022223653  0.021723837            2 
 2980000   0.78262566   -7.3978262    795.61257  0.022248674  0.021717366            3 
 2981000   0.78692252   -7.3810015    794.51707  0.022210586  0.021710873            4 
 2982000   0.76302745   -7.3760546    792.33992  0.022142296  0.021704381            7 
 2983000   0.77866831   -7.3961765    793.18766  0.022158556  0.021697911            7 
 2984000   0.77217425   -7.3784298    795.02445  0.022202425  0.021691427            8 
 2985000   0.77244445   -7.4023568    794.36638  0.022176616  0.021684996            5 
 2986000    0.7621523   -7.3616811    794.43772   0.02217118  0.021678545            3 
 2987000   0.77320933   -7.3660065    795.21413  0.022185418  0.021672128            7 
 2988000   0.78070214    -7.382505    794.40188   0.02215534  0.021665715           13 
 2989000   0.77220861   -7.4316065    793.18086  0.022113886  0.021659278            7 
 2990000   0.77723187   -7.4055296    794.51447  0.022143659  0.021652855            8 
 2991000   0.77622836   -7.3936613    796.27467  0.022185297  0.021646441            5 
 2992000   0.76907217   -7.4054645    794.49925  0.022128433  0.021640011            6 
 2993000   0.77153553   -7.4114554    793.84578  0.022102845  0.021633572            4 
 2994000   0.76132959   -7.3997302    793.27856  0.022079675  0.021627139            6 
 2995000   0.77610049   -7.4058975    796.80632   0.02217046  0.021620709            5 
 2996000   0.77280401   -7.4148731    795.09283  0.022115399  0.021614284           16 
 2997000   0.77226705   -7.3931194    795.54785  0.022120672  0.021607865           18 
 2998000   0.77514595   -7.4035975    794.82071  0.022093082  0.021601494           13 
 2999000   0.75747184   -7.3957578    794.50251  0.022076873  0.021595115           15 
 3000000   0.76747949    -7.395672    795.29363   0.02209149  0.021588726            6 
 3001000   0.77067722   -7.3978394    793.59297  0.022036903  0.021582339            8 
 3002000   0.77091963   -7.4152927    796.82481  0.022119276  0.021575975            9 
 3003000    0.7751282   -7.3767543    796.87735  0.022113369  0.021569591           17 
 3004000   0.77615876   -7.4018612    795.51796  0.022068297  0.021563242            3 
 3005000   0.77065192   -7.4063313    795.88335  0.022071086   0.02155685            4 
 3006000   0.77728614   -7.3814555    795.61725  0.022056366  0.021550474            4 
 3007000   0.77564668   -7.3904278    796.14976  0.022063789  0.021544123            7 
 3008000   0.76079336   -7.4129689    795.31324  0.022033279  0.021537757           10 
 3009000   0.76362197   -7.3692352    797.47953  0.022085951  0.021531417            5 
 3010000   0.79172807   -7.3838322    796.85971  0.022061454  0.021525119            5 
 3011000   0.76170778    -7.386365    797.73578  0.022078373  0.021518833            4 
 3012000   0.77233554   -7.4191208    795.04477  0.021996591  0.021512497            4 
 3013000    0.7844365   -7.4419482    795.10766  0.021991029  0.021506134            9 
 3014000   0.77087717   -7.4132287    796.57455  0.022024291  0.021499759            6 
 3015000   0.78770667   -7.3922634    797.32592  0.022037754   0.02149342            9 
 3016000   0.78141558   -7.3901016    797.08239  0.022023718  0.021487062            6 
 3017000   0.76590925   -7.4156073     797.5733  0.022029977  0.021480695            9 
 3018000   0.77232214   -7.4147451    797.10062  0.022009626  0.021474342           13 
 3019000   0.77963656    -7.428953    795.70185  0.021963726  0.021467969            7 
 3020000   0.77265739   -7.4107156    797.43327  0.022004229  0.021461594            7 
 3021000    0.7581912   -7.3908535    795.49539   0.02194349  0.021455246            7 
 3022000   0.77505489   -7.4216644    795.07587   0.02192466  0.021448894           12 
 3023000   0.75794142   -7.3676409    797.98305  0.021997548  0.021442598           16 
 3024000    0.7663107   -7.4315976    797.51068  0.021977256   0.02143629            3 
 3025000   0.76987588   -7.3973572    798.65316  0.022001464  0.021429945            7 
 3026000   0.76017629   -7.4069367    795.52659  0.021908091  0.021423596            7 
 3027000   0.74879011   -7.4191534    796.75661  0.021934716  0.021417249            7 
 3028000    0.7559662    -7.399863    797.58272  0.021950207  0.021410896           13 
 3029000    0.7698589   -7.4225894    798.07233   0.02195643   0.02140455           12 
 3030000   0.76193197    -7.393247      798.049  0.021948542  0.021398219           11 
 3031000   0.77198885   -7.4100049    798.28221  0.021947713  0.021391898           10 
 3032000   0.76809334   -7.4050831      798.076  0.021934807  0.021385573            4 
 3033000    0.7589124   -7.4059523    796.38288  0.021881055  0.021379253            8 
 3034000   0.77264455   -7.4052391     799.1258  0.021949182  0.021372941            6 
 3035000   0.77016962   -7.3834353    801.45042  0.022005778  0.021366642            2 
 3036000   0.76322804   -7.4237489    797.17106  0.021881068  0.021360356            4 
 3037000   0.77059527   -7.3830874    797.89826  0.021893817  0.021354051            6 
 3038000   0.76149897   -7.4094304    797.37518  0.021872262  0.021347734            4 
 3039000   0.77274891   -7.3990036    799.25367  0.021916575  0.021341409            3 
 3040000   0.76712536   -7.4174701    797.56997  0.021863212  0.021335098            6 
 3041000   0.78794191   -7.4062897    797.32304  0.021849256  0.021328794            4 
 3042000   0.77347976   -7.3916544    796.87714  0.021829858  0.021322476            7 
 3043000   0.77066453   -7.4192027    799.10218  0.021883618  0.021316131            9 
 3044000   0.75988658   -7.4112356     797.3702  0.021829013  0.021309787            3 
 3045000   0.74786767   -7.3896875    799.28132  0.021874147   0.02130347            6 
 3046000   0.76403328   -7.4164062     798.7828  0.021853327  0.021297188            7 
 3047000   0.75522945   -7.4176807    798.74587  0.021845145  0.021290895           11 
 3048000   0.76182284   -7.4133193    796.70328  0.021782132  0.021284587            5 
 3049000   0.77525679   -7.4119164    796.97169  0.021782324  0.021278261            4 
 3050000   0.76860732   -7.4333805     795.9439  0.021747101  0.021271939            8 
 3051000   0.75438238   -7.4216949    798.07603  0.021798209  0.021265576            5 
 3052000   0.73980136   -7.4169401    796.28686  0.021742214  0.021259227            3 
 3053000   0.77098977   -7.4049068    798.82509  0.021804375  0.021252898            6 
 3054000    0.7664712    -7.415619     797.6538  0.021765275  0.021246595           13 
 3055000   0.77340913   -7.4155666     800.9155  0.021847122  0.021240281            5 
 3056000   0.75970668   -7.4149043    799.69737  0.021806756  0.021233974            4 
 3057000   0.77497896   -7.4227841    801.54604  0.021850017  0.021227688            6 
 3058000    0.7704064   -7.4065461    797.89362   0.02174334  0.021221417            6 
 3059000   0.74528636   -7.4209764    798.77532  0.021760252  0.021215146            9 
 3060000   0.74654764   -7.4390833    796.50306   0.02169126  0.021208824            6 
 3061000   0.74739434   -7.4292412    798.87943  0.021748868    0.0212025            3 
 3062000   0.76186089   -7.4266793    799.50551  0.021758805  0.021196191            3 
 3063000    0.7574502   -7.4484681    797.72889  0.021703365  0.021189874           13 
 3064000   0.75661324   -7.4100063    801.87451  0.021809033  0.021183571           10 
 3065000   0.74836578    -7.399841    797.91213  0.021694185  0.021177286            9 
 3066000   0.74227594   -7.4282096    797.88512  0.021686375  0.021170992            7 
 3067000   0.77733244   -7.4346873    797.43887  0.021667179  0.021164678            4 
 3068000   0.75538952   -7.4429663    797.88949  0.021672357  0.021158364            4 
 3069000   0.77211962   -7.4511789    796.73022  0.021633817  0.021152027            6 
 3070000   0.78322064   -7.4373147    797.70378  0.021653197  0.021145704            8 
 3071000   0.74659038   -7.4399767    798.83544  0.021676854  0.021139355            8 
 3072000   0.76408156    -7.425144    799.26046  0.021681328  0.021133042            6 
 3073000   0.76241009   -7.4328655    798.81082  0.021662079  0.021126767            8 
 3074000   0.76612048   -7.4114188     799.6552  0.021677922  0.021120458            6 
 3075000   0.74328975   -7.4120701    799.38792  0.021663629   0.02111418            6 
 3076000   0.76221403   -7.4185739    798.55466  0.021634012  0.021107876            7 
 3077000   0.75709309   -7.4437325    797.81157  0.021606856  0.021101541            8 
 3078000   0.77132214   -7.4306938     799.6967  0.021650875  0.021095238            2 
 3079000   0.75743498   -7.4277663    800.84612  0.021674952  0.021088937            2 
 3080000   0.76382713   -7.4386098    798.14643  0.021594871  0.021082621           13 
 3081000   0.75871635   -7.4283651    798.80004   0.02160554  0.021076315            5 
 3082000   0.76753459   -7.4088634    799.87204  0.021627516  0.021070047            8 
 3083000   0.75565126   -7.4235876    798.10642  0.021572776  0.021063783            5 
 3084000   0.75821973   -7.4097103     799.7593  0.021610444  0.021057528           10 
 3085000    0.7674645   -7.3988625     800.5993  0.021626129  0.021051283            6 
 3086000   0.75501967   -7.4226982    801.23748  0.021636354  0.021045061            8 
 3087000   0.77295423   -7.4126949     801.9077  0.021647438  0.021038846            4 
 3088000   0.73213746   -7.4047732    800.91786  0.021613716  0.021032637            4 
 3089000    0.7392174   -7.4196618    800.16087  0.021586297  0.021026413            8 
 3090000   0.73768818   -7.4227662    801.31986  0.021610568  0.021020176            6 
 3091000   0.76028743    -7.411828    801.19916  0.021600323  0.021013917            5 
 3092000   0.73672591   -7.4434835     800.0086  0.021561249  0.021007646            3 
 3093000   0.75206343   -7.4087051    800.91116  0.021578596  0.021001381            4 
 3094000   0.75028403   -7.4452369    801.53592  0.021588449  0.020995115            6 
 3095000   0.75800421   -7.4521632    800.75325    0.0215604  0.020988822            6 
 3096000   0.76342859   -7.4356821    799.50873  0.021519938  0.020982513           10 
 3097000   0.75280937   -7.4398414    800.52038   0.02154021  0.020976194            4 
 3098000   0.75551644   -7.4369603    799.13888  0.021496096  0.020969927            4 
 3099000    0.7471405   -7.4203323    800.72091  0.021531701  0.020963669            5 
 3100000   0.76634421   -7.4204523    800.27743  0.021512834  0.020957394            5 
 3101000   0.76399009   -7.4064572    798.35384  0.021454204  0.020951114            6 
 3102000   0.76053447   -7.4386123    798.23234  0.021444024  0.020944808            9 
 3103000   0.75476327   -7.4224281     799.5102  0.021471431  0.020938481            3 
 3104000   0.76016221   -7.4245266    799.81923   0.02147281  0.020932191            8 
 3105000   0.76124204   -7.4425439     801.9548   0.02152321  0.020925918            9 
 3106000   0.76732473   -7.4259603    800.17684  0.021468578  0.020919628           14 
 3107000   0.74272499   -7.4432804    800.57634  0.021472383  0.020913358            6 
 3108000   0.74546987   -7.4457913    800.67961  0.021468243  0.020907084           10 
 3109000   0.77123234     -7.43011     801.1789  0.021474721  0.020900833            4 
 3110000   0.76453081    -7.452514    799.21681  0.021415241  0.020894593            3 
 3111000   0.75954928   -7.4444106     800.6379  0.021446424  0.020888344            5 
 3112000    0.7367885   -7.4190115    801.16561  0.021453663  0.020882073           11 
 3113000   0.73398709   -7.4309555    801.30621  0.021450536  0.020875822            5 
 3114000   0.76029277   -7.4480798    800.43602   0.02142036  0.020869579            3 
 3115000   0.76604055   -7.4424934    802.27961  0.021462804  0.020863339           10 
 3116000   0.77024362   -7.4206295    802.11793  0.021451592  0.020857122            4 
 3117000   0.73773366   -7.4399762    799.15381  0.021365464  0.020850861            8 
 3118000   0.76539099   -7.4629162    799.88499  0.021378154  0.020844606            6 
 3119000   0.77305784   -7.4335821    801.56709  0.021416242  0.020838359            9 
 3120000   0.75511036    -7.437632    801.21925  0.021400087  0.020832109           14 
 3121000    0.7572189   -7.4190431    800.66732  0.021378493   0.02082585            5 
 3122000   0.74863282   -7.4645509    800.12136  0.021357072  0.020819587            7 
 3123000   0.75059006   -7.4287645    801.01557  0.021374095   0.02081333           12 
 3124000    0.7541038   -7.4358876    798.75761  0.021307021  0.020807051            9 
 3125000   0.77689649   -7.4714249     801.0524  0.021361397  0.020800788            4 
 3126000   0.75322655   -7.4592325    799.90069  0.021323861  0.020794513            7 
 3127000   0.75087662   -7.4362592    800.32493  0.021328348  0.020788247            4 
 3128000   0.74106549   -7.4582109    801.48721  0.021352494  0.020782013            4 
 3129000   0.74644694   -7.4308613    802.08637  0.021361627  0.020775758            4 
 3130000   0.75752256   -7.4535847    801.38158  0.021336038  0.020769535            2 
 3131000   0.75940086   -7.4517882    801.50814  0.021332592  0.020763311            5 
 3132000   0.75234545   -7.4408089    801.93534  0.021337147  0.020757086            6 
 3133000   0.73667547   -7.4393595    799.83385   0.02127444  0.020750866            4 
 3134000   0.74053568   -7.4474609    801.50429  0.021312069  0.020744655            6 
 3135000   0.74214645    -7.436065    801.74711  0.021311725  0.020738449           11 
 3136000   0.73768685    -7.466848    800.19144  0.021263591  0.020732205           11 
 3137000   0.75614603   -7.4350056    802.73711  0.021324437     0.020726            8 
 3138000   0.75673183   -7.4149231     803.2278  0.021330672  0.020719798            4 
 3139000   0.74307485   -7.4402423    802.42727  0.021302625  0.020713567            9 
 3140000   0.74405446   -7.4653461    801.75371  0.021277965  0.020707337            9 
 3141000   0.75290541   -7.4722537    801.98513   0.02127733  0.020701077            4 
 3142000   0.73710917   -7.4646424    800.26035  0.021224813  0.020694802            7 
 3143000   0.74758498   -7.4263957    801.32747  0.021246353   0.02068854            9 
 3144000   0.75420202   -7.4756709    800.26728  0.021211495  0.020682279            3 
 3145000   0.74889883   -7.4616271    800.41585  0.021208687  0.020676024            5 
 3146000   0.74994291   -7.4159993    801.13271  0.021220934  0.020669782            5 
 3147000   0.76060232   -7.4451827    801.16295  0.021214992  0.020663535            4 
 3148000   0.75840717   -7.4738229    801.35959  0.021213458  0.020657255           12 
 3149000   0.73172038   -7.4599226    799.49678  0.021157425  0.020650979           15 
 3150000   0.75632429   -7.4754853    801.91538  0.021214693  0.020644693            8 
 3151000   0.74313102   -7.4474365    803.14108  0.021240376  0.020638416            5 
 3152000   0.73921936   -7.4550496    800.03972  0.021151642  0.020632157            5 
 3153000   0.74365608   -7.4553196    801.78904  0.021191168  0.020625895            5 
 3154000    0.7545989   -7.4641013    801.79505  0.021184608  0.020619654            3 
 3155000   0.74975301    -7.444791    801.85002  0.021179346  0.020613429            7 
 3156000   0.74806965   -7.4789135    801.73902  0.021169704  0.020607194            7 
 3157000   0.74623804   -7.4569816    802.95439  0.021195079  0.020601004            4 
 3158000   0.74148169   -7.4646216    801.90608  0.021160705  0.020594808            5 
 3159000   0.73644361   -7.4389878    802.37409  0.021166352  0.020588606            6 
 3160000   0.74837859   -7.4327255    804.01602  0.021202954  0.020582443            4 
 3161000   0.75722123   -7.4478658    802.24424  0.021149537  0.020576276            5 
 3162000   0.72367811   -7.4546012    802.31336   0.02114467  0.020570096            3 
 3163000   0.74774794   -7.4932499    800.94753  0.021102001  0.020563894            3 
 3164000   0.73903892   -7.4760038    801.93621  0.021121371  0.020557701           18 
 3165000     0.730527   -7.4609283    801.94022  0.021114803  0.020551504            5 
 3166000   0.74389996   -7.4487447    802.29897  0.021117576  0.020545329            6 
 3167000    0.7424823   -7.4579709    802.90368   0.02112682  0.020539172            3 
 3168000   0.72289941   -7.4799276    802.97693  0.021122078  0.020532987            5 
 3169000    0.7406575   -7.4470471    802.61566  0.021105913   0.02052685            5 
 3170000   0.73356348   -7.4347949    803.93012   0.02113381  0.020520715            4 
 3171000   0.73938043    -7.446509     803.5964  0.021118375  0.020514578           12 
 3172000   0.75697287   -7.4355091    805.72898  0.021167743  0.020508434            6 
 3173000   0.75754121   -7.4633668    804.86068  0.021138268   0.02050233            3 
 3174000   0.74013258    -7.461678      803.658  0.021100031  0.020496222            5 
 3175000    0.7435568    -7.439893    806.66428  0.021172291  0.020490122           13 
 3176000   0.74562314   -7.4658709    804.52005  0.021109363  0.020484014            8 
 3177000   0.74031269   -7.4662857    802.78053  0.021057091  0.020477889            7 
 3178000   0.75847262   -7.4487149    804.85253  0.021104797  0.020471767            2 
 3179000   0.74318875   -7.4614646    804.88441  0.021098994  0.020465652            5 
 3180000   0.72853287   -7.4711199    804.00558  0.021069329  0.020459521            9 
 3181000   0.76278173   -7.4598889    804.36662  0.021072163  0.020453414            5 
 3182000   0.75359753   -7.4694385    804.81597  0.021077309  0.020447298            4 
 3183000   0.75518652   -7.4578178    803.92876   0.02104746  0.020441185            6 
 3184000   0.74980964   -7.4607963    805.31121  0.021077031  0.020435069            7 
 3185000   0.73050998   -7.4459697    804.72508  0.021055078  0.020428981            3 
 3186000   0.75200567   -7.4629487    805.40492  0.021066251  0.020422906            6 
 3187000   0.73780617   -7.4553262    804.35779  0.021032261  0.020416817            6 
 3188000   0.73087176   -7.4578277    806.12743  0.021071922  0.020410699            5 
 3189000   0.73769044   -7.4497188    804.33057  0.021018359    0.0204046            3 
 3190000   0.74769684   -7.4734967    804.73744  0.021022399  0.020398479            3 
 3191000   0.73830838   -7.4665051     805.1994  0.021027875  0.020392385            3 
 3192000   0.73599864   -7.4661948    805.67683  0.021033752  0.020386287            7 
 3193000   0.72775874   -7.4444895     805.9247  0.021033633    0.0203802            7 
 3194000   0.73462297   -7.4674022    805.58472  0.021018178  0.020374151           18 
 3195000   0.74927403   -7.4403567    806.71488  0.021041077  0.020368106            7 
 3196000   0.73262304   -7.4336405    805.59218   0.02100522  0.020362087            8 
 3197000   0.72781763   -7.4353683    807.02502  0.021035998  0.020356053           15 
 3198000   0.73101211   -7.4703091    805.13903  0.020980275  0.020350037            6 
 3199000   0.74859688   -7.4663867    805.89899  0.020993513   0.02034402           12 
 3200000   0.72082465   -7.4735735    807.15248  0.021019596  0.020338002           13 
 3201000   0.73467843   -7.4663852    805.01771  0.020957454  0.020331973           13 
 3202000   0.75514271   -7.4855193     805.3488  0.020959525  0.020325939            7 
 3203000   0.74952805   -7.4926925    809.64432  0.021064739  0.020319918           14 
 3204000   0.72583031   -7.4597589     807.0937  0.020991825  0.020313901           11 
 3205000   0.71989775   -7.4711872     806.4347  0.020968141  0.020307866           12 
 3206000   0.73582409   -7.4615655    807.33344  0.020984961  0.020301828           14 
 3207000   0.72076824   -7.4712322    807.03103   0.02097056  0.020295804           19 
 3208000   0.73838115   -7.4663969    807.04565  0.020964403  0.020289777           10 
 3209000    0.7428919   -7.4539572    806.65876  0.020947823  0.020283774            9 
 3210000   0.73664358   -7.4760581    806.97056  0.020949392  0.020277783            8 
 3211000   0.73957935   -7.4936926     806.5927  0.020933061  0.020271759            5 
 3212000   0.74291026   -7.4747847    806.38224  0.020921083  0.020265724            4 
 3213000   0.74818235   -7.4600077    806.67759  0.020922232  0.020259696            4 
 3214000    0.7253315   -7.4744362    804.46276  0.020858296  0.020253663            8 
 3215000   0.73538281   -7.5017923    805.57657  0.020880678  0.020247645            8 
 3216000   0.74507189   -7.4692819    807.24548  0.020917431  0.020241628            5 
 3217000   0.73617622   -7.4676092    807.27328  0.020911648  0.020235625            8 
 3218000   0.74156354   -7.4662362    807.70606  0.020916357  0.020229612            4 
 3219000   0.72979782   -7.4325862     808.7351  0.020936499  0.020223627            9 
 3220000   0.72651992   -7.4648347    806.61988  0.020875256  0.020217647            4 
 3221000    0.7209038   -7.4741603    807.89201  0.020901687  0.020211655            5 
 3222000   0.73373551   -7.4806751    807.27883  0.020879341  0.020205663            4 
 3223000   0.73784347   -7.4512709    808.55923  0.020905968   0.02019967            5 
 3224000   0.73440344   -7.4643211    807.01108  0.020859468  0.020193673            9 
 3225000   0.71624874   -7.4551484    807.83097  0.020874185  0.020187669            9 
 3226000   0.72352173   -7.4724743    805.45379  0.020806308  0.020181679            9 
 3227000   0.73940156   -7.4487981    807.49288  0.020852517    0.0201757            5 
 3228000   0.74908145   -7.4952491    808.05097  0.020860465  0.020169738            7 
 3229000   0.74983665   -7.4804354    807.12055  0.020829993  0.020163771            4 
 3230000   0.72089475   -7.4678252    810.67924  0.020915357  0.020157819            9 
 3231000   0.72141152   -7.4815838    807.71066  0.020832319  0.020151843            4 
 3232000   0.74018952   -7.5019206    808.38484  0.020843256  0.020145865            9 
 3233000    0.7399275   -7.4984334    807.16196  0.020805288  0.020139894            6 
 3234000   0.73953203   -7.4753491    809.12019  0.020849314  0.020133918            5 
 3235000   0.73257713   -7.4999923    808.43491  0.020825217  0.020127933            8 
 3236000   0.73766514   -7.4887121    807.28465   0.02078916  0.020121954           10 
 3237000   0.72707115   -7.4972547     808.1291  0.020804477  0.020115964            6 
 3238000   0.74143279   -7.4963772    806.51455    0.0207565  0.020109961            8 
 3239000   0.74019635   -7.4831263    808.47463   0.02080052  0.020103932            9 
 3240000    0.7311252   -7.4771571    806.85845  0.020752532  0.020097914            4 
 3241000   0.72698803   -7.4603749    807.15417  0.020753733  0.020091916            5 
 3242000   0.73171688   -7.4505672    808.50281  0.020781997  0.020085936            7 
 3243000   0.74667332   -7.4557374    808.01341  0.020763013  0.020079961            9 
 3244000   0.71525398   -7.5064979    808.13672   0.02075978  0.020073965            4 
 3245000   0.72959945   -7.4862933    807.33809  0.020732873  0.020067986            5 
 3246000   0.73208558   -7.4865618    807.88824   0.02074061  0.020062013            8 
 3247000   0.74716764     -7.48435    807.86749   0.02073369  0.020056013            5 
 3248000   0.73291028   -7.5075195    805.33784  0.020662403  0.020050007            4 
 3249000   0.73735106   -7.4777193     807.7023   0.02071669  0.020044007            4 
 3250000   0.73122947    -7.497754    806.20083  0.020671816  0.020038014            6 
 3251000   0.73373519   -7.4763873    807.66912  0.020703095  0.020032015            8 
 3252000   0.71722458   -7.4950783    808.14576  0.020708942  0.020026018            9 
 3253000   0.71808905   -7.4896498    807.75708  0.020692619  0.020020039           10 
 3254000   0.72115762   -7.5143384    806.54976  0.020655341  0.020014055           10 
 3255000   0.73785324   -7.5026986    807.80782  0.020681204  0.020008056            7 
 3256000   0.73195855   -7.4836502     807.8239  0.020675264  0.020002082            5 
 3257000   0.71013423   -7.5065031    807.72987   0.02066651  0.019996093            4 
 3258000   0.73145499   -7.4911329    807.96678  0.020666226  0.019990102            7 
 3259000   0.73182642   -7.4954201    809.00485  0.020686429  0.019984136            3 
 3260000   0.72421561   -7.4721848    808.34755  0.020663281  0.019978166           10 
 3261000   0.71794142   -7.4871842    808.99951  0.020673605  0.019972207            6 
 3262000   0.72768858   -7.4927192    808.18682  0.020646506  0.019966265           11 
 3263000   0.74727222   -7.4835664    808.96615  0.020660081  0.019960291           12 
 3264000   0.72023096   -7.4965891    806.94241  0.020602084  0.019954323           11 
 3265000   0.73453148   -7.4919341    809.56876  0.020662807  0.019948331            9 
 3266000   0.73742916   -7.4974825    809.37672   0.02065158  0.019942378           25 
 3267000   0.72097159   -7.5020996    808.78765  0.020630233   0.01993641           10 
 3268000   0.71781246   -7.4975109    808.45872  0.020615532  0.019930413            9 
 3269000   0.72413132   -7.4957461     810.0517  0.020649834  0.019924412            6 
 3270000   0.74663687   -7.5330974    805.68992  0.020532363  0.019918397           10 
 3271000   0.72923572   -7.5001772    807.87497  0.020581753  0.019912417            6 
 3272000   0.75282196   -7.5133652    807.50627  0.020566072  0.019906433            7 
 3273000   0.72654729   -7.4885085    807.65855  0.020563666  0.019900449           11 
 3274000   0.72792973   -7.4989363    807.18743  0.020545394  0.019894474           14 
 3275000   0.73110544   -7.4950221    809.79265  0.020605411  0.019888502           12 
 3276000   0.70869555   -7.4814416    808.81324  0.020574207  0.019882536            8 
 3277000   0.71952522   -7.4859622    807.83388  0.020543024  0.019876569           10 
 3278000   0.72327546   -7.4854959    807.44572  0.020526889  0.019870586            2 
 3279000   0.71232853   -7.4868271     808.0695  0.020536482  0.019864613            5 
 3280000   0.72958623   -7.4883485    808.86787  0.020550505   0.01985865            6 
 3281000   0.73074036   -7.5250067    808.58685  0.020537104  0.019852669            5 
 3282000   0.73455218   -7.5060615     808.4462  0.020527275  0.019846706           10 
 3283000   0.73931392   -7.5012374    808.69708  0.020527391  0.019840743            6 
 3284000   0.73731151   -7.4828266     807.6647  0.020494943  0.019834806           10 
 3285000   0.73943682   -7.5108428    807.97405  0.020496551   0.01982886            7 
 3286000   0.73094896    -7.495911     807.1134  0.020468488  0.019822907           11 
 3287000   0.71351851   -7.5110669    809.04646  0.020511268  0.019816939            9 
 3288000    0.7183162   -7.4821775    809.25095  0.020510213  0.019810957            8 
 3289000   0.74361968   -7.5287881     807.8409   0.02046825   0.01980499            8 
 3290000   0.71602409   -7.4771635    808.69213   0.02048359  0.019799033            6 
 3291000   0.70887056   -7.4989878    807.99112  0.020459615  0.019793061            2 
 3292000   0.71577658   -7.5237096     808.1115  0.020456448  0.019787095            7 
 3293000    0.7123489   -7.5369588    808.66816  0.020464322  0.019781099            3 
 3294000   0.72687042   -7.4990444    808.37682  0.020450739  0.019775141            9 
 3295000   0.73013624   -7.5150216    809.46413  0.020472032  0.019769171            8 
 3296000   0.72105331   -7.5304463      807.994  0.020428651  0.019763196            7 
 3297000   0.72687347   -7.5101665    807.35853  0.020406393   0.01975723           19 
 3298000   0.73136385   -7.4870016     809.4657  0.020453449  0.019751261            5 
 3299000    0.7233148   -7.4919737    808.76727  0.020429607  0.019745301           13 
 3300000   0.73354784   -7.4913929    807.28758   0.02038605  0.019739351            6 
 3301000   0.72124896   -7.5192959     808.1208  0.020400909  0.019733386            7 
 3302000   0.69886281   -7.4729803    808.44191  0.020402834  0.019727433            7 
 3303000   0.72023446    -7.505575    808.62611  0.020401305  0.019721471            7 
 3304000   0.72240515   -7.4992269    808.01384  0.020379687  0.019715535            5 
 3305000   0.71449805   -7.5082992    810.34372  0.020432267  0.019709589            4 
 3306000   0.72300411   -7.5090729    808.45168  0.020378395  0.019703654            6 
 3307000   0.72474463   -7.5050354    808.05462  0.020362227  0.019697726            6 
 3308000   0.73184033   -7.5099245    809.41623  0.020390373  0.019691793            7 
 3309000   0.71114775   -7.5012081    808.34962  0.020357349  0.019685878            4 
 3310000   0.72959804   -7.5083803    810.65784  0.020409311   0.01967997            3 
 3311000   0.73853368   -7.4906634    808.76693  0.020355555  0.019674052           11 
 3312000   0.73308452   -7.5168611    809.79877  0.020375372  0.019668131            4 
 3313000   0.72454841   -7.5139273    809.80318  0.020369333  0.019662206            2 
 3314000   0.74223726   -7.5032973    810.22189  0.020373715  0.019656283            6 
 3315000   0.72589854   -7.4896736    810.16459  0.020366129  0.019650368            5 
 3316000   0.72676257   -7.5234262    809.74533   0.02034945  0.019644447           15 
 3317000   0.69991472   -7.4987355     810.3055  0.020357389  0.019638529            6 
 3318000   0.71088799   -7.5063471     809.5762  0.020332936  0.019632613            8 
 3319000   0.72104969   -7.5524038    809.28144   0.02031941   0.01962669            7 
 3320000   0.71974215   -7.5111241    808.88914  0.020303442  0.019620779            7 
 3321000   0.71696608   -7.5113601    808.92733  0.020298287  0.019614841            5 
 3322000   0.72855613   -7.5130135    808.45393  0.020280301  0.019608916            3 
 3323000   0.72029403   -7.5420808    807.94145  0.020261346  0.019603003            7 
 3324000   0.71093387   -7.5060006    809.25032  0.020288065  0.019597058            4 
 3325000   0.72106664   -7.5080758    808.30339   0.02025823  0.019591136            4 
 3326000    0.7131876    -7.540287    809.83602   0.02029054  0.019585222           11 
 3327000   0.71237532   -7.5325797    808.50441  0.020251087  0.019579303            8 
 3328000   0.71794431   -7.5350369    808.68655  0.020249563  0.019573382            3 
 3329000   0.71669374   -7.5531671    808.27198  0.020233103  0.019567431            7 
 3330000   0.72492587    -7.531642    808.54316  0.020233813  0.019561485            8 
 3331000   0.71298694   -7.5484351    808.35307  0.020222983  0.019555541            4 
 3332000   0.70904465   -7.5442645    808.96837  0.020232302  0.019549585            8 
 3333000   0.72616169   -7.5389513     811.1122  0.020279833  0.019543646           23 
 3334000   0.72845996   -7.5457012    808.81254   0.02021627  0.019537698            6 
 3335000   0.72999124   -7.5259231    808.98202  0.020214443   0.01953176           11 
 3336000   0.71722772   -7.5079823     810.8016  0.020253837   0.01952582            7 
 3337000     0.710798   -7.5168191    809.30434  0.020210377  0.019519885            5 
 3338000    0.7102518   -7.5238958    807.91158  0.020169552  0.019513948            4 
 3339000   0.70251706   -7.4966596    811.17139  0.020244869  0.019508019            9 
 3340000   0.71582769   -7.5522961    809.93941  0.020208069  0.019502098            7 
 3341000   0.70754692   -7.5330292    808.60335  0.020168696  0.019496157            8 
 3342000   0.73032595   -7.4987685    809.50415  0.020185122  0.019490227            6 
 3343000   0.73551465   -7.5299393    808.13092  0.020144853  0.019484308            7 
 3344000   0.70659331   -7.5177436    809.25445  0.020166827  0.019478383            6 
 3345000   0.71162687   -7.4917483    810.29664  0.020186762  0.019472484            6 
 3346000   0.71374004   -7.5121271    811.16446  0.020202343  0.019466596            4 
 3347000   0.70970537   -7.5534903    809.39061  0.020152142  0.019460699            6 
 3348000   0.71766159   -7.5196712    806.80312  0.020081718  0.019454778            8 
 3349000   0.71953538   -7.5098712    809.56921  0.020144551  0.019448877            6 
 3350000   0.72074929   -7.5181632    808.37428  0.020108813  0.019442972            6 
 3351000   0.72012749   -7.5512234    809.00542  0.020118507   0.01943707            3 
 3352000   0.73469174   -7.5179198    810.08568  0.020139362  0.019431176            6 
 3353000   0.71104361   -7.5352396    810.36929  0.020140404  0.019425288            5 
 3354000   0.71438049   -7.5038984    810.57498   0.02013951  0.019419416            2 
 3355000   0.71472291   -7.5322666    810.32593  0.020127321  0.019413544           11 
 3356000   0.71837223   -7.4959346    811.40966  0.020148233  0.019407685            8 
 3357000   0.72357661   -7.5232887    810.73732  0.020125542  0.019401858            8 
 3358000   0.72948736   -7.5275218    808.36637   0.02006071  0.019396007           12 
 3359000   0.72428026   -7.5138963    811.05328  0.020121397  0.019390146           11 
 3360000   0.72552183   -7.5406149    810.66619  0.020105808  0.019384293            8 
 3361000   0.72754342   -7.5263298    811.87584  0.020129818  0.019378439            8 
 3362000   0.70436125    -7.558925    811.75135  0.020120745  0.019372575            7 
 3363000   0.71136082   -7.5277369    810.90181  0.020093711  0.019366711           19 
 3364000   0.71296114   -7.5330747     809.0806  0.020042623  0.019360843            8 
 3365000   0.70723846   -7.5172857    810.81223   0.02007955  0.019354994            7 
 3366000   0.69882624   -7.5414899    811.02084  0.020078749  0.019349124           10 
 3367000   0.71220454    -7.534689    810.09433  0.020049855  0.019343263           12 
 3368000   0.71506935   -7.5348424    809.28683  0.020023922  0.019337405            5 
 3369000   0.71059376   -7.5019671    812.31676  0.020092925  0.019331578            9 
 3370000   0.70902592   -7.5124463    810.17278  0.020033946  0.019325762            9 
 3371000   0.71326339   -7.5329963    810.82183  0.020044048  0.019319919            7 
 3372000   0.70147309   -7.4937454    812.05604  0.020068605  0.019314075            8 
 3373000   0.70371937   -7.5071276    812.39304  0.020070981  0.019308236            7 
 3374000   0.70798092   -7.5105339     809.9243  0.020004058    0.0193024            6 
 3375000   0.70514562   -7.5396327     814.2806  0.020105694  0.019296567            7 
 3376000     0.708812   -7.5459011    810.66186  0.020010413  0.019290726           10 
 3377000   0.70803179   -7.5431745    811.94151  0.020036065  0.019284883           10 
 3378000   0.69357571   -7.5523886    810.92997   0.02000518  0.019279026            7 
 3379000   0.71331649   -7.5351008    812.22483  0.020031193  0.019273169           13 
 3380000   0.69897613   -7.5458027    809.36883  0.019954853  0.019267304            9 
 3381000    0.7026149   -7.5087025     810.1993   0.01996942  0.019261456            6 
 3382000   0.70262105   -7.5392823    812.13302  0.020011162  0.019255606            7 
 3383000   0.72057452   -7.5356533    809.95185  0.019951519  0.019249772            8 
 3384000   0.70463266   -7.5405472    809.85294  0.019943187   0.01924393            7 
 3385000   0.71431804   -7.5545217    810.63751   0.01995661   0.01923809            7 
 3386000   0.69433002   -7.5628362    811.66344  0.019975966  0.019232257           11 
 3387000   0.70368118   -7.5400234    809.86329  0.019925777  0.019226433            5 
 3388000   0.71674299   -7.5277972    811.92368  0.019970575  0.019220637            7 
 3389000   0.71464036    -7.523322    812.10897  0.019969238  0.019214834            9 
 3390000   0.71014401   -7.5683874    811.42951  0.019946645  0.019209024            3 
 3391000   0.70350856   -7.5095274    812.07192   0.01995655  0.019203208            5 
 3392000   0.70458882   -7.5383717    810.22093  0.019905192  0.019197404            4 
 3393000   0.71391596   -7.5293359    810.99795  0.019918409  0.019191593            7 
 3394000   0.70534932   -7.5301434    812.53713  0.019950332  0.019185799            6 
 3395000   0.69875285   -7.5543809    813.02104  0.019956334  0.019179993            6 
 3396000   0.70946831   -7.5287255    811.72359   0.01991862  0.019174198            3 
 3397000    0.7196031   -7.5405158    811.09639   0.01989737  0.019168394           13 
 3398000   0.70958584   -7.5521263    810.92104  0.019887214  0.019162582           11 
 3399000   0.69853415   -7.5297101    811.45872  0.019894546  0.019156785            4 
 3400000   0.71747845   -7.5200531    813.25643  0.019932756  0.019151002            4 
 3401000   0.71925429   -7.5231279     814.2929  0.019952291  0.019145207            5 
 3402000   0.70636166   -7.5520605    811.87993  0.019887319   0.01913942            3 
 3403000    0.7056467   -7.5180084    812.79872  0.019903975  0.019133624            8 
 3404000   0.71736215   -7.5469865    812.51242  0.019891119  0.019127821            6 
 3405000    0.7262136    -7.549301    810.95317  0.019847116  0.019122015            3 
 3406000   0.68676741   -7.5557087    813.23514  0.019897121    0.0191162           10 
 3407000   0.72152668   -7.5585435    811.82701  0.019856839  0.019110399            5 
 3408000   0.71036036   -7.5412406    814.00215    0.0199042  0.019104609            9 
 3409000   0.70751831   -7.5196702    813.78936  0.019893159  0.019098864            8 
 3410000   0.71254248   -7.5368039     811.0042  0.019819262  0.019093116           10 
 3411000   0.72401309   -7.5409096    811.03784  0.019814273  0.019087353            6 
 3412000   0.70474554   -7.5370173    812.52031  0.019844674  0.019081583            6 
 3413000   0.69891138   -7.5675885     813.2683  0.019857122  0.019075828            4 
 3414000   0.70789455   -7.5490685    812.30037  0.019827679  0.019070049            4 
 3415000    0.6947748   -7.5576121     811.6008  0.019804802   0.01906425            5 
 3416000   0.70104587   -7.5461737     813.3102  0.019840705  0.019058459            4 
 3417000   0.70966722   -7.5212815     813.6864  0.019844074  0.019052699            5 
 3418000   0.70813826      -7.5392    811.24145  0.019778658  0.019046927            8 
 3419000   0.70002124   -7.5502911    810.42648   0.01975301  0.019041134           14 
 3420000   0.69804466   -7.5433531    812.06998   0.01978728  0.019035356            7 
 3421000   0.70270717   -7.5481539    810.35619  0.019739749   0.01902959            5 
 3422000   0.69592483    -7.558037    812.00009  0.019774014  0.019023814            9 
 3423000    0.7133297   -7.5545165    811.54858  0.019757245   0.01901805            9 
 3424000   0.70303971   -7.5641156    812.25771  0.019768733  0.019012273            9 
 3425000   0.70449076   -7.5457085    812.05569  0.019758046  0.019006492            9 
 3426000    0.7002386   -7.5689068    813.77663  0.019794139  0.019000715           13 
 3427000    0.6976873   -7.5641471    812.82895  0.019765318  0.018994945            5 
 3428000    0.7082581   -7.5449755    812.28568  0.019746346  0.018989186            5 
 3429000   0.70011232   -7.5479473    811.68002  0.019725868  0.018983445            7 
 3430000   0.70627667   -7.5539773    813.11687  0.019755026  0.018977704            3 
 3431000   0.71273748   -7.5348277     813.3906  0.019755917  0.018971962            9 
 3432000   0.68309639   -7.5632168    812.12165  0.019719349  0.018966199            6 
 3433000   0.71010616   -7.5674176    812.57387  0.019724582  0.018960428            6 
 3434000   0.70055417   -7.5456383    813.59182  0.019743541   0.01895468            5 
 3435000   0.70459108   -7.5430106    813.88217  0.019744837  0.018948934            5 
 3436000   0.72076916   -7.5552641    811.33552  0.019677326   0.01894321            5 
 3437000   0.70207285   -7.5534928    812.67527  0.019704085  0.018937466            4 
 3438000   0.70929282   -7.5590068    813.31743  0.019713919  0.018931736            4 
 3439000   0.69289232   -7.5717646    812.77108  0.019694947  0.018925998            4 
 3440000   0.71143291   -7.5209512    812.32172  0.019678336  0.018920281            6 
 3441000   0.70787715   -7.5501674     813.7098  0.019706234  0.018914577            7 
 3442000   0.70746167   -7.5512571    815.42027   0.01974192  0.018908874            3 
 3443000   0.69853024   -7.5672381    814.27882  0.019708559  0.018903172           13 
 3444000   0.68066257   -7.5172472    815.67837  0.019736701  0.018897473            7 
 3445000   0.70252808   -7.5264961    814.27238  0.019696961  0.018891792            6 
 3446000   0.69240143   -7.5552751    813.16095  0.019664368  0.018886081            5 
 3447000   0.68152529   -7.5505459    814.43063  0.019689359  0.018880376            4 
 3448000   0.70239285   -7.5486717    813.44265   0.01965977  0.018874659            5 
 3449000   0.70570549    -7.565174    815.07963  0.019693622   0.01886893           16 
 3450000   0.69784138   -7.5543676    814.35873  0.019670501  0.018863231            4 
 3451000    0.7064773   -7.5599409    813.43175  0.019642416  0.018857514            4 
 3452000   0.70435905   -7.5881155    813.04482  0.019627386   0.01885179            3 
 3453000   0.68063485    -7.568655    812.64611  0.019612079  0.018846078           10 
 3454000    0.6871238   -7.5434951    812.17941  0.019595141  0.018840364           14 
 3455000   0.69160064   -7.5733822    813.32025  0.019616986  0.018834658            5 
 3456000   0.69496614   -7.5618504    814.47297  0.019639105  0.018828965            7 
 3457000   0.69227103   -7.5651045    812.42151  0.019583972   0.01882325            5 
 3458000   0.71307546   -7.5669194    813.19245  0.019596888  0.018817546           11 
 3459000   0.69326941   -7.5494934     814.5184  0.019623167   0.01881185           10 
 3460000   0.69767752   -7.5318836    813.45587  0.019591904  0.018806171            8 
 3461000   0.69841851   -7.5517125    813.15808  0.019579073  0.018800474            4 
 3462000   0.68924317   -7.5318472    814.09502  0.019595971  0.018794794           10 
 3463000   0.70133456   -7.5536566    813.44601  0.019574695  0.018789118            9 
 3464000   0.69777329   -7.5597384    813.39766  0.019567881  0.018783425           12 
 3465000   0.67677851    -7.557593    813.31756  0.019560307  0.018777721           21 
 3466000   0.68842792   -7.5603534    813.50252   0.01955911  0.018771994           13 
 3467000   0.69848142   -7.5680957    812.48096  0.019528915  0.018766254            7 
 3468000   0.70739539   -7.5606811    813.46554  0.019546942  0.018760523            3 
 3469000   0.71487839   -7.5718282    814.61975  0.019569034  0.018754791            4 
 3470000   0.69185819   -7.5721604     814.7166  0.019565721  0.018749053            3 
 3471000   0.68982256   -7.5629943    812.91782  0.019516898  0.018743316            6 
 3472000   0.69239816   -7.5724559    811.56771  0.019478872  0.018737559           11 
 3473000   0.70261315   -7.5582367    814.30984  0.019539059  0.018731821            8 
 3474000   0.69296555   -7.5737219    812.53847  0.019490944  0.018726094           15 
 3475000    0.6878159    -7.586662    812.14743  0.019475958  0.018720337            4 
 3476000   0.69984072   -7.5759385    809.56086  0.019408344  0.018714572            4 
 3477000   0.69996322    -7.592565     811.1359  0.019440511  0.018708826            5 
 3478000   0.68917924   -7.5457115    812.86641  0.019476385   0.01870308           11 
 3479000    0.6908742   -7.5587153    814.47304  0.019509271  0.018697362            7 
 3480000   0.70513752   -7.5588541    814.89205  0.019513698  0.018691659            9 
 3481000   0.68524398   -7.5783263    814.07897  0.019488628  0.018685952           14 
 3482000   0.70157485   -7.5647476    813.48893   0.01946891  0.018680257            6 
 3483000   0.69671269   -7.5601852    813.02471  0.019452213  0.018674559           14 
 3484000   0.70227365   -7.5848156    813.08897  0.019448167  0.018668852            6 
 3485000   0.69380864   -7.5622883    814.05192  0.019465613  0.018663151            4 
 3486000   0.69881447   -7.5859117    813.25939  0.019441083  0.018657448            3 
 3487000   0.68727907   -7.5770801    812.99729  0.019429244  0.018651719            6 
 3488000   0.67723684   -7.5627928    811.14782  0.019379487  0.018645976            3 
 3489000   0.70000091   -7.5865914    811.71908  0.019387577  0.018640233            8 
 3490000   0.68884677    -7.549416    814.11585  0.019439251  0.018634502           10 
 3491000   0.69640756   -7.5671927    814.29305  0.019437913  0.018628778            9 
 3492000   0.70362523   -7.5900827    811.27782  0.019360391  0.018623044            7 
 3493000   0.67976935   -7.5780718    811.53421  0.019360965  0.018617306            4 
 3494000   0.67978293   -7.6104569     811.6955  0.019359271  0.018611577            6 
 3495000   0.67979274   -7.5693086    812.23547  0.019366606  0.018605838           10 
 3496000   0.70616074   -7.5601304    812.04322  0.019356484  0.018600092            5 
 3497000   0.70133287   -7.5650963    811.94592   0.01934863  0.018594357            8 
 3498000   0.68874543   -7.5900511     811.8106  0.019339875  0.018588601            7 
 3499000   0.68982045   -7.5781825     811.1918   0.01931961  0.018582845            8 
 3500000   0.70744159   -7.5858622    810.38391  0.019294855  0.018577093            5 
 3501000   0.68298998   -7.5641975    810.80837  0.019299447  0.018571346            6 
 3502000   0.68792517   -7.5607905    812.90006   0.01934371  0.018565601            8 
 3503000   0.70357859   -7.5802205    811.41174  0.019302782  0.018559873            5 
 3504000   0.69268089   -7.5956311    812.01692  0.019311666  0.018554139            6 
 3505000   0.70017037   -7.5920962    810.20863  0.019263163  0.018548396            8 
 3506000   0.68449842   -7.5746701    811.84648  0.019296598  0.018542667            8 
 3507000   0.68965544   -7.5829383    811.55077  0.019284069   0.01853692            8 
 3508000   0.68629766   -7.5807464     812.2509  0.019295204  0.018531192            3 
 3509000   0.70093756    -7.569226    813.08961  0.019309623  0.018525459            7 
 3510000   0.68869073   -7.5872957    812.10213  0.019280677  0.018519744            7 
 3511000   0.67718654   -7.5727823    812.66828  0.019288623  0.018514045            6 
 3512000   0.69388733   -7.5831928    813.86627  0.019311557  0.018508339           10 
 3513000   0.69001996   -7.6001696    813.75636  0.019303453  0.018502643            4 
 3514000   0.69173757   -7.5832846    813.60702  0.019294418  0.018496947            6 
 3515000   0.69331231   -7.5842292    812.19163  0.019255373  0.018491265            8 
 3516000   0.68380905   -7.5954394    814.29326  0.019299708  0.018485584           10 
 3517000   0.70625027   -7.5799566    814.08565  0.019289301  0.018479922            8 
 3518000   0.68518061   -7.5747653    815.32897  0.019313269  0.018474251            5 
 3519000   0.69298546   -7.6037645    812.42349  0.019238976  0.018468583            7 
 3520000   0.69058965    -7.589914    813.29405  0.019254121  0.018462907            5 
 3521000   0.68313068   -7.5935241    813.53556  0.019254368  0.018457218            7 
 3522000   0.69517628   -7.5857793    811.86509  0.019209377  0.018451521           13 
 3523000   0.68286448   -7.5799744    814.17817  0.019258638  0.018445843            7 
 3524000   0.68651329   -7.5992966      812.072  0.019203367  0.018440162           16 
 3525000    0.6985954   -7.5741525    814.46944  0.019254597  0.018434485           10 
 3526000    0.6794934   -7.6057946    812.78413  0.019209305  0.018428814            9 
 3527000   0.69799603   -7.5841367    814.63023  0.019247477  0.018423142           14 
 3528000   0.69146295   -7.5963976    814.76869  0.019245292  0.018417464            7 
 3529000   0.68858503   -7.6272493    812.71816  0.019191418  0.018411789           12 
 3530000   0.68306456   -7.5955066    811.36634  0.019154068  0.018406102            9 
 3531000   0.69818633   -7.6005511    812.90992  0.019185073  0.018400443            9 
 3532000   0.68807005    -7.576587    814.03603  0.019206211   0.01839479            4 
 3533000   0.69950093   -7.5923064    812.12917  0.019155797  0.018389129            7 
 3534000   0.67694903   -7.5899853    813.08693  0.019172961  0.018383465            5 
 3535000   0.67624206   -7.6033071    814.39657   0.01919841  0.018377809            7 
 3536000   0.69066176   -7.5720749     813.8798  0.019180802  0.018372146            9 
 3537000   0.70377191   -7.5986958    812.75438  0.019148864  0.018366499            4 
 3538000   0.69247656   -7.5689704    812.10153  0.019128074  0.018360857            6 
 3539000   0.68479796   -7.5845688    813.78768  0.019162374  0.018355231            5 
 3540000   0.68233989   -7.5799329     815.5098    0.0191975  0.018349611            6 
 3541000   0.68446392   -7.5657898    813.70915  0.019149702  0.018343996            6 
 3542000   0.68976048    -7.566391    814.76657  0.019169174  0.018338387            9 
 3543000   0.70700824   -7.5734919    813.42154  0.019132128  0.018332748            7 
 3544000   0.69627969    -7.606434    813.50537    0.0191287  0.018327108            4 
 3545000   0.69347662   -7.5767675    813.87081  0.019131895  0.018321468            4 
 3546000   0.69025458   -7.5994706    814.15224  0.019133113  0.018315821            5 
 3547000   0.68892334   -7.5794476    814.52152  0.019136395  0.018310191            8 
 3548000   0.69275327   -7.6251448    813.98913  0.019118497  0.018304562           10 
 3549000   0.68808336   -7.6147691    812.49674  0.019078067  0.018298919            5 
 3550000   0.70679281   -7.5738253    814.25252  0.019113909  0.018293302           11 
 3551000   0.69295698   -7.5947714    812.82524  0.019075031  0.018287685            6 
 3552000   0.68539359   -7.5795221    813.89082  0.019094661  0.018282073           15 
 3553000    0.6758159   -7.5777087    814.71516  0.019108621   0.01827647            7 
 3554000   0.67947335   -7.5939402    814.99749  0.019109864  0.018270868            5 
 3555000   0.67902565   -7.5611186     814.3213  0.019088638   0.01826529           12 
 3556000   0.68058855   -7.5682891    814.43426  0.019085917  0.018259717            6 
 3557000   0.68483838    -7.571618    813.12666  0.019049917  0.018254138           12 
 3558000   0.70064659   -7.5869103    815.37433  0.019097207  0.018248571            4 
 3559000   0.68221961    -7.601603    815.93677   0.01910501  0.018242985            6 
 3560000   0.67064055   -7.5891968    814.65399  0.019069616  0.018237397            9 
 3561000   0.68757504   -7.5845047    814.02596  0.019049564  0.018231804            5 
 3562000   0.66894873   -7.5860716    814.87918  0.019064177  0.018226206            7 
 3563000   0.69497353   -7.6252114    815.35604  0.019069979  0.018220608            7 
 3564000   0.67295094   -7.6022471    816.93962  0.019101656  0.018215014            6 
 3565000   0.67884155   -7.6235669    815.02179  0.019051468  0.018209424            6 
 3566000    0.6966147   -7.6313388    815.32031  0.019053101  0.018203821           14 
 3567000   0.68610104   -7.6235431    813.29489  0.019000441  0.018198221            8 
 3568000   0.68105891    -7.628592    815.31653  0.019042333  0.018192616           16 
 3569000   0.67622946   -7.6313341    815.74348  0.019046967  0.018187024            8 
 3570000   0.67623793   -7.5913916    814.81754  0.019020017  0.018181435           18 
 3571000   0.67889175   -7.5900751    814.58488  0.019009262  0.018175863            8 
 3572000     0.665808   -7.6139446    814.75715  0.019007959  0.018170286            9 
 3573000   0.68670293   -7.6110136     816.6238  0.019046175  0.018164707           13 
 3574000   0.68318869   -7.6110672    814.65238  0.018994879  0.018159114           12 
 3575000   0.66807827   -7.6093242    815.05895  0.018999043  0.018153533           12 
 3576000   0.68377701   -7.6115001    813.48261  0.018956996  0.018147948           21 
 3577000   0.69337611   -7.6238867    814.93719  0.018985584  0.018142344           17 
 3578000   0.67824104   -7.6076435    813.11849  0.018937919  0.018136759           25 
 3579000   0.67134711   -7.6369012     813.4893  0.018941262  0.018131172           19 
 3580000   0.67481956   -7.6089273    816.34732  0.019002498  0.018125589           23 
 3581000   0.66927201   -7.6022033    815.02275  0.018966368  0.018120009           18 
 3582000   0.67798519   -7.5936866    815.67961  0.018976354  0.018114437           15 
 3583000   0.66536194   -7.6098113    814.27356  0.018938356   0.01810886           17 
 3584000   0.68063514   -7.6049916    813.79861  0.018922029   0.01810329            9 
 3585000   0.67864006   -7.6160203    815.11587   0.01894737  0.018097714            6 
 3586000   0.67315818   -7.6299621    814.91354  0.018937385   0.01809213            9 
 3587000   0.68219013   -7.6092181       814.52  0.018922963  0.018086556            5 
 3588000   0.68100556   -7.6155931    814.89397  0.018926374  0.018080973            9 
 3589000   0.69131683   -7.6050588    814.84803  0.018920034  0.018075402            5 
 3590000   0.67593623   -7.6154773    815.03775  0.018919168  0.018069844            8 
 3591000   0.67524146    -7.609451    814.16265  0.018893592  0.018064268            6 
 3592000   0.67491142   -7.6228804    812.00229  0.018838212  0.018058684           10 
 3593000   0.67917097   -7.6158944    813.68332  0.018871958  0.018053107           13 
 3594000   0.67320401   -7.6244207    813.56582  0.018863982   0.01804754           13 
 3595000    0.6883698   -7.6053015    814.51632  0.018880768  0.018041982            8 
 3596000   0.69801455   -7.6299033    814.81339  0.018882401  0.018036418            9 
 3597000   0.66440164   -7.6213134    813.84273  0.018854664  0.018030838            7 
 3598000   0.67158435   -7.6166142     815.6907  0.018892225  0.018025279            7 
 3599000   0.67559306   -7.6423421     815.4295  0.018880928  0.018019733            7 
 3600000   0.65799552   -7.6286928    812.18649  0.018800613  0.018014175            7 
 3601000   0.67684543   -7.6305652    815.74427  0.018877725  0.018008604            8 
 3602000   0.68617635   -7.6479841    816.39992  0.018887653  0.018003035            5 
 3603000   0.67552585   -7.6264791    815.23207    0.0188554  0.017997464            4 
 3604000   0.69709587   -7.6481225     813.7656   0.01881626  0.017991901            6 
 3605000   0.66699833   -7.6139702    814.34258  0.018824378  0.017986356            6 
 3606000   0.66705871   -7.6079128    816.46587  0.018868226  0.017980813            5 
 3607000   0.67694353   -7.6374841    815.53318  0.018841447  0.017975279            6 
 3608000   0.68779863     -7.62164    813.53744  0.018790129  0.017969735            8 
 3609000     0.672716   -7.6204951    815.93308  0.018840239  0.017964195            5 
 3610000   0.67401332   -7.6083398    815.89156  0.018834062  0.017958679            4 
 3611000   0.67460741   -7.6202684    816.04521  0.018832392  0.017953164            6 
 3612000   0.65455083   -7.6372776    814.39093  0.018789012   0.01794764           10 
 3613000   0.67509265   -7.6206586    815.23656  0.018803316  0.017942127            5 
 3614000   0.68519962   -7.6100498    814.21435  0.018774542  0.017936632            8 
 3615000   0.66927646   -7.6176258    815.93321  0.018808972  0.017931134            9 
 3616000   0.68085159   -7.5986845    817.69996  0.018844487  0.017925647            7 
 3617000    0.6679843   -7.6186131    817.32597   0.01883066  0.017920167            5 
 3618000   0.67527135   -7.6276859    814.43121   0.01875878  0.017914667            5 
 3619000   0.67538028   -7.6059949    815.18567   0.01877097  0.017909173            5 
 3620000   0.66177002   -7.6224325    814.11336  0.018741099  0.017903663            4 
 3621000   0.67017214   -7.6331415    813.51821  0.018722227  0.017898149            6 
 3622000    0.6865048   -7.6246748    816.15012  0.018777612  0.017892637            5 
 3623000    0.6742445    -7.628095    816.61634  0.018783153  0.017887141            7 
 3624000    0.6617241   -7.6306109    816.31069  0.018770941  0.017881649            5 
 3625000   0.67402378   -7.5891035    817.02197  0.018782114  0.017876169            6 
 3626000   0.67504014   -7.6063634    815.73742  0.018747413  0.017870688            6 
 3627000   0.67912468   -7.6015754    816.69512  0.018764248  0.017865216            9 
 3628000   0.67491889   -7.6146717    817.46587  0.018776779  0.017859763            5 
 3629000    0.6635028   -7.6211002    817.50433  0.018772488  0.017854313            7 
 3630000   0.66797715   -7.5864969    816.03745  0.018733642  0.017848855            6 
 3631000   0.66804477   -7.6072069    817.76432  0.018768115  0.017843408            8 
 3632000   0.66545893   -7.5997185     816.9521  0.018744312  0.017837933            9 
 3633000   0.67577216   -7.6110521    815.06258  0.018695811  0.017832455            9 
 3634000   0.67268945   -7.6260561     816.3645  0.018720522  0.017826975            6 
 3635000    0.6634308   -7.6346053    816.71013  0.018723295  0.017821479           13 
 3636000   0.67638027    -7.651807    816.64637  0.018716684  0.017815997           17 
 3637000   0.67318071   -7.6324131    816.16612  0.018700534  0.017810521            7 
 3638000   0.66863783   -7.6189874    816.93305  0.018712962  0.017805038            5 
 3639000   0.67251117   -7.6395904    817.63505  0.018723895  0.017799562           17 
 3640000    0.6623056   -7.6576987    815.19588  0.018662909  0.017794095           15 
 3641000   0.66272201    -7.621476    815.59563  0.018666933  0.017788629            5 
 3642000   0.67675603   -7.6106928    816.62217  0.018685296  0.017783166            9 
 3643000   0.67962495   -7.6218952    816.21043  0.018670748   0.01777771            8 
 3644000   0.66880923   -7.6346693    817.06594  0.018685189   0.01777224            7 
 3645000   0.67363604   -7.6280768    816.45479   0.01866609  0.017766789           12 
 3646000   0.67433321   -7.6222184    816.84075  0.018669792   0.01776134            4 
 3647000   0.67510564   -7.6075335    815.63267  0.018637069  0.017755892           12 
 3648000   0.67148094   -7.6128521    816.45804  0.018650814   0.01775046            4 
 3649000   0.66829837   -7.6270817    817.28311  0.018664545  0.017745038            8 
 3650000   0.66762624   -7.6123336    817.57773  0.018666158  0.017739604            5 
 3651000   0.69627245   -7.6386686    815.81893  0.018620901  0.017734157            4 
 3652000   0.67184344   -7.6738198     814.8493  0.018593677  0.017728705            6 
 3653000   0.66573113   -7.6543205      816.254  0.018620632  0.017723251            4 
 3654000   0.68327333   -7.5868645    817.14447  0.018635844  0.017717804           11 
 3655000   0.67417908   -7.6276005     818.7613  0.018667608  0.017712373            6 
 3656000   0.66025709   -7.6141925    818.80878  0.018663584  0.017706941            7 
 3657000   0.66248035   -7.6260382    815.93952  0.018593098  0.017701499            3 
 3658000   0.67664607   -7.6332408    816.43672  0.018599342  0.017696061           13 
 3659000   0.66249221   -7.6129676    816.11316   0.01858689  0.017690629            6 
 3660000   0.67539539    -7.639893    814.96029  0.018555562  0.017685182           11 
 3661000    0.6772983    -7.650368    815.41318  0.018560803  0.017679729            7 
 3662000   0.66281309     -7.66014    816.16837  0.018572919  0.017674277            5 
 3663000   0.65736169   -7.6245624    816.18937  0.018568327  0.017668833            5 
 3664000   0.67555342   -7.6339292    817.41338  0.018591098  0.017663389           10 
 3665000   0.66155373    -7.655225    813.92411  0.018506687  0.017657932            9 
 3666000   0.66354229   -7.6470805    816.00362  0.018548909  0.017652464            4 
 3667000   0.67618081   -7.6559705     816.6545  0.018558642  0.017647004            6 
 3668000   0.68487101   -7.6289364     816.3647  0.018546999  0.017641567            9 
 3669000   0.66357111   -7.6369444     815.5005  0.018522315  0.017636111            5 
 3670000   0.65678226   -7.6487199    815.77951  0.018523604  0.017630656            7 
 3671000   0.65909144   -7.6263221     815.5814  0.018514061  0.017625212           13 
 3672000   0.65015988   -7.6228282    815.45821  0.018506223  0.017619772           15 
 3673000    0.6543213   -7.6305403    815.46997  0.018501451  0.017614324            7 
 3674000   0.67064237   -7.6340868     816.8871  0.018528559  0.017608886            7 
 3675000   0.65091709   -7.6557319    815.80319  0.018498939  0.017603454            8 
 3676000   0.67184298   -7.6536846    815.43816  0.018485631  0.017598028            9 
 3677000   0.65476829   -7.6181656    817.44618  0.018526112  0.017592622            7 
 3678000   0.65302757   -7.6464721    816.28946  0.018494867  0.017587195            9 
 3679000   0.67502389   -7.6695192    815.78984  0.018478523  0.017581747            9 
 3680000   0.66337091    -7.658497    815.75553  0.018472725   0.01757631           11 
 3681000   0.65623419   -7.6508502    814.92072  0.018448807  0.017570867           13 
 3682000   0.66315193   -7.6442502     815.6508  0.018460321  0.017565422            6 
 3683000   0.65995008    -7.658114    817.02812  0.018486472  0.017559985            9 
 3684000   0.67067679   -7.6474944    816.00855  0.018458391  0.017554555            9 
 3685000   0.66460404   -7.6441873    817.10909   0.01847827   0.01754912            9 
 3686000   0.66258887   -7.6496757    818.47243  0.018504079  0.017543702            8 
 3687000   0.65654782   -7.6243162     816.6072  0.018456903  0.017538285            8 
 3688000   0.66008693   -7.6503806    816.24305   0.01844367  0.017532886            4 
 3689000   0.65664931   -7.6469335    817.74754  0.018472656  0.017527472           10 
 3690000    0.6708343   -7.6542053    816.12844  0.018431085  0.017522072            7 
 3691000   0.65553193   -7.6586718    816.87028   0.01844284  0.017516655            8 
 3692000    0.6543038   -7.6457169    815.70088   0.01841145  0.017511235           15 
 3693000   0.66781028   -7.6594181    816.44937  0.018423354   0.01750582           10 
 3694000   0.66403864   -7.6374057    818.27175  0.018459478  0.017500402            9 
 3695000   0.65817268   -7.6547944    816.61805  0.018417186  0.017494993            4 
 3696000   0.65091384   -7.6501574    815.32219  0.018382986   0.01748958            6 
 3697000   0.64792861   -7.6387613    816.13787  0.018396399  0.017484172            8 
 3698000   0.65361742   -7.6664222    816.39379  0.018397192  0.017478762            5 
 3699000   0.65538183   -7.6521671    817.35505  0.018413874  0.017473348           11 
 3700000    0.6468918   -7.6490031    816.60594  0.018392026  0.017467928            8 
 3701000   0.65291558   -7.6700805    816.14445  0.018376665  0.017462513           10 
 3702000   0.65128358   -7.6314566    816.89077  0.018388501  0.017457117            8 
 3703000    0.6631071   -7.6671651    814.81222  0.018336759  0.017451708            7 
 3704000   0.66288349   -7.6637186    817.27074  0.018387121  0.017446309           14 
 3705000    0.6541142    -7.653378    817.67635  0.018391281  0.017440919            8 
 3706000   0.65607045   -7.6494924    815.75183  0.018343044  0.017435537           19 
 3707000   0.64992375   -7.6749513     816.1869  0.018347876  0.017430155            6 
 3708000   0.65128486   -7.6511648    815.72425   0.01833253  0.017424781           15 
 3709000   0.67652088   -7.6494628    816.09764  0.018335976  0.017419397            8 
 3710000   0.65638919   -7.6543411    816.02988  0.018329512  0.017414028            8 
 3711000   0.65784823   -7.6716881    817.15859  0.018349919  0.017408649            5 
 3712000   0.66373542   -7.6565787    816.33032  0.018326381  0.017403276            8 
 3713000   0.64438736   -7.6344369    817.62404  0.018350481  0.017397909            8 
 3714000   0.66674456   -7.6612128    816.12103  0.018311816  0.017392534            6 
 3715000   0.65834468   -7.6503857    816.98545  0.018326277  0.017387162            9 
 3716000   0.65843731   -7.6609429     817.5764  0.018334598  0.017381794            8 
 3717000   0.66750621   -7.6396751    817.42774  0.018326333  0.017376423            6 
 3718000   0.66508247   -7.6688083    819.04799  0.018357719  0.017371056            8 
 3719000   0.65023397   -7.6194598    818.78599  0.018346912  0.017365713            9 
 3720000   0.66738145   -7.6712669    817.26413  0.018307888  0.017360367           11 
 3721000   0.65386666   -7.6499175    818.53297  0.018331384  0.017355027            7 
 3722000   0.64990017   -7.6308872    815.95856   0.01826882  0.017349694            9 
 3723000   0.65193732   -7.6342918    817.72939   0.01830355   0.01734437            6 
 3724000   0.65666757    -7.659665    815.48701  0.018248456  0.017339025            9 
 3725000   0.65685705   -7.6502052    818.02041  0.018300233  0.017333692            7 
 3726000   0.65571317   -7.6362124    818.40434  0.018303908  0.017328372           12 
 3727000   0.67020497   -7.6487871    816.30228  0.018251996  0.017323057            3 
 3728000   0.64304816   -7.6446372    818.23472  0.018290297  0.017317739            8 
 3729000    0.6518297   -7.6349679    817.67603  0.018272907  0.017312427            3 
 3730000   0.65467936   -7.6336738    818.39206  0.018284005  0.017307137            5 
 3731000   0.65991931    -7.644119    816.98508  0.018247679  0.017301851            5 
 3732000   0.66496908   -7.6414846    816.79195  0.018238477  0.017296553            9 
 3733000   0.67041176   -7.6626619    818.78835  0.018278158  0.017291254           12 
 3734000   0.66965723   -7.6643892    817.55777  0.018245799  0.017285947           11 
 3735000   0.66421787    -7.634275    817.62088  0.018242322   0.01728064            7 
 3736000   0.66752054    -7.656532     818.6347  0.018260053  0.017275338           15 
 3737000   0.65435887    -7.664208    819.17164   0.01826714  0.017270048           13 
 3738000   0.66319619   -7.6551905    818.62144  0.018249988  0.017264749            5 
 3739000   0.66100854   -7.6473373    817.91559  0.018229375  0.017259445            7 
 3740000   0.63825579   -7.6698895    818.35066  0.018234195  0.017254152            6 
 3741000   0.65393496    -7.657587    817.62632  0.018213185  0.017248849            8 
 3742000   0.64046134   -7.6697935     816.6916  0.018187502  0.017243539           21 
 3743000   0.65685574   -7.6668668    818.32934  0.018219105  0.017238241           19 
 3744000     0.633382   -7.6525198    817.15492  0.018188099   0.01723295           11 
 3745000   0.65551714   -7.6673674    817.79607  0.018197509  0.017227652            6 
 3746000   0.65200826   -7.6843399    818.16135  0.018200778  0.017222358            5 
 3747000    0.6732651   -7.6581769    818.10779  0.018194729  0.017217074           10 
 3748000   0.64674384    -7.677082     817.8143  0.018183349  0.017211784            9 
 3749000   0.65993303   -7.6335177    819.32376  0.018212051  0.017206509           16 
 3750000   0.64583727   -7.6562529    818.00175  0.018177817   0.01720123           12 
 3751000   0.65236519   -7.6633138    817.21039  0.018155389   0.01719595            8 
 3752000   0.64482606   -7.6517628    819.17268  0.018194134  0.017190665            6 
 3753000   0.66660725   -7.6542923    819.22675  0.018190487   0.01718539           11 
 3754000   0.66390586   -7.6702418    818.81469  0.018176494  0.017180117            6 
 3755000   0.65853464   -7.6621406    817.63492  0.018145471  0.017174835           11 
 3756000   0.64939807   -7.6598773    818.30866  0.018155588  0.017169553            8 
 3757000   0.65021974   -7.6430343    818.75406  0.018160635  0.017164279            9 
 3758000   0.64967118   -7.6583364     818.9466  0.018160072  0.017158994           11 
 3759000   0.66356204   -7.6704172    817.07269  0.018113698  0.017153705            8 
 3760000    0.6608965   -7.6583328    819.52143  0.018163152  0.017148427            6 
 3761000    0.6604894   -7.6585391    818.04553  0.018125621  0.017143145            7 
 3762000   0.64732051   -7.6698396    816.69911  0.018090978  0.017137854           15 
 3763000   0.65336132   -7.6738404    817.48425  0.018103558  0.017132565           12 
 3764000   0.63630376   -7.6657043    816.68074  0.018080959  0.017127277            9 
 3765000   0.66229107   -7.6666427    817.50223  0.018094339  0.017121983           12 
 3766000   0.65391833   -7.6817711    816.37007  0.018064482  0.017116694           27 
 3767000   0.64118646   -7.6858401    818.27061   0.01810173  0.017111388           11 
 3768000   0.65294549    -7.686315    818.87015  0.018110186  0.017106079            7 
 3769000   0.63882807   -7.6767201    816.97485  0.018063475  0.017100772           19 
 3770000   0.64554322   -7.6995599    816.02291  0.018037642  0.017095469           20 
 3771000   0.64194662   -7.6862392    815.06824  0.018011762  0.017090158           17 
 3772000   0.66446776   -7.6949397    818.32759  0.018078994   0.01708485           11 
 3773000   0.66621919   -7.7070438    816.15173  0.018026145  0.017079535           12 
 3774000   0.65667275   -7.7038962    814.74331  0.017990269  0.017074219           19 
 3775000   0.63997963   -7.6720378    816.36645  0.018021335  0.017068909           26 
 3776000   0.64251337   -7.6659153    817.69972  0.018045986  0.017063611           23 
 3777000   0.66815323   -7.6957535    816.43573   0.01801332  0.017058311           12 
 3778000   0.65305152    -7.703284    815.57871  0.017989649  0.017053011           24 
 3779000   0.65206882   -7.7114296    815.46181   0.01798231  0.017047706            9 
 3780000   0.64608218   -7.6670916    817.55773   0.01802376  0.017042405           14 
 3781000   0.64776807   -7.6957713    816.39546  0.017993376  0.017037099           27 
 3782000   0.63949892   -7.7098576    816.39874  0.017988691  0.017031794           24 
 3783000     0.644231   -7.6818449     816.7918  0.017992594  0.017026489           11 
 3784000   0.63851229   -7.6916342    816.06054  0.017971735  0.017021192           27 
 3785000   0.65829037    -7.683485    815.44117   0.01795335  0.017015893           26 
 3786000     0.641943   -7.6799909    817.21569  0.017987667  0.017010595           16 
 3787000   0.65005788   -7.7072893    816.40036  0.017964976  0.017005304           21 
 3788000   0.63117352    -7.679498    816.77778  0.017968536  0.017000011           17 
 3789000    0.6587966    -7.680117    816.65629  0.017961122   0.01699473           18 
 3790000   0.64722754   -7.6853508    816.21088  0.017946589  0.016989432           17 
 3791000   0.65016491   -7.6823009    816.09929  0.017939402  0.016984135           22 
 3792000   0.64223962   -7.6990956    815.47334  0.017920915  0.016978855           25 
 3793000    0.6459735   -7.6961375    815.77703  0.017922863  0.016973568           15 
 3794000   0.65016012   -7.6916812     816.8307  0.017941282  0.016968272           21 
 3795000   0.65366539   -7.7004138    815.55951  0.017908641  0.016962983           19 
 3796000   0.64862983   -7.7066715    817.02349  0.017936062  0.016957708           10 
 3797000   0.64715982   -7.7017631    815.46538  0.017897142   0.01695244           13 
 3798000   0.65225582   -7.7059859    817.48167   0.01793667  0.016947169           13 
 3799000    0.6528395   -7.6774423    817.01496  0.017921711  0.016941891            8 
 3800000   0.64548445   -7.7119133    816.23672  0.017899928  0.016936615            9 
 3801000   0.64017052   -7.6553029     817.5085  0.017923101  0.016931342            8 
 3802000   0.64787828   -7.6948502    817.77735   0.01792428  0.016926074            6 
 3803000   0.63316257   -7.7059094    816.39485  0.017889273  0.016920792            8 
 3804000   0.63850131   -7.6868118      816.367   0.01788396  0.016915513            8 
 3805000   0.64130305   -7.6907534    815.02753  0.017849924  0.016910239           10 
 3806000   0.63482976   -7.7082556    814.58097  0.017835457  0.016904949           10 
 3807000   0.65149955   -7.7009534    815.09927  0.017842117   0.01689966           14 
 3808000   0.63967339   -7.7144848    814.38204  0.017821736  0.016894384           13 
 3809000   0.63642401   -7.7134419    814.46601  0.017818894  0.016889104           15 
 3810000   0.63186022   -7.6863295    816.41484  0.017856843   0.01688383            7 
 3811000   0.64964477   -7.7041472    817.38165  0.017873298  0.016878563           31 
 3812000   0.63787618   -7.7159558    816.42947  0.017847794  0.016873297           20 
 3813000      0.64977   -7.6786683    817.56519  0.017867934  0.016868041           15 
 3814000   0.63214241   -7.6757145    816.75025  0.017845443  0.016862787           21 
 3815000   0.64851979   -7.6881835    817.63778  0.017860152  0.016857541           18 
 3816000   0.64612048   -7.6965895    817.75391  0.017858008  0.016852282           19 
 3817000   0.63425285   -7.6956879    818.32597  0.017865819  0.016847044           19 
 3818000   0.64650198   -7.6749724    818.04203  0.017854942   0.01684181           19 
 3819000   0.64316546   -7.6979107    816.89637  0.017825268  0.016836583           24 
 3820000   0.63856755   -7.7152152    816.01572   0.01780139  0.016831344           20 
 3821000   0.63146267   -7.6925179    816.53468  0.017808049  0.016826099           19 
 3822000   0.63820085   -7.7091818    818.02613  0.017835909  0.016820863           13 
 3823000    0.6497526   -7.7104745    816.98108  0.017808464  0.016815619           16 
 3824000   0.63050155   -7.7040183    818.04222  0.017826931  0.016810372           11 
 3825000   0.63253548   -7.7131454    816.64945  0.017791927  0.016805111           25 
 3826000   0.65271138   -7.7208487    815.36488  0.017759298  0.016799866           18 
 3827000    0.6444069   -7.7207467    815.99629  0.017768406  0.016794604           19 
 3828000   0.65132487   -7.7207532    817.12071  0.017788243   0.01678936            6 
 3829000   0.64243879   -7.7070216    816.43353  0.017768641  0.016784122           18 
 3830000   0.62592813   -7.7036639    817.22709  0.017781268  0.016778877           14 
 3831000   0.64378764   -7.7081779    816.82536  0.017767888  0.016773639           13 
 3832000   0.63013783   -7.7185239    816.52486  0.017756717  0.016768413           18 
 3833000   0.63461726   -7.7064209    815.59011  0.017731762  0.016763184            7 
 3834000     0.628938   -7.7086371    816.73419  0.017752004  0.016757955           10 
 3835000    0.6307922   -7.7246126    816.83106   0.01774948  0.016752725           13 
 3836000   0.63085105   -7.7148781     816.7677  0.017743476  0.016747506            6 
 3837000   0.63485479   -7.7081678    816.66668  0.017736658  0.016742293            9 
 3838000    0.6334099   -7.6790837    815.71643  0.017711404  0.016737102           15 
 3839000   0.63902117   -7.7079738    816.71778  0.017728527  0.016731902            9 
 3840000   0.63632682   -7.7047508    818.67604  0.017766407  0.016726704            7 
 3841000   0.64297698   -7.6991602    817.94257  0.017745869  0.016721516            9 
 3842000   0.64596008   -7.7054876    818.72498   0.01775822  0.016716344           11 
 3843000   0.63586684   -7.6983055    816.70513    0.0177098  0.016711158           13 
 3844000   0.63684614   -7.7062527    816.29535  0.017696309  0.016705962            9 
 3845000   0.64686472   -7.6984593    817.89595  0.017726397  0.016700786            6 
 3846000   0.62995339   -7.6729423    817.73232  0.017718242  0.016695597            5 
 3847000   0.64299493   -7.6787405    817.72079  0.017713387  0.016690425           11 
 3848000   0.64250746   -7.6847562      818.542  0.017726568  0.016685252            8 
 3849000   0.64582304   -7.7249164     817.6326  0.017702273   0.01668007            6 
 3850000    0.6420872   -7.7021437    815.70786  0.017656014  0.016674881            8 
 3851000   0.64634236   -7.7227847    818.77224  0.017717741  0.016669705           12 
 3852000   0.63297072   -7.7158915    818.19377  0.017700627  0.016664525           12 
 3853000    0.6325408   -7.6897695    818.03503  0.017692599  0.016659344           10 
 3854000   0.62435219   -7.7061417    817.15903  0.017669067  0.016654175           11 
 3855000   0.64087396    -7.720271    817.13828  0.017664036  0.016648999           11 
 3856000   0.63129804   -7.7068701    818.07545  0.017679708  0.016643825            9 
 3857000   0.63256678   -7.6979245    817.29333  0.017658226  0.016638664            8 
 3858000   0.64856417   -7.7275589    818.46576  0.017678973  0.016633495           27 
 3859000   0.63773651   -7.7182242    818.09089  0.017666297  0.016628321           14 
 3860000   0.63247633   -7.6967265    818.19564  0.017663982   0.01662315           10 
 3861000   0.64474121   -7.7145479    818.74619   0.01767129  0.016617988            8 
 3862000   0.64370256   -7.7259186    819.86188  0.017690788  0.016612826           10 
 3863000   0.62718035   -7.6958151    818.58822  0.017658733  0.016607662           10 
 3864000   0.62508733   -7.7037563    814.99454  0.017576659  0.016602494            4 
 3865000   0.64674625   -7.7172756     816.1548  0.017597128  0.016597325           10 
 3866000   0.62562084    -7.699093    817.30129  0.017617289   0.01659216            7 
 3867000   0.63189893   -7.7082886    816.91527  0.017604415  0.016587003            7 
 3868000   0.64380617   -7.7073765    817.34052  0.017609025  0.016581843            7 
 3869000   0.63327593   -7.7172751    817.25694  0.017602674  0.016576681           12 
 3870000   0.63152836   -7.7106815    818.17973  0.017617996  0.016571533            9 
 3871000   0.63636275   -7.7138729    816.87934   0.01758545  0.016566375           19 
 3872000   0.63458596   -7.7367406    817.54754   0.01759529  0.016561216           15 
 3873000   0.63184952   -7.7011315    818.41398  0.017609389  0.016556076           14 
 3874000   0.63446894   -7.7116385     818.7691  0.017612483  0.016550922           13 
 3875000    0.6317859   -7.7047307    818.13054  0.017594205  0.016545769           11 
 3876000   0.63100095   -7.7145728    817.27076  0.017571181  0.016540624           12 
 3877000   0.60786305   -7.7286919    817.10173  0.017563015  0.016535479           10 
 3878000   0.63847081   -7.7153737    818.15448  0.017581109   0.01653034            8 
 3879000   0.62779787   -7.7485764    817.51194  0.017562773  0.016525195            7 
 3880000   0.62056965   -7.7236399    817.76971  0.017563783   0.01652005            8 
 3881000   0.62014587   -7.7099353    817.70831  0.017557938   0.01651491           10 
 3882000   0.62089527   -7.7284947    816.97422  0.017537657  0.016509764            5 
 3883000   0.63805087   -7.7150182    816.15273  0.017515511   0.01650462           10 
 3884000   0.62016482    -7.699675    818.20818  0.017555102  0.016499484            6 
 3885000   0.63341329   -7.7104688    818.07746  0.017547779  0.016494352            9 
 3886000   0.62118163   -7.7209345    815.97334  0.017498142  0.016489216           11 
 3887000   0.62067088   -7.7181693    817.18704   0.01751966  0.016484089           10 
 3888000   0.63270438   -7.7185783     818.5032  0.017543364   0.01647897           11 
 3889000   0.61161287   -7.6998968    819.17288  0.017553203  0.016473846           13 
 3890000   0.63131433   -7.7054647     817.5173  0.017513224  0.016468716           10 
 3891000    0.6307672   -7.7203654    817.63421  0.017511227  0.016463592            8 
 3892000   0.63017871   -7.7173188    819.56849  0.017548143  0.016458478           16 
 3893000   0.62545416   -7.7103867    818.89294  0.017529175  0.016453372           10 
 3894000   0.63209616   -7.6962368     819.2835  0.017533031  0.016448273            9 
 3895000    0.6304981   -7.7260853    816.68201  0.017472872  0.016443156            6 
 3896000   0.61679729   -7.7198899    817.64624  0.017489011  0.016438032           10 
 3897000   0.61461179   -7.7096911    817.27333  0.017476549  0.016432912            6 
 3898000   0.63128726   -7.7150957    817.23633  0.017471274  0.016427785           20 
 3899000   0.60593222   -7.7287618    816.90363  0.017459683  0.016422667            8 
 3900000   0.61656714   -7.7131495    817.72436  0.017472743  0.016417554            5 
 3901000   0.62640602   -7.7230364    818.06066  0.017475448  0.016412442           10 
 3902000   0.62961547   -7.7337651    818.24868  0.017474985  0.016407331           13 
 3903000   0.63534246   -7.7274067    818.15183  0.017468439  0.016402212            8 
 3904000   0.62909996   -7.7188682    818.21067  0.017465221  0.016397104           17 
 3905000   0.61694793   -7.7107718    816.00286  0.017413633  0.016391996            8 
 3906000   0.62222517   -7.7226913    817.44257  0.017439891  0.016386893           10 
 3907000   0.62128419   -7.7176826    816.89766  0.017423805   0.01638179            7 
 3908000   0.62242277   -7.7288332    817.30886  0.017428114   0.01637668            6 
 3909000   0.63186851   -7.7212523    816.77689  0.017412315  0.016371567           10 
 3910000   0.62574245   -7.7465185    817.56158  0.017424586  0.016366467            6 
 3911000   0.61673364    -7.735438    817.46091  0.017417986  0.016361352            6 
 3912000   0.60961367   -7.7304567    816.54539  0.017394031  0.016356242            8 
 3913000    0.6227541   -7.7438557    816.05421  0.017379125  0.016351136            6 
 3914000   0.62054286   -7.7249098    816.13948  0.017376501  0.016346029           12 
 3915000   0.61315023   -7.7483635    817.45579  0.017400081  0.016340915           12 
 3916000   0.63266511   -7.7449588    817.81678  0.017403319  0.016335788           10 
 3917000   0.62563316    -7.748983    815.97684  0.017359732  0.016330671           18 
 3918000   0.63564891   -7.7327183    817.56142  0.017389004   0.01632555           17 
 3919000   0.62129234   -7.7217982    816.06378  0.017352721  0.016320433           11 
 3920000   0.62623275    -7.751041    816.24269  0.017352098  0.016315326           17 
 3921000   0.63125061   -7.7562525     816.2107  0.017346993  0.016310212           15 
 3922000   0.61620105   -7.7474002    815.14589  0.017319945  0.016305096           14 
 3923000   0.61600679   -7.7597492     816.0942  0.017335674  0.016299992           12 
 3924000   0.61346917   -7.7208231    815.62732  0.017321341  0.016294891           15 
 3925000   0.62775551   -7.7357468     815.8875  0.017322452  0.016289778           11 
 3926000   0.62523538   -7.7299175    815.68275  0.017313694  0.016284682            9 
 3927000   0.63659139   -7.7368239     815.8703  0.017313265  0.016279578            7 
 3928000   0.62195925   -7.7225146    816.41082  0.017320325  0.016274469            7 
 3929000   0.62761737    -7.750142    816.58143  0.017319535  0.016269372            8 
 3930000   0.62488592   -7.7364487    816.11723  0.017305285  0.016264272            6 
 3931000   0.61875992   -7.7561008    815.44993  0.017286736  0.016259166            5 
 3932000   0.61471048   -7.7340774    816.78868  0.017310713  0.016254065            9 
 3933000   0.61930205   -7.7258844    817.93535  0.017330608  0.016248964           10 
 3934000   0.63022011   -7.7364894    816.62352  0.017298414   0.01624387            9 
 3935000   0.63013374   -7.7635411    816.48414  0.017291066   0.01623877           12 
 3936000   0.62181769   -7.7499553    817.24437  0.017302769  0.016233675           12 
 3937000   0.62072401   -7.7637494    816.00161  0.017272069  0.016228581            7 
 3938000   0.61762031   -7.7319911    815.58716  0.017258912  0.016223485            6 
 3939000   0.62074047   -7.7376091    816.91767  0.017282679  0.016218389           10 
 3940000   0.62573969   -7.7657296    817.13452  0.017282879  0.016213303            9 
 3941000   0.61745176   -7.7622614    816.73185  0.017269979  0.016208222           11 
 3942000   0.62645616   -7.7421057    816.71868   0.01726532  0.016203142           13 
 3943000   0.62115411   -7.7504629    817.01491  0.017267202  0.016198063           13 
 3944000    0.6297188   -7.7384404    816.36061  0.017248999  0.016192987            9 
 3945000   0.64961192   -7.7274223    816.98357  0.017257786  0.016187908            8 
 3946000   0.61239684   -7.7609376    816.66678  0.017246722  0.016182831            6 
 3947000    0.6171145   -7.7751776    815.07255  0.017208693  0.016177751            6 
 3948000   0.62163702   -7.7675199    818.32704  0.017273029  0.016172669           10 
 3949000   0.62418835   -7.7389605    815.56174  0.017210301  0.016167591            6 
 3950000   0.61457643   -7.7349579    817.27841   0.01724216  0.016162512           10 
 3951000   0.62364861   -7.7581923    817.04285  0.017232828  0.016157428            9 
 3952000   0.61322239   -7.7669226    815.14071  0.017188358  0.016152348           10 
 3953000   0.62048397   -7.7689936     816.4539  0.017211694  0.016147262           10 
 3954000   0.61033536   -7.7640003    816.39004  0.017205995  0.016142196           13 
 3955000   0.62502397   -7.7580768    816.68432  0.017207845  0.016137125            6 
 3956000   0.61623301   -7.7571009    817.20225  0.017214405   0.01613206            5 
 3957000   0.62020647   -7.7643249    818.31859  0.017233565  0.016126992            8 
 3958000   0.61524847   -7.7418327    817.56195   0.01721328  0.016121924            9 
 3959000   0.63496336   -7.7509778    816.76179   0.01719209  0.016116857           10 
 3960000   0.63323182   -7.7416076    814.95693  0.017149767  0.016111795           20 
 3961000    0.6092052   -7.7680553    816.91782  0.017186692  0.016106737            6 
 3962000   0.61572248   -7.7543893    816.08939  0.017164929  0.016101671           17 
 3963000   0.61594436   -7.7701484    817.71484  0.017194777  0.016096603            7 
 3964000   0.61702065   -7.7491964    816.89177  0.017173137  0.016091546            6 
 3965000   0.61829098   -7.7722936    815.82273  0.017146337  0.016086488           13 
 3966000   0.62849793   -7.7376485     816.1155  0.017148166  0.016081432            7 
 3967000   0.61269459   -7.7424695    815.95992  0.017140575   0.01607638            6 
 3968000   0.62564308   -7.7579345     816.3725   0.01714492  0.016071323           10 
 3969000   0.61604014   -7.7614745    818.73368  0.017190176  0.016066267            6 
 3970000   0.60465152   -7.7637481    815.29184  0.017113599  0.016061204           19 
 3971000   0.60274274   -7.7757846    817.08796  0.017146981  0.016056154            6 
 3972000   0.60947547   -7.7630727    817.36555  0.017148488  0.016051107           18 
 3973000   0.61669367    -7.778698    816.32891  0.017122429  0.016046072            7 
 3974000   0.60829466   -7.7650807    816.82415  0.017128505  0.016041037           11 
 3975000   0.62100158   -7.7558573    815.94176  0.017105697  0.016036002           11 
 3976000   0.61942977   -7.7616394    814.71435   0.01707567  0.016030961            8 
 3977000   0.61432195   -7.7380934    816.47957  0.017108364  0.016025928           15 
 3978000   0.61539004   -7.7381665    814.73623  0.017067543  0.016020888           11 
 3979000   0.61547362   -7.7418644    816.06392   0.01709106  0.016015855           13 
 3980000   0.61725541   -7.7425196    816.15379  0.017088647  0.016010825           14 
 3981000   0.61559417   -7.7465145    816.83562  0.017098627  0.016005787           13 
 3982000   0.61036966    -7.755421    815.73464  0.017071293  0.016000766           11 
 3983000   0.61954297    -7.772542    817.93084  0.017112956  0.015995738            8 
 3984000    0.6223588   -7.7529529    817.02751  0.017089766  0.015990728            6 
 3985000   0.61498163   -7.7431344    815.37174  0.017050852  0.015985718           12 
 3986000     0.627293   -7.7257405     818.7212    0.0171166  0.015980707           13 
 3987000   0.61480912   -7.7491716    816.99651  0.017076259  0.015975699           12 
 3988000    0.6177491   -7.7421917    816.77524  0.017067353  0.015970693           16 
 3989000   0.61722771   -7.7645778    817.13943  0.017070683  0.015965691           16 
 3990000   0.61100493   -7.7680797    817.98624   0.01708409  0.015960665           14 
 3991000    0.6242939   -7.7484188    816.21081  0.017042738  0.015955644           25 
 3992000    0.6064443   -7.7651868    816.66823  0.017048018  0.015950622           12 
 3993000   0.59729115   -7.7611406    816.44235  0.017039034  0.015945607           18 
 3994000   0.61198619   -7.7461032    818.08127  0.017068963  0.015940595            9 
 3995000   0.59642365   -7.7624603    816.78203  0.017037589  0.015935587            9 
 3996000   0.60866632   -7.7584038    816.49241  0.017027286  0.015930567            8 
 3997000   0.61623626   -7.7687531     814.5564  0.016982662  0.015925559            8 
 3998000   0.61417369   -7.7580302    817.56464  0.017041117  0.015920553           10 
 3999000   0.62248786     -7.75752    814.73038  0.016977794  0.015915563            6 
 4000000   0.61006314   -7.7532614    816.51862  0.017010805  0.015910566           12 
 4001000   0.61028114   -7.7528974    817.09722  0.017018604  0.015905563           11 
 4002000   0.60750814   -7.7627192    818.48923  0.017043337  0.015900577            9 
 4003000    0.6099808   -7.7375746    818.11109  0.017031208  0.015895592           13 
 4004000   0.60334115   -7.7528574    816.49494  0.016993318  0.015890607            6 
 4005000   0.61177979   -7.7749618    818.46509  0.017030068  0.015885625           13 
 4006000   0.60649541   -7.7638686    816.22364   0.01697919  0.015880643            8 
 4007000    0.6183976   -7.7647235    816.86516  0.016988295   0.01587566           13 
 4008000   0.63047082   -7.7604649     816.3873   0.01697412  0.015870672           11 
 4009000   0.59534326   -7.7447863    815.78059  0.016957275  0.015865684            7 
 4010000   0.61127678   -7.7548134    816.04565  0.016958555  0.015860707            7 
 4011000   0.62440543   -7.7403176    816.10882  0.016955639  0.015855727           12 
 4012000   0.60720655   -7.7611864    817.36394  0.016977483  0.015850759            7 
 4013000   0.62053378   -7.7565348    816.35251  0.016952249  0.015845802            8 
 4014000   0.61030131   -7.7482747     817.5909  0.016973736  0.015840834            5 
 4015000   0.61418147   -7.7348617    817.33782  0.016964255  0.015835873            6 
 4016000   0.59608499   -7.7423278    816.78932  0.016948649  0.015830909            7 
 4017000   0.61835004   -7.7555241    815.68756  0.016921574  0.015825949           12 
 4018000   0.60737182   -7.7537037    815.73591  0.016918365  0.015820984            6 
 4019000   0.61215797   -7.7739288    816.44872  0.016928936   0.01581602            6 
 4020000   0.63156731   -7.7557474    816.84155  0.016932868  0.015811056           14 
 4021000   0.60259436    -7.776118    817.01467  0.016932245  0.015806086           13 
 4022000   0.61452719   -7.7618283    817.63679  0.016940925  0.015801119           10 
 4023000   0.60604871    -7.749109    816.30578  0.016909143  0.015796165           11 
 4024000   0.60246659   -7.7681955    816.11781  0.016901048  0.015791193           11 
 4025000   0.59861684   -7.7481886    817.28437  0.016921001  0.015786229           12 
 4026000   0.60939161   -7.7564504      817.524  0.016921759  0.015781274            9 
 4027000   0.60947467    -7.759469    818.25664  0.016932717  0.015776307           12 
 4028000   0.60404808   -7.7605436    816.30449  0.016888127  0.015771355            6 
 4029000   0.59747236   -7.7511855     815.7749  0.016872981  0.015766406           12 
 4030000   0.60757245   -7.7834666     815.9681   0.01687279  0.015761444           14 
 4031000   0.60257516   -7.7908066    816.36365  0.016876781  0.015756479           12 
 4032000   0.61759937   -7.7880762    816.01786  0.016865448  0.015751514           13 
 4033000   0.61627895   -7.7719988    816.94948  0.016880517  0.015746561           15 
 4034000   0.61583964   -7.7790832    814.79149  0.016831753  0.015741604           19 
 4035000   0.60575733   -7.7669621    816.12139  0.016855047  0.015736647           23 
 4036000   0.59079966   -7.7678341    816.27644  0.016854072  0.015731702           13 
 4037000   0.60324073   -7.7731165    817.09527    0.0168668  0.015726758           14 
 4038000   0.60245749   -7.7606421    815.78346  0.016835551  0.015721813           18 
 4039000   0.61206851    -7.752411     818.0255  0.016877641  0.015716874           17 
 4040000   0.60548783   -7.7664597    817.50188  0.016862662  0.015711935           17 
 4041000    0.6107583   -7.7666843    817.13049  0.016850831  0.015706988           16 
 4042000   0.59592511   -7.7422973    816.66563  0.016837078  0.015702041           12 
 4043000   0.59808774   -7.7470907      816.398  0.016827397  0.015697099           15 
 4044000   0.60225291   -7.7732606    815.91372  0.016813257   0.01569216           15 
 4045000   0.59302515   -7.7744822    817.13679  0.016834297  0.015687215            8 
 4046000    0.6108661   -7.7554948    816.76761  0.016822533  0.015682283            8 
 4047000   0.61646916   -7.7474075    816.48436  0.016812544  0.015677356           17 
 4048000   0.60588125   -7.7621301    816.23595  0.016803276  0.015672438           13 
 4049000   0.61221416   -7.7716827    816.21302  0.016798654  0.015667507           15 
 4050000   0.60816926    -7.768879    816.69663  0.016804457  0.015662568           13 
 4051000   0.61853187    -7.764618    816.10632  0.016788166   0.01565763           16 
 4052000   0.60226725   -7.7736042    815.42052  0.016769919   0.01565269           15 
 4053000   0.59872539   -7.7795004    816.45816  0.016787116  0.015647752           16 
 4054000   0.59906095   -7.7706508    815.86322  0.016770745  0.015642813           10 
 4055000   0.59511955    -7.784545    815.71273  0.016763517  0.015637874            8 
 4056000   0.60572987   -7.7950701    815.93073  0.016763863  0.015632941           16 
 4057000   0.60451335   -7.7656702    815.68358  0.016754654  0.015628022           20 
 4058000   0.59599952   -7.7634297    815.56478  0.016748086  0.015623114           13 
 4059000   0.60048895   -7.7493155    816.42596   0.01676164  0.015618201           16 
 4060000   0.60600068   -7.7665671    817.40441  0.016777595  0.015613285            6 
 4061000   0.59659905   -7.7600392    816.24847  0.016749743   0.01560837           10 
 4062000   0.60178636   -7.7731857    816.58422  0.016752507  0.015603458            7 
 4063000   0.61088324   -7.7748078     815.0396  0.016716704  0.015598543           10 
 4064000   0.61326503   -7.7748868    815.51638  0.016722367  0.015593632           14 
 4065000   0.60486141   -7.7585752    817.31505  0.016755126  0.015588719            4 
 4066000   0.59290641   -7.7642428    815.25301  0.016708743  0.015583807           10 
 4067000   0.60142338   -7.7888113    816.46866  0.016729544  0.015578889            9 
 4068000   0.59942623   -7.7830938    815.54093  0.016706427  0.015573968           13 
 4069000   0.59858048   -7.7582033    815.17595  0.016694846   0.01556906            8 
 4070000   0.58681794   -7.7838809    815.34046  0.016694113  0.015564144           10 
 4071000   0.60406756   -7.7862802    816.08934  0.016705341  0.015559227            6 
 4072000   0.59387337   -7.7699596    813.89247   0.01665628  0.015554316            4 
 4073000   0.58907599   -7.7904238    816.47245  0.016704977  0.015549414            7 
 4074000   0.59361669    -7.771909     816.8603   0.01670881   0.01554451            6 
 4075000   0.59645131   -7.7910715    815.47007   0.01667628  0.015539605            8 
 4076000   0.61515256   -7.7937325     816.4532  0.016692288  0.015534712           10 
 4077000    0.5937561   -7.7764567    815.60799  0.016670918  0.015529811            8 
 4078000   0.59713951   -7.7929238    816.92447  0.016693732   0.01552491            7 
 4079000   0.59707341   -7.8092835    816.38011  0.016678518  0.015520002            8 
 4080000   0.59382262   -7.7940091    814.67894  0.016639684  0.015515093            7 
 4081000   0.59869532   -7.7902122    815.16729  0.016645579  0.015510194            5 
 4082000   0.59478475   -7.7871877    816.18669  0.016662312    0.0155053            9 
 4083000   0.59771654   -7.8042362     815.1422  0.016636913  0.015500403            9 
 4084000   0.60246458   -7.7864993    816.77382  0.016666133  0.015495507           13 
 4085000   0.60136058   -7.7575379     814.6571  0.016618872  0.015490621            7 
 4086000   0.59360703   -7.7844955    814.84217  0.016618579  0.015485729           13 
 4087000   0.57773574     -7.79126    816.66586  0.016651698  0.015480843           14 
 4088000   0.60170454   -7.7840298    814.81162  0.016609826  0.015475948            9 
 4089000   0.59930437   -7.7919139    815.67952  0.016623451  0.015471064            9 
 4090000   0.60150582   -7.8118586    814.36881  0.016592681  0.015466171           14 
 4091000   0.60269593    -7.796129    817.57589  0.016653954  0.015461288           16 
 4092000   0.59214717   -7.7851259    816.88765  0.016635868  0.015456412            9 
 4093000   0.58680495   -7.7911802    817.01271   0.01663435  0.015451541           21 
 4094000   0.59608808   -7.7860609    816.36713  0.016617146  0.015446676           15 
 4095000   0.58193643   -7.7874839     816.2485  0.016610674  0.015441807           21 
 4096000      0.60419   -7.7609749    816.07878  0.016603165  0.015436943           12 
 4097000   0.58636917   -7.7796942      817.068  0.016619234  0.015432086            9 
 4098000   0.59804025   -7.7891867    815.87609   0.01659094  0.015427226            8 
 4099000   0.61016802   -7.8058687    816.02234  0.016589866  0.015422364            7 
 4100000   0.59050321   -7.7849215    816.55211  0.016596588  0.015417508           12 
 4101000   0.59505125   -7.7943906    814.71994   0.01655531  0.015412658           12 
 4102000    0.5755579   -7.7894097    816.22551  0.016581861  0.015407805           14 
 4103000    0.5973135   -7.7895011    816.05899  0.016574437  0.015402957           18 
 4104000   0.60123906   -7.7799602    816.27972  0.016574881  0.015398112           11 
 4105000   0.59125328   -7.7959203     816.8861  0.016583153  0.015393265            9 
 4106000   0.59970522   -7.7924227    814.21119  0.016524825  0.015388414           18 
 4107000   0.58574203   -7.7790563    816.09068  0.016558937  0.015383579            9 
 4108000   0.59724455   -7.8077064     817.0379  0.016574122   0.01537874            5 
 4109000    0.5775117   -7.7839765    817.64118  0.016582323  0.015373907           10 
 4110000   0.59353721   -7.7663403    816.37553  0.016552626  0.015369076            5 
 4111000   0.59310562   -7.7780757    816.09299  0.016542873  0.015364251           11 
 4112000   0.59688777   -7.7814139    816.31938  0.016543437  0.015359411           13 
 4113000    0.5770284   -7.7907298    815.63746  0.016525599  0.015354571           19 
 4114000   0.59661044   -7.7932754    816.95035  0.016548176  0.015349736            9 
 4115000   0.58141923   -7.8021322    814.67425  0.016498061  0.015344896            9 
 4116000   0.58723512   -7.7944861    816.42436  0.016529486  0.015340048           15 
 4117000    0.5949183   -7.7939027     816.1586  0.016520092  0.015335205            7 
 4118000   0.58423723    -7.808347    814.75023  0.016487579   0.01533037            6 
 4119000   0.58871206   -7.8175576    815.19064  0.016492487  0.015325536           10 
 4120000   0.60300603   -7.8007264    817.08537  0.016526808  0.015320701           12 
 4121000   0.60481598   -7.8043233    816.62844  0.016513557  0.015315878           16 
 4122000   0.60510582   -7.8066378    816.55296  0.016508025  0.015311053           13 
 4123000   0.59275069   -7.8048941    816.16336  0.016496147  0.015306233            5 
 4124000   0.59462634   -7.8102046    814.95671  0.016467764  0.015301391            6 
 4125000   0.59340339   -7.8156555    815.58375  0.016476439   0.01529656           11 
 4126000   0.60126575    -7.815901    814.23014  0.016445107  0.015291734            6 
 4127000   0.58267316   -7.8013171    816.08514  0.016478579  0.015286902            6 
 4128000   0.58864547   -7.8114416     815.8975  0.016470799  0.015282082           13 
 4129000   0.59309695   -7.8238965    814.85787  0.016445828  0.015277264            5 
 4130000   0.58662455   -7.8159145    816.29914  0.016470927  0.015272442            4 
 4131000   0.57585199   -7.8124617    815.95514      0.01646  0.015267622            9 
 4132000   0.59267831   -7.8030438    816.51266  0.016467261  0.015262807            7 
 4133000   0.58668244   -7.8145182    817.12191  0.016475561  0.015257996           12 
 4134000   0.58987177   -7.7938297    815.45757  0.016438026  0.015253181            9 
 4135000   0.59032499   -7.8055443    815.80168  0.016440985  0.015248371            6 
 4136000   0.59163228   -7.8095749    814.58521    0.0164125  0.015243562            9 
 4137000   0.58570022   -7.8039723    815.95368  0.016436099  0.015238756           11 
 4138000   0.59566899   -7.7975475    815.83719  0.016429781  0.015233952           10 
 4139000   0.59289395   -7.8068359    814.93144  0.016407575  0.015229146            8 
 4140000   0.57383535   -7.8105724    816.91656   0.01644357  0.015224348           13 
 4141000   0.57846978   -7.8136372    815.02103  0.016401454  0.015219548            9 
 4142000   0.60671244   -7.8087163     815.8203  0.016413574  0.015214751           15 
 4143000   0.58587312   -7.8060257    817.25224  0.016438415  0.015209955           17 
 4144000   0.58941455   -7.8030086    817.24655  0.016434334  0.015205162           11 
 4145000   0.58635217   -7.8073581    817.02392  0.016425893  0.015200375           10 
 4146000   0.58356423   -7.7979794     815.4258  0.016389809  0.015195594           23 
 4147000   0.58724024   -7.8127464    817.95055  0.016436592  0.015190809           10 
 4148000   0.59385594   -7.8171024    816.26415  0.016398749  0.015186029           12 
 4149000   0.58789605   -7.8177984    816.01402  0.016389773  0.015181246           10 
 4150000   0.58475754   -7.7993973    815.31769  0.016371841  0.015176467            9 
 4151000   0.57619167   -7.8158146    817.19141  0.016405513  0.015171694           11 
 4152000   0.57843226   -7.8165789    816.08486  0.016379353  0.015166917           12 
 4153000   0.58892365   -7.8097656    816.29445  0.016379614   0.01516214           10 
 4154000   0.59195764   -7.8130284    815.61485  0.016362038  0.015157355           12 
 4155000   0.59542561   -7.8054238    815.62192  0.016358242  0.015152578            9 
 4156000   0.58085173   -7.7978421      816.386  0.016369626    0.0151478           12 
 4157000   0.57021043   -7.8036676     815.6361  0.016350655  0.015143018           20 
 4158000   0.58031998   -7.8075566    815.83939  0.016350798  0.015138241           10 
 4159000   0.58907845   -7.7961567     816.7155  0.016364421  0.015133468           10 
 4160000   0.57563395   -7.8039735    816.41235  0.016354414  0.015128694           10 
 4161000   0.59581217   -7.7977835     814.8179  0.016318551  0.015123914           13 
 4162000   0.57685166   -7.8082815     815.1526  0.016321332  0.015119139           13 
 4163000   0.57333285   -7.8125098    814.13632  0.016297068  0.015114369           15 
 4164000   0.57278884   -7.8168299    815.10636  0.016312567  0.015109596           13 
 4165000   0.57326371   -7.8273895    815.92865  0.016325103   0.01510482           10 
 4166000   0.58550256    -7.785994    816.03058  0.016323223   0.01510005           15 
 4167000   0.58526968   -7.8117864    816.43808  0.016327455  0.015095279            8 
 4168000   0.58149809    -7.807524    815.44151  0.016303613  0.015090504           15 
 4169000   0.57743089   -7.8264466     816.8348  0.016327552  0.015085731            8 
 4170000    0.5791775   -7.8208444    815.51186  0.016297199  0.015080957            6 
 4171000   0.58237909   -7.8253393    814.83683  0.016279806  0.015076184            8 
 4172000   0.57242147   -7.8033069    816.60017  0.016311125   0.01507142           10 
 4173000   0.59326285   -7.8123705    815.50119   0.01628527  0.015066657           11 
 4174000   0.58541008   -7.8289811    815.05783  0.016272517  0.015061896           15 
 4175000   0.58323281   -7.8249886    815.28215  0.016273097   0.01505713           13 
 4176000    0.5894911   -7.8149959    815.03523  0.016264273  0.015052374           11 
 4177000   0.57386981   -7.8267803    815.88929  0.016277418  0.015047617            7 
 4178000   0.58187445   -7.8186453    816.04554  0.016276638  0.015042855           18 
 4179000   0.59078519   -7.8180254    814.12214  0.016234389  0.015038093           11 
 4180000   0.59118081   -7.8376812    815.87482  0.016265447  0.015033334           10 
 4181000   0.58749092   -7.8258798    816.20955  0.016268228  0.015028582           23 
 4182000    0.5850946    -7.817669    815.09945  0.016242218  0.015023825           11 
 4183000   0.57680286   -7.8373609    814.10857  0.016218594  0.015019065           12 
 4184000    0.5715255   -7.8301622    814.44288  0.016221377  0.015014307            8 
 4185000   0.59332106   -7.8164515    814.66849  0.016221993  0.015009557            7 
 4186000   0.58291892   -7.8354565    816.04819  0.016245584  0.015004805           10 
 4187000   0.57969216   -7.8387771    814.85648  0.016217986  0.015000054           15 
 4188000   0.58279482   -7.8210055    815.41182  0.016225163  0.014995312           10 
 4189000   0.58374635   -7.8162657    814.83636  0.016209842   0.01499057           13 
 4190000   0.57508116   -7.8172099    815.23102  0.016213823  0.014985823           15 
 4191000   0.57774022   -7.8204454    815.70099  0.016219299  0.014981075            9 
 4192000   0.58247233   -7.8043172    814.35333   0.01618864  0.014976333            5 
 4193000   0.57625509    -7.832083    814.33904  0.016184495  0.014971592           23 
 4194000   0.57507194   -7.8237236    816.13177  0.016216257  0.014966864           12 
 4195000   0.58356143   -7.8467078    814.95261  0.016188967  0.014962132           13 
 4196000   0.58310783   -7.8259194    815.30498  0.016192107  0.014957411           16 
 4197000   0.58728885   -7.8235416    815.50496   0.01619222  0.014952696           12 
 4198000   0.57845948   -7.8135556    815.01193  0.016178576  0.014947966           12 
 4199000   0.58120079   -7.8248962    814.06594  0.016155949  0.014943239           12 
 4200000   0.58404724   -7.8414636     816.5228  0.016200849  0.014938518           26 
 4201000   0.57614595   -7.8091294    814.16404  0.016150203  0.014933801           19 
 4202000   0.57259654   -7.8265983    813.66037  0.016136371  0.014929086           11 
 4203000   0.57299145    -7.823984    816.06137  0.016180137   0.01492437           11 
 4204000    0.5826219   -7.8041407    814.77404   0.01615077  0.014919658           21 
 4205000   0.57845483   -7.8359117    816.20544  0.016175296  0.014914941           11 
 4206000   0.58014554   -7.8165062      813.983  0.016127417   0.01491023           16 
 4207000   0.57211374   -7.8215647    815.87423  0.016161046  0.014905509           24 
 4208000   0.58587759   -7.8527968    814.61504  0.016132269  0.014900797           11 
 4209000   0.57601569   -7.8243469    814.26974  0.016121599  0.014896088           16 
 4210000   0.57831048   -7.8035622    815.60438  0.016144188  0.014891384           20 
 4211000   0.57578084    -7.828762    815.70779  0.016142401  0.014886689           17 
 4212000   0.58019754   -7.8157423    813.81323  0.016101085   0.01488199           16 
 4213000   0.57617576    -7.825915    815.87243  0.016137994  0.014877283           12 
 4214000   0.59284239   -7.8357736    816.44058    0.0161454  0.014872581           12 
 4215000   0.56367029   -7.8571242    815.29406  0.016118902  0.014867881           14 
 4216000    0.5742097   -7.8255491    815.08055  0.016110858  0.014863179           13 
 4217000   0.58501816   -7.8128871    814.97786  0.016105009  0.014858489           12 
 4218000   0.57508859   -7.8182406    814.87574  0.016099173  0.014853796           18 
 4219000   0.57779827   -7.8042435    814.94262  0.016096678  0.014849104           29 
 4220000   0.58685038   -7.8197999    815.44591  0.016102802  0.014844412            8 
 4221000   0.56647197   -7.8525525    816.43191  0.016118454  0.014839719           21 
 4222000   0.57609951   -7.8346858    816.14624  0.016108997  0.014835036            8 
 4223000   0.58649973   -7.8261465     815.6932  0.016096243  0.014830348           27 
 4224000    0.5832474   -7.8178554    816.09543  0.016100368  0.014825664           13 
 4225000   0.57367331   -7.8147856    814.15332  0.016058251  0.014820977           13 
 4226000   0.58232589   -7.8408498    814.29305  0.016057206  0.014816298           13 
 4227000   0.57326765    -7.821511    815.09814   0.01606928  0.014811618            9 
 4228000   0.58662333   -7.8149004    814.54773   0.01605463  0.014806946           12 
 4229000   0.57182269   -7.8139976    815.12755   0.01606226  0.014802275            6 
 4230000   0.57118571   -7.8192032    815.92301  0.016074133    0.0147976           17 
 4231000   0.57790669   -7.8318803    814.90053  0.016050196  0.014792929            6 
 4232000   0.56681361   -7.8079996    814.72468   0.01604294  0.014788258            7 
 4233000   0.57680847   -7.8217428    815.53395  0.016055082  0.014783598            7 
 4234000   0.57687421   -7.8244127    816.43536  0.016069032  0.014778937            8 
 4235000   0.57729165   -7.8440587    817.71689  0.016090454  0.014774273            8 
 4236000   0.58170135   -7.8314941    815.86493  0.016050223  0.014769616            5 
 4237000   0.58113902   -7.8320349    813.97371  0.016009238  0.014764948            4 
 4238000   0.56563239   -7.8185045    813.22545  0.015990747  0.014760283            8 
 4239000   0.57340628   -7.8149024    816.03586  0.016042224  0.014755615           11 
 4240000   0.56942259   -7.8254045    815.88649  0.016035505  0.014750958           23 
 4241000    0.5783417   -7.8334406    815.42355  0.016022627  0.014746299           11 
 4242000   0.57745563   -7.7891853    814.54249  0.016001542  0.014741642           17 
 4243000   0.56994189   -7.8266397    816.25434  0.016031392  0.014736991           20 
 4244000   0.57054387   -7.8186394    815.73519  0.016017421   0.01473234           15 
 4245000   0.58171143   -7.8226695    815.71282  0.016013208  0.014727687           10 
 4246000    0.5654411   -7.8158065    814.21335  0.015980008  0.014723037           14 
 4247000   0.56491499   -7.7977979     814.7484  0.015986744  0.014718398           18 
 4248000   0.58542565   -7.8319546    815.50529  0.015997828  0.014713758           15 
 4249000    0.5660874   -7.8226068    815.43851  0.015992753   0.01470911            8 
 4250000   0.57343933   -7.8376503    814.35484  0.015967742  0.014704467           15 
 4251000   0.56346967   -7.8286614    815.37843  0.015984051  0.014699832            7 
 4252000   0.56979172    -7.833063     816.0782  0.015994007  0.014695199           13 
 4253000   0.58742247    -7.827795    815.36264  0.015976225  0.014690567           18 
 4254000   0.57019307   -7.8532393    815.01663  0.015965692  0.014685938           21 
 4255000   0.55773857   -7.8394922    816.90983  0.015999017  0.014681316            9 
 4256000   0.57594992   -7.8362353    815.77896  0.015973116  0.014676696           11 
 4257000   0.57075133   -7.8325156    815.33518  0.015960676  0.014672072           10 
 4258000    0.5756996   -7.8358078    816.21249  0.015974098  0.014667443           10 
 4259000   0.57300454   -7.8365248    815.50146  0.015956435  0.014662823           15 
 4260000   0.56046815   -7.8344439    815.89444  0.015960376  0.014658206           10 
 4261000   0.56477714   -7.8414009    814.84717  0.015936149  0.014653583           13 
 4262000   0.57917919   -7.8395684    815.01232  0.015935639  0.014648963           10 
 4263000    0.5605708   -7.8522598    815.07033  0.015933035  0.014644344           17 
 4264000   0.57401405   -7.8382495     815.6159  0.015939961  0.014639727           10 
 4265000   0.57063204   -7.8282952    814.64708  0.015917293  0.014635109            7 
 4266000   0.56590271   -7.8284865    815.32702  0.015926844  0.014630497           10 
 4267000   0.58246667   -7.8505074    815.43706  0.015925261  0.014625887            9 
 4268000   0.57114015   -7.8359608    815.50018  0.015922762  0.014621277           12 
 4269000   0.56598031   -7.8338456    814.66801  0.015902788  0.014616674           11 
 4270000   0.57292341   -7.8506662    815.24354  0.015910295  0.014612067            7 
 4271000   0.58041597   -7.8360127    814.69276  0.015895824  0.014607461            7 
 4272000    0.5828047   -7.8276081    814.50977  0.015888533   0.01460286           13 
 4273000   0.57131713   -7.8290757    815.53715  0.015904851  0.014598261           10 
 4274000   0.56188668   -7.8379567    814.29894  0.015876988  0.014593659            8 
 4275000   0.56144743   -7.8377605    815.97893  0.015906022  0.014589053            9 
 4276000   0.56664779   -7.8215583    816.30564  0.015908669  0.014584456            9 
 4277000   0.56691075   -7.8362892    814.34835  0.015866814  0.014579867           15 
 4278000   0.56365195   -7.8259184    814.38682  0.015863854  0.014575275           12 
 4279000   0.58141159   -7.8333598    815.34558  0.015878819  0.014570679            8 
 4280000   0.56793143   -7.8555617    815.20604  0.015872392  0.014566081           22 
 4281000   0.56628093   -7.8285589    814.75098  0.015859826  0.014561488           12 
 4282000    0.5607348    -7.840501    814.75136   0.01585613  0.014556899           13 
 4283000    0.5566659   -7.8641553    816.12049  0.015879066  0.014552319           15 
 4284000   0.56614137   -7.8401681    814.78346  0.015849351  0.014547728            8 
 4285000    0.5632896   -7.8390001     814.3637  0.015837489  0.014543142            7 
 4286000   0.55710219   -7.8275784    814.48958  0.015836242   0.01453856           13 
 4287000   0.56484941    -7.857742    814.23341  0.015827568  0.014533971           14 
 4288000   0.56749421      -7.8424    815.17803  0.015842235  0.014529389           10 
 4289000   0.55960187   -7.8271732    814.07827  0.015817173  0.014524801           11 
 4290000   0.56074466   -7.8547681    815.65481  0.015844111  0.014520224           10 
 4291000   0.55039982   -7.8311917    815.64576  0.015840242   0.01451565           17 
 4292000   0.56946694   -7.8438104    814.39193  0.015812207  0.014511078            7 
 4293000   0.57183263   -7.8491621    814.01801  0.015801266  0.014506504           10 
 4294000   0.56269822   -7.8390145    815.01895  0.015817011  0.014501933            8 
 4295000   0.57527529   -7.8521792    815.14241  0.015815724  0.014497364           12 
 4296000   0.55948361   -7.8458992     813.4548  0.015779306  0.014492794           13 
 4297000   0.57434559    -7.855528    815.10625  0.015807661  0.014488227            9 
 4298000   0.56588691   -7.8630233    814.55784   0.01579335  0.014483656            9 
 4299000   0.56028631   -7.8587963    814.06976  0.015780215  0.014479095           12 
 4300000   0.56739094   -7.8415641    814.50966  0.015785071  0.014474525            9 
 4301000   0.56747753   -7.8331085    814.25851  0.015776535  0.014469961            9 
 4302000   0.55194088   -7.8527049    814.27195  0.015773128  0.014465398            7 
 4303000   0.55704252   -7.8435767    815.32965  0.015789946  0.014460837            8 
 4304000   0.55632552   -7.8694089    814.34454  0.015767204  0.014456277           12 
 4305000   0.56125073   -7.8543789    814.28177  0.015762326   0.01445171           11 
 4306000   0.56277317   -7.8700219    814.53861  0.015763636  0.014447145            8 
 4307000   0.55667005   -7.8406428    814.38003  0.015756908  0.014442581            5 
 4308000   0.56655274   -7.8359248    813.41481  0.015734579  0.014438016            7 
 4309000   0.58164841   -7.8661106    815.14482  0.015764385  0.014433456            8 
 4310000   0.56733349   -7.8471349    813.93395  0.015737315  0.014428894           23 
 4311000    0.5595794   -7.8627109    815.53262  0.015764568  0.014424339           12 
 4312000   0.56423012   -7.8571722    814.58209  0.015742542  0.014419783            6 
 4313000   0.56967277   -7.8440947     815.6736  0.015759981  0.014415235           10 
 4314000   0.55665253   -7.8543695     814.9326  0.015742014  0.014410682            6 
 4315000   0.56395702    -7.865119    814.39825  0.015728047  0.014406127           10 
 4316000   0.56101109   -7.8605974     814.9842  0.015735716  0.014401568           11 
 4317000   0.55464021   -7.8597869    815.67261   0.01574536  0.014397015           10 
 4318000    0.5671495   -7.8466593    813.48464  0.015699487  0.014392457           10 
 4319000   0.55607705    -7.868244    813.79891  0.015701916  0.014387899            8 
 4320000   0.55573295   -7.8580438    815.92787  0.015739349  0.014383352            9 
 4321000   0.55596364   -7.8511465    814.07408  0.015699955  0.014378803           11 
 4322000   0.55128255   -7.8530678    814.76381  0.015709622  0.014374254            9 
 4323000   0.55846662   -7.8639709    814.32799  0.015697586  0.014369705           13 
 4324000   0.54753419   -7.8752712    814.40451  0.015695431  0.014365151            7 
 4325000    0.5505519   -7.8452586    813.76635  0.015679506    0.0143606           16 
 4326000   0.55798867   -7.8501363    813.53427  0.015671411  0.014356052           12 
 4327000   0.55332116   -7.8700551    816.24211  0.015719939  0.014351507            9 
 4328000   0.56490461    -7.856114    814.76311  0.015687829  0.014346962            6 
 4329000   0.55977619   -7.8916141    813.96255  0.015668795  0.014342425            8 
 4330000   0.56191662   -7.8538134    813.14593   0.01564946  0.014337879           12 
 4331000   0.55262646   -7.8687177    813.47476  0.015652173  0.014333337           15 
 4332000   0.55384954   -7.8671995     814.9506  0.015676951  0.014328802           19 
 4333000   0.55433966   -7.8582699    813.43386  0.015644162  0.014324269           13 
 4334000   0.54762419   -7.8560857    813.16851   0.01563545  0.014319729           12 
 4335000   0.53698576   -7.8757702    811.26863  0.015595322  0.014315191           24 
 4336000   0.56149126   -7.8684282    814.59198  0.015655596  0.014310653           10 
 4337000   0.56604191   -7.8775524    813.83172  0.015637378  0.014306117           19 
 4338000   0.56662607   -7.8616032    814.00962  0.015637191  0.014301584           15 
 4339000   0.57542538   -7.8767827    814.23992   0.01563801   0.01429705           15 
 4340000   0.55978657   -7.8625744    813.36799  0.015617665   0.01429252           15 
 4341000   0.57151199   -7.8923551    813.33826  0.015613496  0.014287989           16 
 4342000   0.56710844   -7.8749058    813.14673  0.015606225  0.014283459           16 
 4343000   0.56434596   -7.8896642    812.22385  0.015584923   0.01427893            7 
 4344000   0.54405533   -7.8801867     812.0555  0.015578106  0.014274401           16 
 4345000   0.55747059   -7.8644574    811.74873  0.015568637  0.014269873           17 
 4346000   0.54924767   -7.8950186    813.61754  0.015600889  0.014265354           11 
 4347000   0.55764188   -7.8615063    812.87949  0.015583151  0.014260832           11 
 4348000   0.54727911   -7.8960398    813.11513  0.015584083  0.014256309           16 
 4349000   0.55120121   -7.9104312    813.84594  0.015594503  0.014251788           17 
 4350000   0.55891088   -7.8913073    813.14902  0.015577567   0.01424727           17 
 4351000   0.56226789   -7.8855472     813.1161  0.015573357  0.014242755            9 
 4352000   0.55769218   -7.8583768    813.16348  0.015570686  0.014238241           15 
 4353000   0.55147307   -7.8804532    812.90505  0.015562161   0.01423373           11 
 4354000   0.54710902   -7.8766983    813.44963   0.01556901  0.014229217           10 
 4355000   0.55015036   -7.8724617    812.29244  0.015543292  0.014224703           21 
 4356000    0.5530551   -7.8821311    814.08909  0.015574095  0.014220188           13 
 4357000   0.55265448   -7.8735357    812.30752  0.015536446  0.014215685           16 
 4358000   0.55626391   -7.8567681     812.3903  0.015534463  0.014211177           18 
 4359000   0.55397863    -7.900815     813.6587  0.015555148  0.014206673           18 
 4360000   0.54200739   -7.8760814    813.72213  0.015552793  0.014202163           16 
 4361000   0.56408307   -7.8996866    811.87825  0.015513992  0.014197664           12 
 4362000   0.55502794   -7.8950521    814.22277  0.015555226  0.014193162            5 
 4363000   0.56147976   -7.8822616    813.46189  0.015537128  0.014188671            7 
 4364000   0.55027647   -7.8770174    812.32056  0.015511774  0.014184172            9 
 4365000   0.54909416   -7.8695203    813.77582  0.015536003  0.014179686           15 
 4366000     0.555653   -7.8735686    814.53899  0.015547011  0.014175198            6 
 4367000   0.54467345   -7.8717738    812.77705  0.015509828  0.014170712            6 
 4368000   0.56103636   -7.8765148    814.03303  0.015530239  0.014166224           12 
 4369000   0.55209858    -7.880573    812.33588  0.015494314  0.014161739           19 
 4370000   0.56082266   -7.8569779    814.18872  0.015526101  0.014157255            8 
 4371000   0.55041251   -7.8739005    812.79332  0.015495945  0.014152768           18 
 4372000   0.55734611   -7.8895197    812.81521  0.015492818  0.014148281           12 
 4373000   0.55117236   -7.8756688    813.16876  0.015496013   0.01414379            7 
 4374000   0.54924822   -7.8719872    813.62724  0.015501205  0.014139304           11 
 4375000   0.55992105   -7.8720767    812.66367  0.015479308  0.014134817           11 
 4376000   0.55186736   -7.8846657    813.48807   0.01549147  0.014130339            8 
 4377000   0.55949255   -7.8854338    812.63761  0.015471739  0.014125866           12 
 4378000   0.55049193   -7.8805593    812.79187  0.015471141    0.0141214            7 
 4379000   0.55675616   -7.8781029    813.03686   0.01547227  0.014116933            5 
 4380000   0.55057926   -7.8733049    814.42771    0.0154952  0.014112469           10 
 4381000   0.56034396   -7.8906259    812.37611  0.015452639  0.014108004           13 
 4382000   0.55502995   -7.8852111    814.04905  0.015480927  0.014103537           14 
 4383000   0.54510264    -7.883991    814.43809  0.015484791   0.01409908           11 
 4384000     0.564356   -7.8587411    813.46682  0.015462797   0.01409462           13 
 4385000   0.54846819    -7.892038    813.43758  0.015458715  0.014090165            8 
 4386000   0.55360655   -7.8918398    814.69177   0.01547902   0.01408571            8 
 4387000   0.53232417   -7.8877943    812.92949  0.015442016  0.014081253           13 
 4388000   0.55152685   -7.8860411     813.5909  0.015451058  0.014076805            8 
 4389000   0.55131569   -7.8952326    812.48603  0.015426559  0.014072356           14 
 4390000   0.55826839   -7.8932953    812.89919  0.015430888  0.014067903           14 
 4391000   0.55047727   -7.8680402    813.93538  0.015447039  0.014063457           11 
 4392000   0.56716541   -7.8905214    813.11657  0.015427986  0.014059012           10 
 4393000    0.5615501   -7.8950407    812.35651  0.015410056  0.014054565            9 
 4394000   0.54128566   -7.8859856    814.11536  0.015439906  0.014050119           14 
 4395000   0.54323004   -7.8832496    813.68932  0.015428315  0.014045672            9 
 4396000    0.5390838   -7.8767607    812.85998  0.015409084  0.014041228            8 
 4397000   0.54335514   -7.8808545    813.48347  0.015417396  0.014036784            7 
 4398000   0.55265659   -7.8802235    812.78658  0.015400686  0.014032343            8 
 4399000   0.54966386    -7.892739     813.4916   0.01541054  0.014027906            7 
 4400000   0.55511171   -7.8656827    813.33264  0.015404027  0.014023477            6 
 4401000   0.54094415   -7.8854659    814.07506  0.015414585  0.014019041            9 
 4402000   0.54735025   -7.8969675      813.294  0.015396297  0.014014612            5 
 4403000   0.55484312   -7.8853868    812.24334  0.015372915  0.014010179           13 
 4404000   0.54087243   -7.8875043     812.4914  0.015374118  0.014005745           12 
 4405000   0.55189957   -7.8993654    813.58086  0.015391238  0.014001316           11 
 4406000   0.55406879   -7.8980087    813.44101    0.0153851  0.013996881           15 
 4407000   0.54943265   -7.8971394    811.81371  0.015350838  0.013992447           13 
 4408000   0.53963511    -7.900962      813.179  0.015373166  0.013988014            9 
 4409000   0.54781278   -7.8962161     813.4732   0.01537524  0.013983581           19 
 4410000   0.55475593   -7.8915155    813.59751  0.015374103  0.013979164           11 
 4411000   0.54912696   -7.8659078      813.257  0.015364184  0.013974744            6 
 4412000   0.53374225   -7.8811905    814.09312  0.015376494  0.013970322            9 
 4413000   0.53131187   -7.8935097     814.1253  0.015373618    0.0139659           14 
 4414000   0.54810375   -7.9091318    812.98947  0.015348691  0.013961482            9 
 4415000   0.54988431   -7.8800887    813.05393  0.015346431  0.013957062            5 
 4416000   0.54625886    -7.897227    813.08004  0.015343449  0.013952649            8 
 4417000   0.54239041   -7.8770501    813.88481  0.015355158   0.01394824            8 
 4418000   0.53640731   -7.8803764    813.99596  0.015353779  0.013943831           14 
 4419000   0.54820937   -7.9004792    814.19032   0.01535397  0.013939424            8 
 4420000   0.54258556   -7.8995866     812.7691  0.015323701  0.013935014           17 
 4421000   0.54199042   -7.8860702    811.56838  0.015297602  0.013930599           10 
 4422000   0.53750235   -7.8818032    812.16649  0.015305414  0.013926195           10 
 4423000   0.54122321   -7.8901601    813.27797  0.015322895  0.013921782           10 
 4424000    0.5396741   -7.8919866    813.45047  0.015322681  0.013917368           11 
 4425000   0.54454085   -7.8741503    811.78838  0.015287917  0.013912951            7 
 4426000   0.53932308   -7.8928905    811.66745  0.015282186  0.013908542           10 
 4427000   0.53995809   -7.8993812    813.08734  0.015305462  0.013904134            7 
 4428000   0.54275187   -7.9102275    812.27957  0.015286803  0.013899733           10 
 4429000   0.54519583   -7.8915248    811.44537  0.015267656  0.013895335            9 
 4430000   0.55151961   -7.9165455    813.07943  0.015294948  0.013890931           12 
 4431000   0.53916694   -7.9046696    811.61709  0.015263994  0.013886528           10 
 4432000   0.54375643   -7.8821129    813.15329  0.015289435  0.013882129           10 
 4433000   0.55315093   -7.9026016    812.24193  0.015268853  0.013877737           12 
 4434000    0.5376333   -7.8886869    812.08183  0.015262401  0.013873338            8 
 4435000   0.53864965   -7.8986673    811.46928   0.01524745  0.013868948            6 
 4436000   0.52864216   -7.9029796    813.15288   0.01527564   0.01386455           13 
 4437000   0.54643705    -7.877809    814.26061  0.015293002  0.013860161           19 
 4438000   0.53887211   -7.9107006    812.21133  0.015251076  0.013855778           13 
 4439000   0.54316324   -7.9061338     813.0035  0.015262512  0.013851394            8 
 4440000   0.53907917   -7.9103061    811.84723  0.015237373  0.013847013           13 
 4441000   0.54820507   -7.9011839    813.29572  0.015261122  0.013842624            7 
 4442000   0.53212797   -7.8900128    812.08952  0.015235058  0.013838241           10 
 4443000    0.5354706   -7.8920504    812.38759  0.015237219   0.01383386           11 
 4444000   0.55266588   -7.9126426    812.62199  0.015238186  0.013829484           10 
 4445000   0.52778606   -7.8967057    812.49048  0.015232293  0.013825107           16 
 4446000   0.52622872   -7.8928943    812.51165  0.015229263   0.01382073           11 
 4447000   0.53850117   -7.9063811    813.17872  0.015238339  0.013816354           12 
 4448000   0.54577411   -7.9000797    812.42761  0.015220841  0.013811976            7 
 4449000   0.53608842   -7.9015566    812.39463  0.015216802  0.013807603            6 
 4450000   0.54206701   -7.9048993    814.61556  0.015254973  0.013803232           13 
 4451000   0.53947119   -7.9041438    812.66396  0.015215007  0.013798862            9 
 4452000    0.5410035   -7.8992902    811.45977  0.015189049  0.013794488           17 
 4453000   0.53786093   -7.9165921    813.11843  0.015216678  0.013790122           12 
 4454000   0.53580049   -7.8981956    812.74035  0.015206188  0.013785753           13 
 4455000   0.54475884   -7.9105359     812.4706  0.015197729  0.013781386           11 
 4456000   0.53329433   -7.9153374    812.02563  0.015185997  0.013777022           13 
 4457000   0.54027223   -7.8987813    811.23437  0.015167795  0.013772658            5 
 4458000   0.54364948   -7.9084054    813.65273  0.015209599  0.013768296           13 
 4459000   0.54917554   -7.9157837    812.59169  0.015186359  0.013763937           19 
 4460000   0.53818235   -7.8956769    810.99831  0.015153182  0.013759575           11 
 4461000   0.53820915   -7.9075454    811.39178  0.015157136  0.013755212           17 
 4462000   0.52252976   -7.8876863    812.74801  0.015179068  0.013750848            8 
 4463000   0.54661589    -7.920808    812.68584  0.015174506  0.013746484           12 
 4464000   0.54542091   -7.9153462    812.43159   0.01516636  0.013742124            9 
 4465000   0.54745698   -7.9030251    810.93356  0.015135005  0.013737766            9 
 4466000   0.53772835   -7.9114334    811.63952  0.015144789  0.013733413           13 
 4467000   0.54016818   -7.9063262    811.65249   0.01514164  0.013729056            7 
 4468000   0.53843975   -7.8916297    810.86309  0.015123528  0.013724698           12 
 4469000    0.5244796   -7.9119231    811.08397  0.015124263  0.013720344           14 
 4470000    0.5370379   -7.9153546     812.0508  0.015138904  0.013715998            9 
 4471000   0.54210011   -7.9144722    811.96004  0.015133826  0.013711651           11 
 4472000   0.53165057   -7.8854859    813.16098  0.015152821  0.013707309            8 
 4473000   0.53709031   -7.9228304    813.20689  0.015150289  0.013702974            8 
 4474000   0.53814708   -7.9106624    810.75482   0.01510123  0.013698629            7 
 4475000   0.54645106   -7.9205526    811.84029  0.015118069  0.013694288           19 
 4476000   0.52801737   -7.9021323    812.40619  0.015125227   0.01368995            7 
 4477000   0.53500841   -7.9181911    812.18822  0.015117791  0.013685614           13 
 4478000   0.54016543   -7.9209416    812.13899  0.015113499  0.013681283            7 
 4479000   0.52933578   -7.9148458    812.20284  0.015111313  0.013676954           14 
 4480000   0.53461925   -7.9006187    811.25391  0.015090288  0.013672625            9 
 4481000   0.52625053   -7.9074187    812.59026  0.015111773  0.013668298           11 
 4482000    0.5241892   -7.9167862    811.86523  0.015094921  0.013663972           28 
 4483000   0.53556509   -7.9114576     813.7206  0.015126043  0.013659646           14 
 4484000   0.53671095   -7.8903189    812.20838  0.015094565  0.013655324           19 
 4485000   0.53858259   -7.9188985    812.21584  0.015091339  0.013650998           35 
 4486000   0.53119171   -7.9040715    811.57326  0.015076038  0.013646667           13 
 4487000   0.52925615   -7.9167717    812.82831  0.015095987  0.013642342           26 
 4488000   0.54204986   -7.9089445     812.8609  0.015093228  0.013638018           12 
 4489000   0.53532728   -7.9240518    812.09751  0.015075694  0.013633696           20 
 4490000   0.52552575   -7.9012644    810.27649  0.015038539  0.013629375           21 
 4491000    0.5299491   -7.9092576    812.43032  0.015075156  0.013625053           23 
 4492000   0.53483204   -7.9324757    810.24137  0.015031192  0.013620731           25 
 4493000   0.51340724   -7.9022336    811.42222  0.015049748  0.013616412           14 
 4494000   0.52176842   -7.9225071    811.32839  0.015044659  0.013612092           12 
 4495000   0.54667614   -7.9028662    811.03353  0.015035846  0.013607771           31 
 4496000    0.5246429   -7.9206314    812.21148  0.015054335  0.013603454           18 
 4497000   0.53558762   -7.9140523    810.87689  0.015026256  0.013599136           25 
 4498000   0.52695184   -7.9129205    811.39484  0.015032512  0.013594818           20 
 4499000   0.52904324   -7.9078279    811.78114  0.015036325  0.013590507           22 
 4500000   0.52357043    -7.930509    811.22734  0.015022729  0.013586203           11 
 4501000    0.5292814   -7.9385793    810.98579  0.015014919  0.013581893           15 
 4502000   0.51460184   -7.9263297     811.4394   0.01501998  0.013577577           22 
 4503000   0.53924248   -7.9242846    811.69528   0.01502138  0.013573266           24 
 4504000   0.52033318   -7.9251824    812.84572   0.01503933  0.013568954           10 
 4505000   0.52993036   -7.9148806    810.27393  0.014988419  0.013564651           22 
 4506000   0.53319433   -7.9333172    810.48578  0.014989011  0.013560342           23 
 4507000    0.5366935   -7.8945178    811.58314  0.015005975   0.01355604           27 
 4508000    0.5276816   -7.9186209    810.55744  0.014983685   0.01355174           22 
 4509000   0.52895692   -7.9063509     811.6853  0.015001207  0.013547438           19 
 4510000    0.5215321   -7.9175478    811.39183  0.014992458  0.013543141           19 
 4511000   0.53854725   -7.9234036    810.94964  0.014980966  0.013538845           21 
 4512000   0.52424401   -7.9299358    811.86348  0.014994523  0.013534551           16 
 4513000   0.53407429   -7.9191671     811.5396   0.01498522  0.013530265           22 
 4514000   0.52895246   -7.9286916    811.17702  0.014975207   0.01352597           27 
 4515000   0.53066484   -7.9338102    812.23911  0.014991493  0.013521683           25 
 4516000   0.53891249   -7.9466019    812.11016  0.014985794  0.013517397           26 
 4517000    0.5129173   -7.9299582    812.64614  0.014992365  0.013513113           13 
 4518000   0.53569775   -7.9191992    812.06284  0.014978288  0.013508831           18 
 4519000   0.53300591   -7.9285034    811.15541  0.014958239  0.013504547           11 
 4520000   0.53348878   -7.9246547     810.9682  0.014951479  0.013500257           28 
 4521000   0.53155655    -7.921161    811.84321    0.0149643  0.013495972           26 
 4522000   0.52725758   -7.9175882    811.28909  0.014950779  0.013491695           12 
 4523000   0.51538276   -7.9210724    811.17192  0.014945315  0.013487414           21 
 4524000   0.53460832   -7.9179797    812.69776  0.014970118  0.013483142           22 
 4525000   0.51726173   -7.9148558    811.82393  0.014950717  0.013478869           16 
 4526000   0.53000684   -7.8961907    810.17046   0.01491697  0.013474603           18 
 4527000   0.52460688    -7.912702    812.17246  0.014950528  0.013470339           26 
 4528000    0.5321678   -7.9359051    811.40081  0.014933024  0.013466075           28 
 4529000   0.52792616   -7.9270601    811.81048  0.014937265  0.013461806           25 
 4530000   0.52909378   -7.9302947    811.06034  0.014920168  0.013457542           21 
 4531000     0.531176   -7.9183977    809.75239   0.01489282  0.013453273           18 
 4532000   0.51818537   -7.9308629    811.94873  0.014929919  0.013449014           18 
 4533000    0.5342085   -7.9457098    810.86494  0.014906702   0.01344475           26 
 4534000   0.53711198   -7.9064843     811.0894  0.014907539   0.01344049           16 
 4535000   0.53523228   -7.9300482    811.75659  0.014916512  0.013436233           11 
 4536000   0.52445453   -7.9367791    812.16194  0.014920671  0.013431974           28 
 4537000   0.53008119   -7.9398729    810.99142  0.014895882  0.013427718           17 
 4538000    0.5332091   -7.9205996    810.77441  0.014888615  0.013423458           15 
 4539000   0.53976048   -7.9224575    809.40731  0.014860236  0.013419203           15 
 4540000   0.52928694   -7.9250485    810.74924  0.014881594  0.013414949           18 
 4541000   0.52168314   -7.9457168     811.2389  0.014887303  0.013410698           13 
 4542000   0.52146175   -7.9264738    811.14895  0.014882375  0.013406451           11 
 4543000   0.52650385   -7.9232751    810.08111  0.014859511  0.013402204           14 
 4544000   0.52158534   -7.9308201    810.77692  0.014869002  0.013397963           13 
 4545000   0.52666005   -7.9213663    811.28666  0.014875076  0.013393715           10 
 4546000   0.52618676   -7.9385975    811.51223  0.014875939  0.013389471           18 
 4547000   0.52451519   -7.9371563      810.956  0.014862473   0.01338523           13 
 4548000    0.5225915   -7.9479518    810.17971  0.014844981  0.013380986           23 
 4549000    0.5356889   -7.9256406     810.9853  0.014856476  0.013376749           19 
 4550000    0.5254537   -7.9301516    811.56109  0.014863756  0.013372516           17 
 4551000   0.52181049   -7.9386866    810.64286  0.014843677  0.013368284           20 
 4552000   0.52309384    -7.924204    810.70011  0.014841464  0.013364053           18 
 4553000   0.52562846   -7.9475205     811.3963  0.014850946  0.013359829           20 
 4554000   0.53544278   -7.9264935    812.02937   0.01485927  0.013355607           21 
 4555000   0.52096713    -7.917972    811.35239  0.014843622  0.013351383           27 
 4556000   0.52185052   -7.9288766    811.73788  0.014847415  0.013347161           19 
 4557000   0.51591862   -7.9477167    811.57968  0.014841264  0.013342934           20 
 4558000   0.53102321   -7.9356612    809.96402  0.014808469  0.013338716           20 
 4559000    0.5130554   -7.9476268    811.24768  0.014828685  0.013334495           23 
 4560000   0.51953516   -7.9341236     811.7437  0.014834497  0.013330272           22 
 4561000   0.52514205   -7.9572473    812.15037  0.014838675  0.013326055           17 
 4562000   0.52021877   -7.9318146    812.40935  0.014840153  0.013321837           15 
 4563000   0.51355479   -7.9301452    809.77995  0.014788881  0.013317619           20 
 4564000   0.51802592   -7.9348006    811.20587  0.014811676  0.013313404           39 
 4565000    0.5154724   -7.9485671    811.09875  0.014806476  0.013309188           21 
 4566000   0.53716019   -7.9401684    811.32934  0.014807442  0.013304977           12 
 4567000   0.51610096   -7.9169753     810.8621  0.014795674  0.013300771           31 
 4568000   0.52829148   -7.9399315    811.65235  0.014806851  0.013296564           20 
 4569000   0.51953346    -7.930912    811.76079  0.014805588  0.013292357           20 
 4570000   0.52605795   -7.9348763    810.94841  0.014787535  0.013288152           30 
 4571000   0.51173828   -7.9410346    811.17578  0.014788445  0.013283943           16 
 4572000   0.52691828   -7.9461186    810.57032  0.014774175  0.013279739           16 
 4573000   0.51937928   -7.9545707    810.41491  0.014768112  0.013275539           25 
 4574000   0.51935149   -7.9441091    810.48151  0.014766097  0.013271339           21 
 4575000   0.52819462   -7.9510612    810.20258  0.014757788  0.013267134           18 
 4576000   0.51454574   -7.9464561    809.62386  0.014744024  0.013262931           14 
 4577000   0.52605762    -7.932239    810.10544  0.014749571  0.013258734           21 
 4578000   0.51223315   -7.9324292    810.41229  0.014751935  0.013254538           21 
 4579000   0.52252462   -7.9585911    809.02077  0.014723389  0.013250346           11 
 4580000   0.51867728   -7.9339127    811.31209  0.014761865  0.013246155           11 
 4581000   0.51907176   -7.9412254    810.15934  0.014737673  0.013241967           18 
 4582000   0.52264391   -7.9471229    810.94169  0.014748685  0.013237781           20 
 4583000   0.50976173    -7.933662    809.63879  0.014721776  0.013233594           15 
 4584000   0.51178565   -7.9472079    810.53417  0.014734842   0.01322941           11 
 4585000   0.50587767    -7.949789    811.27206  0.014745039  0.013225227           16 
 4586000   0.50544873   -7.9265486    811.32912  0.014742861  0.013221048           12 
 4587000   0.51365391   -7.9589304    810.31937  0.014721302  0.013216866           16 
 4588000    0.5120995   -7.9467665    809.88119  0.014710135   0.01321269           22 
 4589000   0.52359249   -7.9258105     812.5269  0.014754974  0.013208514           18 
 4590000   0.52083684   -7.9297765     811.0905  0.014725681  0.013204343           10 
 4591000   0.52640662   -7.9432442    810.74676  0.014716234   0.01320017           14 
 4592000   0.51124628   -7.9517699    811.71322  0.014730568  0.013196003           11 
 4593000   0.52095857   -7.9425238    810.93109   0.01471317  0.013191834           15 
 4594000   0.52002341   -7.9490718    812.03806  0.014730048  0.013187667           23 
 4595000   0.51721149   -7.9499007    810.92604  0.014706675  0.013183497           11 
 4596000   0.50884078   -7.9424719    811.36073  0.014711356  0.013179336           18 
 4597000    0.5243465   -7.9509927    810.56443  0.014693721  0.013175174           14 
 4598000    0.5057922   -7.9472126    811.02062  0.014698793  0.013171014           25 
 4599000   0.51345066   -7.9631976    811.16034  0.014698129  0.013166851           15 
 4600000   0.51088697   -7.9493615    811.17786  0.014695251  0.013162694           25 
 4601000   0.50988311   -7.9399335    811.75603  0.014702529  0.013158533           22 
 4602000   0.50814225   -7.9401218    809.45682    0.0146577  0.013154377           14 
 4603000   0.51528166   -7.9349133    808.87196  0.014643927  0.013150223           12 
 4604000   0.51584874   -7.9560615    810.34059  0.014667329  0.013146071           19 
 4605000      0.52049   -7.9482748    810.89385  0.014674156  0.013141921           18 
 4606000   0.50380799   -7.9325701    811.64663  0.014684589  0.013137771           16 
 4607000   0.51428366    -7.952559    811.09758  0.014671471  0.013133622           15 
 4608000   0.51502868    -7.974191    811.55458  0.014676551  0.013129477           12 
 4609000   0.51038001   -7.9518207    811.13786  0.014665832  0.013125334           11 
 4610000   0.51656614   -7.9581377    811.44974  0.014668289  0.013121187           16 
 4611000   0.51781791    -7.947678    810.54796   0.01464881  0.013117044           24 
 4612000   0.51351166     -7.94882    810.59308  0.014646449  0.013112901           18 
 4613000    0.5062012   -7.9541143    810.57309  0.014642913  0.013108759           31 
 4614000   0.52515642   -7.9559208    810.32727    0.0146353  0.013104613           24 
 4615000    0.5110887   -7.9613849    810.62043  0.014637422   0.01310047           28 
 4616000   0.51212754   -7.9680018    810.43801  0.014630958   0.01309633           16 
 4617000   0.50030403    -7.962905    810.57344  0.014630233   0.01309219           21 
 4618000   0.51805361    -7.956523    810.15167  0.014619454   0.01308805           30 
 4619000   0.52982324   -7.9445875    810.42842  0.014621282  0.013083917           18 
 4620000   0.50826731   -7.9506252     811.8633  0.014643999  0.013079786           22 
 4621000   0.51395789   -7.9509256    811.96957  0.014642746  0.013075657           21 
 4622000   0.50167081   -7.9479162     811.4677   0.01463053  0.013071529           24 
 4623000    0.5124829   -7.9636513    809.78184  0.014596976  0.013067399           32 
 4624000   0.51537058   -7.9650519    811.04262  0.014616541  0.013063274           27 
 4625000   0.49872859   -7.9605732    809.79508  0.014590902  0.013059145           15 
 4626000   0.52040569   -7.9484676    810.40548  0.014598744  0.013055019           11 
 4627000   0.50817133   -7.9523078    810.76946  0.014602144  0.013050894           17 
 4628000   0.51469005   -7.9722172    811.16864  0.014606177   0.01304677           17 
 4629000   0.52471791   -7.9565111    810.15458  0.014584766  0.013042647           16 
 4630000   0.50627948   -7.9408364    810.80234  0.014593275  0.013038526           11 
 4631000   0.50501372   -7.9545778    811.24179  0.014598031  0.013034408           24 
 4632000   0.50314637   -7.9588946    810.79266  0.014586799   0.01303029           10 
 4633000   0.50839503   -7.9516687    810.21048  0.014573179  0.013026171           13 
 4634000    0.5136688   -7.9689328    809.36842  0.014554892  0.013022051           15 
 4635000   0.51720813   -7.9447685    809.06853   0.01454636  0.013017935           16 
 4636000   0.50820448   -7.9582577     810.4888  0.014568752  0.013013822            9 
 4637000   0.51865493   -7.9560877     808.7632  0.014534598   0.01300971           14 
 4638000   0.50815321   -7.9708557    809.87675  0.014551472    0.0130056           10 
 4639000   0.50580847    -7.954396    808.98957  0.014532399  0.013001485           13 
 4640000   0.51401437   -7.9611985    809.52647  0.014538909  0.012997376           11 
 4641000   0.51269903   -7.9713899    809.38508  0.014533238  0.012993268           10 
 4642000    0.5115605    -7.968078    808.76894  0.014519046  0.012989161           11 
 4643000   0.51776031   -7.9807757    811.09308  0.014557633  0.012985056            7 
 4644000    0.5161928   -7.9650658    810.58957  0.014545463  0.012980951            8 
 4645000   0.51432097   -7.9721929    809.94041  0.014530685   0.01297685           11 
 4646000   0.50151783   -7.9654726    810.16671  0.014531617  0.012972744           18 
 4647000   0.50685555   -7.9799294    808.96889   0.01450701  0.012968647            9 
 4648000   0.51245702   -7.9606746    809.32518  0.014510277   0.01296455           14 
 4649000   0.51021867   -7.9618082    808.41406  0.014490824  0.012960456           20 
 4650000   0.50219358   -7.9811468    809.79414   0.01451244  0.012956361           13 
 4651000   0.51107929   -7.9567614    810.39562  0.014520096   0.01295227           15 
 4652000   0.49970095   -7.9521001    808.37984  0.014480866   0.01294818           10 
 4653000    0.5086688    -7.941226    808.88408  0.014486784  0.012944089           15 
 4654000    0.4954157    -7.962534    810.26224  0.014508348  0.012940002           13 
 4655000   0.50706465   -7.9579869    810.18674   0.01450388  0.012935916           17 
 4656000   0.49676067   -7.9601975    809.64271  0.014491028   0.01293183           20 
 4657000   0.50449909   -7.9624044    809.62114   0.01448753  0.012927743           20 
 4658000   0.49800356   -7.9610213    810.12563  0.014493446  0.012923666           11 
 4659000   0.50744882   -7.9765167    810.05746  0.014489115  0.012919592            8 
 4660000   0.50578802   -7.9768103    809.88266   0.01448288  0.012915514           20 
 4661000   0.51160307   -7.9589733    809.31506  0.014469625  0.012911442            9 
 4662000   0.50163459   -7.9570429    808.66212   0.01445485  0.012907365           17 
 4663000   0.50568555   -7.9594628    811.07669  0.014494901  0.012903291           14 
 4664000    0.4906026    -7.976936      808.978  0.014454295  0.012899218           20 
 4665000   0.49840559   -7.9809983    810.14078  0.014471968  0.012895147           15 
 4666000   0.51154117   -7.9714638    810.18795  0.014469709  0.012891078           25 
 4667000   0.50957015   -7.9804777    809.97932  0.014462883  0.012887006           13 
 4668000   0.49858527   -7.9444371    809.41324  0.014449679   0.01288294           15 
 4669000   0.50068484   -7.9803081    809.98318  0.014456757  0.012878875           12 
 4670000   0.49874721   -7.9777218    809.27012  0.014440937  0.012874806           19 
 4671000   0.50145578   -7.9860739    810.34374     0.014457  0.012870741           20 
 4672000   0.49863795   -7.9720763    810.01892  0.014448112  0.012866678           17 
 4673000   0.50603289   -7.9696069    809.33744  0.014432867  0.012862617           11 
 4674000   0.51880938   -7.9830011      810.031  0.014442145  0.012858556           16 
 4675000   0.50682042   -7.9802577    810.58563  0.014448942  0.012854499            9 
 4676000   0.50705963   -7.9732702    808.92168  0.014416198  0.012850445           12 
 4677000   0.50099316   -7.9758271    809.52247   0.01442382  0.012846389           21 
 4678000   0.50191459   -7.9871254    809.89655    0.0144274  0.012842338           16 
 4679000    0.4983053    -7.973469     809.9531  0.014425324  0.012838289           19 
 4680000    0.5100213   -7.9639376    811.01508  0.014441152  0.012834239            9 
 4681000   0.51395839   -7.9726111    808.98522   0.01440193   0.01283019           17 
 4682000   0.49750764   -7.9897521    810.75177  0.014430296  0.012826143            9 
 4683000   0.50295384    -7.969754    809.73631  0.014409145  0.012822097           15 
 4684000   0.50324945   -7.9762826    808.94833   0.01439205  0.012818053           12 
 4685000   0.49688026   -7.9694759    810.03729  0.014408347  0.012814012           11 
 4686000   0.50514091   -7.9718863    810.22525  0.014408615  0.012809976           13 
 4687000   0.50799607     -7.97213    810.03191  0.014402103   0.01280594           11 
 4688000   0.50421928   -7.9720494    809.00108  0.014380707    0.0128019           13 
 4689000   0.49682659   -7.9756362    809.62213  0.014388678  0.012797871            9 
 4690000   0.50002141   -7.9760341     809.1034  0.014376393  0.012793838           12 
 4691000      0.50797   -7.9762935    809.99497  0.014389167  0.012789805           13 
 4692000   0.50319748   -7.9770117    810.34375  0.014392295  0.012785772           13 
 4693000   0.49488857   -7.9532863    807.85685  0.014345068  0.012781743           11 
 4694000   0.49466032   -7.9866746    810.37221  0.014386668  0.012777712           24 
 4695000   0.50392709   -7.9727463    809.46392  0.014367482  0.012773685           11 
 4696000   0.50692955   -7.9828305    808.69884  0.014350845  0.012769658           14 
 4697000   0.49450743   -7.9670849     810.3358  0.014376833  0.012765633           12 
 4698000   0.49450317   -7.9780137    809.86673  0.014365452  0.012761611           16 
 4699000    0.4946825   -7.9873364    808.71215  0.014341919   0.01275759           15 
 4700000   0.50357839   -7.9828224    810.04569  0.014362512   0.01275357           14 
 4701000   0.50691237   -7.9708322    810.56107  0.014368593  0.012749554           15 
 4702000    0.4929599   -7.9874521    810.29212  0.014360771   0.01274554           10 
 4703000   0.49748884   -7.9789517    809.87099  0.014350255  0.012741522            7 
 4704000    0.5041128   -8.0054837    809.74568  0.014344984  0.012737508           13 
 4705000   0.49597295   -7.9652449    808.54235  0.014320622  0.012733499           14 
 4706000   0.50302155   -7.9707711    810.01603  0.014343675  0.012729487           14 
 4707000   0.48986577   -7.9946734    810.06119  0.014341427  0.012725477           10 
 4708000   0.49876907   -7.9886993    809.28004  0.014324555  0.012721464           12 
 4709000   0.50227341   -7.9852431    809.38005  0.014323283  0.012717454           12 
 4710000   0.50144731   -7.9748638    808.49514  0.014304585  0.012713446           14 
 4711000   0.50507796    -7.971348    809.85989   0.01432569  0.012709441           13 
 4712000   0.48976747   -7.9777754     808.4375  0.014297494  0.012705433           13 
 4713000   0.50697801   -7.9900565    809.03835  0.014305084  0.012701429           15 
 4714000   0.49294596    -7.979049    809.10137  0.014303164  0.012697425           15 
 4715000   0.51139599   -7.9853967    809.36962  0.014304871  0.012693422           13 
 4716000   0.50946965   -7.9773761    807.40201   0.01426707  0.012689419           15 
 4717000   0.50210374   -7.9774616    808.70415   0.01428705  0.012685419           11 
 4718000   0.49979941   -7.9761089    809.63275  0.014300423  0.012681422           18 
 4719000   0.49916307   -7.9668995    808.67709  0.014280516  0.012677427           16 
 4720000   0.50753724   -7.9623581    809.51838  0.014292344  0.012673432           23 
 4721000   0.50678308   -7.9902267    809.64937  0.014291629  0.012669438           17 
 4722000   0.50457959   -7.9737415    808.94256  0.014276129  0.012665448           11 
 4723000    0.5024872   -7.9831271    810.32787  0.014297549   0.01266146           17 
 4724000   0.49505606   -7.9892652    809.46961  0.014279382   0.01265747           13 
 4725000   0.50718001   -7.9815235    808.14115   0.01425293  0.012653479           12 
 4726000   0.49555168   -8.0059678    807.81683  0.014244196  0.012649493            9 
 4727000   0.49836754   -7.9892728    808.29649  0.014249638  0.012645504           21 
 4728000   0.49946688    -7.979881    810.24427  0.014280955  0.012641521           16 
 4729000   0.49835253   -7.9779119    807.70325  0.014233158  0.012637539           24 
 4730000   0.47978831   -7.9897904    808.74839  0.014248562   0.01263356           31 
 4731000   0.49413377   -7.9766265    809.47697  0.014258384  0.012629577           15 
 4732000   0.49314543   -7.9958763    808.43424  0.014237008  0.012625603           11 
 4733000   0.50536595   -7.9881688    809.30505  0.014249332  0.012621626           16 
 4734000   0.48917703   -7.9805361    808.26206  0.014227962  0.012617648           11 
 4735000   0.48995776   -7.9660083    808.84843  0.014235277  0.012613678           22 
 4736000    0.4999423   -7.9991687    809.47097  0.014243225  0.012609708           18 
 4737000   0.48831597   -7.9862503    808.29459  0.014219523  0.012605741           12 
 4738000   0.50640829   -7.9906901    809.14774  0.014231528  0.012601774           18 
 4739000   0.48990298   -7.9794222    808.91729  0.014224472  0.012597806           19 
 4740000   0.48851082   -7.9959363    809.97004   0.01423998  0.012593843           12 
 4741000    0.4924117   -7.9830427    808.18668   0.01420563  0.012589878           10 
 4742000   0.50756399   -8.0060538    808.85731  0.014214419   0.01258592           17 
 4743000   0.48562757   -7.9830029    809.32359  0.014219615   0.01258196           15 
 4744000   0.48716828    -7.978191     808.1582  0.014196146  0.012577998           14 
 4745000   0.48857823   -7.9906943    809.29319  0.014213087  0.012574039           12 
 4746000   0.48584612   -7.9826645    809.88793  0.014220535  0.012570082           11 
 4747000   0.47449201    -7.991922     809.3664  0.014208384  0.012566124           18 
 4748000    0.4925798   -7.9807552    808.67219  0.014193207   0.01256217           16 
 4749000    0.4969091   -7.9812803    807.74693  0.014173983   0.01255822           18 
 4750000   0.48704848   -7.9812844    808.01773   0.01417575  0.012554268           11 
 4751000   0.50008359   -7.9946581    809.28478   0.01419499  0.012550317           20 
 4752000    0.4927519   -7.9938677    808.09769  0.014171186   0.01254637           15 
 4753000   0.49933442   -8.0083569    808.70191  0.014178798  0.012542426           13 
 4754000   0.48504014   -7.9808903    809.11593  0.014183073  0.012538486           13 
 4755000   0.48640097   -7.9806741    808.44246  0.014168287  0.012534545            9 
 4756000   0.48042312   -7.9892147    809.90029  0.014190852  0.012530609           17 
 4757000    0.4871253   -7.9932367    807.82191  0.014151459  0.012526668           28 
 4758000   0.49401277     -7.97943    807.46884  0.014142301  0.012522729           26 
 4759000   0.48047318   -7.9984145    809.24112  0.014170363  0.012518792           15 
 4760000   0.49021362   -8.0023865    808.23765  0.014149819  0.012514855           13 
 4761000   0.48381301   -7.9885979    808.43346  0.014150274   0.01251092           19 
 4762000   0.49592699   -7.9902864    808.12754  0.014141949  0.012506988           12 
 4763000   0.48551115   -7.9826642    809.00922  0.014154406  0.012503063           22 
 4764000   0.48945056   -7.9838365    808.85365  0.014148713  0.012499132           16 
 4765000   0.49409445   -8.0017667    809.58132   0.01415847  0.012495206           15 
 4766000   0.49171142   -7.9995258    809.19772  0.014148792  0.012491278            9 
 4767000   0.48408068   -7.9954692    809.58545  0.014152602  0.012487352           14 
 4768000   0.48230286   -8.0010627    808.24408   0.01412619  0.012483428           22 
 4769000   0.48155825    -8.009274    809.07269  0.014137707  0.012479501           15 
 4770000   0.48634585   -7.9810341    808.47714  0.014124339   0.01247558           20 
 4771000   0.47511578   -8.0111495    809.81046  0.014144667   0.01247166           14 
 4772000   0.48665005       -7.992    806.94133  0.014091599  0.012467741           10 
 4773000   0.48936891   -8.0012768    808.55934  0.014116896  0.012463822           13 
 4774000   0.48147573   -7.9941771     808.2604  0.014108721  0.012459906           15 
 4775000   0.48423657   -7.9861329    809.21398  0.014122408  0.012455991           18 
 4776000   0.48281972   -7.9906207    808.59369  0.014108628  0.012452074           20 
 4777000   0.47902803   -7.9930241    808.84455  0.014110051  0.012448162           25 
 4778000   0.48556118   -7.9906441    808.77546  0.014105893  0.012444252           17 
 4779000   0.49076927   -8.0143487    808.59619  0.014099815  0.012440341           20 
 4780000   0.47765671   -7.9766845    808.99232  0.014103771  0.012436436           25 
 4781000   0.49224077   -7.9881366    808.71164  0.014095929  0.012432529           19 
 4782000   0.48029525   -7.9963159    808.70824  0.014092922  0.012428625           14 
 4783000   0.48959547   -7.9774856    809.88631  0.014110501  0.012424723           15 
 4784000   0.49078515    -8.001201    809.23919  0.014096279  0.012420826           17 
 4785000   0.49054211   -8.0032861    808.97538  0.014088739   0.01241693           16 
 4786000   0.48453538   -7.9888115    809.48295  0.014094633  0.012413032           11 
 4787000   0.47839075   -8.0062703    807.62068   0.01405927  0.012409133           24 
 4788000   0.47989386   -7.9952548    808.24131  0.014067135  0.012405237           32 
 4789000   0.48544334   -7.9956462    808.40363  0.014067022  0.012401345           22 
 4790000   0.48020962   -8.0014491    809.38907  0.014081229  0.012397451           18 
 4791000   0.47103611   -7.9864397    809.08211  0.014072951  0.012393564           13 
 4792000   0.49177033   -7.9839815    808.99151  0.014068439  0.012389675           17 
 4793000   0.47992579   -8.0054894     808.6317  0.014059248  0.012385789           12 
 4794000   0.49214575   -8.0015144     808.4148  0.014052545  0.012381905           15 
 4795000   0.48307489   -7.9860306    809.13078  0.014062057  0.012378022           11 
 4796000   0.47822516   -7.9951807    808.21154  0.014043153  0.012374138           10 
 4797000   0.47553521   -8.0112708    807.72453  0.014031765  0.012370256           19 
 4798000   0.47360093   -8.0079542    808.99516  0.014050909  0.012366378           13 
 4799000   0.48185921   -8.0042069    808.24178  0.014034899  0.012362497            9 
 4800000   0.47789884   -8.0055566    808.61435  0.014038444  0.012358617           18 
 4801000    0.4917486   -8.0145622    808.61738  0.014035572  0.012354744           13 
 4802000   0.47992618   -7.9973182    809.19767  0.014042719  0.012350868           14 
 4803000   0.48262276   -7.9969368    808.27406  0.014023771  0.012346993           21 
 4804000   0.49051024   -8.0152705    808.62503   0.01402694  0.012343126           12 
 4805000   0.49115638   -7.9963495    807.71104  0.014008169  0.012339255           12 
 4806000   0.48570167   -7.9970613    808.28594  0.014015223  0.012335381           19 
 4807000    0.4910085   -7.9903823    807.56631  0.013999832  0.012331513           12 
 4808000   0.48769919   -8.0045239    808.58785  0.014014626  0.012327644           12 
 4809000   0.47879842   -8.0253055    808.58019  0.014011579  0.012323771           19 
 4810000   0.48217885   -8.0206495    808.63571  0.014009628  0.012319907           30 
 4811000    0.4759865   -7.9973249    808.41461  0.014002886  0.012316041           14 
 4812000   0.48231889   -8.0132685    807.90813  0.013991205  0.012312179            9 
 4813000   0.48647268   -8.0023615     808.4667  0.013997969  0.012308317           12 
 4814000   0.48250898   -8.0091403     809.3243  0.014009907  0.012304456           20 
 4815000   0.47976479   -8.0091627     807.8555  0.013981577  0.012300597           15 
 4816000   0.46835205   -7.9857527    808.95594  0.013997715  0.012296736           11 
 4817000   0.46693239   -8.0203065    808.84305  0.013992856  0.012292879           18 
 4818000   0.48718389   -7.9979358    806.92493  0.013956776  0.012289022           12 
 4819000   0.47620032    -8.011302     809.0388  0.013990434  0.012285166           16 
 4820000   0.47616949   -7.9882083     807.0407  0.013952986  0.012281312           14 
 4821000   0.48162962   -8.0178593    807.68294  0.013961193  0.012277463           18 
 4822000   0.48016079   -7.9977589    809.42752  0.013988447  0.012273615           42 
 4823000   0.49420002   -7.9999009    808.63051  0.013971776  0.012269767           22 
 4824000   0.48106866   -8.0010648    808.57131  0.013967857  0.012265922           17 
 4825000   0.47868281   -8.0063863    808.97626  0.013971956  0.012262078           13 
 4826000   0.47036415   -8.0145477    808.04212  0.013952931   0.01225824           17 
 4827000   0.49207502   -8.0048931    808.04066  0.013950015    0.0122544           11 
 4828000   0.47786712   -8.0048906    808.11598  0.013948426  0.012250562           14 
 4829000   0.48663637   -8.0121291     807.6081  0.013936773  0.012246723           18 
 4830000   0.48229292    -8.012687    806.70956  0.013918384  0.012242886           11 
 4831000   0.47929273    -7.997756    808.22999   0.01394173  0.012239052           15 
 4832000   0.48710551   -7.9984384    807.41012  0.013924705   0.01223522            8 
 4833000   0.47625379   -7.9953526    808.70322  0.013944121  0.012231384           16 
 4834000   0.48289031   -8.0197187    808.35281  0.013935195  0.012227552           12 
 4835000   0.47643054   -8.0065615    807.09831  0.013910691  0.012223718           14 
 4836000   0.47741479   -8.0116553     806.5611  0.013898558  0.012219886           16 
 4837000   0.48573992   -8.0173474    808.12007  0.013922543  0.012216059           21 
 4838000   0.48402415   -8.0130858    808.02346  0.013918001   0.01221223           12 
 4839000   0.47367505   -7.9998229    809.26445  0.013936496  0.012208405           12 
 4840000   0.48074437   -8.0075947    807.77001  0.013907886  0.012204582           23 
 4841000   0.46714347   -8.0099545    809.31553  0.013931618   0.01220076           13 
 4842000    0.4884116   -8.0203954     807.6683  0.013900391  0.012196942           11 
 4843000   0.47667425   -8.0164936    807.44883  0.013893744  0.012193124           22 
 4844000   0.48084458   -8.0079808    808.32771  0.013905996  0.012189306           25 
 4845000   0.47171679   -8.0204725    807.57271  0.013890139  0.012185486           23 
 4846000   0.47477933   -8.0161944    808.16558  0.013897468  0.012181672           16 
 4847000   0.47095206   -8.0118287    807.37443  0.013880999  0.012177859           25 
 4848000   0.47888014   -7.9978736    807.88871  0.013886976  0.012174048           15 
 4849000   0.47438377   -8.0117049    808.24195  0.013890183  0.012170238           20 
 4850000   0.48571538   -8.0146371    807.79642  0.013879664  0.012166428           12 
 4851000   0.46559743   -8.0091674    808.20727   0.01388386  0.012162619           20 
 4852000   0.46679627   -8.0173172    807.02194  0.013860641  0.012158809           18 
 4853000   0.47445382   -8.0160822    808.84459  0.013889082  0.012155003           21 
 4854000   0.47256542    -8.014075    808.31351  0.013877103  0.012151201           13 
 4855000   0.46229394   -8.0006919    809.55848  0.013895614  0.012147399           20 
 4856000   0.46031105   -8.0246358    807.58269  0.013858846  0.012143599           13 
 4857000   0.47484723   -8.0138424    808.83398  0.013877462  0.012139797           16 
 4858000   0.47476005   -8.0163653    808.42302  0.013867556     0.012136           13 
 4859000   0.47421176   -8.0092006    808.18744  0.013860661    0.0121322           17 
 4860000   0.47897046   -8.0178078     807.1149  0.013839419  0.012128401           22 
 4861000   0.47551294    -8.005258    807.03505  0.013835203  0.012124607           19 
 4862000   0.47600614    -8.030367    807.42115  0.013838975  0.012120815           17 
 4863000   0.47662461   -8.0120453    807.28834  0.013833853  0.012117023           12 
 4864000   0.47242983   -8.0090952    808.20669  0.013846743  0.012113234           12 
 4865000   0.45979319   -8.0215344    808.78424   0.01385379  0.012109444           19 
 4866000   0.47040379   -8.0106307    808.43731  0.013845001  0.012105655           17 
 4867000   0.47052203   -8.0210484    807.65833  0.013828819  0.012101871           16 
 4868000   0.47580753   -8.0086273     806.7861  0.013811047  0.012098084           18 
 4869000   0.46491278   -8.0063461     808.1279  0.013831175  0.012094298           18 
 4870000   0.46453486   -8.0214643    807.23745  0.013813098  0.012090515           15 
 4871000   0.46558342   -8.0324616    807.21321  0.013809848  0.012086731           14 
 4872000   0.46617152   -8.0004986     807.2268  0.013807245  0.012082953           24 
 4873000   0.46217338   -8.0075185    807.47194  0.013808604  0.012079174           12 
 4874000   0.46388049   -8.0250341    809.03555  0.013832505  0.012075395           13 
 4875000   0.47137895   -8.0255626    808.05383  0.013812886   0.01207162           10 
 4876000   0.46276025   -8.0340989    808.20534  0.013812643  0.012067845           14 
 4877000   0.46655504    -8.018574    806.51637  0.013780951  0.012064076           17 
 4878000   0.47124203     -8.02119    808.15654  0.013806146  0.012060307           21 
 4879000   0.47051074   -8.0247876     808.2253   0.01380449  0.012056539           10 
 4880000   0.47156606   -8.0147929     807.3151  0.013786118   0.01205277           16 
 4881000   0.46862474   -8.0094337    807.64527  0.013788931  0.012049004           22 
 4882000   0.46200855   -8.0218985    807.78311  0.013788459  0.012045239           12 
 4883000   0.47204194   -8.0280391    807.10671  0.013774092  0.012041475           17 
 4884000   0.47168943   -8.0126507    806.50031  0.013760925  0.012037715           11 
 4885000   0.46885685   -8.0246451    807.10564  0.013768435  0.012033955           12 
 4886000   0.47996305   -8.0181102    808.65442  0.013792032  0.012030197           20 
 4887000   0.46997344   -8.0359351    807.27222  0.013765641  0.012026439           11 
 4888000   0.46806929   -8.0195156    807.66239  0.013769476  0.012022684           23 
 4889000   0.46512215   -8.0083104    807.83209  0.013769552   0.01201893           26 
 4890000    0.4824283   -8.0415474    808.42576  0.013776853  0.012015176           16 
 4891000   0.46893147   -8.0288659    807.17987  0.013752809  0.012011422           20 
 4892000    0.4568176   -8.0257351    807.41085  0.013753932  0.012007668           18 
 4893000   0.47583909   -8.0270546    807.85462  0.013758679  0.012003918           11 
 4894000   0.47642225   -8.0344943    806.78279  0.013737617  0.012000168           15 
 4895000   0.46377208   -8.0345845    808.26779  0.013760092  0.011996425           10 
 4896000   0.46449748   -8.0365137    807.72791  0.013748092  0.011992678           22 
 4897000   0.47196125   -8.0263677    806.93387  0.013731772  0.011988931           20 
 4898000   0.46240569   -8.0324285    807.94576  0.013746185  0.011985189           21 
 4899000   0.47364755   -8.0279487    807.72306  0.013739591  0.011981448           13 
 4900000   0.45930771   -8.0094135    807.30029  0.013729597  0.011977709           16 
 4901000   0.46972956   -8.0388041    807.29013  0.013726623  0.011973971           19 
 4902000    0.4707816   -8.0372814    808.20542  0.013739382  0.011970235           27 
 4903000   0.46436985   -8.0190882     808.4778   0.01374121  0.011966499           15 
 4904000   0.46217045   -8.0261512    807.28877  0.013718202  0.011962767           11 
 4905000   0.46434407   -8.0146252    807.73592  0.013723002  0.011959032           18 
 4906000   0.46427749   -8.0178491    807.54973  0.013717043  0.011955299           14 
 4907000   0.46940822   -8.0311723    807.27864  0.013709643  0.011951569           20 
 4908000   0.46799745   -8.0278391    807.53607  0.013711221   0.01194784           17 
 4909000   0.46928764   -8.0341303    809.22254  0.013737057  0.011944111           14 
 4910000   0.46241677   -8.0210029     807.6116  0.013706918  0.011940388           18 
 4911000   0.46620541   -8.0323991    807.65632  0.013704886  0.011936664           11 
 4912000   0.46688652   -8.0310194    808.78987  0.013721326   0.01193294           11 
 4913000   0.46882626   -8.0286583     807.8298  0.013702249  0.011929219           13 
 4914000   0.47151011   -8.0323805    806.80586  0.013682096  0.011925496           16 
 4915000   0.46727535   -8.0167655    807.06629  0.013683728  0.011921773           16 
 4916000   0.45998141   -8.0267086    806.97558  0.013679407  0.011918049           16 
 4917000   0.46777715   -8.0275031    807.86649  0.013691724  0.011914327           10 
 4918000    0.4728681   -8.0214546     806.5095  0.013665946   0.01191061           10 
 4919000   0.47444176   -8.0209159    806.25112  0.013658791  0.011906893           17 
 4920000   0.46496056   -8.0333349    807.11533  0.013670653  0.011903177           18 
 4921000   0.46005194   -8.0480467    807.76931  0.013678949  0.011899462           24 
 4922000   0.46482893   -8.0354257     805.8124  0.013643038  0.011895746           23 
 4923000   0.45365254   -8.0277607    807.73964   0.01367289  0.011892035           13 
 4924000    0.4546642   -8.0388891    806.86709  0.013655346  0.011888321           11 
 4925000   0.44565059   -8.0281074    806.18763  0.013641077  0.011884613           21 
 4926000   0.46305838   -8.0341182    807.54032  0.013661191  0.011880906           14 
 4927000   0.47034114   -8.0454242    806.57564  0.013642102    0.0118772           24 
 4928000   0.45953911   -8.0440861    807.05685  0.013647471  0.011873495           10 
 4929000   0.46327239   -8.0327687    807.12738  0.013645895  0.011869792           20 
 4930000   0.46005545   -8.0231671    806.68397  0.013635632  0.011866092           14 
 4931000   0.46615507   -8.0257331    806.55165   0.01363063  0.011862391           20 
 4932000   0.45970917   -8.0217098    808.44922  0.013659929  0.011858692           21 
 4933000   0.47310648   -8.0366806    806.73808  0.013628253  0.011854994           22 
 4934000   0.45254245   -8.0253179    807.18475  0.013633035  0.011851299           21 
 4935000   0.44583476    -8.029335    807.00729  0.013627276  0.011847604           16 
 4936000   0.46591745   -8.0257863    808.06272  0.013642334  0.011843913           23 
 4937000   0.46990491   -8.0156844    806.92355  0.013620342   0.01184022           30 
 4938000   0.45532247   -8.0353347    807.70775  0.013630818   0.01183653           28 
 4939000   0.45038889   -8.0172352     806.9291   0.01361492  0.011832838           27 
 4940000    0.4565359   -8.0307609     806.9426  0.013612392  0.011829152           23 
 4941000   0.46881491   -8.0325652    807.46659  0.013618475  0.011825463           19 
 4942000   0.46678693   -8.0222989    807.13548  0.013610136  0.011821782           26 
 4943000   0.46697766   -8.0265119    806.39079  0.013594828    0.0118181           25 
 4944000   0.45991275   -8.0341781     807.1508  0.013604888  0.011814419           21 
 4945000   0.46669817   -8.0281428    807.74878  0.013612214  0.011810738           19 
 4946000    0.4602588   -8.0458169    806.43955  0.013587403  0.011807054           25 
 4947000   0.46619147   -8.0355194    805.74755     0.013573  0.011803377           11 
 4948000   0.45971305   -8.0363849    807.17355  0.013594273  0.011799699           20 
 4949000   0.45517946   -8.0407257    806.06915   0.01357293  0.011796023           21 
 4950000   0.45637268   -8.0257462    807.55932  0.013595275  0.011792346           26 
 4951000   0.46511865   -8.0352018    807.65297  0.013594105  0.011788672           33 
 4952000   0.45908282   -8.0346312    806.75708  0.013576284  0.011784999           30 
 4953000   0.46306793   -8.0453984    806.07119  0.013562003  0.011781325           21 
 4954000   0.46195244   -8.0403158    807.54407  0.013584041  0.011777655           17 
 4955000   0.45261756   -8.0452445    805.77031  0.013551468  0.011773986           27 
 4956000    0.4614348   -8.0533928    807.22205  0.013573144  0.011770317           28 
 4957000   0.45860668   -8.0328185    804.79531   0.01352961  0.011766651           27 
 4958000   0.45720241   -8.0596925    806.89339  0.013562145  0.011762985           21 
 4959000   0.46228838   -8.0382795    806.92473  0.013559937  0.011759319           24 
 4960000   0.44610295   -8.0610994     806.0979  0.013543311  0.011755657           24 
 4961000   0.45859772   -8.0428031     805.8581  0.013536553  0.011751996           30 
 4962000   0.45742916   -8.0384332    806.95674  0.013552276  0.011748339           26 
 4963000   0.45826069   -8.0370878    806.49776  0.013541839   0.01174468           22 
 4964000   0.46576647    -8.039192    807.31279  0.013552793   0.01174102           27 
 4965000    0.4528184   -8.0487082    806.65079  0.013538953  0.011737366           18 
 4966000   0.45303012   -8.0476728    805.51118  0.013517103  0.011733714           27 
 4967000   0.46388108   -8.0448534    806.70744  0.013534451  0.011730061           20 
 4968000   0.45494023   -8.0392258    806.95825  0.013535934  0.011726408           22 
 4969000    0.4586138   -8.0364861    806.75189  0.013529749  0.011722757           19 
 4970000   0.46742729   -8.0344286    808.14447  0.013550377  0.011719109           20 
 4971000   0.45535429   -8.0608997    807.26849  0.013532966  0.011715464           26 
 4972000    0.4605377   -8.0467786    806.12699  0.013511112  0.011711819           17 
 4973000   0.45956085   -8.0539754    806.72678  0.013518446  0.011708176           23 
 4974000   0.46376323   -8.0396501    806.02068  0.013503898  0.011704534           17 
 4975000   0.45729076   -8.0362913     806.1508  0.013503364  0.011700893           22 
 4976000   0.45486204   -8.0544372    806.40439  0.013504897  0.011697254           31 
 4977000   0.44836193   -8.0563026    806.70378  0.013507196  0.011693617           26 
 4978000   0.44997376    -8.044389     805.0015  0.013475986  0.011689978           21 
 4979000   0.46367006   -8.0420345    806.56445  0.013499439  0.011686341           18 
 4980000    0.4510638    -8.030962    806.95713  0.013503299  0.011682707           18 
 4981000   0.45464144    -8.050261    807.34513  0.013507079  0.011679071           19 
 4982000   0.46230202   -8.0439589    806.92951  0.013497416  0.011675438           32 
 4983000    0.4506387   -8.0418998    806.85569  0.013493473  0.011671807           23 
 4984000   0.45610618     -8.04915    807.01969  0.013493507  0.011668177           23 
 4985000   0.46815532   -8.0511549    806.33892   0.01347942  0.011664551           23 
 4986000   0.45429022    -8.046857    806.59397   0.01348098   0.01166092           23 
 4987000   0.44325663   -8.0583729    807.07857  0.013486374  0.011657296           19 
 4988000   0.45405868     -8.04873    806.96125   0.01348171   0.01165367           14 
 4989000   0.44605129   -8.0411617    806.19398  0.013466192  0.011650046           21 
 4990000   0.44531877    -8.037322    806.89978   0.01347528  0.011646425           29 
 4991000    0.4589129   -8.0324074    806.59636  0.013467514  0.011642806           17 
 4992000   0.45866957   -8.0540614    805.89298  0.013453075  0.011639188           11 
 4993000   0.44752481   -8.0658507    806.71956  0.013464176  0.011635571           21 
 4994000   0.43930865   -8.0536919    806.77945  0.013462479  0.011631956           20 
 4995000   0.45907445   -8.0595984    807.21176  0.013466996  0.011628342           16 
 4996000   0.44969439    -8.039231    806.14262  0.013446467  0.011624729           29 
 4997000   0.45860178    -8.034149    805.37159  0.013430918   0.01162112           19 
 4998000   0.44989935   -8.0293688    806.62685  0.013449161  0.011617513           17 
 4999000   0.45654256    -8.045762    806.45096  0.013443538  0.011613905           18 
 5000000    0.4457705   -8.0377111    807.55858   0.01345931  0.011610298           15 
 5001000   0.44787986   -8.0356919    806.35916  0.013436632  0.011606691           28 
 5002000    0.4494726    -8.040297    806.47641  0.013435899  0.011603086           24 
 5003000   0.44951173   -8.0554794    807.64069  0.013452607  0.011599484           17 
 5004000   0.44958001   -8.0397921    807.84618   0.01345334  0.011595884           23 
 5005000    0.4520314   -8.0537669    806.35449  0.013425816  0.011592286           28 
 5006000   0.44810931   -8.0354238    805.71247  0.013412446  0.011588687           17 
 5007000   0.45378185   -8.0507653    806.47305  0.013422426  0.011585086           30 
 5008000   0.45840096   -8.0590301    806.91588  0.013427115  0.011581487           27 
 5009000   0.45046594   -8.0594657    806.76116   0.01342186  0.011577888           14 
 5010000   0.45542353   -8.0637546    807.88895   0.01343794  0.011574292           22 
 5011000   0.44942454   -8.0552795     805.8618  0.013401547  0.011570699           35 
 5012000   0.44620658   -8.0593671    806.19046  0.013404337  0.011567107           18 
Loop time of 11255.2 on 48 procs for 5000000 steps with 4000 atoms

Performance: 76764.466 tau/day, 444.239 timesteps/s
99.4% CPU use with 48 MPI tasks x no OpenMP threads

MPI task timing breakdown:
Section |  min time  |  avg time  |  max time  |%varavg| %total
---------------------------------------------------------------
Pair    | 727.96     | 757.83     | 803.16     |  53.2 |  6.73
Neigh   | 72.368     | 73.663     | 75.678     |   7.9 |  0.65
Comm    | 647.58     | 705.54     | 738.09     |  73.6 |  6.27
Output  | 14.583     | 14.589     | 14.681     |   0.4 |  0.13
Modify  | 9556.7     | 9593.9     | 9629.9     |  15.0 | 85.24
Other   |            | 109.7      |            |       |  0.97

Nlocal:        83.3333 ave          93 max          74 min
Histogram: 1 3 2 6 11 11 11 2 0 1
Nghost:        1884.77 ave        1899 max        1865 min
Histogram: 1 3 3 1 7 8 8 9 6 2
Neighs:        11786.4 ave       13488 max       10425 min
Histogram: 2 4 4 10 8 11 6 1 1 1
FullNghs:      23573.2 ave       26735 max       20818 min
Histogram: 3 2 4 4 12 15 6 1 0 1

Total # of neighbors = 1131514
Ave neighs/atom = 282.87850
Neighbor list builds = 268946
Dangerous builds = 0

#clear
#
#next RN
#
#jump SELF
Total wall time: 3:07:38
