
units lj                  # Use reduced LJ style units
atom_style atomic         # Uncharged point particles
atom_modify map hash      # Needed for indexing of clusters etc
                          # Used to be able to find where atoms are in relation to each other.

lattice fcc 1.0 spacing 1 1 1
Lattice spacing in x,y,z = 1.5874011 1.5874011 1.5874011
region box block 0 10 0 10 0 10 units lattice
create_box 2 box
Created orthogonal box = (0.0000000 0.0000000 0.0000000) to (15.874011 15.874011 15.874011)
  3 by 4 by 4 MPI processor grid
create_atoms 1 box
Created 4000 atoms
  using lattice units in orthogonal box = (0.0000000 0.0000000 0.0000000) to (15.874011 15.874011 15.874011)
  create_atoms CPU = 0.002 seconds
set type 1 type/fraction 2 0.07 78393
Setting atom values ...
  309 settings made for type/fraction
mass 1 1.0
mass 2 1.0
pair_style lj/cut  3.5
pair_modify tail  yes
pair_coeff 1  1  1.0  1.0   # Intearaction between 1 and 1 set with epsilon = 1 and sigma = 1
pair_coeff 1  2  1.5  0.8
pair_coeff 2  2  0.5  0.88

write_data data.0
System init for write_data ...
Neighbor list info ...
  update every 1 steps, delay 10 steps, check yes
  max neighbors/atom: 2000, page size: 100000
  master list distance cutoff = 3.8
  ghost atom cutoff = 3.8
  binsize = 1.9, bins = 9 9 9
  1 neighbor lists, perpetual/occasional/extra = 1 0 0
  (1) pair lj/cut, perpetual
      attributes: half, newton on
      pair build: half/bin/atomonly/newton
      stencil: half/bin/3d
      bin: standard
WARNING: Not all mixed pair coeffs generated from mixing. Use write_data with 'pair ij' option to store all pair coeffs. (../write_data.cpp:312)


#############################
#   M E L T   S Y S T E M   #
#############################

velocity all create 2.4 8172548 mom yes dist gaussian # Assign velocities
                                                    # Temperature 2.4, random number seed, zero linear momentum
                                                                                # Gaussian distribution

timestep 0.002   # simulation timestep
thermo 1000       # output thermodynamic data every 1000 steps bf 100

# Define a fix  in this case with index 1 applied to all
# particles in the simulation. This fix is for simulations
# in the anisotropic NPT ensemble. Note that we use the MTK
# correction.
fix 1 all npt temp 2.4 2.4 0.1 iso 5.68 5.68 0.5 mtk yes tchain 5 pchain 5 # Use NPT ensemble
                                                                         # Set temperature and pressure and damping
                                                                         # Numbers of thermostats in chain and in barostat
run 10000          # run for 10000 steps
Per MPI rank memory allocation (min/avg/max) = 3.642 | 3.644 | 3.648 Mbytes
Step Temp E_pair E_mol TotEng Press Volume 
       0          2.4   -7.8774228            0   -4.2783228   -2.8368304         4000 
    1000    2.4261653    -4.576035            0  -0.93769684    5.6472102    4934.9216 
    2000    2.3986871   -4.5672698            0  -0.97013862     5.553188    4947.3805 
    3000    2.3491183   -4.5222156            0  -0.99941916    5.7985636    4935.9164 
    4000    2.4230288   -4.5832466            0  -0.94961205    5.7994109    4904.9453 
    5000    2.3797388   -4.5670176            0  -0.99830173    5.5302871    4949.4696 
    6000    2.4329072    -4.574159            0  -0.92571051    5.6917542    4922.6829 
    7000    2.3808426   -4.5062122            0  -0.93584111    5.7924205    4947.1128 
    8000    2.3628145   -4.5352608            0  -0.99192507    6.0584689    4896.2875 
    9000    2.4339334   -4.4969625            0  -0.84697514    5.8180562    4946.4417 
   10000    2.4039198   -4.5639334            0  -0.95895518    5.3948049    4967.7812 
Loop time of 2.10568 on 48 procs for 10000 steps with 4000 atoms

Performance: 820636.378 tau/day, 4749.053 timesteps/s
99.7% CPU use with 48 MPI tasks x no OpenMP threads

MPI task timing breakdown:
Section |  min time  |  avg time  |  max time  |%varavg| %total
---------------------------------------------------------------
Pair    | 0.8769     | 0.93493    | 1.009      |   2.9 | 44.40
Neigh   | 0.18702    | 0.19442    | 0.20709    |   0.9 |  9.23
Comm    | 0.6393     | 0.73034    | 0.78885    |   3.8 | 34.68
Output  | 0.00024642 | 0.00025121 | 0.00031123 |   0.0 |  0.01
Modify  | 0.19549    | 0.23136    | 0.25932    |   3.9 | 10.99
Other   |            | 0.01438    |            |       |  0.68

Nlocal:        83.3333 ave          91 max          75 min
Histogram: 3 2 2 8 7 8 4 6 5 3
Nghost:        1424.79 ave        1443 max        1402 min
Histogram: 1 3 3 5 10 6 6 5 7 2
Neighs:        7666.25 ave        8661 max        6541 min
Histogram: 1 2 5 5 6 11 7 8 2 1

Total # of neighbors = 367980
Ave neighs/atom = 91.995000
Neighbor list builds = 899
Dangerous builds = 163

# Equilibrate just above the melting temperature to avoid step fn in T

fix 1 all npt temp 1.25 1.25 0.1 iso 5.68 5.68 0.5 mtk yes tchain 5 pchain 5
run 2000
Per MPI rank memory allocation (min/avg/max) = 3.642 | 3.644 | 3.648 Mbytes
Step Temp E_pair E_mol TotEng Press Volume 
   10000    2.4039198   -4.5639334            0  -0.95895518    5.3948049    4967.7812 
   11000    1.2172989    -6.073167            0   -4.2476751     5.935319    4070.5334 
   12000    1.2267734   -6.1263461            0    -4.286646    5.8334469    4055.7514 
Loop time of 0.464875 on 48 procs for 2000 steps with 4000 atoms

Performance: 743425.676 tau/day, 4302.232 timesteps/s
99.6% CPU use with 48 MPI tasks x no OpenMP threads

MPI task timing breakdown:
Section |  min time  |  avg time  |  max time  |%varavg| %total
---------------------------------------------------------------
Pair    | 0.19952    | 0.21894    | 0.23664    |   2.1 | 47.10
Neigh   | 0.030851   | 0.032816   | 0.035828   |   0.6 |  7.06
Comm    | 0.13589    | 0.15914    | 0.18391    |   2.4 | 34.23
Output  | 5.0356e-05 | 5.1297e-05 | 6.3217e-05 |   0.0 |  0.01
Modify  | 0.039426   | 0.049511   | 0.058689   |   2.7 | 10.65
Other   |            | 0.004423   |            |       |  0.95

Nlocal:        83.3333 ave          91 max          75 min
Histogram: 2 4 1 11 1 11 8 2 4 4
Nghost:        1629.65 ave        1647 max        1609 min
Histogram: 1 3 4 7 7 5 10 2 4 5
Neighs:        9410.85 ave       10268 max        8009 min
Histogram: 1 0 3 5 7 8 3 9 4 8

Total # of neighbors = 451721
Ave neighs/atom = 112.93025
Neighbor list builds = 142
Dangerous builds = 12

#############################
# L I N E A R  Q U E N C H  #
#############################

# Define solid atoms. This closely follows ten Wolde  Ruiz-Montero and Frenkel  Faraday Discuss  1996  104  93-110
# Compute components of the per-atom q6 vector
compute q6 all orientorder/atom degrees 1 6 components 6 nnn NULL cutoff 1.3 # compute the Q6 parameter.
                                                                             # Use all neighbours within 1.3 unit cell.

# get number of connections
compute coord_number all coord/atom orientorder q6 0.5

# An atom is solid if it has 8 or more connections (of a possible 14)
variable is_solid atom c_coord_number>=8
group solid dynamic all var is_solid    # Must be dynamic to update
dynamic group solid defined

# do clustering
compute cluster solid cluster/atom 1.3 # Create a cluster where all atoms within are solid and max 1.3 units from another member

# define chunks one chunk per cluster
compute clus_chunks solid chunk/atom c_cluster nchunk every compress yes  # Says which atoms are in which chunk

# count the size of each chunk
compute size_chunks solid property/chunk clus_chunks count


# Find the maximum entry in the vector of chunk sizes
variable max_n equal max(c_size_chunks)


# Thermo style which includes this variable
# thermo_style custom step temp pe vol v_max_n

thermo ${N}  # Print the thermo information every 100 steps
thermo 1000  

# Reset the npt fix at a lower temperature (below freezing)
fix 1  all npt temp  ${temp} ${temp}  0.1  iso  5.68  5.68  0.5  mtk yes tchain  5  pchain  5
fix 1  all npt temp  0.45 ${temp}  0.1  iso  5.68  5.68  0.5  mtk yes tchain  5  pchain  5
fix 1  all npt temp  0.45 0.45  0.1  iso  5.68  5.68  0.5  mtk yes tchain  5  pchain  5

dump dmp2 all dcd ${N} traj.dcd
dump dmp2 all dcd 1000 traj.dcd


compute msd all msd com yes
variable twopoint equal c_msd[4]/6/(step*dt+1.0e-6)
fix 9 all vector 10 c_msd[4]
variable fit equal slope(f_9)/6/(10*dt)
thermo_style custom step temp pe c_msd[4] v_twopoint v_fit v_max_n

fix 1 all npt temp 1.25 ${temp} 0.1 iso 5.68 5.68 0.5 mtk yes tchain 5 pchain 5
fix 1 all npt temp 1.25 0.45 0.1 iso 5.68 5.68 0.5 mtk yes tchain 5 pchain 5
run 2000000 # 5000000  # Run for this many steps
Neighbor list info ...
  update every 1 steps, delay 10 steps, check yes
  max neighbors/atom: 2000, page size: 100000
  master list distance cutoff = 3.8
  ghost atom cutoff = 3.8
  binsize = 1.9, bins = 9 9 9
  4 neighbor lists, perpetual/occasional/extra = 1 3 0
  (1) pair lj/cut, perpetual
      attributes: half, newton on
      pair build: half/bin/atomonly/newton
      stencil: half/bin/3d
      bin: standard
  (2) compute orientorder/atom, occasional
      attributes: full, newton on
      pair build: full/bin/atomonly
      stencil: full/bin/3d
      bin: standard
  (3) compute coord/atom, occasional
      attributes: full, newton on
      pair build: full/bin/atomonly
      stencil: full/bin/3d
      bin: standard
  (4) compute cluster/atom, occasional
      attributes: full, newton on
      pair build: full/bin/atomonly
      stencil: full/bin/3d
      bin: standard
Per MPI rank memory allocation (min/avg/max) = 9.746 | 9.750 | 9.754 Mbytes
Step Temp PotEng c_msd[4] v_twopoint v_fit v_max_n 
   12000    1.2267734   -6.1263461 2.0423609e-30 1.4183061e-32 8.3333333e+20            1 
   13000    1.2370616   -6.0977579   0.55119848 0.0035333234  0.046002989            2 
   14000    1.2388097   -6.0946576    1.0639638 0.0063331178  0.044129287            3 
   15000    1.2532622   -6.1038426    1.5978644 0.0088770241  0.043737893            3 
   16000    1.2207836   -6.1002792    2.1122722  0.011001417  0.043649165            7 
   17000    1.2362548   -6.1156301    2.5787454  0.012640909  0.042805895            2 
   18000    1.2719777   -6.1100723    3.2075138  0.014849601  0.043184191            2 
   19000    1.2377279   -6.1360201    3.7962008  0.016650003  0.044173591            4 
   20000    1.2384067   -6.1150071     4.317174  0.017988225  0.044704993            4 
   21000    1.2375805   -6.1003496    4.9231471  0.019536297  0.045118281            2 
   22000    1.2342117     -6.10811    5.4791987   0.02075454  0.045471898            3 
   23000     1.248487   -6.1178267    6.1130332  0.022148671  0.045878088            5 
   24000      1.23539   -6.1204081    6.7581428  0.023465773  0.046343064            6 
   25000    1.2004156   -6.1295816    7.2451852  0.024150617   0.04670688            2 
   26000    1.2490925   -6.1496519    7.7419669  0.024813996  0.046786565            2 
   27000    1.2297409   -6.1134117    8.3915158   0.02589974  0.046820095            4 
   28000    1.2619684   -6.1059979    9.0543356  0.026947427  0.047023121            6 
   29000     1.230157   -6.1450334    9.5432595  0.027423159  0.047208807            3 
   30000     1.257785   -6.0996624    10.175441  0.028265112  0.047277526            2 
   31000    1.2281088   -6.1261035    10.641258  0.028605533  0.047290012            3 
   32000    1.2521371    -6.113291    11.205287  0.029180434  0.047320097            3 
   33000    1.2488782   -6.1523062    11.736434  0.029637458  0.047301303            2 
   34000    1.2423203   -6.1172425    12.539481  0.030734022  0.047345615            3 
   35000     1.221477   -6.1011349     13.26841  0.031591452  0.047554952            4 
   36000    1.2466907   -6.1361196    13.855762  0.032073524   0.04778755            1 
   37000    1.2349757   -6.0937169    14.441279  0.032525404    0.0479877            2 
   38000     1.229383   -6.1102831    14.965758  0.032819645  0.048145052            3 
   39000    1.2274463   -6.1226229    15.479178  0.033075166  0.048193088            4 
   40000    1.2386224   -6.1413075    15.848011   0.03301669  0.048190199            3 
   41000    1.2474852   -6.0953933    16.317616  0.033165886  0.048093321            9 
   42000     1.257655   -6.0960766    16.789193  0.033311891   0.04793036            2 
   43000    1.2124806   -6.1259516    17.402604  0.033725977  0.047795515            1 
   44000    1.2194338   -6.1177528    17.906876  0.033914537  0.047686825            2 
   45000    1.2252052   -6.1317592    18.423996   0.03411851  0.047531564            2 
   46000    1.2437552   -6.1548876    18.857987   0.03416302  0.047375097            3 
   47000    1.2439005   -6.1607286    19.277894  0.034180663  0.047210732            3 
   48000    1.2354232   -6.1191138    19.776077  0.034333466  0.047027675            3 
   49000     1.254351    -6.159073    20.313769  0.034547225   0.04686731            2 
   50000    1.2679957   -6.1260318    20.713841  0.034523068   0.04670033            3 
   51000    1.2176562   -6.1802587    21.268307  0.034752135  0.046523626            3 
   52000    1.2019424   -6.1523036    21.645209  0.034687834  0.046348501            2 
   53000     1.225897   -6.1243554    22.288746  0.035045198  0.046177382            2 
   54000    1.2172818   -6.1610505    22.978159  0.035460121  0.046050964            5 
   55000    1.2592784   -6.1540021    23.434233  0.035506414  0.045963188            2 
   56000    1.2366481   -6.1890367    23.838137  0.035473418  0.045854453            3 
   57000    1.2295111   -6.1313177    24.399659  0.035672015  0.045740139            3 
   58000    1.2149397   -6.1467768    25.048013  0.035988524  0.045635548            2 
   59000    1.2242528    -6.145948    25.552516  0.036091124  0.045568168            3 
   60000    1.2252453   -6.1261901     25.92113  0.036001569  0.045490245            3 
   61000    1.2101625   -6.1531529     26.62107  0.036367581  0.045439636            2 
   62000    1.2044041   -6.1483743    27.207036  0.036568597  0.045396123            3 
   63000    1.2258931   -6.1599301    27.435833  0.036290785  0.045322634            3 
   64000    1.2399076   -6.1410124    28.040743  0.036511384  0.045245217            4 
   65000    1.2343607   -6.1391121    28.647175  0.036727147  0.045181204            1 
   66000    1.2278879    -6.140617    29.124179  0.036772953  0.045128019            4 
   67000     1.230972   -6.1511167    29.646146  0.036873315  0.045072848            3 
   68000    1.2445505   -6.1909684    30.133981  0.036928898   0.04501441            3 
   69000    1.2035239   -6.1279386    30.826987   0.03723066  0.044955042            5 
   70000    1.2334836   -6.1454041    31.365931  0.037340394  0.044918365            2 
   71000    1.2212459   -6.1771913    31.738688   0.03725198  0.044881133            2 
   72000    1.2471754   -6.1395101    32.331776  0.037421037  0.044837565            2 
   73000    1.2422353   -6.1675667    32.786192  0.037427159  0.044791348            6 
   74000    1.2318767   -6.1316998    33.298345  0.037498136  0.044742627            5 
   75000    1.2296561   -6.1940424    33.679659  0.037421843  0.044694046            3 
   76000    1.2056491   -6.1283844    34.294798  0.037603945  0.044645137            3 
   77000    1.2339979   -6.1415695    34.833638  0.037698742   0.04459357            3 
   78000    1.2449767   -6.1206457    35.447654  0.037871424  0.044550067            6 
   79000    1.2041588   -6.1873872    35.986868  0.037960831  0.044514503            5 
   80000    1.2017363   -6.1767269    36.521854  0.038043597  0.044487405            3 
   81000    1.2254086    -6.171662    36.899005  0.037961939  0.044468422            2 
   82000    1.2233372   -6.1721026    37.555782  0.038166445  0.044441142            4 
   83000    1.2107888   -6.1732442    37.885992  0.038038144  0.044413839            1 
   84000     1.218428   -6.1320792    38.611777  0.038305334  0.044385957            6 
   85000    1.2219042    -6.109244    39.188115  0.038419721  0.044366475            6 
   86000    1.2332259   -6.1493236    39.684108  0.038453593  0.044349597            6 
   87000    1.2170261   -6.1708294     40.27273  0.038575412  0.044333724            3 
   88000     1.219458   -6.1853439    40.827417  0.038662326  0.044330614            1 
   89000     1.206916   -6.1839215    41.198751   0.03857561  0.044318829            4 
   90000    1.2164233   -6.1631174    41.528353  0.038452178  0.044296094            2 
   91000    1.2233962   -6.1356218    42.021033  0.038480799  0.044266908            4 
   92000    1.1976485   -6.1393594    42.679775  0.038659216  0.044240365            1 
   93000     1.223211   -6.1681262    43.081071   0.03860311  0.044216326            2 
   94000     1.213076   -6.1502372    43.728974  0.038766821  0.044190064            1 
   95000    1.2230607   -6.2008815    43.858884  0.038472705  0.044155346            6 
   96000     1.229056   -6.1618444    44.534296  0.038658243  0.044116783            2 
   97000    1.2367884   -6.1736881    45.044615  0.038698123  0.044080853            3 
   98000    1.1885025   -6.1829398    45.366916   0.03857731  0.044039051            5 
   99000     1.221186   -6.1576402    45.996645  0.038717715  0.043997619            1 
  100000     1.204899   -6.1594195    46.437528   0.03869794  0.043967554            6 
  101000    1.2352122   -6.1638029    46.995802  0.038775414  0.043938529            2 
  102000    1.2437391    -6.207307    47.530378  0.038832008  0.043904303            2 
  103000    1.2034928   -6.1863563    48.227183  0.039018756  0.043880128            2 
  104000     1.207674   -6.1417467    48.714432     0.039034  0.043855514            2 
  105000    1.2235761   -6.1579994    49.150252  0.039008136  0.043840954            5 
  106000    1.2097612   -6.1680021    49.641059   0.03902599  0.043817718            2 
  107000    1.2261718   -6.1695375    50.075214  0.038999387  0.043792865            4 
  108000    1.2212298   -6.2114723    50.341881  0.038844043  0.043760799            1 
  109000    1.2302192   -6.1774031    50.797552  0.038836049   0.04372397            3 
  110000    1.2001048   -6.1536151    51.504217  0.039018346  0.043689334            1 
  111000    1.1902205   -6.1872297     51.94307  0.038996298  0.043654392            5 
  112000    1.2129686   -6.1981906     52.32354  0.038931205   0.04362338            2 
  113000    1.2213123   -6.1593691    53.299993  0.039306779  0.043600242            1 
  114000    1.2271814    -6.214846    53.424592  0.039053064  0.043576964            4 
  115000    1.1752317   -6.1933393    54.100661  0.039203377  0.043551896            2 
  116000    1.2385602   -6.1715014    54.784589  0.039356745  0.043529042            3 
  117000    1.2254034   -6.2137779    55.322295  0.039403344  0.043517854            4 
  118000    1.2427672   -6.1751291    55.885408  0.039467096  0.043511245            6 
  119000    1.2363964   -6.1783143    56.476304  0.039549232  0.043503194            3 
  120000    1.1899673   -6.1849157    56.913381  0.039523181  0.043497366            3 
  121000    1.2309969   -6.1846352    57.223007  0.039409784  0.043488873            2 
  122000    1.1901146   -6.1546313    57.925617  0.039566678   0.04347945            3 
  123000    1.2154607   -6.1424131    59.011526  0.039980709  0.043481689            2 
  124000    1.2251601   -6.1595211    59.353062  0.039887811  0.043489188            2 
  125000    1.2202962   -6.1839743    59.756593  0.039837729  0.043492047            3 
  126000    1.2300043   -6.2013085    59.953784  0.039651973  0.043485998            4 
  127000    1.1915615   -6.2103916    60.401464  0.039633506  0.043474633            6 
  128000    1.2326495   -6.1784413    60.941738  0.039675611  0.043466634            3 
  129000    1.2180456   -6.1648514    61.455924  0.039700209  0.043456042            5 
  130000    1.1878669   -6.1837098    61.846943  0.039645476  0.043440172            2 
  131000    1.2340774   -6.1441497    62.571176  0.039803547  0.043425272            3 
  132000    1.2442324   -6.1944976    63.299799  0.039961994  0.043418238            5 
  133000    1.2031736    -6.188912    63.658945  0.039886557   0.04341875            2 
  134000    1.1959957   -6.1726546    64.085564  0.039854206  0.043410992            3 
  135000    1.2090888   -6.1831236    64.680513  0.039926243  0.043408651            3 
  136000     1.207142   -6.1995885    65.164055  0.039928955  0.043405301            2 
  137000    1.2133909   -6.1750826    65.931141    0.0401041  0.043400571            2 
  138000    1.2072636   -6.1846463      66.3544  0.040069082  0.043395461            4 
  139000    1.1788366   -6.2027618    66.606734  0.039932094  0.043388713            3 
  140000    1.1916306   -6.1761543    67.543573  0.040204507  0.043382662            3 
  141000    1.1667144   -6.2466908    67.723434   0.04002567  0.043378771            4 
  142000    1.1741027   -6.2145261    68.327967  0.040098572  0.043369693            2 
  143000    1.2051464   -6.2006263    68.750568  0.040064433  0.043359549            6 
  144000    1.2052936   -6.1905887    69.150012  0.040017368  0.043354272            2 
  145000    1.2222888   -6.1986808    69.486411  0.039934719  0.043343333            2 
  146000    1.2101579   -6.1914629    70.262935  0.040104415  0.043330672            4 
  147000    1.2119474   -6.2139529     70.51832  0.039976372  0.043321388            4 
  148000    1.1955547   -6.1842924     71.20378  0.040092218  0.043307698            2 
  149000    1.2074759   -6.2402604    71.466906  0.039970305  0.043292782            2 
  150000    1.1688291   -6.2099346    71.955106  0.039975059  0.043277369            4 
  151000     1.204258   -6.2049592    72.461366  0.039989716  0.043260684            4 
  152000    1.1853098   -6.2032743    73.162142  0.040110823  0.043245284            3 
  153000    1.1954733   -6.2023931    73.309046  0.039928674  0.043229095            4 
  154000    1.2135818   -6.1664355    74.013186  0.040050425  0.043209459            2 
  155000    1.2099753   -6.1741556    74.445037  0.040024213  0.043187861            4 
  156000    1.1923841   -6.2231855    74.490646  0.039792012  0.043167308            4 
  157000    1.1835978   -6.1888879    75.341687  0.039990279  0.043145286            4 
  158000    1.1880951   -6.2109355     75.43737  0.039787642  0.043124596            4 
  159000    1.2121934   -6.2485936     75.93449  0.039797951  0.043100424            2 
  160000    1.1881871   -6.1829543    76.467186  0.039826659  0.043076009            3 
  161000    1.1904446    -6.207051     76.66431  0.039681319  0.043047931            2 
  162000    1.2203606    -6.225822    77.438351  0.039834543   0.04302064            5 
  163000    1.1771462   -6.1885833    78.102256  0.039929578  0.042997834            3 
  164000     1.194158   -6.1789053    78.651106  0.039964993  0.042977514            4 
  165000     1.185788   -6.2268748    79.282668  0.040041751  0.042959853            2 
  166000     1.189438   -6.2151073     79.55056   0.03993502  0.042944048            3 
  167000    1.1920718   -6.2153944    80.312777  0.040076236  0.042930567            3 
  168000    1.1919681   -6.2043404    80.669555   0.04001466  0.042914318            3 
  169000    1.1955641   -6.2074335    81.383551  0.040129956  0.042898493            2 
  170000    1.2022382   -6.2043487    81.574239  0.039987372  0.042883751            2 
  171000    1.1883387   -6.2144807    81.788234  0.039857814  0.042865011            3 
  172000    1.1975364   -6.2461361    82.728131  0.040081459  0.042846932            2 
  173000    1.1850358   -6.1948847    82.959259  0.039961107  0.042828922            4 
  174000    1.1891747   -6.2258675    83.646586  0.040060625  0.042812172            2 
  175000    1.1855198   -6.2365627     84.02755  0.040013119  0.042796199            2 
  176000    1.1690633   -6.2080172    84.720801  0.040114016  0.042777887            4 
  177000    1.1713788   -6.2144335    84.980754  0.040009771  0.042758545            2 
  178000    1.1961672   -6.2137342    85.332527  0.039949685  0.042739716            3 
  179000     1.164761   -6.2104193    85.707957  0.039901284  0.042722023            2 
  180000    1.1652716   -6.2358131    85.935896  0.039785137  0.042699736            2 
  181000    1.1644095   -6.2381142    86.222197  0.039697144  0.042672166            3 
  182000     1.194372   -6.2176841     86.48108  0.039597564  0.042641695            3 
  183000    1.1725268   -6.2301451    86.893255  0.039568877  0.042610339            2 
  184000    1.1932414   -6.2317925     86.88292  0.039349149  0.042577012            3 
  185000     1.176966   -6.2178453    87.727844  0.039517047  0.042543448            4 
  186000    1.1578725   -6.2698769    88.174016  0.039504487  0.042511365            2 
  187000    1.2001054   -6.2251829    88.854541  0.039596498  0.042478811            2 
  188000    1.1776675   -6.1717972    89.304828  0.039585473  0.042447097            4 
  189000      1.18144   -6.2167942    89.464508  0.039446432  0.042415206            5 
  190000    1.1756856   -6.2597315    90.263854   0.03958941  0.042384861            3 
  191000    1.1759243   -6.2293346    90.572081  0.039516614   0.04235517           12 
  192000    1.1528404   -6.2275843     91.28432   0.03961993  0.042328301            2 
  193000    1.1854529   -6.2147497     91.77331  0.039625781  0.042302038            2 
  194000    1.1971322   -6.1928111    92.566522  0.039762252  0.042278859            6 
  195000    1.1727303   -6.2567175    92.878936  0.039691853  0.042258047            7 
  196000    1.1602712   -6.2511105    93.825172  0.039891655  0.042238841            9 
  197000    1.1799886   -6.2094081    94.378543  0.039923241  0.042222466            2 
  198000    1.1426316   -6.2513256     94.54239  0.039790568  0.042205984            3 
  199000    1.1747791    -6.238141    94.612304  0.039619893   0.04218739            6 
  200000    1.1555626   -6.2319483    95.593856  0.039830773  0.042168537            3 
  201000    1.1986426   -6.2053295    95.767102  0.039704437  0.042148176            2 
  202000    1.1301558   -6.2543643    96.145413  0.039663949  0.042127372            2 
  203000    1.1638019   -6.2489014    96.910082  0.039782464  0.042107967            3 
  204000    1.1594178   -6.2893217    97.149549  0.039685273  0.042086735            5 
  205000     1.186117   -6.2420886     97.83881  0.039771874  0.042066405            4 
  206000    1.1800121   -6.2341678    98.358169  0.039788903  0.042047936           11 
  207000    1.1437303   -6.2630405    98.562586   0.03967898  0.042030557            4 
  208000    1.1833716   -6.2394829    99.126063  0.039713968   0.04201456            2 
  209000    1.1522131   -6.2316978    99.661789  0.039737555  0.041995657            3 
  210000    1.1841613   -6.2567455    99.826419  0.039613658  0.041975824            2 
  211000    1.1905922   -6.2679106    100.75178  0.039791383  0.041957639            3 
  212000    1.1749234   -6.2053898    101.16652  0.039766713  0.041940132            3 
  213000     1.155831   -6.2782342    101.67582  0.039779274  0.041923675            6 
  214000     1.163667   -6.2493664    102.18757  0.039792667  0.041907207            5 
  215000    1.1576438   -6.2707893    102.14554  0.039591293  0.041889896            3 
  216000    1.1884007   -6.2196186     102.9035  0.039700424   0.04187105            2 
  217000    1.1842638    -6.234529    103.51273  0.039751433  0.041853417            2 
  218000    1.1688162   -6.2595264    103.62946   0.03961371  0.041835792            2 
  219000    1.1802843    -6.223186    104.26327  0.039673998  0.041820797            4 
  220000    1.1493767   -6.2731795    104.51807   0.03959018  0.041806043            7 
  221000    1.1582623   -6.2419547    105.42797  0.039754137  0.041788693            3 
  222000    1.1787046   -6.2323888    106.06278  0.039813356  0.041772039            2 
  223000    1.1494702   -6.2375894    106.35606  0.039744415  0.041757449            3 
  224000    1.1375909   -6.2696746    106.67521  0.039685718  0.041741137            3 
  225000    1.1460139   -6.2482278    107.52592  0.039824415  0.041727079            3 
  226000    1.1682919   -6.2601375    107.63231   0.03968743  0.041712614            4 
  227000    1.1437503   -6.2799287    107.79731  0.039573168  0.041696215            4 
  228000    1.1511216     -6.25157    108.24552   0.03956342  0.041680049            2 
  229000    1.1669296   -6.2639962    108.57699  0.039511279  0.041663315            3 
  230000    1.1593759   -6.2392951    109.06568  0.039516551  0.041646195            2 
  231000    1.1471265   -6.2391308    109.78713  0.039605747  0.041628855            5 
  232000    1.1503948   -6.2913258    110.39924  0.039654898  0.041611794            3 
  233000    1.1665341   -6.2872407    110.89793  0.039663065  0.041596082            2 
  234000    1.1762732   -6.2498233    111.45095   0.03969051  0.041581482            2 
  235000    1.1700046   -6.2075085    111.98013  0.039709265  0.041568966            2 
  236000    1.1727043   -6.2613978    111.94291  0.039527864  0.041554827            5 
  237000    1.1636269   -6.2646429    112.56515   0.03957987  0.041537065            6 
  238000     1.178727   -6.3212502    112.80368  0.039497086  0.041519275            4 
  239000    1.1595057   -6.2690631     113.5752  0.039600837  0.041504744            2 
  240000    1.1636878   -6.2745063    114.23785  0.039665919  0.041492329            4 
  241000    1.1688017   -6.2486302    114.96427  0.039752512  0.041478811            3 
  242000    1.1573353   -6.2531429    115.46167  0.039759528  0.041464284            2 
  243000    1.1869747   -6.2599642    115.34655  0.039556431  0.041449647            5 
  244000    1.1602351   -6.2514237    115.60504  0.039482595  0.041433055            4 
  245000    1.1545784   -6.2391259    115.88182  0.039415585  0.041415127            2 
  246000    1.1660993   -6.3137985    116.04159  0.039309482  0.041393682            3 
  247000    1.1508943   -6.3018903    116.15614   0.03918898  0.041372219            4 
  248000    1.1476676    -6.264995    116.57606  0.039172064  0.041349557            4 
  249000    1.1455626   -6.2303194    117.11057  0.039193632  0.041325432            2 
  250000    1.1511701   -6.2744101    117.27317  0.039091055  0.041300474            3 
  251000    1.1669786   -6.2873206    117.97965   0.03916987  0.041275621            3 
  252000    1.1797349   -6.2700642    118.62815  0.039228885  0.041250663            3 
  253000    1.1278862   -6.2855605    118.27005   0.03895588  0.041224761            3 
  254000    1.1566205    -6.227205    119.08983  0.039071467  0.041197862            3 
  255000    1.1347069   -6.2979432    119.25904  0.038973544   0.04117226            7 
  256000    1.1533172   -6.2537506    119.78819  0.038993551  0.041144928            5 
  257000    1.1689793   -6.2409081    120.34654  0.039022871  0.041120271            2 
  258000      1.15106   -6.2564504    120.62754  0.038962385  0.041095505            3 
  259000    1.1236091   -6.3007253    121.12191  0.038971014  0.041067883            6 
  260000    1.1577053   -6.2554961    121.85026  0.039054572  0.041041377            2 
  261000    1.1381417   -6.2820796    122.52405  0.039120069  0.041016428            3 
  262000    1.1568545   -6.2389307    122.58792   0.03899107  0.040991255            3 
  263000    1.1480432   -6.2776503    123.35367  0.039085447  0.040966506            3 
  264000    1.1629839   -6.3159649    122.96924  0.038816049  0.040940193            2 
  265000    1.1797132   -6.2659935    124.06758  0.039014961  0.040914347            4 
  266000    1.1666429   -6.3059316    124.08069  0.038872396  0.040891008            5 
  267000    1.1436785   -6.2956391    124.65163  0.038905005  0.040867824            3 
  268000    1.1299877   -6.3367488    125.09133  0.038896559  0.040845566            3 
  269000    1.1624739   -6.2794635    125.65665   0.03892709  0.040823578            2 
  270000    1.1395816   -6.2611017    126.42587   0.03902033  0.040800826            5 
  271000    1.1598292   -6.2835361    126.85354  0.039007853  0.040778712            3 
  272000    1.1732561   -6.2709848    126.69887  0.038817057  0.040756096            3 
  273000    1.1493013   -6.2693332    127.70518  0.038982044  0.040733732            3 
  274000    1.1385306   -6.2892911    127.66665  0.038828057  0.040710108            2 
  275000      1.15893   -6.3310249    127.72474  0.038704467  0.040684431            6 
  276000    1.1298987   -6.2586452    128.26986  0.038728822  0.040657934            3 
  277000    1.1462193   -6.2967243    128.50059   0.03865842  0.040633743            6 
  278000    1.1448283   -6.2855039    129.30504  0.038760503   0.04060872            2 
  279000    1.1334586   -6.2209965    129.99706  0.038828274  0.040585847            3 
  280000    1.1414311    -6.285245    130.28947  0.038776629  0.040563049            2 
  281000    1.1311636   -6.2791688    130.57328  0.038722798  0.040539928            2 
  282000    1.1534941   -6.3157514    130.97953  0.038705535  0.040516989            5 
  283000    1.1726143   -6.2906562    131.04496  0.038588033  0.040492743            4 
  284000    1.1271251    -6.297038    131.55024  0.038600421  0.040468494            2 
  285000    1.1287899   -6.2861362    132.32867  0.038692593  0.040444856            5 
  286000    1.1217226   -6.2851874    132.48506  0.038602873  0.040419632            3 
  287000    1.1420818    -6.316027    132.73595  0.038541215  0.040394202            2 
  288000    1.1660049   -6.3190795    132.78291  0.038420979   0.04036782            2 
  289000    1.1241785   -6.3313035    133.20873   0.03841082  0.040341105            4 
  290000    1.1362871   -6.2966339    134.03223  0.038515009  0.040315592            2 
  291000    1.1379717   -6.2556761    134.49053  0.038513897  0.040291714            2 
  292000     1.153242   -6.3118649    135.06796  0.038546792   0.04026779            4 
  293000    1.1255071   -6.3067244    135.61722   0.03857145  0.040243807            2 
  294000     1.135661   -6.3153495    135.57857  0.038429299  0.040218886            4 
  295000    1.1452978    -6.296301    136.87099  0.038664122  0.040195251            2 
  296000    1.1534712   -6.2845248    136.34004  0.038384021  0.040172517            2 
  297000    1.1342834   -6.2736046    137.21754  0.038500994  0.040149484            5 
  298000     1.121888   -6.3017497    137.15099  0.038353186  0.040124262            4 
  299000    1.1410742   -6.3235296    137.11663  0.038215336  0.040096748            4 
  300000     1.126811   -6.3288625    137.44553  0.038179315  0.040068889            2 
  301000    1.1300901   -6.2518877    137.85147  0.038164858  0.040041087            1 
  302000    1.1278191   -6.3079746     138.4368       0.0382  0.040014667            3 
  303000    1.1325481   -6.3404441    138.96139  0.038218204  0.039988623            4 
  304000    1.1255023   -6.3213211    139.48085  0.038234882  0.039963581            3 
  305000    1.1237238   -6.2899094    139.72679  0.038176718  0.039938262            4 
  306000    1.1171574   -6.3284594      140.472  0.038254901  0.039913879            8 
  307000    1.1177984   -6.2930951     140.9727  0.038266206  0.039889652            6 
  308000    1.1264277    -6.336723    140.85369  0.038109763  0.039864516            3 
  309000    1.1374314   -6.3039511     141.3733  0.038126565  0.039838984            7 
  310000     1.117746   -6.3245916    142.20902  0.038228231  0.039814943            2 
  311000    1.1426034   -6.3132992    142.30407  0.038130781  0.039790433            7 
  312000    1.1214368   -6.3115979    142.77585  0.038134574  0.039765992            2 
  313000    1.1261655   -6.3312378    143.52686   0.03821269  0.039742394            3 
  314000    1.1291431    -6.333226    143.24421   0.03801598   0.03971835            3 
  315000    1.1299555   -6.3460932    143.95717  0.038083908  0.039692959            3 
  316000    1.1400123   -6.3043947    144.31801  0.038058548  0.039667044            5 
  317000    1.1251675   -6.3286699    144.42846  0.037967523  0.039642202            7 
  318000    1.1320411   -6.3365569    144.57861  0.037887476  0.039615581            7 
  319000    1.1227855   -6.3694981     145.0822  0.037900261  0.039588674            5 
  320000    1.1411336     -6.34646    145.03741  0.037770159  0.039561063            2 
  321000    1.1201866   -6.3176464     145.5818  0.037793822  0.039535918            3 
  322000    1.1425851   -6.3383809    147.08338  0.038065057  0.039511066            3 
  323000    1.1189509   -6.3474228    146.83548  0.037883251  0.039487023            3 
  324000    1.1315092   -6.3202668    146.73929  0.037741587   0.03946191            3 
  325000    1.1195385   -6.3094013    146.84272  0.037651979  0.039434112            3 
  326000    1.1248962    -6.322648     147.6802  0.037750564  0.039406116            3 
  327000    1.1440884   -6.2908176    147.50449  0.037590339   0.03937724            5 
  328000    1.1149746   -6.3231683    147.46893    0.0374667  0.039347994            4 
  329000    1.1198532   -6.2992465    148.48451  0.037610058  0.039319568            4 
  330000    1.1194549   -6.3673977    148.75816  0.037565191  0.039291637            4 
  331000    1.1308563    -6.365671    148.88593  0.037483869  0.039263803            4 
  332000    1.1323324   -6.3183994    149.69605   0.03757431  0.039236285            3 
  333000    1.1517228   -6.3070199    150.28738  0.037609454  0.039209471            2 
  334000    1.1165972   -6.3255711    150.72982  0.037607241  0.039183391            5 
  335000    1.1199048   -6.3712485    150.84679  0.037524078  0.039156036            2 
  336000    1.1289171   -6.3473924    151.51197  0.037577374  0.039130409            7 
  337000    1.1193532   -6.3453702    151.83869   0.03754666   0.03910389            4 
  338000    1.1260401   -6.3540723    152.31333  0.037552597  0.039077377            4 
  339000    1.1191905   -6.3487412     151.7241  0.037296976  0.039050128            7 
  340000    1.1127197   -6.3302241     152.7115  0.037429289  0.039022442            3 
  341000    1.1168262   -6.3310971    153.33198  0.037471159  0.038996084            5 
  342000    1.1069101   -6.3526418    153.18497  0.037325773   0.03896972            4 
  343000    1.1204926   -6.3383131    153.87729  0.037385153  0.038942726            5 
  344000    1.1111389   -6.3500437     153.7414  0.037243556  0.038914777            2 
  345000    1.1246607   -6.3432959    154.27624  0.037264793  0.038886781            2 
  346000    1.1239079   -6.3450126    155.31747  0.037407867  0.038859405            2 
  347000    1.1324461   -6.3495663    155.17086  0.037264855  0.038832645            3 
  348000    1.0903397   -6.3376161    155.46853  0.037229053  0.038805686            8 
  349000     1.120904   -6.3587592     156.1066  0.037274738  0.038778103            3 
  350000    1.1400748   -6.3480092    156.00304  0.037143582  0.038750729            5 
  351000    1.1355959   -6.3503461    156.96502  0.037266149   0.03872376            2 
  352000    1.1277145   -6.3199061    156.77492  0.037115275  0.038697158            4 
  353000    1.1073596   -6.3213211     157.7371  0.037237276   0.03867051            5 
  354000    1.0982984   -6.3355763    158.21848  0.037245405  0.038644246            3 
  355000    1.1168251   -6.3102911    158.99092  0.037321812  0.038618987            3 
  356000    1.1136516   -6.3807928    159.23488  0.037274082   0.03859464            2 
  357000    1.1053233   -6.3512933    159.26902  0.037177642  0.038570703            5 
  358000    1.1241586   -6.3771853    159.92544  0.037226593  0.038546596            3 
  359000    1.0879153   -6.3755078    160.78395   0.03732218  0.038523237            2 
  360000    1.1210597   -6.3449785    160.36647  0.037121869  0.038500017            3 
  361000     1.122755   -6.3417667    161.04107  0.037174761  0.038476845            4 
  362000    1.1495905   -6.3613668    161.19214  0.037106846  0.038453713            2 
  363000     1.103993   -6.3687729    161.63837  0.037107064  0.038429487            3 
  364000    1.1137675   -6.3809167    161.67156  0.037012721  0.038405028            5 
  365000    1.1188385   -6.3292174    162.84252  0.037178657  0.038380079            3 
  366000      1.09022   -6.3625865     162.2595  0.036944332  0.038355349            3 
  367000    1.0790307    -6.351499    162.92918  0.036995725  0.038329713            4 
  368000    1.0901904   -6.3347514    163.35432  0.036991466  0.038305233            5 
  369000    1.1175435   -6.3587223    163.50774  0.036925868  0.038281004            3 
  370000     1.077132   -6.3550463    164.92145  0.037144471  0.038256764            2 
  371000    1.1004094   -6.3566975    164.42406  0.036932627  0.038232393            4 
  372000    1.0999387   -6.3283937    164.96513  0.036954554  0.038207876            5 
  373000    1.1049828   -6.3349446    165.04049  0.036872317  0.038183201            3 
  374000    1.1094293   -6.3387078    165.81795  0.036946958  0.038158677            6 
  375000    1.1186177   -6.3352691    165.81038   0.03684675  0.038133831            3 
  376000    1.1051142    -6.370399    165.87605  0.036763309   0.03810881            7 
  377000    1.0964243   -6.3449414    166.48501  0.036800399  0.038083081            1 
  378000    1.1091194   -6.3738123    166.37255  0.036678251  0.038056822            2 
  379000    1.0892795   -6.3735554    166.81323  0.036678371  0.038030554            3 
  380000    1.0935868   -6.3246652    167.37992  0.036706123  0.038005848            2 
  381000     1.118244   -6.3643803    167.95857  0.036736345  0.037981191            4 
  382000    1.0782579   -6.3573335    168.14153  0.036680089  0.037956283            6 
  383000    1.1134462   -6.3861511    168.62688  0.036689922  0.037931461            2 
  384000    1.0878017   -6.3560314    169.05718  0.036687756  0.037906251            6 
  385000    1.0975383   -6.3418238    169.55341  0.036699872  0.037880957           10 
  386000    1.0868765   -6.3449487     168.9111  0.036466126  0.037856186            5 
  387000    1.1108205   -6.3536429    169.24342  0.036443458  0.037831144            3 
  388000    1.0768343   -6.3597665    170.23174    0.0365618  0.037805721            1 
  389000    1.1073753    -6.360301    170.49472  0.036524146  0.037780364            3 
  390000    1.1023475   -6.3892643    170.84386  0.036505098  0.037754947            3 
  391000    1.0791607   -6.3995151    170.24986  0.036285137  0.037729535            3 
  392000    1.0900373   -6.3908395    171.27514  0.036410532  0.037703652            4 
  393000    1.0892177   -6.3871856    171.73388  0.036415156  0.037678629            6 
  394000    1.0924175   -6.3738028    172.35839  0.036454821  0.037654015            2 
  395000    1.1122272   -6.3783211     172.5343   0.03639964  0.037629815            4 
  396000    1.0677949   -6.3669673    173.32137  0.036473352  0.037605034            4 
  397000    1.0882139   -6.3700158     173.4806  0.036414903  0.037580282            4 
  398000    1.0981879   -6.3493787    173.74287  0.036378322   0.03755683            5 
  399000    1.0938358   -6.4070703    174.24927  0.036392912  0.037533491            3 
  400000    1.0910783   -6.3997898    174.94183  0.036446215  0.037510257            3 
  401000    1.1063914   -6.4053088    175.74327  0.036521877  0.037488235            8 
  402000    1.0994254   -6.3723585    175.67162  0.036416174  0.037465623            5 
  403000    1.0693984   -6.3980683    176.43498  0.036483661  0.037442931            4 
  404000    1.0820373   -6.4013102    176.45214  0.036396894  0.037420427            4 
  405000    1.1090054   -6.3734058    176.67953  0.036353813  0.037397802            3 
  406000    1.1204549   -6.3347302    177.27063  0.036385597  0.037375645            4 
  407000    1.0856893    -6.398781    177.66514  0.036376974  0.037354102            5 
  408000    1.0985432   -6.4058606    178.20286  0.036397642  0.037332546            4 
  409000    1.1162773    -6.361022    178.04999  0.036277504  0.037311025            8 
  410000    1.0998763    -6.393006    178.01799  0.036182518  0.037289107            7 
  411000    1.0995853   -6.4060933    178.76122  0.036245179  0.037265653            2 
  412000    1.0840032   -6.3866971    178.86259  0.036177709  0.037242993            3 
  413000     1.111988   -6.3683105    179.55451  0.036229724   0.03722002            5 
  414000    1.0983276   -6.3720138    179.47073  0.036125348  0.037197483            2 
  415000    1.1004482    -6.385946    179.62049  0.036068372  0.037174009            2 
  416000    1.0975907   -6.3665557    180.38203  0.036134221  0.037150041            2 
  417000    1.0813421   -6.3761814     181.1255  0.036196143  0.037125868            4 
  418000    1.0670432   -6.3999945    180.89529  0.036063655   0.03710203            3 
  419000    1.0848745   -6.4192619    181.51132  0.036100104  0.037078624            3 
  420000    1.0719906   -6.3913553     181.9166  0.036094563  0.037056701            3 
  421000    1.0825615   -6.3994202    182.14328  0.036053698  0.037034608            5 
  422000    1.0751572   -6.3969782    182.85318  0.036108449  0.037013353            6 
  423000    1.0810128   -6.4431612    182.62432  0.035977997  0.036991107            6 
  424000    1.0738323   -6.3974836       183.04  0.035974842  0.036968228            2 
  425000    1.0744253   -6.4091404    183.01682  0.035885651  0.036944957            5 
  426000    1.1015998   -6.3563696     183.6072  0.035916902  0.036922026            7 
  427000    1.0800897   -6.4547249    183.59507   0.03583042  0.036899608            2 
  428000    1.1023182   -6.4033072    184.68959  0.035959811  0.036876938            4 
  429000    1.0765169   -6.3918051     185.1465  0.035964744  0.036855291            2 
  430000    1.0697793   -6.3833252    185.25213  0.035901575  0.036833435            5 
  431000    1.0795851   -6.4254345    185.01049  0.035771557  0.036811179            6 
  432000    1.0948257   -6.4059047    186.01614  0.035882743  0.036789023            4 
  433000    1.0793751   -6.4216518    186.34525  0.035863212  0.036766886            8 
  434000    1.0796444   -6.3875094    186.79429    0.0358668  0.036745169            6 
  435000    1.0692381   -6.3982984     187.0332  0.035830114   0.03672374            3 
  436000    1.0841734   -6.4099018    187.70856  0.035877019  0.036702411            6 
  437000    1.0908835   -6.4330049    187.30037   0.03571708  0.036680689            3 
  438000    1.0594195   -6.4275195    187.93594  0.035756458  0.036659329            4 
  439000    1.0692642   -6.3894779    187.98946  0.035685167  0.036637715            9 
  440000    1.0781975   -6.4143701     188.9729  0.035790322  0.036616295            4 
  441000    1.1170326   -6.4393062    189.07388  0.035728246   0.03659466            9 
  442000    1.0831902   -6.4089296    189.42348  0.035713327  0.036572569            3 
  443000    1.0754862   -6.4191125    189.97929  0.035737264  0.036550443            2 
  444000    1.0863296   -6.4213927    189.76454  0.035616467  0.036528569            4 
  445000    1.0730465   -6.3888329    190.33319   0.03564292  0.036506593            3 
  446000    1.0464639    -6.397386     191.5561  0.035791499  0.036485716            3 
  447000    1.0871599   -6.4140835    190.88087  0.035585547   0.03646461            5 
  448000    1.0560363   -6.4019952    191.28902  0.035582035  0.036443355            6 
  449000    1.0831386   -6.4499101    191.99614  0.035634028  0.036422215            7 
  450000    1.0786102   -6.4071928    192.36267  0.035622716  0.036400969            4 
  451000    1.0702595   -6.4418818    191.06524  0.035303998  0.036379403            3 
  452000    1.0734956   -6.4120074    192.82538  0.035550402  0.036357203            4 
  453000    1.0505882   -6.4272659     193.0628    0.0355156  0.036335783            4 
  454000    1.0685794    -6.441341    193.15269  0.035453872    0.0363144            8 
  455000    1.0627418   -6.4433484     193.6062  0.035459011  0.036293252            8 
  456000    1.0702052   -6.4085188    194.44587  0.035534698  0.036272119            3 
  457000    1.0616766   -6.3985899    194.64048  0.035492428  0.036251786            3 
  458000    1.0610946   -6.4445963    194.46963  0.035383848  0.036231216            2 
  459000    1.0633176   -6.4010782    195.02934  0.035408378  0.036210053            6 
  460000    1.1042875   -6.3957109    195.86755  0.035483252   0.03618951            5 
  461000     1.078234   -6.4615118    195.84088  0.035401461  0.036169868            3 
  462000     1.071877   -6.4596574    196.04793  0.035362181  0.036149607            5 
  463000    1.0633111   -6.4464155    196.25474  0.035323028  0.036129123            3 
  464000    1.0667518   -6.4533747    196.73267  0.035332736  0.036109244            4 
  465000    1.0619562   -6.4602437    197.26964  0.035352982  0.036089007            4 
  466000    1.0694705   -6.4131771    197.75637  0.035364157  0.036069395            4 
  467000    1.0707715   -6.4145954     197.7498   0.03528726  0.036050081            2 
  468000    1.0431994   -6.4312556    198.55601  0.035355415  0.036030187            4 
  469000    1.0545558    -6.428574    199.25699  0.035404582  0.036010648            5 
  470000    1.0797021    -6.433587    198.24891  0.035150516  0.035990333            6 
  471000     1.078733   -6.4521221    199.66597  0.035326605  0.035969817            2 
  472000    1.0702719   -6.4497775    199.37024  0.035199548  0.035948781            5 
  473000    1.0668854    -6.417837    200.12629  0.035258332  0.035927846            5 
  474000    1.0541891   -6.4632037     199.6331   0.03509724  0.035907339            4 
  475000    1.0600397    -6.440251    200.25015  0.035131605  0.035886868            6 
  476000    1.0646334   -6.4497376     200.3519  0.035075613  0.035865707            4 
  477000    1.0867763   -6.4320446    201.43913  0.035192021  0.035844587            5 
  478000     1.043131    -6.438634    201.50589  0.035130037  0.035824018            4 
  479000    1.0561354   -6.4961526    201.35477  0.035030405  0.035803042            4 
  480000    1.0542339   -6.4748064    201.84722   0.03504292  0.035782108            4 
  481000    1.0873473   -6.4594797    202.29858  0.035048264  0.035761619            2 
  482000    1.0553138   -6.4708961    202.12335  0.034945254  0.035740951            5 
  483000    1.0742595   -6.4753103    202.28746  0.034901218   0.03572019            4 
  484000    1.0418379   -6.4471828      203.277  0.034999483  0.035699532            3 
  485000    1.0614004   -6.4193069    203.56025  0.034975988  0.035678812            3 
  486000    1.0644999   -6.4505641    204.12415  0.035000712  0.035658003            3 
  487000    1.0702997   -6.4364553     203.9569  0.034900223  0.035637437            4 
  488000    1.0618923   -6.4445893    204.10462  0.034853931  0.035616463            2 
  489000    1.0777975   -6.4576191    204.51757  0.034853028  0.035594872            6 
  490000    1.0353423   -6.4369851    205.42595  0.034936387  0.035573952            3 
  491000    1.0772194   -6.4624493    205.24615  0.034834716  0.035553522            2 
  492000    1.0351994   -6.4893596     204.7843  0.034685688  0.035532383            2 
  493000    1.0669213   -6.4483505    205.30703  0.034703691  0.035511117            6 
  494000    1.0476763    -6.473631    206.24806  0.034792182  0.035490405            5 
  495000    1.0501831   -6.4552065     206.6204  0.034784579  0.035469555            5 
  496000    1.0569415     -6.46127    206.93162  0.034766737  0.035448292            2 
  497000     1.048752   -6.4223848    207.12086  0.034728514  0.035427242            3 
  498000    1.0630077   -6.4605012    207.14545  0.034662894  0.035407007            3 
  499000    1.0435808   -6.4847831    207.61273  0.034671464  0.035386207            3 
  500000    1.0670269   -6.4530474    208.17547  0.034695911  0.035365954            5 
  501000    1.0613561   -6.4509223    208.29665  0.034646815  0.035345779            5 
  502000    1.0477907   -6.4541856     209.6152   0.03479668  0.035325661            4 
  503000    1.0511641   -6.4479793    209.16075  0.034652212  0.035305182            5 
  504000    1.0623515   -6.4791104    209.67251  0.034668074  0.035285134            4 
  505000      1.03397   -6.4513452    210.44387  0.034726711   0.03526514            6 
  506000    1.0511815   -6.4679906     210.2519  0.034626465  0.035245459            6 
  507000    1.0585526   -6.4958909    210.31028  0.034567765  0.035225424            5 
  508000    1.0410632   -6.4765712    210.34524  0.034505453  0.035205299            4 
  509000    1.0684409   -6.4591524    210.63938  0.034485819    0.0351855            3 
  510000    1.0508283   -6.4733689    211.64796     0.034583  0.035165715            6 
  511000     1.064019     -6.47965    211.38983  0.034473228  0.035145295            4 
  512000    1.0578398   -6.4624538    211.97496  0.034501132  0.035124836            6 
  513000    1.0347308   -6.4823171    212.10946  0.034455728  0.035104075            5 
  514000    1.0626203   -6.4845513    212.33885  0.034425884   0.03508365            6 
  515000    1.0505116   -6.4997932    211.67789  0.034252086  0.035062695            8 
  516000    1.0518036   -6.4875748    212.42966  0.034307116  0.035041795            3 
  517000    1.0481375   -6.4983587    213.08889  0.034347016  0.035020844            3 
  518000    1.0603511   -6.4919411    213.28492  0.034312246  0.034999731            4 
  519000    1.0520695    -6.443807    213.62755  0.034301147  0.034978707            6 
  520000    1.0322418   -6.4800351    214.82685   0.03442738  0.034957852            4 
  521000    1.0516726    -6.494345    214.30706  0.034278161  0.034937433            4 
  522000    1.0618292   -6.4709689    215.35605  0.034379956  0.034917336            6 
  523000    1.0439793   -6.4835666    215.12545  0.034277478  0.034896721            4 
  524000    1.0213497   -6.4988082    215.30765  0.034241038  0.034875859            3 
  525000    1.0544209   -6.4836813    216.06083   0.03429537  0.034855366            3 
  526000    1.0519589   -6.4875477    215.65206  0.034165408  0.034834754            4 
  527000    1.0425971   -6.5157853    215.46382  0.034070812  0.034813257           10 
  528000    1.0390244   -6.4758338    216.25494  0.034131145  0.034792127            2 
  529000    1.0368609   -6.4758349    216.48168  0.034102345  0.034771119            5 
  530000    1.0151642   -6.4680883    217.13749  0.034141115  0.034750223            4 
  531000    1.0428417   -6.4676158    217.31304  0.034104369  0.034728971            4 
  532000    1.0415494   -6.4734487    217.42316  0.034057512  0.034707713            4 
  533000    1.0249989   -6.4752136    217.86594  0.034062842   0.03468707            2 
  534000    1.0383043    -6.532047    217.02559  0.033867914  0.034666264            1 
  535000    1.0439343   -6.4686064    218.24689  0.033994843  0.034645192            5 
  536000    1.0548216   -6.4852027    217.95307  0.033885738  0.034624141            4 
  537000    1.0457485   -6.4789987    218.50846  0.033908823  0.034602916            3 
  538000    1.0269665   -6.5107193    219.07946  0.033934241   0.03458209            8 
  539000    1.0454589   -6.5023472    218.79391  0.033827135  0.034560677            6 
  540000    1.0638687   -6.4648287    219.74426  0.033911151  0.034539783            2 
  541000    1.0305956    -6.480259    219.72678  0.033845777  0.034518305            6 
  542000    1.0266563   -6.4758006    220.19771  0.033855736  0.034496918            5 
  543000    1.0301775   -6.4975376    221.69536  0.034023229   0.03447615            6 
  544000    1.0488622   -6.4819088    221.44433  0.033922232  0.034455768            4 
  545000    1.0460489   -6.4681151    221.32374  0.033841551  0.034435651            3 
  546000    1.0212685   -6.5074957    221.34312  0.033782527  0.034415171            3 
  547000    1.0206225    -6.471256    221.72166  0.033778437  0.034394441            7 
  548000    1.0179244   -6.5062536     222.1265   0.03377836  0.034373954            5 
  549000    1.0305872   -6.5055531    222.28152  0.033740364  0.034352979            2 
  550000    1.0276734   -6.5237238     222.2384  0.033672485  0.034331963            3 
  551000    1.0388043   -6.4679161     223.3196  0.033774895  0.034310682            7 
  552000    1.0280267    -6.509057    223.22351  0.033699202  0.034289728            5 
  553000    1.0239587   -6.4973189    223.09675   0.03361916  0.034268948            5 
  554000    1.0461315   -6.4788788    223.91934   0.03368221  0.034248044            2 
  555000    1.0434365   -6.5113115    223.76814   0.03359882  0.034227151            8 
  556000    1.0272098   -6.4775855    223.76186  0.033537449  0.034206538            2 
  557000    1.0259503   -6.5189269    224.83603  0.033637945  0.034185882            7 
  558000    1.0525797   -6.5044506    224.78411  0.033569909  0.034165276            5 
  559000    1.0308619   -6.4677739    224.72145  0.033500514  0.034144452            2 
  560000    1.0056875   -6.4928135    225.56921  0.033566846  0.034123795            6 
  561000    1.0269466   -6.5021521    225.49495  0.033495981   0.03410323            4 
  562000    1.0458751   -6.5547313    226.76246  0.033624327  0.034083327            7 
  563000    1.0290661   -6.5615837    226.44509  0.033517628  0.034063151            7 
  564000    1.0537482   -6.4953172     226.6037  0.033481634  0.034043091            6 
  565000    1.0334521   -6.5034882    227.11867  0.033498328  0.034023793            5 
  566000    1.0326761    -6.491599    227.74942  0.033532011  0.034004506           15 
  567000    1.0317526   -6.5095611    227.85466   0.03348834  0.033985128            3 
  568000    1.0028609   -6.5009262    228.70827  0.033554617  0.033966011            6 
  569000   0.99606494   -6.5069804    228.13106  0.033411109  0.033946785            7 
  570000    1.0055015   -6.5502274    228.64118  0.033427073  0.033927207            3 
  571000    1.0176888   -6.5256174    229.30163   0.03346492  0.033908093            5 
  572000    1.0412556   -6.5042901    230.00314  0.033508616  0.033888804            3 
  573000     1.023927   -6.5010437    230.24405  0.033485173  0.033869376            5 
  574000    1.0405866    -6.504311    229.92286  0.033380206   0.03384994            5 
  575000    1.0186305   -6.5381307    229.75065  0.033297195  0.033830455            5 
  576000    1.0332392     -6.53331    230.49279  0.033346758  0.033810965            2 
  577000    1.0090277   -6.5231472    230.73926  0.033324561  0.033791527            6 
  578000    1.0365448   -6.5260863    231.02611  0.033308263  0.033771827            6 
  579000    1.0314384   -6.5274555    231.23697  0.033281084  0.033752284            7 
  580000    1.0320241   -6.5354648    232.34226  0.033382509  0.033732851            4 
  581000     1.029646   -6.5115072    232.38436  0.033331089  0.033714087            2 
  582000    1.0089352   -6.5273983    232.66777    0.0333144  0.033695567            6 
  583000    1.0160681   -6.5064676    233.23311  0.033338067  0.033677159           10 
  584000    1.0345989   -6.5189503    233.47884  0.033316044  0.033659015            4 
  585000    1.0321941   -6.5209118    233.51691  0.033264517  0.033640515            4 
  586000    1.0121747   -6.5065333    234.13941  0.033296276  0.033621921            5 
  587000    1.0186015   -6.5734686    233.91043  0.033207046  0.033603079           11 
  588000    1.0351636   -6.5327143    233.82527  0.033138502  0.033584132            4 
  589000    1.0174596   -6.5103841    234.84391  0.033226359  0.033565217            3 
  590000   0.98628607   -6.5551746    235.83117  0.033309488  0.033546246            7 
  591000    1.0188002   -6.5145137    235.04128  0.033141748  0.033527749            3 
  592000    1.0225886   -6.5045916    235.39569  0.033135654  0.033509055            4 
  593000    1.0112061   -6.5141624    235.38512  0.033078291   0.03349016            4 
  594000    1.0127758   -6.5543696    236.04604  0.033115326  0.033471125            4 
  595000    1.0170216   -6.5356002    235.89403   0.03303838  0.033451244            4 
  596000    1.0095198   -6.5599641    235.62672  0.032945571  0.033431222            3 
  597000    1.0302494   -6.5461106    236.19417  0.032969594  0.033411593            4 
  598000    1.0257481   -6.5282524    236.85768  0.033006924   0.03339228            5 
  599000    1.0097379   -6.5452689    236.68116  0.032927261  0.033372614            4 
  600000    1.0291442   -6.5717594     236.4943   0.03284643  0.033352827            5 
  601000   0.99555295   -6.5117903    237.20837  0.032890789  0.033333324            4 
  602000    1.0028192   -6.5430485     237.0637  0.032816127   0.03331374            8 
  603000    1.0092371   -6.5473165    237.61237  0.032837531  0.033294296            3 
  604000    1.0059341   -6.5343713    237.74063  0.032800859  0.033275024            3 
  605000    1.0316029   -6.5501544    237.76752  0.032750347  0.033255416            6 
  606000     1.019112   -6.5304871    237.96166     0.032723   0.03323574           10 
  607000    1.0413586   -6.5058334    238.36524  0.032724497  0.033215876            3 
  608000    1.0110784   -6.5300227      238.458  0.032683388  0.033195992            7 
  609000    1.0108806   -6.5056449    239.14098  0.032723177  0.033176034            3 
  610000    1.0064645   -6.5370135    239.26808  0.032686896  0.033156273            3 
  611000    1.0149648   -6.5537036    240.38718  0.032786031  0.033136712            7 
  612000    1.0314566    -6.548672    239.90576  0.032666907  0.033116647            2 
  613000   0.98396564   -6.5755011    240.34915  0.032673891  0.033096569            3 
  614000    1.0072566   -6.5278121    240.05176  0.032580315  0.033076299            4 
  615000    1.0009779   -6.5250221    240.41008  0.032575892  0.033056096            8 
  616000    1.0006408   -6.5544099    240.57886  0.032545842  0.033035912            3 
  617000     1.018642   -6.5161564    240.99006  0.032548631  0.033015768            4 
  618000    1.0123422   -6.5769708     241.1386  0.032515992  0.032995773            4 
  619000    1.0117505   -6.5284213    241.76033  0.032547164  0.032976172            2 
  620000    1.0082771   -6.5248322    241.74994  0.032493272  0.032956378            4 
  621000   0.99864579    -6.569756    242.41232  0.032529834  0.032936473            7 
  622000    1.0176046   -6.5915353    242.11173  0.032437263  0.032916605           12 
  623000   0.99481496   -6.5748828    242.76015   0.03247193  0.032896964            3 
  624000    1.0119104   -6.5764193    242.21759  0.032347434  0.032877069           10 
  625000    0.9943069   -6.5324454    243.77339  0.032503118  0.032857425            4 
  626000    1.0081166   -6.5451768    243.47985  0.032412121  0.032837759            3 
  627000    1.0080072   -6.5723287    243.38241  0.032347476  0.032817804            2 
  628000   0.99414195   -6.5412982    244.11284  0.032392893  0.032798159           12 
  629000    1.0013776   -6.5274343    244.60752  0.032406932  0.032778602            4 
  630000    1.0021596   -6.5849651    244.47689  0.032338214  0.032759014            3 
  631000    1.0038263   -6.5958291    244.64558  0.032309242  0.032739578            4 
  632000    1.0233005   -6.5551739    245.57709  0.032380945  0.032720108            5 
  633000    1.0269918   -6.5505606    245.86399  0.032367561  0.032700632            3 
  634000   0.99726215   -6.5348137    246.04583  0.032340408  0.032681337            6 
  635000    1.0141047   -6.6025548    245.25858  0.032186166  0.032661922            6 
  636000   0.99703835   -6.5605864    245.85275   0.03221341  0.032642359            6 
  637000    1.0026095   -6.5385988    246.27193  0.032217678  0.032622778            3 
  638000     1.001407   -6.5299213    246.02344  0.032134723  0.032602883            9 
  639000   0.99842362    -6.578771    246.33007  0.032124422  0.032583087            4 
  640000   0.99261651   -6.5794738    247.10195  0.032174733  0.032563149            6 
  641000    1.0048081   -6.5800028    247.07311  0.032120789  0.032543176            6 
  642000   0.98569733   -6.5494285     248.0802  0.032201479  0.032523658            5 
  643000     1.004165   -6.5613865    247.93372  0.032132416  0.032504614            5 
  644000    1.0026735   -6.5295391     249.2469  0.032252445  0.032485986            1 
  645000    1.0064897   -6.5680839    248.01058   0.03204271  0.032466929            7 
  646000    1.0167923   -6.5549676    249.33187  0.032163554  0.032447629            4 
  647000   0.99770468   -6.5925623    249.04728  0.032077187  0.032428792            4 
  648000   0.99325182   -6.5449801    248.83637  0.032000561  0.032409893           12 
  649000   0.97996493   -6.5936684    249.70579   0.03206289  0.032390876            4 
  650000    1.0000671   -6.5767494    250.37066  0.032098802  0.032371696            4 
  651000    1.0114007   -6.5672592    250.25008   0.03203406  0.032352825            2 
  652000    1.0137075   -6.5720289    250.68982  0.032041132  0.032334263            2 
  653000   0.98230461   -6.5814185    251.65204  0.032114859  0.032316083            4 
  654000   0.98809053   -6.5352709    252.01441  0.032111928  0.032297854            5 
  655000   0.99454933   -6.6187524    252.13025   0.03207764   0.03228003            7 
  656000   0.98825391   -6.5379817    252.46305  0.032071018  0.032262369            6 
  657000   0.97438364   -6.5783994    253.02065  0.032092929  0.032244685            4 
  658000   0.98419056   -6.5595041    254.02476  0.032171322  0.032227349            4 
  659000    1.0088139   -6.5682947    253.00117  0.031993066  0.032210384            4 
  660000   0.99161125   -6.6017392    254.25438  0.032102826  0.032193775           10 
  661000   0.98524586    -6.571667    254.61071  0.032099182  0.032177162            6 
  662000     1.003857   -6.5628456    254.77502  0.032071378  0.032160799            3 
  663000   0.99758859   -6.5773176    254.96606  0.032047016  0.032144358            6 
  664000   0.98974606   -6.5452228    256.04398  0.032134034  0.032127772            7 
  665000   0.98447457   -6.5797847    255.31199  0.031993984  0.032111156            3 
  666000    1.0001825   -6.6212055    255.27059  0.031940765  0.032094034            4 
  667000     1.014624    -6.581999     255.8814   0.03196919  0.032076669            7 
  668000    0.9671862   -6.6081201    255.92001  0.031926149  0.032059609            3 
  669000   0.97444229   -6.5520405    256.06262   0.03189619  0.032042679            3 
  670000   0.98155422   -6.5776924    257.12553  0.031980787  0.032025531            3 
  671000   0.99568066   -6.5676158    257.00301  0.031917909  0.032008432            8 
  672000   0.96927024    -6.582733     257.3652  0.031915327  0.031991271            4 
  673000    1.0057886   -6.5690251    257.45911  0.031879533  0.031973866            4 
  674000   0.97066271   -6.5744631    257.49551  0.031836735  0.031956751            5 
  675000   0.98636726   -6.6064044    257.60923  0.031803609   0.03193951            4 
  676000   0.97747479   -6.5682867    258.06472  0.031812712  0.031922456            5 
  677000   0.97455012   -6.5882405    257.74432  0.031726283  0.031905199            4 
  678000   0.99113366   -6.6089312    257.82087  0.031688897  0.031887943            4 
  679000   0.96646128   -6.5676249    259.11375  0.031800902    0.0318706            2 
  680000    0.9802184   -6.5889017     258.6457  0.031696777   0.03185319            3 
  681000   0.98471268    -6.589739    258.65841  0.031651787  0.031835738            5 
  682000   0.98769871   -6.5888314    259.73923  0.031737442  0.031818266            5 
  683000   0.99251721   -6.5947541    259.57053  0.031670391  0.031800944            5 
  684000     1.015396   -6.6103321    259.43607  0.031607708  0.031783693            4 
  685000   0.97690794   -6.5939602    260.74115  0.031720334  0.031766018            3 
  686000   0.97029108   -6.6166171    259.37832  0.031508542  0.031748505            9 
  687000   0.97961695   -6.6212227    260.70916   0.03162411  0.031731117            5 
  688000   0.97207597   -6.5575114    260.90467  0.031601825  0.031713942            5 
  689000   0.98928927    -6.621316    261.43918  0.031620607  0.031696531            3 
  690000   0.97692642    -6.601382    260.93939  0.031514419   0.03167893            6 
  691000    1.0002502   -6.5841051    262.30332    0.0316333  0.031661898           10 
  692000   0.98648002   -6.5968852    261.99511   0.03155047  0.031644958            6 
  693000   0.97586337    -6.571727    262.32072  0.031544098  0.031627693            5 
  694000   0.95560576   -6.5890759    262.89214   0.03156726  0.031610545            4 
  695000   0.98716985   -6.5962327    262.92051  0.031525241    0.0315938            7 
  696000   0.96517248   -6.6259491    263.55018  0.031555337  0.031576799            8 
  697000   0.99012861   -6.5708769    263.29702  0.031479797  0.031559621            4 
  698000   0.95281242   -6.6146687     263.7633  0.031490365  0.031542684           17 
  699000   0.98601082   -6.5933522    263.30955  0.031391219  0.031525226            3 
  700000    0.9677298   -6.6351555    263.52555   0.03137209  0.031507495            5 
  701000   0.98922217   -6.5906359    264.35909  0.031426425  0.031490158            7 
  702000   0.96447421   -6.5680695    264.34237  0.031379674  0.031473181            7 
  703000   0.97566254   -6.6123134    263.90817  0.031283567   0.03145592            6 
  704000   0.96889072   -6.6179209    264.17269  0.031270441   0.03143856            8 
  705000     0.963607   -6.6204238    264.24442  0.031234564  0.031421195            4 
  706000   0.96587149   -6.6289872    265.26151  0.031310377  0.031403906            4 
  707000   0.99862765   -6.6447851    265.37536   0.03127951  0.031386615            5 
  708000   0.97977796   -6.6345053    265.10999  0.031204095  0.031369378            6 
  709000   0.97782513   -6.6011676    266.00249  0.031264985  0.031351966            5 
  710000   0.95856307   -6.6189463    266.12934  0.031235838  0.031334496            3 
  711000    0.9876726   -6.6448563    266.32093  0.031214361  0.031317081            8 
  712000   0.96401726   -6.5995364    266.96438  0.031245831  0.031299781            3 
  713000    0.9765459   -6.6354213    266.25567  0.031119176  0.031282232            3 
  714000   0.96206197   -6.6171028    266.78939  0.031137884  0.031264777            6 
  715000   0.98534181   -6.5937589    267.83244  0.031215902  0.031247947            6 
  716000   0.99862285   -6.6371473    267.10304  0.031087412  0.031231107            5 
  717000    1.0028308   -6.6085462    268.03927  0.031152867  0.031214191           12 
  718000    0.9762075   -6.6074196    268.98284  0.031218992  0.031197639           14 
  719000   0.96799388   -6.6150854    268.88044  0.031163704  0.031181114           10 
  720000   0.98248604   -6.6482322    268.62186  0.031090493   0.03116428            4 
  721000   0.94157199    -6.636152    268.33724  0.031014475  0.031147381            6 
  722000   0.96598409   -6.6315478    269.70936  0.031129889  0.031130569            5 
  723000     0.953487    -6.616237    269.80591  0.031097961  0.031113856            3 
  724000    0.9796359   -6.6249537     270.5902  0.031145281  0.031097345            4 
  725000    0.9763215   -6.6176461    270.01735  0.031036477  0.031080929            3 
  726000   0.97025846   -6.6361737    270.29241  0.031025299   0.03106442            8 
  727000    0.9716033   -6.6298356    271.03568  0.031067823  0.031048355            7 
  728000   0.93897832   -6.6626589    270.37818  0.030949884  0.031032133            5 
  729000   0.94712892   -6.6365525     271.0811   0.03098778  0.031015858            5 
  730000   0.96661369   -6.6072002    271.02003   0.03093836  0.030999501            4 
  731000   0.96282397   -6.6118465    272.31946   0.03104417  0.030983501            5 
  732000   0.97566596   -6.6045295    272.27082  0.030996223  0.030967251            3 
  733000   0.96295839   -6.6498648    272.88277  0.031023507  0.030951454            5 
  734000   0.95261937    -6.656654     272.2366  0.030907879  0.030935298            6 
  735000   0.97031772    -6.641086    273.31118  0.030987662   0.03091923            5 
  736000   0.96986379    -6.651568    273.18673  0.030931469  0.030903257            3 
  737000   0.94824855   -6.6280377    273.63457  0.030940136  0.030887442            4 
  738000   0.96892232   -6.6022178     273.1414  0.030842524  0.030871466            4 
  739000   0.96966994   -6.6467187    273.54735  0.030846566  0.030855473           10 
  740000   0.97244604   -6.6162536    274.02501  0.030858672  0.030839736            6 
  741000   0.96826163   -6.6379539    274.52577  0.030873344  0.030823861            7 
  742000   0.96052321   -6.6396757    274.13182  0.030787491  0.030807482            6 
  743000    0.9555341   -6.6707975    274.26765  0.030761288  0.030790938            2 
  744000   0.94903126   -6.6157914    275.39574  0.030846297  0.030774568            6 
  745000   0.94792017   -6.6606288     274.9223  0.030751935  0.030758191            6 
  746000   0.98170464   -6.6730276    274.57158  0.030671535  0.030741335            4 
  747000    0.9520837    -6.664154    273.58067  0.030519932  0.030724446            4 
  748000   0.94772422   -6.6263975    275.64136  0.030708708    0.0307073            5 
  749000   0.95746483   -6.6615674    275.19569  0.030618123  0.030690202            6 
  750000   0.95067575   -6.6668286      275.277  0.030586333  0.030673069            3 
  751000   0.92855726   -6.6616746    276.20469  0.030648546  0.030655857            4 
  752000   0.95357985   -6.6566638    275.81537  0.030564646   0.03063881            7 
  753000   0.93926361   -6.6753977    276.06269  0.030551427  0.030621808            8 
  754000   0.96551435    -6.664796    276.28899  0.030535918  0.030604877            7 
  755000   0.95330891   -6.6137352    276.69412   0.03054019   0.03058795            7 
  756000   0.93339033   -6.6592262    276.20434  0.030445804  0.030571068            3 
  757000   0.96992477   -6.6537804    276.00942  0.030384128  0.030553729            7 
  758000   0.93656299   -6.6349817    276.94682    0.0304471  0.030536445            6 
  759000   0.95127125   -6.6641248    277.18284  0.030432899  0.030519142            7 
  760000   0.93832205   -6.6238863    277.46119  0.030423376   0.03050183            8 
  761000   0.93491847   -6.6287133    277.50751   0.03038847  0.030484557            3 
  762000   0.96122707   -6.6606528    277.75904  0.030376098  0.030467581            4 
  763000   0.95775694   -6.6732292    277.20045  0.030275278  0.030450209            4 
  764000   0.95531726   -6.6734247    277.50689  0.030269076  0.030432831           13 
  765000   0.95129509   -6.6409989    278.92875  0.030384395  0.030415916            3 
  766000   0.94678131   -6.6584192    277.63863  0.030204376   0.03039862            6 
  767000    0.9406877   -6.6503737    278.19443  0.030225384  0.030381353           11 
  768000   0.95983366   -6.6434245    279.14944  0.030289653  0.030364352            6 
  769000   0.94254441   -6.6596161    279.18233  0.030253829  0.030347095            6 
  770000   0.93947779   -6.6682987    279.26371  0.030223346  0.030330076            7 
  771000   0.93973612   -6.6590696    279.91724  0.030254782  0.030313047            4 
  772000     0.949888   -6.6635998    279.72322  0.030194648  0.030296193            3 
  773000   0.93195817   -6.6806139     280.2422  0.030211535   0.03027907            6 
  774000   0.95665935   -6.6895194    280.46989  0.030197017  0.030261876            6 
  775000   0.94869835   -6.6747651    281.18521  0.030234969  0.030244689            5 
  776000   0.95265399    -6.639117     280.5492  0.030127706  0.030227476            3 
  777000   0.93283351   -6.6538888    280.35133   0.03006771  0.030210265            9 
  778000   0.94398946    -6.648599    281.18674  0.030118545  0.030192911            5 
  779000   0.96777621   -6.6402856    281.44963  0.030108005  0.030175522            5 
  780000   0.93879234   -6.6898117     280.6665  0.029985738  0.030157638            4 
  781000   0.95692866   -6.6876435    280.45036  0.029924281  0.030139573            4 
  782000    0.9363903   -6.6699286    280.61215  0.029903256  0.030121564            4 
  783000   0.94462745   -6.6814885     280.5923  0.029862952  0.030103482            3 
  784000   0.94951915   -6.6998672    280.65524  0.029831552  0.030085294            5 
  785000   0.95579685   -6.6522598    281.01638  0.029831888  0.030066829            5 
  786000   0.94939772   -6.6794162    280.85257  0.029776566  0.030048586           10 
  787000   0.94952211   -6.6609906    281.13363  0.029768491  0.030030341            6 
  788000   0.93157276   -6.6460773    281.65892  0.029786265  0.030012022            4 
  789000   0.94506946    -6.683724    282.28667  0.029814816   0.02999348            8 
  790000   0.91734385   -6.6592735    282.08724  0.029756038  0.029975083            3 
  791000   0.94061573   -6.6656411    282.47481  0.029759251  0.029956975            4 
  792000   0.94127161   -6.6624936    283.13853  0.029791512  0.029939139            8 
  793000   0.94903265    -6.671403    283.54495  0.029796653  0.029921298            2 
  794000   0.94426754   -6.6753669    283.45229  0.029749401  0.029903342            3 
  795000    0.9226378   -6.6727201    283.41948  0.029708541  0.029885102            6 
  796000   0.90926416   -6.7121666     283.4836  0.029677932  0.029867019            6 
  797000   0.95509022   -6.6629789    283.80438  0.029674234   0.02984876            3 
  798000   0.93800233   -6.6991756    283.59279  0.029614953  0.029830577           10 
  799000   0.88933649     -6.72005    284.17754  0.029638876  0.029812405           11 
  800000   0.93688799   -6.6723398    284.30263  0.029614857  0.029794317            8 
  801000   0.94990149   -6.6758504    285.14207  0.029665217  0.029776505            6 
  802000   0.93184772   -6.7054492    284.98074  0.029611465  0.029758648            4 
  803000   0.93371554   -6.7172948    285.02809  0.029579503  0.029740608            9 
  804000   0.92479344   -6.7172653    284.62386  0.029500815   0.02972253            8 
  805000   0.92083054   -6.7278349    285.40931  0.029545477  0.029704279            8 
  806000   0.93989449    -6.735853    285.04759  0.029471421  0.029686244            6 
  807000   0.92413555    -6.662622    286.12195  0.029545844   0.02966836            4 
  808000    0.9318028    -6.678768    285.95483  0.029492041  0.029650504            5 
  809000     0.930082   -6.6811572    286.11081  0.029471653  0.029632638            6 
  810000   0.94335578   -6.6982461    286.79686   0.02950585  0.029615018            7 
  811000   0.94657233   -6.6533388    287.61479  0.029553513  0.029597562           10 
  812000   0.93235465   -6.7066564    286.62742  0.029415786  0.029579982           12 
  813000   0.93397692   -6.6907223    287.14505  0.029432662   0.02956229            8 
  814000   0.91958678   -6.6928266     287.8821  0.029471959  0.029544669            8 
  815000   0.92318982   -6.6982149    287.71261  0.029418467  0.029527195            6 
  816000   0.93015005   -6.6564237    288.25813  0.029438126  0.029509727            8 
  817000   0.91264497   -6.6910567    288.73722  0.029450961    0.0294923           19 
  818000   0.90807694   -6.7419045      288.618  0.029402811  0.029474855            4 
  819000   0.92467933   -6.7048603    289.02801  0.029408629   0.02945744            3 
  820000   0.90411394   -6.7250538    289.21256   0.02939152  0.029440378            6 
  821000   0.91660188   -6.7065081    289.42639  0.029377425  0.029423359            6 
  822000   0.93698714    -6.702141    289.78346  0.029377885  0.029406531            2 
  823000    0.9101514   -6.7205273    290.03787  0.029367949  0.029389486            5 
  824000   0.93356668   -6.6791239    290.24077  0.029352829  0.029372469            5 
  825000   0.92547774   -6.6833419    290.31202  0.029324447   0.02935552            6 
  826000   0.92961552   -6.6917062    290.28542  0.029286261  0.029338614            8 
  827000   0.92032756   -6.7119321    289.42955  0.029164606   0.02932134            4 
  828000   0.94051769   -6.7148874    290.18648  0.029205563  0.029304106            6 
  829000   0.92354875    -6.694685     290.6859  0.029220537  0.029286856            9 
  830000   0.94163067   -6.7173013    290.35383  0.029151991  0.029269513            8 
  831000   0.92454344    -6.715599    291.76554  0.029258478  0.029252493            7 
  832000   0.92427486   -6.7111324    290.98476  0.029145108  0.029235266            5 
  833000   0.94009612   -6.7510589    291.35842  0.029147501  0.029217893            6 
  834000    0.9187453   -6.7074528    291.42366   0.02911907  0.029200623            7 
  835000    0.9279842   -6.7038474    292.52722  0.029194333  0.029183632            7 
  836000    0.8933669    -6.735119    292.30851  0.029137611    0.0291668            5 
  837000   0.90892434   -6.7055147    292.51777  0.029123633   0.02914995            5 
  838000   0.92758478   -6.7426564    293.17782  0.029154517  0.029132922            9 
  839000   0.92724811   -6.7293248    292.47069  0.029049532  0.029115898            6 
  840000   0.91032331   -6.7697852     292.9767  0.029065148  0.029098744            4 
  841000   0.92704162   -6.7190424    293.02152   0.02903503  0.029081828           10 
  842000   0.92753735   -6.7379541    293.29375  0.029027489  0.029065104            4 
  843000   0.91175635   -6.7389872     293.0184  0.028965837  0.029048391            9 
  844000   0.90110085   -6.7396609    294.36204  0.029064182  0.029031474            7 
  845000   0.90413645   -6.7451588    294.12477  0.029006387  0.029014515            7 
  846000   0.93007884   -6.7310324    294.22021  0.028981502  0.028997465            6 
  847000   0.91885184   -6.7249154    295.05274  0.029029195  0.028980754            4 
  848000   0.92835022   -6.7401327    295.02356  0.028992095  0.028963925            6 
  849000   0.91374506    -6.734446     294.5868  0.028915077  0.028947066            4 
  850000   0.91451417   -6.7083583    294.91945  0.028913672   0.02893026            5 
  851000   0.90966512   -6.7142799    295.15805  0.028903061  0.028913428            4 
  852000   0.90224048   -6.7264642     295.6142  0.028913752   0.02889671            3 
  853000   0.91813903   -6.7138825    295.83226  0.028901159  0.028879989            8 
  854000   0.90790452   -6.7405777    296.36564  0.028919364  0.028863164            7 
  855000   0.91561902   -6.7018971    295.49056   0.02880025  0.028846315            7 
  856000   0.92979489   -6.7294622    295.33599  0.028751557  0.028829307           11 
  857000   0.90828838   -6.7237891     296.4078  0.028822228  0.028812392            7 
  858000   0.91739809   -6.7039314    296.24598  0.028772919  0.028795605            6 
  859000   0.90637258   -6.7420419    297.12141  0.028824351   0.02877887            6 
  860000   0.88541674   -6.7395856     297.0787  0.028786696  0.028762077            4 
  861000   0.92797795    -6.733702    296.86149  0.028732239  0.028745278            5 
  862000   0.90757062   -6.7194004    297.48425  0.028759111  0.028728316            5 
  863000   0.90854039   -6.7322374     297.0431  0.028683188   0.02871145            8 
  864000   0.89074996   -6.7550364    297.30423  0.028675176  0.028694468            8 
  865000   0.90620295   -6.7473468    297.62797  0.028673215  0.028677613            9 
  866000   0.88643544   -6.7435879    297.68335  0.028645434  0.028660699            7 
  867000   0.90084474   -6.7362073    297.28736  0.028574332  0.028643712           18 
  868000   0.90502268   -6.7391446    297.37945  0.028550254  0.028626706            6 
  869000   0.89901927   -6.7541802    297.77661  0.028555486  0.028609514            4 
  870000    0.9107929   -6.7594509     297.4757  0.028493841  0.028592624            9 
  871000   0.91827017   -6.7267654    298.65558  0.028574013  0.028575627            5 
  872000   0.89805235   -6.7403198    298.78626  0.028553733  0.028558771            4 
  873000   0.91882462   -6.7659551    298.96458  0.028538047  0.028541958            4 
  874000   0.90373784   -6.7616521    299.16497  0.028524501  0.028524938            9 
  875000   0.91077182   -6.7034416    300.40049   0.02860957  0.028508281           10 
  876000   0.91854694   -6.7637908    299.81936  0.028521628  0.028491466           10 
  877000   0.90600749   -6.7728996    299.77937  0.028485307  0.028474694            6 
  878000   0.89967904    -6.729361    300.08988  0.028482334  0.028458011           12 
  879000    0.9193242   -6.7688626    300.57642  0.028496058  0.028441315            7 
  880000   0.90544547   -6.7598184    299.70286  0.028380953  0.028424517            5 
  881000   0.89227564   -6.7451852    300.01296   0.02837807  0.028407764            7 
  882000   0.92084788    -6.751096    301.08921  0.028447583  0.028391201            6 
  883000   0.90659687    -6.759412     300.3895   0.02834933  0.028374609            6 
  884000   0.90690114   -6.7114621    300.78493  0.028354537  0.028357924            3 
  885000   0.89606792   -6.7539952    301.10546   0.02835268  0.028341181            4 
  886000   0.90729214    -6.745404    301.19884  0.028329462  0.028324426            5 
  887000   0.90624535   -6.7423286     300.9055  0.028269964  0.028307807            8 
  888000   0.89876841    -6.768788    301.68927  0.028311681  0.028290931            7 
  889000   0.90446469   -6.7635845    301.07846  0.028222578  0.028273888            8 
  890000   0.88218895   -6.7943706    300.80454  0.028165219  0.028256721            7 
  891000   0.90233449   -6.7381129    301.98178  0.028243713  0.028239763            5 
  892000   0.94991115   -6.7248248    301.84727  0.028199483  0.028223078            8 
  893000   0.87272523   -6.7412671    302.39667  0.028219174  0.028206127            3 
  894000   0.91388784   -6.7542018     302.7346  0.028219108  0.028189275            4 
  895000   0.89230949   -6.7646372    302.26358  0.028143723  0.028172357            4 
  896000   0.89394867   -6.7508753    302.38323   0.02812344  0.028155577            7 
  897000   0.87984553    -6.770793    301.92851  0.028049843  0.028138571            6 
  898000   0.89379107   -6.7149437    303.21175   0.02813769  0.028121667            4 
  899000   0.87640695   -6.7556674    303.36839  0.028120911  0.028104983            8 
  900000   0.90643099   -6.7795928    304.03051  0.028150973  0.028088337            8 
  901000    0.8884971   -6.7991145    303.49144   0.02806987  0.028071774            9 
  902000   0.90044941   -6.8007374    303.52295  0.028041662  0.028055091           11 
  903000   0.89464691   -6.7727028    304.33392  0.028085449  0.028038452            4 
  904000     0.895675   -6.7942314    304.26262  0.028047808  0.028021819           11 
  905000   0.89258509   -6.7682203     305.3856  0.028120221   0.02800529            5 
  906000   0.90254876   -6.7651468    304.49651  0.028007406  0.027988814            6 
  907000   0.86922163   -6.7589224    304.80327   0.02800471  0.027972347            7 
  908000    0.8603264   -6.7790544    305.26741  0.028016466  0.027955783            7 
  909000   0.88957063   -6.7759604    305.34302  0.027992576  0.027939157            6 
  910000   0.88011247   -6.8072091    305.34478  0.027961977  0.027922822            3 
  911000   0.90023896   -6.7568327    306.79548  0.028063985  0.027906584            6 
  912000   0.88967744   -6.7583364     306.4381  0.028000557  0.027890341           14 
  913000   0.90201304   -6.7735276    306.52008  0.027977372  0.027874129           11 
  914000   0.88641409   -6.7537107    306.53084  0.027947743  0.027857836            7 
  915000   0.89023993   -6.7844229    306.37058  0.027902603  0.027841557            4 
  916000   0.89366453   -6.7739962     306.9866  0.027928184  0.027825128           13 
  917000   0.86620423   -6.7940293    306.71216  0.027872788  0.027808601            5 
  918000    0.8922578   -6.7834099    306.08083  0.027785115  0.027792012            8 
  919000   0.87336109   -6.7751708    306.88775  0.027828052  0.027775455            7 
  920000   0.90774822   -6.7560343    307.03189   0.02781086  0.027758888           18 
  921000   0.88208749   -6.7742871    307.46564  0.027819909  0.027742228           18 
  922000   0.91096434   -6.8247199    306.99135  0.027746868  0.027725611            7 
  923000   0.89560633   -6.7683202    307.46353  0.027759437  0.027709215           10 
  924000   0.89108761   -6.7974083    307.09115  0.027695811  0.027692743           10 
  925000   0.88682946   -6.7528513    308.25522  0.027770741  0.027676433            9 
  926000   0.87896139   -6.7562382    308.23677   0.02773909  0.027660028            7 
  927000   0.88113096   -6.8152592    307.76081   0.02766638  0.027643638            4 
  928000    0.8845568   -6.8053215     308.1841  0.027674578  0.027627088            4 
  929000    0.9024415     -6.79052    308.88225  0.027707414  0.027610449            8 
  930000    0.8911382   -6.8079589    308.81135  0.027671268  0.027594106           12 
  931000   0.88263112   -6.7906873    309.32849  0.027687834  0.027577993            6 
  932000   0.88106542   -6.8019461    309.74456  0.027695329  0.027561902            6 
  933000   0.88311061    -6.769671    309.30296  0.027626203  0.027545808            8 
  934000   0.88433132   -6.7980994    310.41497  0.027695839  0.027529621            7 
  935000   0.90455583   -6.7879373    309.60973   0.02759445  0.027513568            6 
  936000   0.90840601   -6.7930659    310.28568   0.02762515  0.027497403            5 
  937000   0.87254266   -6.8014812    310.15925  0.027584423    0.0274813           11 
  938000   0.89219114   -6.7906214    310.99826  0.027629554  0.027465203            7 
  939000   0.86444264   -6.7940766    310.60557   0.02756528  0.027449186           11 
  940000   0.87724248   -6.8062486    310.33803  0.027512236  0.027433124            4 
  941000   0.90192439   -6.7859098    311.97945  0.027628361  0.027417062           10 
  942000   0.87148332   -6.7891642    311.24564  0.027534115   0.02740109            6 
  943000   0.89967645   -6.7697818    311.41025  0.027519464  0.027385181            8 
  944000    0.8937535   -6.7873269    310.57416  0.027416504  0.027369116            8 
  945000   0.88807239   -6.8124178    311.35559  0.027456401  0.027353064            8 
  946000   0.87577631   -6.7780485    312.08483  0.027491616  0.027336988            5 
  947000   0.87879585   -6.8080383    311.49761  0.027410912  0.027320933            5 
  948000   0.88481501   -6.8045052    311.84455  0.027412495  0.027304848            5 
  949000   0.87965617   -6.8210698     312.1257  0.027408298  0.027288905           14 
  950000   0.87236478   -6.8109994    312.58146  0.027419426  0.027272922            6 
  951000   0.86544556   -6.8156722    312.81382  0.027410955  0.027256957            6 
  952000   0.86771531   -6.8076076    313.33337  0.027427641  0.027240941            6 
  953000   0.89192068   -6.8070817     312.5501  0.027330369  0.027224812            9 
  954000   0.84830868   -6.8291129    311.98565  0.027252415  0.027208358            8 
  955000   0.88447718   -6.8094785    312.05577  0.027229997  0.027191854            5 
  956000   0.88231768   -6.7838537    313.14351  0.027296331  0.027175329            4 
  957000   0.86408329   -6.8148942    312.80764  0.027238561  0.027158957            3 
  958000   0.88988937    -6.801651    313.20411  0.027244616  0.027142465           17 
  959000   0.86656129   -6.8384493    312.19932  0.027128894  0.027125867            4 
  960000   0.86048381    -6.762922    314.00484  0.027257365  0.027109301            5 
  961000   0.87393224   -6.8377181    312.88144  0.027131585  0.027092764            5 
  962000    0.8898746   -6.8015085     313.5808  0.027163964  0.027076286           17 
  963000   0.88233118   -6.8407437    313.24314  0.027106536  0.027059798           12 
  964000   0.87525791   -6.8392759    313.40847   0.02709271  0.027043256           17 
  965000   0.85853343   -6.8422213    314.21444  0.027134235  0.027026794            3 
  966000   0.87637778   -6.8141354    314.05995  0.027092818  0.027010372            8 
  967000   0.87575653   -6.8315306    313.96309  0.027056454  0.026994044           11 
  968000   0.86824359    -6.828424    314.43514  0.027069141  0.026977714            5 
  969000    0.8803002   -6.8372547    314.43706  0.027041371  0.026961271            9 
  970000   0.87250352   -6.8279639    314.28238  0.027000205  0.026944835            8 
  971000   0.85232235   -6.8638977    313.94069  0.026943073  0.026928231           23 
  972000   0.87248184   -6.8395581    314.16662  0.026934724   0.02691153            6 
  973000   0.87698887   -6.8303346    314.01407  0.026893977  0.026894972            5 
  974000   0.85515496   -6.8136149    314.31034  0.026891713  0.026878546            8 
  975000   0.86587208   -6.8184757    315.59939  0.026974306  0.026862068            6 
  976000   0.86048688   -6.8107037      315.618  0.026948258  0.026845829            6 
  977000   0.85930366   -6.8342949    315.96728  0.026950467  0.026829559            5 
  978000   0.88213828   -6.8430909    314.63985  0.026809803  0.026813157            7 
  979000    0.8559719   -6.8353977    315.18863  0.026829131  0.026796687           12 
  980000   0.87787158   -6.8172743      315.274  0.026809013  0.026780164            5 
  981000   0.88226805    -6.809295    315.40048  0.026792429  0.026763576            8 
  982000   0.86499239   -6.7891794    315.70034  0.026790593  0.026746963           12 
  983000   0.87498739   -6.8330339    315.07479  0.026710308  0.026730181           15 
  984000   0.84845665   -6.8060889    315.34459  0.026706012  0.026713221            8 
  985000   0.87060927   -6.8020951    315.81011  0.026718284  0.026696583            4 
  986000   0.85037932    -6.813954     316.9526  0.026787745  0.026680018           13 
  987000   0.86660731   -6.8656001      315.491  0.026637201  0.026663499            8 
  988000   0.85217142   -6.8814911    316.70354  0.026712512  0.026646907           12 
  989000   0.86702562   -6.8493031    316.42907  0.026662375  0.026630081            6 
  990000   0.84885679   -6.8235709    316.68294  0.026656813  0.026613567           10 
  991000   0.87268715    -6.844263    318.22223  0.026759353  0.026597109           10 
  992000   0.85587293   -6.8231824    317.80791  0.026697573  0.026580662            5 
  993000   0.84922108   -6.8097602    316.99894  0.026602798  0.026564283            9 
  994000    0.8524202   -6.8431117    317.19916   0.02659282  0.026547773            5 
  995000   0.85806254   -6.8350317    317.13131  0.026560411  0.026531115            6 
  996000   0.84300724   -6.8181386    316.35701   0.02646896  0.026514376            6 
  997000   0.85234464   -6.8670084    316.76459  0.026476479  0.026497615            9 
  998000   0.85742635   -6.8249392    317.25595  0.026490978   0.02648086            8 
  999000   0.84368179   -6.8331621    318.08427  0.026533556  0.026464133            5 
 1000000    0.8738305   -6.8644468    317.30457  0.026442047  0.026447335            5 
 1001000   0.86405505   -6.8621684    317.89027  0.026464392   0.02643047           12 
 1002000   0.84943644   -6.8304727     317.9081  0.026439463  0.026413613            6 
 1003000     0.832674   -6.8536076    318.17684   0.02643543  0.026396888           17 
 1004000   0.84108934   -6.8256206    318.71151  0.026453478  0.026380378           11 
 1005000    0.8625371   -6.8309638    319.19492   0.02646724  0.026363906            6 
 1006000   0.87194752   -6.8455626      318.964  0.026421802  0.026347359           12 
 1007000   0.85911802   -6.8428811    318.52968  0.026359623  0.026330809            9 
 1008000   0.84847598   -6.8313276     318.0688   0.02629537   0.02631414           11 
 1009000   0.84377037   -6.8595383    318.86506  0.026335073  0.026297541           11 
 1010000   0.84574786   -6.8426082    319.00422   0.02632048  0.026280836           17 
 1011000   0.86263508    -6.838231     318.6709  0.026266972   0.02626417            7 
 1012000   0.83948848   -6.8556575    318.33266  0.026213164  0.026247338           12 
 1013000   0.86009427    -6.852708    318.12789  0.026170441  0.026230528            6 
 1014000   0.84550977   -6.8315819    319.21127  0.026233667  0.026213825            4 
 1015000   0.87019305   -6.8682443     319.5941  0.026239252    0.0261972            7 
 1016000   0.84552934     -6.84398    319.51168  0.026206667  0.026180679            6 
 1017000   0.84636672   -6.8184069    320.76034  0.026283214  0.026164335            7 
 1018000   0.85460587    -6.837769    320.92364  0.026270763  0.026148038            5 
 1019000   0.86243961   -6.8543167    320.59435  0.026218053  0.026131704            8 
 1020000   0.84574124   -6.8545891    320.17165  0.026157814  0.026115369            7 
 1021000   0.84310767    -6.851737    320.19017  0.026133707  0.026099015            8 
 1022000   0.82827023   -6.8484041    321.27724  0.026196774  0.026082624           13 
 1023000   0.85961427   -6.8668433    320.82155  0.026134046  0.026066265            5 
 1024000   0.85230515   -6.8638943    321.15293  0.026135492  0.026049843            5 
 1025000   0.83711728   -6.8713467    321.08746  0.026104672  0.026033528            7 
 1026000   0.84195922   -6.8675841    321.27695  0.026094619  0.026017041            4 
 1027000   0.84241047    -6.874449    321.41869  0.026080712  0.026000576            3 
 1028000   0.85006361   -6.8618906    321.84677  0.026090043  0.025984164            6 
 1029000   0.83973921   -6.8537915     322.1667  0.026090597  0.025967782            4 
 1030000   0.83472156   -6.8568227    320.77807  0.025952918  0.025951267            9 
 1031000   0.84056427    -6.852349    321.93237  0.026021045  0.025934796            9 
 1032000   0.83727452   -6.8721538    321.09996  0.025928614   0.02591824            5 
 1033000   0.81825748   -6.8717604    322.08313  0.025982827  0.025901645           14 
 1034000   0.83472289   -6.8540305    322.01148  0.025951925  0.025885061           15 
 1035000   0.84971924   -6.8609748    322.14977  0.025937984   0.02586858            9 
 1036000   0.84071039   -6.8546955    322.76665  0.025962568  0.025852164           12 
 1037000    0.8372418   -6.9075261    322.33536  0.025902874  0.025835697            8 
 1038000   0.86293444   -6.8745385    322.70225  0.025907374  0.025819256           12 
 1039000    0.8537553   -6.8925633    322.37438  0.025856142  0.025802834           11 
 1040000   0.82096165   -6.8828598    322.65254  0.025853569  0.025786317            9 
 1041000   0.82860011   -6.8750949    322.85339  0.025844812  0.025769872            6 
 1042000    0.8375459   -6.8884054    322.89151  0.025823057  0.025753488           14 
 1043000   0.83489847   -6.8763156    323.03395   0.02580968  0.025737189            6 
 1044000   0.84576759   -6.8956568      323.535  0.025824952   0.02572075           12 
 1045000   0.85770588   -6.9219245    323.12341  0.025767417  0.025704202           12 
 1046000   0.83118718   -6.8789596    324.11699   0.02582194  0.025687702            5 
 1047000   0.82895317   -6.8930205     323.4484  0.025744063  0.025671427           11 
 1048000   0.82101162   -6.8945931    324.05998  0.025768128  0.025655145            4 
 1049000   0.83644255   -6.8753612    323.86396  0.025727992  0.025638951           15 
 1050000   0.84333633   -6.8792334    324.25444  0.025734479  0.025622797            4 
 1051000   0.83891539   -6.8714077     324.2299  0.025708048  0.025606598            5 
 1052000   0.82638081   -6.8944288    324.38775  0.025696114   0.02559043            8 
 1053000   0.84156739   -6.8942827    324.34947  0.025668682  0.025574267            7 
 1054000   0.83403785   -6.8763904    325.02395  0.025697656  0.025558041            7 
 1055000   0.83025365   -6.8769051    323.99859  0.025592305  0.025541974           12 
 1056000   0.83842911   -6.8819834    325.33015  0.025673149  0.025525925            5 
 1057000   0.82669682   -6.9237355    326.16058  0.025714331  0.025509902            7 
 1058000   0.84982035   -6.8846672    326.15309  0.025689437  0.025494059            7 
 1059000   0.83691354   -6.8911739    325.76194  0.025634399  0.025478263            9 
 1060000   0.83203612   -6.8803866    325.52386  0.025591498  0.025462328            5 
 1061000   0.82464209   -6.8921748    326.18744  0.025619497  0.025446313            7 
 1062000   0.84120504   -6.9019704    326.40844  0.025612715  0.025430413            8 
 1063000    0.8326155   -6.9177892    326.31621   0.02558139  0.025414508            3 
 1064000   0.82973316   -6.9033536    327.19671  0.025626308  0.025398646            5 
 1065000   0.81016853   -6.9065112    326.65141  0.025559578  0.025382744            9 
 1066000   0.81587212   -6.9307113    326.48445  0.025522549   0.02536678           17 
 1067000   0.82565059   -6.9171984    326.27404  0.025482196   0.02535072            4 
 1068000   0.81960463   -6.9248253    326.11266  0.025445744  0.025334563            8 
 1069000   0.81633942   -6.9115423    326.09806  0.025420803   0.02531831           11 
 1070000    0.8383368   -6.8869052    327.98385  0.025543914  0.025302335            9 
 1071000   0.82163039   -6.9045002    326.46592  0.025401954  0.025286276            7 
 1072000   0.82309421   -6.8959886    327.50347  0.025458914  0.025270303            6 
 1073000   0.83554332     -6.93301    327.33009  0.025421722  0.025254251            6 
 1074000    0.8201743   -6.9017232    326.52261  0.025335398  0.025238208           13 
 1075000   0.82764719   -6.8954368    328.30631  0.025450102  0.025222302            4 
 1076000    0.8245902   -6.9193912     327.6689  0.025377084  0.025206315            7 
 1077000   0.82535589   -6.8881155    327.65095  0.025352132  0.025190331           13 
 1078000   0.81788628   -6.8813539      327.689  0.025331555  0.025174259            8 
 1079000   0.82540856   -6.8758134    327.06497  0.025259884  0.025158103            8 
 1080000   0.83103334   -6.8961004    327.52024  0.025271623  0.025141906            6 
 1081000   0.81556651   -6.8647709    327.24326  0.025226893  0.025125621            5 
 1082000   0.82186101   -6.9336053     327.2228  0.025202002  0.025109283            7 
 1083000    0.8315782    -6.916352    326.89653  0.025153627   0.02509301           11 
 1084000   0.81057873   -6.9232027    327.98131  0.025213815  0.025076652           20 
 1085000   0.83298716   -6.9113024    328.01122  0.025192874  0.025060324           18 
 1086000   0.82136667   -6.9035969    327.75546   0.02515005  0.025044061           13 
 1087000   0.80375783   -6.8973939    328.39384  0.025175854  0.025027922            3 
 1088000   0.83024274   -6.9082939    327.50695  0.025084785  0.025011706           12 
 1089000   0.80466883   -6.9136846    328.18747  0.025113825  0.024995383            8 
 1090000   0.82037751   -6.9347377     328.1565  0.025088418  0.024979109            9 
 1091000   0.82623884   -6.9220442    327.75692  0.025034901  0.024962881            9 
 1092000   0.82046837   -6.9306669    327.48919  0.024991544  0.024946499            5 
 1093000   0.80438492   -6.9189302    328.21108  0.025023717  0.024930208            8 
 1094000   0.81831646   -6.9144664    328.96067  0.025057942  0.024913984           10 
 1095000   0.80714702   -6.8944494    328.95173  0.025034378  0.024897806            9 
 1096000   0.81229731   -6.9290801    328.57144  0.024982622  0.024881679            9 
 1097000   0.82563272   -6.9084808    329.37716  0.025021054   0.02486558            8 
 1098000   0.81596344   -6.8950146    329.29924  0.024992353  0.024849574           12 
 1099000   0.82149935   -6.9241738    329.74977  0.025003774  0.024833593           18 
 1100000   0.81296488   -6.9469605    330.06977  0.025005286  0.024817626            7 
 1101000   0.82813132   -6.9077268     329.5447  0.024942832  0.024801611            8 
 1102000   0.81451847   -6.9044095    329.67123  0.024929766   0.02478571            6 
 1103000   0.81042775   -6.9023677    329.66149  0.024906429  0.024769868           10 
 1104000   0.81922329   -6.9187467    330.20796  0.024925117  0.024753884           20 
 1105000   0.80332327   -6.9392608    329.95638  0.024883589  0.024737833           10 
 1106000   0.82026233   -6.9313542    329.99333  0.024863873  0.024721756            9 
 1107000    0.8119762   -6.9361171    329.89475  0.024833992  0.024705722            8 
 1108000   0.80561166   -6.9375471    330.16441   0.02483186  0.024689683           11 
 1109000    0.8100656   -6.9367882    330.22211  0.024813805  0.024673576           11 
 1110000   0.81685059   -6.9367304    329.89825  0.024767136  0.024657462           10 
 1111000   0.77676538    -6.941526    330.43117  0.024784816  0.024641388            8 
 1112000   0.79967371    -6.951009    330.67967   0.02478115   0.02462523           10 
 1113000   0.81234791    -6.951319    330.21197  0.024723868  0.024609089           11 
 1114000   0.79934208   -6.9259618    330.45233  0.024719654  0.024592902           15 
 1115000   0.80253361   -6.9155186    330.98844  0.024737551   0.02457678           11 
 1116000   0.81470311   -6.9175635    330.49619  0.024678628  0.024560518           10 
 1117000   0.80666805   -6.9570972    331.21751  0.024710349  0.024544324           12 
 1118000   0.78489436   -6.9257474    331.31947  0.024695846  0.024528229            8 
 1119000   0.80403099   -6.9407258    331.57086  0.024692497  0.024512271           11 
 1120000   0.79863531   -6.9361778    331.69984  0.024680048  0.024496387            7 
 1121000   0.82474625   -6.9403416    332.38385  0.024708879  0.024480526           13 
 1122000   0.81997269   -6.9306464    332.45889  0.024692431  0.024464793           15 
 1123000   0.81651641    -6.922842    332.39291  0.024665547  0.024449015           14 
 1124000    0.8134344   -6.9601218    332.14823  0.024625462  0.024433217            8 
 1125000   0.79609204   -6.9697255    332.63062  0.024639305  0.024417503            5 
 1126000   0.79378625   -6.9504137    332.28256  0.024591664  0.024401789           10 
 1127000   0.78826759   -6.9419834    332.71458  0.024601788  0.024386118            9 
 1128000   0.80412916   -6.9444277    333.13288   0.02461088  0.024370461            5 
 1129000    0.8259107   -6.9590203    333.42292   0.02461049  0.024354864            7 
 1130000   0.80857041   -6.9636153    333.19614  0.024571986  0.024339261           14 
 1131000   0.80982192   -6.9344604    332.89241  0.024527881  0.024323644            8 
 1132000   0.81103886   -6.9596028    333.39564   0.02454326  0.024308121           13 
 1133000   0.78720794   -6.9085408    333.62139  0.024538202  0.024292656           15 
 1134000   0.80459936   -6.9394361    333.10874  0.024478891  0.024277152            6 
 1135000   0.80461382   -6.9418283    334.07936  0.024528587  0.024261583            6 
 1136000   0.79929533   -6.9380436    334.04062  0.024504153  0.024246037            8 
 1137000   0.80154051   -6.9522918    333.87279  0.024470301  0.024230503           12 
 1138000   0.78971341   -6.9353779    335.05933  0.024535686  0.024215013           16 
 1139000   0.79423387   -6.9383424     334.8785  0.024500915  0.024199557            4 
 1140000   0.79163312   -6.9632846    334.10895  0.024423168  0.024183974            6 
 1141000   0.79087766   -6.9768505    334.18897  0.024407608  0.024168418           14 
 1142000   0.79539893   -6.9261212    334.63393  0.024418705   0.02415297           15 
 1143000   0.79548602   -6.9505205    334.64278  0.024397986  0.024137485            8 
 1144000   0.79248804   -6.9960352    334.27733  0.024350038  0.024121903            8 
 1145000   0.80704434   -6.9656014    335.10748  0.024389191  0.024106373            6 
 1146000   0.79782117   -6.9699485    334.70301  0.024338497  0.024090789            8 
 1147000   0.78674904   -6.9581432    334.64982  0.024313414  0.024075269           33 
 1148000   0.82510547   -6.9708443    334.31309  0.024267791  0.024059625           16 
 1149000   0.78799729   -6.9461039    334.93401  0.024291704  0.024044072            7 
 1150000   0.79350903   -6.9383879    335.48106  0.024310222  0.024028575            9 
 1151000   0.79764294   -6.9361402    335.54907  0.024294025  0.024013166            9 
 1152000   0.79653666   -6.9565112    335.46179  0.024266623  0.023997679            7 
 1153000   0.80215969   -6.9566818     335.2871   0.02423295  0.023982225           12 
 1154000   0.78283345   -6.9615533    335.48869  0.024226509  0.023966732           11 
 1155000   0.79448316   -6.9689367    335.96226  0.024239701  0.023951225           11 
 1156000    0.8001443   -6.9713516    335.79692  0.024206814   0.02393577           11 
 1157000   0.78061113   -6.9801286    335.52248  0.024166125  0.023920292           12 
 1158000   0.79423877   -6.9504041    335.84287  0.024168313  0.023904749           10 
 1159000   0.78868021   -6.9670197     334.9301  0.024081831  0.023889255            9 
 1160000   0.79761003   -6.9931365    335.43879  0.024097614  0.023873758           25 
 1161000   0.80705776   -6.9804277     336.1897  0.024130756  0.023858296            9 
 1162000   0.77934048   -7.0038191    336.55465  0.024136162  0.023842931            6 
 1163000   0.78459022    -6.971597    335.87652  0.024066818   0.02382752            9 
 1164000   0.81592322   -6.9417212     336.4587  0.024087822  0.023812127           20 
 1165000   0.79553257   -6.9498219     336.7286  0.024086452   0.02379682           10 
 1166000   0.80100534    -7.016224    336.05447  0.024017615  0.023781426           13 
 1167000   0.79072716   -6.9879145    335.63955  0.023967406  0.023765928            7 
 1168000   0.77993659   -7.0123261    336.51434  0.024009299  0.023750432           11 
 1169000   0.77500837   -6.9833502    335.69029  0.023930018  0.023734925           14 
 1170000   0.78333734   -7.0058049    336.93807  0.023998438  0.023719487           15 
 1171000   0.78968468   -6.9930493    337.12813   0.02399147  0.023704029           19 
 1172000   0.79352397   -6.9747103    336.76656   0.02394529  0.023688611            9 
 1173000    0.7763695   -6.9755192    336.42946  0.023900927  0.023673186            4 
 1174000   0.78320675   -6.9951363    336.67339  0.023897884  0.023657732            4 
 1175000   0.80178083   -6.9482471    337.32524  0.023923776  0.023642347           12 
 1176000   0.80137495   -6.9913744    337.31287  0.023902556  0.023626957           14 
 1177000   0.77944791   -6.9879751    337.46457  0.023892989  0.023611599           21 
 1178000   0.79599037   -6.9919446    337.71091  0.023890132  0.023596257            8 
 1179000   0.78287528   -6.9917902    336.96651  0.023817254  0.023580797           24 
 1180000   0.78160342   -6.9879754    338.05046   0.02387362  0.023565372           18 
 1181000   0.77099504   -7.0151794    337.37312  0.023805611  0.023550005           10 
 1182000   0.77959159    -7.000861     337.7329  0.023810836  0.023534598           13 
 1183000   0.78855883    -6.995031    337.24211  0.023756137  0.023519288           12 
 1184000   0.81023905   -7.0012717    337.26522  0.023737698  0.023503842            6 
 1185000   0.79128911   -6.9774169    337.85669  0.023759261  0.023488342           17 
 1186000   0.78221588    -7.025988    337.33409  0.023702507  0.023472777           24 
 1187000   0.77874314   -6.9946932    336.48159  0.023622689  0.023457194           20 
 1188000   0.77430677   -6.9892581    337.41218  0.023668082  0.023441631           11 
 1189000   0.77482429   -7.0150271    337.85287  0.023679063  0.023426069            8 
 1190000   0.78247145   -6.9855929    338.34157  0.023693387  0.023410547           12 
 1191000   0.78139174   -6.9971417    337.44392  0.023610686  0.023395024           11 
 1192000   0.77704333   -6.9898998    337.89503  0.023622415  0.023379475            8 
 1193000    0.7759475   -6.9838868    337.14189  0.023550007  0.023363956            6 
 1194000   0.77631629   -6.9961221    338.09443  0.023596764   0.02334845            8 
 1195000   0.78214699   -6.9868579    337.92473  0.023565183  0.023332911            7 
 1196000   0.77031994   -6.9927657    338.48512  0.023584526  0.023317343           10 
 1197000   0.78168271    -6.998786    338.13432  0.023540401  0.023301765           12 
 1198000   0.77516908   -6.9923183     338.1635  0.023522781  0.023286259            9 
 1199000   0.76463699   -7.0050235    338.74986  0.023543916  0.023270775           10 
 1200000   0.78414014    -6.995535    338.50383  0.023507211  0.023255358            5 
 1201000   0.77003687   -6.9981091    338.61344  0.023495243  0.023240029            8 
 1202000   0.76632934   -6.9944259    339.90563  0.023565282  0.023224673            9 
 1203000   0.76888237   -6.9912086    338.42767  0.023443313  0.023209279            6 
 1204000   0.78032328   -6.9902059    338.13541  0.023403614  0.023193748           17 
 1205000   0.78878168   -7.0283741    338.37701    0.0234009  0.023178206           13 
 1206000    0.7808456   -7.0247903    339.19028  0.023437692  0.023162659           23 
 1207000   0.77575271   -7.0276855    338.93612  0.023400726  0.023147181           18 
 1208000   0.75968047   -7.0227706    339.14514  0.023395774  0.023131651           33 
 1209000   0.77322006   -7.0084991    338.68871  0.023344962  0.023116131           32 
 1210000   0.77071079   -7.0184166    338.56785  0.023317345  0.023100661           20 
 1211000   0.77742671   -7.0259845    339.02191  0.023329336  0.023085151           11 
 1212000   0.75653126   -7.0133277    338.75399  0.023291666  0.023069593           12 
 1213000   0.74283763   -6.9982979    339.48295  0.023322544  0.023053999           13 
 1214000   0.78261106   -6.9997902    339.02695  0.023272031  0.023038489            8 
 1215000   0.77058406   -7.0021474    339.34784  0.023274886  0.023022969           14 
 1216000   0.79247196   -7.0138708    339.36206   0.02325672  0.023007499           14 
 1217000   0.78420753    -7.031389    338.56088   0.02318275  0.022991959           17 
 1218000   0.76004382   -7.0251377    338.87211   0.02318501  0.022976367            9 
 1219000   0.74480825   -7.0106958    339.40391  0.023202346  0.022960671            9 
 1220000   0.77102957   -6.9939418    339.42772  0.023184953  0.022945027           11 
 1221000   0.77221765   -7.0220212    339.20774  0.023150951  0.022929338           15 
 1222000   0.75562853   -7.0345333     339.0405  0.023120602  0.022913638           14 
 1223000   0.75089041    -7.045918    339.30969  0.023120039  0.022897937           11 
 1224000   0.77007833    -7.021723    339.35687  0.023104362  0.022882224           12 
 1225000   0.76465372   -7.0538831    338.82173  0.023049097  0.022866456           18 
 1226000   0.77650513   -7.0137575    338.84004  0.023031541  0.022850711           13 
 1227000   0.75189286   -7.0211404    339.02259  0.023025169  0.022835049           19 
 1228000   0.76170118   -7.0381019    339.07499  0.023009975  0.022819383           22 
 1229000   0.76900387   -7.0245148    339.50162  0.023020181  0.022803652           30 
 1230000   0.76810691   -7.0369887    339.10967   0.02297491  0.022787887           10 
 1231000   0.77755095   -7.0507584    339.32634  0.022970914  0.022772184           12 
 1232000   0.77026098   -7.0258713    339.31241  0.022951326   0.02275647           32 
 1233000   0.75738946   -7.0429642     339.7378  0.022961463  0.022740818           32 
 1234000   0.76056005   -7.0311307     339.0333  0.022895279  0.022725213           14 
 1235000   0.74904159   -7.0386614    339.53273   0.02291044  0.022709467           22 
 1236000    0.7607111   -7.0593037    339.98515  0.022922408  0.022693782           15 
 1237000   0.75859565    -7.034699    339.71483  0.022885666  0.022678034           11 
 1238000   0.76178995   -7.0168155    339.98786  0.022885559  0.022662328           12 
 1239000   0.77673823   -7.0021739    339.56123  0.022838393  0.022646586            8 
 1240000   0.76015212    -7.048737    339.73887  0.022831914  0.022630872           11 
 1241000   0.76901157   -7.0239389    339.43983  0.022793435  0.022615163           13 
 1242000   0.75823571   -7.0295764    340.62047  0.022854299  0.022599525           19 
 1243000   0.76497595   -7.0498526    339.79637  0.022780663  0.022583891           19 
 1244000   0.76952899   -7.0411005    339.99997  0.022775989  0.022568181           31 
 1245000   0.76024405   -7.0361723     340.6088  0.022798447  0.022552537           11 
 1246000   0.75037902   -7.0319708    340.81831  0.022794162  0.022536951           14 
 1247000   0.75863727   -7.0391639    340.44041  0.022750629  0.022521395           10 
 1248000      0.74675   -7.0411936    340.33457  0.022725332   0.02250582           11 
 1249000   0.77196655   -7.0515566    340.51243  0.022719004  0.022490179           25 
 1250000   0.77621938   -7.0530418    340.60416  0.022706944  0.022474652           19 
 1251000   0.76451755     -7.06967    340.71354  0.022696079  0.022459113           18 
 1252000   0.76099038   -7.1058638    340.51668  0.022664848  0.022443517           20 
 1253000   0.75371461   -7.0595242    340.80967  0.022666246  0.022427882           23 
 1254000   0.74607378   -7.0647386    340.87797  0.022652709  0.022412294           18 
 1255000   0.75373677   -7.0329018    340.83069   0.02263152  0.022396743           18 
 1256000   0.75034399   -7.0626829     341.6392  0.022667144  0.022381281           21 
 1257000   0.78728275   -7.0780141    341.20992  0.022620652  0.022365834           21 
 1258000   0.75528212   -7.0590783     341.0796  0.022594038  0.022350347           15 
 1259000   0.73654116   -7.0502064     341.2429  0.022586901  0.022334895           12 
 1260000   0.74799589   -7.0509095    341.25729  0.022569927  0.022319409            9 
 1261000   0.76585054   -7.0682206    341.62041  0.022576025  0.022303997           13 
 1262000   0.73439346   -7.0637246    340.98447  0.022516143  0.022288531            9 
 1263000   0.75982955   -7.0616939    341.66391  0.022543145  0.022273107           15 
 1264000   0.73501922   -7.0474283    341.38219  0.022506737  0.022257647           19 
 1265000    0.7519117   -7.0505979    341.59383  0.022502887  0.022242237           12 
 1266000   0.75480836   -7.0676539    342.05943   0.02251576  0.022226913           18 
 1267000   0.76062285   -7.0422205    342.40497  0.022520716  0.022211677            6 
 1268000   0.74451564   -7.0738932    342.34026  0.022498703  0.022196449           10 
 1269000   0.75204648   -7.0663864    341.88157  0.022450852  0.022181125           10 
 1270000   0.74329933   -7.0664291    341.83959  0.022430419   0.02216574           15 
 1271000   0.73367596   -7.0705195    341.67297  0.022401847   0.02215038            9 
 1272000   0.75286895   -7.0681213    341.71873  0.022387233  0.022134978           11 
 1273000   0.73439523   -7.0601207    342.44289  0.022417052  0.022119702            9 
 1274000   0.75888134   -7.0726975    341.97371  0.022368767  0.022104348           12 
 1275000   0.75268281   -7.0653224    341.98131   0.02235172     0.022089           13 
 1276000   0.76028209   -7.0895555    342.01785  0.022336589  0.022073685           14 
 1277000   0.73165773   -7.0736218    342.51073  0.022351262  0.022058419           26 
 1278000   0.74608267   -7.0522599    342.45781  0.022330321  0.022043116           11 
 1279000   0.74290316   -7.1150659    342.24215  0.022298811  0.022027861           12 
 1280000   0.73514145   -7.0569083    342.88556  0.022323279  0.022012585           14 
 1281000   0.74242232   -7.0741386    342.44135  0.022276955   0.02199733           15 
 1282000    0.7544594   -7.0871197    341.99491  0.022230558   0.02198203           20 
 1283000   0.75346356   -7.0992449    341.79131  0.022200007  0.021966676           21 
 1284000   0.73755968   -7.0566004    342.33519  0.022218016  0.021951269           29 
 1285000   0.73014637   -7.0810935    341.97927  0.022177644  0.021935918           39 
 1286000   0.74599622   -7.0724586    342.60318  0.022200828  0.021920632           49 
 1287000   0.73498166   -7.0746045    343.24872  0.022225377  0.021905353           29 
 1288000   0.75013212   -7.0404469    342.95957  0.022189413  0.021890188           39 
 1289000   0.75347033   -7.0945814    343.36986  0.022198724  0.021874939           14 
 1290000   0.72162662   -7.0578568    342.52326  0.022126826  0.021859733           18 
 1291000   0.73223089   -7.0905351    343.10815  0.022147441  0.021844493           13 
 1292000   0.76881509   -7.0768034    342.31174  0.022078931  0.021829237            7 
 1293000    0.7403457   -7.0821923    343.27477  0.022123922  0.021814038           14 
 1294000   0.73805152   -7.1009779    342.94829  0.022085799  0.021798831           11 
 1295000   0.73990586   -7.1101523    342.68167  0.022051588  0.021783541            8 
 1296000   0.72968178    -7.100022    342.93483   0.02205085  0.021768228           20 
 1297000   0.74166315   -7.0914539    342.72282  0.022020228  0.021752846           35 
 1298000    0.7386202   -7.1025472    342.87022  0.022012726  0.021737519           23 
 1299000   0.74698414   -7.0919796    342.75193  0.021988192  0.021722239           21 
 1300000   0.75172523   -7.0833738    343.10902  0.021994168  0.021706919           15 
 1301000    0.7425565   -7.1148162    343.21727  0.021984196  0.021691631           18 
 1302000   0.74101549   -7.1131435    343.16716  0.021964104  0.021676398           14 
 1303000   0.73647334   -7.0794788    343.56423  0.021972642  0.021661196           10 
 1304000   0.73748675   -7.1030527    343.89373  0.021976849  0.021645988           10 
 1305000   0.74423808   -7.0550592    343.39278  0.021928019  0.021630789           12 
 1306000   0.73151365   -7.0769059     344.4159  0.021976512  0.021615629            7 
 1307000   0.71875658   -7.0970317    343.95236  0.021930143  0.021600498            8 
 1308000   0.72140278   -7.0899242    343.97022  0.021914515  0.021585364           10 
 1309000   0.73634058   -7.0920521    343.79416  0.021886565  0.021570211           12 
 1310000    0.7285658   -7.0974524    343.71797  0.021865011  0.021555069            9 
 1311000   0.73395451   -7.0940292    343.59432  0.021840473  0.021539875           10 
 1312000   0.71610744   -7.1183968    343.89081  0.021842658  0.021524691           13 
 1313000   0.73029166   -7.1152858    344.32311  0.021853459  0.021509505           24 
 1314000   0.72187236   -7.1002737    343.31211  0.021772711   0.02149429           41 
 1315000    0.7228962    -7.091527    343.22654  0.021750731  0.021479102           16 
 1316000   0.72398878   -7.0979107    343.45698  0.021748795  0.021463939           12 
 1317000   0.72490275   -7.0800563    344.41441  0.021792863   0.02144882           13 
 1318000   0.72857175   -7.0961671    344.28536  0.021768169  0.021433824           36 
 1319000   0.72188448   -7.1277001    344.60473  0.021771843  0.021418785           17 
 1320000   0.73322224   -7.1009646    344.63816  0.021757459   0.02140372           12 
 1321000   0.72482561   -7.0853364    344.63455  0.021740762  0.021388678           13 
 1322000   0.72399463   -7.0968174    344.40962  0.021710137   0.02137363           25 
 1323000   0.73515545   -7.1368855    344.51891  0.021700611  0.021358566           31 
 1324000   0.72440798   -7.0889544    345.03694  0.021716827  0.021343511           17 
 1325000   0.73228624   -7.1272713     345.0886  0.021703685  0.021328498           26 
 1326000   0.72652975   -7.0950123    345.56362  0.021717171  0.021313543           20 
 1327000   0.71675423   -7.0967934    344.63443  0.021642454  0.021298616           11 
 1328000   0.73344826   -7.1034099     345.1091  0.021655943  0.021283676           37 
 1329000   0.72203997   -7.1161619    344.70795  0.021614494  0.021268696           10 
 1330000    0.7242263    -7.133706    343.88444  0.021546644  0.021253686           12 
 1331000   0.71762366   -7.0954203    344.63699  0.021577573  0.021238655           18 
 1332000   0.71677354   -7.1639792    343.89631  0.021515034  0.021223536           18 
 1333000   0.73989029   -7.1234683    344.86705   0.02155958  0.021208437           42 
 1334000   0.72508239   -7.1441516    344.77001  0.021537357  0.021193315           38 
 1335000   0.72745421   -7.1262581    344.77604  0.021521601  0.021178231           39 
 1336000   0.71764741   -7.1146342     344.7116  0.021501472   0.02116316           11 
 1337000   0.71610863   -7.1393146    343.87925  0.021433511  0.021148072           28 
 1338000   0.71473719   -7.1381774    343.73292  0.021408378  0.021132978           52 
 1339000    0.7226869   -7.1124191    345.15962  0.021481181  0.021117907           31 
 1340000   0.72063293   -7.1351009    343.65568  0.021371622  0.021102852           15 
 1341000   0.68807277   -7.1533463    344.56859  0.021412415  0.021087769           29 
 1342000   0.70319627   -7.1310127    345.25043    0.0214388  0.021072709           16 
 1343000   0.71299936   -7.1387688    345.71424  0.021451616  0.021057639           20 
 1344000   0.72959241    -7.135901    345.00113  0.021391439  0.021042649           29 
 1345000   0.72592925   -7.1238144    345.17853  0.021386526  0.021027666            6 
 1346000   0.71625527   -7.1382537    344.82719  0.021348885  0.021012615           28 
 1347000   0.71726054   -7.1138631    344.83088  0.021333264   0.02099761           25 
 1348000   0.70010717   -7.1280824    345.42469  0.021354148  0.020982651           28 
 1349000   0.72903789   -7.1662242    345.33892   0.02133302  0.020967724           43 
 1350000   0.71222188   -7.1630154    345.48615  0.021326305  0.020952796           34 
 1351000   0.71861043   -7.1604751    345.47949  0.021310109    0.0209379           59 
 1352000   0.71451291   -7.1423902    344.89414  0.021258268  0.020923072           73 
 1353000   0.71678128   -7.1526005     345.6536  0.021289333  0.020908196           36 
 1354000   0.71664714    -7.139842    346.25966   0.02131091  0.020893346           39 
 1355000   0.70574041   -7.1309608    346.13652  0.021287609  0.020878499           16 
 1356000   0.70382524   -7.1290097    345.73856  0.021247453  0.020863616           58 
 1357000   0.72038618   -7.1346813    345.47479  0.021215597  0.020848762           88 
 1358000   0.71917393   -7.1369949    345.59145  0.021207133  0.020833912           76 
 1359000    0.7027875   -7.1383026    345.57813  0.021190712  0.020819029           25 
 1360000   0.70306344   -7.1218914    346.27449    0.0212178  0.020804203           18 
 1361000   0.70792582   -7.1350754    345.11421  0.021131166  0.020789375           47 
 1362000   0.70372894   -7.1411665    345.95495  0.021167092  0.020774554           32 
 1363000   0.71516258   -7.1362007    346.04031  0.021156781  0.020759706           30 
 1364000   0.71687831   -7.1381974    345.15372  0.021087104  0.020744876           11 
 1365000   0.72164846   -7.1482942    345.24895   0.02107747  0.020730004           20 
 1366000   0.71157082   -7.1557141    346.26617  0.021124095  0.020715147           15 
 1367000   0.71187836   -7.1613273    344.90279   0.02102553  0.020700302           25 
 1368000   0.69521826   -7.1490073    344.83127  0.021005804  0.020685395           30 
 1369000    0.7035163   -7.1303599    345.43912   0.02102746  0.020670495           68 
 1370000   0.69344948   -7.1399381    345.66256  0.021025703  0.020655671           48 
 1371000   0.71976444   -7.1513216     346.0615  0.021034616  0.020640832           43 
 1372000    0.7017737   -7.1297862    346.25517  0.021031048  0.020626052           30 
 1373000   0.70324295   -7.1400591    345.09402  0.020945255  0.020611278           25 
 1374000   0.71650281   -7.1543828    345.90813  0.020979387  0.020596541           16 
 1375000   0.71931368   -7.1651378    346.06202  0.020973456  0.020581773           56 
 1376000   0.70379712   -7.1440977    345.63698  0.020932472  0.020566938           44 
 1377000    0.7027156   -7.1547162    345.97359  0.020937642  0.020552134           33 
 1378000   0.69902301   -7.1326094    346.03091  0.020925914  0.020537349           37 
 1379000      0.70931   -7.1821446     345.6421  0.020887243  0.020522559           34 
 1380000   0.70606738   -7.1625861    346.20957  0.020906375  0.020507727           31 
 1381000   0.69380505   -7.1619083      346.403  0.020902908  0.020492916           15 
 1382000   0.69966807   -7.1596207     345.5514  0.020836433  0.020478131           30 
 1383000    0.7045873   -7.1563685    345.38855  0.020811554  0.020463319           25 
 1384000   0.70204143   -7.1583709    345.58892  0.020808581  0.020448526           35 
 1385000    0.7097792     -7.14169    345.90385  0.020812506  0.020433724           22 
 1386000   0.69376669   -7.1607921    346.68681  0.020844565  0.020418904           28 
 1387000   0.69727341   -7.1458734    346.08725  0.020793514  0.020404165           24 
 1388000   0.69965715   -7.1734834    345.67886  0.020754014  0.020389368           21 
 1389000    0.7013881   -7.1464523    345.80463  0.020746618  0.020374555           29 
 1390000    0.7081592   -7.1539975    346.02432  0.020744863  0.020359727           30 
 1391000   0.67543105   -7.1789669    346.21137  0.020741156  0.020344875           13 
 1392000   0.69770701    -7.128937    346.21154  0.020726266  0.020330098           17 
 1393000   0.69914313   -7.1718302      346.032  0.020700646  0.020315257           28 
 1394000   0.69372347   -7.1614517    345.58349  0.020658984  0.020300403            9 
 1395000   0.70857372   -7.1690347    345.92869  0.020664797  0.020285591           48 
 1396000   0.69545787   -7.1706376    346.26373  0.020669993  0.020270751           18 
 1397000    0.7052475   -7.1541596      345.573  0.020613994  0.020255872           24 
 1398000   0.68465603   -7.1727183    344.65908  0.020544771  0.020240968           30 
 1399000   0.68473084   -7.1487839    345.96947  0.020608141  0.020226061           19 
 1400000   0.68683613   -7.1890423     345.6459  0.020574161  0.020211153           23 
 1401000   0.69438007   -7.1505702    345.82571  0.020570171  0.020196296           26 
 1402000   0.68714075   -7.1778361     345.5338  0.020538148  0.020181435            9 
 1403000   0.68827978   -7.1879995    345.82192  0.020540622  0.020166583           38 
 1404000   0.70321224   -7.1635753    345.56783  0.020510911  0.020151725           53 
 1405000   0.68934484   -7.1917393    345.94827  0.020518877  0.020136863           54 
 1406000   0.70173404   -7.1640977     346.1453  0.020515961  0.020122023           79 
 1407000   0.70649686   -7.2007058    346.20614  0.020504984  0.020107228           87 
 1408000   0.70480652   -7.1828238    345.70351  0.020460672  0.020092438           65 
 1409000   0.70629493   -7.1879598    345.61341  0.020440821  0.020077665           79 
 1410000   0.69361032   -7.1771048    346.55886  0.020482202  0.020062896          105 
 1411000   0.68827734   -7.1999729    346.52099   0.02046545  0.020048153           84 
 1412000   0.69164696    -7.183378    346.38021  0.020442647  0.020033366          136 
 1413000   0.69429084   -7.1821114    345.67147  0.020386381  0.020018606          133 
 1414000   0.68400845   -7.2109351    345.53403  0.020363863  0.020003871          147 
 1415000   0.69451689   -7.2021542    345.28969  0.020335082  0.019989099          145 
 1416000   0.67665535   -7.2049982    346.19371  0.020373923  0.019974317          254 
 1417000   0.68837273   -7.1837985    346.60194  0.020383553  0.019959617          121 
 1418000   0.68247079   -7.1970128    346.95629  0.020390003  0.019944941          140 
 1419000   0.69430252    -7.194443    346.43084  0.020344776  0.019930245          128 
 1420000   0.67281828   -7.1797594    346.53994  0.020336851  0.019915604          125 
 1421000    0.6711845   -7.1770388    346.76538   0.02033576   0.01990098          162 
 1422000   0.69987572   -7.1824061    346.68599  0.020316807  0.019886355          131 
 1423000   0.69745262   -7.1870954    346.40242  0.020285923  0.019871773          156 
 1424000   0.67130928   -7.2001103    346.48804  0.020276688  0.019857198          154 
 1425000   0.68381974   -7.2218645     346.3302  0.020253228  0.019842575          119 
 1426000   0.68278821   -7.1971748    346.01739  0.020220745  0.019827903          155 
 1427000   0.68326761   -7.2018193    346.18345  0.020216272   0.01981325          155 
 1428000   0.68781822   -7.2041811    346.22155  0.020204339  0.019798637          123 
 1429000   0.68795113   -7.2084393    346.56549  0.020210257  0.019784001          171 
 1430000   0.67642546   -7.2000225    346.02307  0.020164515   0.01976936          154 
 1431000    0.6897977   -7.2045108    346.40341  0.020172572  0.019754734          182 
 1432000   0.69108584   -7.2107797      345.096  0.020082402  0.019740101          138 
 1433000   0.68647681   -7.2368703    346.21705   0.02013358  0.019725375          131 
 1434000   0.68170141   -7.2381196    345.66328  0.020087359  0.019710664          120 
 1435000   0.66940996   -7.2257996    346.10791  0.020099182  0.019695975          127 
 1436000   0.69204259   -7.2042294    345.74492   0.02006412  0.019681302          153 
 1437000   0.67457699   -7.2033566    346.11063  0.020071366  0.019666628          226 
 1438000   0.67769774   -7.2193264    346.66553  0.020089565  0.019651977          162 
 1439000   0.67164918   -7.2288899    345.74946  0.020022554  0.019637317          171 
 1440000   0.66911334   -7.2456882     346.2843  0.020039601  0.019622642          131 
 1441000   0.67716562    -7.240252    346.18119  0.020019731  0.019607978          152 
 1442000   0.66697301   -7.2246054      346.695  0.020035541  0.019593353          172 
 1443000   0.67588022   -7.2134801    346.01959  0.019982651  0.019578738          164 
 1444000   0.69551654   -7.2033101     346.0165  0.019968635  0.019564191          162 
 1445000   0.67881976   -7.2204827    346.59681  0.019988282  0.019549668          177 
 1446000    0.6690018   -7.2167888    346.99635  0.019997485  0.019535139          133 
 1447000   0.68552853   -7.1785582    346.55814  0.019958428  0.019520692          148 
 1448000   0.67262062   -7.1837162    346.97943   0.01996889  0.019506236          118 
 1449000   0.67230618   -7.2247098    347.25937  0.019971208  0.019491795          102 
 1450000   0.66324907   -7.1980097    346.57357  0.019918021  0.019477325           94 
 1451000   0.67462907   -7.2039985    347.07816  0.019933273  0.019462855           60 
 1452000   0.67229627   -7.2243794    347.08724  0.019920067  0.019448437           76 
 1453000   0.68423803   -7.2110365    347.39383   0.01992394  0.019434045           77 
 1454000   0.68605533    -7.192344    347.11886  0.019894479  0.019419668          106 
 1455000    0.6502082   -7.2331506    346.59153  0.019850603  0.019405253           44 
 1456000   0.67559122    -7.234122    346.52923  0.019833404  0.019390824          138 
 1457000   0.67143168   -7.2470881     347.1655  0.019856183  0.019376396           35 
 1458000   0.68008783   -7.2354542    346.97169  0.019831487  0.019362026           92 
 1459000   0.67494305   -7.2301499    347.36022  0.019840086  0.019347679           54 
 1460000    0.6887054   -7.2262906    347.14177  0.019814028  0.019333318           97 
 1461000   0.66417498   -7.2048306    346.56441  0.019767534  0.019318966           39 
 1462000    0.6732503   -7.2171848    347.34357  0.019798425  0.019304697           47 
 1463000   0.67517423   -7.2189619    347.57938  0.019798324  0.019290418           47 
 1464000   0.65625201   -7.2068086    347.53863  0.019782481   0.01927616           61 
 1465000   0.65612096   -7.2256629    347.68128  0.019777092  0.019261935           53 
 1466000   0.66813385   -7.2379836    347.27106  0.019740283  0.019247713           20 
 1467000   0.66929468   -7.1989357    347.57985  0.019744368  0.019233437           21 
 1468000   0.67135591   -7.2055879    347.60571  0.019732386  0.019219186           30 
 1469000   0.66619852   -7.2349613    347.04768  0.019687297  0.019204951           43 
 1470000   0.66851096   -7.2346719    347.00735  0.019671619  0.019190713           41 
 1471000   0.66417154   -7.2112244     347.2705  0.019673153  0.019176502           19 
 1472000   0.65712474   -7.2074745      347.767  0.019687896   0.01916234           11 
 1473000   0.66482481   -7.2164954     347.2829  0.019647143  0.019148207           12 
 1474000    0.6840434   -7.2218346    348.66281  0.019711828  0.019134069           42 
 1475000   0.65703088   -7.2228977     347.5472  0.019635435  0.019119975           14 
 1476000   0.66049859   -7.2187053    348.56914  0.019679829  0.019105892           25 
 1477000   0.67490493   -7.2086727    348.01004  0.019634961  0.019091824           27 
 1478000   0.66213014   -7.2321159    347.93213  0.019617283  0.019077814           39 
 1479000   0.67279647   -7.2372632    347.93423  0.019604137   0.01906378           15 
 1480000   0.67285955   -7.2292654    348.52014  0.019623882  0.019049769           24 
 1481000   0.65824611   -7.2496242    348.28142  0.019597199  0.019035799           14 
 1482000   0.66397425   -7.2672373    347.83367  0.019558798  0.019021848           23 
 1483000   0.64732064   -7.2548235    348.36925  0.019575705  0.019007915           16 
 1484000   0.66012457   -7.2620362     348.9209  0.019593492  0.018993911           20 
 1485000   0.66230729    -7.241696     348.7093  0.019568423  0.018979966           21 
 1486000   0.65320179   -7.2510939    349.32308  0.019589675  0.018966056           34 
 1487000   0.66566936    -7.248137    348.62416  0.019537333  0.018952146           19 
 1488000   0.64408015   -7.2343208     348.5329  0.019519091   0.01893823           21 
 1489000    0.6703896   -7.2391341    348.21033   0.01948793  0.018924283           20 
 1490000   0.65802046   -7.2488583    348.06912  0.019466953  0.018910357           29 
 1491000   0.65347304   -7.2435776    349.21378  0.019517873  0.018896478           44 
 1492000   0.63731349   -7.2435639     348.3452  0.019456278  0.018882599           38 
 1493000   0.65308028   -7.2429038    348.77911  0.019467465  0.018868758           29 
 1494000   0.66361157   -7.2506734    348.41185   0.01943395  0.018854904           25 
 1495000   0.66373569   -7.2611128     348.4232  0.019421583  0.018841036           35 
 1496000   0.65548927   -7.2587213    349.02681  0.019442224  0.018827207           13 
 1497000   0.64443882   -7.2679738    348.15252  0.019380568   0.01881334           31 
 1498000    0.6563845   -7.2633062    347.84824  0.019350703  0.018799533           43 
 1499000   0.64578263   -7.2514064    348.20437  0.019357592  0.018785673           19 
 1500000   0.66094369    -7.247404      348.748  0.019374889  0.018771883           22 
 1501000   0.65007198   -7.2482538    348.34933  0.019339848  0.018758063           18 
 1502000   0.64311649   -7.2498538    348.72473  0.019347799  0.018744253           19 
 1503000   0.66569159   -7.2637155    348.59201  0.019327567  0.018730471           36 
 1504000   0.65258464   -7.2795815    348.57794  0.019313937  0.018716647           30 
 1505000   0.65313858    -7.260768    348.67333  0.019306386  0.018702874           72 
 1506000   0.66473459   -7.2479616     349.2028  0.019322864  0.018689117           47 
 1507000   0.65589656   -7.2659524    348.42698  0.019267141  0.018675369           37 
 1508000   0.65074706   -7.2754806    349.40124  0.019308203  0.018661656           43 
 1509000     0.634756   -7.2683481    348.93069  0.019269422  0.018647929           62 
 1510000   0.63685624   -7.2541836    348.69209  0.019243493  0.018634181           69 
 1511000   0.64110373   -7.2827287    348.58368  0.019224778  0.018620414           67 
 1512000   0.64703534   -7.3033911    347.95925  0.019177648  0.018606621          111 
 1513000   0.64164153   -7.2860872    349.22218  0.019234533  0.018592825           59 
 1514000   0.63966763   -7.2857858    348.14113  0.019162325  0.018579062           69 
 1515000   0.64239187   -7.2785301    349.28749  0.019212733  0.018565317           61 
 1516000   0.64619658   -7.2823772    349.00982  0.019184796  0.018551595          116 
 1517000   0.64909608   -7.2804256    348.42517  0.019140034   0.01853787          137 
 1518000   0.64551009   -7.2844111    348.85288  0.019150905  0.018524136           70 
 1519000   0.64845537    -7.284924    348.85935  0.019138652  0.018510384           59 
 1520000   0.65403715   -7.3131551    349.13603   0.01914123  0.018496682          163 
 1521000   0.65387275    -7.291772     348.3889  0.019087711  0.018482975           81 
 1522000   0.63941218   -7.2799457     348.8158  0.019098544  0.018469252          185 
 1523000    0.6562205   -7.2818574    348.94444  0.019093042  0.018455574           58 
 1524000   0.65120921   -7.2945459    349.47686  0.019109627  0.018441904          129 
 1525000    0.6361141   -7.2988435    348.24626  0.019029851  0.018428234          173 
 1526000   0.64345271   -7.2758309    347.92944  0.019000079  0.018414552           45 
 1527000   0.64544646   -7.2908588    348.28893  0.019007255  0.018400869          121 
 1528000   0.64364432    -7.296043    348.10486  0.018984776   0.01838716           82 
 1529000   0.62974565   -7.3143182    348.81825  0.019011241  0.018373481          105 
 1530000   0.63314323   -7.2817949    348.56119  0.018984814  0.018359761          122 
 1531000   0.65977895   -7.2987019    349.08208  0.019000766  0.018346103           79 
 1532000   0.64229072   -7.2782861    348.54053  0.018958906  0.018332467           52 
 1533000    0.6552355   -7.2965975    348.45139  0.018941693  0.018318827           80 
 1534000   0.63930487   -7.2852002    348.31314  0.018921835  0.018305213          123 
 1535000   0.63601555   -7.2921528    348.46062  0.018917515  0.018291588           92 
 1536000   0.64657292   -7.2969865    347.92767  0.018876284  0.018277966          106 
 1537000   0.64103702   -7.2934421    348.34175  0.018886454  0.018264364          145 
 1538000    0.6371448   -7.3203481    348.93016  0.018906055  0.018250781          192 
 1539000   0.63406555   -7.3165656    348.36263   0.01886304  0.018237136          167 
 1540000   0.63969483   -7.3027635    348.63997  0.018865799  0.018223521          247 
 1541000   0.64406446   -7.3017771    349.03574  0.018874959  0.018209951           95 
 1542000   0.63738355   -7.3119427    348.64113  0.018841393   0.01819637          198 
 1543000   0.63158907   -7.3202631    349.07133  0.018852416  0.018182774          196 
 1544000   0.62783154   -7.3144949    348.74004  0.018822325  0.018169203          143 
 1545000   0.63737721   -7.3219559    348.32922  0.018787984  0.018155639           97 
 1546000   0.63305602   -7.3116423    348.30478  0.018774514   0.01814208          115 
 1547000   0.64233905   -7.3087015     348.2982  0.018762023  0.018128503          122 
 1548000   0.62483439   -7.3211881    348.89209  0.018781874  0.018114982          135 
 1549000   0.62719772   -7.3378838    348.66601  0.018757586  0.018101441          145 
 1550000   0.64138824   -7.3468335    348.79343  0.018752335   0.01808794          124 
 1551000   0.64022839   -7.3222121    348.93913  0.018748073  0.018074417          235 
 1552000   0.63865083   -7.3125903     348.9513  0.018736646  0.018060913          285 
 1553000   0.63449515   -7.3178314    349.19355   0.01873758  0.018047433          176 
 1554000   0.63523652   -7.3396472    348.79747  0.018704283  0.018033977          158 
 1555000   0.63356731   -7.3045601    350.03209  0.018758419  0.018020514          225 
 1556000   0.62206786   -7.3125162    348.70652   0.01867537   0.01800708          188 
 1557000   0.64034324   -7.3267339    348.67744  0.018661819  0.017993661          245 
 1558000    0.6487312   -7.3075494    348.85243  0.018659201  0.017980214          342 
 1559000   0.64879427    -7.344175     348.7349   0.01864095  0.017966783          207 
 1560000   0.63027641   -7.3345386    348.66509  0.018625272  0.017953339          170 
 1561000   0.62525674   -7.3363314    348.62781   0.01861135  0.017939922          198 
 1562000   0.63524134   -7.3388085    348.97035  0.018617709  0.017926502          254 
 1563000   0.63985551   -7.3505419    349.17662  0.018616796  0.017913079          244 
 1564000   0.62664543   -7.3373791    348.41974  0.018564564  0.017899669          214 
 1565000   0.61672692   -7.3226273    348.54996  0.018559636  0.017886251          161 
 1566000   0.62785578   -7.3330376    348.84458  0.018563462  0.017872858          357 
 1567000   0.64045443   -7.3250497     348.2343  0.018519161  0.017859447          205 
 1568000   0.63085732    -7.334795    348.43691  0.018518118  0.017846023          165 
 1569000   0.61469905   -7.3554867    348.52722  0.018511112  0.017832607          223 
 1570000   0.63150326   -7.3640136    348.07368  0.018475248  0.017819155          374 
 1571000   0.62573054   -7.3353114    349.12667  0.018519344  0.017805739          236 
 1572000   0.62401458    -7.311576    348.30314  0.018463907  0.017792346          240 
 1573000   0.63569223   -7.3429222     348.1531   0.01844422  0.017778966          251 
 1574000   0.62329776   -7.3352066    348.32965  0.018441849  0.017765597          264 
 1575000    0.6233005   -7.3462341    348.69488  0.018449465  0.017752202          418 
 1576000   0.62948909   -7.3757422    348.29934  0.018416843  0.017738816          236 
 1577000     0.627188   -7.3478127    348.47667  0.018414535  0.017725513          333 
 1578000   0.61579974   -7.3623964    348.41513  0.018399616  0.017712176          234 
 1579000   0.62538788   -7.3510679    349.16745  0.018427668  0.017698882          240 
 1580000   0.61682077   -7.3860417    348.51208  0.018381439  0.017685558          244 
 1581000   0.63345146   -7.3475295      348.182  0.018352414  0.017672219          240 
 1582000   0.61523564   -7.3791129    348.60191  0.018362932  0.017658872          197 
 1583000   0.62683772   -7.3514479    348.07016   0.01832334  0.017645525          272 
 1584000   0.61717101   -7.3485502    348.69473   0.01834463  0.017632209          227 
 1585000   0.62242098   -7.3596446    349.51164  0.018376006  0.017618919          179 
 1586000   0.61199144   -7.3737572    348.13813  0.018292251  0.017605635          311 
 1587000   0.61026224   -7.3510646     348.5981  0.018304878  0.017592395          282 
 1588000   0.60942585   -7.3729544    348.18389  0.018271615  0.017579169          208 
 1589000   0.61935154   -7.3626843    349.22014  0.018314461    0.0175659          318 
 1590000   0.60962427   -7.3620537    348.87289  0.018284743   0.01755265          251 
 1591000   0.60897405   -7.3569652    348.65183  0.018261672  0.017539436          329 
 1592000   0.61302033   -7.3471207    348.21906  0.018227547  0.017526207          321 
 1593000   0.61517406   -7.3544425    348.22327  0.018216325  0.017512999          487 
 1594000   0.62386759    -7.396385    348.58796  0.018223963  0.017499767          571 
 1595000   0.61083812   -7.3755316    348.29536   0.01819725  0.017486552          586 
 1596000   0.60983996   -7.3626477     348.6792   0.01820589   0.01747333          508 
 1597000   0.61039327   -7.3716757    347.98528   0.01815828  0.017460147          543 
 1598000   0.60936432   -7.3542904    348.37426  0.018167202  0.017446973          604 
 1599000   0.62217052   -7.3657982    347.74387  0.018122987  0.017433798          540 
 1600000   0.61527962   -7.3645371    348.80297  0.018166821  0.017420626          571 
 1601000   0.60738933   -7.3823331    348.12261  0.018120061  0.017407473          607 
 1602000   0.61008689   -7.3679149    348.60913  0.018134058  0.017394317          605 
 1603000   0.61523859   -7.3558154    348.26246  0.018104723  0.017381173          522 
 1604000    0.6062988   -7.4090185    348.38654  0.018099882  0.017368053          557 
 1605000   0.61039378   -7.3634933    348.99588  0.018120243   0.01735495          553 
 1606000   0.61592229   -7.3765664    348.47584  0.018081976  0.017341859          630 
 1607000    0.6076896   -7.3930955    348.47768  0.018070819  0.017328757          578 
 1608000   0.61924469    -7.369755    348.70315  0.018071266  0.017315686          639 
 1609000   0.60571162   -7.3867924    348.35376  0.018041939  0.017302627          687 
 1610000    0.6220542   -7.3534807    348.34477  0.018030268  0.017289574          633 
 1611000   0.60568517   -7.3796499    348.60411  0.018032491  0.017276532          629 
 1612000   0.59990972   -7.3757138    348.56304  0.018019181  0.017263492          706 
 1613000   0.61383152   -7.3755367    348.95341  0.018028178  0.017250454          754 
 1614000   0.61367389   -7.4022576    348.73246    0.0180056   0.01723742          656 
 1615000   0.61412013   -7.3825157    348.63921  0.017989639  0.017224395          658 
 1616000   0.61081973    -7.410407    348.02667   0.01794692  0.017211362          733 
 1617000   0.61747197   -7.4041211    349.28449  0.018000644  0.017198312          774 
 1618000   0.62739989   -7.3906888    348.34838  0.017941305  0.017185284          695 
 1619000   0.60552695   -7.3784074    347.96438  0.017910458  0.017172248          689 
 1620000   0.61073452   -7.3868569    348.15462  0.017909188  0.017159228          779 
 1621000   0.61941847   -7.3944296    348.76363  0.017929449  0.017146207          685 
 1622000   0.61481208   -7.4015472    348.85523  0.017923101  0.017133174          666 
 1623000   0.60009953   -7.4012945    348.48939  0.017893273   0.01712015          725 
 1624000   0.61218931   -7.3874241    348.02386  0.017858367  0.017107106          656 
 1625000   0.61153767   -7.4065087    348.68307  0.017881183  0.017094114          719 
 1626000   0.61571693   -7.4060717    348.77842  0.017875073  0.017081124          677 
 1627000     0.600764   -7.3952586    347.95926   0.01782213  0.017068145          706 
 1628000   0.58030464   -7.3994138    348.20452  0.017823737  0.017055176          682 
 1629000   0.60811953   -7.4091794    348.48352  0.017827068  0.017042227          725 
 1630000   0.59634134   -7.4024373    348.84956  0.017834845   0.01702931          697 
 1631000   0.60454685   -7.4218367    348.00043  0.017780525  0.017016358          770 
 1632000   0.60247362   -7.4092699    348.44092  0.017792122  0.017003428          748 
 1633000   0.59835695   -7.3925384    348.34608  0.017776387  0.016990521          779 
 1634000   0.60359605   -7.3909474    348.31432  0.017763888  0.016977638          794 
 1635000   0.59447805   -7.3927831    348.28789  0.017751676   0.01696477          727 
 1636000   0.60416745   -7.4195811    348.90636  0.017772329  0.016951876          743 
 1637000   0.60611875   -7.4009221    347.84189  0.017707284  0.016938991          758 
 1638000   0.58749836   -7.4132238    348.71842  0.017741067  0.016926111          749 
 1639000   0.59840443   -7.3894348    348.20385   0.01770408  0.016913256          755 
 1640000   0.58859536   -7.4014584    348.47672  0.017707151  0.016900389          795 
 1641000   0.59786194    -7.412235    348.10635  0.017677552  0.016887529          777 
 1642000   0.60002654   -7.4104794    348.32738  0.017678003   0.01687467          799 
 1643000   0.59449555   -7.4136124    348.35802  0.017668798  0.016861836          852 
 1644000   0.59933797   -7.3910579    348.62349  0.017671507  0.016849046          841 
 1645000   0.58673613   -7.3949446    348.46992  0.017652985  0.016836265          879 
 1646000   0.60512161   -7.4426536    348.03019  0.017619997  0.016823478          868 
 1647000   0.59861899   -7.4278803    348.32882  0.017624409  0.016810681          790 
 1648000   0.60183335   -7.4257208    348.19314  0.017606854  0.016797887          819 
 1649000    0.5907049   -7.4211111    348.28867  0.017601004  0.016785107          876 
 1650000   0.59698769   -7.4314065    347.86285  0.017568831  0.016772321          872 
 1651000   0.59031209   -7.4038373    347.86842  0.017558471  0.016759518          889 
 1652000   0.58567753   -7.4155249    348.24094  0.017566633  0.016746701          930 
 1653000   0.59343085   -7.4112337     348.5547  0.017571824  0.016733918          907 
 1654000   0.60184628   -7.4331874    348.10663  0.017538625  0.016721143          995 
 1655000   0.60736822   -7.4258143    348.11515  0.017528457  0.016708333          927 
 1656000   0.58421674   -7.4387592     347.9864  0.017511393  0.016695536          992 
 1657000   0.59135145   -7.4575879    347.68782  0.017485809  0.016682759          969 
 1658000    0.6035007   -7.4378411    348.11877  0.017496923  0.016669985          970 
 1659000   0.58838329   -7.4424033    347.48641  0.017454612  0.016657235          946 
 1660000    0.5872889   -7.4383665    347.90335  0.017465027  0.016644475         1000 
 1661000   0.59575849   -7.4425195    347.73213  0.017445923  0.016631731          979 
 1662000   0.59323381   -7.4334279    347.60965  0.017429284  0.016619001          951 
 1663000   0.59230948   -7.4419282    347.97062  0.017436892  0.016606255          945 
 1664000   0.59342152   -7.4011685    347.42438  0.017399057   0.01659353         1006 
 1665000   0.59253325   -7.4543897    347.76081  0.017405446  0.016580805         1127 
 1666000   0.58672846   -7.4451827    347.50103  0.017382004  0.016568076         1070 
 1667000   0.58448734   -7.4545364    347.16082   0.01735457  0.016555354         1066 
 1668000   0.58381005   -7.4468859    347.69805  0.017371006  0.016542624          994 
 1669000    0.5873797   -7.4537232     347.2553  0.017338491  0.016529925         1082 
 1670000    0.5906103   -7.4707299    347.70482   0.01735054  0.016517209         1051 
 1671000   0.59310809   -7.4679064    347.54576  0.017332224  0.016504495         1040 
 1672000    0.5828901    -7.439997    347.23364  0.017306302  0.016491815         1034 
 1673000   0.58538769   -7.4607628    347.28475  0.017298503  0.016479106         1072 
 1674000   0.57933993   -7.4717699    347.43708  0.017295753  0.016466406         1082 
 1675000     0.586472   -7.4691576    347.53347  0.017290222  0.016453714         1089 
 1676000   0.57771514   -7.4546481    347.31516  0.017269051  0.016441043         1027 
 1677000   0.58341305   -7.4706207    347.46812  0.017266355  0.016428364         1105 
 1678000   0.57912952   -7.4534493    347.59051  0.017262143  0.016415688         1071 
 1679000   0.58192545   -7.4723094    346.56728  0.017201076  0.016403004         1077 
 1680000   0.56855738   -7.4730808    347.38936  0.017231615   0.01639036         1054 
 1681000   0.58927957   -7.4709272    347.39114  0.017221452  0.016377701         1038 
 1682000   0.58604474   -7.4755246    347.03192  0.017193417  0.016365076         1105 
 1683000   0.57761465   -7.4789928    347.69502  0.017216034   0.01635245         1088 
 1684000   0.57733448   -7.4779364    347.26171  0.017184368  0.016339832         1140 
 1685000    0.5660168    -7.476082    347.18775  0.017170512  0.016327201         1134 
 1686000   0.57298458   -7.4758891    347.92804  0.017196918  0.016314589         1121 
 1687000   0.57002429    -7.470724    347.47051  0.017164123  0.016301993         1171 
 1688000   0.57684759   -7.4668673    347.11312  0.017136311   0.01628942         1126 
 1689000   0.57518025   -7.4778983    347.00319  0.017120742  0.016276843         1115 
 1690000   0.58119758   -7.4977092    347.02081   0.01711148  0.016264257         1068 
 1691000   0.56972682   -7.4779668    346.89121  0.017094974  0.016251691         1129 
 1692000   0.59074478   -7.5024063    346.75598   0.01707821  0.016239135         1194 
 1693000   0.57238828   -7.4859385    346.84507  0.017072508  0.016226578         1129 
 1694000   0.56650014   -7.4855756    346.96767  0.017068461   0.01621403         1187 
 1695000   0.57338516   -7.5124785    347.07136  0.017063488  0.016201486         1162 
 1696000   0.58510161   -7.4867286    347.19425  0.017059466  0.016188965         1158 
 1697000   0.57820251   -7.4820965    346.72009  0.017026129  0.016176435         1150 
 1698000   0.57472443   -7.4832702    346.91607   0.01702572   0.01616393         1173 
 1699000   0.58727847   -7.5016888     347.5296  0.017045792  0.016151431         1103 
 1700000   0.57329466    -7.490865    346.93665  0.017006699  0.016138931         1099 
 1701000   0.57387597   -7.4973418    347.18119  0.017008681   0.01612645         1174 
 1702000    0.5752099   -7.4822814     346.8067  0.016980351  0.016113977         1141 
 1703000   0.56582028   -7.4912159     347.4695  0.017002814  0.016101505         1153 
 1704000   0.57568189   -7.4860187    347.44011  0.016991398   0.01608907         1170 
 1705000   0.57320356   -7.4873743    346.76353  0.016948364  0.016076642         1186 
 1706000   0.57205571   -7.4934701    347.36083  0.016967606  0.016064211         1216 
 1707000   0.57226594   -7.4786468    346.58625  0.016919852  0.016051788         1114 
 1708000   0.56480343   -7.4932315    346.82041   0.01692137  0.016039398         1224 
 1709000   0.56539225   -7.5047057    346.79352  0.016910158  0.016027005         1244 
 1710000   0.56892908   -7.4680707    346.56503  0.016889134  0.016014592         1197 
 1711000   0.57291597   -7.4908133     346.3867  0.016870578  0.016002208         1258 
 1712000   0.56530575   -7.5015455    346.95208  0.016888244  0.015989834         1255 
 1713000   0.58922089   -7.4898227    346.18013  0.016840831  0.015977446         1270 
 1714000   0.55823312   -7.4870568    346.96065  0.016868954  0.015965068         1192 
 1715000   0.57158981   -7.4739227    346.16319  0.016820369  0.015952696         1197 
 1716000   0.57210748   -7.5020176    346.79149  0.016841079  0.015940349         1217 
 1717000   0.56147292   -7.5002704     346.9185  0.016837434  0.015927988         1260 
 1718000   0.57977109   -7.5389058    346.43126     0.016804  0.015915635         1190 
 1719000   0.55880301   -7.4981968    346.66094  0.016805359  0.015903278         1213 
 1720000   0.56094936   -7.5208151    346.50453   0.01678801  0.015890942         1261 
 1721000   0.56146281   -7.5094907    346.91712  0.016798234  0.015878613         1220 
 1722000    0.5685647   -7.5072508    346.48218   0.01676743  0.015866308         1193 
 1723000   0.55532866   -7.4983723    346.36916  0.016752233  0.015854004         1260 
 1724000    0.5469504   -7.4824026    347.81548  0.016812427  0.015841737         1215 
 1725000   0.56127645   -7.5206564    346.53044  0.016740601   0.01582947         1277 
 1726000   0.56665448    -7.514911    346.54977  0.016731835  0.015817193         1308 
 1727000   0.57117069   -7.5043233    346.90322  0.016739202  0.015804935         1358 
 1728000   0.57836166   -7.5026923    346.43693  0.016707028  0.015792666         1310 
 1729000   0.55802126   -7.4896893    346.46952  0.016698936  0.015780423         1285 
 1730000   0.55920978   -7.5007967    346.86876  0.016708514  0.015768179         1289 
 1731000   0.56154387   -7.5188234    347.08809  0.016709421  0.015755954         1231 
 1732000    0.5668999   -7.5158265    346.21639  0.016657832  0.015743727         1253 
 1733000   0.56907841   -7.5148769    346.42101   0.01665806  0.015731503         1303 
 1734000   0.55848445    -7.510988    346.56109  0.016655185  0.015719288         1240 
 1735000   0.56596656   -7.5197581    346.42152  0.016638882  0.015707085         1232 
 1736000   0.56227397   -7.5148244     346.5283  0.016634423  0.015694904         1291 
 1737000    0.5646043   -7.5162062     346.3734  0.016617415  0.015682733         1201 
 1738000   0.56049872   -7.5200637    346.53782  0.016615737  0.015670569         1273 
 1739000   0.56768874   -7.5147623     346.8105  0.016619249   0.01565843         1319 
 1740000   0.55920914   -7.5054903    346.53492    0.0165965  0.015646285         1316 
 1741000   0.55052619   -7.4885205    347.49024  0.016632694  0.015634157         1291 
 1742000   0.55168301   -7.5174747    346.97199  0.016598354  0.015622036         1311 
 1743000   0.55499719   -7.5244836    346.92705  0.016586682  0.015609931         1346 
 1744000   0.55112065   -7.5285378    346.62974  0.016562965  0.015597824         1278 
 1745000    0.5647456   -7.5385084    346.58398  0.016551289  0.015585695         1308 
 1746000   0.55603064   -7.5099619    346.51569  0.016538549  0.015573586         1260 
 1747000   0.55310162   -7.5272285    346.84581   0.01654483  0.015561498         1276 
 1748000   0.55066863   -7.5259481    346.39688  0.016513963  0.015549415         1270 
 1749000    0.5550686   -7.5307312    345.92997  0.016482274  0.015537341         1297 
 1750000   0.55573832   -7.5355341    346.34008  0.016492385  0.015525286         1279 
 1751000   0.55693167   -7.5280847    346.05969  0.016469622  0.015513238         1359 
 1752000    0.5488505   -7.5126699    346.81598  0.016496194    0.0155012         1254 
 1753000   0.55763227   -7.5325164    346.18021  0.016456561  0.015489183         1328 
 1754000   0.54519058   -7.5355818    347.28794  0.016499807  0.015477166         1286 
 1755000   0.55462165   -7.5610334    346.07451  0.016432788  0.015465166         1271 
 1756000   0.55041799   -7.5374596    346.53856  0.016445452  0.015453184         1355 
 1757000   0.56545188   -7.5431568    346.43633  0.016431243  0.015441205         1305 
 1758000   0.55410068    -7.511899    346.44189   0.01642216  0.015429255         1279 
 1759000   0.54555954   -7.5326696    346.25649  0.016404041  0.015417293         1269 
 1760000   0.55315959   -7.5115064    346.26607  0.016395174   0.01540535         1311 
 1761000   0.54689564   -7.5324304    346.79533  0.016410909  0.015393409         1334 
 1762000   0.54835291   -7.5111316    346.85191  0.016404271  0.015381475         1324 
 1763000   0.55560401   -7.5193983    346.28076  0.016367969  0.015369548         1368 
 1764000   0.54100864   -7.5311096    345.96706  0.016343871  0.015357627         1358 
 1765000   0.54318477    -7.523165     347.1162  0.016388867  0.015345729         1317 
 1766000   0.54785676   -7.5217328    346.96315  0.016372365  0.015333835         1354 
 1767000   0.53809364   -7.5264172    346.77224  0.016354095  0.015321932         1395 
 1768000   0.54035368   -7.5302755     346.0451  0.016310572  0.015310063         1377 
 1769000   0.55021808   -7.5615367    345.63193  0.016281889  0.015298172         1384 
 1770000   0.55784857   -7.5543611    346.05355   0.01629254  0.015286285         1353 
 1771000   0.54550015   -7.5454865    346.01539  0.016281545  0.015274412         1349 
 1772000    0.5442552   -7.5497483    346.36583  0.016288837  0.015262543         1362 
 1773000   0.55110898   -7.5262014    346.37075  0.016279881  0.015250693         1337 
 1774000   0.55172037   -7.5415647    346.08568  0.016257313  0.015238852         1366 
 1775000   0.54707775   -7.5389379    346.24904  0.016255824  0.015227015         1356 
 1776000   0.55500883   -7.5392918    346.05634  0.016237629  0.015215186         1355 
 1777000   0.54617058   -7.5506335    346.32118  0.016240911  0.015203354         1397 
 1778000   0.54764024   -7.5424998     346.2594  0.016228881  0.015191527         1251 
 1779000   0.54480267   -7.5371502     346.0934  0.016211983  0.015179728         1306 
 1780000   0.53987341   -7.5400457    345.98351   0.01619773  0.015167933         1341 
 1781000   0.53559403   -7.5425575    345.85439  0.016182593  0.015156144         1369 
 1782000   0.54147101   -7.5428065    346.28797  0.016193788  0.015144348         1371 
 1783000   0.53509466   -7.5395995    346.58563  0.016198618  0.015132595         1317 
 1784000   0.54605422   -7.5657721    346.10424  0.016167052  0.015120859         1424 
 1785000    0.5468879    -7.530972    346.27111  0.016165785  0.015109135         1468 
 1786000   0.54572721   -7.5527364     346.7498  0.016179069  0.015097423         1372 
 1787000   0.54053133   -7.5371484    346.33139  0.016150503  0.015085714         1389 
 1788000   0.54068722   -7.5713326    346.16341  0.016133641   0.01507401         1390 
 1789000   0.54814472   -7.5638894    345.80883  0.016108106  0.015062304         1476 
 1790000   0.53763098   -7.5710128    346.30032  0.016121989  0.015050593         1348 
 1791000   0.54444076   -7.5411921    346.26373  0.016111285  0.015038908         1385 
 1792000   0.52523809   -7.5567968    345.66817  0.016074599  0.015027228         1401 
 1793000   0.53170958   -7.5548789    346.09933  0.016085673  0.015015548         1367 
 1794000   0.53204736   -7.5600497    346.70638  0.016104904  0.015003878         1394 
 1795000    0.5184998   -7.5478518    346.37568  0.016080579  0.014992235         1360 
 1796000   0.55848937   -7.5555836    346.21854  0.016064335   0.01498059         1429 
 1797000   0.54090445   -7.5596984      345.968  0.016043777  0.014968956         1347 
 1798000   0.51949103   -7.5626377    346.14988  0.016043283  0.014957322         1357 
 1799000   0.53344081   -7.5719522    346.11753  0.016032867  0.014945695         1414 
 1800000   0.53590558   -7.5504207    345.39748  0.015990624  0.014934051         1358 
 1801000   0.53266825   -7.5656564    345.75855  0.015998452  0.014922433         1430 
 1802000   0.53304317   -7.5519735    345.50341  0.015977775  0.014910829         1380 
 1803000    0.5294397   -7.5606427    346.39727  0.016010227  0.014899231         1376 
 1804000   0.54055178   -7.5642507     345.7663  0.015972205  0.014887648         1343 
 1805000   0.52582823   -7.5794714    346.59107  0.016001434  0.014876087         1304 
 1806000   0.53925764   -7.5601384    345.72138  0.015952445  0.014864529         1349 
 1807000   0.54028608   -7.5815784    345.74952  0.015944914   0.01485298         1387 
 1808000   0.52956265    -7.573284    345.45748  0.015922634  0.014841415         1363 
 1809000   0.53636822   -7.5510961    345.99798  0.015938731  0.014829886         1376 
 1810000   0.53534202   -7.5638328    345.99123  0.015929614   0.01481838         1404 
 1811000   0.52092865   -7.5706445    345.56294  0.015901111  0.014806863         1344 
 1812000   0.53783484   -7.5698356    345.68028  0.015897732  0.014795366         1324 
 1813000   0.53233776   -7.5704307    345.40737  0.015876419   0.01478387         1349 
 1814000   0.52855765   -7.5716409    345.33763  0.015864463  0.014772381         1322 
 1815000   0.53108509   -7.5763702    345.51274  0.015863762  0.014760907         1338 
 1816000   0.52971043   -7.5817619    346.14442  0.015884013  0.014749438         1361 
 1817000    0.5305725   -7.5739445    345.61638  0.015851054  0.014737979         1321 
 1818000   0.52375063   -7.5576727    345.61035  0.015842058  0.014726515         1354 
 1819000   0.51781892   -7.5836551      345.456  0.015826278  0.014715066         1359 
 1820000   0.52179994   -7.5536997    345.69408  0.015828484   0.01470363         1337 
 1821000    0.5215022   -7.5684892    345.91314  0.015829816  0.014692203         1396 
 1822000   0.52122569   -7.5877548    345.53202  0.015803696  0.014680787         1387 
 1823000   0.52659105   -7.5748504     345.2465  0.015781976  0.014669371         1431 
 1824000   0.53628752   -7.5797908    344.76195  0.015751186  0.014657976         1432 
 1825000   0.52673949   -7.5716449     345.1228  0.015759032  0.014646584         1390 
 1826000   0.52988555   -7.5877755    345.56032  0.015770369  0.014635186         1404 
 1827000   0.51910006   -7.5973825    345.60968  0.015763988  0.014623797         1445 
 1828000   0.51492532   -7.5734078    345.16463  0.015735076  0.014612418         1347 
 1829000   0.51823344   -7.5673342    345.20962  0.015728523  0.014601051         1405 
 1830000   0.51607397   -7.5829445    345.73698  0.015743942  0.014589692         1379 
 1831000   0.52719899   -7.5825985    345.69301  0.015733343  0.014578345         1381 
 1832000   0.53114753    -7.575075     345.9286  0.015735471  0.014567008         1426 
 1833000   0.52421351   -7.5725064    345.12998  0.015690579  0.014555681         1394 
 1834000   0.50998157   -7.5893276    345.07749  0.015679639  0.014544361         1413 
 1835000   0.52789767   -7.5712817    345.61466  0.015695489  0.014533044         1338 
 1836000   0.52569033   -7.5756787    344.89504  0.015654277  0.014521741         1438 
 1837000   0.51909857   -7.5779636    345.40444  0.015668864  0.014510445         1455 
 1838000    0.5209931   -7.5857835    345.76992   0.01567691  0.014499175         1382 
 1839000   0.51944985   -7.6100353    345.82847  0.015671038  0.014487917         1435 
 1840000   0.52097354   -7.5853338    344.82177  0.015616928   0.01447665         1456 
 1841000   0.51823053   -7.5844229    345.55682  0.015641718  0.014465399         1401 
 1842000   0.51680733   -7.5776551     345.2142  0.015617725  0.014454153         1414 
 1843000   0.52589065   -7.5750674    345.14766  0.015606243  0.014442928         1438 
 1844000   0.52411892   -7.5808768    345.75609  0.015625275  0.014431705         1414 
 1845000   0.51352151   -7.5890107    345.28173  0.015595381  0.014420493         1444 
 1846000   0.51500969   -7.5929719    345.33868  0.015589503  0.014409281         1449 
 1847000   0.50865612   -7.6092675    345.83427  0.015603423  0.014398099         1453 
 1848000   0.51773736   -7.5994061    345.40787  0.015575752  0.014386917         1443 
 1849000   0.51181934   -7.6021788    345.11692  0.015554215  0.014375748         1443 
 1850000   0.51685787   -7.5908756    345.33101  0.015555451  0.014364597         1436 
 1851000   0.50986715   -7.5989859    345.97146  0.015575881  0.014353447         1462 
 1852000   0.51401844   -7.5960073    344.89461  0.015519016  0.014342311         1467 
 1853000   0.51259067   -7.5879637    345.48662  0.015537265   0.01433118         1526 
 1854000   0.51564729    -7.600771    344.89854  0.015502452  0.014320055         1473 
 1855000   0.50830177   -7.5899323    345.71888  0.015530947  0.014308942         1452 
 1856000   0.50910535   -7.6081649    345.35853  0.015506399  0.014297818         1533 
 1857000      0.51231   -7.6084525     344.9132  0.015478065  0.014286706         1497 
 1858000   0.49835899   -7.6055585    345.06688  0.015476627  0.014275582         1523 
 1859000   0.50756599     -7.58783    345.27144  0.015477472   0.01426448         1506 
 1860000   0.50933032   -7.6095026    345.38758  0.015474354   0.01425341         1456 
 1861000    0.5154599   -7.6012782     344.8806  0.015443337  0.014242343         1506 
 1862000   0.50996362   -7.5921513    345.92061  0.015481588  0.014231275         1492 
 1863000   0.51880805   -7.6043511    344.73549  0.015420267  0.014220231         1496 
 1864000   0.50944037   -7.6001097    344.21458  0.015388706   0.01420918         1545 
 1865000   0.51973814    -7.619353    345.14519  0.015422037  0.014198145         1485 
 1866000   0.50844982   -7.6245519    345.04941  0.015409495  0.014187113         1508 
 1867000   0.50986683   -7.6008483    344.94106  0.015396405  0.014176085         1445 
 1868000   0.51422212   -7.6300367    344.81245  0.015382426  0.014165059         1498 
 1869000   0.51299334   -7.6279861    345.03968  0.015384327  0.014154045         1470 
 1870000   0.51246277   -7.6170257    344.57877   0.01535556  0.014143061         1520 
 1871000   0.49883688   -7.6115627    345.21235  0.015375572  0.014132069         1515 
 1872000   0.50278871    -7.616863    344.94332  0.015355383   0.01412108         1516 
 1873000   0.50045536   -7.6216189    344.45797   0.01532559  0.014110093         1554 
 1874000   0.50574747   -7.6167618    344.56498  0.015322171   0.01409912         1484 
 1875000   0.49492262   -7.6326905    344.63931  0.015317303  0.014088148         1521 
 1876000   0.49596058   -7.6186394    344.80749  0.015316608  0.014077187         1508 
 1877000   0.50585439   -7.6234633    345.00821   0.01531736  0.014066237         1548 
 1878000   0.50138806   -7.6356623    344.89263  0.015304075  0.014055303         1523 
 1879000   0.49683053   -7.6021042    344.41488  0.015274742  0.014044388         1530 
 1880000   0.49254224   -7.6162988     344.5727  0.015273613  0.014033469         1490 
 1881000   0.49518042   -7.6159984    344.84028  0.015277347  0.014022568         1541 
 1882000   0.50380473   -7.6305785    344.80373  0.015267611   0.01401169         1493 
 1883000   0.49655889   -7.6383867    344.32488  0.015238311  0.014000805         1511 
 1884000   0.50409124   -7.6113541    344.08377  0.015219558  0.013989925         1526 
 1885000   0.50283807   -7.6245885    344.45788  0.015228023  0.013979072         1563 
 1886000   0.49999265   -7.6307864    344.55386  0.015224189  0.013968225         1600 
 1887000   0.49467212   -7.6378945    345.12647  0.015241409  0.013957378         1512 
 1888000   0.50870357   -7.6197873    344.74797   0.01521663  0.013946554         1565 
 1889000   0.50546948   -7.6353861    344.55236  0.015199945  0.013935727         1581 
 1890000   0.50530327   -7.6365028    344.84301  0.015204718  0.013924916         1543 
 1891000   0.49451919   -7.6240117    344.15662   0.01516643  0.013914106         1556 
 1892000   0.49701242   -7.6249689    344.50777   0.01517388  0.013903297         1534 
 1893000   0.48945846   -7.6127868    345.30013  0.015200745  0.013892505         1554 
 1894000   0.50002867   -7.6248104    344.99445   0.01517927  0.013881733         1565 
 1895000   0.50164388   -7.6238924    344.96877  0.015170131  0.013870967         1544 
 1896000   0.48584106   -7.6256695    344.42411   0.01513819  0.013860207         1522 
 1897000   0.50627724   -7.6293286    344.75221  0.015144623  0.013849458         1530 
 1898000   0.49875146   -7.6403297    344.79238  0.015138408  0.013838728         1575 
 1899000   0.49166179   -7.6335356     344.4562  0.015115684  0.013827988         1563 
 1900000   0.49525102   -7.6291604    344.16983  0.015095168  0.013817272         1562 
 1901000   0.49237184   -7.6342513    344.34575  0.015094939   0.01380656         1559 
 1902000   0.49367132   -7.6250576    344.01502  0.015072512  0.013795854         1592 
 1903000   0.48902014   -7.6441404    344.41684  0.015082188  0.013785159         1574 
 1904000   0.49200917   -7.6467482    344.27014  0.015067846  0.013774478         1618 
 1905000   0.49310602   -7.6386464    344.39072  0.015065211   0.01376381         1564 
 1906000   0.49336711   -7.6484319    344.20357  0.015049124  0.013753144         1591 
 1907000   0.49217687   -7.6294894    344.82483  0.015068381  0.013742499         1574 
 1908000   0.49104976   -7.6449278    344.24703  0.015035248  0.013731853         1568 
 1909000   0.48991452   -7.6517463    344.84048  0.015053277   0.01372122         1624 
 1910000   0.49062374    -7.641526    344.70917  0.015039667  0.013710589         1584 
 1911000   0.49006205   -7.6428485    344.12273  0.015006224  0.013699971         1628 
 1912000   0.49154038   -7.6509841    344.57996  0.015018304   0.01368937         1633 
 1913000   0.48889049   -7.6551974    344.25447  0.014996274  0.013678767         1641 
 1914000   0.49702575   -7.6335679    344.72616  0.015008976  0.013668177         1652 
 1915000    0.5000184   -7.6239228    344.44829  0.014989047  0.013657599         1542 
 1916000   0.48542033   -7.6388059    344.19747  0.014970315  0.013647027         1595 
 1917000   0.48527703   -7.6330727    344.73475  0.014985861  0.013636465         1660 
 1918000   0.48169672   -7.6536721    344.18205  0.014954034   0.01362591         1635 
 1919000   0.48138107    -7.633017    344.63046  0.014965714  0.013615363         1686 
 1920000   0.48741229   -7.6442339    344.01026  0.014931001  0.013604825         1670 
 1921000   0.48662577   -7.6510269    344.47866  0.014943548  0.013594297         1615 
 1922000   0.48995187   -7.6711659    344.53347  0.014938149  0.013583781         1650 
 1923000   0.48901117   -7.6418988    344.50179  0.014929008  0.013573276         1676 
 1924000   0.47538865   -7.6463059    343.81433  0.014891473  0.013562775         1662 
 1925000   0.47836655     -7.64719    344.43653  0.014910672  0.013552288         1643 
 1926000   0.48555199   -7.6526643    344.52183  0.014906621  0.013541804         1719 
 1927000   0.48855777   -7.6419978    344.26823  0.014887919  0.013531339         1641 
 1928000   0.49172467   -7.6485497    344.70481  0.014899067  0.013520881         1611 
 1929000    0.4800186   -7.6377248    344.26338  0.014872273  0.013510439         1639 
 1930000   0.48259947   -7.6370438    343.96293  0.014851594  0.013500009         1686 
 1931000   0.49430385   -7.6586867     344.4528  0.014865044   0.01348958         1601 
 1932000   0.47454261   -7.6555629    344.65194  0.014865939  0.013479167         1693 
 1933000   0.49358028   -7.6640965    344.20926  0.014839165  0.013468752         1675 
 1934000   0.48055542   -7.6485134    343.94462  0.014820089  0.013458355         1706 
 1935000   0.48394814   -7.6534656    344.17119  0.014822187  0.013447966         1657 
 1936000   0.47211528   -7.6548231    344.67188  0.014836083  0.013437595         1640 
 1937000   0.47978753   -7.6473295    344.25734  0.014810589  0.013427232         1615 
 1938000   0.48385833   -7.6595476    344.65754  0.014820156   0.01341688         1627 
 1939000   0.47784935   -7.6401444    344.47928  0.014804851  0.013406535         1648 
 1940000   0.47619783    -7.671398    344.46992  0.014796818  0.013396207         1658 
 1941000   0.47926717   -7.6626065    344.74038  0.014800806  0.013385881         1624 
 1942000   0.48414491   -7.6587316    344.34939  0.014776407   0.01337557         1598 
 1943000   0.47887741   -7.6552907     344.4701  0.014773979  0.013365262         1621 
 1944000   0.47083272   -7.6652366    343.86083  0.014740262  0.013354963         1646 
 1945000   0.47959745   -7.6582206    344.25683   0.01474965  0.013344666         1629 
 1946000   0.47156853   -7.6532128    344.15436  0.014737682  0.013334387         1653 
 1947000   0.46982293    -7.677233    344.65355  0.014751479  0.013324111         1634 
 1948000   0.48688814   -7.6565269    343.80602   0.01470765  0.013313853         1662 
 1949000   0.47942444   -7.6595162    344.08823   0.01471217  0.013303595         1584 
 1950000   0.47500412   -7.6570653     344.4703  0.014720953  0.013293347         1607 
 1951000   0.47291789   -7.6779767    344.34167  0.014707914  0.013283119         1645 
 1952000   0.46729744   -7.6693233    344.60249  0.014711514  0.013272886         1641 
 1953000   0.47747245    -7.661461    344.09024  0.014682123   0.01326267         1660 
 1954000    0.4762815   -7.6558863    344.07048  0.014673767  0.013252465         1627 
 1955000   0.46341658   -7.6649789    344.53958  0.014686257  0.013242275         1658 
 1956000   0.47735044    -7.649103    343.75529  0.014645335  0.013232086         1627 
 1957000   0.47378683   -7.6816044    344.60479  0.014674024   0.01322191         1559 
 1958000   0.48285422   -7.6656239    343.63136  0.014625101   0.01321173         1638 
 1959000   0.47870463   -7.6611328    343.85486  0.014627142  0.013201569         1667 
 1960000   0.46780286   -7.6787591    344.01472  0.014626476  0.013191425         1665 
 1961000   0.47577064   -7.6708774    343.92454  0.014615185  0.013181282         1683 
 1962000   0.47551388   -7.6775496    343.96537   0.01460947   0.01317114         1632 
 1963000   0.46978611   -7.6637483    344.03213  0.014604862   0.01316101         1680 
 1964000   0.48287224   -7.6613947    344.17558  0.014603513  0.013150898         1663 
 1965000   0.46258354   -7.6718435    343.97051  0.014587384  0.013140796         1640 
 1966000   0.47399369   -7.6846343    343.84786  0.014574765  0.013130701         1645 
 1967000   0.45729601    -7.685136    344.54526  0.014596902  0.013120616         1681 
 1968000   0.48202294   -7.6739982    344.43268  0.014584717   0.01311053         1619 
 1969000   0.47031961   -7.6648578    344.02474  0.014560045  0.013100464         1615 
 1970000   0.45964078   -7.6577786    344.02512   0.01455267    0.0130904         1677 
 1971000   0.46923275   -7.6463297    343.56156  0.014525688  0.013080346         1609 
 1972000   0.46385652   -7.6698261    343.82556  0.014529478  0.013070306         1602 
 1973000   0.47056885   -7.6825231    343.72701  0.014517951  0.013060275         1682 
 1974000   0.46524594   -7.6733309    343.45729   0.01449921  0.013050244         1635 
 1975000   0.47070845   -7.6720424    344.01417  0.014515366  0.013040225         1666 
 1976000   0.45704631   -7.6714443    343.73233  0.014496134  0.013030208         1674 
 1977000   0.45662892   -7.6899853    343.64821  0.014485256  0.013020202         1619 
 1978000   0.47402894    -7.679086    343.48282  0.014470965    0.0130102         1691 
 1979000   0.48103095   -7.6849964    343.67908  0.014471917  0.013000213         1662 
 1980000   0.47005811   -7.6915528    344.00344  0.014478259  0.012990237         1668 
 1981000   0.45661759   -7.6889921    344.08895  0.014474548  0.012980268         1639 
 1982000   0.46186155   -7.6791042    343.29659   0.01443393  0.012970304         1617 
 1983000   0.45570145   -7.6768404    343.35793  0.014429229  0.012960352         1657 
 1984000   0.46224116   -7.6931588    343.97141  0.014447724  0.012950414         1662 
 1985000   0.45269604   -7.6944183    343.74908  0.014431112  0.012940484         1707 
 1986000   0.45186596   -7.6871209    343.81612  0.014426658  0.012930552         1664 
 1987000   0.46704385   -7.6851541    343.87089  0.014421695  0.012920641         1673 
 1988000   0.46673811   -7.6915258    343.53371  0.014400306  0.012910742         1598 
 1989000   0.45656702   -7.6956749    343.12734  0.014376041   0.01290084         1614 
 1990000   0.45874084   -7.6852755    344.04364  0.014407188  0.012890952         1624 
 1991000   0.45990171   -7.6736596    343.03425  0.014357703  0.012881078         1630 
 1992000   0.45897213   -7.6920826    343.51237  0.014370497  0.012871204         1631 
 1993000    0.4660551   -7.6877683    343.46182  0.014361173  0.012861347         1667 
 1994000   0.45482715    -7.688666    343.85512  0.014370408  0.012851502         1624 
 1995000   0.45524832   -7.6815885     343.2816  0.014339248  0.012841668         1627 
 1996000   0.44770253   -7.6881972     344.1493  0.014368291  0.012831831         1660 
 1997000   0.45194081   -7.6970188    343.48589  0.014333412  0.012822006         1596 
 1998000   0.45526479   -7.6924357    343.67659  0.014334192  0.012812189         1684 
 1999000   0.45060877   -7.6912014    343.00031  0.014298829  0.012802377         1645 
 2000000   0.45375834   -7.7051969    344.18376   0.01434099  0.012792588         1685 
 2001000   0.45906194   -7.6756628    342.98736  0.014283998  0.012782797         1615 
 2002000    0.4585967   -7.7010893    343.26035  0.014288226  0.012773018         1675 
 2003000   0.45725027   -7.6970011    342.99787  0.014270173  0.012763241         1617 
 2004000   0.45103283   -7.7002727    343.57046  0.014286862  0.012753474         1695 
 2005000    0.4549404   -7.6972908    343.32818  0.014269667  0.012743717         1695 
 2006000     0.454618   -7.6910834    343.61786  0.014274587  0.012733974         1657 
 2007000   0.43867802   -7.7058585    343.28967  0.014253848   0.01272423         1665 
 2008000   0.45140969   -7.7032614    343.71647  0.014264462  0.012714493         1695 
 2009000   0.45379158   -7.6875961    343.84072  0.014262515  0.012704766         1697 
 2010000   0.45430266   -7.6913006    343.21177  0.014229344  0.012695051         1649 
 2011000   0.45321785   -7.7074428    343.68284  0.014241788  0.012685343         1680 
 2012000   0.47171496   -7.6922279     342.8306  0.014199412  0.012675647         1655 
Loop time of 4311.65 on 48 procs for 2000000 steps with 4000 atoms

Performance: 80154.915 tau/day, 463.859 timesteps/s
99.4% CPU use with 48 MPI tasks x no OpenMP threads

MPI task timing breakdown:
Section |  min time  |  avg time  |  max time  |%varavg| %total
---------------------------------------------------------------
Pair    | 267.77     | 286.84     | 302.88     |  50.3 |  6.65
Neigh   | 26.873     | 27.353     | 27.936     |   4.9 |  0.63
Comm    | 239.06     | 255.93     | 280.29     |  63.2 |  5.94
Output  | 4.4702     | 4.4719     | 4.5008     |   0.2 |  0.10
Modify  | 3671.5     | 3687.6     | 3706.6     |  16.1 | 85.53
Other   |            | 49.49      |            |       |  1.15

Nlocal:        83.3333 ave          91 max          77 min
Histogram: 3 4 6 9 4 10 3 6 1 2
Nghost:        1794.85 ave        1828 max        1770 min
Histogram: 3 4 6 5 10 12 7 0 0 1
Neighs:        10970.4 ave       12216 max        9969 min
Histogram: 4 7 6 4 7 6 5 5 1 3
FullNghs:      21939.4 ave       24002 max       20046 min
Histogram: 3 3 4 11 5 4 9 5 1 3

Total # of neighbors = 1053089
Ave neighs/atom = 263.27225
Neighbor list builds = 107912
Dangerous builds = 0

#clear
#
#next RN
#
#jump SELF
Total wall time: 1:11:54
