
units lj                  # Use reduced LJ style units
atom_style atomic         # Uncharged point particles
atom_modify map hash      # Needed for indexing of clusters etc
                          # Used to be able to find where atoms are in relation to each other.

lattice fcc 1.0 spacing 1 1 1
Lattice spacing in x,y,z = 1.5874011 1.5874011 1.5874011
region box block 0 10 0 10 0 10 units lattice
create_box 2 box
Created orthogonal box = (0.0000000 0.0000000 0.0000000) to (15.874011 15.874011 15.874011)
  3 by 4 by 4 MPI processor grid
create_atoms 1 box
Created 4000 atoms
  using lattice units in orthogonal box = (0.0000000 0.0000000 0.0000000) to (15.874011 15.874011 15.874011)
  create_atoms CPU = 0.018 seconds
set type 1 type/fraction 2 0.07 78393
Setting atom values ...
  309 settings made for type/fraction
mass 1 1.0
mass 2 1.0
pair_style lj/cut  3.5
pair_modify tail  yes
pair_coeff 1  1  1.0  1.0   # Intearaction between 1 and 1 set with epsilon = 1 and sigma = 1
pair_coeff 1  2  1.5  0.8
pair_coeff 2  2  0.5  0.88

write_data data.0
System init for write_data ...
Neighbor list info ...
  update every 1 steps, delay 10 steps, check yes
  max neighbors/atom: 2000, page size: 100000
  master list distance cutoff = 3.8
  ghost atom cutoff = 3.8
  binsize = 1.9, bins = 9 9 9
  1 neighbor lists, perpetual/occasional/extra = 1 0 0
  (1) pair lj/cut, perpetual
      attributes: half, newton on
      pair build: half/bin/atomonly/newton
      stencil: half/bin/3d
      bin: standard
WARNING: Not all mixed pair coeffs generated from mixing. Use write_data with 'pair ij' option to store all pair coeffs. (../write_data.cpp:312)


#############################
#   M E L T   S Y S T E M   #
#############################

velocity all create 2.4 9580093 mom yes dist gaussian # Assign velocities
                                                    # Temperature 2.4, random number seed, zero linear momentum
                                                                                # Gaussian distribution

timestep 0.002   # simulation timestep
thermo 1000       # output thermodynamic data every 1000 steps bf 100

# Define a fix  in this case with index 1 applied to all
# particles in the simulation. This fix is for simulations
# in the anisotropic NPT ensemble. Note that we use the MTK
# correction.
fix 1 all npt temp 2.4 2.4 0.1 iso 5.68 5.68 0.5 mtk yes tchain 5 pchain 5 # Use NPT ensemble
                                                                         # Set temperature and pressure and damping
                                                                         # Numbers of thermostats in chain and in barostat
run 10000          # run for 10000 steps
Per MPI rank memory allocation (min/avg/max) = 3.642 | 3.644 | 3.648 Mbytes
Step Temp E_pair E_mol TotEng Press Volume 
       0          2.4   -7.8774228            0   -4.2783228   -2.8368304         4000 
    1000    2.4116978   -4.5428861            0   -0.9262438    5.6068157    4952.7319 
    2000    2.4108596   -4.5522314            0  -0.93684615     5.768428    4925.4594 
    3000    2.3964219   -4.5521117            0  -0.95837751     5.766423    4918.3016 
    4000    2.3616381    -4.588969            0   -1.0473975    5.7779042    4904.8291 
    5000    2.3960343   -4.5742477            0  -0.98109474    5.7753549    4912.5909 
    6000    2.4001765   -4.5586183            0   -0.9592537    6.1179852    4871.6182 
    7000    2.3620536   -4.5216505            0  -0.97945593     6.127536    4891.7266 
    8000    2.3833031   -4.4593406            0  -0.88527977    5.7445862    4986.8118 
    9000     2.435852   -4.5290813            0  -0.87621677    5.6676218    4955.4672 
   10000    2.4120823   -4.5034075            0  -0.88618861    5.4588963     5001.896 
Loop time of 2.14522 on 48 procs for 10000 steps with 4000 atoms

Performance: 805510.103 tau/day, 4661.517 timesteps/s
99.7% CPU use with 48 MPI tasks x no OpenMP threads

MPI task timing breakdown:
Section |  min time  |  avg time  |  max time  |%varavg| %total
---------------------------------------------------------------
Pair    | 0.8983     | 0.95       | 1.0911     |   3.6 | 44.28
Neigh   | 0.18825    | 0.19599    | 0.22671    |   1.7 |  9.14
Comm    | 0.60552    | 0.74612    | 0.82387    |   5.5 | 34.78
Output  | 0.00024465 | 0.00024986 | 0.00031372 |   0.0 |  0.01
Modify  | 0.18818    | 0.2384     | 0.29294    |   7.0 | 11.11
Other   |            | 0.01447    |            |       |  0.67

Nlocal:        83.3333 ave          91 max          73 min
Histogram: 1 1 4 7 3 6 10 10 3 3
Nghost:        1413.50 ave        1437 max        1392 min
Histogram: 6 4 2 3 8 7 8 6 3 1
Neighs:        7614.52 ave        8588 max        6343 min
Histogram: 1 2 0 7 8 10 8 2 7 3

Total # of neighbors = 365497
Ave neighs/atom = 91.374250
Neighbor list builds = 903
Dangerous builds = 190

# Equilibrate just above the melting temperature to avoid step fn in T

fix 1 all npt temp 1.25 1.25 0.1 iso 5.68 5.68 0.5 mtk yes tchain 5 pchain 5
run 2000
Per MPI rank memory allocation (min/avg/max) = 3.643 | 3.645 | 3.648 Mbytes
Step Temp E_pair E_mol TotEng Press Volume 
   10000    2.4120823   -4.5034075            0  -0.88618861    5.4588963     5001.896 
   11000    1.2655961   -6.0995997            0   -4.2016801    5.6246378    4086.9342 
   12000    1.2619088   -6.0981851            0   -4.2057951    5.7213962    4080.1692 
Loop time of 0.472165 on 48 procs for 2000 steps with 4000 atoms

Performance: 731948.250 tau/day, 4235.812 timesteps/s
99.6% CPU use with 48 MPI tasks x no OpenMP threads

MPI task timing breakdown:
Section |  min time  |  avg time  |  max time  |%varavg| %total
---------------------------------------------------------------
Pair    | 0.20661    | 0.22111    | 0.23673    |   1.6 | 46.83
Neigh   | 0.030539   | 0.03246    | 0.03621    |   0.6 |  6.87
Comm    | 0.13893    | 0.16302    | 0.17693    |   2.4 | 34.53
Output  | 5.1619e-05 | 5.3018e-05 | 6.7162e-05 |   0.0 |  0.01
Modify  | 0.04245    | 0.05097    | 0.061784   |   2.4 | 10.80
Other   |            | 0.004555   |            |       |  0.96

Nlocal:        83.3333 ave          89 max          73 min
Histogram: 1 0 0 2 3 12 14 6 5 5
Nghost:        1625.69 ave        1650 max        1610 min
Histogram: 5 7 5 9 5 8 3 3 1 2
Neighs:        9346.73 ave       10399 max        8269 min
Histogram: 1 1 3 13 7 8 8 3 1 3

Total # of neighbors = 448643
Ave neighs/atom = 112.16075
Neighbor list builds = 141
Dangerous builds = 16

#############################
# L I N E A R  Q U E N C H  #
#############################

# Define solid atoms. This closely follows ten Wolde  Ruiz-Montero and Frenkel  Faraday Discuss  1996  104  93-110
# Compute components of the per-atom q6 vector
compute q6 all orientorder/atom degrees 1 6 components 6 nnn NULL cutoff 1.3 # compute the Q6 parameter.
                                                                             # Use all neighbours within 1.3 unit cell.

# get number of connections
compute coord_number all coord/atom orientorder q6 0.5

# An atom is solid if it has 8 or more connections (of a possible 14)
variable is_solid atom c_coord_number>=8
group solid dynamic all var is_solid    # Must be dynamic to update
dynamic group solid defined

# do clustering
compute cluster solid cluster/atom 1.3 # Create a cluster where all atoms within are solid and max 1.3 units from another member

# define chunks one chunk per cluster
compute clus_chunks solid chunk/atom c_cluster nchunk every compress yes  # Says which atoms are in which chunk

# count the size of each chunk
compute size_chunks solid property/chunk clus_chunks count


# Find the maximum entry in the vector of chunk sizes
variable max_n equal max(c_size_chunks)


# Thermo style which includes this variable
# thermo_style custom step temp pe vol v_max_n

thermo ${N}  # Print the thermo information every 100 steps
thermo 1000  

# Reset the npt fix at a lower temperature (below freezing)
fix 1  all npt temp  ${temp} ${temp}  0.1  iso  5.68  5.68  0.5  mtk yes tchain  5  pchain  5
fix 1  all npt temp  0.45 ${temp}  0.1  iso  5.68  5.68  0.5  mtk yes tchain  5  pchain  5
fix 1  all npt temp  0.45 0.45  0.1  iso  5.68  5.68  0.5  mtk yes tchain  5  pchain  5

dump dmp2 all dcd ${N} traj.dcd
dump dmp2 all dcd 1000 traj.dcd


compute msd all msd com yes
variable twopoint equal c_msd[4]/6/(step*dt+1.0e-6)
fix 9 all vector 10 c_msd[4]
variable fit equal slope(f_9)/6/(10*dt)
thermo_style custom step temp pe c_msd[4] v_twopoint v_fit v_max_n

fix 1 all npt temp 1.25 ${temp} 0.1 iso 5.68 5.68 0.5 mtk yes tchain 5 pchain 5
fix 1 all npt temp 1.25 0.45 0.1 iso 5.68 5.68 0.5 mtk yes tchain 5 pchain 5
run 2000000 # 5000000  # Run for this many steps
Neighbor list info ...
  update every 1 steps, delay 10 steps, check yes
  max neighbors/atom: 2000, page size: 100000
  master list distance cutoff = 3.8
  ghost atom cutoff = 3.8
  binsize = 1.9, bins = 9 9 9
  4 neighbor lists, perpetual/occasional/extra = 1 3 0
  (1) pair lj/cut, perpetual
      attributes: half, newton on
      pair build: half/bin/atomonly/newton
      stencil: half/bin/3d
      bin: standard
  (2) compute orientorder/atom, occasional
      attributes: full, newton on
      pair build: full/bin/atomonly
      stencil: full/bin/3d
      bin: standard
  (3) compute coord/atom, occasional
      attributes: full, newton on
      pair build: full/bin/atomonly
      stencil: full/bin/3d
      bin: standard
  (4) compute cluster/atom, occasional
      attributes: full, newton on
      pair build: full/bin/atomonly
      stencil: full/bin/3d
      bin: standard
Per MPI rank memory allocation (min/avg/max) = 9.746 | 9.751 | 9.757 Mbytes
Step Temp PotEng c_msd[4] v_twopoint v_fit v_max_n 
   12000    1.2619088   -6.0981851 2.1950055e-30 1.5243093e-32 8.3333333e+20            4 
   13000    1.2475129   -6.1073671    0.5599841 0.0035896415  0.045736597            3 
   14000    1.2602908   -6.0854205    1.1360236 0.0067620452  0.046278019            2 
   15000    1.2293367   -6.1461924    1.7443545 0.0096908583  0.047701463            5 
   16000    1.2433687   -6.0911314    2.3386564  0.012180502  0.049137626            7 
   17000    1.2768544   -6.1025035    2.8746638  0.014091489  0.048780773            3 
   18000    1.2403991   -6.1439915    3.4197134  0.015832006  0.048094564            2 
   19000    1.2210621   -6.1219265    4.0269301  0.017661974  0.047943482            3 
   20000    1.2439089   -6.1270527    4.5897292  0.019123871   0.04791381            2 
   21000    1.2490923   -6.0964843    5.1596427  0.020474772  0.047832241            1 
   22000    1.2266152   -6.0984434    5.7093311  0.021626254  0.047690349            6 
   23000    1.2298498    -6.096131     6.324979   0.02291659  0.047674631            5 
   24000    1.2731368   -6.1362649    6.8515009  0.023789933  0.047724419            3 
   25000     1.261462   -6.0880889    7.3709489  0.024569829  0.047560072            2 
   26000    1.2530119   -6.1036838    7.8069626  0.025022316  0.047145609            2 
   27000     1.255418    -6.138176    8.3876798    0.0258879  0.046847353            4 
   28000    1.2482284   -6.1306774    8.9541078   0.02664913  0.046719261           12 
   29000    1.2497407   -6.1063359    9.5142587  0.027339824  0.046587207            2 
   30000    1.2557241   -6.1081179    9.9406242  0.027612845  0.046430812            2 
   31000    1.2406862   -6.0971377    10.405501  0.027971775  0.046145845            2 
   32000    1.2605387   -6.1495621    10.891617  0.028363585  0.045821733            4 
   33000    1.2212078   -6.1502265    11.504666  0.029052186  0.045596806            3 
   34000    1.2641869   -6.1205386     12.06638  0.029574459  0.045476624            3 
   35000    1.2477297   -6.1309066     12.62599  0.030061881  0.045365272            2 
   36000    1.2609017   -6.1410456    13.186128  0.030523445  0.045338867            5 
   37000    1.2170745   -6.1392919    13.767854  0.031008679  0.045317645            4 
   38000    1.2211586   -6.1266665    14.309362  0.031380178  0.045320102            2 
   39000    1.2260265   -6.1193993    14.798906  0.031621594  0.045324342            3 
   40000    1.2578068   -6.1331105    15.337714  0.031953571  0.045320191            2 
   41000    1.2236475   -6.1566105    15.947945  0.032414522  0.045319332            2 
   42000    1.2449067   -6.0922356    16.549801  0.032836907     0.045334            1 
   43000     1.224517   -6.1090639    16.969716  0.032887046  0.045324853            2 
   44000    1.2230583   -6.1404706    17.549532  0.033237749  0.045279511            2 
   45000    1.2282962   -6.1399429    18.022671  0.033375316  0.045252296            3 
   46000    1.2381508   -6.1170409    18.716776  0.033907202  0.045263299            2 
   47000    1.2062097   -6.1453118    19.252028  0.034134801  0.045304707            1 
   48000    1.2654545   -6.1423275    19.899748  0.034548173  0.045357774            4 
   49000    1.2485557   -6.1611232    20.553139  0.034954318  0.045416003            2 
   50000    1.2386836   -6.1776579    21.090266  0.035150443  0.045489515            3 
   51000     1.225823   -6.1542582    21.648888  0.035373999   0.04558965            2 
   52000     1.238326   -6.1685262     22.27367  0.035694984  0.045685686            2 
   53000    1.2381138   -6.1182758    22.852168  0.035931081  0.045750958            2 
   54000    1.2140968   -6.1407765    23.379171  0.036078967  0.045813955            2 
   55000    1.2665848   -6.1327509    24.092588   0.03650392  0.045871981            2 
   56000    1.2302665   -6.1818026    24.509763  0.036472861   0.04594075            3 
   57000    1.2354512   -6.1186846    25.093866  0.036686939  0.045995145            2 
   58000     1.236024   -6.0933231    25.601803    0.0367842  0.046047201            3 
   59000     1.207963   -6.1491686    26.218072  0.037031175  0.046085654            3 
   60000    1.2260799   -6.1185483    26.926424   0.03739781  0.046136573            2 
   61000     1.221449   -6.1702549    27.253745  0.037231891  0.046176678            3 
   62000    1.2204311   -6.1707712    27.674454  0.037196846  0.046182911            4 
   63000    1.2120046   -6.1493942    28.211129  0.037316308  0.046172015            3 
   64000    1.2008654   -6.1287704    28.838246  0.037549799   0.04616485            2 
   65000    1.2357676   -6.1292343    29.142755  0.037362506  0.046148551            8 
   66000    1.2416869   -6.1248554     29.58774  0.037358257  0.046105195            3 
   67000     1.262688    -6.122307    30.316483  0.037707068  0.046063745            1 
   68000    1.2311611   -6.1710536    30.621805  0.037526722   0.04601107            2 
   69000    1.2152098   -6.1784112    31.134508  0.037602062  0.045949973            5 
   70000    1.2064943   -6.1274856    31.570537  0.037583972  0.045889131            5 
   71000    1.2322411   -6.1710683    32.007398  0.037567368  0.045816288            4 
   72000    1.2113547   -6.1769584    32.534055  0.037655156  0.045740998            5 
   73000    1.2159482   -6.1433221    33.012514  0.037685518  0.045658908            3 
   74000    1.2050479   -6.1410802    33.383591  0.037594134  0.045572107            3 
   75000    1.2072331   -6.1421715    33.993343  0.037770381  0.045482288            4 
   76000     1.214364   -6.1019778    34.377087  0.037694174   0.04539148            3 
   77000    1.1997098   -6.1144881    34.888146  0.037757733  0.045299339            2 
   78000    1.2153576   -6.1609824    35.153993  0.037557685  0.045205939            3 
   79000    1.2533837   -6.1769831    35.798177  0.037761789  0.045110199            2 
   80000     1.239105   -6.1317272    36.255874  0.037766535  0.045027434            1 
   81000    1.2284579   -6.1919035    36.733685  0.037791857  0.044937722            3 
   82000      1.21545   -6.1798614    37.297988  0.037904459   0.04485666            3 
   83000    1.2223618   -6.1373595    37.945098  0.038097488  0.044790891            3 
   84000    1.2131929   -6.1568302    38.373658  0.038069104  0.044728938            2 
   85000    1.2166073   -6.1449253    38.815604  0.038054514  0.044659613            3 
   86000    1.2401283   -6.1275449    39.355481  0.038135155  0.044595638            4 
   87000    1.2466363   -6.1484466    39.944505   0.03826102  0.044543982            1 
   88000    1.2245137   -6.1899236    40.498587  0.038350935  0.044497804            3 
   89000    1.2077187    -6.187767    40.974835   0.03836595  0.044448412            2 
   90000     1.254974   -6.1649558    41.113451   0.03806801  0.044387134            2 
   91000    1.2131944   -6.2234918    41.728456  0.038212872  0.044328136            2 
   92000     1.209724   -6.2259437    42.272083   0.03828993  0.044270728            3 
   93000    1.2180707   -6.1579292     42.84803  0.038394292  0.044215703            3 
   94000    1.2048379   -6.1710797    43.330057  0.038413171   0.04417175            2 
   95000     1.236358   -6.1442751    43.861267  0.038474796  0.044124065            5 
   96000    1.2031813   -6.1581727    44.315663  0.038468457  0.044074429            2 
   97000    1.2298071   -6.1643054    44.908888  0.038581519  0.044028518            3 
   98000    1.2234578   -6.1650095    45.178211  0.038416846  0.043974827            3 
   99000    1.2184907     -6.16737     45.42967  0.038240462  0.043909347           12 
  100000    1.2125134   -6.2104333    45.920282  0.038266901  0.043849534            8 
  101000     1.200361   -6.1553203    46.577561  0.038430331  0.043792313            2 
  102000    1.2010994   -6.1604488    47.241469  0.038595971  0.043750595            3 
  103000    1.2007279   -6.1570022    47.863741  0.038724709  0.043707005            3 
  104000    1.2244878   -6.1703462     48.50286  0.038864471  0.043672106            3 
  105000    1.2087731   -6.1437852    49.099216  0.038967632  0.043640116            2 
  106000    1.2269248   -6.2186014     49.21306  0.038689512  0.043603884            3 
  107000    1.1956323    -6.160107    49.844432  0.038819651  0.043560655            2 
  108000    1.2143573   -6.1723857    50.268501  0.038787423   0.04351771            3 
  109000    1.2512328    -6.178749    50.797929  0.038836337  0.043481129            4 
  110000    1.2094366    -6.187567    51.475579   0.03899665  0.043447282            4 
  111000    1.2150427   -6.1570374    51.826901  0.038909085  0.043415472            6 
  112000    1.1812953   -6.1859775    52.361448   0.03895941  0.043388237            2 
  113000    1.2177155    -6.199953    52.998852  0.039084699  0.043364684            7 
  114000    1.2007949   -6.1894752    53.173513  0.038869527  0.043336415            3 
  115000    1.1933421   -6.2039342    54.128038  0.039223216  0.043311342            2 
  116000    1.1997824   -6.1189599    54.344614  0.039040671  0.043288575            1 
  117000    1.2187428   -6.1736372    54.903922  0.039105357  0.043258798            1 
  118000    1.2013195   -6.2023181     54.96508  0.038817147  0.043225404            4 
  119000    1.2237211   -6.2045675    55.458996  0.038836832  0.043188782            5 
  120000    1.1879798   -6.1906429     55.97055  0.038868438  0.043149585            2 
  121000    1.2072233   -6.1309719    56.199277  0.038704736  0.043103315            4 
  122000    1.2125667   -6.1735809    56.611581  0.038669112  0.043053632            3 
  123000    1.2148252   -6.1839109    57.341722  0.038849405  0.043010012            1 
  124000    1.2122503   -6.2045172    57.991776  0.038972967    0.0429755            3 
  125000    1.2313051   -6.2042435    58.389969  0.038926646  0.042947028            3 
  126000    1.1928883   -6.1692762    59.203265  0.039155598  0.042921545            3 
  127000    1.2058605   -6.1566208     59.83856  0.039264147  0.042903346            2 
  128000    1.1857454   -6.1922515    60.381519  0.039310885  0.042886562            2 
  129000    1.1984578   -6.1996351    60.783115  0.039265578  0.042866591            4 
  130000    1.1815041   -6.1936494    61.291012   0.03928911  0.042845546            3 
  131000    1.2095339   -6.2191948    61.749546  0.039280881  0.042827191            2 
  132000    1.2277267   -6.1846248    61.966169  0.039120056  0.042806372            4 
  133000    1.2126607     -6.20081    62.341949  0.039061371    0.0427782            3 
  134000    1.1913228   -6.2002011     63.05725  0.039214707  0.042753812            3 
  135000    1.2016701   -6.1895734    63.354492  0.039107711   0.04272691            6 
  136000    1.2014106   -6.2212317    64.013404  0.039223899   0.04270223            3 
  137000    1.2096423   -6.2074023    64.521793  0.039246833  0.042682058            7 
  138000    1.2046986   -6.2135366    65.005046  0.039254255  0.042659571            2 
  139000    1.1911543    -6.194363    65.736537  0.039410393  0.042641925            2 
  140000    1.1563187   -6.1699294    65.942078  0.039251237  0.042619079            3 
  141000    1.1988694   -6.1768459    66.122882  0.039079718  0.042597443            1 
  142000    1.2115322   -6.1806161    67.015568  0.039328385  0.042575457            2 
  143000    1.2215142   -6.2176282    67.149553  0.039131441  0.042549178            3 
  144000    1.1976498   -6.2042487    67.460563  0.039039677  0.042518663            2 
  145000     1.200613   -6.2299337    68.028794  0.039097008  0.042486167            4 
  146000    1.2071589   -6.2218358    68.119306  0.038880882  0.042451689            3 
  147000    1.2032074   -6.2349114    68.981462  0.039105137  0.042418718            1 
  148000    1.1762252   -6.2189048    69.371706  0.039060645  0.042388575            2 
  149000     1.177563   -6.1855452    69.810767  0.039044053   0.04236172            4 
  150000    1.1891417   -6.2043884    70.474473  0.039152485  0.042333024            2 
  151000    1.1727577   -6.1906745    70.771378  0.039057052  0.042310615            7 
  152000    1.1878411   -6.2258279    71.383602  0.039135747   0.04228703            1 
  153000    1.1733338   -6.1976368    71.937442  0.039181613  0.042265107            4 
  154000    1.1818197   -6.2215155    72.237894  0.039089769   0.04224266            2 
  155000    1.1899245   -6.2406243    73.179632  0.039343888   0.04222035            2 
  156000    1.1919221   -6.2026135    73.613026  0.039323197  0.042203478            3 
  157000    1.2050355   -6.1948367    74.251971  0.039411874   0.04218756            4 
  158000    1.1989562    -6.255171    74.615732  0.039354289    0.0421721            4 
  159000    1.1948804   -6.2606678    74.936989  0.039275151  0.042156135            4 
  160000    1.2229881   -6.2080912    75.534782  0.039341032  0.042137955            3 
  161000    1.1905604   -6.2210204    75.959026  0.039316266  0.042118034            2 
  162000    1.2051021   -6.2586008    76.530964   0.03936778  0.042099359            5 
  163000    1.1921053   -6.1928848    76.942569  0.039336692  0.042084838            3 
  164000    1.1764687   -6.2007494    77.915373  0.039591145  0.042075221            6 
  165000    1.2059972   -6.2113009    77.950191  0.039368783  0.042061336            2 
  166000    1.1974185   -6.2075687    78.486442  0.039400824  0.042044918            2 
  167000    1.1962956   -6.2250305    79.078029  0.039460094  0.042029252            3 
  168000    1.1788257   -6.1608913    79.543929  0.039456314  0.042014107            9 
  169000    1.1671772   -6.2119574    79.946049  0.039421129   0.04199672            3 
  170000    1.1816257   -6.1979244    80.157125  0.039292708  0.041979986            3 
  171000    1.1928745   -6.2464395     80.58633  0.039272091  0.041957782            3 
  172000    1.2023414   -6.1834564    81.026852  0.039257196  0.041934101            2 
  173000    1.1710981   -6.2182059     81.70647  0.039357644  0.041912675            2 
  174000    1.1951911   -6.2208232    82.118364  0.039328718  0.041894353            2 
  175000    1.1622784   -6.2277765     82.79081  0.039424195   0.04187642            4 
  176000     1.185985   -6.2148494    82.902647  0.039253147   0.04185992            2 
  177000    1.1806403   -6.2908709    83.217984  0.039179842   0.04183819            2 
  178000    1.1888117   -6.2061926     83.49516  0.039089494  0.041813799            2 
  179000    1.2064046   -6.2246089    84.313142  0.039251928  0.041791077            1 
  180000    1.1751829   -6.2206554    85.027394  0.039364534  0.041771577            2 
  181000    1.1801647   -6.2562154    85.461304  0.039346825  0.041752379            2 
  182000     1.137846   -6.2354915    85.827117   0.03929813  0.041735266            4 
  183000    1.1874765   -6.2415617    85.822176  0.039081136  0.041715669            4 
  184000    1.1817688   -6.2809311    86.174532  0.039028321  0.041694893            2 
  185000     1.197968   -6.1902002    87.087424  0.039228569  0.041671775            1 
  186000    1.1915023   -6.2184325    87.347065  0.039133989  0.041649475            3 
  187000    1.1875199    -6.257978    87.548608  0.039014531  0.041626805            3 
  188000    1.1571555   -6.2008489    88.387008  0.039178638  0.041602667            1 
  189000    1.2132591   -6.2035393    88.754693  0.039133462  0.041581175            5 
  190000    1.1787272   -6.2255572    89.357615  0.039191936  0.041562761            2 
  191000    1.1910476   -6.2116136    89.883822  0.039216327  0.041543694            5 
  192000    1.1902181   -6.2346385    90.177728  0.039139639  0.041523158            3 
  193000    1.1696983   -6.2311452    90.708613  0.039166068  0.041501956            2 
  194000    1.1747632   -6.2645194    90.885583  0.039040199  0.041481596            2 
  195000    1.1862278    -6.214145    91.364247   0.03904455   0.04146095            3 
  196000    1.1708312   -6.2017593    92.138048   0.03917434  0.041441529            5 
  197000    1.1751725    -6.274763     92.60972  0.039175009  0.041421515            2 
  198000    1.1661112   -6.2626928    92.649031    0.0389937  0.041399302            2 
  199000    1.1848023   -6.2554495    92.881939  0.038895284   0.04137646            3 
  200000    1.1898007   -6.2358111    93.323668  0.038884862  0.041350262            4 
  201000      1.16332   -6.2563623    94.031629  0.038984921  0.041324286            1 
  202000    1.1779528   -6.2405935    94.562199  0.039010808   0.04130136            3 
  203000    1.1742271   -6.2069024    95.357127  0.039144962  0.041280566            3 
  204000    1.1829248   -6.2657262    95.901023  0.039175254  0.041261334            2 
  205000    1.1267346   -6.2629247    96.148881  0.039084911    0.0412413            3 
  206000    1.1692201   -6.2451426    96.809658  0.039162483  0.041222546            2 
  207000     1.192218   -6.2254979    97.357934  0.039194015  0.041205089            1 
  208000    1.1742178   -6.2766618    97.633872  0.039116135  0.041188736            3 
  209000    1.1692901   -6.2307033    98.399395  0.039234209  0.041172571            4 
  210000    1.1731226   -6.2632731    98.457268  0.039070344  0.041154001            4 
  211000    1.1637977   -6.2577076    98.732532  0.038993891  0.041135402            4 
  212000    1.1683777   -6.2562811    99.273996  0.039022797  0.041115347            3 
  213000    1.1544533   -6.2629964    99.349195  0.038869012  0.041094696            2 
  214000    1.1776105   -6.2207941    100.64115  0.039190479  0.041076246            2 
  215000    1.1476758   -6.2313601    100.90703   0.03911125  0.041059436            2 
  216000    1.1978498   -6.2389913    101.24234  0.039059546  0.041042462            2 
  217000     1.186716    -6.239777    101.57725  0.039008161   0.04102381            5 
  218000    1.1866126   -6.2852795    101.88864  0.038948256  0.041004053            4 
  219000    1.1640378   -6.2351693    102.94209  0.039171266  0.040984792            2 
  220000    1.1520458   -6.2893892    102.83638  0.038953174  0.040968177            4 
  221000    1.1448005   -6.2454626    103.23598  0.038927595   0.04095162            3 
  222000    1.1641589    -6.243412     104.0891  0.039072484  0.040933288            3 
  223000    1.1432656   -6.2465424    104.48332  0.039044589  0.040914382            2 
  224000    1.1529328   -6.2349783    104.84558  0.039005051  0.040896767            5 
  225000    1.1699358   -6.2618852    105.31368  0.039005068  0.040878557            4 
  226000    1.1735779   -6.2582959    105.33694  0.038841055   0.04085912            4 
  227000    1.1747225   -6.2241894    105.98578  0.038908143  0.040838602            3 
  228000    1.1583315   -6.2544377    106.04335  0.038758533  0.040818292            3 
  229000    1.1703302   -6.2768332    106.39044  0.038715589  0.040795271            4 
  230000    1.1473894   -6.2745487    107.20238  0.038841441  0.040771229            4 
  231000    1.1983438   -6.2362218    107.30529  0.038710423  0.040749402            4 
  232000    1.1834574   -6.2798559     107.7958  0.038719754  0.040725039            4 
  233000     1.166919    -6.299048    107.75134  0.038537674  0.040699967            2 
  234000    1.1719293   -6.2720322    108.16548   0.03852047  0.040674619            9 
  235000    1.1808445   -6.3162253    108.82159  0.038589218  0.040649336            3 
  236000    1.1532962   -6.2763914    108.85535  0.038437622   0.04062434            2 
  237000     1.153746     -6.27374    109.17277  0.038387049   0.04059919            2 
  238000    1.1544007   -6.2593339    110.28465  0.038615072  0.040574815            4 
  239000    1.1559053   -6.2550903    110.74452  0.038613849  0.040549853            4 
  240000    1.1539345   -6.2407505     111.5842  0.038744515  0.040527058            2 
  241000     1.141655   -6.2489587    111.86884  0.038682172   0.04050525            2 
  242000    1.1985069   -6.2408012    111.98711  0.038563054  0.040483606            5 
  243000    1.1673142   -6.2456315    112.68192  0.038642633  0.040461952            2 
  244000     1.169746   -6.2940107     113.3404  0.038709154  0.040441502            5 
  245000    1.1809819   -6.2378416    113.80134  0.038707939   0.04042144            1 
  246000    1.1544278   -6.2825227    113.61905  0.038488837  0.040400043            3 
  247000     1.181522   -6.2673914    114.10144  0.038495764  0.040378582            3 
  248000    1.1558217   -6.2835289    115.14756  0.038692057  0.040358007            3 
  249000    1.1591372   -6.2568496    115.51698    0.0386603  0.040338338            6 
  250000    1.1793373   -6.2715721    115.71253  0.038570842  0.040317821            9 
  251000    1.1409729   -6.2794616    116.33018  0.038622238  0.040297694            3 
  252000    1.1395679   -6.2870478    116.37303  0.038483145  0.040276389            2 
  253000     1.158655   -6.2773315     116.9853  0.038532706  0.040253882            7 
  254000    1.1703312   -6.2726856    117.34041  0.038497509  0.040233506            2 
  255000    1.1467768   -6.2729443    117.81794  0.038502595  0.040212381            3 
  256000    1.1363161   -6.3324738      117.952  0.038395834  0.040189867            2 
  257000    1.1379177   -6.2884386    118.53541  0.038435607  0.040167963            2 
  258000    1.1596057   -6.2537073    119.33029  0.038543377  0.040148304            4 
  259000    1.1534548   -6.2570485    119.38496  0.038412148  0.040130043            2 
  260000    1.1392438   -6.2849913    120.01419  0.038466087  0.040111405            2 
  261000    1.1432759   -6.2716796    120.53776  0.038485876  0.040091961            2 
  262000    1.1567247   -6.2590346    120.38087   0.03828908  0.040069813            5 
  263000     1.138275   -6.2950419    120.40683   0.03815172   0.04004662            2 
  264000     1.175816   -6.2962827    121.44668  0.038335441  0.040023161            2 
  265000    1.1702652   -6.2689113    121.65824  0.038257307  0.040000247            3 
  266000     1.160412   -6.2836821     122.0701  0.038242511  0.039976008            5 
  267000    1.1501951   -6.2553105     123.0178  0.038395069  0.039954299            3 
  268000    1.1402614   -6.2981832    123.54888  0.038416941  0.039933854            4 
  269000    1.1521386   -6.2676726    123.72565  0.038328888  0.039915775            5 
  270000    1.1667733   -6.2865681    124.21043  0.038336553  0.039896937            2 
  271000    1.1503234   -6.3009683    124.66851   0.03833595  0.039877822            3 
  272000    1.1661724   -6.2670862    125.20083  0.038358098  0.039858951            2 
  273000    1.1323725   -6.2652502    125.56009  0.038327255  0.039839595            4 
  274000    1.1475175   -6.2580533    126.32761  0.038420806  0.039821777            3 
  275000    1.1646449   -6.2570246    126.42495   0.03831059  0.039804763            3 
  276000     1.144189   -6.2621354    127.12626  0.038383531  0.039787178            4 
  277000     1.158289    -6.296634    127.49702  0.038356505  0.039770326            3 
  278000    1.1408334   -6.2726956    128.24935  0.038444049  0.039755239            3 
  279000    1.1384296   -6.2854947    128.23515  0.038302016  0.039738473            3 
  280000     1.104009   -6.2945966    128.83305   0.03834317  0.039721214            3 
  281000    1.1283543   -6.3171276    128.67937   0.03816114  0.039703957            3 
  282000    1.1413024   -6.2692352    129.05449   0.03813667  0.039684168            2 
  283000    1.1705081   -6.2646549    129.65196  0.038177845  0.039664269            3 
  284000     1.131653    -6.310129    129.85246  0.038102249  0.039643307            3 
  285000    1.1425749   -6.2853239    130.16037  0.038058587  0.039622075            5 
  286000    1.1184634   -6.3345198    130.61687  0.038058528  0.039601712            4 
  287000    1.1443486   -6.2931664    130.90441  0.038009412  0.039580777            4 
  288000    1.1427776   -6.2991371    131.59184  0.038076341  0.039559584            4 
  289000     1.121147   -6.2719802    132.00865  0.038064777  0.039537798            2 
  290000    1.1229463   -6.3147901    132.03805  0.037941968  0.039516878            3 
  291000      1.13314   -6.3166414    133.03073  0.038095855  0.039497624            4 
  292000       1.1477   -6.3178683    133.32539  0.038049485  0.039478022            4 
  293000     1.140147   -6.3007224    133.96794  0.038102372     0.039459            2 
  294000    1.1350067   -6.3036613    134.70353  0.038181274  0.039442562            2 
  295000    1.1485581   -6.3341982    135.03609  0.038145788  0.039426144           10 
  296000    1.1305784   -6.2992387    135.40756  0.038121498  0.039410007            1 
  297000    1.1212915   -6.2841148    135.17815  0.037928774  0.039392395            8 
  298000    1.1411268   -6.3163128    136.07786  0.038053092  0.039373814            2 
  299000    1.1471128   -6.3151194    136.51331  0.038047187  0.039355752            4 
  300000    1.1256659   -6.2856078    136.93445  0.038037347   0.03933689            4 
  301000    1.1426689   -6.3309445    137.19975  0.037984428   0.03931926            6 
  302000    1.1351519   -6.3104776    137.70826  0.037998968  0.039302303            4 
  303000    1.1077197   -6.3399472    138.00061  0.037953962  0.039284272            1 
  304000    1.1487377   -6.3170813    137.98205  0.037824026  0.039264644            3 
  305000    1.1214668   -6.3021321    138.72961  0.037904264   0.03924443            4 
  306000    1.1885451   -6.3124873      138.996  0.037852941  0.039224769            5 
  307000    1.1493006   -6.2943912    139.37084  0.037831391  0.039204737            3 
  308000    1.1295239   -6.3063529    139.39218  0.037714335  0.039182632            6 
  309000    1.1364234   -6.3376794    139.58054   0.03764308  0.039159899            4 
  310000    1.1402725   -6.3121844    139.87958  0.037602038  0.039136014            2 
  311000    1.1607728   -6.2949535    140.78523  0.037723802  0.039113151            2 
  312000    1.1531064   -6.3430679    140.50577   0.03752825  0.039089001            2 
  313000    1.1411503    -6.302095    140.57433  0.037426606  0.039064366            3 
  314000     1.125964   -6.2908673    141.65507  0.037594233  0.039039839            2 
  315000    1.1226244   -6.3243792    141.59806  0.037459805  0.039016811            2 
  316000    1.1418128   -6.3006053    142.14393  0.037485212  0.038993473            3 
  317000     1.147979   -6.3172694    142.39438  0.037432803  0.038969422            3 
  318000    1.1143219   -6.3223752    143.43172  0.037586928  0.038947586            4 
  319000    1.1417088   -6.3580461     143.9135  0.037594958   0.03892624            4 
  320000    1.1093701   -6.3531245       144.43  0.037611978  0.038905962            2 
  321000    1.1316102   -6.2519254     145.1555  0.037683151  0.038886828            3 
  322000     1.135111   -6.3089841    145.09185  0.037549651   0.03886643            5 
  323000    1.1236295   -6.3515592     145.2288  0.037468732  0.038845385            5 
  324000    1.1191035   -6.3117117    145.98558  0.037547732  0.038825529            7 
  325000    1.1445034   -6.3508911    146.16552  0.037478339  0.038806308            2 
  326000    1.1410514   -6.3572489    146.72206  0.037505638  0.038786936            3 
  327000    1.1300508   -6.3423125    147.67826  0.037634623  0.038767985            2 
  328000    1.1121102   -6.3153902    147.62901  0.037507369  0.038749031            2 
  329000    1.1276372   -6.3182304    148.09807  0.037512175  0.038729809            2 
  330000    1.1439754   -6.3259367    148.29173  0.037447406  0.038709536            6 
  331000    1.1107469   -6.3360217    148.74411  0.037448165  0.038689892            9 
  332000    1.1201464   -6.2953159      149.243  0.037460593  0.038669338            9 
  333000    1.1178331   -6.3449517    149.33283  0.037370577  0.038648954            2 
  334000    1.1326912     -6.34939    149.97138  0.037418009  0.038627574            4 
  335000    1.1030151   -6.3479393    149.35748  0.037153602  0.038605866            8 
  336000    1.1403245   -6.3209743    150.39764  0.037301002  0.038583586            2 
  337000    1.1166543   -6.3212699    150.76294  0.037280649  0.038561981            2 
  338000    1.0775505   -6.3255347    150.46007  0.037095678  0.038538429            2 
  339000    1.1485841   -6.3260695    151.17169  0.037161183  0.038515397            2 
  340000    1.1354821   -6.3090015    151.67685  0.037175698  0.038492715            2 
  341000    1.1002955   -6.3424802    151.87509  0.037115125  0.038471382            5 
  342000    1.1526453   -6.3940509    152.78593   0.03722854  0.038450738            3 
  343000     1.132581   -6.3342787    153.30862  0.037246992  0.038430189            3 
  344000    1.1052988   -6.3246562    153.68424  0.037229709  0.038410475            3 
  345000    1.1240005    -6.341587    153.63994  0.037111098  0.038390568            2 
  346000    1.1061986   -6.3579329    154.33422  0.037171054  0.038370204            3 
  347000    1.1074454    -6.357854    154.06477  0.036999224  0.038348585            3 
  348000    1.1161399   -6.3427501    154.74815  0.037056549  0.038325989            5 
  349000    1.0928418    -6.366454    154.65428  0.036927957  0.038303243            4 
  350000    1.1181775   -6.3246575    155.75992  0.037085695  0.038279932            2 
  351000    1.1135107    -6.342875    155.00989  0.036801967  0.038256273            3 
  352000    1.1098085   -6.3487587    155.68993  0.036858413  0.038233465            6 
  353000    1.1222697   -6.3287818    157.01095  0.037065852  0.038211317            6 
  354000    1.1199363   -6.3209071    156.90472  0.036936139   0.03818993            5 
  355000    1.1256931   -6.3735815    157.27635  0.036919332  0.038168591            3 
  356000    1.1199784   -6.3484715    157.14227  0.036784238  0.038146819            4 
  357000    1.1090595   -6.3315666    158.27505  0.036945623  0.038124714            3 
  358000    1.1171137   -6.3764613    158.28907  0.036845687  0.038102298            4 
  359000    1.1030009   -6.3477516    158.31427  0.036748902  0.038079692            2 
  360000    1.1071327   -6.3819867    158.70034  0.036736189   0.03805543            2 
  361000    1.1253788   -6.3438937    158.62762   0.03661764  0.038030387            4 
  362000    1.1036033   -6.3320586    159.06514  0.036617205  0.038005704            2 
  363000    1.1210704   -6.3334897    159.70919  0.036664186  0.037981376            8 
  364000    1.1175222   -6.3646645    160.51189  0.036747227  0.037957123            5 
  365000    1.1324263   -6.3525077    160.43952  0.036630028  0.037933344            3 
  366000    1.1156203   -6.3549435    160.45648  0.036533807  0.037909961            2 
  367000    1.0972854   -6.3916746    161.25126  0.036614728  0.037887252            5 
  368000    1.1330844   -6.3790464    161.86634  0.036654515  0.037864458            3 
  369000     1.141903   -6.3611368    161.95277  0.036574699  0.037841302            2 
  370000    1.0948026   -6.3661371    162.59579  0.036620672  0.037818639            4 
  371000    1.1162175   -6.3442712    162.89029  0.036588115  0.037796306            7 
  372000    1.1214766     -6.37116     163.9445  0.036725919  0.037775073            3 
  373000    1.1102891   -6.3447671    163.93367  0.036625037  0.037753659            4 
  374000    1.1106862   -6.3688139    164.76586  0.036712536  0.037733172            3 
  375000    1.1106149   -6.3588127    165.10148  0.036689218  0.037712789            4 
  376000    1.0987009   -6.3457248    165.20832   0.03661532  0.037692042            4 
  377000    1.1191284   -6.3568496    165.08322  0.036490544   0.03767047            4 
  378000    1.0843355   -6.3479693    165.11861  0.036401809  0.037647691            3 
  379000    1.1049847   -6.3869296    165.68748  0.036430844   0.03762521            3 
  380000    1.0842884   -6.3748868    166.46471   0.03650542  0.037603714            4 
  381000    1.0989793   -6.3672134    167.65121  0.036669119    0.0375826            3 
  382000     1.112198   -6.3872513    167.46621  0.036532768  0.037561733            2 
  383000    1.0879652   -6.3805566    167.58182  0.036462536  0.037540821            2 
  384000    1.1110448   -6.3848558    168.11058   0.03648233  0.037520039            5 
  385000    1.1079108   -6.3755092    168.31838   0.03643255  0.037499668            3 
  386000    1.0873656   -6.3614449    169.30955  0.036552147  0.037480204            6 
  387000    1.0962882   -6.3419448    169.31834  0.036459591  0.037460478            6 
  388000    1.0627604   -6.3729861    169.74499  0.036457257  0.037440209            2 
  389000    1.1011618   -6.3867633    170.03292  0.036425217  0.037419722            2 
  390000    1.0895602   -6.3768861    170.29641  0.036388121  0.037399995            3 
  391000    1.0919759   -6.3687438    170.56059  0.036351362  0.037380424            5 
  392000    1.0939765   -6.3711382    171.59132  0.036477747  0.037361088            4 
  393000    1.1293668   -6.4479968    171.51657  0.036369078  0.037342353            4 
  394000    1.1009407   -6.3723533    172.71288  0.036529797  0.037324024            2 
  395000    1.1151298   -6.3552521    172.74382  0.036443844  0.037305561            2 
  396000    1.0881707   -6.3843237    172.92984   0.03639096  0.037286763            2 
  397000    1.0747264    -6.375467    173.33983  0.036385354  0.037267605            3 
  398000    1.0898424   -6.3811519    173.57367  0.036342895  0.037248171            5 
  399000    1.0873167   -6.3651738    174.50829  0.036447011  0.037229007            8 
  400000    1.0852643   -6.3879209    174.02195  0.036254574  0.037210589            4 
  401000    1.0673046   -6.3844046    174.31355  0.036224761  0.037191113            3 
  402000    1.0983248   -6.3484542    174.49357  0.036171967  0.037171199            3 
  403000    1.0923146   -6.3941588    175.34253  0.036257761  0.037151644            3 
  404000    1.0846451   -6.3866896    175.43202  0.036186472  0.037132503            3 
  405000    1.0741302   -6.3686975    175.94486  0.036202645  0.037112889            2 
  406000    1.0973751   -6.3937494    176.68903   0.03626622  0.037094316            6 
  407000    1.0947683   -6.4339732    176.79006  0.036197802  0.037075786            4 
  408000    1.1105024   -6.3942573    177.08498  0.036169318  0.037057152            6 
  409000    1.0953149   -6.3899123    178.08276  0.036284182   0.03703952            3 
  410000    1.1148595   -6.3764938    178.46429  0.036273229  0.037021149            2 
  411000    1.0670729    -6.403016    178.90223  0.036273768  0.037002419            3 
  412000    1.0794856   -6.4100365    178.23375  0.036050516  0.036984767            3 
  413000    1.0763356   -6.4126089    179.74384  0.036267926  0.036966602            6 
  414000    1.0754784   -6.4263531    179.54726  0.036140752  0.036948748            6 
  415000    1.0756793   -6.4215502    179.69706  0.036083748  0.036931183            2 
  416000    1.0800166    -6.399706    180.27092  0.036111963  0.036913521            3 
  417000    1.0850265   -6.4263611    179.43147  0.035857607  0.036894936            2 
  418000    1.1047734   -6.4086415    180.91246  0.036067076  0.036876082            3 
  419000    1.0898554   -6.3986702     181.3177  0.036061596  0.036857376            4 
  420000      1.08563   -6.3655753    180.86974  0.035886854  0.036838647            4 
  421000    1.0849462   -6.4212299    181.16165  0.035859392  0.036818321            8 
  422000    1.0594845   -6.3934059    181.98021  0.035936061  0.036799095            2 
  423000    1.0813009   -6.4297529    181.75788  0.035807306  0.036778919            4 
  424000    1.1055263   -6.3840917    182.55151  0.035878834  0.036758717            3 
  425000    1.0736154   -6.3735961    183.09941  0.035901845  0.036739107            7 
  426000    1.0939039   -6.3786213    183.39849  0.035876074    0.0367196            3 
  427000    1.0850849   -6.4434865    183.29003  0.035770888  0.036700366            6 
  428000    1.0855149   -6.4452247    183.52899  0.035733838  0.036680812           10 
  429000    1.0670052   -6.4403864    184.20281  0.035781431   0.03666056            4 
  430000    1.0730007   -6.4124337    184.48252  0.035752427  0.036641185            3 
  431000    1.0588627   -6.3749155    185.46878  0.035860165  0.036622755            2 
  432000    1.0905236   -6.4198174    185.94442  0.035868908  0.036605336            2 
  433000    1.0770987   -6.4122365     186.3786   0.03586963  0.036588024            4 
  434000    1.0733991   -6.4155811    187.14452  0.035934047  0.036571174            3 
  435000    1.0839432   -6.3900834    187.11295  0.035845392  0.036554998           10 
  436000    1.1038185   -6.4091985     187.5849  0.035853384    0.0365385            3 
  437000    1.1032124   -6.4129702    187.96167  0.035843187  0.036522106            3 
  438000    1.0520833   -6.4047771    189.09195  0.035976399  0.036505471            2 
  439000     1.085784   -6.4080174    188.62939  0.035806642  0.036488561            2 
  440000    1.0803188   -6.3923216    189.44414  0.035879571  0.036472186            4 
  441000    1.0956005   -6.3976656    190.04732  0.035912192  0.036455871            5 
  442000    1.0823037    -6.425283    190.23282  0.035865916  0.036439355            4 
  443000    1.0881593   -6.4422585     189.5811  0.035662359  0.036422156            4 
  444000    1.0916471   -6.4246299    190.24393  0.035706443  0.036404871            6 
  445000     1.072889   -6.4200148    190.52101  0.035678092   0.03638748            5 
  446000     1.060876   -6.4249491    191.26793  0.035737656  0.036369158            6 
  447000    1.0539834   -6.4238529    190.94714  0.035597901  0.036350582            5 
  448000    1.0676801    -6.407135     191.1676  0.035559449  0.036331893            5 
  449000    1.0378132    -6.406185    191.18934  0.035484287  0.036312641            4 
  450000    1.0706721   -6.4051376     191.3259  0.035430722  0.036292866            5 
  451000    1.0803827   -6.3877497    192.04436  0.035484916  0.036273124            4 
  452000    1.0644478   -6.3994445    192.26967  0.035447949  0.036253177            2 
  453000    1.0625806   -6.4094764    192.39519  0.035392788  0.036233266            4 
  454000    1.0931975   -6.4271217    192.00344  0.035242921  0.036212759            3 
  455000    1.0669699    -6.391943    193.51432  0.035442183  0.036192796            4 
  456000    1.0621812   -6.4239747    193.67106  0.035393103  0.036172161            4 
  457000    1.0731288   -6.4061377    192.99444  0.035192276  0.036151092            8 
  458000    1.0890121   -6.4542598    193.28018  0.035167427  0.036129881            4 
  459000    1.1002956    -6.423292     193.6388  0.035155919  0.036108497            3 
  460000    1.0639909   -6.4235707    194.58442  0.035250801   0.03608754            1 
  461000    1.0760938   -6.3937556    194.12174  0.035090698  0.036065828            3 
  462000    1.0638581   -6.4023773    194.92581  0.035159779  0.036044387            3 
  463000    1.0500597   -6.4270576    195.03928  0.035104262  0.036023551            5 
  464000    1.0666823    -6.411524     194.9162  0.035006501  0.036002263           10 
  465000    1.0766188   -6.3958005     195.9283  0.035112599  0.035980634            7 
  466000    1.0595717   -6.4504818    196.26144  0.035096825  0.035958733            2 
  467000    1.0551423   -6.4513053    196.34412  0.035036423  0.035937157            4 
  468000    1.0525538   -6.4397824    196.29135  0.034952164  0.035915547            5 
  469000    1.0756789   -6.4333797    197.22731  0.035043942  0.035893971            3 
  470000    1.0635168   -6.4202534    196.89229   0.03490998  0.035872204            5 
  471000     1.068327   -6.4346843     197.7483  0.034987314  0.035850427            4 
  472000     1.066328   -6.4086062    197.79121  0.034920764  0.035829214            3 
  473000    1.0772967   -6.4493016    197.98845  0.034881686  0.035808643            5 
  474000    1.0647473     -6.44112    198.44135   0.03488772  0.035786838            3 
  475000    1.0411149   -6.4581451    199.27043  0.034959724  0.035765594            5 
  476000    1.0909929   -6.4464188    199.33899  0.034898283  0.035745263            7 
  477000    1.0380654   -6.4519998    200.01949  0.034944005  0.035724462            4 
  478000    1.0598805   -6.4891522    199.96556    0.0348615  0.035703468            7 
  479000    1.0755151   -6.4359349    200.64905  0.034907629  0.035682427            5 
  480000    1.0782223   -6.4565711    200.47975  0.034805512  0.035661745            4 
  481000     1.065403   -6.4763829    199.92236  0.034636584  0.035640778            4 
  482000    1.0551822   -6.4684811    201.32789  0.034807726  0.035620194            5 
  483000    1.0749352   -6.4366896     202.2361  0.034892357  0.035599971            9 
  484000    1.0540754   -6.4936864    201.78445  0.034742502  0.035580064            2 
  485000    1.0630815   -6.4359881    202.84756  0.034853532  0.035559918           10 
  486000    1.0393492   -6.4402975    203.22954  0.034847314  0.035540219            2 
  487000    1.0566529   -6.4221323    204.37771   0.03497223   0.03552125            7 
  488000    1.0663552   -6.4512293    204.13137  0.034858499  0.035502364            3 
  489000    1.0455224   -6.4507391     204.5843    0.0348644  0.035483902            5 
  490000    1.0547989   -6.4728984    204.38927   0.03476008  0.035464998            3 
  491000    1.0580235   -6.4425209    204.78561  0.034756554  0.035445837            3 
  492000    1.0893753   -6.4555629    205.43609  0.034796086  0.035426463            1 
  493000    1.0598445   -6.4512311     205.3448  0.034710074   0.03540781            6 
  494000    1.0562954   -6.4706607    205.65518   0.03469217  0.035388943            4 
  495000     1.064935   -6.4348137    205.93475  0.034669149  0.035370513            4 
  496000    1.0515285   -6.4425583    206.47024   0.03468922  0.035351719            6 
  497000     1.057597   -6.4517755    207.20953  0.034743381  0.035332728            4 
  498000    1.0496138   -6.4612712    206.99973  0.034638508  0.035314133            5 
  499000    1.0418525   -6.4299427    208.14079  0.034759651  0.035295418            2 
  500000    1.0839621   -6.4897227    207.73363  0.034622272   0.03527703            6 
  501000    1.0650853   -6.4436335    207.56691  0.034525433  0.035257707            7 
  502000    1.0545187   -6.4383707    208.53053  0.034616622  0.035238687            5 
  503000    1.0567307   -6.4812354     208.1025  0.034476889  0.035219514            3 
  504000    1.0618408   -6.4634102    209.01609  0.034559538  0.035200362            2 
  505000    1.0707867   -6.4637977    209.23867  0.034527834  0.035181134            6 
  506000    1.0298144   -6.4483097    209.42188  0.034489769  0.035162166            5 
  507000    1.0492388   -6.4345571    209.85317  0.034492631  0.035142716            4 
  508000    1.0304259    -6.465631    210.46337  0.034524831  0.035123952            3 
  509000    1.0610562   -6.4789842    210.77078  0.034507331  0.035105545            4 
  510000    1.0458512   -6.4814965    211.08405  0.034490857  0.035087117            4 
  511000    1.0466559   -6.4502276    211.22292  0.034446008  0.035069065            2 
  512000    1.0473333   -6.4782188    212.29628  0.034553431  0.035051006            5 
  513000    1.0374587   -6.4661138    212.67567  0.034547705  0.035033588            3 
  514000    1.0475624   -6.4470842     213.2283  0.034570087   0.03501627            6 
  515000    1.0368896    -6.418309    213.02309  0.034469756  0.034999396            4 
  516000    1.0297931   -6.4586208    213.52923  0.034484695  0.034982088            3 
  517000    1.0341619   -6.4338211    213.68465  0.034443045  0.034964609            6 
  518000    1.0716312   -6.5022147    213.75358  0.034387641  0.034947042            3 
  519000     1.048182   -6.4608051    214.12373  0.034380818   0.03492928            4 
  520000    1.0400887   -6.4577198    214.98034  0.034451978  0.034911303            3 
  521000    1.0527902   -6.4572332     215.0595  0.034398513  0.034894075            4 
  522000     1.052891   -6.4779164     215.1893  0.034353337  0.034876448            4 
  523000    1.0389696   -6.4879268    215.38522  0.034318869  0.034858753            4 
  524000    1.0508487   -6.4463842    216.04803  0.034358784   0.03484124            3 
  525000    1.0419977   -6.4713807    216.24345  0.034324358  0.034823556            2 
  526000    1.0443156   -6.4855394    215.98024  0.034217402  0.034806264           10 
  527000    1.0385131   -6.4952282    216.67585  0.034262468  0.034788411            2 
  528000    1.0312188   -6.4724312    216.73083  0.034206255  0.034770379            5 
  529000    1.0610832   -6.5017088    216.85219  0.034160711  0.034752546            4 
  530000    1.0498913   -6.5372259    217.19554  0.034150242  0.034734339            3 
  531000    1.0422847   -6.5025729    217.55675  0.034142616  0.034716417            5 
  532000    1.0315749   -6.4799717    218.42764  0.034214856  0.034698616            4 
  533000    1.0533345   -6.4760607    219.51312  0.034320375  0.034681772            3 
  534000    1.0176062   -6.4568394    219.67574  0.034281482  0.034665218            4 
  535000    1.0395925   -6.4994528    219.65102  0.034213555  0.034648884            3 
  536000    1.0425575   -6.4942217    219.96745  0.034198919  0.034632506            3 
  537000     1.046067    -6.488829    220.59726  0.034232971  0.034616292            5 
  538000    1.0397125   -6.5020225    221.53424  0.034314473  0.034600205            6 
  539000    1.0260892   -6.4582913    221.84005  0.034298091   0.03458424            3 
  540000    1.0374498   -6.4818405    221.93343  0.034248986  0.034568575            4 
  541000    1.0481109   -6.4752047    222.88836  0.034332772  0.034553667            3 
  542000    1.0304115   -6.4536894    223.36181  0.034342222  0.034538791            5 
  543000    1.0447817   -6.4612007    223.57279  0.034311356   0.03452339            4 
  544000    1.0232593   -6.4982186    223.21767  0.034193884  0.034507733            7 
  545000    1.0354661   -6.5133159    223.10937  0.034114582  0.034492008            6 
  546000    1.0430599   -6.4919573    223.41226   0.03409833  0.034475828            2 
  547000    1.0390793    -6.525032    223.00319  0.033973673  0.034459438            3 
  548000    1.0499671   -6.5134719    224.66414  0.034164255  0.034443246            8 
  549000    1.0378266   -6.4383424    224.31198  0.034048569  0.034426947            7 
  550000    1.0412471   -6.4997144    224.67781  0.034042092  0.034410353            2 
  551000    1.0313499   -6.5036658    224.64171  0.033974851  0.034393572            4 
  552000    1.0151944   -6.5138593    224.11075  0.033833145  0.034375866            6 
  553000    1.0234484   -6.5246226    223.95671   0.03374875  0.034357943            4 
  554000     1.044505   -6.4984815    224.86556  0.033824543   0.03434021            5 
  555000    1.0328912   -6.4955572    226.28397  0.033976572  0.034322695            3 
  556000    1.0480832   -6.5058265    226.20015    0.0339029  0.034305283            3 
  557000    1.0125619   -6.4988388     225.8218  0.033785427  0.034287803            5 
  558000    1.0227244   -6.4754985    225.74322  0.033713145  0.034269999            5 
  559000    1.0122417   -6.4697915    226.19172  0.033719696  0.034252346            6 
  560000    1.0291287   -6.5247556    226.45374  0.033698474  0.034234683            4 
  561000    1.0197828   -6.4834091    227.18774  0.033747436  0.034217145            3 
  562000    1.0374663   -6.5014564     228.1503  0.033830116  0.034199559            8 
  563000    1.0150579   -6.5175213    227.35108  0.033651728  0.034182083            2 
  564000    1.0152084   -6.4959162    229.27876  0.033876885   0.03416482            6 
  565000    1.0227395   -6.4751366    229.60033  0.033864355  0.034147976            3 
  566000    1.0487366   -6.5149378    228.08026  0.033580721  0.034130764            7 
  567000    1.0292228   -6.5122189    228.50688  0.033584198  0.034113585            4 
  568000    1.0302558   -6.5128499    229.23127  0.033631348  0.034096505            3 
  569000    1.0208779   -6.5472251    229.56859  0.033621644  0.034079461            9 
  570000    1.0297783   -6.5363382    230.05246    0.0336334  0.034062249            2 
  571000    1.0252949   -6.4947277     230.6092   0.03365575  0.034044971            5 
  572000    1.0325072   -6.5171698    230.44508  0.033573001  0.034028302            5 
  573000    1.0324536   -6.5262753     230.8426  0.033572222  0.034011458            8 
  574000    1.0184951   -6.4895615    231.52685  0.033613074  0.033994727            6 
  575000    1.0282314   -6.4957557    231.77268  0.033590243  0.033977477            3 
  576000    1.0213536   -6.5186398    231.29797  0.033463248  0.033959906            4 
  577000    1.0398022   -6.5048627    232.57411   0.03358956  0.033942731            3 
  578000    1.0127174   -6.4828512    232.65973  0.033543791  0.033925968            6 
  579000    1.0381353   -6.5162645    233.43945  0.033598078  0.033909152            4 
  580000    1.0104024   -6.5265674    233.22472  0.033509299  0.033892383            7 
  581000    1.0106724    -6.514635    233.51997  0.033493971  0.033876079            7 
  582000    1.0294087   -6.4912913    234.14864  0.033526437   0.03385937            3 
  583000    1.0574444   -6.4746395    234.22555  0.033479924  0.033842537            2 
  584000    1.0280935   -6.4525814     235.2679  0.033571333  0.033826035            5 
  585000    1.0202213   -6.5037078    234.96966  0.033471462  0.033809498            5 
  586000    1.0108968   -6.5386267    235.36866  0.033471084  0.033792185            3 
  587000    1.0228498   -6.4918728    235.23646  0.033395295  0.033774692            2 
  588000    1.0236513   -6.4945489    235.18806  0.033331642  0.033757431            5 
  589000    1.0249475   -6.5598808    235.10109  0.033262746  0.033739962            4 
  590000    1.0125592   -6.5368437    235.33577  0.033239516  0.033722478            5 
  591000    1.0064264   -6.5484473    236.28161  0.033316639  0.033705256            2 
  592000     1.042802   -6.5059901    237.19578  0.033389046  0.033688927            3 
  593000   0.99975519    -6.557244    237.32624  0.033351074  0.033672306            4 
  594000     1.030748   -6.5199642    237.34981  0.033298234  0.033655232            5 
  595000     1.013645   -6.5099798    237.64199  0.033283192  0.033638009            5 
  596000    1.0039143   -6.5325436    237.59663  0.033221005  0.033620801           12 
  597000    1.0246524   -6.5208113    237.87901  0.033204776  0.033602952            4 
  598000    1.0167188   -6.5676621    237.75286  0.033131669  0.033585596            8 
  599000    1.0220335   -6.5506859    238.67656  0.033204864  0.033568307            4 
  600000    1.0007997   -6.5698479     238.6446  0.033145084  0.033551383            3 
  601000    1.0138853   -6.5312511    238.76836  0.033107093  0.033534388            3 
  602000    1.0262116   -6.5027625    239.31221  0.033127383  0.033517551            5 
  603000    1.0050655   -6.5410612    239.59398  0.033111385  0.033500314            3 
  604000     1.026474   -6.4995412    240.09237  0.033125327  0.033483172            4 
  605000    1.0122643   -6.5226809    240.40836  0.033114099  0.033466391            4 
  606000   0.99969998   -6.5177268    242.04683  0.033284768  0.033449976            9 
  607000    1.0088285   -6.5198929    241.55967  0.033163052  0.033433444            5 
  608000    1.0090814   -6.5395803    242.08513  0.033180528  0.033417206            8 
  609000    1.0029073   -6.5710281    241.84912  0.033093749  0.033400472            4 
  610000   0.99117742   -6.5555965    242.14169  0.033079466  0.033384484            3 
  611000    1.0032421   -6.5445975    242.67932  0.033098653  0.033368537            3 
  612000    1.0057711   -6.5171488    243.64078  0.033175488  0.033352851            5 
  613000   0.99698921   -6.5454884    243.38437   0.03308651  0.033336948            3 
  614000    1.0064592   -6.5439353    243.54903  0.033054972  0.033321026            3 
  615000    1.0125756   -6.5395112    243.98434  0.033060209   0.03330468            2 
  616000    1.0139829   -6.5822444    243.40356   0.03292797  0.033288531            3 
  617000    1.0064887   -6.5322145    244.12775  0.032972413  0.033272262            5 
  618000    1.0324887   -6.5211721     244.6919  0.032995132  0.033255997            6 
  619000    1.0127617   -6.5802275    244.76468  0.032951626  0.033240085            4 
  620000    0.9997411   -6.5400747    244.75434  0.032897089  0.033223756            3 
  621000    1.0226453   -6.5432896    245.62986  0.032961603  0.033207236            6 
  622000    1.0143876   -6.5498242    245.37102   0.03287393   0.03319079            6 
  623000   0.98338495   -6.5727943    245.12156  0.032787796  0.033174146           11 
  624000     1.007285   -6.5646533    245.85427  0.032833102  0.033158007            3 
  625000    1.0059848   -6.5182985     246.1236   0.03281648  0.033141848            9 
  626000    1.0076291   -6.5439942    247.35009  0.032927328   0.03312561            2 
  627000   0.99591255   -6.5628176    247.25785  0.032862554  0.033109045            5 
  628000    1.0031815   -6.5762536    247.26332   0.03281095  0.033092613            5 
  629000   0.99613052   -6.5553524    246.91701  0.032712906  0.033076001            4 
  630000   0.99506536   -6.5717836    247.85659  0.032785264  0.033059951            3 
  631000    1.0119811   -6.5621916    247.11019  0.032634732  0.033043651            7 
  632000    1.0099365   -6.5721875    247.96527  0.032695842  0.033027178            5 
  633000    1.0010838   -6.5421365    248.86157  0.032762187  0.033010918            4 
  634000    1.0125703   -6.5804787    249.23878  0.032760092  0.032994671            6 
  635000   0.98123755   -6.5621621    248.87053  0.032660175  0.032978347            3 
  636000    1.0209037   -6.5380833    248.39776  0.032546877   0.03296193            3 
  637000    1.0240895   -6.6000472    249.83079  0.032683253  0.032945051            5 
  638000   0.99430005   -6.5676117    249.36591  0.032571305  0.032928335            5 
  639000   0.99283192   -6.5587885    249.12113   0.03248841  0.032911222            5 
  640000    1.0124972   -6.5509332    250.35137  0.032597835  0.032894337           10 
  641000    1.0030931    -6.541263    249.84845  0.032481598  0.032877646            6 
  642000   0.97618391   -6.5372829    250.49121  0.032514435  0.032861244           10 
  643000   0.99898773    -6.556359    251.22108   0.03255846   0.03284464            7 
  644000   0.99867214    -6.574368    250.80336  0.032453851  0.032828194            6 
  645000   0.98643056   -6.5516669    251.07923  0.032439177  0.032811362            8 
  646000   0.99340162    -6.572593    251.77166  0.032478285  0.032794516            8 
  647000   0.98530862   -6.5603634    251.81675  0.032433893  0.032777731            6 
  648000    0.9975876   -6.5808894    252.16722  0.032428912  0.032760788            3 
  649000    1.0104604   -6.5723625     251.9248  0.032347817  0.032743491            3 
  650000    1.0023763   -6.5758152    252.36923   0.03235503  0.032725816            3 
  651000   0.97116321   -6.5625104    251.52882  0.032197749   0.03270816            4 
  652000    1.0172546    -6.561032    252.62085   0.03228794  0.032690657            2 
  653000   0.99093979   -6.5756651    252.46145  0.032218154  0.032673298           10 
  654000    1.0052325   -6.5426513    253.37392  0.032285158  0.032656027           12 
  655000    0.9856804   -6.5920224    253.33537  0.032230963  0.032638546            5 
  656000   0.98010126   -6.5819122    253.74893  0.032234366  0.032621211            4 
  657000    0.9873783   -6.5714781    253.63742   0.03217116  0.032603634            9 
  658000   0.99295147    -6.572629    254.47187  0.032227948  0.032585878            3 
  659000   0.99612131   -6.5753556    254.03133  0.032123334  0.032568253            4 
  660000   0.99456966   -6.6064236    254.72612  0.032162388  0.032550536            6 
  661000    1.0029685    -6.588229    254.48953  0.032083904  0.032532611            4 
  662000   0.98650178   -6.6148874    255.02151  0.032102405   0.03251494            6 
  663000   0.98050921   -6.5816982    254.65309  0.032007678  0.032497164            7 
  664000     1.019753   -6.5822802    255.29973  0.032040629  0.032479079            3 
  665000    1.0019248   -6.5805248    255.63252  0.032034151  0.032461203            7 
  666000   0.98071244   -6.5931593    255.91934   0.03202194  0.032443543            7 
  667000   0.99881765   -6.5615164      256.684  0.032069465  0.032425849            4 
  668000   0.97655924   -6.6027667    255.64728  0.031892126  0.032407635            6 
  669000   0.97405438   -6.5853796     256.1267  0.031904173  0.032389686            4 
  670000   0.98352277   -6.5724122    257.58931  0.032038471  0.032372009            4 
  671000   0.97537915   -6.5980242    257.39878  0.031967062  0.032354486            3 
  672000   0.96881711   -6.5808145    257.67968  0.031954326  0.032336765            5 
  673000    1.0030662   -6.6084167     257.8415  0.031926882  0.032318917            8 
  674000   0.98206815   -6.5942563    258.03717  0.031903705  0.032301213            4 
  675000   0.98632022   -6.5731796    258.30708  0.031889762  0.032283652            4 
  676000   0.98157672   -6.5953073    258.60317  0.031879089  0.032265944            5 
  677000   0.98854461   -6.5881126    258.53851  0.031824041  0.032248241            6 
  678000   0.98537144   -6.5351386    259.00842   0.03183486  0.032230628            5 
  679000   0.98028105   -6.6245327    258.73367  0.031754255  0.032212803           10 
  680000   0.98198985   -6.5909386    258.50639  0.031679705   0.03219437            6 
  681000   0.95344176   -6.6270332    259.40265   0.03174286  0.032175919            8 
  682000   0.95971565   -6.5952254    259.49324  0.031707385  0.032157574            6 
  683000   0.98935552   -6.5921466    260.10501  0.031735604  0.032139255            5 
  684000   0.98142232   -6.6114595    259.76612  0.031647919  0.032121158            9 
  685000   0.99446469   -6.5847631    261.52464   0.03181565  0.032102698            3 
  686000    0.9982755   -6.6044125     259.9677  0.031580138  0.032084143           11 
  687000   0.97944564   -6.6265545    259.60438    0.0314901  0.032065283            8 
  688000     1.006711   -6.5736596    260.32898  0.031532096   0.03204657            2 
  689000   0.98198241    -6.567921    260.70664  0.031532008  0.032028006            3 
  690000   0.98243772   -6.6148257    261.10161  0.031534011  0.032009182            6 
  691000   0.97370985   -6.6159413    261.34426  0.031517638    0.0319904            3 
  692000   0.97443342    -6.655086    260.42972  0.031361961  0.031971356            7 
  693000   0.95496236   -6.6201028    261.52554  0.031448478  0.031952267            3 
  694000   0.97731496   -6.5872154    261.70477  0.031424684  0.031933498            4 
  695000   0.98177224   -6.6035555    263.25647  0.031565524  0.031914956           16 
  696000   0.97076448   -6.6061364    262.34697  0.031411275  0.031896607            3 
  697000   0.97267141   -6.6260066    262.74703   0.03141404  0.031878186            2 
  698000   0.99196916    -6.594858    263.38092  0.031444713  0.031860002            6 
  699000   0.95927599   -6.5996074    263.35226  0.031396312   0.03184171            3 
  700000   0.96978489   -6.6461181    263.20865  0.031334363  0.031823075            8 
  701000    0.9877872   -6.6071114    263.04992  0.031270794  0.031804352            6 
  702000   0.96619541   -6.6261306    262.92292  0.031211173  0.031785345            6 
  703000   0.97424839   -6.6141135    263.37546   0.03122042   0.03176604            8 
  704000   0.97345975   -6.6155008    263.73956  0.031219171  0.031746872            6 
  705000   0.97189047   -6.5953818    263.86901   0.03119019  0.031727534            7 
  706000   0.97041647    -6.611405     263.7167  0.031128033  0.031707998            3 
  707000   0.97235117   -6.6172469    264.06674  0.031125264  0.031688549            6 
  708000   0.96387298   -6.6068806    263.64627  0.031031811  0.031669133            3 
  709000   0.96212886   -6.6179664    264.29618  0.031064431  0.031649943            5 
  710000   0.99840507   -6.6363141    264.85336  0.031086076  0.031630823            4 
  711000   0.98512793   -6.5894388    264.40716  0.030990056  0.031611589            5 
  712000   0.99578146   -6.5903811    265.65301  0.031092347  0.031592509            4 
  713000     0.971108   -6.5882715    265.84198  0.031070825  0.031573378            3 
  714000   0.98174445     -6.59947    265.81612   0.03102429  0.031554252            4 
  715000   0.95230217   -6.6306224    265.76599  0.030975057  0.031534868            6 
  716000   0.97352407   -6.6266932    266.08608  0.030969051  0.031515264            3 
  717000   0.99703974   -6.6109285    265.79702  0.030892262  0.031495586            4 
  718000   0.97285338   -6.6388085    266.17473  0.030893074  0.031475711            4 
  719000   0.94993163   -6.6234406    266.85852   0.03092936   0.03145585            4 
  720000     0.960749   -6.6342159    266.84022  0.030884285  0.031436034           13 
  721000   0.96851766   -6.6316355    266.76274  0.030832494   0.03141604            8 
  722000   0.97692754   -6.6135871    266.80377  0.030794525   0.03139598            6 
  723000    0.9599422    -6.634312    266.73202  0.030743663  0.031376207            8 
  724000   0.96959687   -6.5988909    266.93054  0.030724049  0.031356124            3 
  725000   0.95628244     -6.63238    267.38297  0.030733675  0.031336115            4 
  726000   0.97167466   -6.6370994    267.40698  0.030694098  0.031316221            4 
  727000   0.97937461   -6.6155098    268.53158  0.030780786  0.031296335            9 
  728000   0.98135238   -6.6362252    268.64721  0.030751741  0.031276655            4 
  729000   0.97172371   -6.6240622    268.46263  0.030688458  0.031256981           13 
  730000    0.9680906   -6.6224084    268.93766  0.030700646  0.031237106            2 
  731000   0.97979038     -6.63839    268.84942  0.030648588  0.031217338            7 
  732000    0.9581694   -6.6303733    268.73525  0.030593722  0.031197579            4 
  733000   0.95899799   -6.6383778    269.58805  0.030648937  0.031177773            8 
  734000   0.95153692   -6.6112389    269.35951  0.030581234  0.031158017            7 
  735000   0.93632512   -6.6379703    270.32627  0.030649237  0.031138368            4 
  736000   0.95623229   -6.6493237    269.98914  0.030569422  0.031118722            6 
  737000   0.93504159   -6.6386969    270.03421  0.030533041  0.031099328            6 
  738000   0.96275943   -6.6388564    270.57299  0.030552505  0.031079703            3 
  739000   0.95319528   -6.6193671    270.12035  0.030460121  0.031060023            3 
  740000    0.9390076   -6.6434466     270.2448  0.030432973  0.031040048            4 
  741000   0.96162898   -6.6299803    270.44449   0.03041436  0.031019986            6 
  742000     0.961989   -6.6192987     270.8386  0.030417633  0.030999991            8 
  743000   0.95021415   -6.6560632    270.92561  0.030386452  0.030979804            4 
  744000    0.9568791   -6.6488978    270.48878  0.030296682  0.030959737            4 
  745000   0.96640418   -6.6519746    270.84308  0.030295647  0.030939574            3 
  746000   0.95417565   -6.6705698    271.16097  0.030290546  0.030919187            5 
  747000   0.93557669   -6.6541551    270.66019  0.030194131  0.030898527            6 
  748000   0.94079887   -6.6615044    271.75203  0.030275405  0.030878134            3 
  749000   0.93447492   -6.6148339    271.95128  0.030257151  0.030857752            5 
  750000   0.93195152   -6.6498873    271.45571  0.030161746  0.030837192            5 
  751000   0.94418796   -6.6333527    273.01665   0.03029479  0.030816856            7 
  752000   0.95000198   -6.6457381    272.30903  0.030176089  0.030796408            7 
  753000   0.94078983   -6.6782387    272.24239   0.03012864  0.030775992            4 
  754000   0.94646473   -6.6409634    272.48114  0.030115068  0.030755366            6 
  755000   0.95658748   -6.6605479    272.25963  0.030050731  0.030734807            7 
  756000   0.95661109   -6.6466043    272.43924   0.03003078  0.030714071            6 
  757000   0.94707682   -6.6441491    272.53859  0.030002047  0.030693242           11 
  758000   0.92775128   -6.6744771    272.61936  0.029971346  0.030672475           15 
  759000   0.93614714   -6.6420501    273.51805  0.030030528  0.030651719            6 
  760000    0.9412114   -6.6647763    273.80027   0.03002196  0.030630874            6 
  761000   0.93025264   -6.6633444    273.32062  0.029929985  0.030609976            6 
  762000   0.96066136   -6.6317808    273.46411  0.029906399  0.030589245            4 
  763000   0.96721652    -6.668458    274.16919   0.02994421  0.030568475           15 
  764000   0.94630024   -6.6350063    274.22848  0.029911484  0.030547592            7 
  765000    0.9451011   -6.6590967    274.74774  0.029928948  0.030526758            4 
  766000   0.96161813   -6.6840125    273.69834  0.029775712  0.030505972            6 
  767000   0.95642577   -6.6767496    274.68787  0.029844402  0.030485288            5 
  768000    0.9622572   -6.6408477    275.49802  0.029893448  0.030464251            8 
  769000   0.91923982   -6.6982586    274.18033  0.029711782  0.030443008           14 
  770000   0.97702621   -6.6554666    274.78133  0.029738239   0.03042165            7 
  771000   0.95996351   -6.6728735    274.07003  0.029622788  0.030400173            5 
  772000   0.93398329   -6.6966926    273.91227  0.029567386   0.03037875            4 
  773000   0.93338063   -6.6559577    274.98927  0.029645242  0.030357621            4 
  774000   0.94355861   -6.6367267    276.03048  0.029719044  0.030336655            4 
  775000   0.93576294   -6.6963613    275.91625  0.029668414  0.030315727           12 
  776000   0.92654472   -6.6409516    275.96982  0.029635934  0.030294945            5 
  777000   0.95022154   -6.6414653    276.28822  0.029631941  0.030274334            4 
  778000    0.9287225   -6.6409046    277.02548  0.029672823  0.030254047           10 
  779000   0.93606415   -6.6552166    276.48374   0.02957678  0.030233522            6 
  780000   0.93280637   -6.6355769    278.05652  0.029706893  0.030213005            6 
  781000   0.94295621   -6.6601295    277.58134  0.029618154  0.030192894            3 
  782000   0.96352815   -6.6362412    278.29665  0.029656505  0.030172676            3 
  783000   0.92312932   -6.6745174    278.51385  0.029641746  0.030152268           10 
  784000   0.93793057   -6.6528342    278.43648  0.029595715  0.030132028            6 
  785000   0.94103595    -6.648654    278.13572  0.029526085  0.030111769            4 
  786000   0.93479134   -6.6646181    278.03443  0.029477781  0.030091378            5 
  787000    0.9482381   -6.6826239     277.7417  0.029409328  0.030070835            4 
  788000   0.92890404   -6.7202034    277.93286  0.029392223  0.030049995            6 
  789000   0.93856424   -6.7009368    279.02907  0.029470751  0.030029291            7 
  790000   0.92757118   -6.6956517    278.51229  0.029378934  0.030008892           20 
  791000   0.91929139   -6.6527642    279.55009  0.029451126  0.029988645            8 
  792000   0.93281513   -6.6741734    279.30061   0.02938769  0.029968035            4 
  793000   0.94364695    -6.687998    279.91475   0.02941517  0.029947302            6 
  794000   0.91777486   -6.6782257    278.85088  0.029266465  0.029926414           10 
  795000   0.91027956   -6.6612675    279.42916  0.029290269  0.029905556            6 
  796000   0.93422144     -6.69941    278.67159  0.029174162  0.029884853           11 
  797000    0.9335104     -6.69609    279.76554  0.029251938  0.029863994            6 
  798000   0.93176179   -6.6771547    279.06813  0.029142453  0.029842984            6 
  799000   0.94147757   -6.6882892    280.33361  0.029237965  0.029822073            5 
  800000   0.94489452   -6.7061048    278.83639  0.029045457  0.029800843            7 
  801000   0.91978558   -6.6735144    279.64236  0.029093047  0.029779394            6 
  802000   0.96920331   -6.6847154    279.75965  0.029068958  0.029758081            7 
  803000    0.9349656   -6.6902761    280.26319  0.029085013  0.029736615            6 
  804000   0.93530364   -6.6927287    279.96069  0.029017484  0.029715327            4 
  805000   0.94885099   -6.6720343    280.51201   0.02903851  0.029694112           11 
  806000   0.92480057   -6.7233676    280.01381  0.028950973  0.029672883            5 
  807000   0.93561839   -6.6928572    280.57279   0.02897282  0.029651279            7 
  808000   0.91777069   -6.7006245    280.98191  0.028979157    0.0296298            6 
  809000   0.95324454   -6.7060153    280.37407  0.028880724  0.029608191            5 
  810000   0.94490019   -6.6772118    281.71418  0.028982941  0.029587111            8 
  811000   0.91786884   -6.6895236    282.37173  0.029014769  0.029566254           15 
  812000   0.93372152   -6.6912847    282.12562  0.028953779  0.029545509            5 
  813000   0.93308883   -6.7262474    281.79789  0.028884572  0.029524496            5 
  814000   0.92919978   -6.7071324    282.59186  0.028930371   0.02950341            6 
  815000   0.93743734    -6.681824    283.10313   0.02894715  0.029482513            3 
  816000    0.9316087   -6.7056213    282.07081  0.028806251  0.029461468            2 
  817000   0.91115668   -6.6916248    282.96508  0.028862207  0.029440315            5 
  818000   0.92902282   -6.6649827    283.06789  0.028837397  0.029419396            4 
  819000   0.93458347   -6.7319598    282.22623  0.028716548   0.02939838            6 
  820000    0.9259329   -6.7023305    283.36662  0.028797421  0.029377175           12 
  821000   0.92767605   -6.6786035    283.08482  0.028733741  0.029356071           11 
  822000   0.94650441   -6.7003696    283.71018  0.028762183  0.029335001            7 
  823000   0.93257778   -6.7156319    282.23885  0.028578255  0.029313839            4 
  824000   0.92329815   -6.6963533    283.12297  0.028632987  0.029292563            6 
  825000   0.90402912   -6.7084009    282.12886  0.028497864  0.029271249            5 
  826000   0.92688041   -6.6979538    283.33453  0.028585001  0.029249729            5 
  827000   0.93760195   -6.6640186    283.54599  0.028571744  0.029228412            7 
  828000   0.93820411   -6.6826819    283.97797  0.028580714  0.029207117            6 
  829000   0.91026373   -6.7166699    284.10527  0.028559034  0.029185841            6 
  830000   0.92959096    -6.683177    284.55527  0.028569806  0.029164777            7 
  831000   0.92121959   -6.7219135    284.58974  0.028538883   0.02914377           11 
  832000   0.90582556   -6.6931295    284.29502  0.028475062  0.029122853            3 
  833000   0.90229797   -6.7134686    284.34225  0.028445603  0.029101804           12 
  834000   0.90153944   -6.7355818    284.08761  0.028386052  0.029080442            7 
  835000   0.91810005   -6.7019377    284.47989  0.028391207  0.029059186           10 
  836000   0.92117987   -6.7077474    285.12353  0.028421404  0.029037823            4 
  837000   0.93564825   -6.7110982    285.05405  0.028380531  0.029016629            5 
  838000   0.92881399   -6.7227448    286.22533   0.02846314  0.028995406            5 
  839000   0.92740406   -6.7318882    285.14459   0.02832187  0.028974195            8 
  840000   0.92510689   -6.7147797    285.36098  0.028309621  0.028952987            4 
  841000   0.90804592   -6.7113904    285.32632  0.028272525  0.028931782           13 
  842000    0.9165347   -6.7307402    285.92995  0.028298688  0.028910646           11 
  843000   0.92214917   -6.6826186    286.17402  0.028289247  0.028889241            5 
  844000   0.91064857   -6.7085204    286.73805  0.028311419  0.028868046            4 
  845000   0.92057993   -6.7173378    286.04866  0.028209927  0.028846823            5 
  846000   0.92287615   -6.7107679    286.61301  0.028232172    0.0288255            6 
  847000   0.90441074   -6.7267431    286.00346  0.028138869  0.028804046            6 
  848000   0.93453193   -6.6796867    287.56929  0.028259561  0.028783053            4 
  849000    0.8992561   -6.7233033    286.61542  0.028132648  0.028762078            5 
  850000   0.90217088   -6.7346908    287.83865  0.028219475   0.02874112            5 
  851000   0.90210661   -6.7308259    288.33102   0.02823453  0.028720175            6 
  852000   0.91212196   -6.7315779    288.10461  0.028179246  0.028699279            3 
  853000   0.90346782   -6.7469407    287.26146  0.028063839  0.028678272            9 
  854000    0.9209898   -6.7274374    287.24849  0.028029712  0.028657411            7 
  855000   0.90691765   -6.6878418    288.57448  0.028126168  0.028636566            6 
  856000   0.91654807   -6.7686764    287.61267  0.027999676  0.028615839            8 
  857000   0.89861339   -6.6988674    288.63405  0.028066322  0.028595417            4 
  858000   0.90580821   -6.7388288    290.03645  0.028169819   0.02857516            5 
  859000   0.91398428   -6.7070437    289.10287  0.028046456  0.028554993            4 
  860000   0.92002288   -6.7574336    290.57686  0.028156672   0.02853503            8 
  861000   0.91724891   -6.7312421    290.09914  0.028077733  0.028515002            7 
  862000   0.91053458   -6.7648128    289.76799  0.028013146  0.028495053           10 
  863000   0.91157529    -6.759413    289.85383  0.027988975  0.028475021           10 
  864000   0.91616388   -6.7509498    290.37729  0.028007069  0.028454897            3 
  865000   0.89349119   -6.7678933    289.89853  0.027928568   0.02843491            6 
  866000   0.92088097   -6.7440342    291.00334   0.02800263  0.028414863            3 
  867000   0.92163518   -6.7351919    291.49297  0.028017394  0.028395062            4 
  868000   0.89948105   -6.7371222    290.80575  0.027919139  0.028375153            4 
  869000   0.90170045   -6.7334025    292.54456  0.028053756  0.028355341            5 
  870000   0.88504804   -6.7309922    292.32301  0.028000289  0.028335693            5 
  871000   0.89780229   -6.7344475    292.04048   0.02794111   0.02831605            3 
  872000   0.90781711   -6.7465328    292.02534   0.02790762  0.028296511            6 
  873000   0.91023829   -6.7429983    292.11408  0.027884124  0.028276946            6 
  874000   0.89655688    -6.730689    292.87799  0.027925056  0.028257272            5 
  875000   0.90910936   -6.7567503    292.47848  0.027855094  0.028237666            4 
  876000    0.9233426   -6.7603256     292.6162  0.027836397   0.02821802           10 
  877000   0.90492943   -6.7481349    292.97853  0.027839085  0.028198506            5 
  878000    0.9022868   -6.7543974    293.10808  0.027819673  0.028178815            9 
  879000   0.92221255   -6.7606154    293.17855  0.027794705  0.028159279            5 
  880000   0.90563634   -6.7464233    293.07936  0.027753728  0.028139751            3 
  881000    0.8942766   -6.7614886    293.91269  0.027801049  0.028120346            6 
  882000   0.91187953   -6.7429546     294.8634  0.027859354  0.028101067            4 
  883000   0.90454716    -6.750332    294.42321   0.02778626  0.028081996            6 
  884000   0.90831353   -6.7719482    293.88989  0.027704552  0.028062941            6 
  885000   0.93111208     -6.75931    295.00516  0.027778264  0.028043835            6 
  886000   0.91356821   -6.7444888    294.91679  0.027738599  0.028024863            3 
  887000    0.9044639   -6.7694673    295.27713  0.027741181   0.02800607            4 
  888000   0.89764669    -6.776597    294.67704  0.027653626  0.027987197            6 
  889000   0.90751972   -6.7471213    295.98848  0.027745452  0.027968375            7 
  890000   0.89538253   -6.7815326    295.59515  0.027677449  0.027949442            6 
  891000   0.91531544     -6.74598     295.9767  0.027682071  0.027930584            4 
  892000   0.89485792   -6.7786338    296.35695  0.027686561  0.027911778            6 
  893000   0.88527057   -6.7733081    296.39353  0.027658971  0.027892985            5 
  894000   0.89795946   -6.7497674    296.67102  0.027653898  0.027874091            5 
  895000   0.89341263   -6.7452354    296.08909  0.027568816  0.027855152            9 
  896000   0.90914789   -6.7645878    296.45187  0.027571788  0.027836198            5 
  897000   0.89242043   -6.7564693    296.95805  0.027588076  0.027817361            8 
  898000   0.89580341   -6.7707981    296.07205  0.027475134  0.027798457            4 
  899000   0.87594918   -6.7419044    296.47484   0.02748191  0.027779318            7 
  900000   0.88941346   -6.7318911    295.35896  0.027348052  0.027760132            5 
  901000   0.90292109   -6.7438866    296.62216  0.027434532  0.027740684           10 
  902000   0.88270819   -6.7827975    296.69252  0.027410617  0.027721183            7 
  903000    0.8943242   -6.7535407    296.80111  0.027390284  0.027701751            8 
  904000   0.88356602   -6.7711962     297.3915  0.027414408  0.027682284            5 
  905000   0.88964039   -6.7564612    297.12315  0.027359406  0.027662802            8 
  906000   0.88410916   -6.7337555     296.9475  0.027313052  0.027643093           11 
  907000   0.88865741   -6.7951333    296.65231  0.027255817  0.027623507           12 
  908000   0.89941062   -6.7403206    297.06934  0.027264073  0.027604005            6 
  909000   0.89667999   -6.7519548    297.23024   0.02724883  0.027584618           17 
  910000   0.89109065   -6.7535084    297.75132  0.027266604  0.027565181            7 
  911000   0.88001481   -6.7916261    297.90324  0.027250571  0.027545607            8 
  912000   0.87191206   -6.7601418    298.08258  0.027237078  0.027526182            5 
  913000    0.8914117   -6.7900467    297.26615  0.027132726  0.027506866            9 
  914000   0.89559905   -6.8079407    297.54322  0.027128302  0.027487257           15 
  915000   0.90928594    -6.763994     297.6559  0.027108916  0.027467598            9 
  916000   0.88916809   -6.7663042    298.17414  0.027126468  0.027448061            3 
  917000   0.88835644   -6.8034336    297.82513   0.02706517  0.027428539           11 
  918000   0.87751149   -6.7348565    298.35851  0.027084105  0.027409012            4 
  919000   0.89333726   -6.8107711    298.66429  0.027082362  0.027389498            5 
  920000   0.87240999   -6.7830151    298.81652  0.027066713   0.02736989            5 
  921000   0.90806064   -6.8006722    298.80929  0.027036671  0.027350301            7 
  922000   0.89474614    -6.781705    298.79632  0.027006175  0.027330751            7 
  923000   0.89780612   -6.7687416    299.13753  0.027007722  0.027311195            6 
  924000   0.90182869   -6.8077231    298.94425  0.026961061  0.027291732           15 
  925000   0.86912032   -6.7902982    298.74162  0.026913659  0.027272215           16 
  926000   0.88996169   -6.7684268    299.41817   0.02694548  0.027252855            3 
  927000   0.87381077   -6.8026336    299.60275  0.026933006  0.027233579            4 
  928000   0.88272538   -6.7690918    300.34845  0.026970946  0.027214332           10 
  929000    0.8852639   -6.7835543    300.06597  0.026916575  0.027195244            7 
  930000   0.88742195   -6.7724006    299.93718  0.026876092  0.027176161            5 
  931000   0.89269533   -6.8053886    300.10866  0.026862572  0.027157024            3 
  932000   0.86981189   -6.7704625    300.91653  0.026905985  0.027137987            3 
  933000   0.88547514   -6.7706357    300.69002  0.026856915  0.027118864            7 
  934000   0.89209281   -6.8052267    300.78416  0.026836559  0.027099845            8 
  935000   0.89627297   -6.7901871    300.91831  0.026819814  0.027080954           10 
  936000    0.8901965   -6.8094826    301.70964  0.026861613  0.027061864            9 
  937000   0.86908405   -6.8198903     301.8098  0.026841853  0.027042989            6 
  938000   0.88312389    -6.806282     301.8864  0.026820043  0.027024124           12 
  939000   0.88265049    -6.819303    302.46126  0.026842497  0.027005233           17 
  940000   0.87571795   -6.7846886     302.1588  0.026787128  0.026986512            8 
  941000   0.84289233    -6.780807    302.99545  0.026832754  0.026967869           15 
  942000   0.88957591    -6.804639    302.32832  0.026745251  0.026949069           17 
  943000   0.88934554   -6.7925619     302.8691  0.026764678  0.026930458            4 
  944000   0.87751222   -6.7944121    302.93679  0.026742301   0.02691201            5 
  945000   0.89289313     -6.81249    302.80373  0.026702269  0.026893476            9 
  946000   0.88805642   -6.8042574    303.40507  0.026727015  0.026874926            6 
  947000   0.88255043   -6.8271559    303.37131  0.026695821  0.026856461            5 
  948000   0.87445922   -6.8271186    302.75933  0.026613865  0.026837776           10 
  949000    0.8623899    -6.787241    303.92205  0.026687922  0.026819125            8 
  950000     0.859905   -6.8287741    303.05771  0.026584009  0.026800592            4 
  951000   0.86621995   -6.8150654    303.67338  0.026610005  0.026781862           29 
  952000    0.8786266   -6.8099056      303.396  0.026557773  0.026763111           25 
  953000   0.87987599    -6.810375    303.28408  0.026520119   0.02674435            4 
  954000   0.86678099   -6.7808388    303.25123   0.02648945  0.026725601            4 
  955000   0.87266544   -6.7893849    304.04242  0.026530752  0.026706912           15 
  956000   0.87599321   -6.8510082     303.0855  0.026419587  0.026687946           12 
  957000   0.85134374   -6.8233566    302.74513  0.026362342  0.026668841            7 
  958000   0.88141707   -6.8003057    303.44809  0.026395972  0.026649737            4 
  959000   0.86889382   -6.8034949    303.67158  0.026387868  0.026630666            4 
  960000   0.89575893    -6.802785    303.69792  0.026362667  0.026611611            6 
  961000   0.86646794   -6.8249731    303.96853    0.0263587  0.026592616           19 
  962000   0.87160787   -6.7984926    304.59186  0.026385296  0.026573629            8 
  963000   0.88966655   -6.8038438    304.47764  0.026348014  0.026554673            4 
  964000   0.85061904   -6.8117886    304.50311  0.026322883   0.02653578           11 
  965000   0.84857996   -6.8598108    304.65532   0.02630875  0.026516744           11 
  966000   0.86096894   -6.8070888    304.19905  0.026242154  0.026497633           11 
  967000   0.86526144   -6.8466813     304.9029  0.026275672  0.026478642           10 
  968000   0.87323777   -6.8268316    304.30118  0.026196727  0.026459637           10 
  969000   0.87634446   -6.8439555    305.29127  0.026254839  0.026440666            5 
  970000   0.85968795   -6.8134137    305.64242   0.02625794   0.02642181           10 
  971000   0.87564196   -6.8151649    304.88874  0.026166216  0.026403029            6 
  972000    0.8650712   -6.8336817    305.19038  0.026165156  0.026384391            6 
  973000   0.86241572   -6.8147621    305.95178  0.026203476  0.026365625            8 
  974000    0.8621969    -6.815757    305.53569  0.026140973  0.026346668           17 
  975000   0.87518848   -6.8328015     304.8627  0.026056641  0.026327742            5 
  976000   0.86120828   -6.8219732    305.45458   0.02608048  0.026308839           12 
  977000   0.87988479   -6.8314241     306.0001  0.026100316  0.026290106            8 
  978000   0.86693837   -6.8600827    306.51588  0.026117577  0.026271375            6 
  979000   0.86595794   -6.8328891    306.39793  0.026080859  0.026252609            7 
  980000   0.88416585   -6.8399284     306.2194  0.026039064  0.026233798           13 
  981000   0.85093889   -6.8321655    306.73291  0.026056142  0.026215022            8 
  982000   0.86104247   -6.8395488    307.02149  0.026054098  0.026196246            7 
  983000   0.85545057   -6.8186555    306.70615   0.02600086  0.026177536            6 
  984000   0.87282935   -6.8249208    306.15388  0.025927666  0.026158716            8 
  985000    0.8614791   -6.8494357    306.32088  0.025915472  0.026139729            7 
  986000   0.82120939   -6.8438115    306.57918  0.025911019  0.026120711            9 
  987000   0.86159163   -6.8138614     306.7154  0.025896268  0.026101856           16 
  988000   0.85605584    -6.832393    307.53384  0.025939089  0.026082987           13 
  989000   0.85512244   -6.8162329    307.06574  0.025873419   0.02606429            7 
  990000    0.8559397   -6.8476148    306.93991  0.025836693  0.026045456           16 
  991000   0.86995163   -6.8514552    307.09948   0.02582404  0.026026468            7 
  992000   0.85790007   -6.8205394    307.38315  0.025821837   0.02600753           10 
  993000   0.82661422   -6.8649386    307.26892  0.025786247   0.02598877            9 
  994000   0.85746902   -6.8109966    307.87369  0.025811007   0.02597016            8 
  995000   0.84692218   -6.8521216    307.81694  0.025780313  0.025951563            8 
  996000   0.84955656   -6.8243801    309.20586  0.025870638   0.02593303            5 
  997000   0.85733681   -6.8351913    308.95221  0.025823488   0.02591461            8 
  998000   0.86247547   -6.8398465    309.46926  0.025840787  0.025896371            4 
  999000   0.84972514   -6.8539758    308.23368  0.025711852  0.025877996            5 
 1000000   0.85399827   -6.8364343    308.68715  0.025723929   0.02585955            3 
 1001000   0.86731487   -6.8645135    309.01851  0.025725816  0.025841131           12 
 1002000   0.85572113   -6.9141277    309.63091  0.025751074  0.025822706            7 
 1003000   0.84794138   -6.8440818    308.29254  0.025614202  0.025804277            4 
 1004000   0.84959662    -6.842387    309.81493   0.02571505  0.025785998            7 
 1005000     0.858053   -6.8516376    310.06679  0.025710347  0.025767848            8 
 1006000   0.86656513   -6.8402904    310.79999  0.025745526  0.025749849            8 
 1007000   0.85115248   -6.8364366    311.17949  0.025751364  0.025731857            9 
 1008000   0.83099797   -6.8267279    310.83525  0.025697359  0.025713879            6 
 1009000   0.85149929   -6.8565761    310.20468  0.025619812  0.025695926            8 
 1010000   0.84541939   -6.8215133    310.52099  0.025620544  0.025678032            8 
 1011000   0.82905852   -6.8248813    310.14395  0.025564124  0.025660044           10 
 1012000   0.83001136   -6.8480997    311.26269  0.025630985  0.025642081            9 
 1013000   0.86107938   -6.8640003    310.91377   0.02557698  0.025624125           14 
 1014000   0.85357997   -6.8531741     311.0551  0.025563371  0.025606161            4 
 1015000   0.82811798   -6.8117448    311.83806  0.025602468  0.025588146            8 
 1016000   0.84342936   -6.8613097    310.36247  0.025456239   0.02557009            8 
 1017000   0.84246599   -6.8497006    310.82418  0.025469042  0.025552071           10 
 1018000   0.84657645   -6.8523682    311.16461   0.02547189  0.025534023           10 
 1019000   0.83330835   -6.8426552    311.46665  0.025471594  0.025515903            8 
 1020000   0.86725674   -6.8540143    311.43421  0.025443971  0.025497732            5 
 1021000   0.84488616   -6.8427877     310.9783   0.02538184  0.025479558            5 
 1022000   0.84561671     -6.85216    311.88918  0.025431277  0.025461423           16 
 1023000   0.83561733   -6.8766314    312.07911  0.025421889  0.025443397            4 
 1024000   0.86594665   -6.8524349    312.16329  0.025403913  0.025425408            8 
 1025000    0.8536443   -6.8670463    312.08595  0.025372842  0.025407504            5 
 1026000   0.85960844   -6.9145685    312.45221   0.02537786  0.025389555            6 
 1027000   0.85996355   -6.8822518    312.00425  0.025316801  0.025371521            9 
 1028000   0.84744279   -6.8690281    311.71733  0.025268915  0.025353339            9 
 1029000   0.83332746   -6.8469438     312.7147   0.02532513   0.02533532           15 
 1030000    0.8382144   -6.8700921    312.85128  0.025311592  0.025317259            5 
 1031000   0.84039485   -6.8710423    312.31443   0.02524365  0.025299204            9 
 1032000   0.85107568   -6.8872415    312.36184  0.025223017  0.025281128            7 
 1033000   0.83843616   -6.8579239    312.29939  0.025193561  0.025263173            7 
 1034000   0.83932786   -6.8689666    313.12684  0.025235884  0.025245242            6 
 1035000   0.83280716   -6.8823963    313.19105  0.025216671  0.025227341           14 
 1036000   0.82240032   -6.8681089    312.23096  0.025115103  0.025209348            6 
 1037000   0.82880242   -6.8971418    313.00373  0.025152983  0.025191328           10 
 1038000   0.81281412   -6.8816318    312.83247  0.025115002  0.025173295            5 
 1039000   0.84257819   -6.8878942    312.69035  0.025079431  0.025155229            4 
 1040000   0.85106836    -6.886244    313.10458  0.025088508  0.025137135            9 
 1041000   0.84384244   -6.8848718    312.79585  0.025039694   0.02511926           14 
 1042000   0.84675862    -6.885176    313.80473  0.025096348  0.025101386            8 
 1043000   0.82493852   -6.8835371     313.9596   0.02508466  0.025083516            3 
 1044000   0.83714815     -6.87881    313.42227  0.025017742  0.025065732            8 
 1045000    0.8211162    -6.902509    314.16243  0.025052825  0.025048021            6 
 1046000   0.83264665   -6.8880122    314.72535  0.025073721  0.025030352            7 
 1047000   0.82409617   -6.8842217    314.65697  0.025044331  0.025012654            9 
 1048000   0.82210969   -6.9179395    314.22028   0.02498571  0.024994963           13 
 1049000    0.8299366   -6.8969614    314.15856  0.024956988  0.024977176            7 
 1050000   0.83806789   -6.9044739    314.22409   0.02493842  0.024959402            8 
 1051000   0.80776084   -6.8803813     314.8304  0.024962766  0.024941727            6 
 1052000   0.82918073   -6.8700803    314.28234  0.024895622  0.024924107            6 
 1053000   0.82286027   -6.8622926    315.28418  0.024951264  0.024906501            4 
 1054000   0.84469934   -6.8701985     314.8881  0.024896276  0.024888767           13 
 1055000   0.82260152   -6.9063503    314.38137  0.024832651  0.024870882           15 
 1056000    0.8383266   -6.9230145    314.00215   0.02477921  0.024852949            8 
 1057000   0.83598881   -6.8836042    314.00171  0.024755732  0.024835034            4 
 1058000   0.82092666   -6.9133603    314.00111  0.024732287  0.024817124            5 
 1059000   0.82705914   -6.8995454    315.36413  0.024816189  0.024799203            7 
 1060000   0.82114585   -6.8833723    315.78094  0.024825546  0.024781381            9 
 1061000   0.85791455   -6.8553876    315.37949  0.024770617  0.024763568           14 
 1062000   0.82338234    -6.903603    315.01824  0.024718946  0.024745635            9 
 1063000   0.82554724   -6.9097023    315.21821  0.024711368  0.024727674            5 
 1064000   0.83364785   -6.9160653    314.94828  0.024667002  0.024709712            5 
 1065000   0.82150099    -6.884939    314.74256  0.024627743  0.024691586           14 
 1066000   0.82550241   -6.8909732    314.81903  0.024610619  0.024673513            7 
 1067000   0.82910509   -6.9121012      315.542  0.024644017   0.02465546            9 
 1068000   0.83324117   -6.8975941    315.75391  0.024637477  0.024637498           17 
 1069000   0.83290679    -6.892293    315.84115  0.024621231  0.024619508            5 
 1070000   0.82230696   -6.8990788    316.47365  0.024647481  0.024601504            4 
 1071000    0.8201604   -6.8894206    315.21555  0.024526576  0.024583602            9 
 1072000   0.81974014   -6.8908723    315.87764  0.024555164  0.024565748            6 
 1073000   0.80980508   -6.9084598    315.80255  0.024526448  0.024547868           12 
 1074000    0.8050958   -6.8989104    316.17385  0.024532421  0.024530047            7 
 1075000   0.80446166   -6.9059385    315.99434  0.024495685  0.024512153            8 
 1076000   0.82544768   -6.8950131    316.55058  0.024515999  0.024494527            4 
 1077000   0.81917439   -6.8784391    317.13535  0.024538483  0.024477027            5 
 1078000   0.83281046   -6.9316536    315.58176  0.024395621  0.024459438           12 
 1079000   0.85600912   -6.9163443     316.8949  0.024474428  0.024441782           10 
 1080000   0.83766925   -6.9049615     317.2016  0.024475432  0.024424142            6 
 1081000   0.82164708   -6.8907194    317.47661  0.024473991  0.024406594           11 
 1082000   0.81364335   -6.8983651    317.31631  0.024439026  0.024389153            7 
 1083000   0.82896762   -6.9216926    317.16453  0.024404781  0.024371523            7 
 1084000    0.8099296    -6.941248    317.28477  0.024391511  0.024353959           16 
 1085000   0.82740854   -6.9259669    316.54876    0.0243125   0.02433628           13 
 1086000   0.82828198   -6.9372533    316.89682  0.024316822  0.024318625            6 
 1087000   0.82431873   -6.9202668    317.10931  0.024310741  0.024301015            4 
 1088000   0.82166825   -6.8977894    317.75398  0.024337774  0.024283428            7 
 1089000   0.80130058   -6.9070011    317.83706  0.024321783   0.02426593            9 
 1090000   0.80186663   -6.9053822     318.1304  0.024321896  0.024248467            5 
 1091000   0.80160961   -6.9217036    318.14363  0.024300614  0.024230955           10 
 1092000   0.80892085   -6.9235071    317.97166  0.024265237  0.024213476           17 
 1093000    0.8219126   -6.9114071    318.15784  0.024257231  0.024196098            5 
 1094000   0.81989108   -6.9065264    318.79238  0.024283393  0.024178766            8 
 1095000   0.80301644   -6.9028876    318.87727  0.024267676  0.024161499            8 
 1096000   0.81342957   -6.9221536     318.8468  0.024243218  0.024144168           10 
 1097000   0.81129114   -6.9371056    319.35717  0.024259889  0.024126877           11 
 1098000   0.83570767   -6.9324661     318.9502  0.024206906  0.024109583           13 
 1099000   0.81421881   -6.9207018    319.43883  0.024221931  0.024092242           19 
 1100000   0.82094325   -6.9318639    318.36568  0.024118612   0.02407506            6 
 1101000   0.80405606   -6.9039166    319.31535  0.024168586  0.024057869            9 
 1102000    0.8053225   -6.9029549    319.69394  0.024175283  0.024040625            7 
 1103000   0.81849954   -6.9275004    320.27337  0.024197142  0.024023567            8 
 1104000   0.84392597   -6.9250551    318.93451  0.024074163  0.024006488           22 
 1105000   0.79323217   -6.9370601    319.26038  0.024076952  0.023989202           16 
 1106000   0.80525016   -6.9476724     319.4606  0.024070268  0.023971991           12 
 1107000   0.81079162   -6.9341033    319.41683   0.02404523  0.023954887            9 
 1108000   0.81107932   -6.8938449    320.74403  0.024123348  0.023937999            6 
 1109000   0.80398983   -6.9347357    319.12832  0.023980187  0.023921098           13 
 1110000   0.81279014   -6.9314845    320.50833  0.024062187  0.023904187           15 
 1111000    0.8104134   -6.9019266      320.719  0.024056331  0.023887313            8 
 1112000   0.81897651   -6.9472944    321.08675  0.024062257  0.023870418           20 
 1113000    0.8169242   -6.9211398    321.07352  0.024039646  0.023853603           15 
 1114000   0.79838209   -6.9129446    321.51864  0.024051364  0.023836749            8 
 1115000   0.81375929   -6.9337785    320.69436  0.023968188  0.023819963            6 
 1116000   0.80423821    -6.959601    321.20165  0.023984592  0.023803016            7 
 1117000   0.82530044   -6.9291046     320.8239  0.023934937  0.023786044           13 
 1118000   0.79233672   -6.9231269    321.39142   0.02395583  0.023769082            9 
 1119000   0.80652547   -6.8986264    321.21741  0.023921463  0.023752206            9 
 1120000   0.81933981   -6.9389456    321.19705   0.02389859   0.02373535            6 
 1121000   0.81631897   -6.9529554    321.06485  0.023867444  0.023718463            9 
 1122000   0.80236472   -6.9762574    321.24721  0.023859716  0.023701409            8 
 1123000   0.80879753   -6.9428318    321.87488  0.023885046  0.023684563           11 
 1124000   0.80987488   -6.9545658    321.79749  0.023858058  0.023667734           11 
 1125000   0.81095153   -6.9211846    321.43023  0.023809647  0.023650942            8 
 1126000   0.81131564   -6.9413058     321.7675  0.023813462  0.023634053           12 
 1127000   0.80868769   -6.9319969    322.21557  0.023825463   0.02361719            7 
 1128000   0.77976894   -6.9330439     321.6298  0.023761067  0.023600306           14 
 1129000   0.79788659   -6.9359564    322.15847  0.023779043   0.02358347           11 
 1130000   0.77706324   -6.9547434    322.66871  0.023795628  0.023566644           10 
 1131000   0.77504011   -6.9661489    321.76636  0.023708102  0.023549783           17 
 1132000   0.81963989   -6.9587844    322.35962  0.023730832  0.023532918           12 
 1133000   0.79345352   -6.9367418    323.06335  0.023761647   0.02351614            9 
 1134000   0.81946405   -6.9638066     321.8162  0.023649045  0.023499325            7 
 1135000   0.78839925   -6.9734064    321.69016  0.023618954  0.023482397            6 
 1136000   0.79531091   -7.0004823    321.65406  0.023595515  0.023465494            5 
 1137000    0.7909392   -6.9554286    323.12882  0.023682851  0.023448631           20 
 1138000   0.79367122   -6.9444047    322.12897  0.023588823  0.023431964           11 
 1139000    0.8015797   -6.9456657    323.33106  0.023656063  0.023415241           14 
 1140000   0.79800495   -6.9636156    323.47626  0.023645925  0.023398597           23 
 1141000   0.79705919   -6.9526721    323.57134  0.023632146  0.023381918            8 
 1142000   0.79249072   -6.9750558    322.92922  0.023564596  0.023365173           15 
 1143000   0.79741931   -6.9576707    323.17422  0.023561842  0.023348475            7 
 1144000   0.77679089   -6.9710691    321.99497  0.023455345  0.023331667            4 
 1145000   0.78566651   -6.9350612    322.63857  0.023481701  0.023314906           10 
 1146000   0.79844621   -6.9592593    323.02634  0.023489408  0.023298229            7 
 1147000    0.7842124   -6.9547503    323.52472  0.023505138  0.023281584           14 
 1148000   0.78901424   -6.9622867     322.4814  0.023408929  0.023264802           10 
 1149000   0.79346637   -6.9909254    322.61156  0.023397996  0.023247892            8 
 1150000   0.79525599   -6.9788433    321.67846  0.023310033  0.023230929           10 
 1151000   0.79287857   -6.9553304    323.62864  0.023430976  0.023214047            6 
 1152000   0.79597128   -6.9557942    323.11556  0.023373522  0.023197168           10 
 1153000   0.78183467   -6.9554624    323.20307  0.023359574  0.023180329           10 
 1154000   0.80266979   -6.9631928    323.79683  0.023382209  0.023163536           17 
 1155000   0.79751363   -6.9999423    323.52823  0.023342585  0.023146718           13 
 1156000   0.79875441   -6.9700931    322.83396  0.023272344  0.023129892           13 
 1157000   0.77951714   -6.9919325    323.63095  0.023309634  0.023113068           11 
 1158000    0.7864394   -6.9548283    323.62647  0.023289181  0.023096236           12 
 1159000   0.79629255   -6.9841162    323.53697  0.023262653  0.023079432            7 
 1160000   0.78606446   -6.9791988     322.9378  0.023199554  0.023062639           10 
 1161000   0.78858528   -6.9839494    323.46609  0.023217491  0.023045757           16 
 1162000   0.79183149   -6.9680648    323.96884  0.023233566  0.023028992           16 
 1163000   0.79140243   -6.9862755     323.4309  0.023175043  0.023012253            9 
 1164000   0.78864121   -6.9538548    323.07396  0.023129579  0.022995501           17 
 1165000   0.79608416   -6.9855971    323.91166  0.023169647  0.022978707            8 
 1166000   0.78720383   -6.9751399     324.2041  0.023170676  0.022961985            5 
 1167000   0.78744065   -6.9958792    323.34401  0.023089404  0.022945224            9 
 1168000   0.79354138   -6.9828598    324.39705  0.023144766  0.022928411           16 
 1169000   0.78718863   -6.9854847    324.55283  0.023136073   0.02291174            7 
 1170000   0.77674218   -6.9863957    324.10888  0.023084678  0.022895064           13 
 1171000   0.79842489   -7.0083561    324.43527  0.023088192   0.02287841            4 
 1172000   0.79154896   -7.0120136    324.47542  0.023071347  0.022861678            7 
 1173000   0.78742437   -6.9547886    324.36032  0.023043501  0.022845099            5 
 1174000   0.79240628   -6.9948658    324.98284  0.023068061   0.02282851            9 
 1175000   0.78353005   -6.9849596    324.15733  0.022989882  0.022811908            9 
 1176000   0.77267706   -6.9691191     325.1162  0.023038279  0.022795355           19 
 1177000   0.75288464    -6.964396     324.8337  0.022998705  0.022778796           15 
 1178000   0.77099655   -6.9572476    324.96531  0.022988491  0.022762165           10 
 1179000   0.79667799   -6.9777414    324.67123  0.022948207  0.022745467            7 
 1180000   0.78208873   -7.0002951    324.56044  0.022920935  0.022728894           15 
 1181000   0.79231531   -7.0158982    324.91373  0.022926456  0.022712182           11 
 1182000   0.78566551   -7.0096266    324.44126  0.022873749  0.022695514            8 
 1183000   0.75771776   -6.9976746    324.96664  0.022891423  0.022678792           12 
 1184000   0.79248051   -6.9993523    324.67972  0.022851895  0.022662077            7 
 1185000   0.78675299   -6.9992177    325.17452  0.022867406  0.022645414            6 
 1186000   0.78761302   -6.9742674    325.69317  0.022884568  0.022628827           15 
 1187000   0.78380605   -6.9996612    325.12632  0.022825493  0.022612259            8 
 1188000   0.77649345   -6.9802205    325.25254  0.022815133  0.022595624            6 
 1189000   0.76072974   -6.9918995    325.15304  0.022788971  0.022578976            8 
 1190000   0.76928976   -7.0041395    325.27821  0.022778586  0.022562373           15 
 1191000   0.78772554   -6.9996506    325.62906  0.022784009  0.022545842           10 
 1192000   0.76048323   -6.9981632     326.3851   0.02281775  0.022529219           14 
 1193000   0.77381559   -6.9800037    325.92745  0.022766656  0.022512631           13 
 1194000   0.78138524   -7.0074225    325.29513  0.022703457  0.022495996            9 
 1195000   0.76663271   -7.0065219    325.45339  0.022695494  0.022479383            8 
 1196000   0.77057544   -7.0062308    325.92417  0.022709321  0.022462776           13 
 1197000   0.77907107    -6.999802    325.70947  0.022675402  0.022446112           27 
 1198000   0.77228542   -6.9988644    325.43758  0.022637562  0.022429506           12 
 1199000   0.77436598   -7.0305843    326.16078  0.022668945  0.022412997            8 
 1200000   0.77528845   -7.0231456    325.97292  0.022637008  0.022396426           10 
 1201000   0.75495609   -7.0299419    325.91207  0.022613938  0.022379879            8 
 1202000   0.76861235   -6.9836077     326.6606  0.022647019  0.022363506           11 
 1203000   0.78615629   -7.0266971    326.20208  0.022596431  0.022347046           17 
 1204000   0.75067601   -7.0242122    326.29229  0.022583907  0.022330497            7 
 1205000   0.77952187   -7.0154274    326.53901  0.022582227  0.022313941           20 
 1206000   0.76389726   -7.0168739    325.55905  0.022495788  0.022297371           16 
 1207000   0.77097409   -7.0533912     326.1257  0.022516273  0.022280788           18 
 1208000   0.76053254    -7.031265    327.04345  0.022560944  0.022264309           19 
 1209000   0.76421415   -7.0329181    325.92192  0.022464979  0.022247933           12 
 1210000   0.77708553   -7.0267767    326.23467  0.022467953  0.022231506           19 
 1211000   0.76859538   -7.0378821    326.49538  0.022467339  0.022215102           11 
 1212000   0.77028683   -7.0003706    326.33903  0.022438052  0.022198573           11 
 1213000   0.78343833   -7.0357706    326.58553  0.022436489  0.022182138           15 
 1214000   0.77380733   -7.0344164    326.82208  0.022434245  0.022165715           15 
 1215000   0.74968945   -7.0343973    326.75512  0.022411188  0.022149223           15 
 1216000   0.77346141   -7.0263685    326.64632  0.022385302  0.022132772           10 
 1217000    0.7679695   -7.0069315    327.62044   0.02243361  0.022116355            6 
 1218000   0.75857001    -7.052235    326.76657  0.022356771   0.02209995           10 
 1219000   0.76054037   -7.0268558    326.89814  0.022347425  0.022083633           18 
 1220000   0.76549064   -7.0344846    327.18615  0.022348781  0.022067309           20 
 1221000   0.76547643   -7.0515184    327.01561  0.022318838  0.022050969           26 
 1222000   0.75874248   -7.0200759    328.37389    0.0223932  0.022034747           16 
 1223000   0.77769915    -7.020317    328.07559  0.022354564  0.022018555           45 
 1224000   0.78351626   -7.0284552     327.9747  0.022329432  0.022002434           29 
 1225000   0.75392222   -7.0103625    328.64096  0.022356528  0.021986234           32 
 1226000   0.76599391   -7.0375816     327.3806  0.022252624  0.021970046           30 
 1227000   0.77913415   -7.0195685    327.64875    0.0222527  0.021953869           10 
 1228000   0.75572724   -7.0206292     328.2084  0.022272557  0.021937753            9 
 1229000   0.77040591   -7.0484475    327.96941   0.02223823  0.021921565           42 
 1230000   0.76631763   -7.0557693     328.4794  0.022254702  0.021905449           31 
 1231000   0.77279965   -7.0246237     328.3735  0.022229455  0.021889366           15 
 1232000    0.7533105   -7.0190847    328.58727   0.02222587  0.021873367           13 
 1233000   0.76304025   -7.0273759    328.71264  0.022216318  0.021857457           13 
 1234000   0.76346247   -7.0493034    328.66127  0.022194845  0.021841604           17 
 1235000   0.75895291   -7.0639144    328.91272  0.022193841  0.021825735           11 
 1236000   0.76359416    -7.036009    328.93908  0.022177662  0.021809855           12 
 1237000    0.7714988    -7.024156    328.81636  0.022151466  0.021794007            9 
 1238000   0.75555115   -7.0300208    328.39683  0.022105333  0.021778085           17 
 1239000   0.74870941   -7.0587546    328.38306  0.022086566  0.021762209           12 
 1240000    0.7736366   -7.0232587    329.44901  0.022140391  0.021746352            9 
 1241000   0.76327427   -7.0448748    329.26285  0.022110049  0.021730464           11 
 1242000   0.74757276   -7.0503357     329.3866   0.02210055  0.021714601            6 
 1243000   0.74976701   -7.0283633    328.72579  0.022038468  0.021698809           12 
 1244000   0.76736986   -7.0238539    329.43796  0.022068459  0.021683153            6 
 1245000   0.76429391   -7.0445504    329.34677   0.02204463  0.021667414           12 
 1246000   0.75885558   -7.0512137    329.14938  0.022013736  0.021651709           10 
 1247000   0.76372096   -7.0347344    331.16805  0.022130984  0.021636046           18 
 1248000   0.76104415   -7.0477235    330.32162  0.022056732  0.021620475            8 
 1249000   0.73991363   -7.0443856    330.52498  0.022052641  0.021604859           16 
 1250000   0.75118491    -7.027297    329.61287  0.021974192  0.021589273            9 
 1251000   0.76542694     -7.06067    329.89163  0.021975195   0.02157369           15 
 1252000   0.74147073   -7.0525458      331.029  0.022033346  0.021558107           11 
 1253000   0.76089522   -7.0806306    330.94225  0.022009992  0.021542573           14 
 1254000   0.74403481   -7.0365692    330.87285  0.021987829  0.021527054           24 
 1255000   0.74249342   -7.0475052     330.9162  0.021973187   0.02151157           34 
 1256000   0.75350365   -7.0663499    331.11321  0.021968764  0.021496215           22 
 1257000   0.74125329   -7.0530363    329.91831   0.02187207  0.021480824           36 
 1258000   0.76755646   -7.0623091    330.54501  0.021896198  0.021465366           24 
 1259000   0.77250812   -7.0445346    330.49822   0.02187571  0.021449971            8 
 1260000   0.74056217   -7.0558141     330.9237  0.021886488   0.02143462           10 
 1261000     0.759949   -7.0547647     331.3865  0.021899716  0.021419314           10 
 1262000   0.74124646   -7.0197279    331.97944  0.021921516  0.021404142           10 
 1263000   0.74863633   -7.0515976    330.62104  0.021814532  0.021388933           12 
 1264000   0.74683714   -7.0655865    331.31516  0.021843035  0.021373695           19 
 1265000   0.74186438   -7.0601926    331.25476  0.021821789  0.021358424           11 
 1266000   0.74243342   -7.0665379    331.13774  0.021796849  0.021343172           15 
 1267000   0.74681629   -7.0794253    331.94354  0.021832646  0.021328009           11 
 1268000   0.75826928   -7.0724613    331.22217  0.021768018  0.021312817           36 
 1269000   0.74278288   -7.0447214    331.86973  0.021793389  0.021297613            8 
 1270000   0.74908894   -7.0837327    332.03654  0.021787174  0.021282372           13 
 1271000   0.73728121   -7.0736102    331.37024  0.021726347  0.021267122           12 
 1272000    0.7474041   -7.0829934    331.55234  0.021721197  0.021251884           17 
 1273000   0.76855993   -7.0570618    331.37053  0.021692232  0.021236644           20 
 1274000   0.75824912   -7.0697969    332.10507  0.021723251  0.021221442           32 
 1275000   0.73912128   -7.0761806    332.26423  0.021716616  0.021206424           25 
 1276000    0.7446333   -7.0523547    332.22087  0.021696766  0.021191375           20 
 1277000    0.7338411   -7.0688239    332.45688  0.021695176  0.021176264           25 
 1278000   0.74628379   -7.0827561    332.07741  0.021653457  0.021161225           24 
 1279000   0.75004198   -7.0747509    332.36778  0.021655446  0.021146184           11 
 1280000   0.73158001   -7.1047868     333.0807  0.021684941  0.021131181           18 
 1281000   0.74186703   -7.0882771    332.62796  0.021638561  0.021116179           10 
 1282000   0.74882911   -7.0813752     332.5002  0.021613377  0.021101165           20 
 1283000   0.74236123   -7.0901408    333.04856  0.021632148  0.021086157           12 
 1284000   0.74782471   -7.0817568    332.45718   0.02157692  0.021071168           10 
 1285000   0.75864904   -7.0740682    332.85157  0.021585705  0.021056146           12 
 1286000   0.73149608   -7.0963454    332.46332  0.021543761  0.021041111           13 
 1287000   0.73857691   -7.0700266    333.07937  0.021566911  0.021026134           21 
 1288000   0.73636585   -7.0823368    333.38799  0.021570134  0.021011232           12 
 1289000   0.75131104   -7.0700657    333.43373  0.021556357  0.020996319           15 
 1290000    0.7327583   -7.0658718    333.28345  0.021529939  0.020981454           13 
 1291000   0.75298316   -7.0991679    332.71669  0.021476678  0.020966571            9 
 1292000   0.74721297   -7.0818338    333.69712  0.021523292   0.02095167           13 
 1293000   0.72464433   -7.0632394     333.9896  0.021525496  0.020936761           11 
 1294000   0.71871292   -7.0779369    333.09409  0.021451191  0.020921911           18 
 1295000   0.72893567   -7.0839204     333.4735  0.021459041  0.020907097            7 
 1296000   0.75223431   -7.1017299     333.9838  0.021475296  0.020892325            7 
 1297000   0.72886893   -7.0743067     334.3742  0.021483822   0.02087761           13 
 1298000     0.744983   -7.0778441     334.1832  0.021455008  0.020862847           14 
 1299000    0.7312002   -7.1059025    333.46493  0.021392413  0.020848052           10 
 1300000   0.72703218    -7.110598    333.25514  0.021362509   0.02083322           16 
 1301000    0.7417093   -7.0842596    334.36762  0.021417347  0.020818424           21 
 1302000   0.73775667    -7.084617    334.21232  0.021390958  0.020803648            6 
 1303000   0.71830509    -7.079312    333.28746  0.021315391  0.020788868           12 
 1304000    0.7533294   -7.1082349    334.11241  0.021351765  0.020774079           16 
 1305000   0.72635841    -7.092982    333.70493  0.021309382  0.020759283           31 
 1306000   0.72996856    -7.137519    334.03905  0.021314386  0.020744439           30 
 1307000   0.73393454   -7.0950815    333.97673  0.021294104  0.020729608           25 
 1308000   0.75108445   -7.0830034    333.58674  0.021252978  0.020714776           53 
 1309000   0.74520628   -7.1141033    334.55206  0.021298196  0.020700053           34 
 1310000   0.73265833   -7.1032594    334.82498  0.021299299  0.020685294           16 
 1311000   0.73355814   -7.0926677    334.25673  0.021246932  0.020670538           13 
 1312000   0.73293701   -7.1117021    333.98156  0.021213259  0.020655779           21 
 1313000   0.70544045   -7.0971969    334.13001  0.021206525  0.020641056           14 
 1314000   0.71770374   -7.1247713     334.6098  0.021220814  0.020626342           24 
 1315000   0.71912759   -7.1204288    334.88069  0.021221843  0.020611628           23 
 1316000   0.73365952   -7.1171073    333.44786  0.021114986   0.02059687           15 
 1317000   0.74434873   -7.1204831    334.48912  0.021164839  0.020582171           43 
 1318000   0.72447918   -7.0960528    334.36962  0.021141225   0.02056746           57 
 1319000   0.73326695   -7.1175915    334.78189  0.021151244  0.020552743           13 
 1320000   0.70991006   -7.1096233    333.67812  0.021065538  0.020538011           21 
 1321000   0.72391524   -7.1126321      334.973  0.021131277   0.02052329           40 
 1322000   0.74014259   -7.0824001    334.90044  0.021110718   0.02050865           41 
 1323000   0.71670379    -7.108597    335.09113  0.021106773  0.020494021           38 
 1324000   0.71843304   -7.1182702    335.35122  0.021107201  0.020479354           11 
 1325000   0.72308206   -7.1076405    334.91723  0.021063977  0.020464725           23 
 1326000   0.71344502   -7.1141387    335.06453  0.021057348  0.020450118           16 
 1327000   0.74087329   -7.1326548    335.16434  0.021047748  0.020435517           19 
 1328000   0.73323645    -7.121869     334.5559  0.020993718  0.020420924           19 
 1329000   0.71286007   -7.1201177    334.77286  0.020991526  0.020406263           14 
 1330000   0.71578502    -7.120961    335.15549  0.020999718  0.020391618           28 
 1331000   0.71203324   -7.1030196    334.90983  0.020968559  0.020376998           11 
 1332000    0.7225404   -7.0838623    335.52506  0.020991308  0.020362326           16 
 1333000   0.72601524   -7.1182718    334.95089  0.020939665  0.020347671           13 
 1334000   0.72745532   -7.1463248    334.98071  0.020925832  0.020332981           17 
 1335000   0.72481888   -7.1295014    334.84853  0.020901905  0.020318305           14 
 1336000    0.7142115   -7.1135224    335.08506  0.020901014  0.020303622           19 
 1337000   0.73291655   -7.1333389    334.66552  0.020859232  0.020288957           36 
 1338000   0.73516555   -7.1193582    335.26095  0.020880727  0.020274351           16 
 1339000   0.72562654   -7.1486198    335.43977  0.020876261  0.020259729           21 
 1340000   0.72436238   -7.1456739    335.67634  0.020875394  0.020245048           67 
 1341000   0.70312977   -7.1336472    335.11272  0.020824802  0.020230399           25 
 1342000     0.723265   -7.1534271    335.12418  0.020809996  0.020215748           59 
 1343000   0.71457609   -7.1111387    335.07398  0.020791386  0.020201095           10 
 1344000   0.71354081   -7.1218667    335.20159  0.020783829  0.020186405           19 
 1345000   0.70702051   -7.1192046     335.3818  0.020779541  0.020171866           37 
 1346000    0.7111301   -7.1088021    336.24032  0.020817256  0.020157377           15 
 1347000   0.72674202   -7.0917305    336.06535  0.020790977  0.020142881           13 
 1348000   0.71691117   -7.1340042    335.82682  0.020760808   0.02012839           34 
 1349000   0.73267051   -7.1349757    335.05063  0.020697469  0.020113862           13 
 1350000   0.72116963   -7.1095511    335.06829  0.020683228  0.020099332           21 
 1351000   0.69934194   -7.1215521    335.61639  0.020701726  0.020084827           13 
 1352000   0.70604874   -7.1472414    335.49949  0.020679209   0.02007039           12 
 1353000   0.72074357   -7.1065838    336.09194  0.020700415  0.020055874           12 
 1354000   0.71554534   -7.1515191    335.87188  0.020671583   0.02004141           23 
 1355000   0.72123693    -7.120355    336.05467  0.020667569  0.020026891           30 
 1356000   0.72359745   -7.1384261    336.15737  0.020658639  0.020012359           17 
 1357000   0.71353917   -7.1172801    335.07806  0.020577135  0.019997844           32 
 1358000   0.71299212   -7.1283863    335.58124  0.020592859  0.019983376           34 
 1359000   0.70781465   -7.1325597    335.56195  0.020576524  0.019968957           17 
 1360000   0.72456014   -7.1258334    335.93489  0.020584246  0.019954487           15 
 1361000   0.69694941   -7.1084644       337.05  0.020637399  0.019940109           35 
 1362000    0.7093432   -7.1338039    336.61017  0.020595336  0.019925724           60 
 1363000     0.713089   -7.1272387    335.60814  0.020518962  0.019911334           43 
 1364000   0.70543552   -7.1320805    335.77984  0.020514408  0.019896955           61 
 1365000   0.72050964   -7.1444148    336.30018  0.020531146  0.019882554           31 
 1366000    0.7071266    -7.131188    336.28526  0.020515206  0.019868136           34 
 1367000   0.71662941   -7.1514908    336.09387  0.020488532  0.019853748           25 
 1368000   0.69072158   -7.1504625    336.06101  0.020471553  0.019839385           19 
 1369000   0.70795179     -7.15045    336.60486  0.020489704  0.019825047           86 
 1370000   0.71208799   -7.1230953    336.58174  0.020473342  0.019810705           34 
 1371000   0.68495027   -7.1348371    336.77128   0.02046993  0.019796399           35 
 1372000     0.722672   -7.1629024     337.1897  0.020480424  0.019782092           20 
 1373000   0.70551871   -7.1550062    336.49369  0.020423264  0.019767815           29 
 1374000   0.70437476   -7.1727312    336.27999  0.020395438  0.019753506           33 
 1375000   0.71030852   -7.1538539    336.42552  0.020389426  0.019739258           29 
 1376000   0.69083208   -7.1549614    336.78938  0.020396644   0.01972499           10 
 1377000   0.70697334   -7.1457447    336.81418  0.020383332  0.019710742           10 
 1378000   0.71719274   -7.1335888     336.5568  0.020352975  0.019696545           19 
 1379000   0.70114346   -7.1396488    337.65613  0.020404649  0.019682362           16 
 1380000    0.7030033   -7.1455904    336.55935  0.020323633  0.019668197           11 
 1381000   0.70822145   -7.1429255     336.4702  0.020303536  0.019654038           26 
 1382000   0.69859875   -7.1664134    336.40655  0.020285006  0.019639851           37 
 1383000   0.69823275   -7.1532814    337.38356  0.020329209  0.019625627           13 
 1384000   0.70209256   -7.1535656     337.5556   0.02032488  0.019611494           24 
 1385000   0.70359947   -7.1852868    337.54283  0.020309436  0.019597348           16 
 1386000    0.6904035   -7.1573314    337.42674  0.020287803  0.019583226           20 
 1387000   0.69276721   -7.1585052    337.20385  0.020259784  0.019569093           21 
 1388000   0.72064699   -7.1726426    337.96078  0.020290633  0.019554988           21 
 1389000    0.6914502   -7.1490188    337.25816  0.020233871  0.019540954           17 
 1390000   0.69353033   -7.1769377    337.23772  0.020218088  0.019526881           18 
 1391000   0.71044953   -7.1642965    336.99498  0.020189012  0.019512798           10 
 1392000   0.70531108   -7.1797248    337.75831  0.020220205  0.019498694           29 
 1393000   0.68898206   -7.1861419    338.05483  0.020223429  0.019484629           21 
 1394000   0.69905951   -7.1821068    337.07015  0.020150057  0.019470534           32 
 1395000   0.69814413   -7.1786331    337.46565  0.020159238  0.019456428           31 
 1396000   0.70163225   -7.1792037    337.30937  0.020135469  0.019442371           19 
 1397000   0.68617348   -7.1731191    338.29343  0.020179756  0.019428391           13 
 1398000   0.69832878   -7.1735392    337.28369  0.020105132  0.019414368           31 
 1399000    0.6805658   -7.1851423    337.67244  0.020113917  0.019400333           30 
 1400000   0.68501244   -7.1843982    337.82837  0.020108831  0.019386296           26 
 1401000   0.70291162   -7.1866426    337.96201  0.020102428   0.01937228           28 
 1402000   0.69556191   -7.1470582    337.21597  0.020043745  0.019358269           11 
 1403000   0.70191592   -7.1697186    337.94028   0.02007248   0.01934433           13 
 1404000   0.69918296   -7.1760596    337.61377  0.020038804  0.019330375           27 
 1405000   0.70397785   -7.2066442    337.59553   0.02002346  0.019316394           14 
 1406000   0.69135452   -7.1751274    338.19338  0.020044652  0.019302359           18 
 1407000   0.69464427   -7.1728402    338.34705  0.020039508  0.019288354           31 
 1408000   0.70317861   -7.2069677    337.00066  0.019945588  0.019274365           22 
 1409000    0.6990043   -7.1778674    337.60878  0.019967399  0.019260355           52 
 1410000   0.70748953   -7.1787518     337.2495  0.019932004  0.019246366           32 
 1411000   0.68833973   -7.1900016    338.03436  0.019964231  0.019232421           33 
 1412000   0.70825204   -7.1963961    337.68474  0.019929458   0.01921842           13 
 1413000   0.69756077   -7.1740632    337.99925  0.019933902  0.019204457           31 
 1414000   0.68711588   -7.1698291    337.38599  0.019883663  0.019190524           32 
 1415000   0.68321285    -7.147463    337.67891  0.019886862  0.019176644           17 
 1416000   0.69947941    -7.176558    338.14459  0.019900223  0.019162813           18 
 1417000   0.68475374   -7.1482096    337.37051  0.019840656  0.019148891           30 
 1418000   0.67810635   -7.1795834    338.16546  0.019873382  0.019134946           23 
 1419000   0.68971539   -7.1885088    338.13528  0.019857604  0.019120963           24 
 1420000   0.68539053   -7.1831184    337.50041  0.019806362  0.019106997           35 
 1421000   0.69551475   -7.2023543    336.63024  0.019741394  0.019093009           46 
 1422000   0.69155098   -7.2077672    338.19281  0.019819081  0.019079056           34 
 1423000   0.67982966   -7.2080433     337.9182  0.019789072  0.019065113           52 
 1424000   0.69451224   -7.2205068    337.82953  0.019769987  0.019051223           36 
 1425000   0.68363152   -7.1755361    338.18146  0.019776694  0.019037353           64 
 1426000   0.67613688   -7.1965588    338.33699  0.019771914  0.019023489           32 
 1427000   0.69156571   -7.1860575    338.29969   0.01975588  0.019009636           51 
 1428000   0.68730883   -7.1855916    338.21377  0.019737031  0.018995823           37 
 1429000   0.67784738   -7.1888209    337.79054  0.019698539  0.018982024           35 
 1430000   0.67509891   -7.2119559     338.2056  0.019708951    0.0189682           37 
 1431000    0.6648757   -7.2079161    338.03982  0.019685524  0.018954307           43 
 1432000   0.67994403   -7.2135558    337.48416  0.019639441  0.018940481           51 
 1433000   0.67712815   -7.2177663    337.58391  0.019631537  0.018926606          107 
 1434000   0.66718816    -7.203351    338.28462  0.019658567  0.018912763           53 
 1435000   0.68606219   -7.2338303    338.14374  0.019636686  0.018898913           41 
 1436000   0.68096818   -7.2156935    338.63473  0.019651505  0.018885049           91 
 1437000   0.67498923   -7.2169925     338.4231  0.019625557   0.01887122           61 
 1438000   0.68580265   -7.2128681     338.2462  0.019601657  0.018857401           34 
 1439000   0.68840279   -7.1987398    338.46905  0.019600941  0.018843591           21 
 1440000   0.68131991   -7.1907968    338.16812  0.019569914  0.018829799           28 
 1441000   0.69408761   -7.2145091    337.96942  0.019544843  0.018816008           38 
 1442000   0.66764999     -7.22609    338.61825  0.019568785  0.018802223           57 
 1443000   0.66366631   -7.2234311    338.19147  0.019530577  0.018788412           82 
 1444000   0.67499679   -7.2203227    338.54201  0.019537281  0.018774613           83 
 1445000   0.68242452    -7.206631     337.9463  0.019489406  0.018760848           38 
 1446000    0.6614363     -7.22129    339.14667  0.019545105  0.018747081           62 
 1447000    0.6948595   -7.2301785     338.8966  0.019517197  0.018733309           44 
 1448000   0.66322845   -7.2551066    338.21726  0.019464621  0.018719537           30 
 1449000   0.68784868   -7.2226244    338.62543  0.019474663  0.018705817           19 
 1450000   0.67928197   -7.2085988    338.33614  0.019444606  0.018692078           26 
 1451000   0.66931811   -7.2173989    339.01366  0.019470116   0.01867839           25 
 1452000   0.67335502   -7.2137993    339.00192  0.019456033  0.018664777           49 
 1453000   0.67974646   -7.2487308    339.00657   0.01944291  0.018651124           29 
 1454000   0.65529157   -7.2127884    338.73586  0.019414022  0.018637477           42 
 1455000   0.66525384   -7.2064012    339.08233  0.019420523  0.018623842           63 
 1456000   0.67048721   -7.2391004    338.91834  0.019397799  0.018610275           57 
 1457000   0.65522357   -7.2215529    338.36253  0.019352695  0.018596664           81 
 1458000   0.67208205   -7.2225707    339.13252  0.019383432  0.018583043           71 
 1459000   0.66841936    -7.202995    339.72863  0.019404194   0.01856945           36 
 1460000   0.67061146   -7.2250836    338.93462  0.019345583  0.018555888          137 
 1461000   0.67672259   -7.2262978    339.26692  0.019351296  0.018542254           81 
 1462000    0.6677536   -7.2162519     339.6257   0.01935851  0.018528627           84 
 1463000   0.65607921   -7.2324327    339.26799  0.019324903  0.018515003           50 
 1464000   0.67169675   -7.2359338     339.3875  0.019318505  0.018501422           82 
 1465000   0.66487016    -7.210704    339.03225  0.019285111  0.018487821          144 
 1466000   0.67770393    -7.218393    338.32801  0.019231924  0.018474265          132 
 1467000   0.66418561   -7.2609639    338.33111   0.01921899  0.018460664           64 
 1468000   0.66942749   -7.2454939    338.77657  0.019231186  0.018447032          138 
 1469000   0.65239331   -7.2805357     338.7132  0.019214499  0.018433386          102 
 1470000   0.66871848   -7.2606727    338.85811  0.019209643  0.018419723          205 
 1471000   0.67044425   -7.2581589    338.50302  0.019176469  0.018406077          114 
 1472000   0.66231367   -7.2374947    338.04901  0.019137738  0.018392383          211 
 1473000   0.65283425   -7.2616859    338.82453   0.01916862  0.018378672          217 
 1474000   0.66827316   -7.2395893    338.35676   0.01912917  0.018364961          117 
 1475000   0.65701072   -7.2594259    338.60289  0.019130107  0.018351251          131 
 1476000   0.66646402   -7.2430246    337.82861  0.019073431  0.018337572          121 
 1477000   0.67694467   -7.2491952    338.53748  0.019100512  0.018323891          160 
 1478000   0.66145864   -7.2447618    338.21561  0.019069441  0.018310262          242 
 1479000   0.67094562   -7.2575362     338.0322  0.019046214  0.018296623          192 
 1480000   0.65890411    -7.221109    338.47448  0.019058248  0.018283038          214 
 1481000   0.64960146   -7.2685592    339.03079  0.019076682  0.018269444          152 
 1482000   0.66155312   -7.2469057    338.32076  0.019023885  0.018255863          114 
 1483000   0.66628843   -7.2504236    338.36997  0.019013822  0.018242276           77 
 1484000   0.66241501   -7.2687569    338.34855  0.018999806  0.018228676          107 
 1485000   0.66524642   -7.2537328    338.73677  0.019008797  0.018215086          126 
 1486000   0.66168128   -7.2646354    338.17715  0.018964623  0.018201521          169 
 1487000     0.654874   -7.2584432    338.79494  0.018986491   0.01818796           85 
 1488000   0.65638251   -7.2627302    338.86771  0.018977806  0.018174476          158 
 1489000   0.66267503   -7.2824514     339.2433  0.018986081  0.018161002          141 
 1490000   0.65450149   -7.2514047    338.80483  0.018948816  0.018147514          107 
 1491000   0.65741088   -7.2704097    339.14951  0.018955371  0.018133976           93 
 1492000   0.65337591    -7.256011    338.77453  0.018921723  0.018120406           96 
 1493000   0.65949398   -7.2939936    338.49191  0.018893275  0.018106845          204 
 1494000   0.66980077   -7.2534583    338.78554  0.018897007  0.018093312          204 
 1495000   0.64882914   -7.2730635    338.41023  0.018863447  0.018079747           95 
 1496000   0.65030233   -7.2868963    338.31701  0.018845645  0.018066217          105 
 1497000   0.64542129   -7.3028727    338.44979  0.018840447  0.018052664          157 
 1498000   0.66993933   -7.2728115    338.30492  0.018819811  0.018039143          276 
 1499000   0.64886244   -7.2895225    337.56514  0.018766129   0.01802558          159 
 1500000   0.64122964   -7.2775408    338.40251   0.01880014  0.018012044          186 
 1501000   0.65400426   -7.2672127    338.24935  0.018779111  0.017998526          107 
 1502000   0.66185877    -7.279432    338.13771  0.018760414  0.017985039          177 
 1503000   0.65339567   -7.2524186    338.15786  0.018749049  0.017971554          130 
 1504000    0.6445004   -7.2741966      338.567  0.018759253  0.017958089          106 
 1505000   0.64979982   -7.2766713    338.45038  0.018740331  0.017944648          101 
 1506000   0.65442288   -7.2955216    337.94128  0.018699717  0.017931146          141 
 1507000    0.6557188   -7.3054397    337.89657  0.018684836  0.017917624          175 
 1508000   0.65820192   -7.2845127    338.14131   0.01868597  0.017904072          299 
 1509000   0.64331348   -7.2555514     338.4466  0.018690446  0.017890542          225 
 1510000   0.64417276    -7.260574    338.56668  0.018684695  0.017877067          137 
 1511000   0.64798053   -7.2531338    338.18429   0.01865124  0.017863591          199 
 1512000   0.64174152   -7.2952531    338.34837  0.018647948  0.017850109          108 
 1513000   0.64436308   -7.2762865    338.34153  0.018635246  0.017836596          205 
 1514000   0.63364599   -7.2922711    338.04839  0.018606803  0.017823093          273 
 1515000   0.66435522   -7.2868883    338.47422  0.018617944  0.017809589          286 
 1516000   0.66900442   -7.3061292    338.52772  0.018608604  0.017796119          294 
 1517000   0.65613457   -7.3016442    338.16179  0.018576236  0.017782623          346 
 1518000   0.64170298   -7.3075371    338.20262   0.01856624  0.017769116          236 
 1519000   0.65721815   -7.3042859    337.92137  0.018538587  0.017755591          200 
 1520000   0.64617836   -7.2800137    338.09024  0.018535649  0.017742072          133 
 1521000   0.65803303   -7.2999289    337.83238  0.018509335  0.017728588          157 
 1522000   0.65054083   -7.3168977    337.51974  0.018480056  0.017715082          171 
 1523000   0.66520575   -7.3057891    337.87113  0.018487149  0.017701592          272 
 1524000   0.64579037   -7.3030724    337.48498  0.018453903  0.017688085          189 
 1525000     0.653023   -7.2913155    337.50368  0.018442824  0.017674613          337 
 1526000   0.63940987   -7.3023966    338.27802  0.018473024  0.017661143          329 
 1527000   0.65871447   -7.2633541    337.89597  0.018440077  0.017647746          227 
 1528000   0.64077652    -7.287563    338.26422  0.018448092  0.017634349          262 
 1529000   0.65391693   -7.2863495    337.65852  0.018403015   0.01762096           63 
 1530000   0.64094304   -7.2802849    338.03725  0.018411615  0.017607604          109 
 1531000   0.64921431   -7.3111425    337.56102  0.018373668  0.017594235          172 
 1532000   0.64987095   -7.3142858    338.40154  0.018407394  0.017580875          183 
 1533000   0.63399875   -7.2860099    337.94437  0.018370536  0.017567551          212 
 1534000    0.6466053   -7.3130445    338.41176  0.018383951  0.017554216          355 
 1535000   0.63607364    -7.317833    338.05111  0.018352394  0.017540846          259 
 1536000   0.63921011   -7.2856425     337.1417  0.018291108  0.017527503          216 
 1537000   0.64478595   -7.3066855    337.91328  0.018321041  0.017514169          124 
 1538000   0.63231641   -7.3111776    337.99809  0.018313724  0.017500857          208 
 1539000   0.64479018   -7.2955559    338.48365  0.018328116  0.017487558          292 
 1540000   0.63527896   -7.3040586    338.10317  0.018295626  0.017474272          159 
 1541000   0.64613753   -7.2979546    338.23599  0.018290936  0.017460982          122 
 1542000   0.63764135   -7.3293329    338.85816  0.018312698  0.017447694          269 
 1543000   0.63553626   -7.2936141    338.47414   0.01828009  0.017434432          192 
 1544000   0.62036346   -7.3010735    339.17069  0.018305845  0.017421188          203 
 1545000   0.65099114   -7.3092512    338.01154  0.018231474  0.017407983          101 
 1546000   0.64929195   -7.3150678    338.72641  0.018258215  0.017394799          149 
 1547000   0.63071237   -7.3123364    338.66276  0.018242984  0.017381581          184 
 1548000   0.63623413   -7.3277949    338.93886  0.018246062  0.017368365          172 
 1549000    0.6337716   -7.2979135    339.02978  0.018239175  0.017355152          187 
 1550000    0.6323309     -7.30948    338.23108  0.018184467  0.017341931          146 
 1551000   0.62707764   -7.3101029    338.43162  0.018183517  0.017328703          218 
 1552000    0.6305445   -7.2957431    337.65974  0.018130356  0.017315474          184 
 1553000   0.63172783   -7.3128521    337.73769  0.018122864  0.017302257          175 
 1554000   0.63665539     -7.30828    338.04866  0.018127877  0.017289045          185 
 1555000   0.64028164   -7.3275794    338.12369  0.018120241  0.017275806          246 
 1556000   0.63051857    -7.321475    337.30948  0.018064989  0.017262554          211 
 1557000   0.63013974   -7.3178425    337.95244  0.018087799  0.017249303          217 
 1558000   0.62093471   -7.3419969    338.74461  0.018118561  0.017236082          146 
 1559000   0.62131804   -7.3179322    337.94036  0.018063949  0.017222877          281 
 1560000   0.62826374    -7.329713    338.14473  0.018063287  0.017209674          174 
 1561000   0.63455119   -7.3148179    337.66248  0.018025971  0.017196469          268 
 1562000    0.6384292   -7.3303515    338.33898  0.018050522  0.017183276          283 
 1563000    0.6358485   -7.3171581    337.77724  0.018009023  0.017170074          299 
 1564000   0.62837585   -7.3344128    338.02265  0.018010585  0.017156892          340 
 1565000   0.62521626   -7.3374009     337.7182  0.017982865  0.017143681          316 
 1566000   0.62916873   -7.3308545    338.03003  0.017987975  0.017130501          243 
 1567000   0.62330456   -7.3424413    337.57148   0.01795211  0.017117327          321 
 1568000   0.63662253    -7.334349    337.33648  0.017928172  0.017104162          252 
 1569000   0.64036981   -7.3345208    338.21036  0.017963159  0.017091025          301 
 1570000   0.62391827   -7.3364965    338.10403  0.017946074  0.017077948          373 
 1571000   0.63090032   -7.3448664    338.04729   0.01793164  0.017064867          262 
 1572000   0.63707663   -7.3587938    337.82675  0.017908543  0.017051754          365 
 1573000   0.63086505   -7.3352261    337.80043  0.017895763  0.017038682          335 
 1574000   0.62369509   -7.3528388    337.94716  0.017892162  0.017025606          355 
 1575000   0.63331587   -7.3227346    337.37958  0.017850772  0.017012521          363 
 1576000   0.61500887    -7.314701    337.76301  0.017859719  0.016999474          270 
 1577000   0.62619145   -7.3363895    338.22661  0.017872892  0.016986431          363 
 1578000   0.62053401   -7.3129204    337.47732  0.017821996  0.016973342          418 
 1579000   0.62229588   -7.3436206    338.01929  0.017839312  0.016960263          535 
 1580000   0.62415796   -7.3217033    337.44846  0.017797914  0.016947197          485 
 1581000    0.6239814   -7.3469443     337.7734  0.017803784  0.016934103          366 
 1582000   0.62809834   -7.3521687    337.69826  0.017788572  0.016921015          483 
 1583000   0.61869486   -7.3340005    338.09172  0.017798048  0.016907978          357 
 1584000   0.63596843   -7.3487959    337.62856  0.017762445  0.016894931          415 
 1585000   0.62876864   -7.3438835    337.49628  0.017744284  0.016881872          264 
 1586000   0.61609488   -7.3517136    337.37806  0.017726884  0.016868817          489 
 1587000   0.62988185   -7.3557633    337.91006   0.01774365  0.016855774          367 
 1588000   0.61061387   -7.3649328    337.35508  0.017703352  0.016842728          404 
 1589000   0.62146098   -7.3446004    337.86813  0.017719118  0.016829681          550 
 1590000   0.60911699   -7.3784517    337.44053  0.017685562  0.016816645          509 
 1591000   0.61287226   -7.3424731    338.15544  0.017711892  0.016803615          300 
 1592000   0.62350721   -7.3579982    337.65893  0.017674777  0.016790605          572 
 1593000     0.611999   -7.3815355    338.49579  0.017707459  0.016777602          512 
 1594000   0.61469366    -7.363834    337.30998  0.017634357  0.016764606          425 
 1595000   0.61381592   -7.3545151    337.09307  0.017611968  0.016751633          488 
 1596000   0.60737474   -7.3533021    337.37354  0.017615578  0.016738617          482 
 1597000   0.60339873   -7.3898642    337.50323  0.017611314   0.01672562          572 
 1598000   0.60378768   -7.3827946    337.59483  0.017605071  0.016712629          561 
 1599000    0.6111649   -7.3624081    337.66348  0.017597638   0.01669967          539 
 1600000   0.62836803   -7.3707774    337.55286  0.017580878   0.01668667          581 
 1601000    0.6058876   -7.3604182    337.65719  0.017575327  0.016673705          531 
 1602000   0.61725261   -7.3996043    337.21976  0.017541602  0.016660736          445 
 1603000   0.60579865   -7.3761742    337.55941  0.017548316  0.016647807          559 
 1604000   0.60918617    -7.365067     337.5344  0.017536076  0.016634871          517 
 1605000   0.61265717   -7.3641431    336.72412   0.01748308  0.016621943          611 
 1606000    0.6083952   -7.3799618    337.61085  0.017518205   0.01660902          554 
 1607000   0.61852516   -7.3849878    337.80245   0.01751724  0.016596134          581 
 1608000   0.62284299   -7.3773947    337.48866  0.017490084  0.016583236          609 
 1609000   0.60161032   -7.3857296    337.49803  0.017479699  0.016570355          486 
 1610000   0.61254373   -7.3992522    337.03083   0.01744466  0.016557444          669 
 1611000   0.61619014   -7.3672754    337.90888  0.017479251  0.016544592          647 
 1612000   0.61687149   -7.3810335    337.33694  0.017438841  0.016531744          588 
 1613000   0.61942192    -7.385219    337.97524  0.017461007  0.016518921          474 
 1614000   0.61573761   -7.3830848    337.42098   0.01742157  0.016506106          634 
 1615000    0.6161756   -7.4025228    337.90048  0.017435525  0.016493275          677 
 1616000   0.61287342   -7.3883979    337.51525  0.017404871  0.016480459          632 
 1617000   0.60889457   -7.3847769    337.35193   0.01738569  0.016467661          700 
 1618000   0.61733923   -7.3815617    337.35643  0.017375176  0.016454868          713 
 1619000   0.59672488   -7.3827882     337.8083  0.017387704  0.016442085          678 
 1620000   0.60776811    -7.386822    337.84589  0.017378904  0.016429308          708 
 1621000   0.60218041   -7.3941188    337.32661  0.017341487  0.016416566          630 
 1622000   0.61120949    -7.392286    337.17716  0.017323118  0.016403812          641 
 1623000     0.590785   -7.3832149     337.5465  0.017331408  0.016391075          735 
 1624000   0.61536974   -7.4126157     337.6263   0.01732483  0.016378347          636 
 1625000   0.60152487   -7.3945475    338.00919  0.017333804  0.016365643          704 
 1626000    0.5953836   -7.3781904    337.22603  0.017283007  0.016352933          646 
 1627000   0.59075733   -7.3691386    337.21741  0.017271943  0.016340247          766 
 1628000   0.60689621   -7.3835716    337.45871  0.017273685  0.016327588          608 
 1629000   0.60174795   -7.3965054    337.55714  0.017268116  0.016314936          681 
 1630000   0.61216071   -7.4129677    337.66079  0.017262821  0.016302269          702 
 1631000   0.60539954   -7.3871263    337.19898  0.017228642  0.016289599          707 
 1632000   0.59147349   -7.4134226    337.17026  0.017216619  0.016276926          765 
 1633000   0.60481696   -7.4151514    337.13805  0.017204432  0.016264274          677 
 1634000    0.5884803   -7.4114784    336.94589  0.017184103  0.016251621          714 
 1635000   0.60975825   -7.4030642    336.80966  0.017166649  0.016238974          707 
 1636000   0.60501304   -7.4144305    337.02574  0.017167163  0.016226332          711 
 1637000   0.60621745   -7.4137928    336.96265  0.017153464  0.016213691          745 
 1638000   0.59882458   -7.4205346    337.38121  0.017164286  0.016201066          735 
 1639000   0.60542295   -7.3966663       337.69  0.017169514  0.016188449          694 
 1640000   0.59458375   -7.4161212    337.05458  0.017126757  0.016175831          716 
 1641000   0.59121306   -7.4304812    336.81356  0.017104081  0.016163226          727 
 1642000   0.61440986   -7.4143191    337.76913   0.01714216  0.016150614          730 
 1643000   0.59650041   -7.4017608    337.03309  0.017094395  0.016138011          769 
 1644000   0.58656721   -7.3965276    337.43634  0.017104437   0.01612544          743 
 1645000   0.58036599   -7.3884516    337.39603  0.017091998  0.016112884          751 
 1646000   0.60267568   -7.4264577    336.82398  0.017052652  0.016100327          785 
 1647000   0.60943916   -7.4033211    337.29439    0.0170661   0.01608777          697 
 1648000   0.60395664   -7.4009854    337.87483  0.017085095  0.016075237          731 
 1649000   0.58859717   -7.4175585     336.9748   0.01702925  0.016062707          689 
 1650000   0.58873349   -7.4128466    337.37936  0.017039361  0.016050194          773 
 1651000   0.57379873   -7.4120573    337.27331  0.017023688  0.016037706          735 
 1652000   0.59833946   -7.4137949    337.05491  0.017002367  0.016025223          759 
 1653000   0.58980123   -7.4215315    336.89669  0.016984104  0.016012716          816 
 1654000   0.59610096   -7.4234235    337.54867  0.017006684  0.016000214          711 
 1655000   0.58673466    -7.418694    336.39703   0.01693842  0.015987735          844 
 1656000    0.5765761   -7.4125939    336.88351  0.016952673   0.01597526          747 
 1657000    0.5949139   -7.4067203    337.47615  0.016972246  0.015962841          815 
 1658000   0.60281413   -7.4109435    337.87138  0.016981875  0.015950442          795 
 1659000    0.5802737   -7.4301675    337.92624  0.016974394  0.015938051          768 
 1660000   0.58631006   -7.4255859    337.54169  0.016944864  0.015925659          895 
 1661000    0.5910119    -7.432287    336.98543  0.016906755  0.015913287          852 
 1662000   0.58124247   -7.4214255    337.65685  0.016930247  0.015900893          859 
 1663000    0.5906672   -7.4417191    337.41786  0.016908091   0.01588851          839 
 1664000   0.58136906   -7.4407635    337.06268  0.016880142  0.015876138          933 
 1665000   0.58918946   -7.4143988    337.12698  0.016873222  0.015863773          832 
 1666000   0.59148336   -7.4429799    337.52545  0.016883026  0.015851411          901 
 1667000   0.59800767   -7.4214312    337.09555  0.016851407  0.015839058          856 
 1668000   0.60179869   -7.4531055    336.88955  0.016831013  0.015826707          864 
 1669000   0.60471037   -7.4448967    337.47998  0.016850409  0.015814366          860 
 1670000   0.59041117    -7.436504    337.48388  0.016840513  0.015802047          810 
 1671000    0.5739542    -7.422418    337.11956  0.016812266  0.015789721          819 
 1672000   0.57896255   -7.4550108    337.34057  0.016813226  0.015777399          852 
 1673000   0.58603953   -7.4385344     336.2202   0.01674737  0.015765075          911 
 1674000    0.5698204   -7.4259384     336.7631  0.016764392  0.015752764          948 
 1675000   0.57424796   -7.4500301    336.79179  0.016755811  0.015740461          904 
 1676000   0.59370005   -7.4415322    337.50217  0.016781134  0.015728177          856 
 1677000   0.58925433   -7.4632571    336.84598   0.01673852  0.015715873          857 
 1678000   0.59273745   -7.4403805    337.30126  0.016751155  0.015703594          855 
 1679000   0.58295606   -7.4461219    337.40416  0.016746285  0.015691322          901 
 1680000    0.5712561   -7.4555864    337.10831  0.016721643  0.015679034          848 
 1681000   0.58373182    -7.445394    337.23045   0.01671775  0.015666767          815 
 1682000   0.58754148   -7.4446072    336.75815  0.016684411  0.015654527          904 
 1683000   0.58021208   -7.4608734    336.81356  0.016677241  0.015642264          803 
 1684000   0.58525649   -7.4548972    337.27073  0.016689961  0.015630031          816 
 1685000   0.58721836   -7.4376122    336.79541  0.016656548  0.015617811          815 
 1686000   0.58095439   -7.4527476      336.293  0.016621837   0.01560559          879 
 1687000   0.58557561   -7.4607588    337.05407  0.016649579  0.015593367          840 
 1688000   0.57570389   -7.4547906    336.54734  0.016614699  0.015581162          857 
 1689000   0.58145507   -7.4598746    336.80009  0.016617332  0.015568971          870 
 1690000   0.57216144   -7.4538459    336.46648  0.016591049  0.015556761          835 
 1691000   0.58313883   -7.4598885    336.82467  0.016598889  0.015544566          913 
 1692000   0.58830386   -7.4612897    336.58252  0.016577153  0.015532383          853 
 1693000   0.59356333    -7.474447    336.37358  0.016557077  0.015520219          835 
 1694000   0.56697065   -7.4565865    336.24418  0.016540938  0.015508071          832 
 1695000   0.57552573   -7.4536883    336.89418  0.016563136  0.015495911          874 
 1696000   0.57977364   -7.4601716    336.19059  0.016518799   0.01548376          918 
 1697000   0.57725352    -7.457733    337.24016  0.016560605   0.01547163          850 
 1698000   0.55731471   -7.4527876    337.26352  0.016551998  0.015459514          883 
 1699000   0.57727524   -7.4718202    336.41089  0.016500436  0.015447385          928 
 1700000   0.58009827   -7.4533412    336.61027  0.016500504   0.01543529          905 
 1701000   0.58864519   -7.4564914    336.98832  0.016509324  0.015423208          871 
 1702000    0.5834163   -7.4764268    336.46068   0.01647379  0.015411126          908 
 1703000   0.56425682   -7.4665921    336.71385  0.016476505  0.015399063          924 
 1704000   0.57606301   -7.4682209    337.51588  0.016506058  0.015387015          901 
 1705000   0.57112979   -7.4642671    337.08672  0.016475402  0.015374988          947 
 1706000   0.56762327   -7.4669272    337.06043   0.01646446  0.015362976          944 
 1707000   0.56599836   -7.4678988    335.91051  0.016398677  0.015350961          848 
 1708000   0.55939121   -7.4631904    337.19801  0.016451894  0.015338953          871 
 1709000   0.57765938   -7.4773371    336.69398   0.01641769  0.015326941          983 
 1710000   0.56556233   -7.4635613     336.6009  0.016403553  0.015314935          961 
 1711000   0.56340174   -7.4576959    336.43372  0.016385823  0.015302932          928 
 1712000   0.57005663   -7.4823178    336.54773  0.016381802  0.015290914          943 
 1713000   0.56494691   -7.4572161    336.11078  0.016350982  0.015278922          911 
 1714000   0.57400515   -7.4719081     336.7308  0.016371587   0.01526697          895 
 1715000   0.57237996   -7.4652255    336.65313  0.016358267  0.015254997          954 
 1716000    0.5688413    -7.469185    337.51878  0.016390772  0.015243047          938 
 1717000   0.57194815   -7.4863874    336.28328  0.016321262  0.015231083          840 
 1718000   0.56584339   -7.4697712    336.70107  0.016332027  0.015219145          886 
 1719000   0.57653487   -7.4693015    336.72099  0.016323492  0.015207196          937 
 1720000   0.54994615   -7.4660653    336.43822  0.016300302  0.015195266          934 
 1721000   0.56297889   -7.4496793    336.95427  0.016315818  0.015183357          848 
 1722000   0.56427762   -7.4670398    336.49895  0.016284308   0.01517145          992 
 1723000   0.57001579   -7.4768623     336.7169  0.016285398  0.015159557          958 
 1724000   0.55886505   -7.4760113    336.68177  0.016274254  0.015147645          893 
 1725000   0.57036769   -7.4709671      336.234  0.016243188  0.015135745          924 
 1726000   0.55798105   -7.4827214     336.7702  0.016259666  0.015123852          901 
 1727000   0.55932041   -7.4755246    336.19205  0.016222353  0.015111965          970 
 1728000   0.56637506   -7.5019816    336.44373  0.016225103  0.015100088          952 
 1729000   0.56466401   -7.4932029    336.07326  0.016197863   0.01508823          914 
 1730000   0.56405417   -7.4816334    336.63358   0.01621549   0.01507638          903 
 1731000   0.56639399   -7.5081031      336.226  0.016186501  0.015064519          971 
 1732000   0.55897011   -7.4913169    336.52429  0.016191507  0.015052667          926 
 1733000   0.56909923    -7.501755    336.04668  0.016159198  0.015040824         1023 
 1734000   0.56575021   -7.5061498    336.10188  0.016152532  0.015028989         1005 
 1735000   0.55996601   -7.4793759    336.15845  0.016145939  0.015017166          943 
 1736000   0.56480086   -7.5033497    336.48105  0.016152124  0.015005343          968 
 1737000   0.56603962   -7.4921111    336.06354  0.016122795  0.014993527         1041 
 1738000   0.56343648   -7.4912741    336.50759   0.01613481  0.014981739          955 
 1739000   0.57108295   -7.5133037    336.17642  0.016109662  0.014969936          982 
 1740000   0.56910161   -7.4971777    336.56994   0.01611925  0.014958133          975 
 1741000    0.5468862   -7.5042313    336.16636  0.016090674  0.014946319          993 
 1742000   0.55698436   -7.4993572    335.61738  0.016055175  0.014934525          942 
 1743000   0.55325158   -7.5179243    335.50744  0.016040708  0.014922741         1088 
 1744000   0.55220509   -7.4972119    335.61339  0.016036573  0.014910971          991 
 1745000   0.54349901    -7.525462    335.82206  0.016037348  0.014899198         1074 
 1746000   0.54984135   -7.5126171    335.80198  0.016027204  0.014887432         1139 
 1747000   0.55473032   -7.5166543    335.58662  0.016007757  0.014875662         1091 
 1748000   0.56622244   -7.4973088    335.89302  0.016013206  0.014863914         1029 
 1749000   0.55447121   -7.5158575    335.94432  0.016006495  0.014852169         1084 
 1750000    0.5574384   -7.5041629     335.4013  0.015971491  0.014840454         1113 
 1751000     0.545025   -7.5012116    335.64778    0.0159741  0.014828737         1056 
 1752000   0.55153341   -7.5002774    335.78351  0.015971438   0.01481704         1092 
 1753000   0.55976766   -7.5035852    335.55136  0.015951291  0.014805357         1099 
 1754000   0.55637239   -7.4984945    336.01786  0.015964361  0.014793682         1048 
 1755000   0.55823067   -7.5114191    336.20088  0.015963954  0.014782033         1039 
 1756000   0.55984734   -7.5133634    335.63437  0.015927979  0.014770377         1080 
 1757000   0.53441107   -7.5012584    336.03652  0.015937987  0.014758753         1018 
 1758000   0.55553583   -7.5099068    335.90969  0.015922909  0.014747135         1092 
 1759000   0.55535898   -7.5165985    336.29535  0.015932128  0.014735517         1090 
 1760000   0.54935471   -7.5156243    335.82062  0.015900598  0.014723897         1053 
 1761000   0.55030749   -7.5330082    335.99511  0.015899825  0.014712293         1103 
 1762000   0.55263036   -7.5071213    335.58229  0.015871277  0.014700707         1075 
 1763000   0.54554022   -7.5161165    335.93345  0.015878874  0.014689129         1070 
 1764000   0.55249174   -7.5091294    336.12997  0.015879156  0.014677572         1090 
 1765000   0.55296457   -7.5177303    336.08548  0.015868058  0.014666011         1025 
 1766000   0.55158544    -7.519996    336.24367  0.015866538  0.014654483         1088 
 1767000   0.54136296   -7.4992959    336.10464  0.015851002  0.014642962         1068 
 1768000   0.55499058   -7.5172076    336.12943  0.015843205  0.014631453         1104 
 1769000   0.54012427   -7.5236441    335.27955  0.015794213  0.014619958         1101 
 1770000   0.53999758   -7.5207903    335.83832  0.015811597  0.014608458         1131 
 1771000   0.55062174   -7.5429652    335.46491  0.015785098  0.014596977         1140 
 1772000   0.55945975   -7.5364986    335.93002  0.015798064  0.014585494         1005 
 1773000   0.55234316    -7.533521    336.39317  0.015810922  0.014574033         1063 
 1774000   0.54758761   -7.5330064     335.6226  0.015765812  0.014562572         1119 
 1775000   0.52510298   -7.5296239    336.03798  0.015776431  0.014551113         1114 
 1776000   0.54805958   -7.5333829    335.71978  0.015752617  0.014539672         1097 
 1777000   0.54819056   -7.5223128    335.40921  0.015729188  0.014528246         1122 
 1778000   0.54721521   -7.5269262    335.95738  0.015746034  0.014516841         1126 
 1779000   0.54333533   -7.5093096    335.48525  0.015715067  0.014505425         1112 
 1780000   0.54745215   -7.5322733    336.00906  0.015730761  0.014494013         1111 
 1781000    0.5437923   -7.5331744    336.10587  0.015726458  0.014482626         1149 
 1782000   0.53560391    -7.542609    335.46772  0.015687791  0.014471258         1118 
 1783000    0.5391169   -7.5319091     336.0113  0.015704398  0.014459882         1114 
 1784000   0.53327957   -7.5438733     335.4116  0.015667582  0.014448522         1119 
 1785000   0.52819761   -7.5122214    334.89419  0.015634649  0.014437148         1086 
 1786000   0.54867678   -7.5319784    336.05156  0.015679897  0.014425808         1135 
 1787000   0.53311556   -7.5201629    335.82972  0.015660778  0.014414479         1164 
 1788000   0.52829913   -7.5437354    335.77304  0.015649377   0.01440315         1163 
 1789000   0.53944873    -7.529349    336.00819  0.015651583  0.014391832         1176 
 1790000   0.53708317   -7.5327262    335.53906  0.015620999  0.014380513         1155 
 1791000   0.54249179   -7.5550604     335.8865  0.015628443  0.014369215         1142 
 1792000   0.55164615   -7.5416733    335.94952  0.015622653  0.014357895         1161 
 1793000   0.53750893      -7.5406    335.55145  0.015595438  0.014346596         1090 
 1794000   0.52655938   -7.5296407     335.6109  0.015589507  0.014335314         1150 
 1795000   0.53719768   -7.5311489     335.4054  0.015571282  0.014324043         1088 
 1796000   0.54101808   -7.5289118    336.12827  0.015596152  0.014312788         1111 
 1797000   0.54253475   -7.5541786    334.73412  0.015522821  0.014301538         1180 
 1798000   0.53470377   -7.5431878    335.47401   0.01554848  0.014290291         1162 
 1799000   0.54518305   -7.5471327    335.21467  0.015527824  0.014279034         1148 
 1800000    0.5512186   -7.5357462    335.45685   0.01553041  0.014267789         1207 
 1801000   0.52518745   -7.5339198    335.82123  0.015538647  0.014256563         1200 
 1802000   0.54326568   -7.5436637    335.21557  0.015502015  0.014245351         1212 
 1803000   0.54556052   -7.5465369    334.98777  0.015482888  0.014234142         1192 
 1804000   0.54270559   -7.5635941    335.41482  0.015494033  0.014222944         1157 
 1805000   0.53102779   -7.5435088    335.72669  0.015499847  0.014211758         1206 
 1806000   0.52502778   -7.5340701    334.98236   0.01545692  0.014200573         1148 
 1807000   0.52689794   -7.5546381    335.21909  0.015459283  0.014189391         1153 
 1808000   0.54045881    -7.549641    335.42695  0.015460313  0.014178216         1181 
 1809000   0.53579613    -7.574337    335.12341  0.015437784  0.014167062         1169 
 1810000   0.52544166   -7.5436186    335.12927  0.015429524  0.014155904         1182 
 1811000   0.52088446   -7.5584049    335.30685  0.015429176   0.01414476         1125 
 1812000   0.53542302   -7.5495219     335.3042  0.015420539  0.014133645         1148 
 1813000    0.5250698   -7.5547351    334.60289  0.015379798  0.014122515         1129 
 1814000   0.53127707   -7.5622337    334.91444  0.015385632  0.014111393         1161 
 1815000   0.52293345   -7.5341337    334.99673  0.015380934  0.014100293         1182 
 1816000   0.52499392   -7.5787977    335.23641  0.015383462  0.014089193         1208 
 1817000   0.53199758   -7.5507572    334.62266  0.015346847  0.014078106         1221 
 1818000   0.53405056   -7.5399393    334.87079  0.015349779  0.014067029         1170 
 1819000   0.53294007   -7.5466694    335.29022  0.015360556   0.01405597         1221 
 1820000   0.53110748   -7.5535266    335.71141  0.015371402  0.014044916         1187 
 1821000   0.53173407   -7.5255918    334.77381  0.015320053  0.014033867         1165 
 1822000   0.52409866   -7.5629523    335.10792  0.015326926  0.014022823         1123 
 1823000   0.53174274   -7.5483566    335.36538  0.015330288  0.014011783         1178 
 1824000    0.5155034    -7.568846    334.71054  0.015291965  0.014000763         1207 
 1825000   0.51552243   -7.5611281     334.7592  0.015285808  0.013989739         1185 
 1826000   0.51950239   -7.5701101    335.29098  0.015301706  0.013978722         1209 
 1827000    0.5205739   -7.5552832    335.64556  0.015309504  0.013967714         1110 
 1828000   0.52715926   -7.5538119    335.07126  0.015274948  0.013956722         1155 
 1829000    0.5321391   -7.5694237    335.48654  0.015285518  0.013945738         1178 
 1830000   0.51653035     -7.58438    335.28132   0.01526782  0.013934763         1144 
 1831000   0.51255385   -7.5805703    334.70462  0.015233234  0.013923808         1149 
 1832000   0.51840798   -7.5660323    335.16044  0.015245653  0.013912866         1174 
 1833000   0.51726486   -7.5764656    334.97022  0.015228688  0.013901933         1254 
 1834000   0.52154267   -7.5668763    335.11012  0.015226741  0.013891014         1183 
 1835000   0.51907352   -7.5728728    335.57946  0.015239758    0.0138801         1152 
 1836000   0.52594391   -7.5462204    334.48836  0.015181933  0.013869203         1178 
 1837000   0.50752035   -7.5639724    334.50417  0.015174386  0.013858315         1205 
 1838000   0.51963405   -7.5719862    335.05451  0.015191082  0.013847438         1159 
 1839000   0.51831998   -7.5593828    335.14862  0.015187086  0.013836564         1202 
 1840000   0.51529285   -7.5524517    335.26348  0.015184034  0.013825714         1166 
 1841000   0.50944248     -7.57232     335.7313  0.015196963  0.013814874         1189 
 1842000    0.5147312   -7.5707432    335.17527  0.015163557  0.013804035         1204 
 1843000   0.52794342    -7.570112    334.44512  0.015122315  0.013793205         1163 
 1844000   0.51592063   -7.5609988    335.37174   0.01515599  0.013782392         1209 
 1845000   0.51591736   -7.5728632    334.61976   0.01511381  0.013771582         1223 
 1846000   0.51872473   -7.5704091    335.11836  0.015128131  0.013760789         1195 
 1847000   0.51273002   -7.5836116    334.83372  0.015107098  0.013749997         1157 
 1848000   0.51113035   -7.5534732     334.3404  0.015076678  0.013739214         1212 
 1849000   0.50460757    -7.579779    335.02222  0.015099253  0.013728439         1145 
 1850000   0.52514371   -7.5655584    334.18074  0.015053187  0.013717667         1244 
 1851000   0.50946383   -7.5804606     335.2084   0.01509132  0.013706905         1242 
 1852000   0.51893009   -7.5688022    334.88297  0.015068528  0.013696147         1254 
 1853000   0.50596518   -7.5956102    334.91746  0.015061947  0.013685392         1232 
 1854000   0.51468297   -7.5789345    334.75855   0.01504668  0.013674648         1280 
 1855000   0.50629188   -7.5826224     334.6766  0.015034888   0.01366392         1276 
 1856000   0.50328264   -7.5832672    334.70931  0.015028256  0.013653192         1298 
 1857000   0.51905906   -7.5752599    335.12136  0.015038654  0.013642477         1237 
 1858000   0.52044336   -7.5721005    334.93612  0.015022252  0.013631776         1255 
 1859000   0.51255372   -7.5811425     334.4662  0.014993106  0.013621068         1260 
 1860000   0.50625708   -7.5655451    334.45773  0.014984665  0.013610376         1217 
 1861000   0.50105223   -7.5760234    334.58445  0.014982288  0.013599694         1210 
 1862000   0.51488314   -7.5818027    334.51159  0.014970981  0.013589031         1273 
 1863000    0.5028159   -7.5692179    334.21977  0.014949891  0.013578367         1275 
 1864000     0.521009   -7.5763983    334.22788  0.014942234  0.013567713         1235 
 1865000   0.51177842    -7.600229    334.75696  0.014957862  0.013557081         1286 
 1866000   0.49355728   -7.5783988     334.9068  0.014956538  0.013546438         1272 
 1867000   0.51532747   -7.5860948    334.29054   0.01492102  0.013535819         1281 
 1868000    0.5130165   -7.5922438    335.43416  0.014964051  0.013525215         1220 
 1869000   0.50557064    -7.561185    334.69429  0.014923055   0.01351463         1258 
 1870000   0.50180278   -7.6040724    334.81658  0.014920525  0.013504044         1273 
 1871000     0.498089    -7.581818    334.36833  0.014892586   0.01349346         1242 
 1872000   0.49719562   -7.5784084    334.08291  0.014871925  0.013482892         1231 
 1873000   0.50026042    -7.583881    334.61921  0.014887845  0.013472329         1251 
 1874000   0.50469315   -7.5982975    334.45603  0.014872645  0.013461765         1306 
 1875000   0.49856953   -7.5942399    334.81866  0.014880829  0.013451222         1264 
 1876000   0.50885023   -7.5941014    334.44378  0.014856245  0.013440685         1285 
 1877000   0.50527594   -7.5866732    334.71715  0.014860467   0.01343015         1244 
 1878000   0.50569462   -7.5883708    334.33388  0.014835547  0.013419633         1246 
 1879000   0.50874203   -7.5930476    334.59556  0.014839257  0.013409124         1224 
 1880000   0.50737845   -7.5922032    334.51524  0.014827803  0.013398622         1277 
 1881000   0.49944463    -7.615361    334.39417  0.014814557  0.013388129         1277 
 1882000   0.50383752   -7.6056534    334.48713  0.014810801  0.013377645         1254 
 1883000   0.50634789     -7.60393    334.65986   0.01481058  0.013367166         1256 
 1884000   0.51572814   -7.5985587    334.27468  0.014785681  0.013356705         1265 
 1885000   0.49918881   -7.5759939    334.67674  0.014795612  0.013346243         1324 
 1886000    0.5044213   -7.6032215    334.64033  0.014786158  0.013335794         1336 
 1887000   0.48828228   -7.5816159    334.07041  0.014753153  0.013325358         1311 
 1888000   0.50960471   -7.6011075    334.45869  0.014762477   0.01331493         1289 
 1889000   0.49533231   -7.6023432    334.16551  0.014741729  0.013304511         1337 
 1890000   0.49394871   -7.5926178    333.90441  0.014722416  0.013294091         1299 
 1891000   0.49534063   -7.6146629    334.47557  0.014739801  0.013283676         1287 
 1892000   0.50457601   -7.6059859    334.17042   0.01471857  0.013273263         1318 
 1893000   0.49040922   -7.6112909    334.09336  0.014707403  0.013262862         1242 
 1894000   0.49740946   -7.5985879    333.90659   0.01469142  0.013252454         1307 
 1895000    0.4926412   -7.6094325    334.51008  0.014710206  0.013242067         1319 
 1896000   0.49425622   -7.6124394    333.79326  0.014670941  0.013231698         1339 
 1897000   0.50029767   -7.6124401     334.5721  0.014697422  0.013221324         1319 
 1898000   0.49295237   -7.5945768    334.41877  0.014682946  0.013210964         1272 
 1899000   0.50298905   -7.6009506     334.0409  0.014658632  0.013200608         1319 
 1900000   0.50277058    -7.621489    334.47592  0.014669996  0.013190272         1277 
 1901000    0.5029465   -7.6031692    334.87409  0.014679734  0.013179943         1257 
 1902000   0.49366595   -7.6155193    334.07324  0.014636928   0.01316962         1319 
 1903000   0.48503347   -7.6163911    334.50921  0.014648328  0.013159314         1321 
 1904000   0.49282308   -7.6184257    333.70913  0.014605617  0.013149011         1312 
 1905000   0.48968944   -7.6054607    334.35132  0.014626042  0.013138718         1325 
 1906000   0.49086155   -7.6015975    334.01347  0.014603597  0.013128432         1336 
 1907000   0.48950307   -7.6256197    334.31731  0.014609217  0.013118157         1324 
 1908000   0.49011181   -7.6181553    334.40806  0.014605523  0.013107887         1372 
 1909000   0.49003435   -7.6117036    334.05511  0.014582465  0.013097617         1323 
 1910000   0.49037812   -7.6129812    334.10995  0.014577223  0.013087364         1303 
 1911000   0.49852297   -7.6053739    334.11019  0.014569605  0.013077123         1303 
 1912000   0.48059977   -7.6007663    333.75691  0.014546588  0.013066891         1280 
 1913000   0.48823953   -7.6161825    334.25371  0.014560625  0.013056667         1331 
 1914000   0.49599466   -7.6148051    333.94828   0.01453972  0.013046448         1295 
 1915000   0.48815257   -7.6268595    333.56158    0.0145153  0.013036244         1299 
 1916000   0.48716404   -7.5959056    333.53304  0.014506482  0.013026048         1344 
 1917000   0.49039113   -7.6249586    334.23301  0.014529343  0.013015854         1317 
 1918000   0.48847109   -7.6176571    333.68514  0.014497964  0.013005675         1345 
 1919000   0.48535102   -7.6168346    334.43224  0.014522852  0.012995509         1343 
 1920000   0.48450979    -7.619649    333.31348  0.014466731  0.012985346         1271 
 1921000    0.4841718   -7.6178237    334.32102  0.014502908  0.012975193         1296 
 1922000    0.4830467   -7.6079635    334.14694  0.014487814  0.012965045         1259 
 1923000   0.48732202   -7.6222303    333.90333  0.014469723  0.012954917         1287 
 1924000   0.48284911   -7.6313145    333.84752  0.014459785  0.012944787         1323 
 1925000   0.48013427   -7.6173705    334.32892  0.014473113  0.012934669         1345 
 1926000   0.47040449   -7.6259486    333.49509  0.014429521  0.012924559         1406 
 1927000    0.4735339   -7.6353997    333.88617  0.014438945  0.012914458         1323 
 1928000   0.47901329   -7.6111871    333.63801   0.01442073  0.012904368         1339 
 1929000   0.48002876   -7.6374493    333.86324  0.014422984  0.012894292         1352 
 1930000   0.47389549   -7.6191427    334.06853  0.014424375  0.012884229         1334 
 1931000   0.47308533     -7.63148    333.73874  0.014402673  0.012874169         1315 
 1932000   0.48183621   -7.6192654    333.92304  0.014403168  0.012864115         1324 
 1933000   0.48006724   -7.6339643    334.45094  0.014418475  0.012854068         1338 
 1934000   0.47907355   -7.6127986    333.37677  0.014364735  0.012844036         1341 
 1935000     0.488579    -7.627683    333.87438  0.014378742  0.012834017         1342 
 1936000   0.48361772   -7.6219889    333.56039  0.014357799  0.012824009         1362 
 1937000   0.48844551   -7.6365141    333.50069  0.014347818  0.012814007         1397 
 1938000   0.47224198   -7.6348998    333.33375  0.014333236  0.012804005         1384 
 1939000   0.47636564   -7.6198081    333.30715  0.014324701  0.012794015         1389 
 1940000   0.48082935   -7.6385071    334.13107  0.014352709  0.012784037         1364 
 1941000   0.48423854   -7.6315483    333.80238  0.014331203  0.012774062         1357 
 1942000   0.47680404   -7.6500146    333.52887  0.014312087  0.012764095         1328 
 1943000   0.46073632   -7.6340263    334.01984  0.014325778  0.012754139         1337 
 1944000   0.46666248   -7.6227723    333.78613   0.01430839  0.012744193         1346 
 1945000   0.48042193   -7.6509888    333.76714   0.01430022  0.012734262         1318 
 1946000   0.47098992   -7.6289887    333.30668  0.014273153  0.012724342         1394 
 1947000   0.48105194   -7.6381938    333.72032  0.014283527  0.012714433         1336 
 1948000   0.48565621   -7.6432306    333.73493  0.014276819  0.012704525         1342 
 1949000   0.46775898   -7.6431531     333.7156  0.014268668  0.012694625         1305 
 1950000   0.48316839   -7.6487016    334.20955   0.01428246  0.012684744         1332 
 1951000    0.4804699   -7.6438581    333.88525  0.014261287  0.012674869         1409 
 1952000   0.47710056   -7.6325485    333.26353  0.014227439  0.012665011         1299 
 1953000   0.47784438   -7.6430596    333.98389  0.014250891  0.012655158         1303 
 1954000   0.47707838   -7.6431176    333.62469  0.014228279  0.012645323         1288 
 1955000    0.4612703   -7.6435171    333.60447  0.014220139  0.012635492         1371 
 1956000   0.47371144   -7.6336627    333.51776  0.014209175  0.012625662         1345 
 1957000   0.48261739   -7.6592478    334.27613  0.014234207  0.012615841         1326 
 1958000   0.47139506   -7.6429402    333.40584  0.014189898  0.012606042         1343 
 1959000   0.46758395   -7.6280776    333.09117  0.014169269   0.01259624         1324 
 1960000   0.47608639   -7.6427551    333.56593  0.014182225  0.012586452         1351 
 1961000   0.46896238   -7.6583107    333.11261  0.014155729   0.01257667         1336 
 1962000   0.46086388   -7.6513963    333.77304  0.014176565  0.012566897         1338 
 1963000    0.4833802   -7.6505786    333.64221  0.014163789  0.012557133         1405 
 1964000   0.48078649   -7.6471169    333.68114  0.014158229  0.012547374         1401 
 1965000   0.47459476   -7.6341712    333.20121   0.01413067  0.012537627         1414 
 1966000    0.4732464    -7.651078    333.85849  0.014151343  0.012527888         1304 
 1967000   0.47342414   -7.6393573    333.75444  0.014139741  0.012518165         1358 
 1968000    0.4677221   -7.6566261    333.08611  0.014104256  0.012508448         1371 
 1969000   0.46253893   -7.6631211    333.33187  0.014107494  0.012498742         1382 
 1970000   0.46275503   -7.6481826    333.62122  0.014112573  0.012489049         1386 
 1971000    0.4719235   -7.6451928    333.80278  0.014113089  0.012479349         1391 
 1972000   0.46660445   -7.6668551    333.36519   0.01408744  0.012469673         1377 
 1973000   0.46228771   -7.6478786    333.83827  0.014100282      0.01246         1398 
 1974000   0.46151229   -7.6661782    333.71572  0.014087965  0.012450332         1389 
 1975000   0.46558722   -7.6463246    333.78521  0.014083764  0.012440678         1385 
 1976000   0.47373721   -7.6475337    333.81272  0.014077797  0.012431032         1281 
 1977000   0.45113195   -7.6577733    333.47847  0.014056587  0.012421384         1389 
 1978000   0.46300011   -7.6543383    333.55286  0.014052615   0.01241175         1362 
 1979000   0.45960261    -7.650735    333.06578  0.014025003  0.012402128         1365 
 1980000   0.46339183   -7.6510996    333.79576  0.014048643  0.012392511         1410 
 1981000   0.46572369   -7.6641358    333.52666  0.014030231  0.012382901         1361 
 1982000   0.46286833   -7.6473715    333.66691  0.014029049  0.012373302         1379 
 1983000   0.45026771   -7.6575989    333.23907  0.014003995  0.012363706         1365 
 1984000   0.46675869   -7.6529981    333.33954  0.014001157  0.012354123         1425 
 1985000   0.46641439   -7.6719111    333.61483   0.01400566  0.012344561         1314 
 1986000   0.44156869   -7.6529521    333.42982  0.013990845  0.012334997         1414 
 1987000    0.4654584   -7.6561663     333.2618  0.013976757  0.012325447         1434 
 1988000   0.44997927   -7.6427104    333.45655   0.01397789  0.012315907         1427 
 1989000   0.46153537   -7.6684577    333.55428  0.013974957   0.01230637         1390 
 1990000   0.46072387   -7.6563198    333.74228  0.013975807  0.012296849         1429 
 1991000   0.45267309   -7.6565664     333.4501  0.013956559  0.012287329         1370 
 1992000   0.45570653   -7.6579318    333.34928  0.013945335  0.012277816         1370 
 1993000   0.45499247    -7.646956    333.21398   0.01393268   0.01226832         1412 
 1994000   0.46003626   -7.6663189    333.95666  0.013956731  0.012258828         1412 
 1995000   0.45931695   -7.6692003     333.3789  0.013925602  0.012249346         1418 
 1996000   0.45310327   -7.6704231    333.53224  0.013925027   0.01223988         1455 
 1997000   0.44984577   -7.6531269    333.18639  0.013903622  0.012230427         1377 
 1998000   0.45754821   -7.6649701    333.74948  0.013920149   0.01222097         1361 
 1999000   0.45659357    -7.665268    333.62907  0.013908165  0.012211529         1412 
 2000000   0.45181706   -7.6657322    333.31628  0.013888178  0.012202094         1440 
 2001000   0.44627548   -7.6622471    333.51095  0.013889345  0.012192664         1421 
 2002000   0.45125896   -7.6623646    333.40172   0.01387786  0.012183247         1381 
 2003000   0.45093869   -7.6658946    332.85307  0.013848106   0.01217384         1333 
 2004000    0.4598029   -7.6644871    333.75098  0.013878534  0.012164446         1420 
 2005000   0.44775142   -7.6710931    333.18957  0.013848278  0.012155055         1380 
 2006000   0.45871149   -7.6697352    332.80021    0.0138252  0.012145673         1419 
 2007000   0.44930559   -7.6619119    333.41684  0.013843915  0.012136297         1402 
 2008000   0.45191538   -7.6817601     333.2842  0.013831516  0.012126933         1380 
 2009000   0.44769335   -7.6744244    332.82402  0.013805543  0.012117583         1398 
 2010000   0.45877264   -7.6735144     333.3805  0.013821745  0.012108243         1431 
 2011000   0.45395779   -7.6630136    333.14759  0.013805221  0.012098903         1406 
 2012000   0.45096265   -7.6783664    333.44007  0.013810473  0.012089579         1382 
Loop time of 4315.47 on 48 procs for 2000000 steps with 4000 atoms

Performance: 80084.059 tau/day, 463.449 timesteps/s
99.4% CPU use with 48 MPI tasks x no OpenMP threads

MPI task timing breakdown:
Section |  min time  |  avg time  |  max time  |%varavg| %total
---------------------------------------------------------------
Pair    | 272.92     | 287.37     | 303.15     |  47.3 |  6.66
Neigh   | 26.84      | 27.282     | 27.704     |   3.9 |  0.63
Comm    | 231.3      | 251.75     | 270.81     |  57.5 |  5.83
Output  | 4.3003     | 4.3017     | 4.3316     |   0.2 |  0.10
Modify  | 3675.4     | 3693.7     | 3714.7     |  16.5 | 85.59
Other   |            | 51.06      |            |       |  1.18

Nlocal:        83.3333 ave          89 max          72 min
Histogram: 1 0 1 2 5 7 6 13 9 4
Nghost:        1782.98 ave        1806 max        1757 min
Histogram: 2 3 2 6 7 7 11 7 1 2
Neighs:        10891.8 ave       11698 max        9314 min
Histogram: 1 0 0 5 7 5 6 10 8 6
FullNghs:      21782.2 ave       23602 max       18497 min
Histogram: 1 0 0 3 7 5 15 6 8 3

Total # of neighbors = 1045545
Ave neighs/atom = 261.38625
Neighbor list builds = 107820
Dangerous builds = 0

#clear
#
#next RN
#
#jump SELF
Total wall time: 1:11:58
