
units lj                  # Use reduced LJ style units
atom_style atomic         # Uncharged point particles
atom_modify map hash      # Needed for indexing of clusters etc
                          # Used to be able to find where atoms are in relation to each other.

lattice fcc 1.0 spacing 1 1 1
Lattice spacing in x,y,z = 1.5874011 1.5874011 1.5874011
region box block 0 10 0 10 0 10 units lattice
create_box 2 box
Created orthogonal box = (0.0000000 0.0000000 0.0000000) to (15.874011 15.874011 15.874011)
  3 by 4 by 4 MPI processor grid
create_atoms 1 box
Created 4000 atoms
  using lattice units in orthogonal box = (0.0000000 0.0000000 0.0000000) to (15.874011 15.874011 15.874011)
  create_atoms CPU = 0.002 seconds
set type 1 type/fraction 2 0.75 78393
Setting atom values ...
  3002 settings made for type/fraction
mass 1 1.0
mass 2 1.0
pair_style lj/cut  3.5
pair_modify tail  yes
pair_coeff 1  1  1.0  1.0   # Intearaction between 1 and 1 set with epsilon = 1 and sigma = 1
pair_coeff 1  2  1.5  0.8
pair_coeff 2  2  0.5  0.88

write_data data.0
System init for write_data ...
Neighbor list info ...
  update every 1 steps, delay 10 steps, check yes
  max neighbors/atom: 2000, page size: 100000
  master list distance cutoff = 3.8
  ghost atom cutoff = 3.8
  binsize = 1.9, bins = 9 9 9
  1 neighbor lists, perpetual/occasional/extra = 1 0 0
  (1) pair lj/cut, perpetual
      attributes: half, newton on
      pair build: half/bin/atomonly/newton
      stencil: half/bin/3d
      bin: standard
WARNING: Not all mixed pair coeffs generated from mixing. Use write_data with 'pair ij' option to store all pair coeffs. (../write_data.cpp:312)


#############################
#   M E L T   S Y S T E M   #
#############################

velocity all create 2.4 9580093 mom yes dist gaussian # Assign velocities
                                                    # Temperature 2.4, random number seed, zero linear momentum
                                                                                # Gaussian distribution

timestep 0.002   # simulation timestep
thermo 1000       # output thermodynamic data every 1000 steps bf 100

# Define a fix  in this case with index 1 applied to all
# particles in the simulation. This fix is for simulations
# in the anisotropic NPT ensemble. Note that we use the MTK
# correction.
fix 1 all npt temp 2.4 2.4 0.1 iso 5.68 5.68 0.5 mtk yes tchain 5 pchain 5 # Use NPT ensemble
                                                                         # Set temperature and pressure and damping
                                                                         # Numbers of thermostats in chain and in barostat
run 10000          # run for 10000 steps
Per MPI rank memory allocation (min/avg/max) = 3.642 | 3.644 | 3.648 Mbytes
Step Temp E_pair E_mol TotEng Press Volume 
       0          2.4    -3.937065            0  -0.33796495   -3.5201857         4000 
    1000    2.4335103   -3.5207463            0   0.12860659    5.6300747     3676.524 
    2000    2.4439666   -3.4475841            0   0.21744925    5.6581113    3715.7447 
    3000    2.3213616   -3.4439713            0  0.037200623    5.6956518    3700.4395 
    4000    2.3887201   -3.4671293            0     0.115055    5.7409766    3699.4304 
    5000    2.3495262   -3.4279387            0  0.095469555    5.5382908    3745.5684 
    6000    2.3916564   -3.4532055            0   0.13338228    5.8042406    3689.0668 
    7000    2.3710934   -3.4403229            0   0.11542802     6.162118    3654.9313 
    8000    2.3846181   -3.4415162            0   0.13451667    5.6349166    3715.7835 
    9000    2.3681179   -3.4517609            0  0.099527931    5.4979774    3723.8295 
   10000    2.4156961   -3.4463468            0   0.17629145    5.8030056    3697.4722 
Loop time of 2.65595 on 48 procs for 10000 steps with 4000 atoms

Performance: 650614.082 tau/day, 3765.128 timesteps/s
99.6% CPU use with 48 MPI tasks x no OpenMP threads

MPI task timing breakdown:
Section |  min time  |  avg time  |  max time  |%varavg| %total
---------------------------------------------------------------
Pair    | 1.1582     | 1.2555     | 1.4277     |   3.8 | 47.27
Neigh   | 0.21436    | 0.22413    | 0.25055    |   1.2 |  8.44
Comm    | 0.76366    | 0.90451    | 1.0064     |   5.5 | 34.06
Output  | 0.00025028 | 0.00025659 | 0.00031567 |   0.0 |  0.01
Modify  | 0.19784    | 0.25573    | 0.30731    |   6.2 |  9.63
Other   |            | 0.01582    |            |       |  0.60

Nlocal:        83.3333 ave          96 max          76 min
Histogram: 5 5 10 7 3 11 3 1 1 2
Nghost:        1731.48 ave        1771 max        1681 min
Histogram: 1 1 2 6 7 11 8 5 3 4
Neighs:        10304.6 ave       12299 max        8919 min
Histogram: 3 3 11 7 7 9 4 2 0 2

Total # of neighbors = 494619
Ave neighs/atom = 123.65475
Neighbor list builds = 905
Dangerous builds = 187

# Equilibrate just above the melting temperature to avoid step fn in T

fix 1 all npt temp 1.25 1.25 0.1 iso 5.68 5.68 0.5 mtk yes tchain 5 pchain 5
run 2000
Per MPI rank memory allocation (min/avg/max) = 3.644 | 3.646 | 3.649 Mbytes
Step Temp E_pair E_mol TotEng Press Volume 
   10000    2.4156961   -3.4463468            0   0.17629145    5.8030056    3697.4722 
   11000    1.2425825    -5.083079            0   -3.2196711    5.5383371    2842.4194 
   12000    1.2441266   -5.0799803            0   -3.2142569    5.7308424    2831.2899 
Loop time of 0.6595 on 48 procs for 2000 steps with 4000 atoms

Performance: 524033.174 tau/day, 3032.599 timesteps/s
99.6% CPU use with 48 MPI tasks x no OpenMP threads

MPI task timing breakdown:
Section |  min time  |  avg time  |  max time  |%varavg| %total
---------------------------------------------------------------
Pair    | 0.30167    | 0.3234     | 0.37256    |   2.3 | 49.04
Neigh   | 0.042223   | 0.044173   | 0.051166   |   0.7 |  6.70
Comm    | 0.18696    | 0.2422     | 0.26962    |   3.1 | 36.73
Output  | 5.3767e-05 | 5.5603e-05 | 6.968e-05  |   0.0 |  0.01
Modify  | 0.039478   | 0.044621   | 0.049306   |   1.5 |  6.77
Other   |            | 0.005051   |            |       |  0.77

Nlocal:        83.3333 ave          92 max          75 min
Histogram: 1 3 5 6 11 9 4 6 2 1
Nghost:        2071.94 ave        2088 max        2056 min
Histogram: 5 3 7 4 5 8 4 3 3 6
Neighs:        13474.4 ave       15154 max       11717 min
Histogram: 1 4 2 2 15 10 8 3 1 2

Total # of neighbors = 646770
Ave neighs/atom = 161.69250
Neighbor list builds = 143
Dangerous builds = 5

#############################
# L I N E A R  Q U E N C H  #
#############################

# Define solid atoms. This closely follows ten Wolde  Ruiz-Montero and Frenkel  Faraday Discuss  1996  104  93-110
# Compute components of the per-atom q6 vector
compute q6 all orientorder/atom degrees 1 6 components 6 nnn NULL cutoff 1.3 # compute the Q6 parameter.
                                                                             # Use all neighbours within 1.3 unit cell.

# get number of connections
compute coord_number all coord/atom orientorder q6 0.5

# An atom is solid if it has 8 or more connections (of a possible 14)
variable is_solid atom c_coord_number>=8
group solid dynamic all var is_solid    # Must be dynamic to update
dynamic group solid defined

# do clustering
compute cluster solid cluster/atom 1.3 # Create a cluster where all atoms within are solid and max 1.3 units from another member

# define chunks one chunk per cluster
compute clus_chunks solid chunk/atom c_cluster nchunk every compress yes  # Says which atoms are in which chunk

# count the size of each chunk
compute size_chunks solid property/chunk clus_chunks count


# Find the maximum entry in the vector of chunk sizes
variable max_n equal max(c_size_chunks)


# Thermo style which includes this variable
# thermo_style custom step temp pe vol v_max_n

thermo ${N}  # Print the thermo information every 100 steps
thermo 1000  

# Reset the npt fix at a lower temperature (below freezing)
fix 1  all npt temp  ${temp} ${temp}  0.1  iso  5.68  5.68  0.5  mtk yes tchain  5  pchain  5
fix 1  all npt temp  0.45 ${temp}  0.1  iso  5.68  5.68  0.5  mtk yes tchain  5  pchain  5
fix 1  all npt temp  0.45 0.45  0.1  iso  5.68  5.68  0.5  mtk yes tchain  5  pchain  5

dump dmp2 all dcd ${N} traj.dcd
dump dmp2 all dcd 1000 traj.dcd


compute msd all msd com yes
variable twopoint equal c_msd[4]/6/(step*dt+1.0e-6)
fix 9 all vector 10 c_msd[4]
variable fit equal slope(f_9)/6/(10*dt)
thermo_style custom step temp pe c_msd[4] v_twopoint v_fit v_max_n

fix 1 all npt temp 1.25 ${temp} 0.1 iso 5.68 5.68 0.5 mtk yes tchain 5 pchain 5
fix 1 all npt temp 1.25 0.45 0.1 iso 5.68 5.68 0.5 mtk yes tchain 5 pchain 5
run 500000 # 5000000  # Run for this many steps
Neighbor list info ...
  update every 1 steps, delay 10 steps, check yes
  max neighbors/atom: 2000, page size: 100000
  master list distance cutoff = 3.8
  ghost atom cutoff = 3.8
  binsize = 1.9, bins = 8 8 8
  4 neighbor lists, perpetual/occasional/extra = 1 3 0
  (1) pair lj/cut, perpetual
      attributes: half, newton on
      pair build: half/bin/atomonly/newton
      stencil: half/bin/3d
      bin: standard
  (2) compute orientorder/atom, occasional
      attributes: full, newton on
      pair build: full/bin/atomonly
      stencil: full/bin/3d
      bin: standard
  (3) compute coord/atom, occasional
      attributes: full, newton on
      pair build: full/bin/atomonly
      stencil: full/bin/3d
      bin: standard
  (4) compute cluster/atom, occasional
      attributes: full, newton on
      pair build: full/bin/atomonly
      stencil: full/bin/3d
      bin: standard
Per MPI rank memory allocation (min/avg/max) = 9.841 | 9.845 | 9.848 Mbytes
Step Temp PotEng c_msd[4] v_twopoint v_fit v_max_n 
   12000    1.2441266   -5.0799803 8.2455686e-31 5.7260891e-33 8.3333333e+20            4 
   13000    1.2214091   -5.0936718   0.70460681 0.0045167101  0.059239928            3 
   14000    1.2699878   -5.0984387    1.4410481 0.0085776667  0.059790869            1 
   15000    1.2354008   -5.1178366    2.1804212  0.012113451  0.060327192            2 
   16000    1.2595598   -5.1689259    2.8336628   0.01475866  0.060172932            3 
   17000    1.2494188   -5.1280965    3.4888978   0.01710244  0.058900186            2 
   18000    1.2506372   -5.1361537     4.228958  0.019578509  0.058678002            2 
   19000    1.2342614   -5.0836148    4.9786999  0.021836402  0.058885246            1 
   20000    1.2194196   -5.1174406    5.6696891  0.023623704  0.058971886            2 
   21000    1.2627008   -5.1180467    6.4720633   0.02568279  0.059044777            3 
   22000     1.211628   -5.1099592    7.2425031  0.027433723  0.059708204            3 
   23000      1.21077   -5.1537189    7.8794027   0.02854856  0.059859694            3 
   24000    1.2271389   -5.1754652    8.5917019  0.029832298    0.0598647            3 
   25000    1.2164181   -5.1412243    9.2693397  0.030897798  0.059767542            2 
   26000    1.2057846   -5.1373519    10.018777  0.032111464   0.05975149            2 
   27000    1.2290314   -5.1370667    10.731155  0.033120849  0.059683751            2 
   28000    1.2254994   -5.1446047     11.53231  0.034322351  0.059753163            3 
   29000    1.2316976   -5.1713134    12.131553  0.034860782  0.059740281            6 
   30000    1.2266436   -5.1610549    12.724816  0.035346711  0.059627571            2 
   31000    1.2100861   -5.1731843    13.337916  0.035854612   0.05937502            2 
   32000    1.2381851   -5.2033521     14.04917  0.036586379  0.059151006            2 
   33000    1.1951865   -5.1576847    14.744289  0.037233053  0.058943891            1 
   34000    1.1993261   -5.2326773    15.264372  0.037412675  0.058705441            1 
   35000    1.2084435   -5.1227258     16.02881  0.038163832  0.058488524            2 
   36000    1.1989964   -5.1882404     16.68016  0.038611482  0.058315711            2 
   37000    1.1962004   -5.1564261    17.293558  0.038949456  0.058124843            2 
   38000    1.1768529    -5.211716    17.824345  0.039088475  0.057870048            2 
   39000    1.2146252   -5.1960147    18.605221  0.039754745  0.057679075            3 
   40000    1.2134931   -5.1836614    19.371522  0.040357336  0.057499508            1 
   41000    1.1934677    -5.192255    20.035489  0.040722538  0.057398576            2 
   42000    1.1856221   -5.1831036    20.822994  0.041315463  0.057364478            5 
   43000    1.1975182   -5.2053778    21.553345  0.041770048  0.057380522            2 
   44000    1.1838745   -5.2174139    22.204683  0.042054324  0.057399619            2 
   45000    1.1972504   -5.1794605    22.859332  0.042332097  0.057377733            2 
   46000    1.1904409     -5.22474      23.2577  0.042133514  0.057295133            2 
   47000    1.1897659   -5.2093035    23.869762  0.042322273  0.057144712            2 
   48000    1.1852353   -5.1766996    24.553073  0.042626863  0.056998918            1 
   49000    1.1607442   -5.1875906    24.991437  0.042502444  0.056835881            6 
   50000    1.2200965   -5.2384887    25.759345  0.042932241  0.056684772            3 
   51000    1.1967564   -5.2645464    26.397505  0.043133178   0.05657297            3 
   52000    1.1805977   -5.1895308    26.929389  0.043156071  0.056433447            2 
   53000    1.1757596   -5.1990639    27.560888   0.04333473  0.056290043            4 
   54000    1.1843753   -5.1793333    28.267305  0.043622384  0.056142768            2 
   55000    1.1509755   -5.2283219    28.492761   0.04317085  0.055950535            2 
   56000    1.1703342   -5.2349634    29.253397   0.04353184  0.055747536            3 
   57000    1.1294556   -5.2601855    29.554067    0.0432077   0.05554488            5 
   58000    1.1742963   -5.2361292    30.182495  0.043365654  0.055310358            2 
   59000     1.187736   -5.2532763    30.537131   0.04313154  0.055060442            3 
   60000    1.1618193    -5.250212    30.898105  0.042914034  0.054794588            2 
   61000    1.1389409   -5.2252316    31.577137  0.043138165  0.054518918            3 
   62000      1.16782   -5.2354344    31.977787  0.042980896  0.054253902            4 
   63000    1.1864188   -5.2925469    32.419754  0.042883272  0.054007432            1 
   64000    1.1554547   -5.2234539    33.247228  0.043290661  0.053767648            2 
   65000    1.1555946   -5.2743108    33.458753  0.042895836  0.053536439            4 
   66000    1.1460982   -5.2499479     34.13095  0.043094634  0.053294346            2 
   67000    1.1598432   -5.2566759    34.678753  0.043132777  0.053066751            1 
   68000    1.1672901   -5.2754695    35.131907  0.043053807  0.052831632            4 
   69000    1.1483394   -5.3135518    35.550552  0.042935449  0.052588738            4 
   70000     1.159284   -5.2856758    36.130665  0.043012696  0.052359507            9 
   71000    1.1796483   -5.2822562    36.745677  0.043128729  0.052157902            2 
   72000    1.1422419   -5.2842081    37.433071  0.043325313  0.051974586            2 
   73000    1.1668673    -5.290752    38.080547  0.043470943  0.051809922            3 
   74000    1.1554149   -5.2969678    38.717748  0.043601068  0.051675438            2 
   75000    1.1296361   -5.3233753    39.203752  0.043559724  0.051533208            2 
   76000    1.1680593   -5.3293686    39.376538  0.043176029  0.051383095            2 
   77000    1.1727722   -5.2813848    40.344443  0.043662817  0.051238757            4 
   78000     1.139156    -5.308457    40.763442  0.043550686  0.051101049            2 
   79000    1.1409966   -5.3073403    41.127159  0.043383079  0.050956583            5 
   80000    1.1381571   -5.3081206    41.536596  0.043267287  0.050801601            3 
   81000    1.1232649   -5.2918903    42.256451  0.043473714  0.050654279            1 
   82000    1.1280217   -5.3681686     42.73645  0.043431352  0.050518082            3 
   83000    1.1042461   -5.3081937    43.348391  0.043522481  0.050390372            3 
   84000    1.1299751   -5.3177078    43.730555  0.043383487  0.050258098            7 
   85000    1.1340489   -5.3013324     44.41296  0.043542117  0.050135249            3 
   86000    1.1265474   -5.3247998     44.75556   0.04336779   0.05000978            3 
   87000    1.1213161   -5.3476679    45.434236  0.043519383   0.04989027            2 
   88000    1.1219912   -5.3351165    45.619535  0.043200317  0.049755795            3 
   89000    1.1309818   -5.3395848    46.001452   0.04307252  0.049610459            8 
   90000    1.1387986   -5.3274902    46.318937  0.042887905  0.049465129            1 
   91000    1.1220494   -5.3365639     46.98413   0.04302576  0.049329341            3 
   92000    1.1434462   -5.3382228    47.119294  0.042680519  0.049173853            1 
   93000    1.1277682   -5.3613612    47.807766    0.0428385   0.04902172            7 
   94000    1.1222508   -5.3451552    48.245169   0.04277054  0.048871914            3 
   95000    1.0970679   -5.3695013     48.46573  0.042513798  0.048719029            4 
   96000    1.1134516   -5.3647969      48.9542  0.042494965  0.048560561            3 
   97000    1.0993275   -5.3845795    49.282112  0.042338584  0.048400135            3 
   98000    1.1166093   -5.3638356    49.863236  0.042400711  0.048242732            2 
   99000    1.1531696   -5.3624952    50.452236  0.042468212  0.048090678            2 
  100000    1.1091303   -5.3710632    50.747711  0.042289759  0.047948016            1 
  101000    1.1147597   -5.3966922    51.234937   0.04227305  0.047799927            3 
  102000    1.1164277   -5.3775603    51.522441  0.042093498  0.047650606            4 
  103000    1.1184249   -5.4139642    52.032987  0.042097885  0.047504516            3 
  104000    1.1130508   -5.3508605    52.778965  0.042290837  0.047363332            4 
  105000    1.1023477   -5.3761796    53.134335  0.042170107  0.047223638            1 
  106000    1.1272785   -5.4048303    53.397656  0.041979289  0.047082882            2 
  107000    1.0900243   -5.4162469    53.791939  0.041894033  0.046944779            3 
  108000    1.1102975   -5.3692974    54.408338  0.041981742  0.046810643            7 
  109000    1.1001234   -5.4514871     54.69937   0.04181909   0.04667945            2 
  110000    1.0772775   -5.3945912    55.467115  0.042020542  0.046558592            3 
  111000    1.0956843   -5.4357325    56.128579  0.042138573  0.046443645            2 
  112000    1.0884341   -5.3648118    56.676094  0.042169713  0.046339639            5 
  113000    1.0810004   -5.4637731    57.074858  0.042090603  0.046239056            3 
  114000    1.0664334   -5.3734427     57.78832  0.042242924   0.04614292            4 
  115000    1.0962219   -5.4390597    58.195192  0.042170429  0.046047011            2 
  116000    1.0639376   -5.4086638     58.80696  0.042246379  0.045957257            3 
  117000    1.0728892   -5.4317802    58.777517  0.041864328  0.045860904            3 
  118000     1.094072   -5.4286338    59.242391  0.041837846  0.045758975            4 
  119000    1.0697311   -5.4488316    59.258457  0.041497518  0.045649652            3 
  120000    1.0757926   -5.4517667    59.724541  0.041475375  0.045541177            2 
  121000    1.0881148   -5.4645437    60.075738  0.041374475  0.045433523            2 
  122000    1.0685688   -5.4695018    60.515618  0.041335805  0.045320017            2 
  123000     1.060182   -5.4620847    61.286699  0.041522153    0.0452153            3 
  124000     1.071872   -5.4507434    61.566915  0.041375615  0.045108856            6 
  125000    1.0697294   -5.4244496    61.851334  0.041234222  0.044999026            2 
  126000    1.0686061   -5.4597755    62.265019  0.041180568  0.044891757            3 
  127000    1.0642849   -5.4792693    62.161879  0.040788634  0.044779941            2 
  128000     1.070472   -5.5016618    62.808964  0.040891253  0.044665994            4 
  129000    1.0589302   -5.4701463    63.366487  0.040934423  0.044553423            1 
  130000    1.0574258   -5.4915097    63.626664  0.040786323  0.044440438            3 
  131000    1.0760221   -5.4493812    64.212795  0.040847834  0.044328199            4 
  132000    1.0665893   -5.4981227    64.577822  0.040768827  0.044218732            4 
  133000     1.062119   -5.4728363    64.889944  0.040657859  0.044111294            3 
  134000     1.049077   -5.4874292    65.616863  0.040806506  0.044010351            4 
  135000    1.0385649   -5.5012219    65.787438  0.040609529  0.043911606            5 
  136000    1.0425703   -5.4772828     66.57368  0.040792696  0.043812866            5 
  137000     1.045313   -5.4839548    66.744177  0.040598647   0.04371506            3 
  138000    1.0446126   -5.5104629    66.990452  0.040453171  0.043615008            4 
  139000    1.0234652   -5.4952539    67.261141  0.040324425   0.04351096            4 
  140000    1.0307407   -5.5272513    67.416276  0.040128735  0.043403351            2 
  141000    1.0332449   -5.5365748     67.83843  0.040093635   0.04329585            7 
  142000    1.0476861   -5.5797276    68.220794  0.040035677  0.043191939            3 
  143000    1.0515289   -5.5255473    68.540134  0.039941803  0.043088679            3 
  144000    1.0306909   -5.5114684    69.198677   0.04004553  0.042983965            3 
  145000    1.0190193   -5.5314751    69.352886   0.03985798  0.042879134            2 
  146000    1.0468097   -5.5287306    70.055185  0.039985836   0.04277828            4 
  147000    1.0475389   -5.5304075    70.486747  0.039958473  0.042679935            6 
  148000    1.0408717    -5.520428     70.73859  0.039830287   0.04257878            5 
  149000     1.029246   -5.5657861    70.574508  0.039471201  0.042477806            3 
  150000    1.0365231   -5.5223843    71.161997  0.039534443  0.042376685            5 
  151000    1.0519031    -5.551832    71.717661  0.039579283  0.042274019            4 
  152000     1.035201   -5.5487304    71.925905  0.039433062  0.042173163            3 
  153000    1.0245429    -5.558468    71.822617  0.039119072  0.042064305            6 
  154000    1.0164585   -5.5440438    72.508212  0.039236046  0.041960261            3 
  155000      1.03015   -5.6004613    72.826302  0.039153926  0.041854133            4 
  156000    1.0062449   -5.5572988    72.953847  0.038971072  0.041749098            4 
  157000   0.99894165   -5.5915579    72.999787  0.038747233  0.041642403            7 
  158000    1.0012594   -5.5780987    73.536054  0.038784838  0.041538461            4 
  159000   0.99307833   -5.5646461    74.187416  0.038882293  0.041436765            4 
  160000    1.0086335   -5.5669313    74.845105  0.038981825  0.041341635            4 
  161000    1.0051169   -5.5881598    74.917232  0.038777035  0.041244204            3 
  162000    1.0179147   -5.5760894    75.554401  0.038865432  0.041147667            3 
  163000   0.99597656   -5.6045641    75.954687  0.038831639  0.041053073            5 
  164000    1.0219086   -5.5908925    75.767025  0.038499504  0.040958717            4 
  165000    1.0082938   -5.6212985    76.184652  0.038477097  0.040865626            3 
  166000    1.0101296   -5.5918057    76.683748  0.038495857   0.04077144            3 
  167000   0.98957168   -5.6051154    76.972477   0.03840942  0.040675649            4 
  168000   0.99251407    -5.640563    77.097308  0.038242712  0.040578972            3 
  169000    1.0029867   -5.6002189    77.601708  0.038265142  0.040485892            2 
  170000    1.0045653   -5.5954377    78.104607  0.038286572  0.040395433            7 
  171000   0.99592504   -5.5733214    78.426648  0.038219614  0.040302493            3 
  172000   0.99522911   -5.6658771    78.336523  0.037953741   0.04020693            7 
  173000   0.99090715   -5.6063989    78.981809  0.038045187  0.040111265            3 
  174000   0.99202933   -5.6622012    78.919165  0.037796535  0.040013389            3 
  175000   0.97514466   -5.6361737    79.457224  0.037836773   0.03991646            5 
  176000   0.98119383   -5.6698259    79.519173  0.037651123  0.039818682            8 
  177000   0.98089033   -5.6751531    80.003396  0.037666382  0.039723709            3 
  178000    0.9732242   -5.6659419    80.139549  0.037518516  0.039628768            5 
  179000   0.98039477    -5.648941    80.176846  0.037326278  0.039529726            4 
  180000   0.97956455   -5.6301275    80.614688  0.037321615  0.039430339            2 
  181000   0.98438972   -5.6644725    80.659671  0.037136129  0.039329839            4 
  182000   0.96049148   -5.6562812    81.086698  0.037127609  0.039229293            6 
  183000   0.96449288   -5.6494029    81.191311  0.036972364  0.039128539            6 
  184000   0.98902523   -5.7017278    81.357899  0.036846874  0.039025311            4 
  185000   0.98298522   -5.6807299    81.536052  0.036727951  0.038920464            4 
  186000   0.97199991   -5.6788248    81.703773  0.036605633   0.03881485            5 
  187000   0.96435719   -5.7034501    81.819953  0.036461654  0.038709737            5 
  188000   0.96345676   -5.6816162    82.537484  0.036585764  0.038605583            4 
  189000   0.96379993   -5.7163502     82.20128   0.03624395  0.038500166            7 
  190000   0.96886383   -5.6800496    82.512867  0.036189854  0.038393287            4 
  191000   0.93918206   -5.6179977    83.190877  0.036296194  0.038288876            5 
  192000   0.95299692   -5.6950736       83.581  0.036276476  0.038187069            4 
  193000   0.96636053   -5.6629304    83.941669  0.036244244  0.038086792            6 
  194000   0.96064871   -5.6867219    84.137869  0.036141696  0.037985915            4 
  195000   0.94841818   -5.7028859    84.353171  0.036048364  0.037884335            5 
  196000   0.96584966   -5.7048273    84.752806  0.036034356  0.037785928            4 
  197000   0.96592676   -5.7094052    84.921414  0.035922764  0.037689818            8 
  198000   0.92328234   -5.6908036    85.438807  0.035959094  0.037593059            8 
  199000    0.9536678   -5.7489917    85.564406  0.035830991  0.037498042            5 
  200000   0.95915693   -5.7066467    86.245967   0.03593582  0.037405443            8 
  201000   0.95571229   -5.6763283    86.545545  0.035881237  0.037313445            2 
  202000   0.92170577   -5.7332878    86.534775  0.035699164  0.037223172            7 
  203000   0.93137519   -5.7333493    86.934214   0.03568728  0.037132529            3 
  204000    0.9439062   -5.7454515    87.043419  0.035556952  0.037044115            4 
  205000   0.94049019   -5.7663262    87.195143   0.03544518  0.036955423            4 
  206000   0.93972666   -5.7435964    87.908928  0.035561864  0.036866267            7 
  207000   0.94510916   -5.7497342    87.979549  0.035418498  0.036778708            4 
  208000   0.95851674   -5.7336366      88.6787  0.035528325  0.036694013            2 
  209000   0.91582215   -5.7271837    88.598229  0.035326248  0.036609625            9 
  210000   0.92627474   -5.8013691    88.865368  0.035264035  0.036523123           10 
  211000   0.94216015   -5.7309109    89.119643  0.035197331  0.036437859            4 
  212000   0.93331087   -5.7628545    88.968426  0.034971866  0.036350677            5 
  213000   0.94218208   -5.7521277     89.21538  0.034904296  0.036264219            3 
  214000   0.91971981   -5.7595589    89.697356  0.034928877  0.036177024            5 
  215000   0.93446644   -5.7591742    90.131284  0.034934606  0.036089074            3 
  216000   0.91857836   -5.7912013    90.085747  0.034755303  0.036001398            7 
  217000    0.9260071   -5.7948534    90.395608  0.034714135  0.035912942            3 
  218000   0.92316759   -5.7853332    90.577927   0.03462459  0.035825602            2 
  219000   0.93143594   -5.8068172    90.308535  0.034363978  0.035736875            6 
  220000   0.91673443   -5.8213976    90.833532  0.034406641  0.035647887            5 
  221000   0.91636747   -5.7820483     91.12692  0.034361583  0.035558889            3 
  222000   0.89615978   -5.8086958    91.109194  0.034200148  0.035470408            2 
  223000     0.892883   -5.7860956    91.491277  0.034189565  0.035381543            5 
  224000   0.89989929    -5.811127    91.501711  0.034040815  0.035291735            4 
  225000   0.91632126   -5.7982829    91.700794  0.033963257  0.035202633            4 
  226000   0.90960368   -5.8145729    92.066677   0.03394789   0.03511272            5 
  227000   0.89954586   -5.8213988     92.05761  0.033795011  0.035022447            3 
  228000   0.90773341   -5.8201836    92.286275  0.033730363  0.034932116            7 
  229000   0.88870243   -5.8569768    92.346467  0.033604973  0.034841646           10 
  230000   0.91806274   -5.8100231    92.737002  0.033600363   0.03475252            3 
  231000   0.90544858   -5.8555048    92.633816  0.033417682  0.034662072            3 
  232000   0.89255618   -5.8275568    93.087845  0.033436726  0.034570921            5 
  233000   0.89517188   -5.8428107    93.127804  0.033307512  0.034480446            6 
  234000   0.89314055   -5.8510419    93.248807  0.033208264  0.034390913            4 
  235000   0.88105557   -5.8617246    93.351591  0.033103401  0.034301304            4 
  236000   0.89720075   -5.8592751    93.725168  0.033095045  0.034210526            4 
  237000   0.86841802   -5.8713415    94.018511  0.033058548      0.03412            9 
  238000   0.90216746   -5.8295066    93.954416  0.032897204  0.034029065            6 
  239000   0.89412978   -5.8551283    94.352363  0.032898314  0.033940357           11 
  240000   0.86548867   -5.8668929    94.423291  0.032785865  0.033851689           10 
  241000   0.87129428   -5.8665699    94.941658  0.032829066  0.033762614            5 
  242000   0.87474377   -5.9009002    94.542812  0.032556065  0.033672722            4 
  243000   0.87658653   -5.9086937     95.12888  0.032623073   0.03358307           14 
  244000   0.87810741   -5.9214562    94.873578  0.032402178  0.033493435            8 
  245000   0.86647356   -5.8757421    95.367074   0.03243778  0.033403817            4 
  246000   0.86504678   -5.8971477    95.358635  0.032303061  0.033315474            4 
  247000   0.86793671   -5.8774581    95.935749  0.032366987  0.033226346            8 
  248000   0.86481404   -5.8929483     95.93545  0.032236374  0.033138271            6 
  249000   0.88264373   -5.8869149    96.147343  0.032177826  0.033050466            6 
  250000   0.88300158   -5.9120203    96.219406  0.032073135  0.032962111            4 
  251000   0.85182432   -5.9073128    96.611303  0.032075466  0.032874192            7 
  252000   0.87470934   -5.9265689    96.182775  0.031806473   0.03278584            8 
  253000   0.86366487   -5.9042578    96.390243  0.031749092    0.0326959            5 
  254000   0.87343811   -5.8914673    96.798175  0.031757931  0.032606475           12 
  255000   0.86292073   -5.8858057    97.015667  0.031704466   0.03251739            8 
  256000   0.85728136   -5.9510599     96.71369  0.031482321  0.032429649            8 
  257000   0.87213814   -5.9361615    97.116337  0.031490382  0.032341525            3 
  258000   0.85089364   -5.9407284    97.243089  0.031409266  0.032253986            8 
  259000   0.86693597   -5.9017758    97.250002  0.031290219  0.032165383            8 
  260000   0.85661047   -5.9141362    97.199095  0.031153556  0.032075788            7 
  261000   0.84659005   -5.9043481    97.694952  0.031192513  0.031986994            4 
  262000   0.83506684   -5.9678996     97.11217  0.030888095  0.031897617           10 
  263000   0.83656557   -5.9579583    97.598812  0.030924845  0.031806153           10 
  264000   0.84283543   -5.9614285    97.642632  0.030821538  0.031715672            8 
  265000   0.84295271   -6.0017998    97.509697  0.030663427  0.031624953            4 
  266000   0.85146129   -5.9982966    97.943175  0.030683952  0.031535095            6 
  267000   0.84868213   -5.9397081    98.260356  0.030668026  0.031446569            5 
  268000   0.85350364   -5.9903101    98.313824  0.030570219  0.031359669            5 
  269000   0.84965495   -6.0017701    98.438638  0.030495241  0.031272067            5 
  270000   0.84106098   -5.9679203    98.728599   0.03047179  0.031184956            9 
  271000   0.84661832   -6.0226867    98.634857  0.030330522  0.031098056            9 
  272000   0.83688894   -5.9845067    99.579512  0.030508429  0.031012989            4 
  273000   0.83254226   -5.9791216    99.309337  0.030314205   0.03092794            5 
  274000    0.8282592   -5.9837668    99.571175  0.030283204  0.030842299           10 
  275000   0.83147112   -5.9883447    99.503251    0.0301525  0.030756804            4 
  276000   0.82192372   -5.9891175    99.497343  0.030041468  0.030672389            8 
  277000   0.82871423   -6.0186217    99.628001  0.029972323  0.030587608            5 
  278000   0.82322106   -6.0423462    99.804428  0.029917394   0.03050296            7 
  279000   0.81970779   -6.0573116    100.09442   0.02989678  0.030419856            7 
  280000    0.8373291   -6.0159074     100.1102  0.029794701  0.030336551            5 
  281000   0.81111237   -6.0498492     100.0598  0.029673725  0.030253994            5 
  282000    0.8188003   -6.0312696       100.56  0.029716312  0.030171759            6 
  283000   0.82874153   -6.0217869    100.65622  0.029639642  0.030089135            4 
  284000   0.80559417   -6.0306714    100.57817  0.029512372  0.030006957            9 
  285000   0.80298623    -6.062354     101.0766  0.029554561  0.029923223            8 
  286000   0.80152042   -6.0680639    100.99482  0.029427394  0.029841384            9 
  287000   0.80274994   -6.0430009    101.19646  0.029383408  0.029760083            2 
  288000   0.81046807   -6.0569549    101.29949  0.029311195  0.029679684            5 
  289000   0.80310366   -6.0530782    101.65546  0.029312417  0.029600962            5 
  290000   0.80183872   -6.0407635    101.89081  0.029278969  0.029521366            8 
  291000   0.80660014    -6.067797    101.70336  0.029124674   0.02944183            8 
  292000   0.79064506   -6.0835732    101.95234  0.029095989  0.029361945           11 
  293000   0.79610558   -6.0748587    102.00668  0.029012139  0.029282077            7 
  294000   0.80545829   -6.0788778    102.35345  0.029011749  0.029202728            4 
  295000   0.80040101   -6.1016124     102.4014  0.028926948  0.029123336            9 
  296000   0.81098141   -6.0593044    102.29361  0.028798876  0.029044905           12 
  297000   0.79154048   -6.0676885    102.41175  0.028735058  0.028967528            9 
  298000   0.79738115   -6.0793038    102.48134  0.028658091  0.028889623            6 
  299000   0.80504022   -6.0582838    102.90638  0.028680708  0.028812082            6 
  300000    0.8012696   -6.1156152    102.72783  0.028535507   0.02873428            9 
  301000   0.79064003   -6.0990592    103.15866  0.028559983  0.028657027           14 
  302000   0.77211792   -6.1066235    103.25758  0.028492709  0.028581178            4 
  303000   0.78305727   -6.0885281     103.2265  0.028390127   0.02850564            4 
  304000   0.77945149   -6.1292885    103.28279  0.028312167  0.028429893           11 
  305000   0.78565945   -6.1385071    103.13612  0.028179269  0.028353806            4 
  306000   0.77602726   -6.1040724    103.42224  0.028165097  0.028277622            8 
  307000   0.78456929   -6.1525995    103.66525  0.028139318  0.028201629            7 
  308000   0.76648643    -6.151672     103.4312  0.027984632  0.028125257            7 
  309000   0.76005162   -6.1656562    103.57533  0.027932936  0.028048864           14 
  310000   0.77241928   -6.1697151     103.7633   0.02789336  0.027972431            9 
  311000   0.77604401   -6.1624345    103.86688  0.027831426  0.027896793            8 
  312000   0.76544125   -6.1577808    103.86434  0.027741543  0.027820672           10 
  313000   0.77063276   -6.1471301    104.27306  0.027761731  0.027745203            6 
  314000    0.7602802   -6.1584365    104.08399  0.027623141  0.027669838            8 
  315000   0.76179372   -6.1265264    104.72702   0.02770556  0.027595591            8 
  316000   0.76702391   -6.1772157    104.57872  0.027578775  0.027521529           25 
  317000   0.77069762   -6.1455856    104.78818  0.027546841  0.027447347            7 
  318000   0.76764512   -6.1408206    104.72896  0.027444697   0.02737382            6 
  319000   0.75885749   -6.1848107    104.88067  0.027398295  0.027300806           11 
  320000   0.74737489   -6.1769985     104.8293  0.027299296  0.027228015            8 
  321000    0.7573852   -6.1289736    105.30969  0.027338964  0.027155985            8 
  322000   0.74816644      -6.1709    105.36788   0.02726912  0.027083934           11 
  323000   0.76017493   -6.1643225    105.32828  0.027174478  0.027011676            7 
  324000   0.74952917   -6.1835368    105.41809  0.027113707  0.026939521            6 
  325000   0.76309152   -6.2147979    105.14133  0.026959315  0.026866807            5 
  326000    0.7477969   -6.1898019    105.35155  0.026930355  0.026793767            6 
  327000   0.74143991   -6.2005977    105.70717  0.026938627  0.026721116           11 
  328000   0.76064647   -6.1964374    105.49097  0.026801567  0.026648626           10 
  329000   0.72729067   -6.2089855    105.52099  0.026727708  0.026576165           11 
  330000   0.73975819   -6.2678845    105.40994  0.026618671  0.026503386            9 
  331000   0.73327297   -6.2177633    105.36712  0.026527472  0.026431091            5 
  332000   0.73448429   -6.2402153     105.8071  0.026558006  0.026358859            8 
  333000   0.75664507   -6.2064342    105.95293  0.026514746  0.026287525           28 
  334000   0.73660855    -6.223664    106.04366  0.026457998  0.026216965           14 
  335000   0.72994943   -6.2234326    105.94578  0.026354672   0.02614575           13 
  336000   0.73808941   -6.2266927      106.187  0.026336063  0.026074824           10 
  337000   0.72503905   -6.2286673    106.29701  0.026285115  0.026004704            6 
  338000   0.71428816   -6.2615176    106.27145  0.026201048  0.025935359           11 
  339000   0.72870517   -6.2673297    106.45377  0.026168578  0.025866181           11 
  340000   0.72180109   -6.2647341    106.88471  0.026197232  0.025797127            8 
  341000   0.74034147   -6.2388377    106.96909  0.026141029   0.02572868           31 
  342000   0.71339612    -6.273661    106.78865  0.026020626   0.02566087            8 
  343000    0.7208183   -6.2732594    107.20643  0.026046265   0.02559317           11 
  344000    0.7170925   -6.2950689    106.95287  0.025909125   0.02552501            9 
  345000   0.71781892   -6.2888289    107.11432  0.025873025  0.025456855            5 
  346000   0.72540947   -6.3048232    107.13309  0.025802768  0.025389183            9 
  347000   0.71182076   -6.3025253    106.92344   0.02567806  0.025321551           15 
  348000   0.72124641   -6.2998037    107.03413  0.025630778  0.025253622            8 
  349000   0.70931006   -6.2698231    107.45843  0.025658651  0.025185746           22 
  350000   0.69197076   -6.2704624    107.67102  0.025635957  0.025118605           28 
  351000   0.70780063    -6.299155    107.51848  0.025526704  0.025051538           18 
  352000   0.71281394    -6.286023    107.55348  0.025462471   0.02498483           10 
  353000   0.69978458   -6.3048567    107.35028  0.025342371  0.024918034            8 
  354000   0.70374313   -6.3172183    107.73512  0.025361376   0.02485122            9 
  355000   0.70351079   -6.3401592    107.79445  0.025303862  0.024784781           24 
  356000   0.71921584   -6.3245139    108.01927  0.025285409  0.024718347           20 
  357000   0.69171789   -6.3234524     108.1017  0.025233823  0.024652378           14 
  358000   0.68557142   -6.3342354    107.87583  0.025110762  0.024586016           10 
  359000   0.69390067   -6.3553829    107.57188  0.024970259   0.02451993            6 
  360000   0.67445263   -6.3539622    107.84398  0.024963885  0.024453667            7 
  361000   0.70329337   -6.3473521    107.79943  0.024884449   0.02438766           12 
  362000   0.68206669   -6.3380723    108.06431  0.024876682  0.024321348            9 
  363000   0.69049937    -6.378876    108.01618  0.024797103  0.024255779           22 
  364000   0.69536919   -6.3588415    108.23168  0.024778314  0.024190335           34 
  365000   0.67393647   -6.3488328    108.36258  0.024740316  0.024125166           17 
  366000   0.69146294   -6.3414034     108.4969  0.024703301  0.024060334           18 
  367000   0.69232412   -6.3531535    108.38242  0.024609996  0.023995526           13 
  368000   0.68239536   -6.3767577    108.29204  0.024522655  0.023930501           15 
  369000   0.68132295    -6.408908    107.98567  0.024387007  0.023865042           17 
  370000   0.68311541   -6.3696629    108.29172  0.024390026  0.023800082           17 
  371000   0.68484167   -6.3686556    108.48278  0.024367202  0.023735292           17 
  372000   0.67839474   -6.3688387    108.76637  0.024365227  0.023670842           12 
  373000   0.67753941   -6.3528809    108.63107  0.024269676  0.023606406           14 
  374000   0.68277401   -6.3854802    108.54937  0.024186579  0.023541828           18 
  375000   0.67526421   -6.4075323     108.6888  0.024153066  0.023477774           23 
  376000   0.68273313   -6.4306981    108.41969  0.024029188  0.023413407           16 
  377000   0.69017908    -6.419208    108.49576  0.023982263  0.023348928           18 
  378000   0.66681601   -6.4298456    108.34645  0.023885902  0.023284452           34 
  379000   0.66810208   -6.4697512    108.44811  0.023845231  0.023219689           21 
  380000   0.66288104    -6.443368    108.60428  0.023816728  0.023155256           29 
  381000   0.66040043   -6.4143201    108.56814  0.023746312   0.02309105           22 
  382000   0.65890538   -6.4384747    108.42236  0.023652347  0.023027042           36 
  383000   0.65537623   -6.4517849    108.51747  0.023611285  0.022963143           24 
  384000   0.67651988   -6.4375818    108.71509  0.023592684  0.022899337           26 
  385000   0.63691829   -6.4331309    108.73047  0.023534734  0.022835823           17 
  386000   0.65688765   -6.4325779    108.72383   0.02347233  0.022772414           16 
  387000    0.6356091    -6.449786    108.70536  0.023407701   0.02270921           50 
  388000   0.65112945   -6.4691814      108.661  0.023337844  0.022645744           23 
  389000    0.6418556   -6.4462013    108.57937  0.023260361  0.022582434           26 
  390000   0.64719701   -6.4440631    108.66669  0.023219378  0.022519603           88 
  391000   0.63769613   -6.4889769    108.96975  0.023224585  0.022456789           23 
  392000   0.63875165   -6.4599549     108.5674  0.023079804  0.022393636           22 
  393000   0.64688617   -6.4458714    109.03931  0.023121143  0.022330677           24 
  394000   0.63969327   -6.4839623     108.9575  0.023045157  0.022267745           12 
  395000   0.64430008   -6.4859927    108.67143  0.022926461  0.022204911           28 
  396000   0.62885765   -6.4818867    108.71818  0.022878404  0.022141894           13 
  397000   0.63785267   -6.5019436    108.64859  0.022806168  0.022078905           18 
  398000   0.62098495   -6.5131933     108.5083  0.022719494  0.022015727           12 
  399000   0.63723257   -6.4965978    108.66261  0.022694781  0.021952793           21 
  400000   0.61729643   -6.5217884    108.84566  0.022676179  0.021890448           23 
  401000    0.6187299   -6.5515531    108.75394  0.022600569  0.021828035           47 
  402000   0.61657298   -6.5377203    108.86285  0.022566925  0.021766055           54 
  403000      0.62516   -6.5421408    108.99621  0.022538505  0.021704315           32 
  404000   0.62051469   -6.5126311    108.86705  0.022456075  0.021642894           19 
  405000   0.61495925   -6.5370616     108.8813   0.02240356  0.021581308           18 
  406000    0.6186121   -6.5309943    108.89917  0.022352046  0.021519923           18 
  407000    0.6192778     -6.53836    108.90982  0.022299309  0.021458847           51 
  408000   0.62236358   -6.5481098    108.84491  0.022231396  0.021397892           36 
  409000   0.60725606   -6.5315227    108.95737  0.022199953  0.021336727           39 
  410000   0.61742891   -6.5681355    108.73103  0.022099804   0.02127554           38 
  411000   0.60324648   -6.5612629    108.84557  0.022069256  0.021214304           36 
  412000   0.60749453    -6.580216    108.55401  0.021956717  0.021153065           43 
  413000   0.62173362   -6.5688423    108.70528  0.021934075  0.021092114           17 
  414000   0.60764144   -6.5815684    109.04143  0.021948757   0.02103156           21 
  415000   0.60234704   -6.5706321    108.92281   0.02187205  0.020971272           31 
  416000    0.5967385   -6.5595416    108.95361  0.021825644  0.020911053           20 
  417000   0.60476403   -6.5732917    108.84999  0.021752595  0.020850939           13 
  418000   0.59943019   -6.5693709    108.85897  0.021702347  0.020791061           24 
  419000   0.59075797   -6.5829903    108.69792  0.021618521  0.020730963           11 
  420000   0.59666781   -6.5946746    108.74225  0.021575843  0.020671094           50 
  421000   0.59915692   -6.5686941     108.8756   0.02155099   0.02061164           19 
  422000   0.59431558   -6.5854386    108.87466  0.021499736  0.020552186           25 
  423000   0.58348372   -6.5651198    108.85667  0.021445364   0.02049297           21 
  424000   0.59159006   -6.5889662    108.88491  0.021400337  0.020434082           27 
  425000   0.59529219   -6.6004492    108.88322  0.021349651  0.020375007           11 
  426000   0.58540892   -6.6004885    108.84683  0.021292415  0.020315849           23 
  427000   0.58193877   -6.6182574     108.6632  0.021206713  0.020256575           29 
  428000   0.59863637   -6.6042153    108.82214  0.021188111  0.020197635           19 
  429000   0.58275051   -6.6161655    108.50117  0.021076374   0.02013864           36 
  430000   0.57840936   -6.5913413    108.77416  0.021080263  0.020079692           25 
  431000   0.58352186   -6.6134232    108.72055  0.021020987   0.02002098           36 
  432000   0.57353024   -6.6157188    108.75069  0.020978143  0.019962777           17 
  433000   0.57779123   -6.6282898    108.88697  0.020955922  0.019904707           21 
  434000   0.57529269   -6.6088814    108.92432  0.020914808  0.019846875           24 
  435000   0.56936728    -6.638674    108.80556  0.020843976  0.019788871           32 
  436000   0.57374809   -6.6511446    108.47512  0.020733012  0.019731052           16 
  437000   0.57926487   -6.6479178    108.53219  0.020696451  0.019673285           44 
  438000   0.56307204   -6.6385353    108.79371  0.020698956  0.019615703           80 
  439000   0.56559589   -6.6446691    108.67263  0.020628821  0.019558264           66 
  440000   0.55777705   -6.6491765    108.68716  0.020584689  0.019501012           36 
  441000   0.56136192   -6.6439966    108.68222  0.020537079   0.01944398           56 
  442000   0.56091087   -6.6573478    108.82625   0.02051777  0.019387123           87 
  443000   0.56830944   -6.6682498    108.56464  0.020422241   0.01933043           63 
  444000   0.55698639   -6.6820168    108.59171  0.020381327  0.019273692          102 
  445000   0.55374507   -6.6863167    108.84355  0.020382687  0.019217092           94 
  446000   0.56280634   -6.6692074    108.63138  0.020297343  0.019160574          111 
  447000   0.55817448   -6.6734045    108.61418  0.020248729  0.019104142           56 
  448000   0.55522854   -6.6848854    108.55352  0.020192247  0.019047746          210 
  449000   0.55357042   -6.6845293    108.47677  0.020133031  0.018991378          103 
  450000   0.55167166    -6.719697    108.40269  0.020074572  0.018935065           96 
  451000   0.55262387   -6.6844016    108.61451  0.020069199  0.018879027          163 
  452000   0.54274896   -6.7069946    108.23827  0.019955434  0.018823198           90 
  453000   0.53258155   -6.7029711    108.57029  0.019972459  0.018767472          225 
  454000   0.54318195   -6.6983731    108.43529  0.019903688   0.01871189           95 
  455000   0.54017943   -6.7111204    108.39824  0.019853158  0.018656522          139 
  456000   0.53884609   -6.7180473    108.20803  0.019774859  0.018601188          154 
  457000   0.53910351   -6.7304194    108.31377  0.019750869  0.018545972          104 
  458000   0.54144619   -6.7080902    108.28021  0.019701639  0.018491009          231 
  459000   0.54674942   -6.7264541    108.30894  0.019663932  0.018436229          157 
  460000    0.5437667   -6.7447955    108.55815  0.019666332  0.018381537          201 
  461000   0.53158181   -6.7340577    108.24509  0.019567081  0.018327054          117 
  462000   0.53034214   -6.7400995    108.27111  0.019529422  0.018272628          197 
  463000   0.52583778   -6.7299605    108.32051  0.019496132  0.018218433          264 
  464000   0.53084158   -6.7312884    108.45538  0.019478336  0.018164426          141 
  465000   0.51364659    -6.735261    108.33764  0.019415348  0.018110603          139 
  466000   0.53082679   -6.7634405    108.30148  0.019367217  0.018056975          169 
  467000   0.52531371   -6.7739133    108.52204  0.019365104  0.018003587          235 
  468000   0.51928937   -6.7715715    108.28035  0.019280689  0.017950362          137 
  469000   0.51699227   -6.7579692    108.54617  0.019286811  0.017897283          126 
  470000   0.51593754   -6.7712695    108.40962  0.019221564  0.017844383          164 
  471000   0.51221239   -6.7643917    108.25245  0.019152946  0.017791688          152 
  472000   0.50600154   -6.7819083    107.93522  0.019056359   0.01773899          175 
  473000   0.51166748   -6.7878014     108.1959  0.019061999   0.01768629          128 
  474000   0.51388635   -6.7742417    108.32459  0.019044407  0.017633931          111 
  475000   0.51318769   -6.7778793    108.14684  0.018973129  0.017581713          239 
  476000   0.50757285   -6.8032034    108.08274  0.018922048  0.017529595          247 
  477000   0.49889759    -6.811292    108.02646  0.018872547  0.017477575          275 
  478000   0.51016872   -6.8025671    107.89036  0.018809337  0.017425668          366 
  479000   0.49940372   -6.7918123    108.14651  0.018814632  0.017373982          316 
  480000    0.4971016   -6.8053581    108.13688  0.018773764  0.017322394          319 
  481000   0.50486614   -6.8004391    108.18331  0.018742777  0.017270923          391 
  482000   0.50023875   -6.8061421    108.09569  0.018688743  0.017219671          335 
  483000   0.48976987   -6.8155502    108.02031  0.018637045  0.017168498          363 
  484000   0.49761615   -6.8318403    107.97844   0.01859133  0.017117453          329 
  485000   0.48598929   -6.8242777    108.02932  0.018561739  0.017066593          422 
  486000   0.47771959   -6.8424116    107.86286  0.018495004  0.017015747          342 
  487000   0.48530312   -6.8401284    108.08262   0.01849463  0.016965137          376 
  488000   0.48337421   -6.8377559    107.86874  0.018420208  0.016914799          301 
  489000   0.48037101   -6.8348289     108.0999  0.018421932    0.0168646          395 
  490000   0.49401923   -6.8248152    107.89277  0.018349111  0.016814413          363 
  491000   0.48715516   -6.8345351    107.73673  0.018285256  0.016764433          389 
  492000   0.48064013   -6.8481069    107.80322  0.018259352  0.016714641          400 
  493000   0.48828574    -6.855442    107.95432  0.018247857  0.016664883          493 
  494000   0.48881969   -6.8731062    107.85713  0.018194523  0.016615282          380 
  495000   0.49736013   -6.8585042    107.84312  0.018155408   0.01656583          338 
  496000   0.48444794   -6.8465333    107.81697  0.018114411  0.016516596          433 
  497000   0.47917604   -6.8603003    107.86395   0.01808584  0.016467472          597 
  498000   0.48450139   -6.8828008      107.939  0.018062082  0.016418487          622 
  499000   0.48606884   -6.8601963     107.9228   0.01802318  0.016369776          509 
  500000   0.46285991   -6.8631569    107.93047  0.017988412  0.016321169          567 
  501000   0.46406478   -6.8620728    107.85479  0.017939918  0.016272625          584 
  502000   0.47754477   -6.8797185    107.44828    0.0178367   0.01622424          577 
  503000    0.4652731   -6.8749116    107.64671  0.017834114  0.016175954          568 
  504000   0.45859218   -6.8685603     107.5645  0.017785136   0.01612781          589 
  505000   0.46118162   -6.8851617    107.67532  0.017768205  0.016079747          636 
  506000   0.46119504   -6.8991199    107.51244  0.017706264  0.016031903          691 
  507000   0.47170079   -6.8932391    107.68631   0.01769992  0.015984106          468 
  508000   0.45170818   -6.8897587    107.46141  0.017628183  0.015936612          605 
  509000   0.45495193   -6.9033059    107.54736  0.017607623  0.015889124          524 
  510000   0.45864466   -6.8973062    107.44982  0.017557161  0.015841861          646 
  511000   0.45410505   -6.8955828    107.38913  0.017512905  0.015794759          628 
  512000   0.44313674   -6.9040017    107.38254  0.017477627  0.015747826          688 
Loop time of 1278.46 on 48 procs for 500000 steps with 4000 atoms

Performance: 67581.077 tau/day, 391.094 timesteps/s
99.4% CPU use with 48 MPI tasks x no OpenMP threads

MPI task timing breakdown:
Section |  min time  |  avg time  |  max time  |%varavg| %total
---------------------------------------------------------------
Pair    | 90.498     | 98.456     | 108.5      |  44.0 |  7.70
Neigh   | 8.885      | 9.1948     | 9.6034     |   6.6 |  0.72
Comm    | 80.923     | 90.093     | 97.197     |  44.5 |  7.05
Output  | 0.93571    | 0.93676    | 0.96892    |   0.5 |  0.07
Modify  | 1066       | 1068.7     | 1071.6     |   3.9 | 83.59
Other   |            | 11.12      |            |       |  0.87

Nlocal:        83.3333 ave          89 max          77 min
Histogram: 3 3 5 5 5 8 6 4 3 6
Nghost:        2391.04 ave        2408 max        2374 min
Histogram: 2 4 5 8 5 5 8 5 1 5
Neighs:        16523.6 ave       19642 max       14315 min
Histogram: 3 7 9 7 4 8 3 4 1 2
FullNghs:      33047.5 ave       35686 max       30360 min
Histogram: 2 5 4 7 6 6 7 3 3 5

Total # of neighbors = 1586278
Ave neighs/atom = 396.56950
Neighbor list builds = 26802
Dangerous builds = 0

#clear
#
#next RN
#
#jump SELF
Total wall time: 0:21:22
