
units lj                  # Use reduced LJ style units
atom_style atomic         # Uncharged point particles
atom_modify map hash      # Needed for indexing of clusters etc
                          # Used to be able to find where atoms are in relation to each other.

lattice fcc 1.0 spacing 1 1 1
Lattice spacing in x,y,z = 1.5874011 1.5874011 1.5874011
region box block 0 10 0 10 0 10 units lattice
create_box 2 box
Created orthogonal box = (0.0000000 0.0000000 0.0000000) to (15.874011 15.874011 15.874011)
  3 by 4 by 4 MPI processor grid
create_atoms 1 box
Created 4000 atoms
  using lattice units in orthogonal box = (0.0000000 0.0000000 0.0000000) to (15.874011 15.874011 15.874011)
  create_atoms CPU = 0.009 seconds
set type 1 type/fraction 2 0.09 78393
Setting atom values ...
  390 settings made for type/fraction
mass 1 1.0
mass 2 1.0
pair_style lj/cut  3.5
pair_modify tail  yes
pair_coeff 1  1  1.0  1.0   # Intearaction between 1 and 1 set with epsilon = 1 and sigma = 1
pair_coeff 1  2  1.5  0.8
pair_coeff 2  2  0.5  0.88

write_data data.0
System init for write_data ...
Neighbor list info ...
  update every 1 steps, delay 10 steps, check yes
  max neighbors/atom: 2000, page size: 100000
  master list distance cutoff = 3.8
  ghost atom cutoff = 3.8
  binsize = 1.9, bins = 9 9 9
  1 neighbor lists, perpetual/occasional/extra = 1 0 0
  (1) pair lj/cut, perpetual
      attributes: half, newton on
      pair build: half/bin/atomonly/newton
      stencil: half/bin/3d
      bin: standard
WARNING: Not all mixed pair coeffs generated from mixing. Use write_data with 'pair ij' option to store all pair coeffs. (../write_data.cpp:312)


#############################
#   M E L T   S Y S T E M   #
#############################

velocity all create 2.4 9622624 mom yes dist gaussian # Assign velocities
                                                    # Temperature 2.4, random number seed, zero linear momentum
                                                                                # Gaussian distribution

timestep 0.002   # simulation timestep
thermo 1000       # output thermodynamic data every 1000 steps bf 100

# Define a fix  in this case with index 1 applied to all
# particles in the simulation. This fix is for simulations
# in the anisotropic NPT ensemble. Note that we use the MTK
# correction.
fix 1 all npt temp 2.4 2.4 0.1 iso 5.68 5.68 0.5 mtk yes tchain 5 pchain 5 # Use NPT ensemble
                                                                         # Set temperature and pressure and damping
                                                                         # Numbers of thermostats in chain and in barostat
run 10000          # run for 10000 steps
Per MPI rank memory allocation (min/avg/max) = 3.642 | 3.644 | 3.648 Mbytes
Step Temp E_pair E_mol TotEng Press Volume 
       0          2.4   -7.7460071            0   -4.1469071   -2.9736732         4000 
    1000    2.3976803   -4.5476052            0  -0.95198383    5.7149451    4895.9627 
    2000    2.3410012   -4.6245096            0   -1.1138856     5.598117    4857.5177 
    3000    2.4028314   -4.6085718            0   -1.0052257     5.515295    4889.0482 
    4000    2.4068519   -4.6395231            0   -1.0301477     5.787442    4828.5623 
    5000    2.4099903    -4.590234            0  -0.97615233    5.9423985    4839.5271 
    6000    2.3611681    -4.616923            0   -1.0760563    5.5762334    4859.5026 
    7000     2.391714   -4.5846884            0   -0.9980143    5.8165177    4857.2586 
    8000    2.4206228   -4.6189587            0  -0.98893224    5.4267574    4885.6095 
    9000    2.4453152   -4.5813752            0   -0.9143193     5.729128    4866.8329 
   10000    2.3596619   -4.6036771            0   -1.0650692    5.7961142    4849.9704 
Loop time of 2.17425 on 48 procs for 10000 steps with 4000 atoms

Performance: 794756.741 tau/day, 4599.287 timesteps/s
99.6% CPU use with 48 MPI tasks x no OpenMP threads

MPI task timing breakdown:
Section |  min time  |  avg time  |  max time  |%varavg| %total
---------------------------------------------------------------
Pair    | 0.89867    | 0.95651    | 1.1046     |   4.0 | 43.99
Neigh   | 0.18753    | 0.19725    | 0.22812    |   1.5 |  9.07
Comm    | 0.5921     | 0.76539    | 0.83984    |   5.3 | 35.20
Output  | 0.00024701 | 0.00025155 | 0.00031061 |   0.0 |  0.01
Modify  | 0.18872    | 0.24033    | 0.2953     |   5.6 | 11.05
Other   |            | 0.01452    |            |       |  0.67

Nlocal:        83.3333 ave          92 max          74 min
Histogram: 2 1 6 7 2 12 7 7 3 1
Nghost:        1444.00 ave        1473 max        1417 min
Histogram: 3 4 7 5 7 9 1 2 7 3
Neighs:        7843.88 ave        8733 max        6696 min
Histogram: 1 2 2 7 7 5 11 4 6 3

Total # of neighbors = 376506
Ave neighs/atom = 94.126500
Neighbor list builds = 903
Dangerous builds = 212

# Equilibrate just above the melting temperature to avoid step fn in T

fix 1 all npt temp 1.25 1.25 0.1 iso 5.68 5.68 0.5 mtk yes tchain 5 pchain 5
run 2000
Per MPI rank memory allocation (min/avg/max) = 3.642 | 3.644 | 3.648 Mbytes
Step Temp E_pair E_mol TotEng Press Volume 
   10000    2.3596619   -4.6036771            0   -1.0650692    5.7961142    4849.9704 
   11000    1.2429765   -6.1756381            0   -4.3116395    5.8519864    3999.9995 
   12000    1.2546296   -6.1486379            0    -4.267164    5.7939092    4012.9977 
Loop time of 0.479014 on 48 procs for 2000 steps with 4000 atoms

Performance: 721482.583 tau/day, 4175.246 timesteps/s
99.6% CPU use with 48 MPI tasks x no OpenMP threads

MPI task timing breakdown:
Section |  min time  |  avg time  |  max time  |%varavg| %total
---------------------------------------------------------------
Pair    | 0.20559    | 0.22286    | 0.26261    |   2.1 | 46.53
Neigh   | 0.031507   | 0.032976   | 0.037957   |   0.6 |  6.88
Comm    | 0.13492    | 0.16598    | 0.19731    |   3.4 | 34.65
Output  | 4.9927e-05 | 5.178e-05  | 6.3734e-05 |   0.0 |  0.01
Modify  | 0.037932   | 0.052593   | 0.069281   |   4.1 | 10.98
Other   |            | 0.00455    |            |       |  0.95

Nlocal:        83.3333 ave          92 max          75 min
Histogram: 1 2 6 7 8 12 3 7 1 1
Nghost:        1642.77 ave        1661 max        1624 min
Histogram: 4 3 4 6 7 8 4 4 3 5
Neighs:        9508.75 ave       10734 max        8192 min
Histogram: 1 0 4 8 10 10 8 5 1 1

Total # of neighbors = 456420
Ave neighs/atom = 114.10500
Neighbor list builds = 142
Dangerous builds = 9

#############################
# L I N E A R  Q U E N C H  #
#############################

# Define solid atoms. This closely follows ten Wolde  Ruiz-Montero and Frenkel  Faraday Discuss  1996  104  93-110
# Compute components of the per-atom q6 vector
compute q6 all orientorder/atom degrees 1 6 components 6 nnn NULL cutoff 1.3 # compute the Q6 parameter.
                                                                             # Use all neighbours within 1.3 unit cell.

# get number of connections
compute coord_number all coord/atom orientorder q6 0.5

# An atom is solid if it has 8 or more connections (of a possible 14)
variable is_solid atom c_coord_number>=8
group solid dynamic all var is_solid    # Must be dynamic to update
dynamic group solid defined

# do clustering
compute cluster solid cluster/atom 1.3 # Create a cluster where all atoms within are solid and max 1.3 units from another member

# define chunks one chunk per cluster
compute clus_chunks solid chunk/atom c_cluster nchunk every compress yes  # Says which atoms are in which chunk

# count the size of each chunk
compute size_chunks solid property/chunk clus_chunks count


# Find the maximum entry in the vector of chunk sizes
variable max_n equal max(c_size_chunks)


# Thermo style which includes this variable
# thermo_style custom step temp pe vol v_max_n

thermo ${N}  # Print the thermo information every 100 steps
thermo 1000  

# Reset the npt fix at a lower temperature (below freezing)
fix 1  all npt temp  ${temp} ${temp}  0.1  iso  5.68  5.68  0.5  mtk yes tchain  5  pchain  5
fix 1  all npt temp  0.45 ${temp}  0.1  iso  5.68  5.68  0.5  mtk yes tchain  5  pchain  5
fix 1  all npt temp  0.45 0.45  0.1  iso  5.68  5.68  0.5  mtk yes tchain  5  pchain  5

dump dmp2 all dcd ${N} traj.dcd
dump dmp2 all dcd 1000 traj.dcd


compute msd all msd com yes
variable twopoint equal c_msd[4]/6/(step*dt+1.0e-6)
fix 9 all vector 10 c_msd[4]
variable fit equal slope(f_9)/6/(10*dt)
thermo_style custom step temp pe c_msd[4] v_twopoint v_fit v_max_n

fix 1 all npt temp 1.25 ${temp} 0.1 iso 5.68 5.68 0.5 mtk yes tchain 5 pchain 5
fix 1 all npt temp 1.25 0.45 0.1 iso 5.68 5.68 0.5 mtk yes tchain 5 pchain 5
run 2000000 # 5000000  # Run for this many steps
Neighbor list info ...
  update every 1 steps, delay 10 steps, check yes
  max neighbors/atom: 2000, page size: 100000
  master list distance cutoff = 3.8
  ghost atom cutoff = 3.8
  binsize = 1.9, bins = 9 9 9
  4 neighbor lists, perpetual/occasional/extra = 1 3 0
  (1) pair lj/cut, perpetual
      attributes: half, newton on
      pair build: half/bin/atomonly/newton
      stencil: half/bin/3d
      bin: standard
  (2) compute orientorder/atom, occasional
      attributes: full, newton on
      pair build: full/bin/atomonly
      stencil: full/bin/3d
      bin: standard
  (3) compute coord/atom, occasional
      attributes: full, newton on
      pair build: full/bin/atomonly
      stencil: full/bin/3d
      bin: standard
  (4) compute cluster/atom, occasional
      attributes: full, newton on
      pair build: full/bin/atomonly
      stencil: full/bin/3d
      bin: standard
Per MPI rank memory allocation (min/avg/max) = 9.750 | 9.754 | 9.761 Mbytes
Step Temp PotEng c_msd[4] v_twopoint v_fit v_max_n 
   12000    1.2546296   -6.1486379 8.4822269e-31 5.8904351e-33 8.3333333e+20            4 
   13000     1.263401   -6.1524348   0.54908516 0.0035197765  0.044917204            2 
   14000    1.2425735   -6.1092965    1.1259459 0.0067020588  0.046312072            3 
   15000    1.2822719   -6.1898176    1.6575952 0.0092088618  0.045881679            2 
   16000    1.2453193   -6.2480526    2.1149492   0.01101536  0.044822264            3 
   17000    1.1977029   -6.1883183    2.6715306  0.013095738  0.043800879            4 
   18000    1.2674564   -6.1822244    3.2502727  0.015047559  0.043993144            3 
   19000    1.2689753   -6.1891944    3.7652785  0.016514379   0.04436458            2 
   20000    1.2525425   -6.1818192    4.2916516  0.017881881  0.044274025            3 
   21000    1.2546571   -6.1842984    4.8018839  0.019055094  0.044058377            2 
   22000    1.2550005   -6.1556258    5.2702767  0.019963169  0.043827969            2 
   23000    1.2724379    -6.187172    5.9298462  0.021484949  0.043993041            1 
   24000    1.2336136    -6.168339    6.5034297  0.022581353  0.044365401            2 
   25000    1.2727658   -6.2052329    7.1005155  0.023668385   0.04471079            3 
   26000    1.2535905   -6.1751789     7.696322  0.024667698  0.045035748            2 
   27000    1.2557538   -6.1827946    8.3335305  0.025720773  0.045447535           11 
   28000    1.2141331    -6.200292    8.8540603   0.02635137  0.045758678            2 
   29000    1.2378155   -6.1337681    9.3481232  0.026862422  0.045918684            4 
   30000    1.2400746   -6.1969362    9.8120244  0.027255623  0.045873071            3 
   31000    1.2303313    -6.199161    10.319953  0.027741808  0.045791841            2 
   32000    1.2175531   -6.1612777    10.875377  0.028321294  0.045706063            4 
   33000    1.2251822   -6.1933928    11.404609  0.028799517  0.045645987            4 
   34000    1.2651261   -6.2332743    11.890943  0.029144468  0.045563469            2 
   35000    1.2622406   -6.2137225    12.403683  0.029532578  0.045480615            3 
   36000    1.2520205   -6.1688969    13.034438  0.030172311  0.045425905            3 
   37000     1.247615   -6.1741276    13.453704  0.030301135  0.045376322            2 
   38000    1.2469176   -6.2392196     13.91865  0.030523354  0.045291408            4 
   39000    1.2438354   -6.1578359    14.586295  0.031167297  0.045188125            2 
   40000    1.2404487   -6.2434618    15.104786  0.031468303  0.045151193            3 
   41000    1.2332484   -6.2038988    15.776073  0.032065189  0.045172327            2 
   42000    1.2464887   -6.2228199    16.279048  0.032299698  0.045187506            3 
   43000    1.2773522   -6.1659883    16.875587  0.032704625  0.045215553            7 
   44000    1.2501586   -6.1928127    17.255129  0.032680169  0.045197015            3 
   45000     1.241489   -6.2213597    17.725097  0.032824253  0.045145698            1 
   46000    1.2265089   -6.1998517    18.390278  0.033315721  0.045105342            1 
   47000    1.2386756   -6.2181779    18.940035  0.033581621  0.045086975            4 
   48000    1.2079776   -6.2004318    19.388407  0.033660429  0.045063327            2 
   49000    1.2498873   -6.1800781    19.921979  0.033880916  0.045014489            1 
   50000    1.2189174   -6.2306605    20.289394  0.033815657  0.044955038            2 
   51000    1.1976149   -6.2152466    20.720927  0.033857723  0.044849883            1 
   52000       1.2222   -6.2261383    21.210312  0.033990885  0.044735262            2 
   53000    1.2375891   -6.2237689    21.782783  0.034249659   0.04464037            3 
   54000    1.2279214   -6.2320157    22.378235  0.034534312   0.04456764            2 
   55000    1.2146598   -6.2440636    22.678001  0.034360607  0.044481165            3 
   56000    1.2425152   -6.1899967    23.421546   0.03485349   0.04441044            5 
   57000    1.2110806   -6.2165191    23.712406  0.034667261    0.0443465            3 
   58000    1.2316702   -6.1829486    24.264418  0.034862669  0.044268125            1 
   59000    1.2299898   -6.1696895     24.79873  0.035026454  0.044199225            3 
   60000      1.22925   -6.2210806    25.355831  0.035216431  0.044141773            1 
   61000    1.2401433   -6.1762934    26.009805   0.03553252  0.044098469            4 
   62000    1.2267318   -6.2308891    26.547773  0.035682491   0.04407464            2 
   63000    1.2580267   -6.2479863    27.113676   0.03586465   0.04406818            2 
   64000     1.250756    -6.209052    27.773564  0.036163495   0.04407898            2 
   65000    1.2159876   -6.2431744    28.311304  0.036296543  0.044103088            3 
   66000    1.2266607   -6.1830556    28.967716  0.036575399  0.044126155            4 
   67000    1.2387087   -6.2476476    29.490879  0.036680197  0.044165613            2 
   68000    1.2255027   -6.1807607    30.159432  0.036960088  0.044210052            3 
   69000    1.2603281   -6.2029853    30.741424  0.037127324  0.044255927            2 
   70000    1.2307194   -6.2202864    31.231429  0.037180272  0.044301105            2 
   71000    1.2230522   -6.2038945    31.832168  0.037361699  0.044328409            2 
   72000    1.2549792   -6.2238543    32.453794  0.037562261  0.044367834            7 
   73000    1.2301249   -6.2347339    33.041857  0.037719015  0.044434417            2 
   74000    1.2562004   -6.2174353    33.432083  0.037648742  0.044478934            2 
   75000    1.2092978   -6.2645477    33.865562  0.037628402  0.044511582            3 
   76000    1.2055386   -6.1990329    34.367628  0.037683802  0.044529688            2 
   77000    1.2102244   -6.2361271    35.002178  0.037881145  0.044534737            2 
   78000    1.2659037   -6.2680751    35.560961  0.037992479  0.044563363            2 
   79000    1.2180391   -6.1995743    36.222157  0.038209026  0.044604518            1 
   80000    1.2430872   -6.2635271    36.981725   0.03852263  0.044650865            3 
   81000    1.2323309   -6.2326335    37.276955  0.038350776  0.044693689            2 
   82000    1.2478225   -6.2368326    37.687427  0.038300231  0.044715382            2 
   83000    1.2326041   -6.2294716    38.320133  0.038474029  0.044727408            2 
   84000     1.224272   -6.2358306    38.905167  0.038596395  0.044736659            3 
   85000    1.2268522   -6.2047701    39.291387  0.038520967  0.044747847            1 
   86000    1.2028068    -6.183441    39.698856  0.038467883  0.044743928            2 
   87000    1.2116043   -6.1874433    40.176289  0.038483035   0.04473325            5 
   88000    1.2151103   -6.2319532    40.298046  0.038161028  0.044703616            2 
   89000    1.2411991   -6.1845727    40.811527   0.03821304  0.044664509            3 
   90000    1.2570168   -6.1879023    41.426148  0.038357545  0.044625386            2 
   91000     1.219401   -6.2364256    41.896505  0.038366763  0.044589398            5 
   92000    1.2048632   -6.2524887    42.309305  0.038323645  0.044558199            2 
   93000    1.2450277   -6.2574543    42.869762  0.038413765  0.044523938            5 
   94000    1.2031315   -6.2224627    43.126806  0.038232984  0.044484897            3 
   95000    1.2123687   -6.2423785    43.827555  0.038445224  0.044437413            3 
   96000     1.228501   -6.2716358    44.140547  0.038316447   0.04439616            5 
   97000    1.2034135   -6.2664805    44.784063  0.038474281   0.04435597            2 
   98000    1.2159218     -6.23056    45.500458  0.038690865  0.044316983            2 
   99000    1.2404033   -6.2352485    45.493499  0.038294191   0.04426964            9 
  100000    1.2049596   -6.2128416    46.089571  0.038407976  0.044214461            2 
  101000    1.2172125   -6.2506577    46.338923  0.038233434  0.044159938            5 
  102000    1.1849519   -6.2188443    47.143594  0.038516008  0.044105609            2 
  103000    1.2163682   -6.2480021    47.597415  0.038509235   0.04405396            3 
  104000     1.241635   -6.2860204    47.976792  0.038442942   0.04400806            2 
  105000     1.187316   -6.2306612    48.755485  0.038694829  0.043965963            1 
  106000    1.2245419   -6.2311249    49.254475  0.038722072  0.043923005            2 
  107000    1.2321218   -6.2257309    49.502906  0.038553665  0.043881047            3 
  108000    1.2166803   -6.2401026    49.992878  0.038574752  0.043833985            2 
  109000    1.2294308   -6.2285617    50.518426   0.03862265  0.043795165            1 
  110000    1.2258208   -6.2761419      51.0314  0.038660152  0.043755187            2 
  111000    1.2033837   -6.2468298    51.560264  0.038708907  0.043717931            1 
  112000    1.1929986   -6.2508399    52.186207  0.038829023  0.043684577            5 
  113000    1.1741731   -6.2594954    52.820801  0.038953393  0.043659956            1 
  114000    1.2029643   -6.2550311    53.337486   0.03898939  0.043638747            3 
  115000    1.2313284   -6.2667907    53.706894  0.038918039  0.043617857            6 
  116000    1.2129255   -6.2537263    54.179602  0.038922128  0.043593788            2 
  117000    1.2258813   -6.2801545    54.692461  0.038954744  0.043567044            2 
  118000    1.2317326   -6.2987406    55.058259  0.038882951  0.043537976            3 
  119000    1.2356795   -6.2665411    55.570189  0.038914698  0.043503377            2 
  120000    1.2190351   -6.2342241    56.170276  0.039007136  0.043475572            4 
  121000    1.2209818   -6.2399316    56.647737  0.039013593  0.043446655            4 
  122000     1.215932   -6.2488639    57.319496  0.039152661   0.04342049            5 
  123000      1.19752   -6.2709022    57.729546  0.039112158  0.043398755            5 
  124000    1.1903718   -6.2275647    58.554803  0.039351346  0.043380097            3 
  125000    1.2084284   -6.2767977    59.062865  0.039375243  0.043364621            3 
  126000    1.1872829   -6.2678468    59.677547  0.039469277  0.043358139            4 
  127000    1.1863403   -6.2515867    60.377354  0.039617686  0.043358315            2 
  128000    1.2242899   -6.3054664    60.813719  0.039592265     0.043362            2 
  129000    1.1823758   -6.2740398    61.409249  0.039670057  0.043361984            4 
  130000    1.2054631   -6.2941222    61.758562  0.039588822  0.043363531            3 
  131000    1.2380097   -6.2718804    62.202107   0.03956877  0.043358119            4 
  132000    1.1870305   -6.2243017    62.813523  0.039655002   0.04334952            2 
  133000    1.2156415   -6.2622999    63.303317  0.039663732  0.043341181            2 
  134000    1.2071804   -6.2784333    63.547807   0.03951978  0.043335984            2 
  135000    1.2010269   -6.2413974    64.349136  0.039721689  0.043331431            2 
  136000    1.1933528    -6.288916    64.880962  0.039755491  0.043327551            1 
  137000    1.2176162   -6.2812642    65.376518  0.039766738  0.043322868            4 
  138000    1.2184244   -6.2696641    65.925991  0.039810381  0.043315392            5 
  139000    1.1917854   -6.2999184     66.24368  0.039714437  0.043308765            2 
  140000    1.1911285   -6.2621823    66.961553  0.039858067  0.043300451            2 
  141000    1.1879606   -6.2624935    67.191618  0.039711358  0.043294182            2 
  142000    1.1791382   -6.2418383    68.062279  0.039942652  0.043286064            3 
  143000    1.1849567   -6.2471707    68.512738  0.039925838  0.043278985            2 
  144000    1.2403304   -6.2314438    68.675006   0.03974248  0.043266912            2 
  145000     1.187998   -6.2489964    69.239159   0.03979262  0.043255137            2 
  146000     1.199299   -6.2628327    69.795205  0.039837445  0.043241714            3 
  147000    1.1672291   -6.2678054    70.179814  0.039784475  0.043227876            4 
  148000    1.1892725   -6.3218376     70.26284   0.03956241  0.043209188            1 
  149000    1.2256491   -6.3089748    70.451667  0.039402498  0.043187538            2 
  150000    1.1858368   -6.2764144    70.944794  0.039413774  0.043161102            4 
  151000     1.204266   -6.2156126    71.717159  0.039579006  0.043133649            9 
  152000    1.1990882   -6.2914333    71.979574  0.039462486  0.043105465            2 
  153000    1.1647689   -6.2737099    72.665516  0.039578168  0.043079879            3 
  154000    1.2032876   -6.2438296    73.406408  0.039722082  0.043058595            1 
  155000    1.2173682   -6.2503597    73.900095  0.039731234  0.043039703            5 
  156000    1.1767952   -6.2696947    74.467502  0.039779648  0.043022895            4 
  157000    1.2097113   -6.2565536    75.173381  0.039900945  0.043012115            3 
  158000    1.1991643   -6.2753248    75.550274  0.039847191  0.043001886            2 
  159000    1.1988089   -6.2314075    76.096235  0.039882723  0.042990353            3 
  160000    1.1862012   -6.2859498    76.768602  0.039983646  0.042982552            4 
  161000    1.1842791   -6.2962874    77.433213  0.040079302  0.042977292            3 
  162000    1.1835718   -6.3039938     77.67849  0.039958071  0.042969861            6 
  163000    1.1899269   -6.2837848    78.066378  0.039911236  0.042961255            2 
  164000    1.2205478   -6.3177018    78.701038  0.039990365  0.042955996            1 
  165000    1.1992443   -6.2360181    79.363808  0.040082731  0.042948424            4 
  166000    1.1992902   -6.3113433    79.827029   0.04007381  0.042942005            3 
  167000    1.2070422   -6.2591634    80.306807  0.040073257  0.042936607            2 
  168000    1.1820844   -6.2644865     81.06085  0.040208755  0.042930579            3 
  169000      1.17204    -6.285645    81.319297  0.040098273  0.042923364            2 
  170000    1.1939629   -6.2988669    81.645763  0.040022433  0.042916655            2 
  171000    1.1812294   -6.2682203     82.25975  0.040087598  0.042910686            3 
  172000    1.1747695   -6.2429582    82.771883  0.040102657   0.04290385            3 
  173000    1.1948248   -6.2761296    82.981008  0.039971584  0.042894252            2 
  174000    1.1677955   -6.2869492    83.430284  0.039957032  0.042880012            2 
  175000    1.1782544   -6.2751059    84.151141  0.040071972  0.042867392            3 
  176000    1.1607826   -6.2799245    84.405898  0.039964914  0.042852011            3 
  177000    1.1820616   -6.2733662     84.48529  0.039776502  0.042832614            5 
  178000    1.1727392   -6.2527243    85.302298  0.039935533   0.04281348            3 
  179000    1.1968783   -6.2617516    85.722539  0.039908072  0.042793746            5 
  180000     1.187749   -6.2749694    86.188055  0.039901877  0.042775331            2 
  181000    1.1736861   -6.3275881    86.264667  0.039716698  0.042754493            2 
  182000    1.1887043   -6.3221079    86.689642   0.03969306  0.042727706            3 
  183000    1.2052744   -6.3012219    87.209613  0.039712938  0.042703515            2 
  184000    1.1905481   -6.2787925    87.647936  0.039695623  0.042679001            4 
  185000    1.1801067   -6.2930881    88.056822  0.039665235  0.042652055            3 
  186000    1.1701331   -6.3053783    88.500734  0.039650866   0.04262587            5 
  187000     1.175047   -6.2978489    89.178963  0.039741071  0.042600283            4 
  188000    1.1715088   -6.3115788     89.63421  0.039731476  0.042577333            2 
  189000    1.1666527   -6.2982253    90.173652  0.039759106   0.04255641            3 
  190000    1.1665265   -6.3077047    90.823421  0.039834834   0.04253896            3 
  191000    1.1851666   -6.3007499    91.258075  0.039815914  0.042521391            3 
  192000    1.1662213   -6.3182564    91.318661  0.039634836   0.04250006            2 
  193000    1.1527499   -6.2999653    92.300651  0.039853476  0.042479866            3 
  194000    1.1776686   -6.3148788     92.46594  0.039719046  0.042460234            2 
  195000    1.1780982   -6.3469806    92.654767  0.039596054  0.042437589            2 
  196000    1.1714269    -6.318106    92.585792  0.039364707  0.042412177            6 
  197000    1.1773316   -6.3201202    93.254536  0.039447773  0.042385524            3 
  198000    1.1735195   -6.3208875     93.76298  0.039462533  0.042358675            2 
  199000    1.2009013   -6.2891334    94.428287  0.039542834  0.042331853            2 
  200000    1.1765524   -6.2941709    94.662706  0.039442794  0.042306104            6 
  201000    1.2018262   -6.2806097    95.415948   0.03955885  0.042279686            2 
  202000    1.1641706   -6.3373739    95.752772  0.039501969  0.042254646            6 
  203000    1.1721695   -6.3373951    96.219097  0.039498808     0.042229            5 
  204000    1.1716147   -6.3712798    96.684406  0.039495264  0.042204735            2 
  205000    1.1616676   -6.3133548    97.217944  0.039519489  0.042181862            2 
  206000    1.1675378   -6.3199631    97.775916  0.039553364  0.042159281            7 
  207000    1.1886655   -6.3380193    97.967358  0.039439355  0.042135194            3 
  208000    1.1740723   -6.3355231     98.45883  0.039446647  0.042111237            6 
  209000    1.1937855   -6.3042304    99.292355  0.039590253  0.042089771            2 
  210000    1.1639752    -6.346756    99.395575  0.039442688  0.042067914            1 
  211000    1.1700032   -6.3624755    99.431261   0.03926985  0.042043095            8 
  212000    1.1812323    -6.299828    100.50171   0.03950539  0.042020294            1 
  213000    1.1637918   -6.2987353    100.69499  0.039395536   0.04199377            5 
  214000    1.1931111   -6.3788032    101.10368  0.039370591   0.04196626            3 
  215000     1.181156   -6.3375158    101.20429  0.039226468  0.041938013            6 
  216000    1.1488013   -6.3361364     101.4566  0.039142208  0.041907475            2 
  217000    1.1959588    -6.323174    102.08578  0.039203447  0.041876979            4 
  218000    1.1286318   -6.3269885     102.8192  0.039303976  0.041848548            5 
  219000    1.2092378   -6.3206026    102.90976  0.039158963  0.041819968            2 
  220000    1.1936316   -6.3040542    103.61264  0.039247212  0.041790725            3 
  221000    1.1711086   -6.3328624    103.95519  0.039198789  0.041761152            2 
  222000    1.1671872   -6.3180777    104.36713  0.039176852  0.041734838            2 
  223000    1.1961491   -6.3228584    104.49146  0.039047631  0.041706047            2 
  224000    1.1520695   -6.3604043    105.14017  0.039114647  0.041677239            5 
  225000    1.1699113   -6.3633555    105.71196  0.039152579  0.041649725            5 
  226000    1.1546715   -6.3666577     106.5452  0.039286578  0.041623199            2 
  227000    1.1385245   -6.3690204    106.82962  0.039217922  0.041597421            7 
  228000    1.1375462   -6.3244786    107.50909  0.039294257    0.0415725            3 
  229000    1.1916376   -6.3518437     107.5439  0.039135334  0.041547877            4 
  230000    1.1646846   -6.3537026    108.42195  0.039283314  0.041524413            2 
  231000    1.1613543   -6.3113095    108.36988  0.039094475  0.041499388            2 
  232000    1.1487267   -6.3714409    108.81449  0.039085666  0.041475745            3 
  233000    1.1641342   -6.3377712    109.24148   0.03907063  0.041450958            3 
  234000    1.1589092   -6.2951129    109.98031  0.039166779  0.041425424            2 
  235000    1.1691805   -6.3437761    110.24427  0.039093712  0.041399751            1 
  236000    1.1837796    -6.339506    110.66346  0.039076081  0.041373484            3 
  237000     1.168674   -6.3246656     111.2673  0.039123525   0.04134791            2 
  238000    1.1779914   -6.3460423    110.84748  0.038812141  0.041320202            3 
  239000    1.1972822   -6.3469395    112.37292  0.039181631  0.041294168            2 
  240000    1.1530938   -6.3308705    111.89646  0.038852937  0.041269846            7 
  241000    1.1587797   -6.3386998    112.18903  0.038792888  0.041242224            3 
  242000    1.1600623   -6.3397582    112.88456  0.038872092  0.041212317            3 
  243000      1.16147   -6.3261391    113.12735  0.038795387  0.041181752            2 
  244000    1.1449006   -6.3500291    112.96897  0.038582299  0.041149504            3 
  245000    1.1795645   -6.3437427    113.64439  0.038654555  0.041114783            2 
  246000    1.1575156   -6.3280086    114.36035  0.038739957  0.041082904            2 
  247000    1.1794249   -6.3429576    114.16218  0.038516256  0.041051353            6 
  248000     1.144429   -6.3334867    114.03628  0.038318641  0.041016367            7 
  249000    1.1456654   -6.3517723    114.96478  0.038475494  0.040981012            3 
  250000    1.1471703   -6.3643949    115.60294  0.038534313  0.040946335            2 
  251000    1.1310039   -6.3493114     115.7514   0.03843008  0.040910895            3 
  252000    1.1406372   -6.3900021    116.14218  0.038406804  0.040876637            6 
  253000    1.1628227   -6.3240825    116.77787  0.038464385  0.040841724            6 
  254000    1.1225208   -6.3785694    117.09425   0.03841675  0.040808984            4 
  255000    1.1762517   -6.3067928    117.79401  0.038494775  0.040777503            5 
  256000    1.1611749   -6.3636402    118.47941  0.038567515  0.040745025            2 
  257000    1.1476935   -6.3476402    118.24866  0.038342627  0.040713502            3 
  258000    1.1478659   -6.3514808     118.7189  0.038345897  0.040681526            3 
  259000    1.1583234   -6.3273252     119.5855  0.038476673  0.040651088            5 
  260000     1.171671   -6.3523963    119.60248  0.038334128  0.040619973            3 
  261000    1.1617972   -6.3432831    120.04395   0.03832821  0.040587058            2 
  262000    1.1346815   -6.3586457    120.54233  0.038340434  0.040555044            3 
  263000    1.1415518   -6.3536922    120.61114  0.038216457  0.040522741            1 
  264000     1.155564   -6.3911238    120.89684  0.038161881  0.040490278            4 
  265000    1.1849058   -6.3816513    121.77797   0.03829496  0.040459996            3 
  266000    1.1666999   -6.3595654    122.45427  0.038362868  0.040431162            3 
  267000    1.1159539   -6.3147793    122.73545  0.038306943  0.040402186            2 
  268000    1.1623804   -6.3880011    123.27275  0.038331078   0.04037484            3 
  269000    1.1634324   -6.3240243    123.84225   0.03836501  0.040347388            3 
  270000    1.1434143   -6.3445404    123.96649  0.038261262  0.040319979            3 
  271000    1.1436323   -6.3941759    124.33345  0.038232917  0.040292791            4 
  272000    1.1218182   -6.3807858     124.9247  0.038273498  0.040266193            3 
  273000     1.142047   -6.3338406    125.76931   0.03839112  0.040239359            4 
  274000    1.1589418   -6.3169913    125.95788  0.038308358  0.040214507            3 
  275000    1.1549764   -6.3214017    126.63728  0.038374933  0.040190737            3 
  276000     1.152077   -6.3713611    126.81351  0.038289103  0.040163728            3 
  277000    1.1400312   -6.3702272    127.32079  0.038303486  0.040136379            1 
  278000    1.1332379   -6.3399299    127.05477  0.038085962  0.040108233            4 
  279000    1.1333443   -6.3796613    127.60823  0.038114765  0.040080408            4 
  280000    1.1687414   -6.3755128      128.044  0.038108334  0.040054844            5 
  281000    1.1483728   -6.3643001    128.77834  0.038190491  0.040028779            2 
  282000     1.139519   -6.3941638       128.84  0.038073286  0.040002803            7 
  283000    1.1251792   -6.3680872    129.69603  0.038190823  0.039978629            3 
  284000     1.157909   -6.3853077    130.13371  0.038184774  0.039954559            2 
  285000    1.1280652   -6.3768657    130.40571  0.038130325  0.039929537            6 
  286000     1.151635   -6.3795344    131.03612  0.038180686  0.039904937            2 
  287000    1.1265187   -6.3844014     131.2183  0.038100553  0.039880617            3 
  288000    1.1299044   -6.3905298    132.05868  0.038211423  0.039857405            6 
  289000    1.1410903   -6.3376731    132.40264  0.038178384   0.03983549            5 
  290000    1.1345947   -6.3556762    133.11379   0.03825109  0.039812873            5 
  291000    1.1091092   -6.3431445    133.89308  0.038342806    0.0397927            7 
  292000    1.1299919   -6.3778264    134.37504  0.038349042  0.039772338            4 
  293000    1.1307801   -6.3718891    134.10188  0.038140467   0.03975168            3 
  294000    1.1494973   -6.3549382    134.81516  0.038212913  0.039730264            2 
  295000    1.1301934   -6.4120886    134.93101  0.038116104  0.039709415            5 
  296000    1.1466532   -6.4048917    135.34192  0.038103017  0.039686337            5 
  297000    1.1097973    -6.388173    135.45374  0.038006099  0.039663715            3 
  298000    1.1506336   -6.3659376    136.53615   0.03818125  0.039641162            3 
  299000    1.1231789   -6.3718712    137.06414  0.038200708  0.039619818            4 
  300000    1.1407183    -6.377834      137.351  0.038153055  0.039598882            5 
  301000    1.1362856   -6.3615037    137.97082  0.038197901  0.039579018            2 
  302000    1.1215665   -6.3795415    137.94918  0.038065447  0.039557893            2 
  303000    1.1258513   -6.3571608    138.71567  0.038150623  0.039537199            2 
  304000    1.1334202   -6.4001845    139.19861  0.038157513  0.039516503            4 
  305000    1.1326269   -6.4025844    138.99453  0.037976646   0.03949472            8 
  306000    1.1231021   -6.3874533    139.37579  0.037956369   0.03947237            3 
  307000    1.1335476   -6.4310645    139.34036  0.037823115  0.039449473            3 
  308000    1.1458938   -6.3580367    140.04448  0.037890823  0.039427406            3 
  309000    1.1519516   -6.3961541    140.71037  0.037947781    0.0394044            3 
  310000     1.135904   -6.3720791    141.18516  0.037953001  0.039382159            4 
  311000     1.135028   -6.3999232    141.01231   0.03778465  0.039361373            2 
  312000    1.1255527   -6.3595458    142.12533  0.037960825  0.039340692            5 
  313000    1.1262835   -6.3847584    142.14863  0.037845747  0.039319098            3 
  314000    1.1212775   -6.3585289    142.82362  0.037904357   0.03929815            2 
  315000    1.1337946   -6.3926205    143.49372  0.037961302  0.039277769            5 
  316000    1.1220499   -6.4390674    143.55517  0.037857375  0.039257529            3 
  317000    1.1274786    -6.413231    143.67087  0.037768366   0.03923597            4 
  318000    1.1229845   -6.3766392    144.04513  0.037747676  0.039213605            4 
  319000    1.1279682   -6.4119758    144.88862  0.037849692  0.039192114            3 
  320000    1.1124385   -6.3852221    144.79384   0.03770673  0.039170202            3 
  321000    1.1233376   -6.3974103    144.78714  0.037587524  0.039147913            4 
  322000    1.1306139   -6.3756627     145.7775  0.037727095  0.039123872            1 
  323000    1.1238542   -6.4302171    145.25254  0.037474855  0.039100197            3 
  324000    1.1261065   -6.4164873    146.10557  0.037578594  0.039074768            3 
  325000    1.1143316   -6.4064001    146.43207  0.037546685  0.039049753            6 
  326000      1.12086    -6.416103    146.04869   0.03733351  0.039024535            3 
  327000    1.1125665   -6.3942803    146.94504  0.037447768   0.03899939            3 
  328000    1.1210585   -6.3921361    147.37585  0.037443052  0.038974634            3 
  329000    1.1391341   -6.3905364    147.86729   0.03745372  0.038949466            4 
  330000    1.1015897   -6.3728824    148.26121  0.037439701  0.038925573            2 
  331000    1.1017584   -6.4167724    148.06884  0.037278157  0.038900437            1 
  332000    1.1133964   -6.4130099     148.2113  0.037201632  0.038874448            4 
  333000    1.1203078   -6.3914194    149.25953  0.037352233  0.038849237            5 
  334000    1.1087025   -6.4027502    149.26065   0.03724068  0.038823309            3 
  335000    1.1375305   -6.4094232    149.60719  0.037215718  0.038798208            6 
  336000    1.1512808   -6.4236742    150.23035  0.037259512   0.03877234            4 
  337000    1.1062402   -6.4096591    150.40834  0.037192961   0.03874634            2 
  338000    1.1142937   -6.4104476    150.85999  0.037194278  0.038720274            3 
  339000     1.134406   -6.4145896    151.50961  0.037244249  0.038695551            2 
  340000    1.1244535   -6.4249273    151.60273  0.037157531  0.038672164            6 
  341000    1.1410114   -6.4196852    152.50165  0.037268242  0.038648261            5 
  342000    1.1139701   -6.3954394    152.93016  0.037263684  0.038624679            2 
  343000    1.1179959   -6.4266378    152.78687  0.037120231  0.038600839            3 
  344000    1.1160861   -6.3925805    153.88043  0.037277235   0.03857717            3 
  345000    1.1214491   -6.4024101    154.35754  0.037284431   0.03855374            2 
  346000    1.1182915    -6.436305    154.39604  0.037185943  0.038529817            2 
  347000    1.1137887   -6.4031273    155.61886  0.037372444  0.038508532            2 
  348000    1.1339179   -6.4448949    155.47723  0.037231137   0.03848753            4 
  349000    1.1139218   -6.4289633    156.05565  0.037262571  0.038466705            3 
  350000    1.0894036   -6.4622874    156.61598  0.037289519  0.038446497            2 
  351000    1.1434296   -6.4000873    157.33594  0.037354213   0.03842683            2 
  352000    1.1117549   -6.3929862    158.01853   0.03740969  0.038407831            3 
  353000    1.1051795    -6.445606    158.25702  0.037360015  0.038388831            1 
  354000    1.1389122    -6.427591    158.17846  0.037235984  0.038369228            4 
  355000    1.1180342   -6.4226609    158.73917  0.037262715  0.038350035            4 
  356000    1.1235204   -6.4535007    159.02929  0.037225957  0.038330138            1 
  357000    1.1137744   -6.4468617    159.15673  0.037151431  0.038311081            2 
  358000    1.1139636   -6.3968717    159.72361  0.037179611  0.038291627            4 
  359000    1.0925334   -6.4332851    160.04171  0.037149886  0.038272537            2 
  360000    1.1007737   -6.4311128    160.65479  0.037188609   0.03825413            2 
  361000     1.134021   -6.4233479    160.71368  0.037099188  0.038235126            8 
  362000    1.0880442   -6.4364873     161.8085  0.037248733  0.038215886            2 
  363000    1.1034516   -6.4483599    162.12144  0.037217962  0.038197682            4 
  364000    1.1220925   -6.3714391    162.56435  0.037217114   0.03818009            4 
  365000    1.1081665   -6.4277109    162.23244   0.03703937  0.038161519            2 
  366000    1.0956336   -6.4156126    162.59476  0.037020664  0.038142639            2 
  367000    1.0887626   -6.4241973    163.06809  0.037027269  0.038122661            3 
  368000    1.1225881   -6.4367696    163.42743  0.037008024  0.038102964            2 
  369000    1.0959293    -6.436564    163.94303  0.037024171  0.038084084            3 
  370000    1.1191525   -6.4204284    164.94928  0.037150739  0.038065103            3 
  371000    1.1271651   -6.4663873    164.49655   0.03694891  0.038046585           12 
  372000    1.0816252   -6.4412362     165.0358  0.036970384  0.038027221            4 
  373000    1.0966154   -6.4441096    165.72825  0.037025973   0.03800815            2 
  374000    1.1031588   -6.4427204    165.90798  0.036967019  0.037989856            3 
  375000    1.0953625   -6.4448463    166.89437  0.037087637  0.037971756            2 
  376000     1.112752   -6.4258709    167.18047   0.03705241  0.037953909            2 
  377000    1.0965341   -6.4478893    167.53724  0.037032989  0.037936726            2 
  378000    1.1055368   -6.4491482    167.51549  0.036930222  0.037918971            2 
  379000    1.0920856   -6.4315662    168.06216  0.036952982  0.037901554            2 
  380000    1.0809456   -6.4337481    168.22824  0.036892157  0.037883355            3 
  381000    1.1130133   -6.4466241    168.86351  0.036934276  0.037864938            2 
  382000    1.1257774   -6.4386727     169.2998  0.036932767  0.037846735            2 
  383000    1.0978544   -6.4544602    169.51927  0.036884088  0.037828855            7 
  384000    1.0825681   -6.4360347    169.78217  0.036845089  0.037811423            4 
  385000     1.087821   -6.4661657    170.81323   0.03697256  0.037794357            4 
  386000    1.0985467   -6.4527414    170.76937  0.036867308  0.037776694            3 
  387000    1.0872983   -6.4309613    171.04294  0.036830952  0.037759253            2 
  388000    1.1370957    -6.403691    172.06924  0.036956453  0.037742205            7 
  389000    1.0974348   -6.4558572    171.99219  0.036844942  0.037724162            3 
  390000    1.1232877   -6.5002977    172.00799  0.036753843  0.037705338            1 
  391000    1.0984706   -6.4660865    171.76804  0.036608705  0.037686506            4 
  392000    1.1207558   -6.4390036    172.29507  0.036627354  0.037666694            4 
  393000    1.1051838   -6.4475804    172.55871  0.036590056  0.037647042            3 
  394000    1.0911176    -6.450949    172.99312  0.036589069  0.037627389            4 
  395000    1.0964844   -6.4628406    173.00539  0.036499028  0.037607568            2 
  396000    1.1041358   -6.4305673    173.91676  0.036598645  0.037587147            5 
  397000    1.1144287    -6.438459    174.08555  0.036541887  0.037566493            2 
  398000    1.0946878   -6.4523893    174.31304  0.036497706  0.037545035            4 
  399000    1.0930653   -6.4458639    174.23483  0.036389897  0.037522782            4 
  400000    1.1058063   -6.4213432    174.80998  0.036418747  0.037501233            2 
  401000     1.097013   -6.4797127    174.54249  0.036272337  0.037479827            3 
  402000    1.1039059   -6.4456162    174.77903  0.036231142  0.037457398            3 
  403000    1.0824168    -6.483775     175.6495  0.036321236  0.037435101            4 
  404000     1.051918   -6.4604071    175.88904  0.036280743  0.037412349            4 
  405000    1.0616723   -6.5064337    175.86631  0.036186483  0.037389138            3 
  406000     1.110604   -6.4877967    176.33413  0.036193376  0.037365873            3 
  407000    1.0757956   -6.4983178    176.77727  0.036195182  0.037343346            5 
  408000    1.1158496   -6.4745852    177.14177  0.036180916  0.037321944            3 
  409000    1.0996452   -6.4785257    178.01617  0.036270612  0.037300051            3 
  410000    1.0719569   -6.4339052    178.48432  0.036277301  0.037278412            5 
  411000    1.0714332   -6.4675184    178.43261  0.036178551  0.037257557            6 
  412000    1.0840161   -6.4731922    178.41731  0.036087644  0.037235892            5 
  413000    1.0859991   -6.4415962    179.35501  0.036189469    0.0372136            8 
  414000    1.1107387   -6.4950681    179.08143  0.036046988  0.037192277            6 
  415000    1.0729698   -6.4511156    179.97043   0.03613864  0.037170718            5 
  416000     1.080587   -6.4749942    179.99437  0.036056565  0.037148857            7 
  417000    1.0948499   -6.4549314    180.91403  0.036153883  0.037126835            3 
  418000    1.0902112    -6.459823    180.97675  0.036079895  0.037105283            5 
  419000    1.0829345   -6.4629065    181.09341  0.036016987  0.037083226            6 
  420000    1.0697048   -6.4513058    182.03899  0.036118847  0.037061766            3 
  421000    1.0838494   -6.4605706    181.87107  0.035999817  0.037039747            2 
  422000    1.0900581   -6.4833019    182.16641  0.035972829  0.037018657            3 
  423000     1.097845   -6.4518183    182.50614  0.035954717  0.036997342            2 
  424000     1.053483   -6.4622016    182.23431  0.035816491   0.03697553            3 
  425000    1.1029644   -6.4737831    183.58769  0.035997586  0.036953717            5 
  426000     1.076734   -6.4598131    183.47827  0.035891681  0.036931954            2 
  427000    1.1010299   -6.4735265    183.32376   0.03577747  0.036910396            2 
  428000    1.0872322   -6.5184144    183.26132  0.035681721  0.036887896            3 
  429000    1.0795421   -6.4605056    184.19511  0.035779936  0.036865457            3 
  430000    1.0726732   -6.4541487    184.63605  0.035782179   0.03684316            4 
  431000    1.0656688   -6.4563225    185.06834  0.035782742  0.036820958            4 
  432000    1.0782297   -6.5067408    184.89826  0.035667103  0.036798569            2 
  433000    1.0946239    -6.465568    185.92301   0.03578195  0.036775075            7 
  434000    1.0768354   -6.4274591    185.94496  0.035703717  0.036752628            2 
  435000    1.0825448   -6.5130327    186.06551  0.035644733  0.036729813            3 
  436000    1.0902856   -6.5202587    186.31367   0.03561041  0.036707419            6 
  437000    1.0750354   -6.4844239    186.45437  0.035555754  0.036685359            4 
  438000    1.0628066   -6.4595314     187.7269  0.035716686  0.036663406            2 
  439000    1.0752484   -6.4797729    187.74984  0.035639681  0.036642464            5 
  440000    1.1073226   -6.4816912    188.36872  0.035675895  0.036621685            3 
  441000    1.0676022   -6.4972651    188.81908  0.035680098   0.03660142            3 
  442000     1.095524   -6.4868247    189.34544  0.035698613  0.036580542            4 
  443000    1.0823067   -6.4968351    189.86576  0.035715907  0.036559925            3 
  444000     1.102217   -6.4934528    189.68127   0.03560084  0.036538697            3 
  445000    1.0725235   -6.4507161    190.29691  0.035636125  0.036518257            5 
  446000    1.1056057   -6.4962631    190.25057  0.035547565  0.036497649            2 
  447000    1.0720118   -6.5112341    190.31665  0.035480359  0.036476149            4 
  448000    1.0920168   -6.5042245    191.03221  0.035534266  0.036454199            2 
  449000    1.1056575   -6.5058147    191.85206  0.035607286  0.036433338            4 
  450000    1.1064178   -6.5222719    191.63689  0.035488312  0.036413054            2 
  451000    1.0715911   -6.5199577    192.66839  0.035600219  0.036392876           10 
  452000     1.105853   -6.4520313    193.22057  0.035623261  0.036373312            2 
  453000    1.0720075   -6.4911694    192.31664  0.035378337  0.036352314            4 
  454000    1.0861826    -6.490644    193.12624  0.035449017  0.036331064            2 
  455000    1.0688807   -6.4973671    193.11281  0.035368647  0.036310356            9 
  456000    1.0764765   -6.5008268    193.52202  0.035365866  0.036288947            4 
  457000    1.0942746   -6.4853576    193.67813  0.035316945  0.036267904            7 
  458000    1.0631838   -6.5069303    194.41131  0.035373238  0.036246965            3 
  459000    1.0509745   -6.4880048    194.73002  0.035354035  0.036226395            3 
  460000    1.0858247   -6.4700743    194.94754  0.035316583  0.036205715            5 
  461000    1.0589428   -6.4939297    195.61599  0.035360808  0.036185737            3 
  462000    1.0831557   -6.5303803     195.5096  0.035265078  0.036165912            3 
  463000    1.0665255    -6.453029    196.99025  0.035455409  0.036145975            2 
  464000    1.0633929   -6.5214138    196.35868  0.035265567  0.036126451            3 
  465000    1.0944258   -6.5057079    196.03483   0.03513169   0.03610577            3 
  466000    1.0727268   -6.5335839    197.01917  0.035232326   0.03608507            2 
  467000    1.0693576   -6.5429136    197.13936  0.035178329  0.036063226            6 
  468000    1.0980878   -6.5174335    197.99931  0.035256287  0.036041711            3 
  469000    1.0544018   -6.5244645    197.66759  0.035122173  0.036020279            2 
  470000    1.0925286   -6.5358502    197.99992  0.035106369   0.03599872            4 
  471000    1.0689285   -6.5022291    198.82266  0.035177399  0.035977488            4 
  472000    1.0550364   -6.4955947    198.84943  0.035107597  0.035956526            3 
  473000     1.063107   -6.5070634    199.64715  0.035173916  0.035936304            3 
  474000     1.055873   -6.5115916    199.91639  0.035147045   0.03591604            3 
  475000    1.0690799   -6.5018857    199.42904   0.03498755  0.035895815            4 
  476000    1.0676954   -6.5309116    200.13493  0.035037628  0.035875146            3 
  477000    1.0622332   -6.4821989    201.43451  0.035191214  0.035854366            1 
  478000    1.0580047   -6.5283274    200.95975  0.035034824  0.035834171            3 
  479000     1.051238    -6.517663    201.37853  0.035034539  0.035814206            4 
  480000    1.0455236   -6.4833188    202.91419  0.035228158  0.035794856            6 
  481000    1.0470212   -6.5502083    202.31915  0.035051827  0.035775625            5 
  482000    1.0820169   -6.4678909    202.95314  0.035088716  0.035756464            3 
  483000    1.0652605   -6.5055284    203.12179  0.035045168   0.03573755            6 
  484000    1.0514191   -6.5340236    203.14123  0.034976107  0.035717087            2 
  485000    1.0687589   -6.5169614    203.28839  0.034929277  0.035696751            1 
  486000    1.0389827   -6.5069238    203.29057   0.03485778  0.035676324            3 
  487000    1.0526656   -6.5161823    203.28085   0.03478454  0.035655192            5 
  488000    1.0748165   -6.5249306    203.46512  0.034744727  0.035633692            3 
  489000    1.0561516   -6.5438491    203.97298  0.034760221  0.035612667            2 
  490000    1.0667977    -6.487067    204.00217  0.034694247    0.0355912            4 
  491000    1.0499487    -6.539887    204.65505  0.034734393  0.035569643            2 
  492000    1.0504583   -6.5104946     204.9211  0.034708859  0.035547949            6 
  493000     1.065699   -6.4900637    205.24172  0.034692651  0.035526588            8 
  494000    1.0765213    -6.521768    205.77322  0.034712082  0.035505671           13 
  495000    1.0413623    -6.540809     206.0964  0.034696363  0.035484762            2 
  496000    1.0471739   -6.5070595    206.01951  0.034613493  0.035463921            7 
  497000    1.0511112   -6.5172936    206.30901   0.03459239   0.03544328            7 
  498000    1.0446093   -6.5412023      206.824  0.034609102  0.035422816            3 
  499000    1.0522826   -6.5526019    207.47334  0.034648186  0.035402043            2 
  500000    1.0276373   -6.5428808     207.2341  0.034539016  0.035381105            4 
  501000    1.0660742   -6.4950724     207.5719  0.034526264  0.035359728            3 
  502000    1.0419712   -6.5636139    207.32268  0.034416116  0.035338226            9 
  503000    1.0808631   -6.5253508    208.20142  0.034493278  0.035316629            3 
  504000    1.0641707   -6.5670205     208.0822  0.034405125  0.035294634            3 
  505000     1.049407   -6.5053704    208.54328  0.034413082  0.035272256            3 
  506000    1.0366125   -6.5563923    208.22188   0.03429214  0.035249506            3 
  507000    1.0576506    -6.524148    208.64319  0.034293753  0.035226918            3 
  508000    1.0390554   -6.5319754    209.41161  0.034352299  0.035204403            4 
  509000     1.061036   -6.5356832    209.54698  0.034306971  0.035182108            3 
  510000    1.0452852   -6.5394379     209.7293  0.034269494  0.035159783            5 
  511000    1.0622533    -6.526144    210.25135  0.034287565  0.035137487            3 
  512000    1.0529783   -6.5240091    210.56906  0.034272308  0.035115446            3 
  513000    1.0657643   -6.5260943     211.4823   0.03435385  0.035094036            4 
  514000    1.0383967   -6.5330508    211.61326  0.034308246  0.035072629            6 
  515000    1.0586822   -6.5538031     211.4016  0.034207379   0.03505096            8 
  516000    1.0417738   -6.5516584    211.72079  0.034192634  0.035028713            3 
  517000    1.0388822   -6.5784033    211.53624   0.03409675  0.035006526            5 
  518000    1.0307653   -6.5544125    212.46294  0.034180009  0.034984761            4 
  519000    1.0782255   -6.5185284    213.35299  0.034257063  0.034963027            2 
  520000    1.0205259   -6.5055984    212.90005  0.034118597  0.034941162            9 
  521000    1.0350456   -6.5464487    213.33169  0.034122151  0.034918947            4 
  522000    1.0578555   -6.5404178    212.84184  0.033978583  0.034896725            4 
  523000    1.0486468   -6.5432903    213.27077  0.033981958  0.034873819            4 
  524000    1.0370621   -6.5675189    213.82318  0.034004958  0.034851327            2 
  525000    1.0329435   -6.5316385    214.59377  0.034062503  0.034829019            3 
  526000    1.0364234   -6.5494276    214.40253  0.033967448  0.034807235            7 
  527000    1.0883248   -6.5315498    214.45843  0.033911832  0.034785259            2 
  528000    1.0551381   -6.5508651    215.21538  0.033967074  0.034763709            3 
  529000    1.0211795   -6.5478603    215.56963  0.033958668  0.034741453            3 
  530000    1.0347948   -6.5534397    215.74637  0.033922386  0.034719495            4 
  531000    1.0506301   -6.5371163    216.35644  0.033954244  0.034697287            5 
  532000    1.0131777   -6.5560459    216.55031  0.033920788  0.034674987            5 
  533000    1.0515939   -6.5672492    215.92472  0.033759337  0.034652131            6 
  534000    1.0230582   -6.5882302    215.77981  0.033673504  0.034629152            3 
  535000    1.0328823   -6.5404239    217.08707  0.033814185   0.03460639            4 
  536000     1.021793   -6.5577591    216.75368  0.033699266  0.034583273            4 
  537000    1.0461649   -6.5021454    217.28035  0.033718242  0.034560796            1 
  538000    1.0332706   -6.5630181     217.2188  0.033646035  0.034538188            3 
  539000     1.018036   -6.5479479    218.00397  0.033705004  0.034515934            8 
  540000    1.0439138    -6.552963    218.24572  0.033679896  0.034493668            3 
  541000    1.0245849   -6.5485855    218.30429  0.033626662  0.034470613            3 
  542000    1.0248901    -6.516127     218.6038   0.03361067  0.034448011            2 
  543000    1.0122245   -6.5807656    218.48161   0.03353002  0.034425056            5 
  544000    1.0429805   -6.6013961    218.20526   0.03342605  0.034401766            4 
  545000    1.0483358   -6.5742936    219.35319  0.033540244  0.034378813            6 
  546000    1.0467585   -6.6114716    219.33839  0.033476554  0.034355613            6 
  547000    1.0367141   -6.5758614    220.20551  0.033547458  0.034332605            4 
  548000    1.0481709   -6.5852817       220.03   0.03345955  0.034309758            2 
  549000    1.0344706   -6.5929374    220.00626     0.033395  0.034286819            7 
  550000    1.0305118   -6.5576858    220.48563  0.033406913  0.034264166            8 
  551000    1.0480846   -6.5781806    221.40249   0.03348495  0.034242154            6 
  552000    1.0443085   -6.5710566    221.71968  0.033472173  0.034220424            2 
  553000    1.0151511   -6.5673474    222.86679  0.033584508  0.034199027            3 
  554000    1.0437444   -6.5890585    222.44277  0.033460104  0.034177483            4 
  555000    1.0601173   -6.5430096    222.80567  0.033454305   0.03415614            1 
  556000    1.0411342   -6.5565623    223.37588  0.033479598  0.034134765            3 
  557000     1.037845   -6.5815145    222.80268  0.033333734  0.034113394            8 
  558000    1.0359639   -6.5472568    223.25942  0.033342207   0.03409153            2 
  559000    1.0578058   -6.6210843     223.6365  0.033338774  0.034069907            3 
  560000    1.0311591   -6.5894858     224.5759  0.033419032   0.03404866            4 
  561000    1.0175794   -6.5812554    224.87457  0.033403828  0.034027822            4 
  562000    1.0389356   -6.5685518    225.35628  0.033415819  0.034007251            4 
  563000    1.0369745   -6.5550942    225.43429  0.033368013  0.033987094            2 
  564000    1.0336153   -6.5702824    225.16658  0.033269294  0.033966382            4 
  565000    1.0289728   -6.5727034    226.13015   0.03335253  0.033945675            1 
  566000    1.0382605   -6.5871973    226.40698  0.033334361  0.033925374            6 
  567000   0.99865947   -6.5952013    226.57936  0.033300905  0.033905197            3 
  568000    1.0181792   -6.5508022    226.72387  0.033263478  0.033885086            4 
  569000    1.0264988   -6.5566256    227.82646  0.033366499  0.033865473            2 
  570000    1.0266646   -6.5899675    228.63078  0.033425553  0.033845929            4 
  571000    1.0364406   -6.5825342     228.8838   0.03340394  0.033826658            3 
  572000    1.0426994   -6.6076045    228.26723  0.033255716  0.033807493           11 
  573000    1.0058867   -6.5523934    229.32009  0.033350799   0.03378857            6 
  574000    1.0143338   -6.5737147     229.1597   0.03326941  0.033769712            4 
  575000    1.0477092    -6.596019     229.8589  0.033312885  0.033750654            2 
  576000    1.0291822     -6.59164    230.55479  0.033355727  0.033731707            3 
  577000    1.0292099   -6.6065167    230.09479  0.033231484  0.033712518            6 
  578000    1.0228451   -6.6025086    230.85231  0.033283204  0.033693722            2 
  579000    1.0164524   -6.6109435    230.68315  0.033201375  0.033674664            5 
  580000    1.0133201   -6.5676484    231.41233  0.033248898  0.033656319            4 
  581000    1.0265337   -6.6153199    230.96162  0.033127025  0.033637555            5 
  582000    1.0373406   -6.5514867    232.83109  0.033337785  0.033619459            2 
  583000    1.0305732   -6.6189467    232.03794   0.03316723  0.033601201            4 
  584000   0.99789555    -6.619291    232.10859  0.033120517  0.033582636            7 
  585000    1.0182046   -6.5993816    232.71853  0.033150788  0.033564372            4 
  586000    1.0200418   -6.5874116    233.05238  0.033141693  0.033546372            3 
  587000     1.027841   -6.5908122    233.70181  0.033177429   0.03352876            3 
  588000    1.0065254   -6.5638409    234.59436    0.0332475  0.033511138            3 
  589000    1.0150184   -6.5808844      234.636  0.033196944  0.033493671            3 
  590000    1.0239307     -6.61015    233.93748  0.033042017  0.033476004           14 
  591000    1.0294699   -6.5907361    234.97009  0.033131711  0.033458468            3 
  592000      1.00198   -6.5657938    235.20511  0.033108827   0.03344061            7 
  593000    1.0137532   -6.5915947    235.16462  0.033047304  0.033422962            8 
  594000     1.013933   -6.6228735    235.28879  0.033009089  0.033405222            5 
  595000    1.0367724   -6.5953838    235.67021  0.033007033   0.03338729            3 
  596000    1.0185078   -6.5832497    235.53321  0.032932496  0.033369492            6 
  597000    1.0011182   -6.6227219    236.32955  0.032988491  0.033351258            7 
  598000     1.010655   -6.6031773    236.78589  0.032996918   0.03333298            4 
  599000    1.0171499   -6.6140032    236.89776  0.032957396  0.033314699            3 
  600000    1.0140029   -6.6182678    237.40413  0.032972796  0.033296719            6 
  601000    1.0010091   -6.6414733    236.96688  0.032857305  0.033278447            5 
  602000     1.022431   -6.6202697    237.42282  0.032865838  0.033260109            4 
  603000    1.0140696   -6.5918307    238.78121  0.032999062  0.033241953            2 
  604000   0.98754294   -6.6156979    238.58851  0.032917841  0.033224108            3 
  605000    1.0207482   -6.6080999    239.30381  0.032961957  0.033206476            2 
  606000    1.0253128   -6.6413088    239.34205  0.032912824  0.033188821            6 
  607000    1.0189481     -6.61861    239.33392  0.032857485  0.033171233            6 
  608000    1.0277843   -6.6063279    239.24311  0.032790996  0.033153976            2 
  609000    1.0115094    -6.619781    239.83285  0.032817851  0.033136045            4 
  610000    1.0211221   -6.6073268    240.00605  0.032787712  0.033118429            5 
  611000    1.0092442   -6.6339721    240.50813  0.032802527  0.033101305            4 
  612000    1.0195208   -6.6110909    240.79161  0.032787528  0.033084158            5 
  613000    1.0092441    -6.642624    240.66742  0.032717159  0.033066978            2 
  614000   0.99886208   -6.6323389    241.44367  0.032769228  0.033049866            3 
  615000    1.0181335   -6.6571361     241.7754  0.032760894  0.033033113            5 
  616000    1.0279073   -6.5792738    242.73915  0.032838088  0.033016566            3 
  617000     1.020215   -6.6027237    242.84806  0.032799577  0.033000125            3 
  618000   0.99418614   -6.6945844    241.90775  0.032619707  0.032982862            5 
  619000   0.99373288    -6.658064    242.37721  0.032630212  0.032965227            4 
  620000    1.0027149   -6.6395242    242.55776   0.03260185  0.032947398            7 
  621000    1.0054007   -6.6157178    243.38496  0.032660354  0.032929259           11 
  622000   0.98163442   -6.6648775    242.97259  0.032552598  0.032911278           10 
  623000    1.0295575   -6.6463471    243.56496  0.032579582  0.032893123            5 
  624000    1.0091132   -6.6280425    243.98842  0.032583923  0.032875252            1 
  625000    1.0206604   -6.6295774    244.03446  0.032537927  0.032857813            5 
  626000    1.0061159   -6.6165061    244.74551  0.032580606  0.032840415            7 
  627000    1.0372842   -6.6308188    244.70153  0.032522798  0.032822819            8 
  628000   0.99502542   -6.6280381    245.47272  0.032573344  0.032805311            2 
  629000     1.013352   -6.6277517    244.55018  0.032399335  0.032787569            7 
  630000    1.0020467   -6.6101641    246.42818   0.03259632  0.032769846            7 
  631000    1.0044236   -6.6270463    246.32307   0.03253078  0.032752407            3 
  632000    1.0205103   -6.6076225    245.68477  0.032395144  0.032734671            5 
  633000   0.99310197   -6.6493007    246.42176   0.03244099  0.032717172            5 
  634000    1.0385241   -6.6102125    246.09046  0.032346274  0.032699105            4 
  635000   0.98813274   -6.6291538    246.07521  0.032293335  0.032680998            4 
  636000    1.0093767   -6.6245145    246.46106  0.032293115  0.032663202            5 
  637000    0.9896653    -6.629252      247.015  0.032314887  0.032644933            4 
  638000   0.99827256   -6.6367702    248.14486  0.032411815  0.032626256            3 
  639000   0.97783511     -6.65669     247.5907  0.032288824  0.032607821            5 
  640000   0.98847579   -6.6396865    248.00053  0.032291735  0.032589598            3 
  641000    1.0151047   -6.6591196    247.72091  0.032205006  0.032571353            6 
  642000    1.0014491    -6.672446    247.98358  0.032188939   0.03255268            5 
  643000   0.99932549   -6.6104649    249.02996   0.03227449  0.032534229            3 
  644000   0.99672108   -6.6645354    247.86086  0.032073093  0.032515328            4 
  645000   0.99351168   -6.6217943    249.10825  0.032184528  0.032496824            9 
  646000    1.0154628   -6.6355487    249.30324   0.03215986   0.03247866            4 
  647000   0.98254798   -6.6523829    249.30185  0.032109975  0.032460559            8 
  648000   0.98702368   -6.6413697    249.27377  0.032056812  0.032441874            6 
  649000   0.99425913   -6.6422582    249.10839  0.031986183  0.032423218            3 
  650000    0.9958086   -6.6423432    249.81624  0.032027724  0.032404505            7 
  651000    0.9980273   -6.6707899    249.36814  0.031921165  0.032385815            4 
  652000   0.98591087   -6.6009865    251.19287  0.032105428  0.032367002            7 
  653000    1.0021464   -6.6174232    250.39436   0.03195436  0.032348452            4 
  654000    1.0045429    -6.653321    250.59743  0.031931374  0.032329733            6 
  655000    1.0016908   -6.6380713    250.45251  0.031864186  0.032310421            3 
  656000   0.99698923   -6.6591493     250.6424  0.031839736    0.0322912            6 
  657000    1.0034299   -6.6532795    250.68298  0.031796421  0.032271942            3 
  658000   0.99327755   -6.6394972    251.70943  0.031878094  0.032252468            4 
  659000    1.0034301   -6.6414899    251.68279  0.031826351  0.032233368            4 
  660000    1.0086169   -6.6604209    251.69008   0.03177905  0.032214049            4 
  661000    1.0286535   -6.6397836    252.06034  0.031777653  0.032194977            5 
  662000   0.99812893    -6.631599    251.89075  0.031708302  0.032175655            2 
  663000   0.99086072   -6.6677515    252.65893   0.03175703  0.032156029            4 
  664000   0.98708962   -6.6540843    252.12209  0.031641828  0.032136642            5 
  665000   0.98125238   -6.6335233    252.50129  0.031641766   0.03211704            3 
  666000   0.99224127   -6.6635346    252.42699  0.031584959  0.032097443            3 
  667000    1.0019771   -6.6727196    253.90328  0.031722049  0.032078007            6 
  668000   0.98989728   -6.6852195    252.93303  0.031553522  0.032058233            5 
  669000   0.97057628   -6.6345055    253.64275  0.031594762  0.032038595            5 
  670000   0.99359368   -6.6340873    254.14614  0.031610217  0.032019158            5 
  671000   0.99195171    -6.682952    253.88288  0.031530412  0.032000001            6 
  672000    0.9616354   -6.6843054    253.91015  0.031486874  0.031980653            3 
  673000    0.9973818    -6.675261    254.86368  0.031558157  0.031961578            9 
  674000    0.9925837   -6.6745085    255.14607   0.03154625  0.031942398            8 
  675000   0.97847065   -6.6819741    255.18701  0.031504569  0.031922982            3 
  676000   0.99383348    -6.656626    255.42081  0.031486787  0.031903759            4 
  677000    1.0062944   -6.6627495    255.58653  0.031460675  0.031884962            4 
  678000    1.0069055    -6.704378    255.70138   0.03142839  0.031866027            2 
  679000    0.9696012   -6.6437507    256.73395  0.031508831  0.031847305            3 
  680000   0.99731709   -6.6802395    256.57309   0.03144278  0.031828245            8 
  681000   0.98643828   -6.6812404    256.72072  0.031414674   0.03180889            3 
  682000   0.99923402   -6.6907701    256.60992  0.031355074  0.031789801            5 
  683000   0.98981158   -6.6874947    256.94365  0.031349883  0.031770796            6 
  684000   0.99337427   -6.6549811    257.82219  0.031411085  0.031751917            3 
  685000   0.98078891    -6.678667    258.18895  0.031409848  0.031732851            4 
  686000   0.97495038   -6.6606702    258.38884  0.031388343  0.031714098            4 
  687000   0.98721634   -6.6437328    258.49488  0.031355516  0.031695593            3 
  688000   0.99397618   -6.6897101    258.62893  0.031326178   0.03167698            6 
  689000    0.9820774   -6.6901652    258.17411  0.031225703  0.031658436            5 
  690000   0.99768015   -6.6954589    259.79406  0.031376094  0.031639673            5 
  691000   0.97264094   -6.6906631    259.00152  0.031235108  0.031620915            3 
  692000   0.97901023   -6.7208305    259.63581  0.031266355  0.031602317            4 
  693000   0.97963652   -6.7091964    259.98511  0.031263241   0.03158389            4 
  694000   0.96714011   -6.6707012     260.4664  0.031275985  0.031565708            6 
  695000   0.94690434   -6.6762413    260.69396  0.031258269  0.031547601            4 
  696000   0.97063523   -6.6541341    260.68645  0.031212459   0.03152927            6 
  697000   0.98106293   -6.7008807    260.41107  0.031134753  0.031511015            7 
  698000   0.95410028    -6.676906    261.83436  0.031260072  0.031492569            7 
  699000   0.97910477   -6.7119652    261.41602  0.031165477   0.03147426            3 
  700000   0.97130917   -6.6907341    261.69519   0.03115419  0.031456114           13 
  701000   0.98816648   -6.6969848    261.81628  0.031124141  0.031437315            4 
  702000   0.97663851    -6.646662    262.17849  0.031122803  0.031419031            7 
  703000   0.94950004   -6.7003669    262.43845  0.031109347  0.031400642            4 
  704000   0.97819299   -6.6909229    262.13952  0.031029773  0.031382033            6 
  705000   0.95155168   -6.6936758    263.02608  0.031090553  0.031363689            4 
  706000   0.96443042   -6.6907207    264.07698   0.03117056  0.031345729            6 
  707000   0.96296283   -6.6901095    263.99678  0.031117018  0.031327364            4 
  708000   0.96597803   -6.7039968    263.30581  0.030991738  0.031308962            5 
  709000   0.97549665   -6.7019275    262.70143   0.03087699  0.031290394            4 
  710000    0.9852006   -6.7024536    263.62851  0.030942314  0.031271521            3 
  711000   0.97118874     -6.71864    263.89603  0.030930149   0.03125303            9 
  712000   0.95376272   -6.6560564    265.02625   0.03101899  0.031234296            3 
  713000   0.97151272   -6.6950444    263.72078  0.030822906  0.031215497            3 
  714000   0.96617208   -6.6887318    264.57864   0.03087986  0.031196745            4 
  715000   0.96553171   -6.6310623    264.71861  0.030852985  0.031178236            5 
  716000   0.97861828   -6.6976691    264.98889  0.030841351  0.031159578            3 
  717000   0.98015108   -6.7125533    265.20414  0.030823354  0.031140837            5 
  718000    0.9787579   -6.6988302    265.50267  0.030815074  0.031122207            3 
  719000   0.95421138   -6.6855405    265.79443  0.030806031  0.031103573            6 
  720000   0.95428493    -6.698258     265.7969  0.030763531  0.031084721            6 
  721000   0.94761123   -6.6933361    266.57596  0.030810906  0.031065984            7 
  722000   0.96952662   -6.6921245    265.65098   0.03066147   0.03104726            4 
  723000   0.96893951   -6.7256033    266.23721  0.030686631  0.031028362            4 
  724000   0.96724549   -6.7307237    266.88194  0.030718456  0.031009388            5 
  725000   0.96703233   -6.7481191    266.29288  0.030608378  0.030990415            7 
  726000   0.95089136   -6.6923664    267.22562   0.03067328  0.030971397            3 
  727000   0.95265582   -6.7314472    266.95654  0.030600245  0.030952455            2 
  728000   0.97170558   -6.6798617    267.38043  0.030606734  0.030933654            6 
  729000   0.96889158    -6.716866    267.26644  0.030551719  0.030914959            3 
  730000   0.95900874   -6.6899178    267.16257   0.03049801  0.030895842           15 
  731000   0.97804682   -6.7149029    267.93998  0.030544913  0.030876851            8 
  732000   0.96930735   -6.7319323    267.89652  0.030498238  0.030857832            5 
  733000   0.96470726   -6.7176317    268.23694  0.030495332  0.030839274           10 
  734000   0.95199522   -6.7116809    268.14929  0.030443834  0.030820415            7 
  735000   0.95325064   -6.7229286    268.82148  0.030478626  0.030801718            4 
  736000   0.96289414   -6.7416894    268.66876  0.030419923  0.030782768            4 
  737000   0.94268557   -6.6935809     269.5005  0.030472694  0.030763909            5 
  738000   0.94439989   -6.7179901    270.11719  0.030501038  0.030745026            3 
  739000   0.95868229    -6.705914     269.1436  0.030349977  0.030726051            7 
  740000   0.94878045   -6.7445222    269.27991  0.030324314  0.030706836           10 
  741000   0.98568855   -6.7390709    269.84497  0.030346937  0.030687632            4 
  742000   0.96362413   -6.7169492    270.28149  0.030355064  0.030668514            9 
  743000   0.96088901   -6.7106184    270.70177  0.030361347   0.03064967            5 
  744000   0.95943367   -6.7230561    270.51016  0.030299077   0.03063065            7 
  745000   0.95519683   -6.7170034    270.71061  0.030280828  0.030611817            4 
  746000   0.93589232   -6.7280359    271.39196   0.03031635   0.03059299            7 
  747000   0.94595176   -6.7460569    272.01737  0.030345534  0.030574204            2 
  748000   0.97969151   -6.7619559    270.63183  0.030150605  0.030555278           12 
  749000   0.97074207    -6.718298    272.14906  0.030279156  0.030536517            5 
  750000   0.95334488   -6.7548341    271.69289  0.030188099  0.030517789           13 
  751000   0.94371634   -6.7054479    271.87145  0.030167715  0.030499048            6 
  752000   0.94192749   -6.7392202    271.45719  0.030081692  0.030480431            7 
  753000   0.94874287   -6.7450367    272.85471  0.030196405  0.030461651            7 
  754000   0.96268033   -6.7043225    273.07423  0.030180618  0.030443053            8 
  755000   0.96409296   -6.7438073    273.71104  0.030210932  0.030424647            5 
  756000   0.96796487   -6.7193826    274.21667  0.030226705  0.030406483            7 
  757000   0.96792355   -6.6971447    273.94546   0.03015692  0.030388398            3 
  758000   0.98241286   -6.7377169    273.79509  0.030100603  0.030370163            5 
  759000    0.9427096   -6.7623005    274.67332  0.030157369  0.030351529            3 
  760000   0.95641534   -6.7221252    274.81495  0.030133218  0.030333395           10 
  761000   0.94400371   -6.7701136    274.40216  0.030048418  0.030315147            6 
  762000   0.93459171   -6.7368523    274.60285  0.030030933  0.030296736            4 
  763000   0.95025081    -6.738835    276.11826  0.030157084  0.030278732            5 
  764000   0.93487945   -6.7479133    275.35664  0.030034537  0.030260617            5 
  765000   0.96415643    -6.772656    275.30109  0.029989226  0.030242481            8 
  766000   0.93256995    -6.748242    276.46065  0.030076224  0.030224297            4 
  767000   0.95417657   -6.7412124    276.73595  0.030066921   0.03020635            3 
  768000   0.94317506   -6.7435849    275.99266   0.02994712  0.030188493            2 
  769000   0.94396805   -6.7550801    276.96186  0.030013205  0.030170439            8 
  770000   0.94562904   -6.7196243    276.26431  0.029898735  0.030152173            7 
  771000   0.95256196   -6.7826592    275.60668  0.029788876  0.030133617            8 
  772000   0.94752043   -6.7330166    277.89233  0.029997013  0.030115173            6 
  773000   0.93254144   -6.7566182    277.23343  0.029887174  0.030096724            7 
  774000   0.94267546   -6.7418407    276.69682  0.029790786  0.030078292            3 
  775000   0.96532476   -6.7205106    277.38447  0.029826287  0.030059881            3 
  776000   0.94566831   -6.7246014    277.20659  0.029768749  0.030041398            6 
  777000   0.93784585   -6.7601887    276.85638  0.029692876  0.030022868           13 
  778000   0.95865134    -6.770017    277.58311  0.029732552  0.030004113            5 
  779000   0.92640866   -6.7515615    278.41105  0.029782953  0.029985538            5 
  780000   0.93224502   -6.7465383    277.78214  0.029677579  0.029967036           11 
  781000   0.94324094    -6.720327    278.26468  0.029691067  0.029948424            5 
  782000   0.94290742   -6.7524986    277.79948  0.029603525  0.029929817            4 
  783000   0.94727165   -6.7466045    278.38358  0.029627882  0.029911406            4 
  784000   0.93571199    -6.737792    278.57123  0.029610037  0.029892683            3 
  785000   0.93448617   -6.7660894    279.33996  0.029653923  0.029874064           10 
  786000   0.95162121   -6.7557562    278.57693  0.029535297   0.02985505            7 
  787000   0.93477205   -6.7363293    279.36056  0.029580745    0.0298362            6 
  788000   0.94635081   -6.7344769    280.86557  0.029702366  0.029817581            4 
  789000   0.91877749   -6.7641202     280.0081  0.029574155   0.02979919            6 
  790000   0.93663378    -6.787043    279.67703  0.029501797  0.029780609            8 
  791000    0.9424671   -6.7302102    281.29193  0.029634632  0.029762065            7 
  792000   0.92843507   -6.7806646    280.61735  0.029526236  0.029743864            4 
  793000   0.93902995   -6.7322803    280.88361  0.029516983  0.029725502            5 
  794000   0.93076122    -6.794687    281.68885  0.029564321  0.029707139            4 
  795000   0.93501908   -6.7737278    281.36906  0.029493612  0.029688784            3 
  796000   0.93089905   -6.7763864    281.60267  0.029481016  0.029670639            3 
  797000   0.93671676   -6.7521197    281.98815  0.029484331  0.029652566            4 
  798000   0.93531906   -6.7720387    282.25287  0.029475028  0.029634469            4 
  799000   0.92945778   -6.7881489    281.90085  0.029401424  0.029616494            9 
  800000   0.92780871   -6.7915507    282.38713  0.029415326  0.029598479            5 
  801000   0.93615286   -6.7774798    281.36291  0.029272046  0.029580304            4 
  802000   0.91697268   -6.7612059    282.66196  0.029370528  0.029562139            6 
  803000   0.93422337   -6.7556122    282.63886  0.029331554  0.029544096           10 
  804000   0.92513777   -6.7685325    283.13178  0.029346163  0.029525909            4 
  805000   0.91841214   -6.7417103     282.8134   0.02927675  0.029507785            5 
  806000   0.93523669   -6.8007776    282.32946  0.029190391  0.029489192            5 
  807000   0.93648475   -6.7864905    283.01677  0.029225193  0.029470465           12 
  808000   0.92568746   -6.7313461     282.5485  0.029140728  0.029452024            4 
  809000   0.94353272   -6.7531898    283.52898  0.029205705  0.029433546           15 
  810000   0.91795915   -6.7675674    283.89843  0.029207657  0.029415194           10 
  811000   0.92051947   -6.7220307    284.11726  0.029194129  0.029396968            3 
  812000     0.938926   -6.8086948    284.11931  0.029158386  0.029378571            5 
  813000   0.91218603   -6.7773595    284.38579  0.029149835  0.029360121            3 
  814000   0.93778049   -6.7581764    284.78416  0.029154808  0.029341673            4 
  815000   0.93305496   -6.7457377    284.58636   0.02909881  0.029323536            4 
  816000   0.93915636   -6.7585425    285.30383  0.029136421  0.029305265            6 
  817000   0.92129918   -6.7785552    285.95972  0.029167658  0.029287158            4 
  818000   0.93518627   -6.8034508    285.69422  0.029104954  0.029269157            4 
  819000   0.92711574   -6.7895947    286.89667  0.029191766  0.029251219            3 
  820000   0.92857033   -6.7700705    285.21254  0.028985014  0.029233507            5 
  821000   0.93358457    -6.789738    287.39962  0.029171703  0.029215833            2 
  822000   0.93977253   -6.7557709    286.42588  0.029037498  0.029198039            6 
  823000   0.91481649   -6.7927103    286.42284  0.029001908  0.029180013            5 
  824000   0.94267143   -6.8160996    286.56606  0.028981195  0.029161794           13 
  825000   0.92348103   -6.7768634    287.15397  0.029005451  0.029143561            9 
  826000   0.90427823   -6.7833911      287.742  0.029029661  0.029125673           16 
  827000   0.91083126   -6.7886653    287.48181  0.028968341  0.029107869            7 
  828000   0.92214149   -6.7783079    287.72649   0.02895798  0.029090145            9 
  829000   0.92459828   -6.7768318    287.79261  0.028929695  0.029072309            3 
  830000   0.93867402   -6.8174928    287.23476  0.028838831  0.029054486           12 
  831000   0.92149189   -6.8119064    288.03705  0.028884582  0.029036377            5 
  832000   0.91641736   -6.7958303    287.51924  0.028798001  0.029018414            7 
  833000   0.92936642   -6.8070894       288.27  0.028838536  0.029000385            5 
  834000   0.92234816   -6.7924697    289.14829  0.028891715  0.028982436            3 
  835000    0.9170767   -6.7859332    289.73312  0.028915481  0.028964514            5 
  836000   0.92633805   -6.7410825    289.29786  0.028837506  0.028946805            5 
  837000   0.91534414    -6.827873    288.07189  0.028680993  0.028928889            4 
  838000   0.93385854   -6.8017768    289.24727   0.02876365  0.028910923            3 
  839000   0.91731414   -6.7817473    289.96135  0.028800293  0.028892991            3 
  840000   0.89769087   -6.7772591    289.20006  0.028690482  0.028875107            7 
  841000   0.92031111   -6.8045747    289.86913  0.028722665  0.028857272            6 
  842000   0.93862284   -6.7904172    289.31296  0.028633508  0.028839519            5 
  843000   0.91692325   -6.7896001    290.50294  0.028717175  0.028821828            6 
  844000    0.9162865   -6.7983017    290.74727  0.028707274  0.028804211            3 
  845000   0.91482362    -6.806777    290.89944  0.028688308  0.028786641            5 
  846000   0.91578539   -6.8022901    290.88356  0.028652833  0.028769175            3 
  847000   0.92214104   -6.8094818    291.65008  0.028694419   0.02875163            6 
  848000   0.90062859   -6.8053347    291.31295  0.028627452  0.028734072            4 
  849000   0.91337394    -6.828627    291.01681  0.028564665  0.028716404            8 
  850000   0.90900367   -6.8030851    291.76835   0.02860474  0.028698685            4 
  851000   0.91129403   -6.8189529    291.71395    0.0285658  0.028681003            4 
  852000   0.91236627   -6.7963981    292.25715  0.028585402  0.028663517            5 
  853000   0.92076602    -6.803067    292.70772  0.028595909  0.028645987            3 
  854000   0.92250619   -6.7915621    292.70413  0.028562073  0.028628514            5 
  855000   0.91652219   -6.7805988    293.42648  0.028599072  0.028611318            4 
  856000   0.90181547   -6.8015941     293.4307  0.028566073  0.028594054            8 
  857000   0.91533554   -6.8095076    293.20356  0.028510653  0.028576752            6 
  858000   0.91657854   -6.8172495    293.92259   0.02854726   0.02855956           13 
  859000   0.91980613   -6.8442213    293.71701  0.028494083  0.028542255            6 
  860000   0.91452383   -6.7806826    293.60067  0.028449677   0.02852518            7 
  861000   0.89407677   -6.8103177    294.41233  0.028495192  0.028508016            4 
  862000   0.92347049   -6.7962295    294.47137  0.028467844  0.028490878            4 
  863000   0.90224401   -6.8091751    293.40758  0.028332134   0.02847369            7 
  864000   0.89297225   -6.8150611    294.15036  0.028370984  0.028456513            7 
  865000   0.90567008   -6.8342363    294.39658  0.028361905  0.028439304            7 
  866000   0.90686325   -6.8150522    294.70426  0.028358762  0.028422077            6 
  867000   0.91406269   -6.8003775    295.54365  0.028406733  0.028404825            5 
  868000   0.91683999   -6.8349435     295.6082  0.028380204  0.028387421            3 
  869000   0.89043614   -6.8100573    294.92604  0.028282129  0.028370109            4 
  870000   0.94419646    -6.872281    296.12276  0.028364249  0.028353037           10 
  871000   0.90563279    -6.819963     295.3616  0.028258859  0.028335805            4 
  872000   0.91964165   -6.8144697    296.62222  0.028346924  0.028318633            5 
  873000   0.87898098   -6.8157585    296.95147  0.028345883  0.028301455            8 
  874000   0.91722043   -6.8236541    296.73833  0.028293128  0.028284472           10 
  875000   0.90572769   -6.8251276    296.39964  0.028228537   0.02826748            6 
  876000    0.8776089   -6.8184754    296.00016   0.02815831  0.028250247            6 
  877000   0.88937341   -6.8035929     297.0958  0.028230311  0.028233322            5 
  878000   0.89507443   -6.8167293    296.74414  0.028164782  0.028216128            2 
  879000    0.9004613   -6.8317333    297.50872  0.028205225   0.02819892            6 
  880000   0.92501622   -6.8570193    297.34367  0.028157545  0.028181601            4 
  881000   0.89617635   -6.8185381    297.15838  0.028108057  0.028164326            6 
  882000   0.88996213   -6.8248813    297.05298   0.02806623  0.028147143            3 
  883000   0.88630558    -6.809915    298.01117  0.028124874  0.028130004            7 
  884000   0.89533663    -6.814386    298.10509  0.028101913  0.028113003            6 
  885000   0.93659943   -6.8303039     298.6647  0.028122853  0.028095943            7 
  886000    0.9053958   -6.8080344    297.88164   0.02801746  0.028078828            3 
  887000   0.89385578   -6.8107158    297.94928  0.027992229  0.028061667            5 
  888000   0.90844346   -6.8283998    299.52267  0.028108359  0.028044547            9 
  889000   0.89679429   -6.8081394    298.43316  0.027974612  0.028027417            9 
  890000   0.89806943   -6.8325842    298.81524  0.027978955  0.028010585            6 
  891000   0.89189824    -6.850663    299.00187  0.027965008   0.02799387           10 
  892000   0.89130372   -6.8268308    299.18219  0.027950503   0.02797706            4 
  893000   0.92566719   -6.8076575      299.711  0.027968552   0.02796013            4 
  894000   0.86482494   -6.8591172    299.95118  0.027959655  0.027943259            7 
  895000   0.90005762   -6.8439774    300.23367  0.027954718  0.027926377            7 
  896000   0.87729272    -6.836118    300.28929  0.027928692  0.027909494            6 
  897000   0.88546942   -6.8417873    300.89255    0.0279536  0.027892552            5 
  898000   0.89467267   -6.8436068    299.64697  0.027806882  0.027875397            7 
  899000   0.89526935   -6.8304944     300.8017  0.027882991  0.027858241            3 
  900000   0.90955332   -6.8386602    300.42749   0.02781736   0.02784108            6 
  901000   0.88129884   -6.8623951    299.75675   0.02772445  0.027823693           27 
  902000   0.88072275   -6.8384691    300.04067  0.027719944   0.02780628            8 
  903000   0.89264753   -6.8364862    301.25652  0.027801451  0.027788891            6 
  904000   0.89550824   -6.8433009    300.38336  0.027690206  0.027771548            8 
  905000   0.89233422   -6.8229191    301.79264  0.027789377  0.027754328            5 
  906000   0.89983511    -6.829409    301.54797    0.0277362  0.027737115            5 
  907000   0.90549532   -6.8743994    300.71187  0.027628801  0.027719845            5 
  908000   0.90639205   -6.8490686    301.40864  0.027662321  0.027702461            9 
  909000   0.89176768   -6.8292505    301.71062  0.027659572  0.027685124            3 
  910000   0.88949705   -6.8774545    301.94552  0.027650689  0.027667792            4 
  911000   0.88221839   -6.8341997    301.22606  0.027554524   0.02765038            7 
  912000    0.8768753   -6.8695811    301.30017  0.027531083  0.027632899            7 
  913000   0.89299266   -6.8579723    301.98924  0.027563823  0.027615449            7 
  914000   0.90048457   -6.8438946    301.97955  0.027532782  0.027598162            7 
  915000   0.87377524   -6.8457781    302.03806   0.02750802  0.027580734            7 
  916000   0.89048764   -6.8583987     301.8946  0.027464938  0.027563127            7 
  917000   0.86985023   -6.8547065    302.53802  0.027493459  0.027545666            4 
  918000   0.89994546   -6.8544996    302.37661  0.027448857  0.027528057            8 
  919000   0.87685101   -6.8720848    302.76018  0.027453771  0.027510358            7 
  920000   0.89087022   -6.8375328    303.59581   0.02749962  0.027492763           15 
  921000    0.8948598   -6.8913525    302.30955  0.027353379  0.027475184            5 
  922000   0.88414523    -6.864053    302.13107   0.02730758  0.027457361            5 
  923000   0.89530237   -6.8527769    303.69869  0.027419528  0.027439488            8 
  924000   0.87267649   -6.8846253    304.03869  0.027420517  0.027421989            9 
  925000   0.88959251   -6.8483184      303.257   0.02732045  0.027404356            5 
  926000   0.87573937   -6.8718106    303.87647  0.027346694  0.027386674            6 
  927000   0.88735767   -6.8120915    303.84165  0.027314065  0.027369156            3 
  928000   0.89465994   -6.8480023    303.19298  0.027226381  0.027351509            5 
  929000   0.89405739   -6.8709882    303.93121  0.027263295  0.027333719            4 
  930000   0.87983229   -6.8883204    303.34417  0.027181377  0.027315934            4 
  931000   0.87662494   -6.8568542    302.84937  0.027107892  0.027298111            7 
  932000   0.87444383   -6.8816791    303.71814  0.027156486  0.027280286            7 
  933000   0.89657634   -6.8670419    303.61277  0.027117968  0.027262591            7 
  934000   0.86730894   -6.8429985    304.50789  0.027168799  0.027244778           11 
  935000   0.87084286   -6.8873806    304.74797  0.027161138  0.027226966            7 
  936000   0.88894635   -6.8643574    304.36032  0.027097606  0.027209016            9 
  937000    0.8699728   -6.8405989    304.06822  0.027042709  0.027191109            6 
  938000   0.88408044   -6.8662106    303.17799  0.026934789  0.027173157            6 
  939000   0.86681535    -6.885057    303.99593  0.026978695  0.027155106            9 
  940000   0.89533398   -6.8837205    304.63068  0.027006266  0.027137017            3 
  941000   0.86793088   -6.9067084     304.5753  0.026972662  0.027119025            6 
  942000   0.86912723   -6.8799269     304.6956  0.026954671  0.027100987            6 
  943000   0.89082712   -6.9073202    305.13614  0.026965018  0.027082988            9 
  944000   0.86889727   -6.8398616    305.68155    0.0269846  0.027065022            7 
  945000   0.88006648   -6.8860804    305.39883  0.026931114  0.027047031            6 
  946000    0.8704102   -6.8911573    305.07868  0.026874443   0.02702903            7 
  947000   0.88807845   -6.8856547    304.69006  0.026811868   0.02701095            7 
  948000   0.87677572   -6.8862655    304.91111  0.026803016  0.026992803           32 
  949000   0.85927059   -6.8730114      304.559  0.026743853  0.026974632            3 
  950000   0.86644667   -6.8712256    305.86523  0.026830283  0.026956503            4 
  951000   0.86543602   -6.8673294    305.56874   0.02677609  0.026938519            5 
  952000   0.86880223   -6.9044643    306.93354  0.026867432  0.026920578            4 
  953000     0.880551   -6.8681009     306.1092  0.026767156  0.026902637            5 
  954000   0.88200577   -6.8633933    307.41933   0.02685354  0.026884806           12 
  955000   0.87437486    -6.863477    307.12136  0.026799421   0.02686692           13 
  956000   0.87597326   -6.8949903    305.66562  0.026644493   0.02684885            6 
  957000    0.8582293    -6.872606    307.41613  0.026769081   0.02683075            6 
  958000   0.88180619   -6.8831859    307.53344  0.026751343   0.02681262            5 
  959000   0.87960107   -6.8997856    306.06435   0.02659579   0.02679446            7 
  960000   0.87277814   -6.8932109    306.70481  0.026623682  0.026776204            5 
  961000   0.88146023   -6.8844761    305.99379  0.026534321  0.026757911            9 
  962000   0.86714244   -6.9316714    306.56938  0.026556599   0.02673951            6 
  963000   0.87897134   -6.9566718    306.41396  0.026515573  0.026721015            6 
  964000    0.8714299   -6.8938351    306.81898   0.02652308  0.026702564            5 
  965000   0.86562375   -6.9361595    306.80922  0.026494752  0.026684233            4 
  966000   0.89747194   -6.9187501     306.8097  0.026467366  0.026665904            3 
  967000   0.85621478   -6.9312966    307.30561  0.026482731  0.026647621            5 
  968000   0.87245267   -6.9186908    307.06785  0.026434905  0.026629475            8 
  969000   0.87218302   -6.8732382    308.09914  0.026496314  0.026611302            8 
  970000   0.85543151   -6.9066906    307.84295  0.026446989  0.026593359            7 
  971000   0.85973275   -6.8587717    308.43067  0.026470192   0.02657553            6 
  972000   0.87562384   -6.9029937     308.9129  0.026484302  0.026557556            8 
  973000   0.87921024   -6.9078479    308.24251  0.026399667  0.026539537            6 
  974000   0.85150744   -6.8816785    309.43733  0.026474788  0.026521625            4 
  975000   0.87334111   -6.9097577    308.51388  0.026368708  0.026503677            7 
  976000   0.86291489   -6.8805988    309.78746  0.026450432  0.026486077            3 
  977000   0.86217473    -6.911695     309.3029  0.026382028  0.026468553            7 
  978000    0.8555253   -6.9212338        310.1  0.026422972  0.026450855            6 
  979000   0.86019616   -6.9326232     310.0581  0.026392416  0.026433215            6 
  980000   0.87492814   -6.8908902    310.56358  0.026408468  0.026415604           10 
  981000   0.87304494   -6.9308665     309.9488  0.026329324  0.026397917           10 
  982000   0.88777652   -6.9168092    310.51858  0.026350864  0.026380277            9 
  983000   0.84500214   -6.9056788    310.78668  0.026346786  0.026362787           18 
  984000   0.86688711   -6.8964648    311.01593  0.026339425  0.026345499           11 
  985000   0.88457856   -6.8875499     310.8648  0.026299899  0.026328212            5 
  986000   0.85681205   -6.8947468    311.50796  0.026327583  0.026310819            4 
  987000   0.85758017   -6.8679115    311.29888  0.026283255  0.026293429            7 
  988000   0.86292822   -6.9166298    311.97025   0.02631328  0.026276073            8 
  989000   0.85908137   -6.9120864    310.51107  0.026163723  0.026258546            4 
  990000   0.87365191   -6.8886161    311.82209  0.026247651  0.026241074            9 
  991000   0.85855653   -6.9302898    310.72717  0.026129093  0.026223634           11 
  992000   0.86617519   -6.9179128    311.92904  0.026203717   0.02620608            5 
  993000   0.85211121   -6.9192255    311.74875  0.026162198  0.026188493            4 
  994000   0.85061987   -6.9102994    311.61767  0.026124888  0.026171068            7 
  995000   0.84035527   -6.8936514    311.88623  0.026121124  0.026153791            7 
  996000   0.86941753   -6.9020484    312.67402  0.026160812  0.026136546            8 
  997000   0.85747987   -6.8871938    313.12127  0.026171955  0.026119271            3 
  998000   0.86586917   -6.8840147    313.45574  0.026173659   0.02610213            6 
  999000   0.86797319   -6.8999322    312.29698  0.026050799  0.026084798            7 
 1000000   0.85850675   -6.8981286    312.17752  0.026014793  0.026067443           10 
 1001000   0.84798137   -6.9088828    313.06696   0.02606285  0.026049912            6 
 1002000   0.86128762    -6.932104    312.89485  0.026022526  0.026032503            4 
 1003000   0.85643337   -6.8860954    313.59698  0.026054917  0.026015215           10 
 1004000   0.84529819   -6.9389816     313.2495  0.026000124  0.025997995           10 
 1005000   0.84577455   -6.9456511    312.74868  0.025932726  0.025980432            6 
 1006000   0.87032867   -6.9424754    313.00374  0.025928077  0.025962913            6 
 1007000     0.859134   -6.9162477    314.39273  0.026017273  0.025945661            9 
 1008000   0.83324884   -6.9290038    313.08718   0.02588353  0.025928304            6 
 1009000   0.85487921   -6.9242936    313.45024  0.025887863  0.025910983            8 
 1010000   0.83909977   -6.9179283    313.45514  0.025862636  0.025893725            8 
 1011000    0.8619026   -6.9290261    314.84358  0.025951499  0.025876555            7 
 1012000   0.85521154   -6.9512485    314.38258  0.025887894  0.025859357            4 
 1013000   0.84873962   -6.9179801    313.84883  0.025818429  0.025842271            5 
 1014000   0.84681607   -6.9352741    315.32487  0.025914272  0.025825263            7 
 1015000   0.85075833   -6.9360136    315.36655  0.025892163  0.025808123            5 
 1016000    0.8556629   -6.9376311     314.9069  0.025828978  0.025791162            9 
 1017000   0.85680194   -6.9569692    314.88826  0.025802053  0.025774169            6 
 1018000   0.84607296   -6.9367671    314.90282    0.0257779  0.025756879            7 
 1019000   0.86101705   -6.9462613     315.0516   0.02576477  0.025739682            6 
 1020000    0.8557503   -6.9360954    315.37977  0.025766321  0.025722514           11 
 1021000   0.86270264   -6.9448036    315.40744  0.025743343  0.025705371            5 
 1022000   0.85036604   -6.9473556    315.41603  0.025718854  0.025688162            7 
 1023000   0.84458129   -6.9127952     315.4663  0.025697809   0.02567095            5 
 1024000   0.82392716   -6.9505989    316.17162  0.025730112   0.02565391            9 
 1025000   0.83887652   -6.9686054    316.17549  0.025705324  0.025636736            7 
 1026000   0.85699937   -6.9162205    315.66744  0.025639005  0.025619695           12 
 1027000   0.85541292   -6.9679552      315.196  0.025575787  0.025602636           12 
 1028000   0.85591892   -6.9342774    315.57838  0.025581905   0.02558549           11 
 1029000   0.84847972   -6.9566153    315.82208   0.02557678  0.025568347            6 
 1030000   0.83319037   -6.9523039    315.81959  0.025551747  0.025551243            6 
 1031000   0.84832508   -6.9378319    316.17475   0.02555567  0.025534046            8 
 1032000   0.85536268   -6.9382969    316.37874  0.025547379  0.025516899            5 
 1033000   0.81889427     -6.94886    316.06929  0.025497684  0.025499631            4 
 1034000   0.81912026   -6.9784578    316.39404  0.025499198  0.025482376           11 
 1035000   0.86291849   -6.9406451      315.774  0.025424637  0.025465081            8 
 1036000   0.83186187   -6.9682797    315.54327  0.025381537  0.025447771           10 
 1037000   0.82707369   -6.9464728    316.44247  0.025429321  0.025430466            8 
 1038000    0.8514656   -6.9194043    316.17754  0.025383553  0.025413175            9 
 1039000   0.83150971   -6.9325921    317.32817  0.025451409  0.025395965            8 
 1040000   0.83380503   -6.9666601    317.01532  0.025401869  0.025378867           10 
 1041000   0.82421248   -6.9528795    316.36544  0.025325444  0.025361522           14 
 1042000   0.83844283   -6.9762206    317.06633  0.025357192  0.025344178            8 
 1043000   0.83288045   -6.9381297    317.58979  0.025374704  0.025326958           13 
 1044000   0.84235109   -6.9511618    316.43469  0.025258197  0.025309721           16 
 1045000   0.85705071   -6.9665081    317.82965  0.025345267  0.025292536            5 
 1046000   0.83641775   -6.9637549    317.63497  0.025305527  0.025275376            7 
 1047000   0.82519361    -6.946407     316.9609  0.025227706  0.025258246            6 
 1048000   0.84848669   -6.9752741    317.90198  0.025278465  0.025241238           12 
 1049000   0.83197356    -6.980219    318.02194  0.025263897  0.025224173            5 
 1050000   0.83823017   -6.9717383    317.25451  0.025178929  0.025207091            5 
 1051000    0.8289477   -6.9552278    318.27099  0.025235568  0.025189968            8 
 1052000   0.82849926   -6.9594529    318.03507  0.025192892  0.025172844            7 
 1053000   0.81833889   -6.9560198     318.1666  0.025179376  0.025155766           12 
 1054000   0.82756867    -6.982752    319.27284  0.025242951  0.025138916           12 
 1055000    0.8287931   -6.9711147    319.05712  0.025201984   0.02512206            9 
 1056000   0.82586989   -6.9586156    319.96746  0.025249957  0.025105183            5 
 1057000   0.83637607    -6.981699    319.29953   0.02517341  0.025088392           13 
 1058000   0.82991536   -6.9858729    319.75241  0.025185288  0.025071561           15 
 1059000   0.81508344   -6.9700867    320.19287  0.025196166  0.025054741            8 
 1060000   0.83034417   -6.9751578    319.89271  0.025148798  0.025037834            6 
 1061000   0.83067602   -6.9877911    319.24094  0.025073904  0.025020919            6 
 1062000    0.8289257   -6.9664792    319.73623  0.025089158  0.025004099            4 
 1063000    0.8143377   -6.9512649     320.8087  0.025149632  0.024987343           12 
 1064000   0.82854232   -6.9741688    319.90237   0.02505501   0.02497058            9 
 1065000   0.83968409   -6.9777599      320.649  0.025089906  0.024953888            7 
 1066000   0.80633496   -6.9451508    319.65375  0.024988567  0.024937248           11 
 1067000   0.82791599   -7.0042177     320.1907  0.025007084  0.024920597            9 
 1068000   0.83509342   -6.9801234    321.28145  0.025068777  0.024903798            7 
 1069000   0.81427361   -6.9660796    321.03786  0.025026337  0.024887065            5 
 1070000   0.83050974   -6.9731211     321.0215  0.025001675  0.024870271            8 
 1071000   0.83701556   -6.9989953    320.18333  0.024913113  0.024853543            5 
 1072000   0.82956753   -6.9889795    320.20923  0.024891887  0.024836812            6 
 1073000   0.81973466   -6.9951285    321.36342  0.024958327  0.024820265            5 
 1074000   0.84101727   -6.9797271    321.32546  0.024932143  0.024803714           10 
 1075000   0.82610846   -7.0040162    321.73696   0.02494085  0.024787193            6 
 1076000   0.83817196   -6.9862256    321.79446  0.024922124  0.024770558            9 
 1077000   0.81483715   -6.9956038    321.17569  0.024851106  0.024753987           11 
 1078000   0.82992631   -6.9751077    321.66994   0.02486626   0.02473739           15 
 1079000   0.80594231   -6.9764396    321.95008   0.02486485  0.024720944            6 
 1080000    0.8242871   -7.0162125    322.35863  0.024873351  0.024704477            7 
 1081000   0.84513571    -7.010981    322.33415  0.024848454  0.024688026           14 
 1082000   0.85019529   -6.9681257    322.61265  0.024846938  0.024671504            7 
 1083000   0.82983147   -6.9748389    322.14112  0.024787713  0.024655023            6 
 1084000   0.81802488    -6.972926    322.40143  0.024784858  0.024638544            9 
 1085000   0.84103587    -7.003889    322.02651  0.024733219   0.02462198            6 
 1086000   0.80772562   -6.9953879    322.77614  0.024767967  0.024605498            7 
 1087000   0.82315781   -6.9984117    322.78327  0.024745728  0.024589206           15 
 1088000   0.80320164    -7.015755    321.80459  0.024648023  0.024572904           14 
 1089000   0.81714912   -6.9785898    323.23325  0.024734714  0.024556612            9 
 1090000   0.82527551   -6.9735986    323.42649  0.024726796  0.024540325            5 
 1091000   0.82721567   -6.9917788    323.63924  0.024720382  0.024524065            4 
 1092000   0.80321903   -7.0029934    323.91285  0.024718624  0.024507773           10 
 1093000   0.80941195   -7.0312321    322.54894  0.024592021  0.024491246            7 
 1094000   0.80633589   -7.0015728    323.32596   0.02462873  0.024474775           11 
 1095000    0.8052764   -7.0296557    323.80823   0.02464294  0.024458372            9 
 1096000   0.81172229   -6.9529215    323.77555  0.024617971  0.024441958            6 
 1097000   0.82956532   -7.0291411    323.53564  0.024577305  0.024425566            3 
 1098000   0.82367361   -6.9876819    323.28257  0.024535714  0.024408988            7 
 1099000   0.82289115   -7.0251669    323.44703  0.024525859  0.024392404           12 
 1100000   0.80965278   -7.0099813    324.34425  0.024571534   0.02437587           10 
 1101000   0.82005528   -7.0190604    324.10568   0.02453116  0.024359414            6 
 1102000   0.80240572    -6.997459    323.63635  0.024473408  0.024343032           14 
 1103000   0.82874361   -7.0155855    324.42234  0.024510603  0.024326814            8 
 1104000   0.82027347   -6.9983505    325.07451  0.024537629  0.024310516           10 
 1105000   0.80697534   -6.9761888    325.15774  0.024521699  0.024294301           13 
 1106000   0.80492834    -7.028736    325.22931  0.024504921  0.024278177            9 
 1107000   0.79217509   -7.0377535     325.2768   0.02448636   0.02426192            7 
 1108000   0.79570424   -6.9864562    325.12213  0.024452627   0.02424558            8 
 1109000    0.8200691   -7.0428124    324.88823  0.024413002  0.024229181           11 
 1110000   0.78679506   -6.9987199    324.59472  0.024368973  0.024212802            4 
 1111000   0.81200713   -7.0390599    325.20878  0.024393097  0.024196421            4 
 1112000   0.81889329   -7.0057414    325.22557  0.024372419  0.024180111            8 
 1113000   0.80047889   -7.0169442    324.47973  0.024294679  0.024163749           10 
 1114000   0.81288289   -7.0150316    325.65959   0.02436113  0.024147407            8 
 1115000   0.80616832    -7.022693    325.73633  0.024345017  0.024131105           16 
 1116000   0.81449189   -7.0311311    325.34933  0.024294304  0.024114714            4 
 1117000   0.80352573   -7.0269183    325.16569  0.024258855  0.024098248           10 
 1118000   0.82437962    -7.043259    325.71211  0.024277885  0.024081838           16 
 1119000   0.79873862   -7.0055988    325.42209  0.024234591  0.024065669           11 
 1120000   0.80579425   -7.0348471    325.13908  0.024191896  0.024049368            9 
 1121000   0.81184312   -7.0229817    326.14407  0.024245025   0.02403309            4 
 1122000   0.81314499   -7.0404723    324.87299   0.02412901  0.024016795           21 
 1123000   0.82661159   -7.0511523    325.41692  0.024147887  0.024000583            7 
 1124000   0.81124908   -7.0235374    326.44626  0.024202718  0.023984328            9 
 1125000    0.8066629   -6.9782832    325.58413  0.024117343  0.023968024           11 
 1126000   0.80808646   -7.0231371    326.35761  0.024153168   0.02395192           16 
 1127000    0.8034882   -7.0323728    326.44576  0.024138255  0.023935799           14 
 1128000   0.80064146   -7.0507769    326.43535  0.024116087  0.023919614            8 
 1129000   0.80710886   -7.0520314    327.23921   0.02415406  0.023903374            8 
 1130000   0.80873037   -7.0274486     326.4715  0.024076069  0.023887192            6 
 1131000   0.79909174   -7.0531791    326.65318  0.024068169   0.02387096            9 
 1132000   0.80676567   -7.0351571    327.52593  0.024111155  0.023854723            8 
 1133000   0.78198542   -7.0100941    327.13045  0.024060786  0.023838645            6 
 1134000   0.80441519   -7.0539535    326.62685  0.024002561  0.023822473            9 
 1135000   0.81129544   -6.9962908    326.59433  0.023979025  0.023806366           14 
 1136000   0.80174498   -7.0091437    327.71566  0.024040174  0.023790329           18 
 1137000   0.81589233   -7.0448749    326.88141  0.023957887  0.023774267           10 
 1138000   0.79179989   -7.0475655    327.48379  0.023980945  0.023758126           16 
 1139000   0.79135898     -7.05881    326.97267  0.023922496  0.023741911            8 
 1140000    0.8096316   -7.0455655    328.58359  0.024019268  0.023725751            6 
 1141000   0.80108125   -7.0258553     328.3353  0.023980083  0.023709834           14 
 1142000   0.78917964   -7.0435389    327.67905  0.023911198  0.023693866           13 
 1143000   0.79759873   -7.0432499    328.12278  0.023922629  0.023677793           10 
 1144000   0.79958786    -7.039818    327.62424  0.023865402  0.023661808            6 
 1145000   0.79092299   -7.0761999    328.33125  0.023896015  0.023645826            8 
 1146000   0.78712423   -7.0379293    328.19502  0.023865257   0.02362994           14 
 1147000   0.77978617   -7.0257888    328.93658  0.023898327  0.023614111            7 
 1148000   0.79095976   -7.0407864    328.95048  0.023878519  0.023598292           10 
 1149000    0.7946529   -7.0556784    328.97462  0.023859488    0.0235825            5 
 1150000   0.80202495   -7.0255547     328.8078  0.023826652  0.023566831            6 
 1151000   0.79327254   -7.0345796    329.78114  0.023876422   0.02355124           16 
 1152000   0.79578426   -7.0571481    329.56932  0.023840373  0.023535603           14 
 1153000   0.80647975   -7.0170554    329.73448  0.023831634  0.023519965            7 
 1154000   0.81296712   -7.0294417    329.38314  0.023785611  0.023504366            6 
 1155000   0.78306905   -7.0419558     330.0242   0.02381127  0.023488734           13 
 1156000   0.78780491   -7.0457802    329.65414  0.023763995  0.023473093           17 
 1157000   0.80298576   -7.0313778    330.72143  0.023820328  0.023457405            9 
 1158000   0.80438092    -7.057588    329.83506  0.023735971  0.023441789            6 
 1159000   0.79758584   -7.0558935    330.22302  0.023743387  0.023426187            8 
 1160000   0.78444819    -7.061579    330.03759  0.023709597  0.023410544            7 
 1161000    0.7920145   -7.0668107    329.20281  0.023629257  0.023394844            6 
 1162000   0.78620517   -7.0756954    329.95674  0.023662991  0.023379207            8 
 1163000   0.81505697   -7.0403101    329.45965  0.023607025  0.023363596            4 
 1164000   0.78967174   -7.0692501    330.50404  0.023661515    0.0233479           10 
 1165000   0.78635751   -7.0469524    329.93231  0.023600308  0.023332188           29 
 1166000   0.79439226   -7.0634316    330.46589  0.023618202  0.023316429            8 
 1167000   0.79018229   -7.0585694    330.66043  0.023611856  0.023300644           13 
 1168000   0.78992049   -7.1093124    330.02584  0.023546364  0.023284738            3 
 1169000   0.79821179   -7.0642615    330.69994  0.023574276  0.023268902           12 
 1170000   0.78173572   -7.0709546     330.9518  0.023572066  0.023253112            4 
 1171000    0.7939944   -7.0826281    330.41499  0.023513734  0.023237288            7 
 1172000   0.77888467   -7.0588147    331.15279  0.023546131  0.023221467            8 
 1173000   0.77846232   -7.0866223    331.25198  0.023533105  0.023205739           16 
 1174000   0.76843286   -7.0592688    331.26456  0.023513952  0.023190065            7 
 1175000    0.7890449   -7.0709795    331.18231  0.023488107  0.023174404            7 
 1176000    0.7811982   -7.0705471    330.26169  0.023402898  0.023158522            7 
 1177000   0.78540887   -7.0818345    330.59386  0.023406532   0.02314268            8 
 1178000   0.76460192   -7.0813362    329.77206  0.023328527  0.023126747            6 
 1179000   0.76483144   -7.0971529    330.92087   0.02338994  0.023110895            9 
 1180000   0.77767674   -7.0961379    330.99312  0.023375221  0.023095091           12 
 1181000   0.77065251   -7.0929695    331.02128  0.023357414  0.023079307            6 
 1182000   0.77581086   -7.0820551    330.92152  0.023330621  0.023063485            7 
 1183000   0.78943284   -7.1145921    331.17709  0.023328902  0.023047647            8 
 1184000   0.78499665   -7.1086455    330.65376  0.023272365  0.023031828           10 
 1185000   0.78586443   -7.0625752     331.5842  0.023318158  0.023016024           15 
 1186000   0.78326761      -7.0586    331.70935   0.02330729   0.02300031            8 
 1187000   0.80594624    -7.055349    331.79725  0.023293825  0.022984551           15 
 1188000   0.79361353   -7.1061259    331.50341  0.023253606  0.022968701           10 
 1189000   0.77475362   -7.0500818    331.71485  0.023248868  0.022952975            6 
 1190000   0.78165289   -7.0928097    330.89841  0.023172158  0.022937225           13 
 1191000   0.78055069   -7.0965788    330.35485  0.023114669  0.022921336            8 
 1192000   0.76137784   -7.0742905    331.53008  0.023177438  0.022905467            9 
 1193000   0.78344805   -7.0681507    331.98732   0.02318995  0.022889574            6 
 1194000   0.75818661    -7.075416    331.86841  0.023162228  0.022873753           11 
 1195000   0.78003836   -7.0862675    332.00281  0.023152218  0.022857911           33 
 1196000   0.77921097   -7.0876286    331.50275  0.023098017  0.022842024           10 
 1197000   0.78116799   -7.0664713    331.84198  0.023102338  0.022826246            8 
 1198000   0.78643837   -7.0605119    332.79399  0.023149276  0.022810649           10 
 1199000   0.76475079   -7.0710395    331.83667  0.023063433  0.022795026            7 
 1200000   0.78643664    -7.075111    332.44317  0.023086332   0.02277934            5 
 1201000   0.78644317   -7.1059448    332.14146  0.023046174  0.022763662            8 
 1202000   0.78064996   -7.1142568    332.03325  0.023019499  0.022747925            7 
 1203000    0.7692713   -7.0989914    331.42237  0.022958047  0.022732095           13 
 1204000   0.78629132   -7.0864714    332.02729  0.022980848   0.02271632            6 
 1205000   0.77586901   -7.0912689    332.53211  0.022996688  0.022700592            5 
 1206000   0.75777498   -7.1008412    331.53552  0.022908756  0.022684879           10 
 1207000   0.76965142   -7.0941855    332.25684  0.022939577  0.022669207            5 
 1208000   0.77414185   -7.0724573    333.17596  0.022983993  0.022653516           12 
 1209000   0.77663461   -7.0772477    332.00104  0.022883998  0.022637797           10 
 1210000   0.76121146   -7.1187799    332.58131  0.022905049   0.02262201            6 
 1211000    0.7524561   -7.0933299    332.79163  0.022900608   0.02260626           12 
 1212000   0.75951522   -7.0804291    332.57507  0.022866822  0.022590624            7 
 1213000   0.76177983   -7.1182708    332.81935  0.022864753   0.02257497           16 
 1214000   0.78302505   -7.1038985    333.74394  0.022909386  0.022559279            9 
 1215000   0.75609544   -7.0694163    333.14683  0.022849577  0.022543628            9 
 1216000   0.77160411   -7.0940191    333.66779  0.022866488  0.022528015           12 
 1217000   0.76929836   -7.1174757     333.1148  0.022809833  0.022512338           13 
 1218000   0.76771728   -7.1007178    333.28594  0.022802815  0.022496711           22 
 1219000   0.76257541   -7.0976592    332.64564  0.022740336  0.022481034           24 
 1220000   0.77628487   -7.0965852     333.3032  0.022766612  0.022465312           18 
 1221000   0.75496233   -7.1031721    333.66422  0.022772606  0.022449587           12 
 1222000   0.78306835   -7.1449234    332.71727  0.022689394  0.022433908           29 
 1223000   0.76009591   -7.1379058    333.76434  0.022742187   0.02241826           10 
 1224000   0.76203044   -7.1322258    333.71064  0.022719951   0.02240257            9 
 1225000   0.76166551   -7.1154431    333.48493   0.02268605  0.022386941           15 
 1226000   0.75054501    -7.123101    333.68066   0.02268085  0.022371268           12 
 1227000   0.76113805   -7.0978657    333.61212   0.02265771  0.022355641            6 
 1228000   0.74527769   -7.1001861    333.08053  0.022603185   0.02234007            7 
 1229000   0.77994743   -7.1197432    334.20238  0.022660861  0.022324487           14 
 1230000   0.77139395   -7.1134126    333.59718  0.022601435  0.022308886            5 
 1231000   0.76602995    -7.138966    333.22475  0.022557863  0.022293227           10 
 1232000   0.75874325   -7.1162454    332.90489  0.022517917  0.022277492            8 
 1233000   0.75569805   -7.0918711    333.77513   0.02255847  0.022261813           11 
 1234000   0.75455577    -7.105719    333.63674  0.022530844  0.022246163           10 
 1235000   0.76435329   -7.0972971    334.18171  0.022549373  0.022230606            9 
 1236000   0.74961009   -7.1333187    334.26668  0.022536858  0.022215068           10 
 1237000   0.76325171   -7.1108087    333.56635   0.02247146  0.022199473           10 
 1238000   0.76059809   -7.1416572    334.38064  0.022508121  0.022183931           13 
 1239000   0.76218744   -7.1161493     334.5652  0.022502368  0.022168481            8 
 1240000   0.75799996   -7.1209256    333.60486  0.022419681  0.022152976           17 
 1241000   0.75061967   -7.1224651    334.32171  0.022449752  0.022137456           11 
 1242000   0.75377841   -7.1407427    334.26899   0.02242814  0.022121893           26 
 1243000    0.7551927   -7.1060013    335.29395  0.022478811  0.022106317           14 
 1244000   0.76184345   -7.1344023    334.64856  0.022417508  0.022090866            9 
 1245000   0.78047184   -7.1274637    334.58895  0.022395512  0.022075337            8 
 1246000    0.7929947   -7.1305967    335.09482  0.022411371  0.022059844           19 
 1247000   0.76122298   -7.1466724    334.75174  0.022370472  0.022044373            9 
 1248000   0.74589787   -7.0955669    335.75797  0.022419736  0.022028974           11 
 1249000   0.74836968   -7.1260307    334.32947  0.022306477  0.022013582            7 
 1250000   0.75700836   -7.1313295    334.71821  0.022314547   0.02199809            7 
 1251000   0.75941488   -7.1388653    335.10905  0.022322745  0.021982578           13 
 1252000   0.77521816   -7.1446342    335.10127  0.022304398  0.021967052           18 
 1253000   0.75242751   -7.1519753    334.78045   0.02226526  0.021951517           17 
 1254000   0.75323731   -7.1180463    336.20949   0.02234247  0.021936069           14 
 1255000   0.75738917   -7.1495457    335.33301  0.022266468  0.021920674            4 
 1256000   0.76951053   -7.1461951    334.61204  0.022200905  0.021905346            6 
 1257000   0.75902063   -7.1090636    335.30217  0.022228995   0.02188999            6 
 1258000   0.75131958   -7.1246875     335.7822  0.022243124  0.021874671            7 
 1259000   0.75752907   -7.1268483    336.14912  0.022249743    0.0218594            5 
 1260000   0.76650489   -7.1708831    335.06991  0.022160708  0.021844117           10 
 1261000   0.74535244   -7.1553335    335.60044  0.022178195  0.021828743           12 
 1262000    0.7617871   -7.1256476    335.53735  0.022156455  0.021813384           11 
 1263000   0.75504612   -7.1476937    335.26218  0.022120756  0.021797989            8 
 1264000   0.75993208   -7.1535379     335.3122  0.022106553  0.021782624           14 
 1265000   0.73827543   -7.1596083    335.77635  0.022119654  0.021767199           10 
 1266000   0.75236186   -7.1729151    336.38812  0.022142451  0.021751743           11 
 1267000   0.75893118   -7.1526446    335.39502  0.022059657  0.021736406            9 
 1268000   0.74441402   -7.1558823     335.7178  0.022063473   0.02172106           16 
 1269000   0.74476471   -7.1466191    335.86333  0.022055643   0.02170567           24 
 1270000   0.76233941    -7.111362    335.85885  0.022037982   0.02169035            8 
 1271000   0.74948677   -7.1464541    336.11563  0.022037479  0.021675021           15 
 1272000   0.73721694   -7.1388778    336.48398  0.022044286  0.021659631           12 
 1273000   0.74883622   -7.1908341    336.24281  0.022011181   0.02164421           10 
 1274000   0.74248311   -7.1817069    335.96158  0.021975509  0.021628791           10 
 1275000    0.7374393   -7.1421636    335.94043  0.021956891  0.021613401            6 
 1276000   0.75075812   -7.1692014    336.19868  0.021956549  0.021598036           12 
 1277000   0.72625077   -7.1338973    336.65065   0.02196885  0.021582652           14 
 1278000   0.74112002   -7.1626395      335.783  0.021895083  0.021567319           17 
 1279000   0.73299586   -7.1911994    336.11194  0.021899397  0.021552087           17 
 1280000   0.74777288   -7.1862278    336.66923  0.021918569  0.021536776           39 
 1281000   0.75886309   -7.1957795    336.21438  0.021871869  0.021521425           20 
 1282000   0.74367085   -7.1826656    336.22025   0.02185519  0.021506039           20 
 1283000   0.74427052   -7.1838809     336.2536  0.021840322   0.02149069           26 
 1284000   0.73565698   -7.1427328    336.89164  0.021864722  0.021475345           29 
 1285000   0.75305828    -7.161025    336.51371  0.021823198   0.02146005            7 
 1286000   0.72483824   -7.1718202    336.71479  0.021819258  0.021444795            9 
 1287000    0.7454646   -7.1580097    336.74809  0.021804461  0.021429511           18 
 1288000   0.73732572   -7.1607012    336.92917  0.021799247  0.021414276            8 
 1289000   0.72909199   -7.1867634     337.4083  0.021813311  0.021399057            7 
 1290000   0.73039923   -7.1559579    336.34834  0.021727929  0.021383788           21 
 1291000   0.74349781   -7.1409774    336.16886  0.021699513  0.021368523            7 
 1292000    0.7334537   -7.1763253    337.08542  0.021741836  0.021353263            7 
 1293000   0.73599294   -7.1583703    336.09103  0.021660933  0.021338026           12 
 1294000   0.72717512   -7.1825738    335.95659  0.021635535  0.021322693           11 
 1295000   0.73177699   -7.1753005    337.08991  0.021691757  0.021307477           21 
 1296000   0.72199315   -7.1843007    337.28651  0.021687661  0.021292251           10 
 1297000    0.7381939    -7.189084    337.05804  0.021656261  0.021277022           10 
 1298000   0.74829149   -7.2012872    336.62602   0.02161184    0.0212618           10 
 1299000   0.74916058   -7.1897033    337.58656  0.021656823  0.021246592           14 
 1300000   0.74169977   -7.1874902    337.15278  0.021612358  0.021231368            9 
 1301000   0.73188784   -7.1683446    338.06066  0.021653898  0.021216145           18 
 1302000   0.74624986   -7.1980798    337.92992  0.021628899  0.021200964           10 
 1303000   0.72457106   -7.2001283    337.18464  0.021564635  0.021185753            4 
 1304000   0.73355046   -7.1869911    337.26959  0.021553527  0.021170578           11 
 1305000    0.7386166   -7.2119022     337.2852  0.021538007  0.021155416            9 
 1306000   0.74007007   -7.1736363    337.97816  0.021565732  0.021140258            9 
 1307000   0.73925715   -7.1786258    338.12778  0.021558772  0.021125076            6 
 1308000   0.72695141   -7.1858215    337.84192  0.021524077  0.021109956            7 
 1309000   0.73093702   -7.1736447    337.37617  0.021477984  0.021094858           12 
 1310000    0.7390023   -7.2043519    337.96879  0.021499287  0.021079823           12 
 1311000   0.73449362   -7.1872928    337.68745  0.021465005  0.021064704           10 
 1312000   0.72388386   -7.2097065    337.66044  0.021446929  0.021049562           10 
 1313000    0.7306143   -7.1654118    336.91491  0.021383277   0.02103453            9 
 1314000     0.710478   -7.1728633    337.68473  0.021415825  0.021019439           11 
 1315000   0.74047786   -7.2053738    337.19905  0.021368761  0.021004335            9 
 1316000   0.73059639   -7.1979671     336.8594  0.021331016  0.020989232            3 
 1317000   0.72558019   -7.2094732    337.74249  0.021370696  0.020974092            7 
 1318000   0.71891769   -7.2180991    337.84602  0.021361028  0.020958976           14 
 1319000   0.73077426   -7.1789218    338.04168  0.021357195  0.020943882            8 
 1320000    0.7175691   -7.1805489    338.05119  0.021341615  0.020928815           12 
 1321000   0.72613332   -7.1510341     337.8067  0.021310036  0.020913718            8 
 1322000   0.72780878   -7.1641478    338.21631  0.021319737  0.020898668           27 
 1323000   0.72631795   -7.1874509    338.16659   0.02130049  0.020883636            7 
 1324000   0.71510125   -7.1959438    338.44454  0.021301897  0.020868553            9 
 1325000   0.71324015   -7.2239263     337.2738  0.021212189  0.020853489           15 
 1326000   0.72430093   -7.2015445    337.69849  0.021222882  0.020838367            9 
 1327000   0.72550035   -7.1998903    338.01706  0.021226894  0.020823234           11 
 1328000   0.71705259   -7.1869703    338.37008  0.021233062  0.020808118            5 
 1329000   0.72457564   -7.1818962     337.2095  0.021144313  0.020793041            7 
 1330000   0.71651109    -7.185599    337.57718  0.021151453  0.020777927           12 
 1331000   0.71885754   -7.2312705    337.32852  0.021119993  0.020762773           10 
 1332000     0.731917   -7.2084998    338.27823  0.021163553  0.020747551           16 
 1333000   0.72995128   -7.1891682    337.68532   0.02111061  0.020732366           25 
 1334000   0.71344108   -7.2376163    338.37423  0.021137821  0.020717227           13 
 1335000   0.70235325   -7.2117192    338.19112  0.021110557  0.020702086            9 
 1336000   0.71508499   -7.2099453    337.94037  0.021079115   0.02068692           10 
 1337000   0.72284685   -7.2081463    338.44456  0.021094774  0.020671837           18 
 1338000   0.72120117   -7.2185795      337.748  0.021035626  0.020656806            8 
 1339000   0.72936367   -7.1838121    337.99841    0.0210355  0.020641744            8 
 1340000   0.71941564   -7.2189483    338.60057  0.021057249  0.020626666            9 
 1341000   0.70118579   -7.2024357    338.76178  0.021051565  0.020611622           12 
 1342000   0.70038375   -7.2053031    339.16735  0.021061063  0.020596583            8 
 1343000   0.72056799   -7.2338665    338.54833   0.02100697  0.020581588            7 
 1344000   0.71558876   -7.2189019    337.83592  0.020947167  0.020566595           19 
 1345000   0.72694865   -7.2161941    338.07095  0.020946156  0.020551635           10 
 1346000   0.70829289   -7.1868451    338.86198  0.020979568  0.020536762            8 
 1347000   0.71477805   -7.2198405    338.34531  0.020932028  0.020521859            6 
 1348000   0.70918331   -7.2005554    338.93269  0.020952812  0.020506981           16 
 1349000   0.71209371   -7.2197548    338.57276  0.020915046  0.020492099           18 
 1350000   0.72787911   -7.2210359    338.28735  0.020881935  0.020477215           19 
 1351000   0.71447429   -7.2323899    338.67664  0.020890491  0.020462296           12 
 1352000   0.71182001   -7.2135919    339.11598  0.020902119  0.020447412           15 
 1353000   0.70762903   -7.2293056    338.63375  0.020856969  0.020432507           26 
 1354000   0.70798176   -7.2090636    339.37509  0.020887192  0.020417625           24 
 1355000   0.70928355   -7.2087746    339.17291  0.020859342  0.020402779           18 
 1356000    0.7204513   -7.2377427    338.76464  0.020818869  0.020387983           24 
 1357000   0.71911376   -7.2293375    339.16041  0.020827832  0.020373171           30 
 1358000   0.70549694   -7.2309799    339.78415   0.02085077  0.020358371           30 
 1359000    0.7099815   -7.2141176    338.43097  0.020752451  0.020343563           17 
 1360000   0.71180881   -7.2130744     339.3885  0.020795864  0.020328777            9 
 1361000   0.71533207   -7.2117678    339.18138  0.020767902   0.02031398            8 
 1362000   0.71850719   -7.1957044    340.01901  0.020803904  0.020299227           11 
 1363000   0.71288794   -7.2233166    338.88909  0.020719558  0.020284515           10 
 1364000   0.69319225   -7.2420451    339.21757  0.020724436  0.020269782           23 
 1365000   0.72477941   -7.2337984    339.06555  0.020699972  0.020255067           16 
 1366000   0.71058562   -7.2100672    339.55068  0.020714415  0.020240295           11 
 1367000    0.7043431   -7.2625093     339.6322   0.02070423  0.020225546           19 
 1368000   0.70974706   -7.2439971    339.47922  0.020679777  0.020210754           12 
 1369000   0.71900335   -7.2523816    339.44508  0.020662593  0.020195951           17 
 1370000   0.69533918   -7.2457008    338.73794  0.020604497  0.020181156           10 
 1371000   0.70826136   -7.2232913    339.75237  0.020651129  0.020166372           25 
 1372000   0.71366618   -7.2610439    339.44563  0.020617446  0.020151593           34 
 1373000   0.70174637   -7.2323818    339.89992  0.020630003  0.020136867           16 
 1374000   0.70076849   -7.2258492    339.59751  0.020596647  0.020122202           15 
 1375000   0.70639718   -7.2413573    339.91831   0.02060111  0.020107509           14 
 1376000   0.70416459   -7.2151956    340.38164  0.020614198   0.02009288           24 
 1377000   0.71542334   -7.2385148    339.41061  0.020540463  0.020078242           24 
 1378000    0.7064956   -7.2642881    339.92979  0.020556954  0.020063559           11 
 1379000    0.7028902   -7.2305603    339.93557  0.020542396  0.020048855           17 
 1380000    0.7111482   -7.2540447    340.02027  0.020532625  0.020034188           14 
 1381000   0.69740335   -7.2554176    340.09891  0.020522502   0.02001956            7 
 1382000   0.70692123   -7.2216714    340.23463  0.020515837  0.020004948            8 
 1383000   0.69672239    -7.266996    339.88731  0.020480074  0.019990322            6 
 1384000   0.70127807   -7.2439345    340.44764  0.020499015  0.019975707            8 
 1385000   0.71318259   -7.2342401    339.71668  0.020440234  0.019961078           12 
 1386000   0.69768378    -7.238148    339.16954  0.020392589  0.019946396           20 
 1387000   0.71163632   -7.2336918    339.18701  0.020378936  0.019931785           13 
 1388000   0.70519079   -7.2818182    339.79766  0.020400916  0.019917155           20 
 1389000   0.70007347   -7.2480942    339.47358  0.020366786  0.019902517           24 
 1390000   0.70076469   -7.2655824    340.04116  0.020386161  0.019887905           15 
 1391000   0.69640619     -7.24389    340.13844  0.020377333  0.019873325           27 
 1392000   0.70553305   -7.2594465    339.56969  0.020328645  0.019858758           15 
 1393000   0.72539819   -7.2475637    339.99108   0.02033926  0.019844171           11 
 1394000    0.7159919   -7.2694236    339.41364  0.020290151  0.019829567           16 
 1395000   0.69915339    -7.277206    339.90832  0.020305156  0.019814923           25 
 1396000   0.69692194   -7.2783679    340.26963  0.020312179  0.019800322           29 
 1397000   0.70374065    -7.269485    340.16797  0.020291576  0.019785661           35 
 1398000   0.70383378   -7.2887741    339.90262  0.020261243   0.01977102           30 
 1399000    0.6820912   -7.2668339    340.63212  0.020290214  0.019756396           29 
 1400000   0.71139361   -7.2627253    339.84744  0.020229014  0.019741784           38 
 1401000    0.7073441   -7.2693036     340.1155   0.02023052  0.019727218           24 
 1402000   0.68772921   -7.2677371    340.28595  0.020226222  0.019712661           24 
 1403000    0.6919604   -7.2748097    341.02145  0.020255491  0.019698109           29 
 1404000   0.69758117    -7.282646    340.28411    0.0201973   0.01968356           15 
 1405000   0.69974518   -7.2666833     339.7357  0.020150397  0.019669034           21 
 1406000   0.68607042   -7.2705408    340.56173  0.020185025  0.019654508           21 
 1407000   0.69190381   -7.2595295    340.76824  0.020182909   0.01964008           20 
 1408000   0.68793594   -7.2629289     339.8951  0.020116898  0.019625671           22 
 1409000   0.70274144   -7.2728936    340.12814  0.020116403  0.019611232           25 
 1410000   0.68562608   -7.2534946    340.58028  0.020128858  0.019596788           23 
 1411000   0.69208019   -7.2697587    339.90686   0.02007482  0.019582364           14 
 1412000   0.70055958   -7.2687062    340.32783  0.020085448  0.019567964           20 
 1413000   0.69683854   -7.2578519    340.96589  0.020108863  0.019553549            7 
 1414000   0.69894745   -7.2651969    340.44088  0.020063701  0.019539184           27 
 1415000   0.68218247   -7.2342779    340.80008  0.020070676  0.019524882           21 
 1416000   0.68696289   -7.2747049    341.15138  0.020077177  0.019510599           25 
 1417000   0.69374084   -7.2596581    341.44875  0.020080496  0.019496326           15 
 1418000    0.6787896   -7.2595446    341.18088  0.020050592  0.019482086            6 
 1419000    0.6872261   -7.2661113    341.02154  0.020027105  0.019467812           19 
 1420000   0.68773237   -7.2832689    341.08539  0.020016748   0.01945352           16 
 1421000   0.68506803   -7.2786027    341.84861   0.02004742  0.019439227           15 
 1422000   0.67191895   -7.2617991    341.77475  0.020028994   0.01942493            9 
 1423000   0.67965177   -7.2918235    340.86148  0.019961436  0.019410651           22 
 1424000   0.68864933   -7.2755134    340.66046  0.019935654  0.019396423           18 
 1425000   0.69036345   -7.2801824    341.02239   0.01994283  0.019382157            9 
 1426000   0.68814941   -7.2862779    341.06249  0.019931188  0.019367941           15 
 1427000   0.67741565   -7.2857206    341.34394  0.019933657  0.019353733           15 
 1428000   0.67498419    -7.276391    341.54899  0.019931664  0.019339436           18 
 1429000   0.68462012   -7.2652226    341.74644   0.01992923  0.019325198           12 
 1430000   0.67709371   -7.2989473    340.86745   0.01986407   0.01931095            8 
 1431000   0.68258669   -7.2814642    340.90698  0.019852491  0.019296759           20 
 1432000   0.66384603   -7.2758828    340.80244  0.019832544  0.019282592           16 
 1433000   0.67177632   -7.2897385    341.47644  0.019857899   0.01926843            9 
 1434000   0.68226407   -7.2593733    341.58287  0.019850236  0.019254257           14 
 1435000    0.6864112    -7.260787    341.94489  0.019857427  0.019240172            9 
 1436000    0.6945082   -7.2635044    342.05544  0.019850014  0.019226067           31 
 1437000   0.67408757   -7.2950486    341.40396   0.01979842  0.019211927           13 
 1438000   0.67794361   -7.2791707    341.24018  0.019775161  0.019197815           24 
 1439000   0.68105801   -7.3096989    340.74381  0.019732674  0.019183679           21 
 1440000   0.68409797   -7.2817615    341.35168  0.019754148  0.019169538           12 
 1441000   0.67977766   -7.2935417    341.69606  0.019760355  0.019155428           13 
 1442000     0.688078    -7.292574    341.87208  0.019756824    0.0191414           10 
 1443000   0.66582746   -7.3004985    342.59466  0.019784861  0.019127437           12 
 1444000   0.66563771   -7.2891333    341.30762  0.019696885  0.019113403           15 
 1445000    0.6814368   -7.2875044    342.07483  0.019727499   0.01909941           15 
 1446000   0.66778892   -7.2667292    342.18074   0.01971996  0.019085418           17 
 1447000   0.66753096   -7.2976728    341.02622  0.019639842  0.019071398           40 
 1448000    0.6721482   -7.2973541    341.27261  0.019640459  0.019057378           30 
 1449000   0.67730993   -7.2913599      341.734  0.019653439  0.019043346            8 
 1450000   0.66144464   -7.2905134    342.08496  0.019660055  0.019029332            9 
 1451000   0.66944757   -7.2949245    341.94021  0.019638193   0.01901537            8 
 1452000   0.65422136   -7.3099374    342.87689  0.019678425  0.019001434           13 
 1453000   0.68449148   -7.2756569    341.94359  0.019611355  0.018987492           13 
 1454000   0.66815891   -7.3040371    342.12938  0.019608515  0.018973573           11 
 1455000   0.67143681   -7.3196355    342.57077  0.019620319  0.018959663           13 
 1456000    0.6595291    -7.311205    342.48404   0.01960188  0.018945777           16 
 1457000   0.67385262   -7.3323809    341.89212  0.019554571  0.018931806           33 
 1458000   0.66627106   -7.3220734    341.75891  0.019533546  0.018917831           32 
 1459000   0.66893151    -7.317489    341.98089  0.019532836    0.0189039           12 
 1460000   0.65332913   -7.3129486     341.7315  0.019505223  0.018889973           16 
 1461000   0.66670575   -7.3324501    341.64085  0.019486701  0.018876034           21 
 1462000   0.67801827   -7.3234971     342.5595  0.019525735  0.018862139           10 
 1463000   0.66976672   -7.3116494    343.10523  0.019543474  0.018848274            7 
 1464000   0.68238518   -7.2969579     342.7931  0.019512358  0.018834433           10 
 1465000   0.67431526   -7.3115034      342.305  0.019471274  0.018820605            7 
 1466000   0.66822097   -7.2861224    342.56518  0.019472782  0.018806804           12 
 1467000   0.66811865    -7.285672     342.6644  0.019465144  0.018793083           13 
 1468000   0.65407744   -7.3164391    342.10545  0.019420155  0.018779298           27 
 1469000   0.68187249    -7.310154    341.95996  0.019398682  0.018765522           26 
 1470000   0.67856595   -7.3232611    342.91823  0.019439809  0.018751781           28 
 1471000   0.66702395   -7.3523719    342.99766  0.019431094   0.01873803           21 
 1472000   0.66613655   -7.3398047    342.08441  0.019366192  0.018724237           37 
 1473000    0.6614088   -7.3078271    342.54261  0.019378966  0.018710434           26 
 1474000   0.67009543   -7.3441779    342.40318  0.019357936  0.018696656           13 
 1475000   0.67199297   -7.3161235    342.32772  0.019340549  0.018682856           25 
 1476000   0.66346057   -7.3394614    342.51321  0.019337918    0.0186691           25 
 1477000   0.66205684   -7.3220467    342.12856  0.019303123  0.018655353           40 
 1478000   0.67476779   -7.3361295    342.46851  0.019309231  0.018641609           65 
 1479000   0.66504909   -7.3194804    343.08119  0.019330696  0.018627844           25 
 1480000   0.67308457   -7.3389771    343.06183  0.019316545  0.018614117           22 
 1481000   0.65696831   -7.3384553    342.59462  0.019277212  0.018600367           17 
 1482000   0.65102111   -7.3093181    342.44185  0.019255615  0.018586628           22 
 1483000   0.65832539   -7.3033323    343.82486  0.019320345  0.018572919           17 
 1484000   0.65422266   -7.3385758    342.72693  0.019245672   0.01855925           15 
 1485000   0.66565286   -7.3180673    343.35352  0.019267874   0.01854558           23 
 1486000   0.66293539   -7.3359997    343.54457  0.019265622  0.018531905           16 
 1487000   0.66353985   -7.3267434    342.57374  0.019198259  0.018518285           15 
 1488000   0.66350743   -7.3527344    343.15998  0.019218189  0.018504598           11 
 1489000   0.65627595   -7.3602603    343.22562  0.019208956  0.018490897           21 
 1490000   0.65895758   -7.3166473    341.92753  0.019123464   0.01847721           22 
 1491000   0.65175638   -7.3415174    342.64435  0.019150702   0.01846351           23 
 1492000   0.66649046   -7.3494905    342.64929  0.019138142   0.01844984           28 
 1493000   0.66571042   -7.3487314    342.91902  0.019140378  0.018436162           35 
 1494000   0.64517292   -7.3304442    342.90919  0.019127019  0.018422535           20 
 1495000   0.65929838   -7.3440786    342.51229  0.019092101  0.018408913           34 
 1496000   0.66872058   -7.3431376    342.56409  0.019082224  0.018395307           36 
 1497000   0.64683138    -7.340519    342.60703  0.019071868  0.018381655           43 
 1498000   0.64848613    -7.357849    341.92519  0.019021206  0.018367988           19 
 1499000   0.66093345   -7.3621798    343.02677  0.019069756  0.018354331           75 
 1500000   0.65279196   -7.3612822    343.11174  0.019061763  0.018340765           60 
 1501000   0.65405141   -7.3405094    342.91825  0.019038322  0.018327202           30 
 1502000   0.65576156   -7.3412694    343.94504  0.019082614  0.018313662           31 
 1503000   0.65213243   -7.3403355    343.46041  0.019043048  0.018300162           33 
 1504000   0.65781595   -7.3427786    343.10678  0.019010792  0.018286642           24 
 1505000   0.63661331   -7.3733381    342.92153  0.018987903  0.018273085           28 
 1506000   0.65874192   -7.3602722    343.11321  0.018985902  0.018259521           26 
 1507000   0.65204578   -7.3677741    342.79816  0.018955881  0.018245939           33 
 1508000   0.63928803   -7.3850323    342.67289  0.018936389  0.018232363           58 
 1509000   0.65152421   -7.3501228    342.65144  0.018922655  0.018218827           48 
 1510000   0.64370136   -7.3636384    343.16833   0.01893865  0.018205331           45 
 1511000   0.65407581   -7.3593646    342.95221  0.018914197  0.018191858           30 
 1512000   0.64525971   -7.3705894    343.22446  0.018916692  0.018178396           70 
 1513000   0.65807644   -7.3536408    343.88991  0.018940841  0.018164989           45 
 1514000    0.6564181   -7.3581216     342.7724  0.018866821  0.018151584           53 
 1515000   0.65565974   -7.3395905    342.90942  0.018861905  0.018138158           92 
 1516000   0.65869677   -7.3687759    343.13496   0.01886186  0.018124699           80 
 1517000   0.65816553   -7.3289476    342.90591  0.018836844  0.018111262           78 
 1518000   0.63947154   -7.3671096    343.08617  0.018834331  0.018097818           69 
 1519000   0.65267898   -7.3727552    343.04957  0.018819924  0.018084354           54 
 1520000   0.64981967   -7.3901985    343.10108  0.018810366  0.018070866           87 
 1521000   0.65045115   -7.3897574    342.73318  0.018777842  0.018057397           58 
 1522000   0.64187359   -7.3695429    342.73322  0.018765507  0.018043922           60 
 1523000   0.64002798   -7.3661566       342.82  0.018757934  0.018030448           84 
 1524000   0.65841712   -7.3517031    342.81087  0.018745126  0.018017031           44 
 1525000   0.65321389   -7.3852895    342.40761  0.018710798  0.018003637           44 
 1526000   0.63444211   -7.3765198     343.4212  0.018753888  0.017990239           64 
 1527000   0.63284548   -7.3788226     343.4001  0.018740455  0.017976899           74 
 1528000   0.64794834   -7.3705234    342.38033  0.018672575   0.01796354           31 
 1529000   0.65763011   -7.3914916    342.17277   0.01864905  0.017950159           72 
 1530000   0.63776506   -7.3777582    342.64262  0.018662452  0.017936767           45 
 1531000    0.6497868   -7.3880103    342.91159  0.018664903  0.017923411           49 
 1532000   0.63864225    -7.400863    343.17705  0.018667159  0.017910043           57 
 1533000    0.6390188   -7.3707023    343.48506  0.018671725  0.017896708           36 
 1534000   0.63095462   -7.3773843    343.73828  0.018673309  0.017883404          101 
 1535000   0.64118425   -7.3589041     343.0984  0.018626406   0.01787013           47 
 1536000   0.63880365   -7.3837376    343.41565  0.018631492  0.017856856           56 
 1537000   0.63777132   -7.3973197    342.97895  0.018595692  0.017843592           46 
 1538000   0.64780652   -7.3626106    343.33979  0.018603153  0.017830304           36 
 1539000   0.64421477   -7.3893472    343.12651  0.018579516  0.017817043           27 
 1540000   0.63303669   -7.4000802    343.08539  0.018565227  0.017803762           43 
 1541000   0.63981237    -7.369709    342.51514  0.018522341  0.017790497           29 
 1542000   0.64007404   -7.3653518    343.22253  0.018548559  0.017777256           40 
 1543000   0.63190784   -7.3593649    343.44525  0.018548566  0.017764045           55 
 1544000   0.63567896    -7.393963    342.79479  0.018501446   0.01775086           26 
 1545000    0.6333934   -7.3701652    343.59311   0.01853253  0.017737638           60 
 1546000   0.63870373   -7.3842569    343.65642  0.018523956  0.017724444           37 
 1547000   0.63119056   -7.3855471    343.85552  0.018522706  0.017711256           37 
 1548000   0.62414302    -7.372584    343.20621  0.018475787  0.017698054           55 
 1549000   0.63086595   -7.3935947    342.94453  0.018449781  0.017684835           64 
 1550000   0.63977167   -7.4142281    343.16579  0.018449773  0.017671643           56 
 1551000   0.64621331   -7.3956186    343.19872  0.018439648  0.017658447           61 
 1552000   0.62284781   -7.3838947      342.952  0.018414519  0.017645253           31 
 1553000   0.63470565   -7.4167281    342.66257  0.018387131  0.017632079           33 
 1554000   0.64480729   -7.3866711    343.86727  0.018439901  0.017618909           63 
 1555000   0.62529805   -7.4174877    342.98753  0.018380896  0.017605727           41 
 1556000   0.62875946   -7.3996841    343.15843  0.018378237  0.017592567           52 
 1557000   0.64773567   -7.3994288     343.5919  0.018389633  0.017579439           40 
 1558000   0.64791994   -7.3767724    343.39347  0.018367216  0.017566299           49 
 1559000   0.64040863   -7.4029861     343.3434  0.018352758   0.01755317           45 
 1560000   0.63247171   -7.3956835    343.20924  0.018333827  0.017540075           32 
 1561000   0.64049689   -7.3990969     344.1479  0.018372192  0.017526972           30 
 1562000   0.62280069   -7.4209116    343.46392   0.01832394  0.017513877           30 
 1563000    0.6390542   -7.3758848    343.04085  0.018289659  0.017500767           28 
 1564000   0.63494264    -7.410836    343.21508  0.018287249  0.017487672           30 
 1565000    0.6239994   -7.3981201    343.53718  0.018292715  0.017474588           39 
 1566000   0.64489952   -7.4010132    343.01218  0.018253096  0.017461491           31 
 1567000   0.64384541    -7.399983    342.82612  0.018231553  0.017448397           19 
 1568000   0.62313957   -7.4179348    343.26462   0.01824323  0.017435301           26 
 1569000   0.63334673   -7.3976866    342.85829  0.018210022  0.017422198           27 
 1570000   0.63198029   -7.4172557    343.58327  0.018236904  0.017409074           23 
 1571000   0.62352184   -7.4375209    342.92404  0.018190327  0.017395956           29 
 1572000   0.62868492    -7.439486    343.43321  0.018205747  0.017382849           35 
 1573000   0.62047805    -7.420835    343.03658  0.018173161  0.017369737           47 
 1574000   0.61723735   -7.4273171    343.34258  0.018177815  0.017356623           30 
 1575000   0.62774412   -7.4313604    342.18848  0.018105211   0.01734355           39 
 1576000   0.62582912   -7.4438829    342.02461  0.018085057  0.017330465           26 
 1577000    0.6127757   -7.4046085    343.87411  0.018171323  0.017317408           28 
 1578000   0.62351897   -7.4264112    342.53962  0.018089334  0.017304374           29 
 1579000   0.59796916   -7.4096497    343.02419  0.018103451  0.017291334           38 
 1580000   0.63310217   -7.4297543    343.59555  0.018122128  0.017278306           27 
 1581000   0.61643144   -7.4239736    342.48715  0.018052243  0.017265283           75 
 1582000   0.62254311   -7.4422741    342.41332  0.018036943  0.017252268           50 
 1583000   0.61430683   -7.4336679    343.07645  0.018060457  0.017239232           35 
 1584000   0.61935478   -7.4133358    342.66174  0.018027238  0.017226249           43 
 1585000   0.62807237   -7.4123486    343.07765  0.018037731  0.017213264           44 
 1586000   0.61725787   -7.3987022    343.35174   0.01804076  0.017200281           21 
 1587000   0.62575927   -7.4138905    343.52834  0.018038665  0.017187313           54 
 1588000   0.61796644   -7.4271177    343.04973   0.01800219  0.017174366           33 
 1589000   0.62362453   -7.4050137    342.69827  0.017972429  0.017161399           14 
 1590000   0.61797207   -7.3973043    343.17471  0.017986096  0.017148476           23 
 1591000   0.62532296   -7.4372751    343.69488  0.018002037  0.017135568           25 
 1592000   0.60908364   -7.4239289    342.82181  0.017945028  0.017122662           19 
 1593000   0.62093901   -7.4285342    343.09546  0.017948078  0.017109744           21 
 1594000   0.63041521   -7.4253828    342.89407   0.01792629  0.017096851           31 
 1595000   0.61342546   -7.4102088    343.03719  0.017922528  0.017083947           41 
 1596000   0.62022182   -7.4063859    342.79907  0.017898865  0.017071072           21 
 1597000   0.62740026   -7.4226513    343.09584  0.017903143   0.01705818           26 
 1598000   0.61281719   -7.4199788    343.30335  0.017902761  0.017045292           20 
 1599000   0.60923691   -7.4376923    342.54128  0.017851849  0.017032432           34 
 1600000    0.6247394   -7.4332449    343.19378  0.017874676  0.017019554           23 
 1601000   0.60747034   -7.4234153    343.20713  0.017864206  0.017006742           45 
 1602000   0.60886048   -7.4106139    343.35919  0.017860965   0.01699395           20 
 1603000   0.61008873   -7.4308114    342.87837  0.017824827  0.016981141           37 
 1604000   0.62606215   -7.4493596    343.23905  0.017832453  0.016968321           52 
 1605000   0.62595611   -7.4321848    343.03737   0.01781087  0.016955512           31 
 1606000   0.61982386   -7.4379827    343.41562  0.017819408  0.016942699           28 
 1607000   0.61660624   -7.4428807    342.75542  0.017774083  0.016929892           34 
 1608000   0.61543888   -7.4350389    342.72972  0.017761698  0.016917055           41 
 1609000   0.60663294   -7.4286519    342.90874  0.017759931  0.016904251           30 
 1610000   0.62360394   -7.4601643    343.03606   0.01775549  0.016891433           23 
 1611000   0.59829555   -7.4153071    342.78153  0.017731302  0.016878633           28 
 1612000    0.6185626   -7.4470054    342.97145   0.01773012  0.016865856           17 
 1613000   0.61952073   -7.4303376    342.95913  0.017718492  0.016853102           25 
 1614000   0.61041659   -7.4469825    343.22922  0.017721459  0.016840336           31 
 1615000    0.6086533   -7.4482465    343.46036  0.017722413  0.016827614           21 
 1616000   0.60599018    -7.420605     343.2076  0.017698412   0.01681489           17 
 1617000   0.60109782   -7.4171396    343.16021  0.017685024  0.016802202           25 
 1618000    0.6089049    -7.444351    342.20651  0.017624975  0.016789499           13 
 1619000   0.60781628   -7.4526664    343.03087   0.01765652  0.016776782           19 
 1620000   0.61588716   -7.4205146    342.94808  0.017641362   0.01676409           16 
 1621000   0.61183327   -7.4372912    343.28083  0.017647585  0.016751391           19 
 1622000   0.59492188   -7.4426892     343.1466  0.017629809   0.01673871           23 
 1623000   0.60108939   -7.4471541    342.99568  0.017611197  0.016726001           27 
 1624000   0.60391309   -7.4522232    342.36938  0.017568215  0.016713294           33 
 1625000   0.59750888   -7.4628999    342.91421  0.017585344  0.016700589           36 
 1626000   0.61386014   -7.4455771    342.83472  0.017570455  0.016687904           18 
 1627000   0.59964449   -7.4421046    342.60056  0.017547663  0.016675226           17 
 1628000   0.60860991   -7.4390095    342.97923  0.017556267  0.016662565           16 
 1629000   0.59632419    -7.432426     342.9189  0.017542403  0.016649899           23 
 1630000   0.61060859   -7.4451244    342.47458  0.017508925   0.01663723           26 
 1631000   0.59582675   -7.4567439    342.93241  0.017521582   0.01662456           25 
 1632000   0.61069379   -7.4522657    342.74216  0.017501131   0.01661191           21 
 1633000   0.59766868   -7.4611418    342.40541   0.01747323  0.016599249           21 
 1634000   0.58907727   -7.4498231    342.89294    0.0174874   0.01658659           33 
 1635000   0.60352445    -7.449427     342.1834   0.01744054  0.016573974           33 
 1636000   0.60439084   -7.4697562    342.55024  0.017448566  0.016561354           25 
 1637000   0.59960421    -7.459115    342.49773  0.017435234   0.01654874           19 
 1638000   0.60124581   -7.4553778    343.45284  0.017473181  0.016536114           24 
 1639000   0.60261588   -7.4667591    343.11685  0.017445437  0.016523512           42 
 1640000   0.59152444   -7.4549267    342.70139  0.017413688  0.016510922           52 
 1641000   0.60352439   -7.4618085    342.60642  0.017398254  0.016498324           34 
 1642000   0.59521342   -7.4765468    341.93376   0.01735352  0.016485706           27 
 1643000   0.60228495   -7.4818392    342.54916  0.017374171  0.016473109           22 
 1644000   0.59384587   -7.4725606    342.61958  0.017367173  0.016460524           30 
 1645000    0.5902036   -7.4736825    342.49908  0.017350511  0.016447954           24 
 1646000   0.58960363   -7.4755258    341.92468  0.017310889  0.016435373           26 
 1647000   0.59142114   -7.5045683    342.04937  0.017306687  0.016422792           19 
 1648000   0.59181606   -7.4812476    341.65615  0.017276302  0.016410229           29 
 1649000   0.59867017    -7.466751    342.75949  0.017321583  0.016397666           26 
 1650000   0.59573457   -7.4872732    342.15979  0.017280798  0.016385129           50 
 1651000   0.59083972   -7.4881261    343.03223  0.017314367   0.01637259           34 
 1652000   0.58599766   -7.4873401    342.53538  0.017278823  0.016360059           23 
 1653000   0.58486362   -7.4737663    343.12597  0.017298143  0.016347547           33 
 1654000    0.5842475   -7.4745783    342.54658  0.017258493  0.016335058           37 
 1655000   0.59632438   -7.4912067    343.09555  0.017275707  0.016322577           33 
 1656000   0.60170139   -7.4747763    342.92747  0.017256817   0.01631008           29 
 1657000   0.59591565   -7.4921875    342.52507  0.017226165  0.016297601           42 
 1658000   0.58854218   -7.4690454    342.41067  0.017210026  0.016285141           25 
 1659000    0.5865682   -7.4712003    342.18271  0.017188201  0.016272682           38 
 1660000   0.58907988   -7.4542522    342.83806  0.017210746  0.016260229           47 
 1661000   0.58751636   -7.4770121    342.15995  0.017166363  0.016247805           53 
 1662000   0.59537821   -7.5003773    343.03901  0.017200111  0.016235366           43 
 1663000    0.5869612   -7.4830826    342.59774  0.017167656  0.016222961           63 
 1664000   0.59216197   -7.4684243    342.04462  0.017129638  0.016210562           44 
 1665000   0.56993956   -7.4711415    342.67961  0.017151132  0.016198155           58 
 1666000   0.58499587   -7.4697956     341.9794  0.017105812  0.016185743           42 
 1667000   0.58703333    -7.497661     342.3814  0.017115647  0.016173366           53 
 1668000   0.58333389   -7.4726564    342.48002  0.017110313  0.016160998           43 
 1669000   0.59487949   -7.4934667    341.95148  0.017073671  0.016148626          102 
 1670000   0.58316373   -7.4965235    342.58831  0.017095225  0.016136276           97 
 1671000   0.58323917    -7.498603    342.41316   0.01707626  0.016123953           46 
 1672000   0.58242952   -7.4877209    342.56416  0.017073572  0.016111639           84 
 1673000   0.58207313   -7.4761032     343.4616  0.017108069  0.016099341           80 
 1674000   0.58390877   -7.4877247    343.12424  0.017081056  0.016087051           33 
 1675000   0.58458533   -7.4912361    343.02341  0.017065841  0.016074759           51 
 1676000   0.58069641   -7.4959466    342.15998  0.017012728  0.016062447           67 
 1677000   0.56242353   -7.5084383    342.34785  0.017011918  0.016050115           67 
 1678000   0.58814612   -7.4870385    342.32234  0.017000513  0.016037822           62 
 1679000   0.57352159   -7.5031785    342.34947  0.016991735  0.016025543           72 
 1680000    0.5707957    -7.482812    342.00555  0.016964561  0.016013254           57 
 1681000   0.58122085   -7.5025882    342.23766  0.016965976   0.01600099           85 
 1682000   0.57559589   -7.4991169    341.78509  0.016933467  0.015988709           59 
 1683000   0.58750223   -7.4815386    342.19474  0.016943689  0.015976459           76 
 1684000   0.60144574   -7.4866485    342.17208  0.016932506   0.01596421           64 
 1685000   0.57711976   -7.4893399    342.87262  0.016957103  0.015951986           63 
 1686000   0.57675532   -7.5028335    342.22583  0.016915077  0.015939755           84 
 1687000   0.58002152   -7.4870004    342.88431  0.016937577  0.015927548          103 
 1688000   0.57989201   -7.4914938    341.98634  0.016883212  0.015915344          111 
 1689000   0.58064055   -7.4977548    342.23893  0.016885678  0.015903117           74 
 1690000   0.56448534   -7.5063928    341.81563  0.016854814  0.015890901           87 
 1691000   0.57680256   -7.4977498    341.73008  0.016840631  0.015878734           64 
 1692000   0.57394966   -7.5125639    342.45647  0.016866453  0.015866557           63 
 1693000   0.57021304   -7.4995948     342.2455  0.016846106   0.01585438          131 
 1694000   0.57534721   -7.4921764    342.10744   0.01682937  0.015842216          100 
 1695000   0.57717723    -7.501753    342.40261  0.016833953  0.015830066           86 
 1696000   0.57697881   -7.5089693    342.40834  0.016824309  0.015817926           69 
 1697000   0.57376042    -7.498989    342.15658  0.016802032  0.015805798          100 
 1698000   0.57250909   -7.5209317    341.94597  0.016781801  0.015793695           94 
 1699000   0.56988596   -7.5202076    341.87421  0.016768403  0.015781585           83 
 1700000    0.5841387   -7.5242057    342.25867  0.016777386  0.015769486           49 
 1701000   0.59152859    -7.505803    341.91483  0.016750678  0.015757398           77 
 1702000   0.56788558   -7.5304671    342.22375  0.016755961  0.015745319          128 
 1703000   0.57478645   -7.5137324    341.49257  0.016710343   0.01573324          118 
 1704000   0.57223147   -7.5091341    342.43304   0.01674653  0.015721158          108 
 1705000   0.57354894   -7.5220892    342.04478  0.016717731  0.015709105           86 
 1706000   0.57952547   -7.5345329    342.24739  0.016717829  0.015697065          152 
 1707000   0.58043402   -7.5132049    342.25136  0.016708229  0.015685038          203 
 1708000    0.5848535   -7.5202427    342.10367  0.016691241  0.015673007           75 
 1709000   0.57215077   -7.5055206    342.50983  0.016701279  0.015661018          101 
 1710000    0.5792211   -7.5400337    342.52127   0.01669207  0.015649021          120 
 1711000    0.5694726   -7.5256979    342.31786  0.016672407  0.015637011           89 
 1712000   0.56489663   -7.5061473    341.71987  0.016633561  0.015625005           68 
 1713000   0.57053349   -7.5437591    342.83025  0.016677868  0.015613022           65 
 1714000   0.58084626   -7.5181358    342.09378  0.016632331  0.015601054          130 
 1715000   0.55759894   -7.5375179     341.7572  0.016606278  0.015589083           72 
 1716000   0.56866583   -7.5301238    342.31423  0.016623651  0.015577115           58 
 1717000   0.56422239   -7.5232745    342.34708  0.016615564  0.015565165           99 
 1718000   0.56413706   -7.5476937    342.36565  0.016606793  0.015553217          155 
 1719000   0.55173439   -7.5359007    342.46667   0.01660203  0.015541279           94 
 1720000   0.56393278   -7.5221279    342.40236  0.016589261  0.015529352           72 
 1721000   0.56244708   -7.5202664    342.01146  0.016560694  0.015517439           81 
 1722000   0.56816774   -7.5395651    341.85238  0.016543379  0.015505544           95 
 1723000   0.55555119   -7.5293566    341.87031  0.016534644  0.015493651          111 
 1724000   0.56680692   -7.5172395    342.21334  0.016541635  0.015481736          172 
 1725000   0.55497026   -7.5412942    342.61336   0.01655137  0.015469852           46 
 1726000   0.57765437   -7.5399751    341.33669  0.016480141  0.015457961           83 
 1727000   0.55361729   -7.5486574    341.79834  0.016492875  0.015446067           99 
 1728000   0.56281982   -7.5357645     341.8206  0.016484404  0.015434217          133 
 1729000   0.55630177   -7.5353405    342.26185  0.016496137  0.015422347           74 
 1730000   0.57034103   -7.5439965     342.4817  0.016497192  0.015410508           85 
 1731000   0.57442439   -7.5347066    341.87934  0.016458662  0.015398655          114 
 1732000    0.5665415   -7.5460747    341.87347  0.016448878  0.015386822           74 
 1733000   0.55765386   -7.5570883      341.678  0.016429987  0.015374979          146 
 1734000   0.56099931   -7.5495087    341.92438  0.016432352  0.015363147           99 
 1735000   0.55319994   -7.5463795    341.90597  0.016421997  0.015351348           74 
 1736000    0.5621772   -7.5331038    341.72653  0.016403923  0.015339536          125 
 1737000   0.55568057   -7.5395541    341.71097  0.016393733  0.015327748           70 
 1738000   0.55598006   -7.5486898    341.44615  0.016371603  0.015315954           60 
 1739000   0.54384745   -7.5632743      341.251  0.016352837  0.015304159          139 
 1740000   0.56140476   -7.5494874    341.62516  0.016361358  0.015292383           86 
 1741000   0.56477819    -7.558591    342.07401  0.016373445  0.015280625           77 
 1742000   0.57030226   -7.5530722    342.28582  0.016374178  0.015268869          107 
 1743000   0.56259476   -7.5735632    342.10662  0.016356216   0.01525712           84 
 1744000    0.5615926   -7.5329513    342.42126  0.016361872  0.015245379           70 
 1745000   0.56735443   -7.5567241    341.86661  0.016326008  0.015233651           62 
 1746000   0.55445925   -7.5634129    341.42139  0.016295408  0.015221954           63 
 1747000   0.55558102   -7.5386729    341.77251  0.016302829  0.015210253           86 
 1748000   0.55325933   -7.5626973    342.03269  0.016305906  0.015198548           73 
 1749000   0.56477962   -7.5578472     342.1777  0.016303492  0.015186851           86 
 1750000   0.55342308   -7.5527485    341.06314  0.016241102  0.015175171           62 
 1751000   0.55515378   -7.5384211     341.8399  0.016268794  0.015163483           85 
 1752000   0.55160733   -7.5487331    342.11837  0.016272753  0.015151816          148 
 1753000   0.54742172   -7.5471913    341.29208  0.016224191  0.015140153           74 
 1754000   0.54402686   -7.5532538    341.47867  0.016223806  0.015128474           76 
 1755000   0.55361874   -7.5681386    341.27766  0.016205017  0.015116806           72 
 1756000   0.55445263   -7.5762804    341.09912  0.016187316  0.015105121           72 
 1757000    0.5509134   -7.5567654    341.56499  0.016200199  0.015093473           65 
 1758000     0.556171   -7.5626955    341.56281   0.01619088  0.015081837           87 
 1759000   0.56209662   -7.5736325    341.82298  0.016194001  0.015070199          150 
 1760000   0.53989766   -7.5545214    341.85102  0.016186128  0.015058559           75 
 1761000   0.55632348   -7.5698909    341.72002  0.016170737   0.01504692           72 
 1762000   0.53906845    -7.565576    341.18272  0.016136148  0.015035298           72 
 1763000   0.55410006   -7.5757106    341.09918  0.016123047  0.015023688           71 
 1764000    0.5362129   -7.5552707    341.09052  0.016113498  0.015012089           68 
 1765000   0.54082809   -7.5753261    341.10489  0.016105047    0.0150005           78 
 1766000    0.5581118   -7.5734926    341.45351  0.016112378  0.014988907           58 
 1767000   0.54746857   -7.5837209     341.5596  0.016108263  0.014977322           74 
 1768000    0.5393014   -7.5611704    341.81242  0.016111068  0.014965768           74 
 1769000   0.53689681   -7.5773893    341.62917  0.016093328  0.014954217           67 
 1770000   0.54854805   -7.5458885    341.09364  0.016059023  0.014942674           69 
 1771000   0.54626258    -7.577921    341.50697  0.016069404  0.014931153           74 
 1772000   0.54230733   -7.5747007    341.38826  0.016054753  0.014919623           68 
 1773000   0.54882558   -7.5644675     340.7468  0.016015548  0.014908096           67 
 1774000   0.55362878   -7.5597098    341.60045   0.01604662  0.014896592           75 
 1775000   0.54994904    -7.589163    341.64617  0.016039726  0.014885109           50 
 1776000   0.55914543   -7.5687795    340.81669  0.015991774  0.014873611           88 
 1777000   0.54677372    -7.566496    341.17759  0.015999699  0.014862113           75 
 1778000   0.54064853   -7.5781032    340.72157  0.015969328  0.014850628           71 
 1779000   0.52674039   -7.5963822    340.97195  0.015972079  0.014839171           72 
 1780000   0.54955281   -7.5728741    341.25344  0.015976285  0.014827715          125 
 1781000   0.55407397   -7.5912891    341.37765  0.015973126  0.014816257           81 
 1782000   0.54105102   -7.5863109    341.48906  0.015969373  0.014804819           64 
 1783000   0.53996262   -7.5690332    341.50094  0.015960971  0.014793397           58 
 1784000   0.53928705   -7.5755843    341.17975  0.015937021  0.014781983           84 
 1785000   0.53728466    -7.571344    341.32357  0.015934807  0.014770581           79 
 1786000   0.53829886   -7.5719255    340.86666  0.015904566  0.014759184           86 
 1787000   0.54089143   -7.5722077    341.35934  0.015918641  0.014747797          130 
 1788000   0.53582612   -7.5929523    340.95832  0.015891048  0.014736421           85 
 1789000   0.54297909   -7.5834472    341.35743  0.015900756  0.014725049           92 
 1790000   0.53538033   -7.5724291    341.02752  0.015876514  0.014713702           96 
 1791000   0.53748085   -7.5732425    340.87756  0.015860672   0.01470237          122 
 1792000   0.54626547   -7.5782748    341.79355  0.015894418  0.014691049          102 
 1793000   0.53577889   -7.5710211    341.46463  0.015870265  0.014679738           91 
 1794000   0.53202133   -7.5921163    340.74276  0.015827887  0.014668429           88 
 1795000   0.54320673   -7.5762609    341.67521  0.015862359  0.014657117          117 
 1796000   0.53434839   -7.5907197    341.24606  0.015833615  0.014645823           92 
 1797000   0.53785162   -7.5903945    340.71748  0.015800291  0.014634549          103 
 1798000   0.53172422   -7.6032092    341.10858   0.01580963  0.014623276          106 
 1799000   0.52713217   -7.5946419    341.43687  0.015816049  0.014612023          191 
 1800000   0.52204298   -7.5807033    341.93008  0.015830096  0.014600783           75 
 1801000   0.52779343   -7.5842223    340.99013  0.015777815  0.014589538          138 
 1802000     0.538419   -7.5907556    340.85474  0.015762798  0.014578287          112 
 1803000   0.53966757   -7.5793582    341.07587  0.015764276   0.01456707          107 
 1804000   0.51446451   -7.5780457    340.78429  0.015742068  0.014555839           90 
 1805000   0.52461948   -7.5889657    341.08524  0.015747241  0.014544623          133 
 1806000   0.53125932    -7.573989    341.40006  0.015753048  0.014533437          107 
 1807000   0.53572479   -7.5902836    341.82631  0.015763988  0.014522258          111 
 1808000   0.52373593   -7.5890524    341.37581  0.015734504  0.014511094           84 
 1809000   0.54085187    -7.592989    341.21536  0.015718415  0.014499917          106 
 1810000   0.53388216   -7.5965406    341.16673  0.015707492  0.014488772          127 
 1811000   0.52885966   -7.6040018     340.6015   0.01567281  0.014477607          122 
 1812000   0.52085979   -7.5939583    341.34021  0.015698133  0.014466452           74 
 1813000   0.53259869   -7.5956415     341.7438  0.015708025  0.014455333          176 
 1814000   0.52441352   -7.6072049    340.61708  0.015647606    0.0144442           90 
 1815000   0.52612864   -7.5706137    340.56737  0.015636702  0.014433079          115 
 1816000   0.52437593   -7.5806689    341.17984  0.015656197  0.014421961          183 
 1817000    0.5393719   -7.6242645    340.78555  0.015629497  0.014410867           77 
 1818000   0.52740712   -7.6064698      341.344  0.015646498  0.014399781          163 
 1819000   0.53507912   -7.6065462    341.42442   0.01564158  0.014388694           84 
 1820000   0.52998913    -7.588793     341.2254  0.015623874  0.014377616           99 
 1821000   0.53270543   -7.5941095    341.20569  0.015614392  0.014366542          221 
 1822000   0.51769667   -7.6007722    340.56902  0.015576702  0.014355472          180 
 1823000   0.53468614   -7.6112134    341.30273  0.015601697  0.014344416          134 
 1824000   0.52979844    -7.596676    341.16925  0.015587045  0.014333369          157 
 1825000    0.5146877   -7.6084959    340.92874  0.015567522  0.014322335          165 
 1826000   0.52780587   -7.6178812    340.69076  0.015548136  0.014311293          281 
 1827000   0.52244782   -7.6146223    340.89721  0.015549043  0.014300265          170 
 1828000   0.52618843   -7.6057915    340.78906  0.015535606  0.014289249          284 
 1829000   0.52746026   -7.6205977    340.37715  0.015508345  0.014278242          210 
 1830000   0.54007995   -7.6088057    341.47355  0.015549797  0.014267242          160 
 1831000   0.51457378   -7.6226145    341.09813  0.015524219   0.01425626          196 
 1832000   0.50592324   -7.6079989    340.96795  0.015509823  0.014245279          169 
 1833000   0.52180209   -7.6368858    341.23014  0.015513282  0.014234304          211 
 1834000   0.51949476   -7.6184662    340.61614  0.015476924  0.014223342          277 
 1835000   0.52764526   -7.6084927    341.39676   0.01550394  0.014212397          200 
 1836000   0.53187011   -7.6323638    340.50929  0.015455215  0.014201469          277 
 1837000   0.52301483   -7.6294072    340.85945  0.015462686  0.014190539          298 
 1838000    0.5190803   -7.6088367    340.90322  0.015456258  0.014179624          177 
 1839000   0.51579637   -7.6249049    341.00557  0.015452491  0.014168704          174 
 1840000   0.52375153   -7.6221097    341.02543  0.015444992  0.014157815          223 
 1841000   0.51449126   -7.5982171    340.80605  0.015426673  0.014146917          207 
 1842000   0.52723277    -7.609889    340.56355  0.015407327  0.014136019           92 
 1843000    0.5166108   -7.6121547    340.61786  0.015401422  0.014125131          148 
 1844000   0.51876205   -7.6280482    340.74803  0.015398953  0.014114268          198 
 1845000   0.52554536   -7.6194784    340.67274  0.015387206  0.014103413          174 
 1846000   0.50913535   -7.6265953    341.10947  0.015398586  0.014092553          239 
 1847000   0.52502988   -7.6151454    340.45099  0.015360539  0.014081701          191 
 1848000   0.51387269   -7.6336071    340.14591   0.01533847   0.01407086          162 
 1849000   0.51196638   -7.6376667    340.85126  0.015361964  0.014060038          136 
 1850000   0.51267285   -7.6282542    340.82938  0.015352675  0.014049211          192 
 1851000   0.51021166   -7.6256284    340.31255  0.015321113  0.014038392          178 
 1852000   0.51729441    -7.632785    340.89873  0.015339216  0.014027591          154 
 1853000   0.52537698    -7.622903    340.52442  0.015314104  0.014016792          198 
 1854000   0.50044661   -7.6204747    340.51849  0.015305577  0.014005996           87 
 1855000   0.50764724   -7.6298021    340.08374  0.015277796  0.013995216          139 
 1856000   0.51559419   -7.6417918    340.17161   0.01527351  0.013984445          131 
 1857000   0.51659601   -7.6354531    340.17611  0.015265487   0.01397367          195 
 1858000    0.5211214   -7.6347666    340.63264  0.015277747  0.013962916          177 
 1859000   0.51382351   -7.6449999    340.42316  0.015260138  0.013952162          165 
 1860000   0.52089928   -7.6319189    340.28811  0.015245883  0.013941418          139 
 1861000   0.49736451   -7.6299112    340.46308  0.015245526  0.013930679          209 
 1862000   0.50711568   -7.6387635    340.76836  0.015251001  0.013919935          204 
 1863000   0.51068235   -7.6530529    340.62033  0.015236193  0.013909211          157 
 1864000   0.50946009   -7.6437915    340.59822   0.01522703  0.013898502          183 
 1865000   0.51150672    -7.641589    340.55336  0.015216861  0.013887783          309 
 1866000   0.51650161   -7.6379907    339.95887  0.015182158  0.013877089          152 
 1867000   0.49458553   -7.6448466    340.25661  0.015187315  0.013866388          180 
 1868000   0.50990144   -7.6424447    339.98536  0.015167084   0.01385571          150 
 1869000   0.49894597   -7.6556668    340.09649  0.015163924  0.013845038          188 
 1870000   0.50996445   -7.6443684    340.36793  0.015167912  0.013834376          141 
 1871000   0.50922657   -7.6444089    340.98224  0.015187165  0.013823728          233 
 1872000   0.50234611   -7.6301458    340.48473  0.015156906  0.013813081          152 
 1873000   0.51034069   -7.6457776    340.32059  0.015141511  0.013802446          332 
 1874000   0.49479405    -7.643968    340.31217  0.015133056   0.01379181          155 
 1875000   0.50864481   -7.6532413    340.24747   0.01512211  0.013781171          310 
 1876000   0.49824731   -7.6649302    340.44929  0.015123014  0.013770549          158 
 1877000   0.51640251   -7.6476749    340.28134    0.0151075  0.013759954          182 
 1878000   0.50095721   -7.6509439    340.05097  0.015089234  0.013749369          177 
 1879000    0.5096183   -7.6284019     340.0759  0.015082309  0.013738793          110 
 1880000   0.49659537   -7.6524304    340.31771  0.015085005  0.013728207          164 
 1881000   0.49578551   -7.6460829    340.15528  0.015069789  0.013717627          154 
 1882000   0.49760412   -7.6560537     340.4462  0.015074664   0.01370706          212 
 1883000   0.51396341   -7.6571347    340.07716  0.015050326    0.0136965          164 
 1884000   0.49997383   -7.6532125    339.76723  0.015028628  0.013685946          175 
 1885000   0.49963034   -7.6438227    340.10566  0.015035617  0.013675402          157 
 1886000   0.48903055   -7.6687782    340.27975  0.015035337  0.013664865          212 
 1887000   0.49112965   -7.6429653    339.86032  0.015008846  0.013654335          261 
 1888000   0.50645997   -7.6620547    339.96747  0.015005626  0.013643827          220 
 1889000   0.48801883   -7.6443302    340.29936  0.015012324  0.013633323          271 
 1890000   0.50030359   -7.6359721    339.66575  0.014976444  0.013622843          125 
 1891000   0.50065991   -7.6583711    340.50184  0.015005369  0.013612373          166 
 1892000   0.49309135   -7.6406698    340.17357   0.01498298   0.01360191          287 
 1893000   0.49851491   -7.6645173    340.54707  0.014991507  0.013591448          329 
 1894000    0.4912458   -7.6411224    340.08753  0.014963373  0.013580996          169 
 1895000     0.501299   -7.6569025    340.01146  0.014952131  0.013570558           98 
 1896000   0.50268614   -7.6558528    340.78375  0.014978189  0.013560134          198 
 1897000   0.49327262   -7.6599353    340.00663  0.014936155  0.013549698          224 
 1898000   0.49340756   -7.6542014    340.35785  0.014943706  0.013539279          235 
 1899000   0.50391113   -7.6813319    339.60203  0.014902669  0.013528876          157 
 1900000   0.49393037   -7.6653485    340.51305  0.014934783  0.013518477          143 
 1901000   0.49088592   -7.6692335    340.23644  0.014914801  0.013508081          300 
 1902000   0.49253797   -7.6521714    339.79819  0.014887758  0.013497701          135 
 1903000   0.50140361   -7.6526525    340.72498  0.014920519  0.013487331          169 
 1904000   0.49169866   -7.6479321     339.4976  0.014858964  0.013476973           84 
 1905000   0.49169437   -7.6765489    339.80517  0.014864618  0.013466608          221 
 1906000   0.49276118    -7.660471    340.14569  0.014871707  0.013456259          151 
 1907000   0.49347031    -7.663733    339.92068  0.014854076  0.013445917          341 
 1908000   0.49087383   -7.6617536     339.4548  0.014825944  0.013435586          150 
 1909000   0.48810565   -7.6597482     339.7011  0.014828929  0.013425261          194 
 1910000   0.48546235   -7.6633961    339.76797  0.014824082  0.013414946          157 
 1911000   0.48611409   -7.6721218    340.04539  0.014828423  0.013404645          164 
 1912000   0.48246693   -7.6664424     339.9348  0.014815847  0.013394351          215 
 1913000   0.48252485   -7.6530426    340.27962  0.014823123  0.013384072          224 
 1914000   0.48106567   -7.6585526    340.37212  0.014819406  0.013373794          198 
 1915000   0.50032886   -7.6633506    339.04454  0.014753896  0.013363528          190 
 1916000   0.48347801   -7.6752003    339.74149  0.014776509  0.013353256          155 
 1917000   0.49163498   -7.6762355    339.72201  0.014767954  0.013343003          139 
 1918000   0.48422113   -7.6804581    339.91371  0.014768583  0.013332762          165 
 1919000   0.48333882   -7.6692946    339.83851  0.014757622  0.013322521          228 
 1920000   0.48910348   -7.6776499    339.67105  0.014742667  0.013312294          117 
 1921000   0.48592706   -7.6640435    340.17355  0.014756791   0.01330207          172 
 1922000   0.48385924    -7.658582    339.77596  0.014731875  0.013291861          158 
 1923000   0.48765246   -7.6916191    339.43315  0.014709358  0.013281654          177 
 1924000   0.49305494   -7.6851193    339.82799  0.014718815  0.013271457          192 
 1925000   0.48899076   -7.6637349    340.13634  0.014724517  0.013261276          224 
 1926000   0.48228804   -7.6588005    339.85679  0.014704776  0.013251115          100 
 1927000   0.48152657    -7.674832    340.06891  0.014706319  0.013240973          147 
 1928000   0.47688382   -7.6723569    340.02415  0.014696756  0.013230817          157 
 1929000   0.49432798   -7.6903953    339.85756  0.014681941  0.013220681          143 
 1930000    0.4719677   -7.6718712    339.75443  0.014669881  0.013210554          247 
 1931000   0.47620937   -7.6790977    339.85772  0.014666741  0.013200424          185 
 1932000   0.47112495   -7.6787449    339.25882  0.014633317  0.013190307          163 
 1933000   0.49448016   -7.6637499    339.88358  0.014652681  0.013180196          103 
 1934000   0.47144287   -7.6643828    339.20188  0.014615731  0.013170098          155 
 1935000   0.48195512   -7.6951036    340.12279  0.014647838  0.013160006          155 
 1936000    0.4873349   -7.6671002    339.76956  0.014625067  0.013149932          222 
 1937000   0.48787907   -7.6716788    339.61857  0.014611021  0.013139851          190 
 1938000   0.47010055   -7.6989133    339.57955  0.014601804  0.013129783          187 
 1939000   0.46865754   -7.6606217      340.016  0.014613031  0.013119729          177 
 1940000   0.46658223   -7.6870552    340.28664  0.014617124  0.013109683          162 
 1941000   0.47577057    -7.678474    339.38154  0.014570734  0.013099645          189 
 1942000   0.47790777    -7.672466    339.59194   0.01457226  0.013089612          342 
 1943000   0.47874271   -7.6964468    339.72863  0.014570622  0.013079589          145 
 1944000   0.47795274   -7.6884015    339.14176   0.01453797  0.013069571          219 
 1945000   0.47937796   -7.6883108     339.7349  0.014555908  0.013059569          160 
 1946000   0.47882917   -7.6918476    339.84295  0.014553055  0.013049569          233 
 1947000   0.47837809   -7.6675126    339.19118  0.014517684  0.013039582          101 
 1948000   0.47059367   -7.6762992    339.60445  0.014527911  0.013029601          255 
 1949000   0.46825335   -7.6623826    339.23461  0.014504644  0.013019631           93 
 1950000   0.47155935   -7.6765202    339.46157  0.014506905  0.013009667          202 
 1951000   0.47435847   -7.6966829    339.32716  0.014493728  0.012999702          210 
 1952000   0.47237244   -7.6792246    339.53905  0.014495349  0.012989747          198 
 1953000   0.48159978   -7.7025845    339.17401  0.014472351  0.012979812          157 
 1954000   0.47225685   -7.6891766    339.74762  0.014489407  0.012969882          147 
 1955000   0.47538421   -7.6617571    339.53842  0.014473079   0.01295997          241 
 1956000   0.47642828   -7.6937919    339.07083  0.014445758  0.012950057          140 
 1957000   0.47660381   -7.6974779    339.21901  0.014444686  0.012940147          138 
 1958000   0.47473303   -7.6910257    338.92247  0.014424688  0.012930247          104 
 1959000   0.47446186   -7.6998386    339.23019  0.014430415  0.012920347          205 
 1960000   0.46539836   -7.6996383    339.47799  0.014433588  0.012910457          251 
 1961000   0.47453441    -7.696213    339.53215  0.014428529  0.012900585          178 
 1962000    0.4741978   -7.6959274    339.02882  0.014399797  0.012890707          285 
 1963000   0.46903752   -7.7022177    339.27711  0.014403002  0.012880851          189 
 1964000   0.47407581   -7.6967924    338.92955  0.014380921  0.012871003          297 
 1965000   0.47305547   -7.6887588    339.08653   0.01438026  0.012861156          299 
 1966000   0.46521843   -7.7127984    339.41636  0.014386926   0.01285132          260 
 1967000   0.46614503   -7.6876844    339.29261  0.014374369  0.012841498          281 
 1968000   0.46064204     -7.68456    339.61625  0.014380769  0.012831705          164 
 1969000   0.46618296   -7.6893062    339.85048  0.014383379  0.012821914          137 
 1970000   0.46643944   -7.7089035    339.05513  0.014342433  0.012812126          203 
 1971000   0.44599016   -7.6992748      339.177   0.01434031  0.012802347          295 
 1972000   0.46967509   -7.7077189    339.64482  0.014352807  0.012792577          172 
 1973000   0.45854111   -7.6892121    339.35758    0.0143334  0.012782812          154 
 1974000   0.45521502   -7.7166176    339.23951  0.014321155  0.012773058          259 
 1975000   0.46934521   -7.6998082    338.85173  0.014297541  0.012763312          126 
 1976000   0.46122729   -7.7118397    339.87798  0.014333586  0.012753572          168 
 1977000   0.45585613   -7.7170056    338.66177   0.01427507  0.012743832          188 
 1978000   0.47145658   -7.7305261    339.82876  0.014317019  0.012734109          303 
 1979000   0.46434377   -7.7187915    339.09819  0.014279021  0.012724388          200 
 1980000   0.46125802   -7.7017998    338.55403  0.014248907  0.012714682          179 
 1981000   0.46650726   -7.7019948    338.99383  0.014260215   0.01270498          159 
 1982000   0.45800724   -7.7093322    338.86198  0.014247476  0.012695294          143 
 1983000   0.46850897   -7.7073915    339.16015  0.014252822  0.012685614          199 
 1984000   0.45291935   -7.6974074     338.6102  0.014222539  0.012675939          277 
 1985000   0.46398087   -7.7002227    339.27228  0.014243169  0.012666262          190 
 1986000   0.46210184    -7.687365    339.45405  0.014243624  0.012656612          188 
 1987000   0.45930452   -7.7098679     339.3483  0.014232021  0.012646974          112 
 1988000   0.46456026   -7.7109254    339.42686  0.014228155  0.012637348          100 
 1989000    0.4702429   -7.7107624     339.0489  0.014205166  0.012627726          365 
 1990000   0.45006252    -7.717425    339.10538  0.014200393  0.012618112          175 
 1991000   0.46240353   -7.7237035    338.81997  0.014181315  0.012608498          273 
 1992000   0.46201108    -7.718392    339.40176  0.014198534    0.0125989          402 
 1993000   0.45942326    -7.691495    339.02936  0.014175839  0.012589321          243 
 1994000   0.46712055    -7.721464    339.05731  0.014169898  0.012579742          225 
 1995000   0.44961056    -7.714997    338.35124  0.014133302  0.012570163          164 
 1996000   0.45989549   -7.7163915    339.52018  0.014175024  0.012560603          205 
 1997000   0.45458372   -7.6979329    338.99458  0.014145993  0.012551036          180 
 1998000   0.45255723   -7.7148309    339.43689  0.014157361  0.012541496          121 
 1999000   0.45749277   -7.7221816    339.03845  0.014133669  0.012531949          139 
 2000000   0.45525939   -7.7091401    338.96442  0.014123517   0.01252242          197 
 2001000   0.45947694   -7.7159259    339.17609  0.014125275  0.012512893          196 
 2002000    0.4584725   -7.7117844    338.85268  0.014104757  0.012503382          204 
 2003000   0.45440437   -7.7231593    339.29801  0.014116243  0.012493871          276 
 2004000   0.45296263   -7.7079485    338.68323  0.014083634  0.012484373          117 
 2005000   0.45431169   -7.7323498    339.07408  0.014092855  0.012474876          115 
 2006000   0.45625428   -7.7223153    338.84229    0.0140762  0.012465395          349 
 2007000   0.45787733   -7.7230562    338.92026  0.014072424  0.012455919          217 
 2008000   0.44494615   -7.7235947    339.57974  0.014092784  0.012446455          251 
 2009000   0.45729224   -7.7181101    338.54306  0.014042768     0.012437          312 
 2010000   0.44679128   -7.7339557    338.80389  0.014046596  0.012427553          110 
 2011000   0.45274755   -7.7127034    338.26114   0.01401712  0.012418115          296 
 2012000   0.43505687   -7.7213201    339.24665  0.014050971  0.012408686          282 
Loop time of 4331 on 48 procs for 2000000 steps with 4000 atoms

Performance: 79796.744 tau/day, 461.787 timesteps/s
99.4% CPU use with 48 MPI tasks x no OpenMP threads

MPI task timing breakdown:
Section |  min time  |  avg time  |  max time  |%varavg| %total
---------------------------------------------------------------
Pair    | 272.07     | 283.76     | 298.86     |  32.0 |  6.55
Neigh   | 27.213     | 27.669     | 28.27      |   4.6 |  0.64
Comm    | 237.9      | 251.6      | 266.99     |  46.3 |  5.81
Output  | 3.9221     | 3.9237     | 3.955      |   0.2 |  0.09
Modify  | 3692.6     | 3713.7     | 3730.8     |  17.0 | 85.75
Other   |            | 50.31      |            |       |  1.16

Nlocal:        83.3333 ave          88 max          74 min
Histogram: 1 1 0 2 4 9 9 9 4 9
Nghost:        1802.17 ave        1826 max        1783 min
Histogram: 2 5 2 12 11 5 6 3 0 2
Neighs:        11051.1 ave       12193 max        9566 min
Histogram: 2 0 2 6 5 13 4 11 4 1
FullNghs:      22102.8 ave       23417 max       19244 min
Histogram: 1 1 0 3 2 8 10 7 7 9

Total # of neighbors = 1060936
Ave neighs/atom = 265.23400
Neighbor list builds = 107820
Dangerous builds = 1

#clear
#
#next RN
#
#jump SELF
Total wall time: 1:12:13
