
units lj                  # Use reduced LJ style units
atom_style atomic         # Uncharged point particles
atom_modify map hash      # Needed for indexing of clusters etc
                          # Used to be able to find where atoms are in relation to each other.

lattice fcc 1.0 spacing 1 1 1
Lattice spacing in x,y,z = 1.5874011 1.5874011 1.5874011
region box block 0 10 0 10 0 10 units lattice
create_box 2 box
Created orthogonal box = (0.0000000 0.0000000 0.0000000) to (15.874011 15.874011 15.874011)
  3 by 4 by 4 MPI processor grid
create_atoms 1 box
Created 4000 atoms
  using lattice units in orthogonal box = (0.0000000 0.0000000 0.0000000) to (15.874011 15.874011 15.874011)
  create_atoms CPU = 0.004 seconds
set type 1 type/fraction 2 0.19 78393
Setting atom values ...
  784 settings made for type/fraction
mass 1 1.0
mass 2 1.0
pair_style lj/cut  3.5
pair_modify tail  yes
pair_coeff 1  1  1.0  1.0   # Intearaction between 1 and 1 set with epsilon = 1 and sigma = 1
pair_coeff 1  2  1.5  0.8
pair_coeff 2  2  0.5  0.88

write_data data.0
System init for write_data ...
Neighbor list info ...
  update every 1 steps, delay 10 steps, check yes
  max neighbors/atom: 2000, page size: 100000
  master list distance cutoff = 3.8
  ghost atom cutoff = 3.8
  binsize = 1.9, bins = 9 9 9
  1 neighbor lists, perpetual/occasional/extra = 1 0 0
  (1) pair lj/cut, perpetual
      attributes: half, newton on
      pair build: half/bin/atomonly/newton
      stencil: half/bin/3d
      bin: standard
WARNING: Not all mixed pair coeffs generated from mixing. Use write_data with 'pair ij' option to store all pair coeffs. (../write_data.cpp:312)


#############################
#   M E L T   S Y S T E M   #
#############################

velocity all create 2.4 6229865 mom yes dist gaussian # Assign velocities
                                                    # Temperature 2.4, random number seed, zero linear momentum
                                                                                # Gaussian distribution

timestep 0.002   # simulation timestep
thermo 1000       # output thermodynamic data every 1000 steps bf 100

# Define a fix  in this case with index 1 applied to all
# particles in the simulation. This fix is for simulations
# in the anisotropic NPT ensemble. Note that we use the MTK
# correction.
fix 1 all npt temp 2.4 2.4 0.1 iso 5.68 5.68 0.5 mtk yes tchain 5 pchain 5 # Use NPT ensemble
                                                                         # Set temperature and pressure and damping
                                                                         # Numbers of thermostats in chain and in barostat
run 10000          # run for 10000 steps
Per MPI rank memory allocation (min/avg/max) = 3.642 | 3.644 | 3.648 Mbytes
Step Temp E_pair E_mol TotEng Press Volume 
       0          2.4   -7.1181064            0   -3.5190064   -3.5570023         4000 
    1000    2.4119892   -4.7757686            0   -1.1586893    5.5588329    4547.0093 
    2000    2.3946132   -4.7789385            0   -1.1879166    5.5973435    4545.2248 
    3000     2.411019   -4.8050908            0   -1.1894665    5.8127401    4509.0414 
    4000     2.430762   -4.7822151            0   -1.1369837    5.9271761    4508.6619 
    5000    2.4515934   -4.8048605            0   -1.1283897    5.5871992    4533.4577 
    6000    2.4062837   -4.8071747            0   -1.1986515    5.5987368    4519.6738 
    7000    2.3962376   -4.8129468            0    -1.219489    5.7403262    4499.0436 
    8000    2.3904278    -4.806948            0   -1.2222027     5.781706    4502.5876 
    9000    2.3770867   -4.8069911            0   -1.2422524    5.7234142    4504.1703 
   10000    2.4058285   -4.7827547            0   -1.1749142    5.5332734      4550.47 
Loop time of 2.42103 on 48 procs for 10000 steps with 4000 atoms

Performance: 713745.260 tau/day, 4130.470 timesteps/s
99.4% CPU use with 48 MPI tasks x no OpenMP threads

MPI task timing breakdown:
Section |  min time  |  avg time  |  max time  |%varavg| %total
---------------------------------------------------------------
Pair    | 0.96686    | 1.0285     | 1.091      |   2.9 | 42.48
Neigh   | 0.19562    | 0.20541    | 0.21602    |   0.9 |  8.48
Comm    | 0.70993    | 0.80701    | 0.88217    |   3.8 | 33.33
Output  | 0.00024703 | 0.00025181 | 0.00032071 |   0.0 |  0.01
Modify  | 0.32757    | 0.36491    | 0.40258    |   3.4 | 15.07
Other   |            | 0.01494    |            |       |  0.62

Nlocal:        83.3333 ave          93 max          74 min
Histogram: 2 4 5 5 7 9 9 3 1 3
Nghost:        1505.75 ave        1544 max        1475 min
Histogram: 4 4 5 7 8 8 6 1 3 2
Neighs:        8389.40 ave        9813 max        7261 min
Histogram: 4 4 4 9 9 5 6 3 3 1

Total # of neighbors = 402691
Ave neighs/atom = 100.67275
Neighbor list builds = 908
Dangerous builds = 228

# Equilibrate just above the melting temperature to avoid step fn in T

fix 1 all npt temp 1.25 1.25 0.1 iso 5.68 5.68 0.5 mtk yes tchain 5 pchain 5
run 2000
Per MPI rank memory allocation (min/avg/max) = 3.642 | 3.645 | 3.649 Mbytes
Step Temp E_pair E_mol TotEng Press Volume 
   10000    2.4058285   -4.7827547            0   -1.1749142    5.5332734      4550.47 
   11000     1.252673   -6.4906013            0   -4.6120615    5.8577836    3686.2133 
   12000    1.2406661   -6.5308244            0   -4.6702904     5.694616    3679.5308 
Loop time of 0.503721 on 48 procs for 2000 steps with 4000 atoms

Performance: 686094.294 tau/day, 3970.453 timesteps/s
99.6% CPU use with 48 MPI tasks x no OpenMP threads

MPI task timing breakdown:
Section |  min time  |  avg time  |  max time  |%varavg| %total
---------------------------------------------------------------
Pair    | 0.21424    | 0.24471    | 0.26344    |   2.2 | 48.58
Neigh   | 0.032415   | 0.034901   | 0.036828   |   0.6 |  6.93
Comm    | 0.15276    | 0.17054    | 0.19923    |   2.6 | 33.86
Output  | 7.0039e-05 | 7.1654e-05 | 8.6028e-05 |   0.0 |  0.01
Modify  | 0.043564   | 0.048871   | 0.053889   |   1.4 |  9.70
Other   |            | 0.004622   |            |       |  0.92

Nlocal:        83.3333 ave          92 max          76 min
Histogram: 1 7 2 10 6 10 7 1 3 1
Nghost:        1735.38 ave        1764 max        1710 min
Histogram: 3 2 8 2 9 10 8 3 2 1
Neighs:        10359.8 ave       11428 max        9213 min
Histogram: 3 6 2 4 6 7 7 7 5 1

Total # of neighbors = 497270
Ave neighs/atom = 124.31750
Neighbor list builds = 143
Dangerous builds = 10

#############################
# L I N E A R  Q U E N C H  #
#############################

# Define solid atoms. This closely follows ten Wolde  Ruiz-Montero and Frenkel  Faraday Discuss  1996  104  93-110
# Compute components of the per-atom q6 vector
compute q6 all orientorder/atom degrees 1 6 components 6 nnn NULL cutoff 1.3 # compute the Q6 parameter.
                                                                             # Use all neighbours within 1.3 unit cell.

# get number of connections
compute coord_number all coord/atom orientorder q6 0.5

# An atom is solid if it has 8 or more connections (of a possible 14)
variable is_solid atom c_coord_number>=8
group solid dynamic all var is_solid    # Must be dynamic to update
dynamic group solid defined

# do clustering
compute cluster solid cluster/atom 1.3 # Create a cluster where all atoms within are solid and max 1.3 units from another member

# define chunks one chunk per cluster
compute clus_chunks solid chunk/atom c_cluster nchunk every compress yes  # Says which atoms are in which chunk

# count the size of each chunk
compute size_chunks solid property/chunk clus_chunks count


# Find the maximum entry in the vector of chunk sizes
variable max_n equal max(c_size_chunks)


# Thermo style which includes this variable
# thermo_style custom step temp pe vol v_max_n

thermo ${N}  # Print the thermo information every 100 steps
thermo 1000  

# Reset the npt fix at a lower temperature (below freezing)
fix 1  all npt temp  ${temp} ${temp}  0.1  iso  5.68  5.68  0.5  mtk yes tchain  5  pchain  5
fix 1  all npt temp  0.45 ${temp}  0.1  iso  5.68  5.68  0.5  mtk yes tchain  5  pchain  5
fix 1  all npt temp  0.45 0.45  0.1  iso  5.68  5.68  0.5  mtk yes tchain  5  pchain  5

dump dmp2 all dcd ${N} traj.dcd
dump dmp2 all dcd 1000 traj.dcd


compute msd all msd com yes
variable twopoint equal c_msd[4]/6/(step*dt+1.0e-6)
fix 9 all vector 10 c_msd[4]
variable fit equal slope(f_9)/6/(10*dt)
thermo_style custom step temp pe c_msd[4] v_twopoint v_fit v_max_n

fix 1 all npt temp 1.25 ${temp} 0.1 iso 5.68 5.68 0.5 mtk yes tchain 5 pchain 5
fix 1 all npt temp 1.25 0.45 0.1 iso 5.68 5.68 0.5 mtk yes tchain 5 pchain 5
run 2000000 # 5000000  # Run for this many steps
Neighbor list info ...
  update every 1 steps, delay 10 steps, check yes
  max neighbors/atom: 2000, page size: 100000
  master list distance cutoff = 3.8
  ghost atom cutoff = 3.8
  binsize = 1.9, bins = 9 9 9
  4 neighbor lists, perpetual/occasional/extra = 1 3 0
  (1) pair lj/cut, perpetual
      attributes: half, newton on
      pair build: half/bin/atomonly/newton
      stencil: half/bin/3d
      bin: standard
  (2) compute orientorder/atom, occasional
      attributes: full, newton on
      pair build: full/bin/atomonly
      stencil: full/bin/3d
      bin: standard
  (3) compute coord/atom, occasional
      attributes: full, newton on
      pair build: full/bin/atomonly
      stencil: full/bin/3d
      bin: standard
  (4) compute cluster/atom, occasional
      attributes: full, newton on
      pair build: full/bin/atomonly
      stencil: full/bin/3d
      bin: standard
Per MPI rank memory allocation (min/avg/max) = 9.772 | 9.778 | 9.784 Mbytes
Step Temp PotEng c_msd[4] v_twopoint v_fit v_max_n 
   12000    1.2406661   -6.5308244 7.1664069e-30 4.9766712e-32 8.3333333e+20            2 
   13000    1.2518458    -6.512431   0.53326669 0.0034183761  0.043914958            1 
   14000    1.2547097   -6.5139378     1.074886 0.0063981305  0.044343571            1 
   15000    1.2376577   -6.5055824    1.5758429 0.0087546826  0.043271145            3 
   16000    1.2682201   -6.5297532    2.0880304  0.010875158  0.043074303            1 
   17000    1.2514453   -6.5245914    2.5827588  0.012660582  0.042939867            1 
   18000    1.2613196   -6.5351492     3.131167  0.014496143  0.042852056            1 
   19000    1.2556995   -6.5104824    3.6540852  0.016026689  0.043150158            2 
   20000    1.2366608    -6.564286    4.2045016  0.017518756  0.043413898            1 
   21000    1.2353231   -6.5270751    4.6538218  0.018467547  0.043271512            2 
   22000    1.2253449   -6.5097488    5.0141408  0.018992957  0.042660473            1 
   23000    1.2302849   -6.5191938    5.5434265  0.020084878  0.042169947            1 
   24000     1.260699   -6.5480117    6.0845252  0.021126823  0.041939885            1 
   25000    1.2358527   -6.5626278    6.5686796  0.021895598  0.041816164            2 
   26000      1.23903   -6.5631733    7.0972633  0.022747638  0.041811881            1 
   27000    1.2261303   -6.5317183    7.6553004   0.02362747  0.041944881            1 
   28000    1.2405826   -6.5341054    8.1938327  0.024386406  0.042061626            2 
   29000    1.2654854   -6.5096237    8.6737454  0.024924555  0.042110714            1 
   30000    1.2772386   -6.5447485    9.2810545  0.025780706  0.042183907            2 
   31000    1.2827913   -6.5562008    9.8424342  0.026458156  0.042355679            3 
   32000    1.2490363   -6.5224771    10.410582  0.027110891  0.042481833            1 
   33000    1.2546523   -6.5474932    10.824814  0.027335388  0.042604116            2 
   34000    1.2896044   -6.5619328    11.401657  0.027945236  0.042748373            1 
   35000     1.282448   -6.5624743    11.916626   0.02837292  0.042851925            3 
   36000    1.2143835   -6.5309685    12.452083  0.028824265   0.04294796            1 
   37000    1.2369558   -6.5539105    12.968602  0.029208562   0.04301989            1 
   38000    1.2179205   -6.4955561    13.477421  0.029555748  0.043052057            1 
   39000    1.2346503    -6.521957     14.03022  0.029979101  0.043082477            1 
   40000    1.2376077    -6.557481     14.40571  0.030011896   0.04310399            1 
   41000    1.2567601   -6.5256467    14.875283  0.030234314  0.043055842            2 
   42000    1.2259759   -6.5491493    15.320547   0.03039791  0.042967984            1 
   43000    1.2582929   -6.5889501    15.829701  0.030677715  0.042909574            2 
   44000    1.2393966   -6.4935509    16.354169  0.030973805  0.042856024            1 
   45000     1.246435   -6.5512973    16.775555  0.031065843  0.042783495            4 
   46000    1.2197915   -6.5902732    17.227507  0.031209251   0.04270659            2 
   47000    1.2338458   -6.5937263    17.548129  0.031113704   0.04259232            2 
   48000    1.2180274    -6.536682    17.923568  0.031117304  0.042433039            1 
   49000     1.233537   -6.5404743    18.399831  0.031292229  0.042263946            2 
   50000    1.2130658   -6.5862065    18.818247  0.031363745  0.042094615            2 
   51000    1.2528578   -6.5351583    19.523791  0.031901618  0.041967944            2 
   52000    1.2137469   -6.5285667    19.984129  0.032025847  0.041881673            2 
   53000    1.2520788   -6.5556871    20.299458  0.031917386  0.041782791            3 
   54000    1.2069151   -6.5249605     20.82358  0.032135154  0.041670345            3 
   55000    1.2675019   -6.5336667    21.326541  0.032312941  0.041565249            2 
   56000    1.2493939    -6.570403    21.936126  0.032643045  0.041495729            2 
   57000    1.2220755   -6.5356642    22.402774  0.032752593  0.041446511            4 
   58000    1.2407192   -6.5765817     22.83849  0.032813923  0.041402504            2 
   59000    1.2322698   -6.5371326    23.489135  0.033176744  0.041362428            3 
   60000    1.2265203   -6.5617572    23.960823  0.033278921  0.041338141            4 
   61000    1.2110227   -6.5831853    24.375797  0.033300269  0.041302076            1 
   62000    1.2125506   -6.5411127    24.825495    0.0333676  0.041272615            4 
   63000    1.2347669   -6.5701018    25.353076  0.033535815  0.041244793            2 
   64000    1.2415666   -6.5318897    25.835743   0.03364029  0.041211843            3 
   65000    1.2178477    -6.547713    26.385075  0.033827019  0.041189623            1 
   66000    1.2465721    -6.541156    26.818886  0.033862229  0.041172924            3 
   67000    1.2267217   -6.5380047    27.400058  0.034079674  0.041157609            1 
   68000    1.1992281   -6.5567301    27.793701  0.034060908  0.041138277            1 
   69000    1.2536748   -6.5605465     28.34659  0.034235012  0.041131387            1 
   70000    1.2557618   -6.5973432    28.922148  0.034431129  0.041131171            2 
   71000    1.2210167   -6.5624758    29.362548  0.034463084  0.041124772            1 
   72000    1.2124211   -6.5429415    29.725519  0.034404536  0.041113727            2 
   73000    1.2037653   -6.5505055       30.167  0.034437214  0.041084392            2 
   74000    1.2124363   -6.5483523    30.568509  0.034423997  0.041046218            1 
   75000     1.216518   -6.5802389    31.147731   0.03460859  0.041024898            2 
   76000    1.2501705   -6.5789773    31.602032  0.034651351  0.040998643            2 
   77000    1.2000231   -6.5921607    31.870499  0.034491882  0.040958193            3 
   78000    1.2302225   -6.5819292    32.287822  0.034495537  0.040905046            2 
   79000    1.2187734   -6.5652888    32.861386  0.034663909   0.04085689            1 
   80000    1.2149267   -6.5260392    33.241145  0.034626192  0.040816394            7 
   81000    1.2285839   -6.5736955    33.510453  0.034475774  0.040757825            2 
   82000    1.2503617   -6.5525001    34.071681  0.034625692  0.040697808            2 
   83000    1.2187591   -6.5680441    34.567764   0.03470659   0.04064824            1 
   84000    1.2272476   -6.5619582    35.176395  0.034897217  0.040608695            2 
   85000     1.228956   -6.5735268    35.605977  0.034907821  0.040571185            2 
   86000    1.2233557   -6.5617106    36.230397  0.035106974  0.040544806            2 
   87000    1.2413681   -6.5437664      36.5441  0.035003927  0.040513849            3 
   88000    1.1994285   -6.5508099    37.144005  0.035174246  0.040485023            3 
   89000     1.226104   -6.5400592    37.596601  0.035202809   0.04046406            3 
   90000    1.1941162    -6.608228    38.110267  0.035287284    0.0404469            2 
   91000     1.198867   -6.5701967    38.766857  0.035500784  0.040432757            3 
   92000    1.1879086   -6.5636682    39.268554  0.035569342  0.040429346            3 
   93000    1.2160364   -6.5664492    39.756761  0.035624338   0.04043098            1 
   94000    1.2443012   -6.5664211    40.308597  0.035734571  0.040428787            2 
   95000     1.201671   -6.5721973     40.86718  0.035848403  0.040436617            1 
   96000    1.2276743   -6.6349204    41.479288  0.036006326  0.040455704            2 
   97000    1.2307615    -6.605529    41.887748  0.035986038  0.040467707            4 
   98000    1.2299752   -6.6095161    42.424966  0.036075651  0.040479039            2 
   99000    1.2058653   -6.5958727    42.960884   0.03616236  0.040497632            2 
  100000    1.2105369    -6.586466    43.683381  0.036402817  0.040518505            2 
  101000    1.2316771   -6.6093953    44.039493  0.036336215  0.040540809            1 
  102000    1.2011654   -6.5599234    44.767179  0.036574492  0.040562712            2 
  103000    1.2142005   -6.5940277    45.132485  0.036514955  0.040586379            2 
  104000    1.2219686   -6.5843986     45.55864   0.03650532   0.04060408            4 
  105000    1.2107014   -6.5877046    45.743713  0.036304534   0.04060749            1 
  106000    1.2170888   -6.5312712    46.113165  0.036252488   0.04060106            4 
  107000    1.2103583   -6.5780459    46.381998  0.036123051  0.040591741            1 
  108000    1.2352912   -6.6004677     46.81046  0.036119182  0.040572981            2 
  109000    1.2150861   -6.6171453    47.157968  0.036053492  0.040553073            1 
  110000    1.2140866   -6.6094256     47.65139  0.036099538  0.040530443            2 
  111000    1.2055134   -6.6431295    48.034388  0.036061852  0.040501625            2 
  112000    1.2035673   -6.5804457    48.492645  0.036080837  0.040474181            1 
  113000    1.1859952   -6.5891476    49.006491   0.03614048  0.040453352            3 
  114000    1.2192621    -6.604476    49.369219   0.03608861  0.040423988            1 
  115000    1.1991346   -6.6033449    49.906216  0.036163925  0.040396544            2 
  116000     1.219647   -6.6045258     50.22005  0.036077622  0.040368076            2 
  117000    1.2140145   -6.5616446    50.785609  0.036172086  0.040344885            2 
  118000    1.2144067   -6.6247214    51.056146    0.0360566  0.040314193            1 
  119000    1.2187715   -6.6055216     51.41397   0.03600418  0.040281863            2 
  120000     1.193607    -6.622803    51.933939  0.036065236  0.040247766            1 
  121000    1.2092488   -6.5665465    52.671087  0.036274853  0.040219475            2 
  122000    1.1696942   -6.5906379    52.884873  0.036123547   0.04018744            2 
  123000    1.2156547   -6.5925414    53.334741  0.036134648  0.040155784            2 
  124000    1.1969401   -6.5898192    53.734116  0.036111637  0.040122974            3 
  125000    1.1961568   -6.5664116    54.123548  0.036082365  0.040088232            1 
  126000    1.1918135   -6.5406802    54.715718  0.036187644  0.040055136            3 
  127000     1.212046   -6.6174416     54.90789  0.036028799  0.040019978            2 
  128000    1.1892956   -6.5722393    55.386453  0.036058889  0.039987598            2 
  129000    1.1620434   -6.6059175    55.935454  0.036134014  0.039955416            3 
  130000    1.1779731   -6.6094427    56.361581  0.036129218  0.039925118            1 
  131000    1.2072917   -6.6381808    56.896044  0.036193412  0.039897741            2 
  132000    1.1964004   -6.5898305    57.629908  0.036382518  0.039872309            2 
  133000    1.2261309   -6.6057004    57.916207   0.03628835  0.039850164            2 
  134000    1.1890243   -6.6056588    58.233341  0.036214764  0.039826153            2 
  135000    1.1800234    -6.566878     58.84694  0.036325272   0.03980174            1 
  136000    1.1673539   -6.6474293    59.356684  0.036370517  0.039783175            2 
  137000    1.1775224   -6.6479228    59.873587  0.036419457  0.039765994            4 
  138000     1.197708   -6.6342646    60.350068  0.036443278  0.039749792            2 
  139000    1.1976569   -6.6054553    60.706924  0.036395038  0.039729724            2 
  140000    1.1849447   -6.5954004    61.254297  0.036460891  0.039709069            1 
  141000    1.2031129   -6.6348854    61.582382  0.036396207  0.039690383            4 
  142000    1.2009915   -6.6048896    62.058148  0.036419101  0.039672049            2 
  143000    1.1751213   -6.6175211    62.442342  0.036388311  0.039651091            2 
  144000      1.17522   -6.5918095    62.504122  0.036171367  0.039629586            2 
  145000    1.2064864   -6.6151781    63.217875  0.036332112   0.03960233            2 
  146000    1.2097309    -6.581946    64.019843  0.036541006   0.03958213            2 
  147000    1.1999956   -6.6678884    64.091528  0.036333066  0.039561938            1 
  148000     1.191772   -6.6642359    64.880658  0.036531902  0.039540921            1 
  149000    1.1707425   -6.6484644    64.898857    0.0362969  0.039520413            1 
  150000    1.1998382   -6.6115336    65.420297  0.036344609  0.039498018            1 
  151000    1.2138075   -6.6041186    65.840087  0.036335589  0.039473992            2 
  152000    1.2052872   -6.6263722    66.028772  0.036199985  0.039446323            1 
  153000    1.1742152   -6.5944665     66.64959   0.03630152  0.039416469            3 
  154000    1.1584655   -6.6195034    67.183945  0.036354948  0.039390976            2 
  155000    1.1697999    -6.631516    67.392555  0.036232556  0.039367377            2 
  156000    1.1995009   -6.6354866    68.136944   0.03639794   0.03934632            1 
  157000    1.1949955   -6.6143005     68.57173  0.036396884  0.039328123            1 
  158000     1.217696   -6.6336217    69.110197  0.036450526  0.039309806            2 
  159000    1.1928279   -6.6408471    69.549731  0.036451641  0.039291558            1 
  160000    1.1847692   -6.6652578    70.283282  0.036605876  0.039276099            1 
  161000    1.1728962    -6.648455    70.407834  0.036442978  0.039259872            2 
  162000    1.1883856   -6.6016889    70.752955  0.036395553  0.039241501            2 
  163000    1.1799291   -6.5967676    71.476202  0.036542025  0.039224589            1 
  164000    1.2062709   -6.6737422    71.745449  0.036456021  0.039206534            1 
  165000    1.1912535   -6.6453493     72.44991  0.036590864  0.039192413            3 
  166000    1.1902985   -6.6216113    73.028405  0.036660846  0.039178708            2 
  167000    1.1723638   -6.6376264     73.33256  0.036593094  0.039163999            2 
  168000    1.1981556   -6.6332286    73.696434  0.036555771  0.039148121            3 
  169000    1.1902689   -6.6740482    74.229005  0.036602073  0.039135124            3 
  170000    1.2157723   -6.5902679    74.931222  0.036730991  0.039127214            4 
  171000    1.1519638   -6.6460097    75.004517  0.036551909  0.039115294            2 
  172000    1.1874598   -6.6355887    75.261398  0.036463855  0.039100951            1 
  173000    1.1686626   -6.6654563    75.366501  0.036303709  0.039081661            2 
  174000    1.1944905   -6.6718604    75.895145  0.036348249  0.039058191            1 
  175000    1.1804265   -6.6437728    76.787444  0.036565449    0.0390376            1 
  176000    1.1870061   -6.6486463    76.899846  0.036410912  0.039019761            1 
  177000    1.1858713   -6.6549285    77.346139   0.03641532  0.039000602            3 
  178000    1.1781566   -6.6554478    77.987787  0.036511136  0.038981461            2 
  179000    1.1769439   -6.6194371    78.728257  0.036651889  0.038967823            1 
  180000    1.1853651   -6.6544508    79.089848   0.03661567  0.038959004            1 
  181000    1.1779283    -6.626584    79.342716  0.036529795  0.038945233            3 
  182000    1.1896331   -6.6562343    79.798537  0.036537791  0.038928222            1 
  183000    1.1629675   -6.6405156    80.124328  0.036486488  0.038913929            2 
  184000    1.1459983   -6.6625348    80.597722  0.036502591  0.038898153            2 
  185000    1.1813357   -6.6630543    80.620938  0.036315738  0.038876656            2 
  186000    1.1577114   -6.6592766    80.919951  0.036254458  0.038855928            2 
  187000    1.1659525   -6.6995673    81.386755  0.036268607   0.03883327            1 
  188000    1.1707195   -6.6648331    81.733754  0.036229501  0.038810992            6 
  189000    1.1853866   -6.6546825    82.331035  0.036301162  0.038786455            2 
  190000    1.1631044   -6.6531624    82.461963  0.036167527  0.038760894            3 
  191000    1.1777011   -6.6368119    82.659432  0.036064325  0.038733771            3 
  192000    1.1688545   -6.7005085    83.059698  0.036050216  0.038702699            2 
  193000    1.1658875   -6.6491619    83.750341  0.036161633  0.038673103            4 
  194000    1.1964673    -6.670643    83.902136  0.036040436  0.038644216            3 
  195000    1.1844807   -6.6608976    84.494417  0.036108725  0.038617742            2 
  196000    1.1571504   -6.6952673    84.736195  0.036027294   0.03859182            3 
  197000    1.1854375   -6.6471353    85.524852  0.036178025  0.038566375            2 
  198000    1.1804066   -6.6433744    86.138475  0.036253567  0.038541999            3 
  199000    1.1860762   -6.6828155    86.782196  0.036340953  0.038519764            1 
  200000    1.1579404   -6.6376862    87.052372  0.036271822  0.038502236            3 
  201000    1.1689698   -6.6385092    87.939704  0.036459247  0.038486174            2 
  202000    1.1858601   -6.6357046    87.955208  0.036285152  0.038470748            2 
  203000    1.1923113   -6.6640476    88.467442  0.036316684  0.038452964            4 
  204000    1.1608063   -6.6569856    88.719883  0.036241782  0.038433481            2 
  205000    1.1465268   -6.6432373    89.297783  0.036299912  0.038413523            1 
  206000    1.1584444   -6.6533586     89.37344  0.036154304  0.038394114            1 
  207000    1.1712003   -6.6723247    90.250483  0.036332722  0.038375772            2 
  208000    1.1726241    -6.678276      90.6216  0.036306731  0.038359227            3 
  209000    1.1675969   -6.6482873    91.061362  0.036308358  0.038342512            1 
  210000    1.1867652   -6.6618982    91.027253  0.036121926  0.038321353            3 
  211000     1.194271   -6.7219627    91.491235  0.036133979  0.038301299            2 
  212000    1.1605557   -6.6880871     91.76008  0.036069214  0.038279784            2 
  213000    1.1810666    -6.642749     92.39033  0.036146452  0.038257379            3 
  214000     1.163582   -6.6228374    92.821975  0.036145629   0.03823446            1 
  215000    1.1635522   -6.6874492    93.349668  0.036182042  0.038214461            2 
  216000    1.1603295   -6.6794946    93.514671  0.036078191  0.038195011            4 
  217000    1.1861524   -6.7020156    93.870288  0.036048498  0.038176196            1 
  218000    1.1633134   -6.6660752    94.850373  0.036257788  0.038157206            1 
  219000    1.1681189   -6.6550842    95.242609   0.03624148  0.038138451            2 
  220000     1.152205   -6.7152059    95.115313  0.036028528  0.038119007            3 
  221000    1.1795007   -6.7132631    95.544058  0.036027171  0.038096839            3 
  222000    1.1597464   -6.6560306    96.293536  0.036146222  0.038075709            4 
  223000    1.1669916   -6.6933336    96.469407  0.036049853  0.038055213            3 
  224000    1.1702064   -6.7313192    96.995862   0.03608477  0.038034688            2 
  225000    1.1719027   -6.6910053    97.102688  0.035963958  0.038013515            1 
  226000    1.1594417   -6.6925388    97.529799  0.035962315  0.037991107            1 
  227000    1.1324561   -6.6877444    98.238813  0.036064175  0.037969705            5 
  228000    1.1577086   -6.6804866    98.298902  0.035927961  0.037950942            4 
  229000    1.1364271   -6.7037412    98.671169  0.035906539  0.037930945            1 
  230000    1.1630646    -6.675957    99.296321  0.035976928  0.037910987            1 
  231000    1.1561591   -6.6810147    99.748064   0.03598415  0.037891432            2 
  232000    1.1572724   -6.7151098    100.50622   0.03610137  0.037871906            2 
  233000    1.1802883   -6.6758519    100.60891  0.035983159  0.037851714            1 
  234000     1.160504   -6.7112653      100.721  0.035869301  0.037829993            3 
  235000    1.1529832   -6.6881315    101.18307  0.035880521  0.037807754            2 
  236000    1.1508651   -6.7084968    101.44814  0.035822082  0.037785395            3 
  237000    1.1681061   -6.6364213    102.25815   0.03595575  0.037763405            1 
  238000    1.1511094   -6.6837961    102.64418   0.03593984  0.037742473            2 
  239000     1.180926   -6.6630981    102.90466  0.035880285  0.037722537            2 
  240000    1.1744637   -6.7022131    103.02891  0.035773927  0.037702132            3 
  241000     1.155369   -6.7161131    103.82663  0.035901324  0.037681904            1 
  242000    1.1536572   -6.6932714    104.36482  0.035938297  0.037662478            2 
  243000    1.1508717    -6.712592    104.32134  0.035775494  0.037643609            3 
  244000    1.1446615   -6.7151249    105.01663  0.035866336  0.037624942            4 
  245000    1.1504129   -6.6986033     105.2731  0.035807176  0.037605325            3 
  246000    1.1638382   -6.7053991    105.84328  0.035854771  0.037586951            2 
  247000    1.1558421   -6.6926665    106.11324  0.035800689  0.037566034            2 
  248000    1.1514412   -6.7000669    106.27797  0.035711684  0.037545533            2 
  249000    1.1469531   -6.7072131    106.90341  0.035777582  0.037524694            3 
  250000    1.1385029   -6.7178385    107.05239   0.03568413   0.03750344            5 
  251000    1.1453626   -6.7103795     107.4954  0.035689043  0.037482776            1 
  252000    1.1306947   -6.7025831    107.43724  0.035528188  0.037459513            2 
  253000    1.1627575   -6.7215639    107.67494  0.035466055  0.037436644            3 
  254000    1.1468277    -6.678888    108.42848  0.035573649  0.037414192            3 
  255000    1.1390053   -6.6818736    109.26855  0.035708676   0.03739161            3 
  256000    1.1648382   -6.7069553    109.19831  0.035546325  0.037370666            3 
  257000    1.1482982   -6.7299783    109.51841  0.035511805  0.037349172            2 
  258000    1.1421747   -6.7359802    110.35048   0.03564292  0.037328476            2 
  259000    1.1247467   -6.6753773    110.77554  0.035642064  0.037309216            2 
  260000    1.1606973   -6.6942358    111.16574  0.035630044  0.037287145            2 
  261000    1.1604255   -6.6901356    111.30649  0.035538469   0.03726569            3 
  262000    1.1487888   -6.7201688    111.44274  0.035446166  0.037243175            3 
  263000    1.1691566   -6.7386581    111.50259  0.035330353  0.037219055            2 
  264000    1.1437457   -6.6881378    112.25463  0.035433911   0.03719561            2 
  265000    1.1384854   -6.6965082    112.44209  0.035359148  0.037170751            3 
  266000     1.146069   -6.7066498    112.73545  0.035318125  0.037146002            3 
  267000    1.1502372   -6.7192383    113.45211  0.035409522  0.037120239            2 
  268000    1.1265938   -6.7425819    113.45581  0.035278548  0.037095916            3 
  269000    1.1529802   -6.7508019    113.76077  0.035241875  0.037070875            2 
  270000      1.10861   -6.7240184    114.39426   0.03530687  0.037047169            1 
  271000    1.1592775   -6.7477304    115.03323  0.035373073  0.037024446            2 
  272000    1.1262672   -6.6868182    115.42061  0.035361706   0.03700246            2 
  273000    1.1522144   -6.7134854    115.37759  0.035219044  0.036979269            3 
  274000    1.1709098   -6.7075586    115.80866  0.035221611  0.036955222            3 
  275000    1.1310172   -6.7051814    116.20986  0.035215108  0.036932836            2 
  276000    1.1427636    -6.724263    116.47722  0.035168242  0.036910406            4 
  277000    1.1249328   -6.7414691    117.39106  0.035316205    0.0368896            2 
  278000    1.1350927   -6.7074223    117.90799   0.03534412  0.036868742            4 
  279000    1.1559208   -6.7285273    118.22248  0.035311373  0.036849227            2 
  280000    1.1607987   -6.7212518    118.73909  0.035339016  0.036829728            3 
  281000    1.1483695   -6.7366753     118.9651  0.035280278  0.036810794            2 
  282000    1.1559295   -6.7004755    119.89664  0.035430448  0.036792013            5 
  283000    1.1110661   -6.6876873    120.06075  0.035353579  0.036773329            2 
  284000    1.1379469   -6.7186309     120.8507  0.035460886  0.036754674            7 
  285000    1.1375987   -6.7252255    120.86457  0.035340516  0.036736797            5 
  286000    1.1602612   -6.7103131    120.89342  0.035225355  0.036717752            2 
  287000    1.1346905   -6.7367479     121.2556  0.035207782  0.036697121            2 
  288000    1.1327226   -6.7036425    121.77612  0.035236146  0.036677262            3 
  289000    1.1430879   -6.7722002    121.91883  0.035155371  0.036656865            2 
  290000    1.1379976   -6.7030907     122.2085  0.035117386  0.036636276            1 
  291000    1.1275712   -6.7191557    122.84949  0.035180265   0.03661535            4 
  292000    1.1336896   -6.7567164    122.75583  0.035033057  0.036594294            2 
  293000    1.1265703   -6.7122932    123.28574  0.035064204  0.036572272            4 
  294000    1.1210441   -6.6916109    123.74287   0.03507451  0.036550593            4 
  295000    1.1473822   -6.7299946    123.99532  0.035026925  0.036528719            1 
  296000    1.1146328   -6.6745101    124.29141  0.034991952  0.036506086            3 
  297000    1.1316687   -6.7331033    124.76096  0.035005881  0.036483284            4 
  298000    1.1198425   -6.7214575    125.27786  0.035032959   0.03646188            1 
  299000    1.1300479   -6.7185532    125.81101  0.035064383  0.036441383            3 
  300000    1.1215663   -6.8016748    126.07353  0.035020426  0.036421312            2 
  301000    1.1207324   -6.7590966    126.34038  0.034977957  0.036401274            4 
  302000    1.1353342   -6.7352013    126.34694  0.034863947  0.036381054            2 
  303000    1.1162471   -6.7380884    127.19325  0.034981643  0.036359873            2 
  304000    1.1012108   -6.7444844     127.5471   0.03496357  0.036340031            1 
  305000     1.144219   -6.7706318    127.63461  0.034872845   0.03632069            3 
  306000    1.1201036   -6.7085968    128.58639   0.03501808  0.036301375            3 
  307000    1.1450335   -6.7219752     129.0918  0.035041205  0.036281867            3 
  308000    1.1402817    -6.732564    129.41708  0.035015445   0.03626324            2 
  309000    1.1378188   -6.7647714    129.60275  0.034952199  0.036244104            3 
  310000    1.1647883   -6.7478454    129.74292   0.03487713  0.036224265            2 
  311000    1.1379991    -6.771646    130.18974  0.034884711  0.036204603            2 
  312000    1.1144633   -6.7726114    130.67023  0.034901236  0.036184223            1 
  313000    1.1352829   -6.7658975    131.00366  0.034878504  0.036165677            2 
  314000    1.1218603   -6.7633235    131.31562  0.034850218   0.03614729            1 
  315000     1.124334   -6.7858768    131.53307  0.034797109  0.036128207            5 
  316000    1.1417871   -6.7791927    132.19327  0.034861094  0.036108297            3 
  317000    1.1353934   -6.7440891    132.33935  0.034789523  0.036088877            4 
  318000    1.1293308   -6.7415618    132.91008  0.034829687  0.036069987            1 
  319000    1.1187731    -6.763211    133.33608  0.034831786  0.036051782            2 
  320000    1.1295761   -6.7242862    134.04629  0.034907887  0.036033795            3 
  321000    1.1318029   -6.7701673    134.12295  0.034819041  0.036016561            8 
  322000    1.1192424   -6.7639523    134.97054  0.034930264  0.035999621            2 
  323000    1.1239673   -6.7479954    134.87106  0.034796455  0.035982008            1 
  324000    1.1230606   -6.7382828    135.37845  0.034819559  0.035964003            2 
  325000     1.152656   -6.7654982    136.07662  0.034891442  0.035947426            3 
  326000     1.131812   -6.7694401    136.46626  0.034884014  0.035931301            3 
  327000    1.1275988   -6.7749544    135.95355  0.034646674  0.035913979            2 
  328000     1.127252   -6.7463474    136.86582   0.03477282  0.035897271            2 
  329000    1.1213346   -6.7488669    137.25498  0.034765699  0.035879564            2 
  330000    1.1133615   -6.7388867     137.7335  0.034781187  0.035862887            1 
  331000    1.1165746   -6.7179913    138.46637  0.034860617  0.035846782            1 
  332000    1.1344499   -6.7967341    138.12535  0.034670018  0.035829302            1 
  333000    1.1421778   -6.7832293    138.14645  0.034571183  0.035810651            1 
  334000    1.1216367   -6.7606492      138.977    0.0346749  0.035792992            1 
  335000     1.151192   -6.7453147    140.11534  0.034854562  0.035777577            3 
  336000    1.1185088   -6.7358498    140.13127   0.03475478  0.035762539            3 
  337000    1.1114835   -6.7774331    140.00388  0.034620147  0.035746548            6 
  338000    1.1419647   -6.7888634    140.77912  0.034708856  0.035729771            4 
  339000    1.1227747   -6.7670423    141.20769  0.034711822  0.035713733            2 
  340000    1.1412059   -6.7726594    140.88721  0.034531178   0.03569647            2 
  341000    1.1432154   -6.7441114    142.00372  0.034702767  0.035679482            1 
  342000    1.1061236   -6.8043705    142.03242   0.03460829  0.035663923            2 
  343000    1.1125098   -6.7824445    142.81269  0.034696961  0.035648841            1 
  344000    1.1038417   -6.7637098    143.06329  0.034656806  0.035633598            3 
  345000    1.1259982   -6.7484332    143.35029  0.034625674  0.035618417            2 
  346000    1.1084572   -6.7661636    143.79857  0.034633566  0.035603242            2 
  347000    1.1281819   -6.7505594    144.90059  0.034798413  0.035588678            4 
  348000     1.109334   -6.7634694    145.05353  0.034735041  0.035575248            3 
  349000    1.1029194   -6.7987992    145.35989  0.034708666  0.035560707            2 
  350000    1.1128513   -6.7758336    145.41865  0.034623488  0.035546623            1 
  351000    1.1065154   -6.7612984    145.86803  0.034631537  0.035532155            3 
  352000    1.1480975   -6.7906453    145.74234  0.034503395  0.035517444            1 
  353000    1.1081685   -6.8030657    146.30008  0.034537319   0.03550203            2 
  354000    1.1068391   -6.7879512    147.03127   0.03461188   0.03548731            2 
  355000    1.1225988   -6.7545858    147.69903  0.034671134  0.035473384            2 
  356000    1.1111032   -6.7732237    147.72812  0.034580552  0.035458935            1 
  357000    1.0983356   -6.8537604    148.26002  0.034607848  0.035444829            3 
  358000    1.0804158   -6.7356821    149.05168  0.034695455  0.035430932            1 
  359000    1.1051181   -6.7597168    149.94634  0.034806485   0.03541895            2 
  360000    1.1064203   -6.7900229    149.49997  0.034606473  0.035405976            3 
  361000    1.0962215   -6.7665013    150.08129  0.034644805  0.035392678            2 
  362000    1.1099445   -6.7982504    150.28394  0.034595751  0.035379939            3 
  363000     1.112855   -6.7709361    150.88403  0.034638208  0.035368005            3 
  364000    1.1305373   -6.7972609    151.15315  0.034604658  0.035356101            4 
  365000    1.1187862   -6.7474112    150.93838  0.034460818  0.035343051            4 
  366000    1.1037183   -6.7665636    152.10109  0.034631396  0.035330733            4 
  367000    1.1106979   -6.7621915    151.84426  0.034478715  0.035316844            2 
  368000    1.1227541   -6.8025313    152.51918  0.034537857  0.035302533            2 
  369000    1.0968879   -6.8281198    152.43336  0.034424878   0.03528899            3 
  370000    1.1162031   -6.8358035    152.56454  0.034361384  0.035274027            3 
  371000    1.1082792   -6.7581249    153.34993  0.034445177  0.035259488            3 
  372000    1.1155938   -6.7646006    153.24165  0.034328327  0.035243671            1 
  373000     1.102485   -6.8140405    153.83529   0.03436892  0.035228949            2 
  374000     1.102523   -6.8130461    154.13171  0.034343072  0.035214281            3 
  375000    1.1114774   -6.8023436    154.45516  0.034323369  0.035198426            1 
  376000    1.0846627   -6.7964346     154.2282  0.034181783  0.035182456            1 
  377000    1.1012962   -6.8540314    154.39909  0.034128889  0.035165166            2 
  378000    1.1112512   -6.7808681    155.28736  0.034234427  0.035148064            2 
  379000    1.0972029   -6.8214359    155.74408   0.03424452  0.035131954            3 
  380000    1.0900175   -6.8199935    155.87305  0.034182687  0.035115785            1 
  381000    1.1099855   -6.8191338    156.87238  0.034311544  0.035101441            1 
  382000    1.1015097   -6.7862489    157.38666  0.034333913  0.035088012            1 
  383000    1.0818262   -6.7838384    157.50381  0.034269758  0.035073801            1 
  384000     1.099499   -6.8401601    157.80702  0.034246315  0.035059533            4 
  385000    1.1214177   -6.8102076    158.27885  0.034259492  0.035044762            3 
  386000    1.0899711   -6.7838764    158.89068  0.034302823  0.035030462            1 
  387000    1.1152059   -6.7807563    159.18608  0.034277795  0.035015091            3 
  388000    1.1132943   -6.8235976    159.21072  0.034194742  0.034999691            3 
  389000    1.0939325   -6.8117774    159.94097  0.034263275  0.034984866            1 
  390000    1.0657994   -6.7982033    159.75306  0.034135268  0.034970035            2 
  391000    1.0910786   -6.7942026     160.2248  0.034148508  0.034955019            2 
  392000    1.1226755   -6.8144981    160.33418  0.034084647  0.034939047            2 
  393000    1.1235574   -6.7765278     160.6824  0.034071755   0.03492236            2 
  394000    1.1047169   -6.8269821    160.90458  0.034032272  0.034906262            3 
  395000    1.0986788   -6.8353434    161.21628  0.034011873  0.034890347            2 
  396000    1.0818979   -6.8536617    161.55089  0.033996399  0.034875235            2 
  397000    1.0873213   -6.7843338    162.68828  0.034149514  0.034859549            1 
  398000    1.1131005   -6.8150625    162.00849  0.033921375  0.034843534            1 
  399000    1.0848984    -6.787635     163.3245  0.034111216  0.034827935            3 
  400000    1.1049687   -6.7855145    163.73638  0.034111746  0.034812579            1 
  401000    1.1096249   -6.8045304    164.11192  0.034104722  0.034798013            1 
  402000    1.0764726   -6.8335166    163.33513  0.033858858  0.034781882            3 
  403000    1.0855024   -6.8086478    163.42178  0.033792759  0.034764838            1 
  404000    1.0868757   -6.8145856    164.49499  0.033930484  0.034748251            6 
  405000    1.0838985   -6.8153759    164.36932  0.033820849  0.034731758            2 
  406000    1.0721183   -6.8321464    165.36742   0.03394241  0.034716069            4 
  407000    1.0751762   -6.8478218    165.41152  0.033868043  0.034700815            2 
  408000    1.0976241   -6.8584469    166.22512  0.033951208  0.034685648            5 
  409000    1.1057767   -6.8020411    166.44155  0.033912296   0.03467085            2 
  410000    1.0821679   -6.8040989    166.98263  0.033939558  0.034655562            2 
  411000     1.079659   -6.8606573    166.85094   0.03383028  0.034639765            2 
  412000    1.1034269    -6.839165    167.20342  0.033819462  0.034623908            1 
  413000    1.0966643   -6.8072477    168.65358  0.034030182  0.034608703            3 
  414000    1.0709368   -6.8130372    168.27021  0.033870815  0.034594621            3 
  415000    1.0908975   -6.8162574    168.85703  0.033907034  0.034579907            1 
  416000    1.0966892   -6.8241988    168.60642  0.033775325  0.034565571            4 
  417000    1.0900069   -6.8028752    168.58054  0.033689157  0.034549906            2 
  418000    1.0858515   -6.8481054    168.84936  0.033662153   0.03453389            5 
  419000    1.0993658   -6.8518263    169.00881  0.033613526  0.034516922            3 
  420000    1.0896013   -6.8478033    169.24829  0.033581011  0.034500358            2 
  421000    1.0718404   -6.8451577    169.85333  0.033621007   0.03448415            5 
  422000    1.0983535   -6.8250092      170.217  0.033613152  0.034467473            3 
  423000    1.0939884   -6.8325298    170.32015   0.03355401  0.034449263            7 
  424000      1.10025   -6.8525142    170.03454  0.033418739  0.034430915            2 
  425000    1.0710935   -6.8414569    170.69533  0.033469673  0.034412565            2 
  426000    1.0882419   -6.8113409    171.33449  0.033516136  0.034394846            6 
  427000     1.099366    -6.825451    171.98001  0.033563624  0.034377636            1 
  428000    1.0737758   -6.8315475    171.73286  0.033437084  0.034360046           10 
  429000    1.0881175   -6.8346364    172.60965  0.033529458  0.034342767            2 
  430000    1.1100982   -6.8469349    172.65683  0.033460626  0.034325867            2 
  431000    1.0701552   -6.8471521     172.9935  0.033448085  0.034309393            3 
  432000    1.0910727   -6.8417037    173.31536  0.033432746  0.034292206            5 
  433000     1.071336   -6.8453373    173.62872  0.033415843  0.034275138            3 
  434000    1.0810389   -6.8288196     174.6564  0.033536174  0.034258992            3 
  435000    1.0833067   -6.8504701    174.67083  0.033461844  0.034243262            2 
  436000      1.10725   -6.8282343    175.37562  0.033519804  0.034228093            3 
  437000    1.0714869    -6.847042    175.67491  0.033500174  0.034213503            3 
  438000    1.1052167    -6.863754    176.05493  0.033495991   0.03419822            3 
  439000    1.0656579   -6.8372201    176.73253  0.033548315  0.034182929            3 
  440000    1.0666053   -6.8824829    176.73965  0.033473418  0.034167607            2 
  441000     1.094511   -6.8180889     177.6208  0.033564022   0.03415344            3 
  442000    1.0575349   -6.8833722    177.64676  0.033492978  0.034139166            3 
  443000    1.0891174   -6.8670857    177.56468  0.033401934  0.034124203            2 
  444000    1.0694095   -6.9000574    178.46312  0.033495331   0.03410973            2 
  445000    1.0829929   -6.8488047    179.05979  0.033531796  0.034095649            2 
  446000    1.0498994   -6.8703557    179.11037  0.033466064  0.034081416            3 
  447000    1.0983604   -6.8434265    178.95748  0.033362692  0.034066326            6 
  448000    1.0525484   -6.8335293    180.32647   0.03354287  0.034051964            2 
  449000    1.0811952   -6.8513767    180.20634  0.033445869  0.034038041            1 
  450000    1.0981255   -6.8321194    181.18783  0.033553303  0.034023953            2 
  451000    1.0836487   -6.8746937    181.04673  0.033452833  0.034010197            5 
  452000    1.0462945   -6.8941485    180.72718  0.033319907   0.03399564            3 
  453000     1.092154    -6.886072    181.49308  0.033387248  0.033980774            2 
  454000    1.0665415   -6.8400222    181.30587  0.033279345  0.033965497            3 
  455000    1.0848456   -6.8801571    181.62722  0.033265059  0.033950307            3 
  456000    1.0861054   -6.8353084    182.02244  0.033264335  0.033935432            2 
  457000    1.0489128   -6.8580651    182.77486  0.033328749   0.03392047            1 
  458000    1.0687551   -6.8873281    182.68954  0.033240455  0.033905928            1 
  459000    1.0830543   -6.8618117    182.97138  0.033219205  0.033891175            2 
  460000    1.0706273   -6.8718712    183.21814  0.033191692  0.033875927            1 
  461000    1.0488257   -6.8419196    183.55744  0.033181027  0.033860729            1 
  462000    1.0932884   -6.8649327     183.8498   0.03316194    0.0338453            3 
  463000    1.0606338    -6.839603      184.763   0.03325468  0.033830624            2 
  464000    1.0725408   -6.8793835     185.0542  0.033235309  0.033816672            5 
  465000    1.0639973   -6.8422402    186.08221  0.033348066  0.033802599            1 
  466000    1.0479878   -6.8542582     186.2842  0.033312625  0.033788248            1 
  467000    1.0953036      -6.8879    185.76675  0.033148956   0.03377402            3 
  468000    1.0705762   -6.8493742    186.51653  0.033211633  0.033759923            2 
  469000    1.0672896   -6.8943387    186.33623  0.033108783  0.033745465            2 
  470000    1.0590632   -6.8759749    186.80955  0.033122261  0.033731014            2 
  471000    1.0564541   -6.8530182    187.18183  0.033117805  0.033716365            3 
  472000    1.0526216   -6.8504963    187.31164  0.033070558  0.033700636            2 
  473000    1.0661711   -6.8897965    187.57674  0.033047346  0.033685501            1 
  474000    1.0679684   -6.9070664     187.9564  0.033044375  0.033670456            2 
  475000     1.048235   -6.8502735    188.53106  0.033075624  0.033655516            1 
  476000    1.0598926   -6.8849532    188.38952  0.032981359   0.03364015            2 
  477000    1.0561739   -6.9104408    188.33787  0.032903191  0.033624627            1 
  478000    1.0684442   -6.8844034    189.28668  0.032999771  0.033609222            2 
  479000    1.0468436   -6.8883464    189.70763  0.033004111  0.033593242            2 
  480000    1.0456372   -6.9035032    188.98838  0.032810483  0.033576727            2 
  481000    1.0763562   -6.8624456    189.81584  0.032885626  0.033560065            3 
  482000    1.0533498   -6.9005228    189.48867  0.032760836  0.033543305            3 
  483000    1.0903785   -6.9182558    189.97976  0.032777736   0.03352664            7 
  484000    1.0534398   -6.8954891    190.32159  0.032768869  0.033509458            2 
  485000    1.0729433   -6.8855612    190.52945   0.03273702   0.03349231            5 
  486000    1.0483508   -6.8895749    190.37893  0.032643849  0.033474781            5 
  487000    1.0811953   -6.9159811    190.80646  0.032649976  0.033457072            6 
  488000    1.0677522    -6.917668    190.61785  0.032550863  0.033439614            4 
  489000    1.0590032   -6.8880967    191.32247  0.032604375  0.033421597            2 
  490000    1.0550979   -6.8885092    191.11563  0.032502659   0.03340354            2 
  491000    1.0698139   -6.9142548    191.68156  0.032532513  0.033385006            2 
  492000     1.078214   -6.8877952    192.61312  0.032624174  0.033366747            3 
  493000    1.0624701   -6.9034274    192.01784  0.032457377  0.033349396            4 
  494000     1.053011   -6.9157076    192.21368  0.032424709  0.033331444            3 
  495000    1.0434332   -6.8868931    192.89402  0.032473741   0.03331297            2 
  496000    1.0497222   -6.8695208    193.37682  0.032489384  0.033294535            2 
  497000    1.0561186   -6.9066959    193.24794  0.032402404  0.033275967            1 
  498000    1.0532278   -6.8625113    193.67441  0.032408703  0.033257138            2 
  499000    1.0295088   -6.8685755    194.02076  0.032401596  0.033238842            4 
  500000    1.0753449   -6.8914956    194.61574  0.032435956  0.033221073            3 
  501000    1.0602088   -6.9036724    195.02166  0.032438732  0.033203652            1 
  502000    1.0749904   -6.8790235    195.56044  0.032463553  0.033186384            3 
  503000     1.049245   -6.8765486    195.37763  0.032368726  0.033168687            3 
  504000    1.0659397    -6.884716    195.44714  0.032315996  0.033150188            2 
  505000    1.0368011   -6.9009293    195.43762  0.032250432  0.033131556            4 
  506000    1.0570638   -6.9017663    196.12664   0.03230017  0.033112795            3 
  507000     1.022399   -6.9251708    196.14078  0.032238786  0.033094002            3 
  508000    1.0554744   -6.9058421    196.71668  0.032269796   0.03307503            2 
  509000    1.0461096   -6.8926168    197.52191   0.03233823  0.033056899            2 
  510000    1.0335097   -6.9337812    196.94415  0.032180416  0.033038759            1 
  511000    1.0532105    -6.916265    197.49938  0.032207988  0.033020273            2 
  512000    1.0591782   -6.8831795    197.75635  0.032186906  0.033001865            3 
  513000    1.0345207   -6.9212381    197.73984  0.032121482   0.03298333            3 
  514000    1.0571845   -6.8909457    198.32287  0.032153513  0.032964448            2 
  515000    1.0314036   -6.9035782     199.2336  0.032238447  0.032946284            2 
  516000    1.0526652   -6.9796125      198.715  0.032092216  0.032928315            2 
  517000    1.0470144   -6.9461419    199.19623  0.032107709  0.032910374            2 
  518000    1.0483277   -6.9412777    199.65807  0.032120024  0.032892417            3 
  519000      1.04706   -6.9359478     199.2788  0.031997239  0.032873896            4 
  520000    1.0648757   -6.9034878    200.25384  0.032091961  0.032855474            3 
  521000    1.0107083   -6.9419401    200.44819   0.03206145  0.032837217            2 
  522000    1.0417452   -6.8896152    201.21139   0.03212187   0.03281953            2 
  523000     1.053329   -6.9008945    201.72698  0.032142604  0.032802256            3 
  524000    1.0442569   -6.8957858    201.55478  0.032053877  0.032785049            3 
  525000     1.021647   -6.9461296    201.96187   0.03205744  0.032767222            3 
  526000    1.0539721   -6.9408241    201.89178   0.03198539  0.032749883            2 
  527000    1.0314231   -6.8904518    202.89571  0.032083445  0.032732727            2 
  528000    1.0615618   -6.9258934    202.46364  0.031954488  0.032715275            2 
  529000     1.054125   -6.9431759    202.71478  0.031933645  0.032697365            6 
  530000    1.0367729    -6.907815    203.79016  0.032042478  0.032679032            4 
  531000    1.0263943   -6.9118756    203.72603   0.03197207  0.032661671            2 
  532000    1.0261562   -6.9062296    204.39175  0.032016252  0.032644568            2 
  533000    1.0470111   -6.9409236    204.17669  0.031922559  0.032627648            2 
  534000    1.0261491    -6.896624    205.03415   0.03199659  0.032610909            2 
  535000    1.0509166   -6.9418112    204.92409  0.031919641  0.032594134            3 
  536000    1.0286906   -6.9812534    205.58653   0.03196308  0.032577581            1 
  537000    1.0498238   -6.9314652    206.34912  0.032021899  0.032561061            2 
  538000    1.0395368   -6.9217229    205.87264  0.031888574  0.032544457            4 
  539000    1.0469444   -6.9409028    206.36045  0.031904831  0.032527657            4 
  540000    1.0122978   -6.9477981    206.56447  0.031877233  0.032510963            2 
  541000    1.0320326   -6.9452105    206.79198  0.031853356  0.032494747            2 
  542000    1.0346047   -6.8985038    207.76876  0.031944767   0.03247863            1 
  543000    1.0324522   -6.9335495    208.41286  0.031984785  0.032462791            2 
  544000    1.0338403   -6.9676858    207.83511  0.031837486  0.032446325            1 
  545000    1.0338518   -6.9237674    208.52422  0.031884437  0.032430393            3 
  546000    1.0181041   -6.9598692    208.51305  0.031824336  0.032414145            4 
  547000    1.0496116   -6.9436255    208.67678    0.0317911  0.032397874            2 
  548000     1.012293   -6.9285711    208.95762  0.031775794  0.032381443            3 
  549000    1.0065311   -6.9608308    209.33626  0.031775389  0.032364928            2 
  550000    1.0475091    -6.966072    209.32972  0.031716624  0.032348414            3 
  551000    1.0146511   -6.9387532    210.32802  0.031810046  0.032332222            2 
  552000    1.0246512   -6.9051398    210.73289   0.03181354  0.032316265            2 
  553000    1.0305343    -6.924237    210.96949  0.031791665  0.032300443            3 
  554000    1.0435316   -6.9257175    210.99468  0.031738068  0.032284311            4 
  555000    1.0138762   -6.9438051    210.71894  0.031639481  0.032267882            3 
  556000    1.0403722   -6.9295677    211.15767  0.031648331  0.032251774            3 
  557000    1.0308522   -6.9731117    211.89566  0.031701924  0.032235812            2 
  558000     1.026779   -6.9367357    212.92179  0.031798356  0.032220035            2 
  559000    1.0405304   -6.9261674    213.10995  0.031769522   0.03220458            5 
  560000    1.0235372   -6.9965808    212.91726  0.031684116  0.032188805            2 
  561000    1.0298217   -6.9672289    213.55462  0.031722315  0.032172905            2 
  562000    1.0036829   -6.9521198    212.99367  0.031582691  0.032156949            2 
  563000    1.0409032   -6.9465379    213.23324  0.031562055  0.032140493            3 
  564000    1.0154133   -6.9374178    213.39481  0.031529966  0.032124306            2 
  565000    1.0295696     -6.95361     213.3682  0.031470236  0.032107507            7 
  566000    1.0352799   -6.9466412    214.19968  0.031537056    0.0320911            3 
  567000    1.0430942   -6.9732889    214.17825  0.031478285  0.032074433            2 
  568000    1.0104232   -6.9657414    215.19815  0.031572499  0.032057974            3 
  569000    1.0305761   -6.9584099    214.83253  0.031463464  0.032041909            3 
  570000    1.0193463   -6.9525421    215.48125  0.031503107  0.032025946            2 
  571000    1.0322804   -6.9548858    215.70043  0.031479922  0.032010032            5 
  572000   0.99466915   -6.9363687    216.25014  0.031504974  0.031994008            2 
  573000    1.0366873   -6.9056097    216.79551  0.031529307  0.031978116            6 
  574000    1.0466543   -6.9568608     217.4856  0.031574564  0.031962405            4 
  575000      1.02152   -6.9627264    216.92302  0.031438119  0.031946786            2 
  576000    1.0064237   -6.9485095    217.90255  0.031525254  0.031931668            2 
  577000    1.0162827   -6.9144619    218.22329  0.031516939  0.031916611            2 
  578000    1.0338612   -6.9395226    218.69759  0.031530795  0.031901654            1 
  579000    1.0282086   -6.9413295    218.86144  0.031499919  0.031886715            2 
  580000    1.0306487   -6.9502243    219.04946  0.031472624   0.03187212            2 
  581000    1.0358793    -7.003193    219.56578  0.031492511  0.031857045            2 
  582000    1.0403365   -6.9797278    219.14519  0.031378177  0.031842294            2 
  583000     1.039951    -6.941123     220.2012    0.0314753  0.031827608            3 
  584000    1.0247475   -6.9604118    219.85545  0.031372067  0.031812661            7 
  585000    1.0171741   -6.9523305    220.30039  0.031381821  0.031797025            3 
  586000    1.0140297   -6.9932434    220.17826  0.031310902    0.0317816           10 
  587000    1.0178784   -6.9730303     220.2699   0.03127057  0.031765738            2 
  588000    1.0357742   -6.9851121    221.09741  0.031334667  0.031750241            1 
  589000     1.010281   -6.9770341     221.1942  0.031295161  0.031734881            1 
  590000     1.019411   -6.9918038    221.21008  0.031244362  0.031719684            2 
  591000    1.0370975   -6.9819323    221.78498  0.031272558  0.031704329            2 
  592000    1.0297745   -6.9611633    222.08902  0.031262531  0.031689256            5 
  593000    1.0216039   -6.9757561    221.93694  0.031188441  0.031674225            2 
  594000    1.0143358   -6.9881507     222.6518  0.031236223  0.031659306            2 
  595000    1.0354699   -6.9848188    223.28709  0.031272702  0.031644337            2 
  596000    1.0297764   -6.9877467    223.94372  0.031312042  0.031629682            3 
  597000    1.0151299   -7.0178368    223.84305   0.03124554  0.031615302            3 
  598000   0.99535844   -6.9881719    224.81058  0.031328119  0.031601083            2 
  599000     1.021899   -6.9805429    224.80278  0.031274733  0.031587053            2 
  600000   0.99302993   -6.9932815    225.07677  0.031260662  0.031573161            3 
  601000    1.0066123   -7.0059214    224.42666  0.031118505  0.031558838            9 
  602000   0.99117353    -6.988497     225.0287  0.031150152  0.031544137            2 
  603000    1.0298687   -7.0053139     226.4322  0.031292455  0.031529976            2 
  604000    1.0264844    -6.973642    226.54328  0.031255972  0.031516232            3 
  605000    1.0160744   -6.9745857    226.10628  0.031144116  0.031502157            4 
  606000    1.0011713   -7.0156305    226.45311  0.031140417  0.031487721            3 
  607000    1.0104589   -6.9728831    228.05845  0.031309507  0.031473766            2 
  608000    1.0003204   -7.0129016    227.07953  0.031123839  0.031459577            3 
  609000    1.0194074   -6.9865263    226.96595   0.03105719  0.031445067            3 
  610000    1.0096694   -6.9925301    228.08439  0.031159069  0.031430599            2 
  611000    1.0108979   -6.9815911     228.1778  0.031120813  0.031416594            6 
  612000    1.0260305   -7.0251903    228.02365  0.031048972  0.031402013            1 
  613000    1.0274749    -7.038183    227.97262  0.030991384  0.031387277            3 
  614000    1.0057502   -6.9791618    228.84117   0.03105879  0.031372654           12 
  615000    1.0275537   -6.9538746    229.31543  0.031072551  0.031358194            2 
  616000    1.0155853   -6.9916615     229.2804   0.03101737  0.031343985            2 
  617000    1.0076232   -6.9774905    229.61847   0.03101276  0.031330162            3 
  618000    1.0043682   -7.0087308    229.89184  0.030999439   0.03131626            4 
  619000    1.0258981   -6.9880747    230.10777  0.030978428  0.031302325            2 
  620000   0.99210929   -7.0065826    230.52445  0.030984469   0.03128795            3 
  621000    1.0281532   -6.9860175    230.99535  0.030997766  0.031273493            5 
  622000    1.0150487   -6.9446486    231.44828  0.031008613  0.031259536            2 
  623000     1.012276   -6.9653147    231.67402  0.030989034  0.031245675            2 
  624000    1.0120782   -7.0221282      231.371  0.030898905  0.031231503            2 
  625000    1.0012564   -7.0156814    231.35984  0.030847979  0.031217194            3 
  626000    1.0035439   -7.0214754    232.10472   0.03089786   0.03120306            3 
  627000    1.0312567   -6.9943594    232.41037  0.030889204  0.031188847            3 
  628000   0.99346931    -6.977741    232.79752   0.03089139  0.031175122            2 
  629000    1.0050423   -7.0383323    232.74743  0.030835643  0.031161053            2 
  630000    1.0047005   -7.0109124    233.26399  0.030855025  0.031147198            2 
  631000   0.99608021   -7.0407277    233.79485  0.030876235  0.031133026            3 
  632000    1.0125706    -7.014322    233.73031   0.03081887  0.031119174            4 
  633000    0.9920937   -7.0175259    234.11205  0.030820438  0.031105569            2 
  634000   0.99572883   -6.9901705    234.68783  0.030847506  0.031091503            3 
  635000    1.0038271   -7.0305506    234.88556  0.030824877  0.031077803            5 
  636000   0.99871149   -7.0319524    234.25215  0.030693416  0.031064252            4 
  637000   0.99236553   -7.0163805    235.26287  0.030777455  0.031050127            4 
  638000   0.99975871   -7.0752093    235.17325  0.030717509  0.031035932            2 
  639000   0.98940434    -7.065305    235.33083  0.030689989  0.031021616            2 
  640000    1.0022598   -7.0062334    235.39997  0.030651037  0.031007478            4 
  641000    1.0081259   -7.0099502    236.19854  0.030707038  0.030993596            5 
  642000    1.0073579   -6.9674401    237.03054  0.030767204  0.030980134            6 
  643000     1.004652    -7.022109    237.17754  0.030738406  0.030966758            3 
  644000   0.96323165   -7.0233478    237.15195  0.030687364  0.030952915            3 
  645000    1.0013831   -6.9895282    238.29071  0.030786914  0.030939185            3 
  646000    1.0291619    -7.050998    237.32932  0.030615238  0.030925572            2 
  647000   0.98862735   -7.0215536    238.06018  0.030662054  0.030912207            3 
  648000   0.97636282   -6.9777362    239.28943  0.030772818  0.030898618            2 
  649000     1.007335   -7.0202255     239.2164  0.030716024  0.030885099            2 
  650000   0.98959199   -7.0109528    239.74762  0.030736875   0.03087154            4 
  651000   0.97505112   -7.0043511     239.3003  0.030632399  0.030858035            4 
  652000   0.97775944   -7.0350351    239.37445  0.030594894  0.030844424            3 
  653000   0.99059055   -7.0000146    240.46339  0.030687007  0.030830775            5 
  654000    1.0084294   -7.0286119    239.77684  0.030552604  0.030816816            2 
  655000   0.97323381   -7.0219364    240.23113  0.030563757  0.030802948            3 
  656000   0.99770968   -6.9825859    240.09807  0.030500262  0.030788717            3 
  657000   0.96088774   -7.0279414    240.82699  0.030546296  0.030774735            4 
  658000    0.9846802   -7.0288983    240.61134  0.030472561  0.030760711            6 
  659000   0.96631939   -7.0572476    241.32734  0.030516861  0.030746457            2 
  660000    1.0055747   -7.0478417    240.33411  0.030345216   0.03073206            3 
  661000   0.98843216   -7.0308174    240.94453  0.030376264  0.030717615            4 
  662000   0.99748344   -7.0263253    241.14266   0.03035532  0.030703054            2 
  663000   0.99194226   -7.0685396    240.88253  0.030276838  0.030687752            2 
  664000   0.98783017   -7.0450109    241.84391  0.030351896  0.030672526            3 
  665000   0.99900804   -7.0468685    241.44637  0.030256438  0.030657203            5 
  666000   0.98318967   -7.0288792    241.93533  0.030272189  0.030642187            2 
  667000   0.99655489   -7.0025855    242.04001  0.030239882   0.03062691            2 
  668000   0.99257017   -7.0146113    242.11998  0.030204588  0.030611426            3 
  669000   0.96851072   -7.0193334    242.25178  0.030175857  0.030595721            7 
  670000    0.9732299   -7.0145948    243.52605   0.03028931  0.030580329            8 
  671000   0.97319968   -7.0315295    243.10854  0.030192317  0.030565118            3 
  672000   0.98722333   -7.0380602    242.99582   0.03013341  0.030549476            2 
  673000   0.98424972    -7.027182    243.39838  0.030138481  0.030533958            3 
  674000   0.99499236   -7.0404686    243.76213  0.030138741  0.030518504            4 
  675000    1.0151855   -7.0675999    243.46777   0.03005775   0.03050284            3 
  676000   0.98360468   -7.0241787    243.84479  0.030059762  0.030487457            3 
  677000   0.99757203   -7.0653822    244.11477  0.030048593  0.030472187            3 
  678000   0.97668717   -7.0173603    245.01945  0.030115468  0.030457109            3 
  679000   0.97831784   -7.0438255    244.73151  0.030035776  0.030442019            3 
  680000   0.98151869   -7.0427293    245.42569  0.030076677  0.030426907            3 
  681000   0.97368517   -7.0329064    245.45363  0.030035932  0.030412177            3 
  682000   0.98595512   -7.0517169    246.02647  0.030061886  0.030397162            2 
  683000   0.97486728   -7.0265329     245.9223  0.030005161  0.030381841            4 
  684000   0.99657332   -7.0236045    245.83292  0.029950405  0.030366194            2 
  685000   0.97675059   -7.0358559     246.1044  0.029939708  0.030350549            6 
  686000   0.95976577   -7.0847554     245.8888  0.029869873  0.030334776            3 
  687000   0.99831915   -7.0426437    246.48285  0.029898453  0.030318906            5 
  688000    0.9770814   -7.1013917    245.96017  0.029791687  0.030303367            3 
  689000   0.96929925   -7.0944395    246.06074  0.029760611  0.030287423            4 
  690000   0.98080396   -7.0384608    246.08722  0.029720678  0.030271219            8 
  691000   0.98619758   -7.0818887    246.43205  0.029719253  0.030254848            7 
  692000   0.98302358   -7.0869695    246.35817   0.02966741  0.030238069            2 
  693000   0.98286314   -7.0410984    246.92701  0.029693002  0.030221464            4 
  694000   0.99824506    -7.081035    247.37923  0.029704519  0.030204856            2 
  695000   0.95540912   -7.0489938    247.87466  0.029721182  0.030188197            3 
  696000   0.96330751   -7.0640225    247.50852   0.02963464  0.030171458            4 
  697000   0.97547832   -7.0745549    247.14377  0.029548514  0.030154375            3 
  698000   0.99273884   -7.0685604    247.42166  0.029539358  0.030137103            3 
  699000   0.96640863   -7.0639071    248.04665  0.029571608  0.030119703            3 
  700000   0.99817204     -7.06734    247.56439  0.029471951  0.030102068            3 
  701000   0.95180441   -7.0586223    248.29479  0.029516736  0.030084765            4 
  702000   0.98455073   -7.0287084    248.88343  0.029544567   0.03006766            3 
  703000   0.95822555    -7.072276    248.01881  0.029400048  0.030050389            5 
  704000   0.97007969   -7.0677276    248.90583  0.029463284  0.030032855            4 
  705000   0.95620169   -7.0531863    249.07981  0.029442058  0.030015186            4 
  706000   0.97153885   -7.0706885     249.1983  0.029414341  0.029997766            5 
  707000    0.9674999     -7.08723    248.63259  0.029306058  0.029980155            2 
  708000   0.98326069   -7.1077916    249.34599  0.029348633  0.029962449            3 
  709000   0.96133994     -7.11981    250.28535  0.029417648  0.029944801            2 
  710000   0.98101775   -7.0924931    249.44322  0.029277374  0.029927323            8 
  711000    0.9618996   -7.0846088    250.24559  0.029330238  0.029909628            3 
  712000   0.96370964   -7.1153586    250.89811  0.029365416  0.029892073            4 
  713000   0.97649971   -7.0800589    250.45817  0.029272811  0.029874667            3 
  714000    0.9799102   -7.0695606    251.17532  0.029315513   0.02985753            2 
  715000   0.97257589   -7.0662727    251.49685  0.029311987  0.029840207            6 
  716000    0.9738686   -7.0630082    251.73527  0.029298798   0.02982293            3 
  717000   0.98595623   -7.0755641    252.23128  0.029315583  0.029805603            3 
  718000   0.97015381   -7.1221138    250.78951  0.029107417  0.029787707            3 
  719000   0.94034082   -7.1180177    250.66828  0.029052884  0.029769669            9 
  720000   0.97236959   -7.0838436      251.813  0.029145024  0.029751757            5 
  721000   0.97466422   -7.0880119    252.29527  0.029160341  0.029733993            2 
  722000   0.98677263   -7.1095359    251.62716  0.029042839  0.029716203            2 
  723000   0.96167417   -7.0998635    252.43232  0.029095472  0.029698395            3 
  724000   0.95567086    -7.080309    253.28328  0.029153232  0.029681068            3 
  725000    0.9742733   -7.0969598    253.26855  0.029111327   0.02966422            5 
  726000   0.95183213   -7.1022203    253.02431  0.029043195  0.029647041            2 
  727000   0.97773135   -7.1162692    252.83203  0.028981205  0.029629469            5 
  728000   0.95278862   -7.1123638    253.10813     0.028973  0.029611663            7 
  729000   0.94606327   -7.0847442    254.51166  0.029093697  0.029593964            3 
  730000   0.95151986   -7.0854326    254.48328  0.029050602  0.029576529            2 
  731000    0.9652799   -7.0792475    254.04432   0.02896082  0.029558878            3 
  732000   0.96693917   -7.1016078    253.90426  0.028905312  0.029541255            3 
  733000   0.97563843   -7.0819842    254.71472  0.028958017  0.029523676            3 
  734000   0.98163998   -7.0943657    254.91781  0.028941623  0.029506121            2 
  735000   0.96351311   -7.1193113    255.21719  0.028936189  0.029488609            3 
  736000   0.95325603   -7.0953549     255.4601  0.028924377  0.029470953            1 
  737000   0.96659145   -7.0966099     255.0594  0.028839823  0.029453183            1 
  738000   0.93755859   -7.0713372    255.58716  0.028860339  0.029435417            5 
  739000   0.97313106   -7.0945724    255.78107  0.028843152  0.029418006            2 
  740000   0.93439269   -7.1355813     255.8368   0.02881045  0.029400438            3 
  741000   0.96015358   -7.1335379    255.73263  0.028759855  0.029382652            2 
  742000   0.94186533    -7.088275    256.90067  0.028852276   0.02936506            2 
  743000   0.95874495   -7.1000629    256.47461  0.028765658  0.029347648            3 
  744000   0.95961177   -7.0962289    256.42382  0.028721306  0.029330176            4 
  745000   0.92884097   -7.1032846    257.07069  0.028755111  0.029312698            6 
  746000   0.97282761    -7.116755    257.90803  0.028810101  0.029295149            3 
  747000   0.96649459   -7.1151773    257.73462  0.028752188  0.029277823            5 
  748000   0.96392625   -7.0936223    257.74188  0.028714559  0.029260144            4 
  749000   0.94939816    -7.091166    258.44639  0.028754605  0.029242845            3 
  750000   0.93783328   -7.0620812     257.3168  0.028590755  0.029225681            2 
  751000   0.95503114   -7.0891307    258.17171  0.028647548  0.029207982            3 
  752000   0.95897065   -7.1166369    258.20528  0.028613174   0.02919022            3 
  753000   0.96197343   -7.1242786    258.32684  0.028588628  0.029172589            1 
  754000   0.95245199   -7.1056708    258.49384  0.028569168  0.029154711            3 
  755000   0.96577277    -7.116485    258.96573  0.028583414  0.029137114            2 
  756000   0.93395339   -7.1224188    258.87977   0.02853613  0.029119105            5 
  757000   0.94531845   -7.1086559    258.29032  0.028433545  0.029100921            2 
  758000   0.93965536   -7.1375629    258.79251  0.028451243  0.029082661            2 
  759000   0.95863416   -7.1187021    258.64628  0.028397704  0.029064465            6 
  760000   0.93588964   -7.1539964    259.55986  0.028460511  0.029046208            4 
  761000    0.9406715   -7.1182397    259.19345  0.028382988  0.029027817            3 
  762000   0.95238671   -7.1112782    260.01566  0.028435658  0.029009686            3 
  763000   0.95657804   -7.1283499     258.9733  0.028284545   0.02899157            4 
  764000    0.9596818   -7.1133327    259.63403  0.028319593  0.028973132            7 
  765000    0.9359497   -7.1323073    259.69095  0.028288774  0.028954748            2 
  766000   0.96593882   -7.1235246    259.97607  0.028282863  0.028936197            2 
  767000   0.94622779   -7.1256639    260.20469  0.028270827  0.028917673            2 
  768000   0.95179324   -7.1356716    259.86046  0.028196665  0.028899059            3 
  769000   0.95192972   -7.1284667    260.78754  0.028260462  0.028880759            3 
  770000   0.93035804   -7.1327126    260.42945  0.028185005  0.028862158            2 
  771000    0.9554735    -7.118182    260.67053  0.028174506  0.028843753            4 
  772000   0.93478659    -7.130055    260.43233  0.028112298  0.028825088            2 
  773000   0.94195619   -7.1035838    261.52577  0.028193808  0.028806598            4 
  774000    0.9393834   -7.1420677    261.10161  0.028111715  0.028788143            2 
  775000   0.94531597   -7.1371729    260.84391  0.028047732  0.028769373            3 
  776000   0.93143163   -7.1494331    261.23324  0.028053398  0.028750451            5 
  777000   0.94866732   -7.1338687    262.13884  0.028114418  0.028731599            2 
  778000    0.9476295   -7.1455293    261.85892  0.028048299  0.028712991            6 
  779000   0.93820568    -7.109515     262.4226  0.028072593  0.028694522            3 
  780000    0.9483122   -7.1185937    262.59187  0.028054687  0.028676223            3 
  781000   0.93554991   -7.1453681    263.23749  0.028087653  0.028657778            3 
  782000   0.94167679     -7.14138    263.19273  0.028046966   0.02863956            9 
  783000    0.9490567   -7.1299211    263.30422  0.028023012  0.028621165            3 
  784000   0.94412771   -7.1573172    263.65761  0.028024831  0.028602881            1 
  785000   0.94773728   -7.1103305    263.40395  0.027962203  0.028584687            5 
  786000   0.91538691   -7.1652693    262.86383  0.027869363  0.028566203            2 
  787000   0.92953218   -7.1583812    264.03666  0.027958138  0.028547657            2 
  788000   0.92694245   -7.1580036    264.09387  0.027928709  0.028529199            3 
  789000   0.94316285   -7.1537294    263.82214  0.027864611  0.028510872            1 
  790000   0.91337036   -7.1490873    263.65619  0.027811835  0.028492635            4 
  791000   0.92930992    -7.138008    265.45791  0.027966489  0.028474397            3 
  792000   0.93472867   -7.1444253    264.90103  0.027872583  0.028456366            2 
  793000   0.92798088   -7.1163879    266.06067  0.027959296  0.028438524            3 
  794000   0.92206453   -7.1541232    265.53123  0.027868517   0.02842046            4 
  795000   0.95757163   -7.1407119    265.62034  0.027842803  0.028402376            3 
  796000   0.93968707   -7.1574272     264.6239  0.027703507  0.028384107            2 
  797000   0.94154445   -7.1392815    266.08937  0.027821976  0.028365763            4 
  798000   0.94568727   -7.1338631    265.68657  0.027745047  0.028347086            3 
  799000   0.92647125   -7.1264991    265.31973  0.027672062  0.028328448            8 
  800000   0.93035059   -7.1440633    265.76429  0.027683781  0.028309902            1 
  801000   0.94564506   -7.1638731    266.30461  0.027705432  0.028291516            5 
  802000   0.94927193   -7.1578806    266.33145  0.027673675  0.028272939            3 
  803000   0.94031923   -7.1622787    266.11574  0.027616826  0.028254266            3 
  804000   0.93867073   -7.1542329    265.96422  0.027566772   0.02823554            4 
  805000   0.92514649   -7.1220902    267.71096   0.02771335  0.028217259            5 
  806000   0.93065402   -7.1777684    265.98355  0.027500367  0.028198826            3 
  807000   0.91830065    -7.151547    267.14811  0.027586546  0.028180134            3 
  808000   0.93626643    -7.153903    266.41147  0.027476431  0.028161621            5 
  809000   0.92619248   -7.1600453    267.52932  0.027557614  0.028142942            2 
  810000   0.92346838   -7.1496564    267.35322  0.027505476  0.028124296            4 
  811000    0.9281906   -7.1311682    267.21259  0.027457109  0.028105985            2 
  812000   0.92574777   -7.1705897    268.28714  0.027533574  0.028087723            4 
  813000   0.92286615   -7.1501965    268.88471  0.027560959  0.028069625            2 
  814000   0.92707761   -7.1568228    268.87942  0.027526558  0.028051501            3 
  815000   0.92967449   -7.1731086    268.75191  0.027479745  0.028033298            2 
  816000   0.92277337   -7.1589974    268.36152  0.027406201  0.028015015            4 
  817000   0.93116596   -7.1659565    268.81814  0.027419231  0.027996786            5 
  818000   0.92358629   -7.1706621    269.33054  0.027437911  0.027978633            5 
  819000    0.9118565   -7.1726284    269.75034  0.027447125  0.027960661            3 
  820000   0.92726039   -7.1655297    269.62254  0.027400665  0.027942599            3 
  821000   0.90683073   -7.1512494    270.09743  0.027415492  0.027924545            3 
  822000   0.93785057   -7.1441481    269.72081  0.027343959   0.02790632            8 
  823000   0.93927586   -7.1400367    270.64841  0.027404659  0.027888278            3 
  824000    0.9150765   -7.1485742    269.86214  0.027291883  0.027870379            4 
  825000   0.94205696   -7.1599665    270.10733  0.027283569  0.027852303            5 
  826000   0.93461988   -7.1613566    270.22824  0.027262736  0.027834429            4 
  827000   0.92810328    -7.180217    270.48134  0.027255274   0.02781672            3 
  828000   0.92422622   -7.1685392    271.63729  0.027338696  0.027799011            3 
  829000   0.92431208   -7.1388182    271.92707  0.027334848  0.027781634            4 
  830000   0.91994142   -7.1878496    272.87329  0.027396917  0.027764547            3 
  831000   0.94162864   -7.1296928    272.96367  0.027373011  0.027747304            4 
  832000   0.91263612   -7.2049489    272.40378  0.027284033  0.027730436            2 
  833000   0.91544358   -7.1893588    272.77835  0.027288751  0.027713438            4 
  834000   0.92309693   -7.2051227    273.39409  0.027317555  0.027696407            3 
  835000   0.92563664   -7.1773764    273.18489  0.027263961  0.027679182            3 
  836000   0.93778962   -7.1640975    274.07719  0.027320294  0.027662049            3 
  837000   0.92172028   -7.2049527    272.92962  0.027173399  0.027644681            2 
  838000   0.93569754   -7.1831653    273.69797   0.02721738  0.027627376            3 
  839000   0.91367714   -7.1909571    274.30758  0.027245489  0.027610085            4 
  840000   0.90978452   -7.1952357    273.54603  0.027137503  0.027592618            6 
  841000   0.91415673   -7.1872739     274.0658  0.027156738  0.027575086            6 
  842000   0.91517653   -7.1470076    273.82323  0.027100478  0.027557816            2 
  843000   0.90332287    -7.170025    274.28296  0.027113776  0.027540377            2 
  844000   0.90708887   -7.1928104    273.85723  0.027039616  0.027522731            3 
  845000   0.91421801   -7.1807437    274.69602  0.027090337  0.027505368            4 
  846000   0.92207558   -7.2043398    274.71923  0.027060602  0.027487989            9 
  847000   0.89564855   -7.2113992    275.36008  0.027091704  0.027470616            3 
  848000   0.92723952   -7.2114965     274.8437  0.027009012  0.027453002            4 
  849000    0.9203612   -7.1940352    275.04785  0.026997237  0.027435378            3 
  850000   0.90127372   -7.2159529    274.08019  0.026870607  0.027417681            2 
  851000   0.90487156   -7.2101708      274.555  0.026885527  0.027399842            7 
  852000   0.93642185   -7.2048975    275.20452    0.0269175  0.027382243            3 
  853000   0.89061763   -7.1960007    276.13854  0.026977193  0.027364891            4 
  854000   0.90066797   -7.2203205    276.14051  0.026945796  0.027347371            3 
  855000   0.89427046   -7.2095336     275.7933  0.026880439  0.027329698            2 
  856000   0.89936097   -7.2351722    275.81053  0.026850713  0.027312058            5 
  857000   0.92627167    -7.189066    275.88916  0.026827029  0.027294381            4 
  858000   0.91176344   -7.1869533     275.7291  0.026780215   0.02727686            2 
  859000   0.91060232    -7.205912    276.20837  0.026795535  0.027259146            2 
  860000   0.90754975   -7.1708707    276.92641  0.026833954  0.027241568            3 
  861000   0.89482722   -7.2354347    276.72806  0.026783591  0.027224101            2 
  862000   0.91140497   -7.1871524    277.51735  0.026828824  0.027206729            4 
  863000    0.9154676   -7.1803238    277.87815  0.026832575  0.027189337            5 
  864000   0.91317837    -7.182042    278.11737  0.026824592   0.02717204            8 
  865000   0.90467862   -7.2008675    277.09934  0.026695505   0.02715475            2 
  866000   0.90458407   -7.1865374    277.43702  0.026697173   0.02713739            3 
  867000   0.90154903   -7.2278351    277.60155  0.026682195  0.027120013            2 
  868000   0.91125488   -7.2041402    278.05167  0.026694669   0.02710264            9 
  869000   0.91298542   -7.2196751    278.40463  0.026697797  0.027085487            2 
  870000   0.90598563   -7.1975486    278.38626   0.02666535  0.027068381            4 
  871000   0.90958869   -7.1805597    279.00912  0.026694329  0.027051144            5 
  872000   0.91359438   -7.2151677    279.19989  0.026681947  0.027034104            5 
  873000   0.89677078   -7.2397346    278.85027  0.026618009  0.027016923            4 
  874000   0.89817582   -7.1939222    279.05185  0.026606774  0.026999694            3 
  875000   0.91088727   -7.2147929    279.35251  0.026605001  0.026982431            3 
  876000   0.93103194   -7.1915833     279.4655  0.026585378  0.026965068            4 
  877000     0.890555   -7.2230501    279.25364  0.026534933  0.026947776           12 
  878000   0.91160805   -7.2163712    279.24193    0.0265036  0.026930358            4 
  879000   0.90820214    -7.227881    279.38745  0.026487244    0.0269131            3 
  880000   0.89947091   -7.2502131    278.59286    0.0263819  0.026895541            8 
  881000   0.91378483   -7.2184647    278.85699  0.026376938  0.026877859            4 
  882000   0.89361138   -7.2638098    279.74691  0.026431114  0.026860062            4 
  883000   0.91589157   -7.2086481     279.8381  0.026409787  0.026842342            4 
  884000   0.90105503   -7.2109595    280.22028  0.026415939  0.026824901            3 
  885000   0.90850497   -7.2353138    280.32373  0.026395831  0.026807485            6 
  886000   0.89766998   -7.2201865    280.79642  0.026410499  0.026790206            2 
  887000   0.90251969   -7.2016385    280.99395  0.026399281  0.026772954            2 
  888000   0.88636195   -7.2568744    280.76864  0.026348409  0.026755623            6 
  889000   0.87712705   -7.2435159    281.04168  0.026344365  0.026738367            3 
  890000   0.90323682   -7.2389671    281.48841  0.026356592  0.026721114            3 
  891000   0.89978934   -7.2473442    281.58006  0.026335584   0.02670386            9 
  892000   0.89927545    -7.251073    281.19426  0.026270017  0.026686487            3 
  893000   0.89284802   -7.2047016    282.88632    0.0263985  0.026669372            5 
  894000    0.8984946   -7.2216549    282.80419  0.026361315  0.026652356            4 
  895000   0.91213232   -7.2327031    282.84634  0.026335786  0.026635307            5 
  896000   0.90833428   -7.2350099    282.42893  0.026267572  0.026618153           10 
  897000   0.90867709   -7.2502439    282.37225  0.026233022  0.026601023            6 
  898000   0.88807991   -7.2398319    282.45508  0.026211496  0.026583887            2 
  899000   0.90858503   -7.2429164    282.73474  0.026208263  0.026566806            3 
  900000    0.9099764   -7.2285597    282.88682  0.026193224  0.026549784            5 
  901000   0.88379536   -7.2254315    282.55234  0.026133217  0.026532742            4 
  902000   0.88185401   -7.2348585    282.63874  0.026112227  0.026515759            5 
  903000   0.89218587    -7.230432    283.72163  0.026183244  0.026498796            2 
  904000   0.89248789   -7.2391841    283.70094  0.026152372  0.026481791            4 
  905000   0.88442432   -7.2322939    283.77301  0.026130111  0.026464905            5 
  906000   0.91370639   -7.2543263    283.79876  0.026103638  0.026447932            4 
  907000   0.90308598   -7.2731188    283.94787  0.026088558   0.02643096            2 
  908000    0.8912528   -7.2693447    284.49621  0.026110151  0.026413844            3 
  909000   0.90545472   -7.2511999    284.93849  0.026121973  0.026396869            3 
  910000   0.88999165   -7.2653771    284.81555   0.02608201  0.026379894            4 
  911000   0.88907015   -7.2309083    284.81368  0.026053209  0.026363082            2 
  912000   0.90415973   -7.2617442    285.22579  0.026062298  0.026346389            5 
  913000   0.87139438   -7.2580701    285.02752  0.026015655    0.0263296            2 
  914000   0.89864789   -7.2533547    285.20627   0.02600349  0.026312612            2 
  915000   0.89082546   -7.2187868    286.00694  0.026047991  0.026295932            2 
  916000   0.88935087   -7.2532407    285.56749  0.025979575  0.026279322            4 
  917000   0.88823691   -7.2480071    284.97893  0.025897758  0.026262434            3 
  918000   0.89927417   -7.2755821    285.75912   0.02594037  0.026245552            3 
  919000   0.88217724   -7.2601369    285.92902   0.02592755  0.026228784            4 
  920000   0.87317703   -7.2671457     285.8974  0.025896504  0.026211873            2 
  921000   0.88265719   -7.2866297    286.36894  0.025911052  0.026195169            6 
  922000   0.90112155   -7.2560602    287.39009  0.025975244  0.026178603            3 
  923000   0.87696542   -7.2687337    287.27518  0.025936726  0.026161944            4 
  924000   0.88316567    -7.251487    287.44909  0.025924341  0.026145279            3 
  925000   0.87028278   -7.2371076    287.10484  0.025865301  0.026128628            5 
  926000   0.87489796   -7.2406721     286.4003  0.025773966  0.026111987            3 
  927000   0.88538496   -7.2788373    287.03819  0.025803505  0.026095283            5 
  928000   0.90324498    -7.254811     287.5875  0.025825027  0.026078735            3 
  929000   0.88262482   -7.2613911    287.44774  0.025784691  0.026062232            3 
  930000    0.8817506   -7.2804128    288.41413   0.02584356  0.026045805            4 
  931000   0.90203973   -7.2456584     289.4663   0.02590998   0.02602955            6 
  932000   0.89145839   -7.2472541    289.09172  0.025848687  0.026013396            3 
  933000   0.86199977   -7.2580304    288.03239  0.025726366  0.025997035            2 
  934000   0.87674703   -7.2691732     288.4561  0.025736626  0.025980582            9 
  935000   0.89439464   -7.2660252    288.07337  0.025674988  0.025964139            4 
  936000   0.88821963    -7.257051    288.98842  0.025729026  0.025947728            2 
  937000   0.88236931   -7.3094847     288.3946  0.025648754  0.025931242            4 
  938000   0.86874506   -7.3044423    288.21403  0.025605368  0.025914678            3 
  939000   0.87114415   -7.2486794    289.50579   0.02569274  0.025898157            2 
  940000   0.88328204   -7.2910809    289.70765  0.025683303   0.02588166            9 
  941000   0.88288153   -7.3070631    289.20907  0.025611855  0.025865147            3 
  942000    0.8676098    -7.285207    289.94955  0.025650173  0.025848664            3 
  943000   0.88214622    -7.291021    289.06765  0.025545038  0.025832097            2 
  944000   0.87525463   -7.2601337    290.00411  0.025600645  0.025815694            2 
  945000   0.85256302   -7.2690134    290.85876  0.025648921  0.025799346            3 
  946000   0.89672672   -7.2633329    289.95621  0.025542302  0.025783001            5 
  947000   0.88155016   -7.2651168    291.08976  0.025615079  0.025766782            3 
  948000   0.88723274   -7.2600869    290.75907   0.02555899  0.025750478            5 
  949000   0.89177967   -7.2752913    290.66802  0.025524062   0.02573414            3 
  950000   0.84753075   -7.2645849    291.26148  0.025549252  0.025717649            3 
  951000   0.86986005   -7.2871849    290.60293   0.02546468  0.025701043            4 
  952000   0.85374662   -7.3042561    289.55336  0.025346057  0.025684228            3 
  953000    0.8824613   -7.3142638    289.47228  0.025312372  0.025667486            9 
  954000   0.86574218   -7.2609168     290.4672  0.025372746  0.025650688            3 
  955000   0.87719866   -7.2867323    290.37915  0.025338495  0.025633869            3 
  956000   0.84533542   -7.3302367     290.9462  0.025361419  0.025617117            3 
  957000    0.8618433   -7.2897647    290.44445  0.025291227  0.025600408            3 
  958000   0.86268132   -7.3156285     290.5263  0.025271947  0.025583675            3 
  959000   0.85955655   -7.2759355    291.59652  0.025338592  0.025567164            3 
  960000   0.86632524   -7.2953726    291.29848  0.025286326  0.025550651            5 
  961000   0.85746922   -7.2762306    292.44436  0.025359379  0.025534182            3 
  962000   0.87520701   -7.3173203    291.54761  0.025255337  0.025517865            3 
  963000   0.87582641   -7.2529828    293.80322  0.025424301  0.025501513            2 
  964000   0.84605993   -7.2944177    292.33008  0.025270581  0.025485174            3 
  965000   0.87204651   -7.2812958    292.71614  0.025277732   0.02546877            4 
  966000   0.86425947   -7.2746095    293.12419  0.025286766  0.025452453            5 
  967000   0.88022684   -7.2850839    292.43733  0.025201425  0.025436075            7 
  968000   0.87873003   -7.2803042    292.18829  0.025153951   0.02541962            2 
  969000   0.86451455   -7.3041209    292.36134  0.025142875  0.025403193            6 
  970000   0.86656958    -7.298806    293.53084  0.025217426  0.025386758            5 
  971000   0.86798653   -7.3197395    293.47026  0.025186256  0.025370457            4 
  972000   0.85946051   -7.2656778    293.29481  0.025145302  0.025354174            4 
  973000   0.88477883   -7.3012841    292.55387  0.025056001  0.025337779            3 
  974000   0.88446613   -7.3160069    293.21161  0.025086551  0.025321439            5 
  975000   0.87393696   -7.3023083    293.84656  0.025115091  0.025304859            5 
  976000   0.86325104   -7.2934896    294.11609  0.025112371  0.025288513           14 
  977000   0.86530005    -7.297427    294.52311  0.025121385  0.025272061            3 
  978000   0.85762852   -7.2938356    294.11423  0.025060858   0.02525575            4 
  979000   0.85639748   -7.2857711    294.06449  0.025031026  0.025239389            3 
  980000   0.89777391   -7.2837816    294.63854  0.025054297  0.025222926            3 
  981000   0.87028452   -7.2870617    293.67919  0.024947263  0.025206522            2 
  982000   0.85685536   -7.3348894    293.19289  0.024880592  0.025189989            6 
  983000   0.84963204    -7.292082    294.72166  0.024984881  0.025173392            2 
  984000   0.86809625   -7.3188563     294.0098  0.024899204  0.025156837            4 
  985000   0.85440535   -7.3194974    294.16885  0.024887381  0.025140154            4 
  986000   0.86599672   -7.3401653    294.23484  0.024867718  0.025123357            4 
  987000   0.86774413   -7.3266262     294.5888  0.024872408  0.025106655            3 
  988000   0.85550284   -7.3211043    294.16167  0.024811207  0.025089911            3 
  989000   0.86220199   -7.3188525    293.69453  0.024746758   0.02507308            5 
  990000   0.85049588   -7.3065922    293.54787  0.024709416  0.025056238            2 
  991000   0.86747861   -7.3377703    293.77408  0.024703505   0.02503941            5 
  992000   0.85488997   -7.3353916    294.51069  0.024740481  0.025022611            2 
  993000   0.85655967   -7.2947527    295.59806  0.024806819  0.025005817            8 
  994000   0.86003897    -7.315358    294.43402  0.024684274   0.02498887            5 
  995000   0.84605271   -7.3043527    295.21134  0.024724568  0.024972001            2 
  996000   0.88162731   -7.3132276    294.74328  0.024660583  0.024955226            3 
  997000   0.84697778   -7.3346182    295.01823  0.024658829  0.024938323            2 
  998000   0.83892986   -7.3019603    295.27877  0.024655876  0.024921456            6 
  999000   0.87908444   -7.3230831     294.5501  0.024570412  0.024904564            8 
 1000000   0.86239299   -7.3320319    295.33752   0.02461146  0.024887665            2 
 1001000   0.86949009    -7.306253    295.96743  0.024639313   0.02487092            4 
 1002000     0.850968   -7.3055118    295.74641  0.024596341  0.024854263            4 
 1003000   0.86582236   -7.3238601    296.15118  0.024605449  0.024837668            5 
 1004000   0.84457064   -7.3376748    295.59605  0.024534865   0.02482118            4 
 1005000   0.84185037   -7.3363741    296.10449  0.024552611  0.024804506            6 
 1006000    0.8576511   -7.3062799    296.31121  0.024545329  0.024787742           10 
 1007000   0.84683585   -7.2918103    296.81128  0.024562337  0.024771086            3 
 1008000    0.8595677   -7.3703072    295.88139  0.024461094  0.024754276            4 
 1009000   0.86516354   -7.3556739    296.57365  0.024494025  0.024737477            7 
 1010000    0.8413605   -7.3446952      296.684  0.024478878  0.024720749            5 
 1011000   0.85006959   -7.3318591    296.71414   0.02445715   0.02470423            3 
 1012000   0.85227013   -7.3128012    297.62231  0.024507766  0.024687881            7 
 1013000   0.84211459   -7.3402057    297.02312  0.024434281  0.024671404            4 
 1014000    0.8574966   -7.3382943    298.23399  0.024509697  0.024654962            1 
 1015000   0.85291443    -7.368636    298.35074  0.024495134  0.024638636            5 
 1016000   0.84818066    -7.345163    298.36853  0.024472485   0.02462229            4 
 1017000   0.85221924   -7.3213919    298.37852   0.02444924  0.024606101            3 
 1018000   0.84442945   -7.2936902    298.79505  0.024459319  0.024589902            5 
 1019000   0.83642405   -7.3380294    298.17735  0.024384801  0.024573731            5 
 1020000   0.86670825   -7.3363463    298.21724  0.024364153  0.024557469            2 
 1021000   0.86502723   -7.3336941    298.99891   0.02440409  0.024541235            3 
 1022000   0.84327022    -7.316006    299.45603  0.024417485  0.024525184            4 
 1023000   0.86126683   -7.3232214     299.2789  0.024379187  0.024509153            5 
 1024000   0.84096914   -7.3425013    299.46671  0.024370663  0.024493054            3 
 1025000   0.86515165   -7.3404832    299.53887  0.024352754  0.024476937            3 
 1026000   0.83873033   -7.3513752    298.57415  0.024250662  0.024460639            5 
 1027000   0.83693739   -7.3364313    299.39315  0.024293505  0.024444251            6 
 1028000    0.8545355    -7.360231    299.14806  0.024250005  0.024427874            4 
 1029000   0.81793788   -7.3491163    298.99942  0.024214401   0.02441157            5 
 1030000   0.83993308   -7.3698618    299.14352   0.02420255  0.024395234            9 
 1031000   0.85026069   -7.3493205    299.79425  0.024231673  0.024378939            4 
 1032000     0.822327   -7.3073421    299.58581   0.02419136  0.024362738            2 
 1033000   0.85252185   -7.3445819    299.48413  0.024159739   0.02434652            2 
 1034000   0.83602866   -7.3135284    300.19105  0.024193347  0.024330371            5 
 1035000   0.82694578   -7.3384723    299.93533  0.024149382  0.024314234            4 
 1036000   0.82800562   -7.3482348    300.33091  0.024157891  0.024298094            5 
 1037000   0.82984594   -7.3543635    300.89879  0.024180231  0.024282086            4 
 1038000   0.84938101   -7.3509603    300.77428  0.024146939  0.024265941            2 
 1039000   0.84943728   -7.3784615    299.75768  0.024042162  0.024249686            4 
 1040000   0.82050921   -7.3978773    300.20069  0.024054543  0.024233367            3 
 1041000   0.83096059   -7.3692445    300.32136  0.024041095  0.024217057            4 
 1042000   0.84915185   -7.3873936    301.14557  0.024083939  0.024200887            3 
 1043000   0.83086111   -7.3323938    301.17519  0.024063215  0.024184708            4 
 1044000   0.84697545   -7.3693751    301.11256  0.024035166  0.024168695            4 
 1045000   0.84324884   -7.3836508    301.74171  0.024062337  0.024152637            6 
 1046000   0.84028832   -7.3482894    301.63839  0.024031102  0.024136609            3 
 1047000   0.83828739    -7.361849    301.46465  0.023994321  0.024120581            1 
 1048000   0.82634186   -7.3911978    302.10002  0.024021948  0.024104607            2 
 1049000   0.83170325    -7.382786    302.11073  0.023999899  0.024088732            4 
 1050000    0.8426124   -7.3687349    302.03407  0.023970958  0.024072914            8 
 1051000   0.82499391   -7.3657649    302.67811  0.023999216  0.024057015            4 
 1052000   0.82779868   -7.3333471    302.54604  0.023965941  0.024041137            2 
 1053000   0.83479008   -7.3687145    302.69326  0.023954832  0.024025441            2 
 1054000   0.83055068   -7.4154566    302.22903  0.023895401  0.024009701            7 
 1055000   0.83558604   -7.3330093    303.97695  0.024010817  0.023993957            8 
 1056000   0.83858377   -7.3665507    302.85959  0.023899905  0.023978205            7 
 1057000   0.82380892   -7.3650327    302.58191  0.023855402  0.023962363            2 
 1058000   0.83971717   -7.4008032    302.98394  0.023864519  0.023946453            2 
 1059000   0.85076954    -7.377536    303.39611  0.023874419  0.023930603            5 
 1060000   0.82025461   -7.3752218    303.00027  0.023820776  0.023914772           11 
 1061000   0.82763453   -7.3710618    302.80227  0.023782773   0.02389888            4 
 1062000   0.82755204   -7.3805411    303.36061  0.023804191  0.023883091            4 
 1063000   0.83306397   -7.3870182    303.25038  0.023773156  0.023867297            7 
 1064000   0.82107578   -7.3713562    303.81719  0.023795206  0.023851534            4 
 1065000   0.84215734   -7.3413897    304.37577   0.02381657  0.023835766            4 
 1066000    0.8377603   -7.3897206    302.83549  0.023673819  0.023820043            5 
 1067000   0.82620675   -7.4003666    303.38613  0.023694636  0.023804139            3 
 1068000   0.82690414   -7.3806117    303.73292   0.02369951  0.023788192            6 
 1069000   0.81690375   -7.3897582    303.29238  0.023642998  0.023772343            2 
 1070000   0.81144004   -7.3767048    303.89012  0.023667455   0.02375631            6 
 1071000   0.83389582   -7.3833627    303.94781  0.023649845  0.023740328            4 
 1072000   0.82953881    -7.405027    303.58845  0.023599848  0.023724367            3 
 1073000   0.81204625   -7.3904904    304.30595  0.023633578  0.023708505            3 
 1074000   0.81694326   -7.3994392    304.58943  0.023633568  0.023692642            5 
 1075000   0.84849905   -7.3842588    303.78356  0.023549113  0.023676713            4 
 1076000   0.83266106   -7.3942305     304.1417  0.023554964  0.023660692            5 
 1077000   0.81405696   -7.4070526    304.30638  0.023545836  0.023644765            2 
 1078000   0.81795896   -7.4248659     304.2813  0.023522055  0.023628876            6 
 1079000   0.81542101   -7.4057195    304.39734  0.023509217  0.023612809            3 
 1080000   0.81060416    -7.403523    303.85076  0.023445275  0.023596807            3 
 1081000   0.81483369   -7.3953531    305.03162  0.023514618  0.023580801            5 
 1082000    0.8202955   -7.3974976    304.96897   0.02348806   0.02356487            6 
 1083000   0.83505968   -7.4212816    304.39368  0.023422105  0.023548923            5 
 1084000   0.80595254   -7.3827598    305.07323  0.023452739  0.023532921            3 
 1085000   0.81828869   -7.3974131    305.09458  0.023432763  0.023516957            7 
 1086000   0.81682484   -7.3797677    305.26745  0.023424451  0.023501015            2 
 1087000   0.78797839   -7.4041086    304.90489  0.023375107  0.023485028            3 
 1088000   0.81672433   -7.4002574    304.83375  0.023348173  0.023468938            3 
 1089000   0.83052246   -7.4141698    304.91073  0.023332624  0.023452819            4 
 1090000   0.82151581   -7.3879841    304.88908  0.023309563  0.023436763            3 
 1091000   0.83398532   -7.3962912    305.39731  0.023327017   0.02342073            5 
 1092000   0.81348295   -7.4126065    305.33857  0.023301173  0.023404738            4 
 1093000   0.81993979   -7.4247055    305.37611  0.023282716  0.023388736            3 
 1094000   0.82460777   -7.4296454    305.30599  0.023256093  0.023372739           12 
 1095000   0.80934362   -7.4083216    305.75866  0.023269305  0.023356741            3 
 1096000    0.8130053   -7.4203537    306.26024  0.023286211    0.0233408            5 
 1097000   0.83026927    -7.387761    306.11454  0.023253915  0.023324992            3 
 1098000   0.82715542   -7.4109292     305.5795   0.02319213  0.023309132            6 
 1099000   0.80882847   -7.4191133    305.87992  0.023193806  0.023293235            4 
 1100000   0.78895396   -7.4492592    306.21277  0.023197937  0.023277249            4 
 1101000   0.81276078   -7.4030001    306.79745  0.023221121  0.023261243            3 
 1102000   0.79803794   -7.4203929    306.22161  0.023156504   0.02324526            5 
 1103000   0.80890688    -7.390065    306.58627  0.023163061  0.023229276            3 
 1104000   0.82102775   -7.3939564    307.04195  0.023176475   0.02321349            6 
 1105000   0.80975107   -7.4255774    306.63051  0.023124473  0.023197671            3 
 1106000   0.82569355    -7.429222    306.96638  0.023128871  0.023181873            4 
 1107000   0.80089984   -7.4202832    306.34992  0.023061572  0.023166087            4 
 1108000   0.81961263   -7.4148362    307.23422  0.023107267  0.023150301            4 
 1109000   0.83206643   -7.3999717    307.18919  0.023083047  0.023134577            3 
 1110000   0.80413095   -7.4123779    306.91495  0.023041663   0.02311879            8 
 1111000   0.80523426   -7.4551462    307.64889  0.023075974  0.023103112            8 
 1112000   0.80328397   -7.4172589    307.60443  0.023051891  0.023087441            6 
 1113000   0.79362838   -7.4250868     308.2043  0.023076093  0.023071729            4 
 1114000   0.81717267   -7.4103557    308.87958  0.023105894  0.023056102            5 
 1115000   0.80344053   -7.4237943    307.88799   0.02301106  0.023040532            4 
 1116000   0.80574156   -7.4372976    307.98551  0.022997723  0.023024967            4 
 1117000   0.81009964   -7.4030942    308.46749  0.023013092   0.02300943            7 
 1118000   0.79572877   -7.4121287    308.48276  0.022993647  0.022993909            6 
 1119000   0.79402254   -7.4146262    308.25518   0.02295615  0.022978529            5 
 1120000   0.78351393   -7.4177507    308.16489  0.022928935   0.02296298            7 
 1121000   0.82262521   -7.4303392    309.13367  0.022980499  0.022947474            5 
 1122000   0.80310273   -7.4415067    308.24948  0.022894346  0.022932003           14 
 1123000   0.80952436   -7.4391069    308.51377  0.022893571  0.022916372            9 
 1124000   0.81858128   -7.4486892    308.62747  0.022881633  0.022900662            3 
 1125000   0.81169489   -7.4578175    308.37582  0.022842654  0.022884935            9 
 1126000   0.80004195   -7.4430598    307.88928  0.022786359  0.022869237            4 
 1127000   0.79282993    -7.430008    308.54203  0.022814406  0.022853587            3 
 1128000   0.79714053   -7.4411317     308.7726  0.022811215  0.022838022            7 
 1129000   0.79506847   -7.4274501    309.19083   0.02282188  0.022822488            5 
 1130000   0.79396085   -7.4715341     308.4131  0.022744329  0.022806941            8 
 1131000   0.80451919   -7.4653166    309.34994  0.022793246  0.022791477            8 
 1132000    0.8066573   -7.4551066    309.97384   0.02281904  0.022775971           12 
 1133000   0.79789362   -7.4561004     309.3912  0.022756046  0.022760494            6 
 1134000   0.81579179   -7.4502589    309.86061  0.022770474  0.022745013            2 
 1135000   0.80535422    -7.460323    310.10219  0.022768149    0.0227296            3 
 1136000   0.79737795   -7.4703884    309.17834  0.022680336  0.022714141            3 
 1137000   0.81045459   -7.4563446    309.78731  0.022705021  0.022698655            7 
 1138000   0.79733503    -7.445166    309.93365  0.022695786  0.022683084            5 
 1139000   0.78971453   -7.4777557    309.13105  0.022617139  0.022667486            5 
 1140000   0.77073847   -7.4685092    309.56902  0.022629314  0.022651958            3 
 1141000    0.7932148   -7.4386681    310.33821  0.022665659  0.022636381            2 
 1142000   0.80236343   -7.4461115    310.53563  0.022660218  0.022620917            5 
 1143000   0.81179995   -7.4613917    310.38898  0.022629701  0.022605509            3 
 1144000   0.78885625   -7.4307615    310.31416  0.022604469  0.022590022            8 
 1145000   0.80438937   -7.4647286     311.4317  0.022666063  0.022574619            4 
 1146000   0.80927067   -7.4660131    310.24228  0.022559793  0.022559169            2 
 1147000   0.79771995    -7.446426      311.005  0.022595539  0.022543778            2 
 1148000   0.78414883   -7.4465685    310.16478  0.022514865   0.02252831            4 
 1149000   0.78113654   -7.4554925    310.59248  0.022526289  0.022512873            3 
 1150000   0.79692573   -7.4326162    310.88037  0.022527563  0.022497476            6 
 1151000   0.79531032   -7.4558339    310.71647  0.022496125  0.022482095            3 
 1152000   0.79361952   -7.4789701    310.48697  0.022459995  0.022466593            3 
 1153000   0.80143867   -7.4972222    310.38305  0.022433004  0.022451191            8 
 1154000   0.78762322   -7.4802057    310.08182  0.022391812  0.022435776            4 
 1155000   0.80953791    -7.459686    310.07152  0.022371683  0.022420358            4 
 1156000   0.78393219   -7.4767724    310.80119   0.02240493  0.022404903            4 
 1157000    0.7976697    -7.455758    311.23768  0.022417003  0.022389484            4 
 1158000   0.79674194   -7.4794279    311.44682  0.022412696  0.022374209            5 
 1159000   0.79616483   -7.4587691    311.45163  0.022393703  0.022358941            4 
 1160000    0.7877007   -7.4663791    312.29004   0.02243463  0.022343733            4 
 1161000   0.79156978   -7.4599112    311.47075  0.022356499  0.022328458            5 
 1162000   0.78669173   -7.4757052    312.00281  0.022375417  0.022313197            6 
 1163000   0.78984873   -7.4899105    311.80712  0.022342155  0.022298029            3 
 1164000   0.78017153    -7.483099    311.84408  0.022325607  0.022282841            7 
 1165000   0.79339808   -7.4908026    311.86908  0.022308231  0.022267675            2 
 1166000   0.79768174   -7.5124275    311.15398  0.022237992  0.022252468            2 
 1167000   0.79598773   -7.4985879    312.21395  0.022294626  0.022237132            3 
 1168000   0.80448941   -7.4888222    311.13512  0.022198567  0.022221797            5 
 1169000   0.78114295   -7.4619224    312.04788  0.022244645  0.022206529            6 
 1170000   0.78351719   -7.4717875    312.14842  0.022232794  0.022191397            6 
 1171000   0.78833394   -7.4718073    312.74771  0.022256455  0.022176172            4 
 1172000   0.79469524   -7.4501249    312.82573  0.022243012  0.022161026            5 
 1173000   0.78153447   -7.4725084    312.87678  0.022227677  0.022145906            5 
 1174000   0.78287989   -7.4896188    312.75748  0.022200275  0.022130693            6 
 1175000   0.77691182   -7.4804501    312.89825  0.022191365  0.022115497            5 
 1176000   0.78639352    -7.461713    312.88277  0.022171398   0.02210034            4 
 1177000   0.79843062   -7.4734943    313.48662  0.022195314  0.022085162            5 
 1178000   0.77982495   -7.4997183    312.45394  0.022103419  0.022069909            7 
 1179000      0.80004   -7.4777895    312.01315  0.022053516  0.022054653            9 
 1180000   0.79035599   -7.4716127    313.11879  0.022112909  0.022039381            5 
 1181000   0.79205574   -7.4626029    313.83427   0.02214467  0.022024199            5 
 1182000    0.8020987   -7.4919914    313.29672  0.022088037  0.022009078            3 
 1183000    0.7864163   -7.4784013    314.22738  0.022134924  0.021994008            2 
 1184000   0.78075191   -7.5056131    313.57685  0.022070442  0.021978965            4 
 1185000   0.76830133   -7.4872599    313.85669  0.022071497  0.021964058            6 
 1186000   0.78618532   -7.5005066    314.17719  0.022075407  0.021949091            5 
 1187000   0.77909087   -7.4819383    314.05976  0.022048565  0.021934249           10 
 1188000   0.78461776   -7.4852292    314.33044  0.022048993  0.021919354            5 
 1189000   0.77911111   -7.4864275    314.27554  0.022026601  0.021904557            4 
 1190000   0.78750461   -7.5111799    314.47445   0.02202202  0.021889634           11 
 1191000   0.77926566   -7.4614091    314.28365   0.02199018  0.021874831            6 
 1192000   0.77401659   -7.4924909    314.79146  0.022007233  0.021859993            4 
 1193000   0.78290814   -7.5099058    315.29039  0.022023638  0.021845222            4 
 1194000   0.77582328   -7.5233823    314.48568  0.021949029  0.021830495            3 
 1195000   0.77177989   -7.4949343    315.08326  0.021972333  0.021815792            3 
 1196000   0.77070283    -7.481078    315.81321  0.022004822  0.021801091            3 
 1197000   0.77828905   -7.4783439    315.64313  0.021974598  0.021786394            4 
 1198000   0.77880533   -7.4839592    314.72133  0.021892135  0.021771801            7 
 1199000   0.76856606   -7.5206374    315.04264  0.021896208   0.02175715            8 
 1200000   0.76897526   -7.4995919    315.95718  0.021941471  0.021742485            5 
 1201000   0.78718172   -7.5103316    315.68069  0.021904016   0.02172779            3 
 1202000   0.77028347   -7.5106115    314.87189   0.02182972  0.021713069            3 
 1203000   0.77548423   -7.4952255    315.01984  0.021821823  0.021698244            6 
 1204000   0.75425025   -7.4931003    314.93922  0.021798119  0.021683398            6 
 1205000    0.7620181   -7.5249586    315.25115  0.021801601  0.021668583            7 
 1206000    0.7608853    -7.508657    315.80117  0.021821529  0.021653776            4 
 1207000   0.75652158   -7.4938133    315.67163  0.021794507  0.021639069            3 
 1208000   0.79563124   -7.4865679    315.52992  0.021766688  0.021624343            3 
 1209000   0.77992387   -7.5325401    315.04675  0.021715381  0.021609563            3 
 1210000   0.77836005   -7.5334477    314.83607  0.021682925  0.021594704            6 
 1211000   0.77548465   -7.4996465    315.72648  0.021726292  0.021579917            6 
 1212000   0.77390214   -7.5317682    315.30898   0.02167966  0.021565031            5 
 1213000   0.76748737   -7.5295839    315.19349  0.021653854  0.021550088            6 
 1214000   0.76482782   -7.5288203    315.73904  0.021673465  0.021535147           10 
 1215000   0.75841805    -7.555626    315.04714  0.021608171  0.021520112            6 
 1216000   0.77302944   -7.5369782    315.17388  0.021599087  0.021505096            9 
 1217000   0.76508964   -7.5461745    314.89847  0.021562481  0.021490112            5 
 1218000   0.75847191    -7.532505    314.44815  0.021513968  0.021475158           10 
 1219000   0.77151255   -7.5033493    315.27589  0.021552904  0.021460277            9 
 1220000   0.76391939   -7.5338202    315.58326  0.021556234  0.021445305            6 
 1221000   0.75470442   -7.5159351    315.73075  0.021548645   0.02143031            4 
 1222000   0.77436992   -7.5358821    316.02895  0.021551347  0.021415259            5 
 1223000   0.76091443   -7.5236419    315.72884  0.021513276  0.021400225            4 
 1224000   0.77097142   -7.5515454    314.70423  0.021425941  0.021385212           11 
 1225000   0.77226004   -7.5515551     315.4059  0.021456184  0.021370188            5 
 1226000   0.75226052   -7.5471399    315.66689  0.021456422  0.021355195            2 
 1227000    0.7755019   -7.4949996    315.79683  0.021447761  0.021340239            6 
 1228000    0.7655518   -7.4994271    315.41372  0.021404297  0.021325385            4 
 1229000   0.75153744   -7.5005748    315.72558  0.021408027  0.021310511            5 
 1230000   0.75741256   -7.4993065    316.17658  0.021421177  0.021295729            4 
 1231000   0.77444864    -7.533789    316.13921  0.021401246  0.021280967            4 
 1232000    0.7748307   -7.5234771    316.66093  0.021419165  0.021266162            4 
 1233000    0.7639602   -7.5373867    315.99563  0.021356828  0.021251382            3 
 1234000   0.76186244   -7.5193685    316.53971  0.021376263  0.021236611            3 
 1235000   0.76855071   -7.5339742     316.3373  0.021345297   0.02122183            4 
 1236000   0.74222615   -7.5409468    316.81524  0.021360251  0.021207032            4 
 1237000   0.76573744   -7.5273075    316.75639  0.021339019  0.021192234            4 
 1238000   0.76541699   -7.4932291    316.65856  0.021315196  0.021177459            3 
 1239000   0.77847969   -7.5185994    316.81974  0.021308833  0.021162696            5 
 1240000   0.76355125   -7.5389389    316.63781  0.021279423  0.021147896            3 
 1241000   0.78400036   -7.5416492    316.85321   0.02127674  0.021133055            4 
 1242000   0.73246375   -7.5500863    316.92958  0.021264733  0.021118176            3 
 1243000   0.75613929   -7.5279175    317.27174  0.021270564  0.021103396            8 
 1244000   0.76777946   -7.5498303    317.65429  0.021279092  0.021088606            6 
 1245000   0.76845706   -7.5396478    317.48123  0.021250417  0.021073885            5 
 1246000   0.77341114   -7.5289298    317.63889  0.021243906  0.021059171            4 
 1247000   0.76280266   -7.5515695    317.46361  0.021215157  0.021044612            6 
 1248000   0.75571042    -7.541514    317.21371  0.021181471  0.021029987            4 
 1249000   0.76877326   -7.5793456    317.50388  0.021183872  0.021015373            5 
 1250000   0.75267526   -7.5665745    317.03512  0.021135674  0.021000647           10 
 1251000   0.75534177   -7.5527067    316.89334  0.021109335  0.020985905            6 
 1252000   0.75110562    -7.549124    317.61017  0.021140187  0.020971228            7 
 1253000   0.75513907    -7.564934    317.82965  0.021137912   0.02095658            4 
 1254000   0.76166289   -7.5546631    318.44115  0.021161693   0.02094193            3 
 1255000   0.77327748   -7.5351129    318.07259  0.021120358  0.020927298            4 
 1256000   0.74276375   -7.5561965    317.96734  0.021096559  0.020912663            6 
 1257000   0.75418368   -7.5378001    317.95557  0.021078996  0.020898013            9 
 1258000    0.7605001   -7.5232581    317.76589  0.021049675  0.020883412            3 
 1259000   0.74671061   -7.5386299    317.90771  0.021042343  0.020868759            6 
 1260000   0.74678306   -7.5620839    317.99903  0.021031682  0.020854079            5 
 1261000    0.7417921   -7.5370767    318.35989  0.021038851  0.020839412            4 
 1262000   0.75355001    -7.555981    318.48902  0.021030706  0.020824767            6 
 1263000   0.75560877   -7.5496628    317.92571  0.020976888  0.020810119           10 
 1264000   0.76332891     -7.56367    318.52039  0.020999498  0.020795546            9 
 1265000   0.74580265   -7.5677855    317.43665  0.020911505  0.020780878           11 
 1266000    0.7599059    -7.554027    317.22945  0.020881349  0.020766182            4 
 1267000   0.75362546   -7.5861673    317.52378  0.020884227  0.020751402            8 
 1268000   0.73471266   -7.5954583    317.51936  0.020867466  0.020736614           11 
 1269000   0.73820786   -7.5728052     317.1805   0.02082877  0.020721784            6 
 1270000   0.76600997   -7.5607735    317.24254   0.02081644  0.020707068            7 
 1271000   0.74116343   -7.5405925    318.28112  0.020868156  0.020692311            5 
 1272000   0.73282853   -7.5684527    317.87577  0.020825195  0.020677527            6 
 1273000   0.75057567   -7.5432473    317.26498  0.020768852  0.020662819            6 
 1274000    0.7472843   -7.5637714    318.30657  0.020820681  0.020648136            4 
 1275000   0.73275595   -7.5651011    318.62184  0.020824957  0.020633444            3 
 1276000   0.74151432   -7.5847108    318.16038  0.020778499  0.020618757            5 
 1277000   0.74587773   -7.5585353    317.94134  0.020747934  0.020604043            6 
 1278000   0.73696571   -7.5682966    318.75396  0.020784687    0.0205894            6 
 1279000     0.754783   -7.5840596    317.90661  0.020713227  0.020574789            6 
 1280000    0.7425341     -7.56565    318.38543  0.020728218  0.020560074            7 
 1281000   0.74005054   -7.6143309    318.04121  0.020689644  0.020545373            6 
 1282000   0.72999874   -7.5852513    318.32323  0.020691838  0.020530606            7 
 1283000   0.73284262   -7.6085457    317.77369  0.020640016  0.020515813            3 
 1284000    0.7458561   -7.6023905    318.01652  0.020639701  0.020501043            6 
 1285000   0.73934329   -7.5877683    317.53532  0.020592433  0.020486254            7 
 1286000   0.74133729    -7.583838    317.54911  0.020577314  0.020471477            3 
 1287000    0.7360622   -7.5909667    317.88617   0.02058315   0.02045662            3 
 1288000    0.7428706   -7.5674072    318.33568  0.020596253  0.020441823            5 
 1289000   0.73626909   -7.5858262    317.83864   0.02054814  0.020426989            5 
 1290000   0.73470692   -7.5923262    317.97326  0.020540909  0.020412132            5 
 1291000   0.74021094   -7.5936022     318.0853  0.020532229  0.020397229            5 
 1292000   0.73498271   -7.6087177     317.2101  0.020459888  0.020382361            5 
 1293000   0.72592981   -7.5807957    317.69289   0.02047518  0.020367398            7 
 1294000   0.72432593   -7.5896525    317.87627  0.020471166  0.020352417            3 
 1295000    0.7251363   -7.6029978    317.75963  0.020447853  0.020337498            4 
 1296000   0.74201679   -7.5549822    317.92293  0.020442575  0.020322563            3 
 1297000   0.72098724    -7.594813     318.4286  0.020459303  0.020307659            7 
 1298000   0.72503174   -7.6100834    318.20548  0.020429217  0.020292718           12 
 1299000   0.74441763   -7.6132052    318.34866  0.020422675   0.02027784            4 
 1300000   0.72260937   -7.6171032    317.55816  0.020356292   0.02026295            5 
 1301000   0.74608891   -7.6141579    317.47151  0.020335095  0.020248061            3 
 1302000   0.74314322    -7.594104    318.01448   0.02035423   0.02023322            8 
 1303000   0.73396043   -7.5690409    317.93873  0.020333764  0.020218458            4 
 1304000   0.72442259   -7.5906368    317.87853  0.020314323  0.020203594            5 
 1305000   0.74225926   -7.5916671    318.21285  0.020320106  0.020188709           10 
 1306000   0.71998297   -7.5748853    317.92498  0.020286178  0.020173852            6 
 1307000   0.72261098    -7.594597    317.96408  0.020273149   0.02015898            5 
 1308000   0.72731894   -7.5784983     317.9558  0.020257123  0.020144135            3 
 1309000   0.72984684   -7.6030134    318.74311  0.020291769  0.020129265            6 
 1310000   0.71591534   -7.6132121     318.2208  0.020243053   0.02011437            3 
 1311000   0.73432543   -7.6120415    318.35096  0.020235886  0.020099541           10 
 1312000   0.73264223   -7.6138112     319.4823  0.020292321  0.020084737            9 
 1313000   0.74140156    -7.612565    317.82606  0.020171748  0.020069871           10 
 1314000   0.73548553   -7.6193544    318.07277  0.020172043  0.020054948            7 
 1315000   0.72664126   -7.6255751    318.21583  0.020165769  0.020040058            7 
 1316000   0.72563376   -7.6104895    318.41229  0.020162886  0.020025216            4 
 1317000   0.72084549   -7.6222505    318.69233  0.020165295  0.020010436            9 
 1318000   0.73638891     -7.60332    319.40736  0.020195205  0.019995647            8 
 1319000   0.72538073   -7.6282667    317.55079  0.020062597  0.019980796            6 
 1320000   0.71116798    -7.607652    318.51501  0.020108271  0.019965956            4 
 1321000   0.72678335   -7.6392392    317.93517   0.02005647  0.019951102            5 
 1322000   0.72831235   -7.6430692    318.76931   0.02009388  0.019936249            9 
 1323000    0.7222978   -7.6101135    317.96776  0.020028204  0.019921381            4 
 1324000   0.73024785   -7.6217501    318.97885  0.020076715  0.019906512            2 
 1325000   0.71957502    -7.621332    318.22581  0.020014202  0.019891677            4 
 1326000   0.71161939   -7.6269157    318.11994  0.019992455   0.01987681            4 
 1327000   0.71980465   -7.5954765    318.19356  0.019982012  0.019861995            6 
 1328000   0.72187889   -7.6174044    318.16826  0.019965378  0.019847153            5 
 1329000     0.725536   -7.6486377    317.92039  0.019934812  0.019832221            4 
 1330000   0.72124261   -7.6327944    318.21879  0.019938521  0.019817355            4 
 1331000   0.72216737   -7.6250046    318.50306  0.019941339  0.019802478           11 
 1332000   0.71829297   -7.6337124     318.5446  0.019928967  0.019787663           12 
 1333000     0.716659   -7.6259072    318.66535  0.019921564  0.019772879            5 
 1334000   0.73352372   -7.6202264    318.17413  0.019875945  0.019758153            4 
 1335000   0.72203478   -7.6316486    318.79124  0.019899578  0.019743455            9 
 1336000   0.72372633   -7.6177048    318.86107  0.019889039  0.019728722            3 
 1337000     0.720281   -7.6493957    318.70206  0.019864252   0.01971395            7 
 1338000   0.72995016   -7.6266242    318.39249  0.019830125  0.019699189            5 
 1339000     0.716146   -7.6371646    318.42671  0.019817445  0.019684388            5 
 1340000    0.7253639    -7.646771    318.27655  0.019793318  0.019669623            4 
 1341000   0.72298355   -7.6484412    318.30534  0.019780346  0.019654904            6 
 1342000   0.70674136   -7.6505373    319.03664  0.019811018  0.019640194            2 
 1343000   0.75327892    -7.640065    318.61686   0.01977022  0.019625452            5 
 1344000   0.71905713   -7.6565792    318.64499  0.019757254  0.019610685            5 
 1345000   0.71666202   -7.6241712    318.77564  0.019750659  0.019595951            7 
 1346000   0.72683051   -7.6453654    318.58833  0.019724389  0.019581221            3 
 1347000   0.70157782    -7.662162     319.0478  0.019738171  0.019566477            5 
 1348000   0.72193415   -7.6458036    319.52304  0.019752908  0.019551735           11 
 1349000   0.70404241   -7.6657363     318.7444  0.019690166  0.019537031            4 
 1350000   0.71330405   -7.6498157    318.60153  0.019666761  0.019522303            9 
 1351000     0.704314   -7.6430108    318.74573  0.019661099  0.019507536            6 
 1352000   0.71942738   -7.6442229    318.83011  0.019651757  0.019492757            9 
 1353000   0.69774512   -7.6129221    318.91307  0.019642342  0.019478011            7 
 1354000   0.69786278   -7.6427215    319.14217  0.019641935  0.019463286            5 
 1355000   0.71296312    -7.684754    318.61361  0.019594933  0.019448585            3 
 1356000   0.69729465   -7.6541053     319.0665  0.019608315  0.019433897            6 
 1357000   0.70186021    -7.651392    319.05093  0.019592909  0.019419275            3 
 1358000   0.70095517   -7.6452462    319.23998  0.019590082  0.019404662            4 
 1359000   0.73411478    -7.659864    318.78627  0.019547846  0.019390065            2 
 1360000   0.71667269    -7.659862    318.87393  0.019538844  0.019375456            4 
 1361000    0.7126125   -7.6419881     318.9756  0.019530712  0.019360816            4 
 1362000   0.71859464   -7.6425578    319.59137  0.019554048  0.019346178            7 
 1363000   0.70967572   -7.6546825    319.04768  0.019506461  0.019331582            4 
 1364000   0.70805723   -7.6609644    319.24755  0.019504371  0.019316976            5 
 1365000   0.71414571   -7.6878276    319.07015  0.019479252  0.019302402           10 
 1366000   0.71131799    -7.651581    319.20168  0.019473016  0.019287867            7 
 1367000   0.70274608   -7.6814662    319.70518  0.019489465  0.019273353            4 
 1368000   0.71103768   -7.6422542    319.88855  0.019486388   0.01925889            7 
 1369000   0.70694267   -7.6449116    319.53336  0.019450533  0.019244428            3 
 1370000   0.71548217   -7.6482956    320.05956  0.019468343  0.019230011            5 
 1371000   0.71070304   -7.6553822    319.25679  0.019405348  0.019215575            5 
 1372000   0.70068047   -7.6612154    319.54949  0.019408983  0.019201055            3 
 1373000   0.68917995   -7.6261496    320.28587  0.019439541  0.019186593            5 
 1374000   0.71623838   -7.6518064    319.61213   0.01938453  0.019172183            5 
 1375000   0.70122092   -7.6559198    319.86543  0.019385784  0.019157801            5 
 1376000   0.70149652   -7.6467465     320.3892  0.019403416  0.019143407            8 
 1377000   0.71014496   -7.6331579    319.71033  0.019348241  0.019129003            7 
 1378000   0.72021482   -7.6814439    319.45633  0.019318839  0.019114553            3 
 1379000   0.69074742   -7.6701054    319.63619  0.019315699  0.019100106            4 
 1380000    0.6974734    -7.658346     319.8994  0.019317596  0.019085617            5 
 1381000   0.71901484   -7.6944997    320.01998  0.019310885  0.019071164            9 
 1382000   0.71160966   -7.6760647    319.69083  0.019277064  0.019056659            3 
 1383000    0.7048414   -7.6815351    319.50322  0.019251821  0.019042178            6 
 1384000   0.70107758    -7.667009    320.00367  0.019268043  0.019027711            3 
 1385000   0.68083143    -7.678472    319.89004  0.019247295  0.019013273            4 
 1386000   0.69871996   -7.6677229    319.19175  0.019191423  0.018998847            4 
 1387000   0.68358464   -7.6732406    320.35771   0.01924764  0.018984386            3 
 1388000   0.70789476   -7.6827262    319.70416  0.019194534  0.018969944            3 
 1389000   0.68957637    -7.679444    319.87478  0.019190952  0.018955507            4 
 1390000   0.68685789   -7.6753515     319.7583  0.019170162  0.018941047           12 
 1391000   0.68856525   -7.6899231    319.70208  0.019153012  0.018926599            5 
 1392000   0.68209989   -7.6785888    319.70229  0.019139265  0.018912114            3 
 1393000   0.68768352   -7.6772005    319.40262  0.019107599  0.018897679            4 
 1394000   0.68806729   -7.7073822    319.76767  0.019115714  0.018883218            4 
 1395000   0.68885612   -7.7045067    320.11538  0.019122782  0.018868738            9 
 1396000    0.6899977   -7.6958164    319.74192  0.019086791  0.018854297           11 
 1397000   0.66658759    -7.725984    319.33939  0.019049117  0.018839827            5 
 1398000   0.69390999   -7.6863495    319.76572  0.019060904  0.018825381            3 
 1399000   0.69766189    -7.709515    319.36647  0.019023497  0.018810933            7 
 1400000   0.69489459   -7.6984923    319.87397  0.019040117  0.018796545            4 
 1401000   0.69853226   -7.6761826    319.32867  0.018994092  0.018782161            4 
 1402000   0.69464095   -7.7115272    319.96247  0.019018216  0.018767771           15 
 1403000   0.68271665   -7.7114085    319.75654  0.018992429  0.018753397            8 
 1404000   0.70657914   -7.7256978    320.05281  0.018996487  0.018739024            5 
 1405000   0.69031851   -7.6891669    319.99457  0.018979512  0.018724687            9 
 1406000   0.69853502   -7.6991758    320.01336  0.018967127  0.018710393            9 
 1407000   0.68466351   -7.6899728     319.8113  0.018941679  0.018696119            4 
 1408000   0.69194929   -7.6934403    320.02231  0.018940714  0.018681854            7 
 1409000   0.69172228   -7.6791436    319.89942  0.018920004  0.018667565            5 
 1410000   0.69630744   -7.6989737    319.68246  0.018893763  0.018653258            5 
 1411000   0.70922347    -7.662704    320.45657  0.018926091  0.018638965           13 
 1412000   0.70471324   -7.7105923    319.05317  0.018829862  0.018624696            5 
 1413000   0.68634371   -7.7264599    320.08027   0.01887711  0.018610434            5 
 1414000   0.68039426    -7.724786     320.0774   0.01886359  0.018596115            8 
 1415000    0.6855174   -7.6918269    319.67748  0.018826707  0.018581798            3 
 1416000   0.68997909   -7.7048096    320.19802  0.018844045  0.018567527            4 
 1417000   0.69787634   -7.6990413    320.06528   0.01882294  0.018553301            5 
 1418000   0.69487044    -7.715716    319.86009  0.018797608  0.018539074            5 
 1419000   0.68735654   -7.7100532    319.99001   0.01879199   0.01852486            8 
 1420000   0.68258168   -7.7032842    320.34671  0.018799689   0.01851065            6 
 1421000   0.69960675   -7.7065184    319.50922  0.018737346  0.018496439            2 
 1422000   0.69095975   -7.7017796    319.99738  0.018752777  0.018482231            4 
 1423000   0.69451507   -7.7472217    320.00736  0.018740182  0.018468017            5 
 1424000   0.68214456   -7.7081615    319.64588  0.018705869  0.018453754            5 
 1425000    0.6887638   -7.7308716    319.90628   0.01870797   0.01843954            3 
 1426000   0.67559257   -7.7211408      320.259  0.018715463  0.018425334            5 
 1427000   0.68182213   -7.6989397    320.07314  0.018691494   0.01841111            7 
 1428000   0.68489737   -7.7339813    319.71021  0.018657225  0.018396939            4 
 1429000   0.69523024   -7.7192472    319.94917  0.018658104  0.018382773            3 
 1430000   0.67028324   -7.7460921    320.16042  0.018657367  0.018368585            3 
 1431000   0.66807138   -7.7105757    320.30793  0.018652919  0.018354375            6 
 1432000     0.702169    -7.704382    319.84524  0.018612968  0.018340181            6 
 1433000   0.68894688   -7.7222659     319.9279  0.018604786  0.018326016            5 
 1434000   0.67461429   -7.7290608    319.78194   0.01858333  0.018311845            4 
 1435000   0.68711638   -7.7315558    319.76122  0.018569176  0.018297661            6 
 1436000   0.68828491   -7.7333383    319.24074  0.018526041  0.018283457            5 
 1437000   0.67753212   -7.6773419    321.09054  0.018620421  0.018269335            9 
 1438000   0.68045715   -7.7056185    320.24304  0.018558359   0.01825524           15 
 1439000   0.66467198   -7.7194167    320.44204  0.018556986  0.018241143            4 
 1440000   0.68572765   -7.7235651    319.62441  0.018496783  0.018227067            7 
 1441000   0.66429708   -7.7505538    319.95899  0.018503296   0.01821297            8 
 1442000   0.68720133   -7.7060703    319.71371  0.018476289   0.01819889            7 
 1443000   0.66687002   -7.7334508    319.87594  0.018472854  0.018184791            5 
 1444000   0.68339287    -7.732897    320.22786   0.01848037  0.018170703            7 
 1445000   0.67620591    -7.727395    320.83832  0.018502787  0.018156614            9 
 1446000   0.66573348   -7.7376363    319.99098  0.018441158  0.018142531           10 
 1447000   0.67042888   -7.7488876    320.69877  0.018469176  0.018128437           17 
 1448000   0.66125589   -7.7210075    319.92325  0.018411789  0.018114348            7 
 1449000   0.67219525    -7.725154    319.64809  0.018383258  0.018100259            3 
 1450000   0.67618385   -7.7048033    320.25799  0.018405632  0.018086209            5 
 1451000    0.6749094   -7.7037967     320.0214  0.018379359  0.018072165            4 
 1452000   0.69875441   -7.7286861    320.23952  0.018379219  0.018058148            4 
 1453000   0.68287839   -7.7185447    320.57912  0.018386047  0.018044195            6 
 1454000   0.66762248   -7.7344673    320.11263  0.018346666  0.018030224            4 
 1455000   0.67210043   -7.7422509    320.27204  0.018343187  0.018016253            3 
 1456000   0.66426974   -7.7415714    320.29129   0.01833169  0.018002298            5 
 1457000   0.68021358   -7.7453482    320.24493  0.018316457   0.01798835            4 
 1458000   0.66751303   -7.7136675    320.01026  0.018290482  0.017974421            4 
 1459000   0.68684542   -7.7297333    320.30724  0.018294907  0.017960496            2 
 1460000   0.67701091   -7.7370981     319.9878  0.018264144  0.017946617            4 
 1461000   0.66691328   -7.7049214    320.25935  0.018267132  0.017932706            5 
 1462000   0.66651348   -7.7118409    320.76174  0.018283273  0.017918795            7 
 1463000   0.67777357   -7.7340127    320.90315  0.018278831  0.017904927            2 
 1464000   0.65519637   -7.7130834    320.58165  0.018248045  0.017891074            6 
 1465000   0.67031587   -7.7460528    320.55914  0.018234308  0.017877163            3 
 1466000   0.66500439    -7.742729    319.88067  0.018183303  0.017863234            5 
 1467000   0.66381225   -7.7484757    320.72997  0.018219153  0.017849326            2 
 1468000   0.66638219   -7.7587307    320.04916  0.018168095  0.017835442            4 
 1469000   0.65733776   -7.7444661    320.23726  0.018166398  0.017821534           12 
 1470000   0.66013706   -7.7624546    320.62651  0.018176106  0.017807671            4 
 1471000   0.67970606     -7.75678    319.96718  0.018126398  0.017793712            3 
 1472000   0.67742449    -7.742719    319.67539  0.018097565  0.017779763            6 
 1473000   0.66869905   -7.7657202    320.12009  0.018110437  0.017765819            4 
 1474000    0.6828969   -7.7345117    320.52202  0.018120874  0.017751918            5 
 1475000   0.66259499   -7.7166433    320.36292    0.0180996  0.017738037            4 
 1476000   0.67049708   -7.7446874    319.95907  0.018064536  0.017724172           11 
 1477000   0.65151126   -7.7356102    319.67351  0.018036194   0.01771033            3 
 1478000   0.65778277   -7.7559106    319.81494  0.018031965  0.017696479            6 
 1479000   0.65300337   -7.7331308    320.30712  0.018047505  0.017682632            8 
 1480000   0.66275902   -7.7337937    319.91104  0.018013009  0.017668773            6 
 1481000    0.6645944   -7.7162464    319.77157  0.017992998  0.017654937            6 
 1482000   0.65681091   -7.7629577     320.3417  0.018012916  0.017641114            4 
 1483000   0.66549325   -7.7601106    320.21858  0.017993852  0.017627273            5 
 1484000   0.66892069   -7.7424439    320.39165  0.017991445  0.017613468            6 
 1485000    0.6676785   -7.7734103      321.233  0.018026543  0.017599671            3 
 1486000   0.66201208   -7.7672247    319.96647  0.017943386  0.017585881            4 
 1487000   0.66604322   -7.7386853    319.83771  0.017924104  0.017572109            3 
 1488000   0.66382516   -7.7704618    319.96598  0.017919241  0.017558318            5 
 1489000   0.65698534   -7.7705837    320.05069  0.017911948  0.017544522            3 
 1490000   0.64250139    -7.762961    320.17015  0.017906608  0.017530747            5 
 1491000   0.67631958   -7.7538777    320.42551   0.01790887  0.017516993            5 
 1492000     0.662197   -7.7606845    320.34857   0.01789257  0.017503268            5 
 1493000   0.66362985   -7.7650009    319.55355  0.017836211  0.017489552            4 
 1494000   0.65327205   -7.7729152    320.01677   0.01785011  0.017475859            8 
 1495000   0.65665457   -7.7756706    320.29395   0.01785362   0.01746218            7 
 1496000   0.65982352   -7.7591307    320.71504  0.017865143  0.017448508            5 
 1497000   0.67458475   -7.7644675    320.55613  0.017844362  0.017434882            5 
 1498000   0.65044861   -7.7593753    320.95592  0.017854691  0.017421249            7 
 1499000   0.67482755   -7.8000314    319.59874  0.017767331  0.017407611            3 
 1500000   0.64695265   -7.7620228    320.25017  0.017791676     0.017394           10 
 1501000   0.66071297   -7.7856591    320.78555  0.017809546  0.017380376            4 
 1502000   0.66149341   -7.7839008    320.10708  0.017760047  0.017366757            6 
 1503000   0.65929178   -7.7781982     320.4327  0.017766284  0.017353123           13 
 1504000    0.6549964   -7.7648814    320.40906  0.017753162  0.017339503            7 
 1505000   0.65209949   -7.7794233    320.04756  0.017721349  0.017325891            9 
 1506000   0.65272953   -7.7849912    320.51193  0.017735277  0.017312269            8 
 1507000   0.65707682   -7.7627627    320.65993  0.017731693  0.017298655            9 
 1508000   0.64484957   -7.7806635    320.04339  0.017685864  0.017285064            6 
 1509000   0.64951345   -7.7767216      320.688  0.017709742  0.017271531            5 
 1510000   0.65880311   -7.7805522    320.28701  0.017675884  0.017257947            4 
 1511000   0.62909658   -7.8060094    320.34922  0.017667617  0.017244351           10 
 1512000    0.6600751   -7.7694317    320.45531  0.017661779  0.017230797            6 
 1513000   0.65742175   -7.7813087    319.87752  0.017618282  0.017217268            3 
 1514000   0.65715692   -7.7841258    319.93803  0.017609975  0.017203715            4 
 1515000   0.65124268   -7.8156038    320.20853  0.017613231   0.01719016           13 
 1516000   0.64193564   -7.8143435    319.84204  0.017581466  0.017176622           11 
 1517000   0.65588183   -7.8006666    320.41993  0.017601622  0.017163067            6 
 1518000    0.6505385   -7.7979471    319.47949    0.0175384  0.017149535            5 
 1519000   0.63673132   -7.7743507    320.42834  0.017578908  0.017136041           12 
 1520000   0.64387112   -7.8059473    320.32732  0.017561805  0.017122522            3 
 1521000   0.65555234   -7.8008068    319.61492  0.017511227   0.01710903            4 
 1522000   0.64627618   -7.8121521    320.12216  0.017527494  0.017095529            6 
 1523000   0.63975782   -7.7826308    320.13493  0.017516685  0.017082062            5 
 1524000   0.63111528   -7.7994012    320.51205  0.017525812  0.017068583            6 
 1525000   0.67469087   -7.7956969    320.78919  0.017529464  0.017055122            7 
 1526000   0.63893818   -7.7897575    320.12092  0.017481483  0.017041698            8 
 1527000   0.64949125    -7.794874    320.53046  0.017492385  0.017028274           13 
 1528000    0.6310786   -7.8004009    320.11182  0.017458105  0.017014878            4 
 1529000   0.63497848   -7.8435967    320.17798  0.017450293  0.017001437            4 
 1530000   0.63089832   -7.8087134    319.53487   0.01740386  0.016987986            4 
 1531000   0.65269147   -7.8251464    319.98941  0.017417233  0.016974559            4 
 1532000   0.63708322   -7.7854295     320.4902  0.017433105  0.016961165            5 
 1533000   0.63674979   -7.8166909    319.53352  0.017369728  0.016947765            9 
 1534000   0.63782113   -7.7940616    320.08838  0.017388547  0.016934396           17 
 1535000    0.6545175    -7.780258    320.15117  0.017380628  0.016921028            8 
 1536000   0.63396251   -7.8134288    320.21544  0.017372799  0.016907695           11 
 1537000   0.62034092   -7.8119665    321.16794  0.017413139  0.016894394           12 
 1538000   0.65782348   -7.8203111    320.49123  0.017365151  0.016881085            7 
 1539000   0.63029588    -7.818116    320.68818  0.017364532  0.016867804           16 
 1540000   0.65795055   -7.8013275    320.41415  0.017338428  0.016854517            8 
 1541000   0.63723368    -7.808657    320.15059  0.017312924  0.016841236            6 
 1542000   0.63531752   -7.8208341    320.51065  0.017321155   0.01682799            5 
 1543000   0.63005937   -7.8383667     320.2762  0.017297267  0.016814762            4 
 1544000   0.62131247   -7.8176015    320.41884  0.017293763  0.016801525           11 
 1545000   0.62625398   -7.8077063    320.68473  0.017296911  0.016788332            5 
 1546000   0.63087535   -7.8349896    320.99355  0.017302369  0.016775149           13 
 1547000   0.63298546   -7.7653715    321.32731  0.017309163  0.016761986            8 
 1548000   0.63095334   -7.8208203    320.95439  0.017277907   0.01674879            4 
 1549000   0.62726403   -7.8047616    320.91901  0.017264849  0.016735637            5 
 1550000    0.6281375   -7.8252698    321.26026  0.017272057  0.016722491            7 
 1551000    0.6329591   -7.8191489    321.06634  0.017250502  0.016709369            7 
 1552000   0.63568988   -7.8281827    320.73202  0.017221436  0.016696242            5 
 1553000   0.63998642   -7.8290199    319.98766  0.017170405  0.016683131            9 
 1554000   0.62874782   -7.8171968    320.84226  0.017205183  0.016670011            9 
 1555000   0.65089831   -7.8080836    321.28597  0.017217898  0.016656937            7 
 1556000   0.63246565   -7.8319317     320.7864  0.017180077  0.016643853           13 
 1557000   0.63084141   -7.8344317     321.4781  0.017206064   0.01663077            9 
 1558000   0.63361201   -7.8338797    320.69766  0.017153277  0.016617677            9 
 1559000   0.63875652   -7.8502572    320.48871  0.017131105  0.016604566            4 
 1560000   0.63913174    -7.824318    320.90895  0.017142572  0.016591473           10 
 1561000   0.62152057   -7.8209266    319.90207  0.017077838  0.016578396            4 
 1562000   0.62598899   -7.8407369    320.82165  0.017115965  0.016565314            8 
 1563000   0.62559645   -7.8490485    321.06615   0.01711805  0.016552286            7 
 1564000   0.62216751   -7.8287927    320.87532  0.017096938  0.016539248            8 
 1565000   0.62278151   -7.8309668    321.03434   0.01709448  0.016526233            8 
 1566000   0.62992526   -7.8524295    320.46613  0.017053328  0.016513231            6 
 1567000   0.63816305   -7.8148017    320.59927  0.017049525  0.016500218            4 
 1568000   0.63541048   -7.8360414    319.95744  0.017004541  0.016487196            7 
 1569000   0.61777729   -7.8283272    320.66255  0.017031153  0.016474185            7 
 1570000   0.61484262   -7.8207752    320.94349  0.017035217  0.016461196            8 
 1571000   0.61869604   -7.8377631    320.43105  0.016997191  0.016448218            5 
 1572000   0.63562817   -7.8433316    319.95894  0.016961352  0.016435253           10 
 1573000   0.61787091   -7.8414562    320.18085  0.016962325   0.01642228            8 
 1574000   0.62129754   -7.8416916     319.9241  0.016937956  0.016409303            6 
 1575000   0.62125552   -7.8534283    321.24449  0.016997063  0.016396342            5 
 1576000   0.62019039   -7.8283279    321.12053  0.016979723  0.016383405           10 
 1577000   0.63393998   -7.8408137    320.61725  0.016942361  0.016370503            8 
 1578000    0.6240938   -7.8661347    320.50021  0.016925444  0.016357591            4 
 1579000    0.6302604   -7.8470804    320.86424  0.016933937  0.016344674            8 
 1580000   0.63546422   -7.8414975     320.4931  0.016903644  0.016331768            9 
 1581000   0.62264913   -7.8361781    320.31696  0.016883669  0.016318882            7 
 1582000   0.62460324   -7.8488259    320.39102  0.016876898  0.016306018            8 
 1583000   0.61787591   -7.8454095    320.32837  0.016862938   0.01629318           11 
 1584000   0.63418201   -7.8643894    320.82916  0.016878638  0.016280371            7 
 1585000    0.6308925   -7.8497141    320.42005   0.01684648  0.016267556            4 
 1586000   0.61915689   -7.8648642    320.05629  0.016816745  0.016254732           10 
 1587000    0.6107883   -7.8552606    321.20524   0.01686648  0.016241922            7 
 1588000   0.61568582   -7.8299275    320.76215  0.016832606  0.016229118           10 
 1589000   0.61817106   -7.8438041    321.33952  0.016852293  0.016216341            5 
 1590000   0.61550483   -7.8829359    320.55463  0.016800557  0.016203569            7 
 1591000   0.60821844   -7.8591334    320.68852   0.01679701  0.016190797           13 
 1592000    0.6224571   -7.8468164    320.93149  0.016799178  0.016178039            9 
 1593000    0.6099847   -7.8686192    320.59783  0.016771178  0.016165276            5 
 1594000   0.62479305    -7.855496    321.16502  0.016790309  0.016152564           11 
 1595000   0.60693489   -7.8604521    320.33196  0.016736257  0.016139823           10 
 1596000   0.61099771    -7.874792    321.28201  0.016775376  0.016127143            7 
 1597000   0.61794163    -7.870918    320.81042  0.016740264  0.016114464            8 
 1598000   0.61542079    -7.882255    320.39349  0.016708046  0.016101762           10 
 1599000    0.6282685    -7.851578    320.74657  0.016715998  0.016089064            9 
 1600000   0.62196975    -7.890628    320.43548  0.016689348  0.016076386            8 
 1601000   0.61305502   -7.8613269    320.71604  0.016693527  0.016063731            8 
 1602000   0.61809121   -7.8552918    320.58227  0.016676148   0.01605111           11 
 1603000   0.61430278   -7.8704264    320.35144  0.016653745  0.016038481           12 
 1604000   0.60498276   -7.8549873    320.50542  0.016651362  0.016025845           14 
 1605000   0.61636216   -7.8620144    320.97667  0.016665455   0.01601322           12 
 1606000   0.61764254   -7.8504388    320.43486  0.016626964  0.016000613            5 
 1607000   0.60349298   -7.8708164    319.91767  0.016589798  0.015987986            6 
 1608000   0.61547441   -7.8826009    319.90145  0.016578641  0.015975336            6 
 1609000   0.63716831   -7.8679445      320.222  0.016584939  0.015962717            6 
 1610000    0.6228146   -7.8753552    319.81327  0.016553482  0.015950102            5 
 1611000   0.60893346    -7.879746      319.691  0.016536882    0.0159375            9 
 1612000    0.6170547   -7.8695317    320.89265  0.016588743  0.015924906            9 
 1613000   0.61193125   -7.8767281    320.84581  0.016576039  0.015912322            7 
 1614000   0.60925949   -7.8772594    320.76518  0.016561606  0.015899744            6 
 1615000   0.61843161   -7.8529758    320.51186   0.01653828  0.015887213            7 
 1616000   0.58650043   -7.8648677    320.41917  0.016523266  0.015874662           11 
 1617000   0.59523455   -7.8596351    320.34961  0.016509462  0.015862135           12 
 1618000    0.6146161    -7.860486    320.46512  0.016505208  0.015849629           12 
 1619000   0.60420804   -7.8694371    321.07047  0.016526172  0.015837115            6 
 1620000   0.60092116    -7.874467    321.16027   0.01652059   0.01582461            8 
 1621000   0.59537162   -7.8898352    319.97057  0.016449237  0.015812091            9 
 1622000   0.59940918   -7.8650883    320.52849  0.016467761  0.015799582           10 
 1623000   0.60515574   -7.8844359    319.99677  0.016430313  0.015787103           12 
 1624000   0.60921509   -7.8674539    320.58061  0.016450154  0.015774659            5 
 1625000   0.60829622   -7.8665205    320.72588  0.016447481  0.015762225            6 
 1626000   0.61251062   -7.8876051    320.92654  0.016447649  0.015749795            5 
 1627000   0.60980286   -7.8818141    320.72481  0.016427208   0.01573738            5 
 1628000   0.61517578   -7.9051133    320.33796  0.016397316  0.015724968           13 
 1629000    0.5979665   -7.8862564    320.77642   0.01640968  0.015712572            5 
 1630000   0.59822779   -7.8704774    320.75264  0.016398397  0.015700182            5 
 1631000    0.6025204   -7.9012908    320.57951  0.016379497  0.015687795            7 
 1632000   0.58919865   -7.8824659    320.97325  0.016389566  0.015675429            5 
 1633000   0.59973784   -7.8740484    321.16963   0.01638955  0.015663061            8 
 1634000   0.60069821   -7.8957926     321.0199  0.016371884    0.0156507            7 
 1635000   0.61669075   -7.8906385    319.84739  0.016302109  0.015638337            9 
 1636000   0.60358354   -7.8807023    320.46522  0.016323615   0.01562601            8 
 1637000   0.59523846   -7.8816345    320.31774  0.016306136   0.01561368            7 
 1638000   0.59525774   -7.9087833    320.23109  0.016291773  0.015601345            6 
 1639000   0.60376096   -7.8978356    320.58594  0.016299875  0.015589012           10 
 1640000   0.57771935   -7.9022807    319.86971  0.016253542  0.015576694            8 
 1641000   0.60310478   -7.8815438    320.17568  0.016259175  0.015564393            4 
 1642000   0.59939991   -7.9043853    319.74732  0.016227533   0.01555209            9 
 1643000   0.59950278    -7.884455     320.8761  0.016274909  0.015539783            5 
 1644000   0.59209711   -7.8968843    320.20245  0.016230862  0.015527502            5 
 1645000   0.60182128   -7.9053153    320.18897  0.016220313  0.015515257            7 
 1646000   0.59721237   -7.9023979    320.34796  0.016218507  0.015502985            6 
 1647000   0.59857837   -7.8922557    320.30874  0.016206676  0.015490732            7 
 1648000   0.59489732   -7.9107561    319.99502  0.016180978  0.015478485            7 
 1649000    0.6019069   -7.8851981     319.9143  0.016167086  0.015466241            5 
 1650000   0.59057636   -7.8908991    320.52056  0.016187907  0.015453999           16 
 1651000   0.59407886   -7.9076432     319.9987  0.016151762  0.015441754           12 
 1652000    0.5952196   -7.8923341    320.56717   0.01617066  0.015429535           12 
 1653000   0.59410946   -7.9151191    320.39584   0.01615224   0.01541734            5 
 1654000   0.58606333   -7.9078439    320.84723  0.016165217  0.015405117           11 
 1655000    0.5876798    -7.902308    320.55664  0.016140818  0.015392924            7 
 1656000   0.58564024   -7.9046177    321.13403  0.016160126  0.015380744            8 
 1657000   0.60256111   -7.9045083    320.50203   0.01611859  0.015368569            7 
 1658000   0.59218935    -7.929869    320.62917  0.016115258  0.015356408            7 
 1659000   0.59096686   -7.8966331    319.79948  0.016063868  0.015344264            6 
 1660000   0.59360893   -7.9179012    320.42768  0.016085727  0.015332122            7 
 1661000   0.58713788   -7.9357483    320.15458  0.016062341  0.015319996           14 
 1662000   0.58392193   -7.9046975    319.90623  0.016040224   0.01530787           10 
 1663000   0.58231988   -7.9090147    320.31429  0.016051027  0.015295743            8 
 1664000   0.59803196   -7.9234473     320.6401  0.016057697  0.015283609            8 
 1665000   0.58406675    -7.902588    320.32409  0.016032237  0.015271502           12 
 1666000   0.57886056   -7.9169555    320.07483  0.016010146  0.015259377            9 
 1667000   0.58662437   -7.9245447    320.58187  0.016025888  0.015247306           13 
 1668000   0.59824661   -7.9147175    320.64264  0.016019316  0.015235246           15 
 1669000   0.58332681   -7.9124073    320.19699  0.015987467  0.015223181           12 
 1670000   0.57349305   -7.9279409    320.38435  0.015987243  0.015211127            7 
 1671000   0.58174231   -7.9126166    320.37762   0.01597734  0.015199097            9 
 1672000   0.58178309   -7.9316584     320.0856   0.01595323   0.01518707            6 
 1673000   0.58417864   -7.9046758    319.94289  0.015936585  0.015175046            9 
 1674000   0.58263798   -7.9138648     320.3235  0.015946013  0.015163058           10 
 1675000   0.57691207    -7.919633    320.39477  0.015940038  0.015151076            7 
 1676000   0.57641517   -7.9324831    320.81982  0.015951661  0.015139101           10 
 1677000   0.58990694   -7.9249881    320.75064  0.015938712   0.01512717            5 
 1678000   0.57057345   -7.9206724    320.85953  0.015934621  0.015115228           13 
 1679000   0.57937234   -7.9330771    320.38743  0.015901699  0.015103293            7 
 1680000   0.57376822   -7.9368122    320.21843  0.015883851  0.015091354            7 
 1681000   0.58806014   -7.9285861    320.84456  0.015905441  0.015079436            9 
 1682000   0.58004684   -7.9353991    320.29632  0.015868823  0.015067529            5 
 1683000   0.57768778   -7.9149137    320.60404  0.015874631  0.015055606            9 
 1684000   0.58101072   -7.9302242    320.54762  0.015862412  0.015043705            6 
 1685000   0.57406562   -7.9391586    320.29172  0.015840342  0.015031803           17 
 1686000   0.57455822   -7.9237379     320.6638  0.015849338  0.015019916            7 
 1687000    0.5642189    -7.918566    320.78489  0.015845924  0.015008043            4 
 1688000    0.5810669   -7.9271212    319.88262  0.015791993  0.014996182           12 
 1689000   0.58306131   -7.9477675    320.00381  0.015788623  0.014984304           11 
 1690000   0.57988862   -7.9440366    319.85055  0.015771724   0.01497244            8 
 1691000   0.58497373   -7.9509031    320.35277  0.015787146  0.014960587           12 
 1692000   0.57544728   -7.9352615    320.04476  0.015762646  0.014948755           11 
 1693000   0.57703813   -7.9553358    319.92242  0.015747313  0.014936898           17 
 1694000    0.5853836   -7.9576274    319.55258  0.015719824  0.014925081            7 
 1695000   0.58728425   -7.9518187    320.28173  0.015746398   0.01491326           12 
 1696000   0.57397609    -7.946086    320.27806  0.015736933   0.01490145            9 
 1697000   0.57279675   -7.9544551    320.61338  0.015744126  0.014889653           14 
 1698000   0.58142057   -7.9601441    320.38034  0.015723417  0.014877866            9 
 1699000     0.558821   -7.9533009     320.0485  0.015697886  0.014866082            8 
 1700000   0.56448105   -7.9677674    319.87226  0.015680013  0.014854312            5 
 1701000   0.58000074    -7.964405    320.39021   0.01569617  0.014842561            7 
 1702000   0.57665792    -7.922657     319.5593  0.015646264  0.014830824            6 
 1703000   0.57187745   -7.9494013    319.80188  0.015648947  0.014819068            7 
 1704000   0.57182902   -7.9473313    320.14824  0.015656702  0.014807332            8 
 1705000   0.56877812   -7.9534075    320.27431  0.015653681  0.014795626           16 
 1706000   0.56395197   -7.9445266    319.69437  0.015616177   0.01478392            8 
 1707000   0.58529822    -7.943123    320.09758  0.015626713  0.014772227            7 
 1708000   0.56956243   -7.9619833    320.43691  0.015634119  0.014760543           12 
 1709000   0.56983597   -7.9320141    320.37706  0.015622053  0.014748875            8 
 1710000   0.56459302   -7.9653803    320.43061  0.015615527  0.014737239           12 
 1711000   0.57424796   -7.9565273    319.85146  0.015578193  0.014725582           10 
 1712000   0.57459199   -7.9570574    319.96093  0.015574422  0.014713915            7 
 1713000   0.58026571   -7.9328521     320.1606  0.015575044  0.014702274            6 
 1714000   0.57547702   -7.9552896    319.86149  0.015551414  0.014690629           13 
 1715000   0.56350986   -7.9655838    319.94825  0.015546562  0.014679017            5 
 1716000   0.56553585    -7.971246    319.93282  0.015536753  0.014667406            6 
 1717000   0.56806399   -7.9641873    319.59219  0.015511172  0.014655785           12 
 1718000   0.58265181   -7.9558831    319.86693   0.01551547  0.014644183            6 
 1719000   0.56911735   -7.9711734    320.18342  0.015521787  0.014632579            7 
 1720000     0.563388   -7.9660028      320.119  0.015509641  0.014620983           17 
 1721000   0.56398603   -7.9636362    319.50193   0.01547075  0.014609389            4 
 1722000   0.56294757   -7.9625609    319.56107  0.015464628  0.014597812            6 
 1723000   0.56246646   -7.9743501    319.80195  0.015467303  0.014586221            6 
 1724000   0.57766436   -7.9597493    319.99722   0.01546777  0.014574664            7 
 1725000   0.55829289   -7.9784979    319.54683  0.015437045  0.014563103            9 
 1726000   0.56250397    -7.961702    319.79246   0.01543996  0.014551549            5 
 1727000   0.55554654   -7.9684058    319.86968  0.015434746  0.014540025            6 
 1728000   0.56924503   -7.9578997    319.77887  0.015421435  0.014528514            5 
 1729000   0.56289396   -7.9890948    319.41018  0.015394746  0.014516997            4 
 1730000   0.57665902   -7.9792611     319.6711  0.015398415  0.014505494            7 
 1731000   0.55122319   -7.9808926    319.60211  0.015386198  0.014494005            4 
 1732000   0.55464749   -7.9648429    319.82026  0.015387811  0.014482534            6 
 1733000   0.56502926   -7.9852087    320.10534   0.01539264  0.014471048           10 
 1734000   0.56081499   -7.9853013    319.96248  0.015376897  0.014459578            5 
 1735000   0.56957365    -7.966679    319.72082  0.015356427  0.014448126           16 
 1736000   0.57067433   -7.9739324    319.16994  0.015321138  0.014436679           10 
 1737000   0.56139056   -7.9814927    319.62539  0.015334168  0.014425229            4 
 1738000   0.56381955   -7.9684684    318.96832   0.01529384  0.014413795            9 
 1739000    0.5474663   -7.9746818    319.55304  0.015313065  0.014402343           11 
 1740000   0.55225321   -7.9905987    320.00799  0.015326053  0.014390906           13 
 1741000   0.54856513    -7.990471    319.62125  0.015298739  0.014379468            8 
 1742000   0.56606447   -7.9910144    319.40389  0.015279558   0.01436804            9 
 1743000   0.55645814   -7.9841811    319.91957  0.015295447  0.014356634           12 
 1744000   0.54664362   -7.9775684    318.93035  0.015239409  0.014345225            9 
 1745000   0.55429454   -7.9767127    319.43197  0.015254631  0.014333841            5 
 1746000   0.55281564   -7.9832944    319.45476  0.015246982  0.014322465            8 
 1747000    0.5559149   -7.9763283     319.6631  0.015248192  0.014311116            4 
 1748000   0.54374818   -7.9876629    319.78859  0.015245452   0.01429976            7 
 1749000   0.55877187   -8.0018358    319.50541  0.015223242  0.014288413           13 
 1750000   0.54645616     -7.99549    319.21791  0.015200853  0.014277071           11 
 1751000   0.54932425   -8.0010379    319.55173  0.015208059  0.014265758            7 
 1752000   0.55004849   -7.9862307    318.97428  0.015171912  0.014254458            9 
 1753000   0.55479497   -7.9790388     319.1032  0.015169386  0.014243161            7 
 1754000   0.55781822   -7.9846659    319.38701  0.015174221  0.014231866            8 
 1755000   0.55304872   -7.9922238    319.19978  0.015156685   0.01422058           10 
 1756000   0.55537864   -8.0000388    319.11622  0.015144088  0.014209289            5 
 1757000   0.54778249   -7.9914712    319.50687  0.015153997  0.014198019            8 
 1758000   0.55980731   -8.0112695     318.8251  0.015113059   0.01418675            6 
 1759000   0.54668263   -7.9923861    319.03999  0.015114648  0.014175476            4 
 1760000   0.54303473   -7.9974309    318.95315  0.015101948   0.01416421            8 
 1761000   0.54893818   -7.9901288    318.89637  0.015090686  0.014152964            6 
 1762000   0.54679367   -7.9773473    319.59871  0.015115338  0.014141739            9 
 1763000   0.55284922    -8.016921    318.96603  0.015076859  0.014130526            8 
 1764000   0.55412537    -8.000381    319.48357  0.015092761  0.014119325            7 
 1765000   0.55036449   -7.9992968    319.13476  0.015067741  0.014108117            9 
 1766000   0.53582798   -8.0017554    319.51384  0.015077097  0.014096937           10 
 1767000   0.54818368   -7.9940322    318.97587  0.015043193  0.014085744            6 
 1768000   0.55961591   -8.0029372    319.20935   0.01504569  0.014074569            9 
 1769000   0.56285157   -8.0093293    319.30777  0.015041821  0.014063414            5 
 1770000   0.53918305   -8.0127004    319.14684  0.015025746  0.014052265            8 
 1771000   0.53661173   -8.0030686    320.14698  0.015064322   0.01404112            8 
 1772000   0.55522018   -8.0024488    319.89673  0.015044053  0.014029985            9 
 1773000   0.54642777   -8.0261002    318.65401  0.014977158  0.014018853            8 
 1774000   0.55491382   -8.0015825     319.3596   0.01500186  0.014007734            4 
 1775000   0.54209535   -8.0221652    319.40929  0.014995741  0.013996624           10 
 1776000    0.5598381   -8.0040214    318.98929  0.014967591  0.013985525            6 
 1777000   0.54240599   -8.0039124     319.2183  0.014969907  0.013974449           11 
 1778000   0.56032765    -8.002102    319.33072  0.014966757  0.013963372            6 
 1779000   0.54581944   -8.0201128    319.03904   0.01494468  0.013952305           22 
 1780000   0.54014262    -8.023329    318.87123  0.014928428  0.013941238            7 
 1781000   0.55153356   -8.0025563    319.56344  0.014952435  0.013930194            8 
 1782000   0.53984227   -8.0263936    319.07146  0.014921037   0.01391916            8 
 1783000   0.53879749   -8.0029164    319.77602  0.014945598   0.01390812            9 
 1784000   0.55417451   -8.0268111    319.48921  0.014923823    0.0138971            6 
 1785000   0.52969939   -8.0271052    319.43986  0.014913159  0.013886074           15 
 1786000   0.54462297   -8.0318697    319.15477  0.014891507  0.013875072           10 
 1787000   0.54174423   -8.0160591    319.12117  0.014881607  0.013864053            9 
 1788000   0.53750008   -8.0180415    318.75925  0.014856415  0.013853064           16 
 1789000    0.5280708   -8.0175502    318.92884  0.014856011  0.013842064            9 
 1790000    0.5446656   -8.0148999    318.99928  0.014850991  0.013831071            5 
 1791000   0.54682411   -8.0090524     319.0761  0.014846273  0.013820093           10 
 1792000      0.54817   -8.0299583    318.83044  0.014826564  0.013809132           12 
 1793000   0.54209033   -8.0131846    318.82369  0.014817981  0.013798167            8 
 1794000    0.5355314   -8.0285953    318.64042  0.014801208  0.013787214            8 
 1795000   0.53066171   -8.0158152    319.15442  0.014816825  0.013776278            9 
 1796000   0.53796224   -8.0046751    319.23948  0.014812522  0.013765345           11 
 1797000   0.53471547   -8.0306181    318.68474  0.014778554  0.013754422           11 
 1798000   0.54240757   -8.0310714    319.58889   0.01481224   0.01374351           11 
 1799000   0.53727453   -8.0374602     318.4864  0.014752937    0.0137326            5 
 1800000   0.54115981   -8.0227177    319.07105  0.014771808   0.01372168           12 
 1801000   0.54110912   -8.0500471    318.70609  0.014746719  0.013710783            5 
 1802000   0.53589556   -8.0216608    319.16487  0.014759752  0.013699894           10 
 1803000   0.53368622   -8.0498464    319.27196  0.014756515  0.013689009           12 
 1804000   0.53054287   -8.0528876     318.7346  0.014723513  0.013678131            8 
 1805000   0.53105067   -8.0409076    318.45859  0.014702613  0.013667252            9 
 1806000    0.5363523   -8.0359442     318.4917  0.014695999   0.01365639            6 
 1807000   0.53275888   -8.0239731    318.25182  0.014676804  0.013645537            6 
 1808000   0.53774558   -8.0400932    318.98379  0.014702424  0.013634708           12 
 1809000   0.53285417   -8.0400022    318.49247  0.014671664  0.013623885           10 
 1810000   0.51403223   -8.0566516    319.14821  0.014693748  0.013613064           12 
 1811000    0.5376436   -8.0371491     318.2876  0.014646033  0.013602262            9 
 1812000   0.53322101   -8.0387571     319.1532  0.014677759  0.013591461            8 
 1813000   0.52778584   -8.0445281     318.6403  0.014646089  0.013580667           18 
 1814000   0.52683977   -8.0473218    318.56185  0.014634411  0.013569875            8 
 1815000   0.52267174   -8.0516708    318.83683  0.014638973  0.013559098            9 
 1816000   0.52198179    -8.025653    318.75228  0.014627032  0.013548323           11 
 1817000   0.53562808   -8.0328502    318.45341  0.014605275  0.013537557            6 
 1818000   0.53259718   -8.0529918    318.20576  0.014585889  0.013526803            8 
 1819000   0.51883251   -8.0356812    318.23515  0.014579217  0.013516061           13 
 1820000   0.51991891   -8.0536839     318.6264  0.014589121  0.013505342           12 
 1821000   0.52746585   -8.0523925    318.89377  0.014593345   0.01349461            7 
 1822000   0.53430404   -8.0573139    318.69798   0.01457638  0.013483887           11 
 1823000   0.51967595   -8.0606525    318.52309   0.01456039  0.013473175            9 
 1824000   0.51899245   -8.0567735    318.58021  0.014555017  0.013462484            8 
 1825000   0.52591724   -8.0503678    318.49335  0.014543075  0.013451814            9 
 1826000   0.51864191   -8.0427086    318.16791  0.014520259  0.013441135            9 
 1827000   0.52589141   -8.0509994    318.49704  0.014527323   0.01343046           13 
 1828000   0.52117957   -8.0495351    318.57423  0.014522895    0.0134198           12 
 1829000   0.52247702   -8.0615407    318.79071  0.014524818  0.013409142            8 
 1830000   0.53773531   -8.0437041    318.84416  0.014519315  0.013398503            7 
 1831000   0.52717337   -8.0731639    318.09919   0.01447748  0.013387874            8 
 1832000   0.52379572    -8.058518    318.93377   0.01450754  0.013377257           16 
 1833000   0.51733692   -8.0465535    318.76543  0.014491972  0.013366638           17 
 1834000   0.52406026   -8.0685797    318.45395  0.014469918  0.013356032           19 
 1835000   0.52596085   -8.0784061     318.6429  0.014470613   0.01334543           12 
 1836000   0.52123912   -8.0609348    318.37258  0.014450462  0.013334828            7 
 1837000   0.51868053     -8.06513    318.09933    0.0144302  0.013324242           20 
 1838000   0.50102685   -8.0728264    318.52586  0.014441687  0.013313673           13 
 1839000   0.51088374   -8.0517097    318.36262  0.014426437  0.013303122           18 
 1840000    0.5265663   -8.0576687    318.55254  0.014427198  0.013292589            7 
 1841000   0.52521213   -8.0554126    318.63754  0.014423209  0.013282067            8 
 1842000   0.52043298   -8.0632952    318.56892  0.014412275  0.013271542           11 
 1843000   0.50931894   -8.0469883    318.47733  0.014400313  0.013261033           10 
 1844000   0.51042408   -8.0497208    317.79915  0.014361856   0.01325053            9 
 1845000   0.51380174   -8.0530862    318.12645  0.014368855   0.01324003            9 
 1846000   0.51310781   -8.0687458    317.79294  0.014346016  0.013229544           12 
 1847000    0.5205251   -8.0670277    318.09265  0.014351771  0.013219061           15 
 1848000   0.51808529   -8.0856982    318.28111  0.014352503  0.013208581           11 
 1849000   0.52180399   -8.0692998    318.12245   0.01433759  0.013198115           14 
 1850000    0.5195377   -8.0858558    317.82339  0.014316369  0.013187657           10 
 1851000   0.52540015   -8.0715314    318.30912  0.014330502  0.013177209            8 
 1852000   0.51807953   -8.0807128      317.717  0.014296121  0.013166779            8 
 1853000    0.5143935   -8.0541971    318.19482  0.014309895  0.013156359           13 
 1854000   0.51571164    -8.048058    318.38961  0.014310932  0.013145947           14 
 1855000   0.50778528   -8.0729114    318.39869  0.014303625  0.013135537            7 
 1856000   0.51051228    -8.067286    317.88879  0.014273024  0.013125143           10 
 1857000   0.51425359   -8.0689652    317.86617  0.014264323  0.013114762           14 
 1858000   0.51204127   -8.0573952    317.90073  0.014258196  0.013104383           12 
 1859000   0.51197073   -8.0691429    318.11787   0.01426026  0.013094014            9 
 1860000   0.50428012   -8.0749897    318.38937  0.014264757  0.013083659            9 
 1861000   0.50052771   -8.0666405    317.97029  0.014238326  0.013073305           13 
 1862000   0.50475643   -8.0862817    318.00751  0.014232345  0.013062959            8 
 1863000   0.50196421   -8.0614142    318.37297  0.014241053  0.013052629            8 
 1864000   0.49981186   -8.0840278    317.79851   0.01420773  0.013042304           12 
 1865000    0.5182278   -8.0720045    317.96187  0.014207412  0.013031997           15 
 1866000   0.50431387   -8.0828054    318.42519  0.014220489  0.013021709           14 
 1867000   0.50676862    -8.088784    317.95061  0.014191689  0.013011423            6 
 1868000   0.51108267   -8.0691554    318.21507   0.01419589  0.013001132           11 
 1869000   0.50445541   -8.0855092    317.87411  0.014173092  0.012990856            9 
 1870000   0.50781993   -8.0725652    317.98455  0.014170434   0.01298059           15 
 1871000   0.51116828   -8.0867754    317.95942  0.014161741  0.012970342           11 
 1872000   0.50524352   -8.0731522    318.60924  0.014183104  0.012960116            8 
 1873000   0.50959038   -8.0825622    317.93717   0.01414563  0.012949879            8 
 1874000   0.50380925   -8.0801673    317.76739  0.014130531  0.012939654           13 
 1875000   0.50388337   -8.0677532    318.21673  0.014142966  0.012929435           15 
 1876000   0.51041076   -8.0843906    318.16781  0.014133254   0.01291924            8 
 1877000   0.49936084    -8.099826    318.04197  0.014120137  0.012909042           17 
 1878000   0.51161276   -8.0932602    318.59259  0.014137051  0.012898853           16 
 1879000   0.49831977   -8.0873102    317.88409  0.014098106  0.012888668            8 
 1880000   0.49883889   -8.0914826    318.03308  0.014097211  0.012878495            9 
 1881000   0.49773735   -8.0912385    318.37153  0.014104711  0.012868335           12 
 1882000   0.50657314   -8.0883235    317.86942  0.014074983  0.012858182           19 
 1883000   0.50935068   -8.0671258    317.93617  0.014070463  0.012848037           10 
 1884000   0.49185869   -8.0852967    318.25651  0.014077163  0.012837899            9 
 1885000   0.50358898   -8.0845112    318.00936  0.014058769  0.012827773           18 
 1886000   0.50428663   -8.0938876    317.77022  0.014040749  0.012817667            9 
 1887000   0.49480986   -8.0936695    318.26259  0.014055052  0.012807565           15 
 1888000   0.50042427   -8.0975953    317.59039  0.014017938  0.012797469           18 
 1889000   0.50169869   -8.0785533    318.28281  0.014041063   0.01278738           12 
 1890000   0.48721005   -8.0893515    318.48461  0.014042531  0.012777302           11 
 1891000   0.50062124   -8.0878087    317.73303  0.014001984  0.012767228           12 
 1892000   0.50427905    -8.091618     317.8201  0.013998419   0.01275716           11 
 1893000    0.4956701   -8.0873532     317.9177   0.01399532  0.012747098           11 
 1894000   0.50404121   -8.0946939    317.90747  0.013987481  0.012737055            9 
 1895000   0.49993363    -8.101141    317.75391  0.013973347  0.012727028           16 
 1896000   0.50655013   -8.0929829    318.22548  0.013986704  0.012717014            9 
 1897000   0.50374993   -8.1052472    317.79086  0.013960238  0.012707008           12 
 1898000    0.4956184   -8.0936574     318.3462  0.013977265  0.012697011           12 
 1899000   0.49754676   -8.1023334    318.11403  0.013959717  0.012687012            9 
 1900000   0.49576244   -8.1064786    317.92392  0.013944031  0.012677027           15 
 1901000   0.49640433   -8.0923439    317.74537   0.01392887  0.012667061            8 
 1902000   0.49388385   -8.0927682    317.30602  0.013902297  0.012657092            9 
 1903000   0.50156679   -8.1103369    318.08355   0.01392904  0.012647133           11 
 1904000   0.49893229   -8.0973731    318.20483  0.013927032  0.012637169           25 
 1905000   0.49750259   -8.0881415    317.40561   0.01388476  0.012627223           15 
 1906000   0.49924843   -8.1079479    317.54382  0.013883518  0.012617281            8 
 1907000   0.48888912    -8.098764    317.56662  0.013877234  0.012607344            6 
 1908000   0.49813589   -8.1061642    317.63168  0.013872802  0.012597416           12 
 1909000   0.49886376   -8.1008767    317.69207  0.013868172  0.012587499            6 
 1910000   0.49024734   -8.0983124    317.72162    0.0138622  0.012577592           11 
 1911000   0.49320219   -8.0995817    317.79714  0.013858239  0.012567691           18 
 1912000   0.49209257   -8.0952768    317.14422  0.013822534  0.012557797           11 
 1913000   0.49559748   -8.1173772    317.44023  0.013828203  0.012547918           16 
 1914000   0.48338139   -8.1101993    317.34151   0.01381668  0.012538043           13 
 1915000   0.47839201    -8.101917    317.84233  0.013831259  0.012528183           14 
 1916000   0.48333532    -8.106878    317.69453  0.013817612   0.01251833           18 
 1917000   0.48749997   -8.1151896    317.72937  0.013811918  0.012508497           16 
 1918000   0.48842685   -8.1020281    317.46896  0.013793403  0.012498658           12 
 1919000   0.49643587    -8.106724    317.06631   0.01376873  0.012488829           15 
 1920000   0.48678813   -8.1078648    317.65188  0.013786974  0.012479008            9 
 1921000   0.47883183   -8.0905469    317.93194  0.013791946  0.012469192           15 
 1922000   0.48261514   -8.1137987    317.90721  0.013783698  0.012459397           13 
 1923000   0.48803573   -8.1209881    317.54453  0.013760814  0.012449599           14 
 1924000   0.49287614   -8.1043165    317.46678  0.013750294  0.012439815            9 
 1925000   0.49773337   -8.1376572      317.174  0.013730476  0.012430036            7 
 1926000    0.4898487   -8.1097552    317.67233  0.013744909  0.012420275            9 
 1927000    0.4745551   -8.1115658    318.04202  0.013753763  0.012410521            6 
 1928000   0.49744751   -8.1252326     317.3792  0.013717981   0.01240077            9 
 1929000   0.49414472   -8.1252495    317.80483  0.013729257  0.012391026           18 
 1930000   0.48090902   -8.1175985    317.36963  0.013703352  0.012381288           14 
 1931000   0.48681854   -8.1089881    317.78665  0.013714252  0.012371573            5 
 1932000   0.48391837   -8.1191979    317.59829  0.013699029  0.012361858           13 
 1933000   0.49111346   -8.1116544    317.46531  0.013686209  0.012352153           17 
 1934000   0.47380393   -8.1247985    317.56393  0.013683382  0.012342459           16 
 1935000   0.48932117    -8.121402    317.91486  0.013691424   0.01233278            6 
 1936000    0.4809766   -8.1342236    317.58152  0.013670003  0.012323111            7 
 1937000   0.48204958   -8.1369072    316.96514  0.013636428  0.012313436           10 
 1938000   0.48142075   -8.1270819    317.08056  0.013634355  0.012303774           14 
 1939000   0.48266499   -8.1132642    317.43605  0.013642601  0.012294136           11 
 1940000   0.48039775   -8.1205582    317.19059  0.013625025  0.012284494           13 
 1941000   0.47541354   -8.1282635    317.19263  0.013618093  0.012274861           12 
 1942000   0.46418852   -8.1120911    317.40192  0.013620062  0.012265234           16 
 1943000   0.46899145   -8.1117371    317.09794  0.013600014  0.012255612           14 
 1944000   0.48600113   -8.1306399    317.34779  0.013603729  0.012246006           11 
 1945000   0.48526819   -8.1309139    316.96337  0.013580264  0.012236394           10 
 1946000   0.46458126   -8.1402192     317.2641  0.013586164  0.012226799            5 
 1947000   0.47718584   -8.1244075    317.15606  0.013574562  0.012217217            9 
 1948000    0.4781854   -8.1285605    316.87236  0.013555457  0.012207646           12 
 1949000     0.468537   -8.1215329    317.34812  0.013568844  0.012198071           17 
 1950000   0.47864282   -8.1271058    317.24418  0.013557444  0.012188514           14 
 1951000    0.4795297   -8.1234889    317.14616  0.013546308  0.012178968           13 
 1952000    0.4627841   -8.1259136    316.77555  0.013523546  0.012169435            8 
 1953000   0.46591048   -8.1368651    317.18118   0.01353393  0.012159908           15 
 1954000   0.46485027   -8.1181174    317.05668  0.013521694  0.012150373           12 
 1955000   0.47792916    -8.125126    317.47827  0.013532748  0.012140855           13 
 1956000   0.47171742   -8.1350522    316.84222  0.013498731  0.012131349           15 
 1957000   0.46362435    -8.134033    317.61821  0.013524877  0.012121844            8 
 1958000   0.46924694   -8.1406976    317.06868  0.013494581   0.01211235           11 
 1959000   0.47683462   -8.1438802     316.3987  0.013459193  0.012102866            9 
 1960000   0.48001517   -8.1352699    317.06467  0.013480641  0.012093392           13 
 1961000   0.48467236   -8.1305246    316.78936  0.013462067  0.012083928           10 
 1962000   0.46922681   -8.1416938    317.30875  0.013477266  0.012074478           16 
 1963000   0.47321333   -8.1342703    316.98964  0.013456853  0.012065031           12 
 1964000   0.47192483   -8.1378968    316.72934  0.013438957  0.012055594           11 
 1965000   0.46354459   -8.1461993     316.9664  0.013442171  0.012046168           10 
 1966000   0.47943948   -8.1454292     316.8203  0.013429141  0.012036747           12 
 1967000   0.46018808   -8.1444481     316.8741  0.013424593  0.012027342           15 
 1968000   0.47184367   -8.1192905    317.26586   0.01343436   0.01201794           14 
 1969000   0.45869521    -8.138656    317.02249  0.013417238  0.012008549            9 
 1970000   0.46928716   -8.1489927    316.97334  0.013408348  0.011999164           12 
 1971000   0.45696174   -8.1695604    317.40964  0.013419992  0.011989788           16 
 1972000    0.4614089   -8.1530885    317.06606  0.013398667  0.011980419            8 
 1973000    0.4545021   -8.1580398    316.63204  0.013373545  0.011971052            7 
 1974000   0.45769075   -8.1591318    316.80476  0.013374061  0.011961688           14 
 1975000    0.4637466   -8.1501528    316.92961  0.013372557  0.011952338            8 
 1976000   0.46146712   -8.1479432    317.30795  0.013381745  0.011942999            8 
 1977000   0.46699441   -8.1560688    316.98111    0.0133612   0.01193367           16 
 1978000   0.46510806   -8.1546346    316.78821  0.013346318  0.011924345            7 
 1979000    0.4567188   -8.1504962     317.2771  0.013360161  0.011915034           13 
 1980000   0.45902842   -8.1496344    316.78496    0.0133327  0.011905732           14 
 1981000   0.47139076   -8.1632625    316.75514  0.013324716   0.01189644           14 
 1982000   0.44866215   -8.1597644    317.21132  0.013337173  0.011887161            6 
 1983000   0.45355431   -8.1428456    317.18543  0.013329359  0.011877884           12 
 1984000   0.45643233   -8.1414811    316.67148  0.013301053  0.011868625           11 
 1985000   0.46166083   -8.1559109    317.23666   0.01331808  0.011859364            9 
 1986000   0.46201667   -8.1591303    317.03512  0.013302917  0.011850124            9 
 1987000   0.45938015   -8.1646699    317.18386   0.01330246  0.011840888           12 
 1988000    0.4615612   -8.1484798    317.21844  0.013297218  0.011831667           12 
 1989000   0.44671276   -8.1531911    316.80087  0.013273038  0.011822446           12 
 1990000   0.45335202    -8.170425    317.02609  0.013275799  0.011813234            5 
 1991000   0.47114362    -8.177178    317.28409   0.01327993  0.011804039            9 
 1992000   0.46018224   -8.1467607    317.12792   0.01326673  0.011794841            8 
 1993000   0.44967537   -8.1570599    316.94797  0.013252549  0.011785653           10 
 1994000   0.45352758   -8.1752362    317.42616  0.013265888  0.011776477           10 
 1995000   0.45788144   -8.1599957    316.68103  0.013228113  0.011767305           11 
 1996000   0.44858733   -8.1463927    316.62039  0.013218954  0.011758151            8 
 1997000   0.46204958   -8.1637366    316.79259   0.01321952  0.011748995           15 
 1998000   0.45778113   -8.1549428    316.55996  0.013203201  0.011739845           12 
 1999000   0.45724927    -8.171984    316.32637  0.013186859  0.011730711            8 
 2000000   0.45158794   -8.1703364    316.73117  0.013197132  0.011721582           13 
 2001000   0.45722329   -8.1780828    316.79834  0.013193334  0.011712465            9 
 2002000   0.46987472   -8.1591474    316.52216  0.013175248  0.011703352           12 
 2003000   0.45603561   -8.1588134    316.68485  0.013175439   0.01169425           11 
 2004000   0.44739624     -8.15309    317.15744  0.013188516  0.011685161           15 
 2005000    0.4463338   -8.1736638    316.32922  0.013147516  0.011676073            7 
 2006000   0.46317546   -8.1703321     316.3854  0.013143295  0.011666995           12 
 2007000   0.45074163    -8.166691    316.61147  0.013146133  0.011657921            8 
 2008000   0.44309516   -8.1856435     316.8988  0.013151511  0.011648856           17 
 2009000   0.45572262   -8.1644432    316.62015  0.013133406  0.011639803            6 
 2010000    0.4536576   -8.1601759    316.43342   0.01311913  0.011630758            7 
 2011000   0.44540988   -8.1629551    316.83341  0.013129182  0.011621724           14 
 2012000   0.44438211    -8.181346    316.58639  0.013112425  0.011612695           14 
Loop time of 4585.21 on 48 procs for 2000000 steps with 4000 atoms

Performance: 75372.727 tau/day, 436.185 timesteps/s
99.4% CPU use with 48 MPI tasks x no OpenMP threads

MPI task timing breakdown:
Section |  min time  |  avg time  |  max time  |%varavg| %total
---------------------------------------------------------------
Pair    | 289.84     | 307.6      | 325.29     |  52.2 |  6.71
Neigh   | 29.314     | 30.237     | 31.963     |   9.3 |  0.66
Comm    | 272.17     | 291.95     | 310.27     |  59.2 |  6.37
Output  | 4.0189     | 4.0207     | 4.0565     |   0.3 |  0.09
Modify  | 3897.4     | 3907.4     | 3918.3     |   7.5 | 85.22
Other   |            | 44.03      |            |       |  0.96

Nlocal:        83.3333 ave          91 max          77 min
Histogram: 3 3 9 9 3 6 6 4 2 3
Nghost:        1915.65 ave        1945 max        1892 min
Histogram: 3 2 7 11 7 6 5 3 2 2
Neighs:        12070.7 ave       13416 max       10843 min
Histogram: 3 5 7 8 3 5 5 3 3 6
FullNghs:      24142.0 ave       26445 max       21919 min
Histogram: 2 4 5 6 10 5 5 4 5 2

Total # of neighbors = 1158814
Ave neighs/atom = 289.70350
Neighbor list builds = 107487
Dangerous builds = 0

#clear
#
#next RN
#
#jump SELF
Total wall time: 1:16:28
