
units lj                  # Use reduced LJ style units
atom_style atomic         # Uncharged point particles
atom_modify map hash      # Needed for indexing of clusters etc
                          # Used to be able to find where atoms are in relation to each other.

lattice fcc 1.0 spacing 1 1 1
Lattice spacing in x,y,z = 1.5874011 1.5874011 1.5874011
region box block 0 10 0 10 0 10 units lattice
create_box 2 box
Created orthogonal box = (0.0000000 0.0000000 0.0000000) to (15.874011 15.874011 15.874011)
  3 by 4 by 4 MPI processor grid
create_atoms 1 box
Created 4000 atoms
  using lattice units in orthogonal box = (0.0000000 0.0000000 0.0000000) to (15.874011 15.874011 15.874011)
  create_atoms CPU = 0.003 seconds
set type 1 type/fraction 2 0.59 78393
Setting atom values ...
  2375 settings made for type/fraction
mass 1 1.0
mass 2 1.0
pair_style lj/cut  3.5
pair_modify tail  yes
pair_coeff 1  1  1.0  1.0   # Intearaction between 1 and 1 set with epsilon = 1 and sigma = 1
pair_coeff 1  2  1.5  0.8
pair_coeff 2  2  0.5  0.88

write_data data.0
System init for write_data ...
Neighbor list info ...
  update every 1 steps, delay 10 steps, check yes
  max neighbors/atom: 2000, page size: 100000
  master list distance cutoff = 3.8
  ghost atom cutoff = 3.8
  binsize = 1.9, bins = 9 9 9
  1 neighbor lists, perpetual/occasional/extra = 1 0 0
  (1) pair lj/cut, perpetual
      attributes: half, newton on
      pair build: half/bin/atomonly/newton
      stencil: half/bin/3d
      bin: standard
WARNING: Not all mixed pair coeffs generated from mixing. Use write_data with 'pair ij' option to store all pair coeffs. (../write_data.cpp:312)


#############################
#   M E L T   S Y S T E M   #
#############################

velocity all create 2.4 8172548 mom yes dist gaussian # Assign velocities
                                                    # Temperature 2.4, random number seed, zero linear momentum
                                                                                # Gaussian distribution

timestep 0.002   # simulation timestep
thermo 1000       # output thermodynamic data every 1000 steps bf 100

# Define a fix  in this case with index 1 applied to all
# particles in the simulation. This fix is for simulations
# in the anisotropic NPT ensemble. Note that we use the MTK
# correction.
fix 1 all npt temp 2.4 2.4 0.1 iso 5.68 5.68 0.5 mtk yes tchain 5 pchain 5 # Use NPT ensemble
                                                                         # Set temperature and pressure and damping
                                                                         # Numbers of thermostats in chain and in barostat
run 10000          # run for 10000 steps
Per MPI rank memory allocation (min/avg/max) = 3.642 | 3.644 | 3.648 Mbytes
Step Temp E_pair E_mol TotEng Press Volume 
       0          2.4   -4.7762807            0   -1.1771807   -4.0862689         4000 
    1000    2.3811314   -4.4331543            0  -0.86235007    5.9607733    3642.1245 
    2000    2.3901689   -4.5309063            0  -0.94654928    5.7172398    3607.7723 
    3000    2.4148013   -4.4974572            0  -0.87616076     5.755814     3615.818 
    4000    2.4503129    -4.558847            0  -0.88429645    5.6375162    3605.3164 
    5000    2.3928704   -4.4623519            0  -0.87394362    5.5695983    3651.6964 
    6000    2.3789511   -4.4814643            0  -0.91392977    6.0323307    3606.7384 
    7000    2.3984869   -4.5341128            0  -0.93728185    5.7497709    3609.1755 
    8000    2.4288853   -4.5248844            0  -0.88246727    5.8494112    3603.0543 
    9000    2.4279331   -4.4724673            0  -0.83147816    5.6745263    3641.7575 
   10000    2.4179174   -4.5607641            0  -0.93479474    5.5492745    3606.1739 
Loop time of 2.69839 on 48 procs for 10000 steps with 4000 atoms

Performance: 640382.348 tau/day, 3705.916 timesteps/s
99.6% CPU use with 48 MPI tasks x no OpenMP threads

MPI task timing breakdown:
Section |  min time  |  avg time  |  max time  |%varavg| %total
---------------------------------------------------------------
Pair    | 1.2326     | 1.2818     | 1.3851     |   3.1 | 47.50
Neigh   | 0.21782    | 0.22386    | 0.24022    |   0.9 |  8.30
Comm    | 0.8306     | 0.90919    | 0.96315    |   3.2 | 33.69
Output  | 0.00024941 | 0.00025474 | 0.00033374 |   0.0 |  0.01
Modify  | 0.22321    | 0.26756    | 0.31921    |   4.7 |  9.92
Other   |            | 0.01571    |            |       |  0.58

Nlocal:        83.3333 ave          92 max          73 min
Histogram: 1 0 4 5 9 12 7 5 4 1
Nghost:        1759.85 ave        1787 max        1731 min
Histogram: 1 4 3 8 5 10 6 7 3 1
Neighs:        10573.7 ave       11898 max        9185 min
Histogram: 1 3 4 3 14 8 5 6 2 2

Total # of neighbors = 507538
Ave neighs/atom = 126.88450
Neighbor list builds = 903
Dangerous builds = 189

# Equilibrate just above the melting temperature to avoid step fn in T

fix 1 all npt temp 1.25 1.25 0.1 iso 5.68 5.68 0.5 mtk yes tchain 5 pchain 5
run 2000
Per MPI rank memory allocation (min/avg/max) = 3.644 | 3.646 | 3.650 Mbytes
Step Temp E_pair E_mol TotEng Press Volume 
   10000    2.4179174   -4.5607641            0  -0.93479474    5.5492745    3606.1739 
   11000    1.2521582   -6.6062268            0   -4.7284591    5.5823166    2775.2723 
   12000    1.2243131   -6.6731492            0   -4.8371387    5.5546734    2758.5564 
Loop time of 0.661202 on 48 procs for 2000 steps with 4000 atoms

Performance: 522684.774 tau/day, 3024.796 timesteps/s
99.6% CPU use with 48 MPI tasks x no OpenMP threads

MPI task timing breakdown:
Section |  min time  |  avg time  |  max time  |%varavg| %total
---------------------------------------------------------------
Pair    | 0.30581    | 0.32773    | 0.35127    |   1.9 | 49.57
Neigh   | 0.041863   | 0.043581   | 0.045822   |   0.5 |  6.59
Comm    | 0.21211    | 0.23935    | 0.26542    |   2.6 | 36.20
Output  | 6.9533e-05 | 7.1091e-05 | 8.757e-05  |   0.0 |  0.01
Modify  | 0.042455   | 0.045458   | 0.049283   |   1.0 |  6.88
Other   |            | 0.005008   |            |       |  0.76

Nlocal:        83.3333 ave          90 max          75 min
Histogram: 3 2 1 0 11 5 14 3 6 3
Nghost:        2108.08 ave        2135 max        2082 min
Histogram: 1 3 9 5 6 9 5 6 2 2
Neighs:        13848.9 ave       16283 max       11531 min
Histogram: 1 3 1 6 13 14 8 0 1 1

Total # of neighbors = 664748
Ave neighs/atom = 166.18700
Neighbor list builds = 142
Dangerous builds = 14

#############################
# L I N E A R  Q U E N C H  #
#############################

# Define solid atoms. This closely follows ten Wolde  Ruiz-Montero and Frenkel  Faraday Discuss  1996  104  93-110
# Compute components of the per-atom q6 vector
compute q6 all orientorder/atom degrees 1 6 components 6 nnn NULL cutoff 1.3 # compute the Q6 parameter.
                                                                             # Use all neighbours within 1.3 unit cell.

# get number of connections
compute coord_number all coord/atom orientorder q6 0.5

# An atom is solid if it has 8 or more connections (of a possible 14)
variable is_solid atom c_coord_number>=8
group solid dynamic all var is_solid    # Must be dynamic to update
dynamic group solid defined

# do clustering
compute cluster solid cluster/atom 1.3 # Create a cluster where all atoms within are solid and max 1.3 units from another member

# define chunks one chunk per cluster
compute clus_chunks solid chunk/atom c_cluster nchunk every compress yes  # Says which atoms are in which chunk

# count the size of each chunk
compute size_chunks solid property/chunk clus_chunks count


# Find the maximum entry in the vector of chunk sizes
variable max_n equal max(c_size_chunks)


# Thermo style which includes this variable
# thermo_style custom step temp pe vol v_max_n

thermo ${N}  # Print the thermo information every 100 steps
thermo 1000  

# Reset the npt fix at a lower temperature (below freezing)
fix 1  all npt temp  ${temp} ${temp}  0.1  iso  5.68  5.68  0.5  mtk yes tchain  5  pchain  5
fix 1  all npt temp  0.45 ${temp}  0.1  iso  5.68  5.68  0.5  mtk yes tchain  5  pchain  5
fix 1  all npt temp  0.45 0.45  0.1  iso  5.68  5.68  0.5  mtk yes tchain  5  pchain  5

dump dmp2 all dcd ${N} traj.dcd
dump dmp2 all dcd 1000 traj.dcd


compute msd all msd com yes
variable twopoint equal c_msd[4]/6/(step*dt+1.0e-6)
fix 9 all vector 10 c_msd[4]
variable fit equal slope(f_9)/6/(10*dt)
thermo_style custom step temp pe c_msd[4] v_twopoint v_fit v_max_n

fix 1 all npt temp 1.25 ${temp} 0.1 iso 5.68 5.68 0.5 mtk yes tchain 5 pchain 5
fix 1 all npt temp 1.25 0.45 0.1 iso 5.68 5.68 0.5 mtk yes tchain 5 pchain 5
run 2000000 # 5000000  # Run for this many steps
Neighbor list info ...
  update every 1 steps, delay 10 steps, check yes
  max neighbors/atom: 2000, page size: 100000
  master list distance cutoff = 3.8
  ghost atom cutoff = 3.8
  binsize = 1.9, bins = 8 8 8
  4 neighbor lists, perpetual/occasional/extra = 1 3 0
  (1) pair lj/cut, perpetual
      attributes: half, newton on
      pair build: half/bin/atomonly/newton
      stencil: half/bin/3d
      bin: standard
  (2) compute orientorder/atom, occasional
      attributes: full, newton on
      pair build: full/bin/atomonly
      stencil: full/bin/3d
      bin: standard
  (3) compute coord/atom, occasional
      attributes: full, newton on
      pair build: full/bin/atomonly
      stencil: full/bin/3d
      bin: standard
  (4) compute cluster/atom, occasional
      attributes: full, newton on
      pair build: full/bin/atomonly
      stencil: full/bin/3d
      bin: standard
Per MPI rank memory allocation (min/avg/max) = 9.844 | 9.850 | 9.855 Mbytes
Step Temp PotEng c_msd[4] v_twopoint v_fit v_max_n 
   12000    1.2243131   -6.6731492            0            0 8.3333333e+20            3 
   13000    1.2454432   -6.7239413   0.48232738 0.0030918421  0.039735585            2 
   14000    1.2766412   -6.6678981   0.93190051 0.0055470266   0.03776437            2 
   15000    1.2786912   -6.6764109    1.3769086 0.0076494919  0.037899877            2 
   16000    1.2586886    -6.684184    1.7941988  0.009344785  0.036887374            5 
   17000    1.2309822   -6.6710433    2.2310502   0.01093652  0.036448611            7 
   18000    1.2688921   -6.6922731     2.646968  0.012254481  0.036364576            2 
   19000     1.254765   -6.6756398    3.0717065  0.013472397  0.036068397            4 
   20000    1.2403303   -6.7507731    3.4540049  0.014391687  0.035857363            3 
   21000    1.2670323   -6.7310042    3.8235895  0.015172974  0.035455016            4 
   22000    1.2490735    -6.683648    4.2600496  0.016136551  0.035115853            2 
   23000    1.2458836   -6.7311301    4.6551913  0.016866635  0.034897983            2 
   24000    1.2417069   -6.7062271    5.1435976  0.017859714  0.034907817            4 
   25000    1.2303099   -6.7180974    5.5524168  0.018508056   0.03487601            3 
   26000    1.2412817   -6.7119103    5.9886647  0.019194438  0.034930038            2 
   27000    1.2525347   -6.7296233    6.4063594  0.019772714   0.03494783            4 
   28000    1.2498929   -6.7684002    6.7990284  0.020235203  0.034937118            2 
   29000    1.2327531   -6.6932373    7.2719656  0.020896453   0.03493659            6 
   30000    1.2452333   -6.7479292    7.6747774  0.021318826  0.034982291            2 
   31000    1.2168111   -6.7770789    8.0290437   0.02158345  0.034973077            5 
   32000     1.209381   -6.7359679    8.5240281   0.02219799  0.034939476            1 
   33000    1.2294942    -6.736993    9.0253831  0.022791371  0.035085103            5 
   34000    1.2613289   -6.6892554    9.4909858   0.02326222  0.035220898            2 
   35000    1.2390648   -6.7855739    9.8901916  0.023548075  0.035299192            5 
   36000    1.2459418   -6.7268476    10.397796  0.024068972   0.03542296            2 
   37000    1.2430362   -6.7182554    10.722239  0.024149187  0.035484404            3 
   38000    1.2215174   -6.7279621    11.232076  0.024631745  0.035534045            1 
   39000    1.2430977   -6.7300603    11.577304  0.024737829  0.035603934            4 
   40000    1.2176876   -6.7441517    11.973154  0.024944071  0.035581415            4 
   41000    1.2357272   -6.7581049    12.304622  0.025009395   0.03554535            3 
   42000    1.2434606   -6.7092867    12.764986  0.025327352  0.035512982            2 
   43000     1.227935   -6.7139086    13.160577  0.025504994  0.035491529            3 
   44000    1.2375646   -6.7762056    13.497505  0.025563456  0.035446231            1 
   45000    1.2537552   -6.7701729    14.019358  0.025961773  0.035411162            2 
   46000    1.2474791   -6.7082424    14.390706  0.026070119  0.035366661            3 
   47000    1.2491997   -6.7105167     14.79163  0.026226294  0.035302335            3 
   48000    1.2759743   -6.7576892    15.245009  0.026467029  0.035251802            3 
   49000    1.2281714   -6.7061156    15.644192  0.026605768  0.035230077            2 
   50000    1.2201625   -6.7795844    15.867045  0.026445074   0.03517991            2 
   51000    1.2721374   -6.7038109    16.350644  0.026716739  0.035108298            1 
   52000    1.2501001   -6.7277282    16.797869  0.026919661  0.035057155            5 
   53000    1.2327638   -6.7568619    17.244913  0.027114643  0.035021711            2 
   54000    1.2342482   -6.7172588    17.668338  0.027265953  0.034981958            3 
   55000     1.224491   -6.7500817    18.029597  0.027317571  0.034937717            4 
   56000    1.2092206   -6.6926235    18.310918   0.02724839  0.034880204            1 
   57000    1.2157395   -6.7762949    18.707798  0.027350581  0.034828618            1 
   58000    1.2159933   -6.7628056    19.064191  0.027391079  0.034773307            3 
   59000    1.2534617   -6.7121108    19.668022  0.027779692  0.034736609            3 
   60000    1.2273329   -6.7173187    20.096389  0.027911651   0.03470905            6 
   61000    1.2144145   -6.7627589    20.525992  0.028040973  0.034689073            6 
   62000     1.237948   -6.7147044    20.864913  0.028044238  0.034672712            2 
   63000    1.2288891   -6.7532377    21.288125  0.028158895  0.034653306            2 
   64000    1.2275752   -6.7796062    21.791545  0.028374408  0.034650449            2 
   65000    1.2214408   -6.7206696    22.428769  0.028754832  0.034679966            2 
   66000    1.2252572   -6.7566372    22.733702  0.028704169  0.034704005            2 
   67000    1.2622255   -6.7081064    23.160521  0.028806618  0.034707995            2 
   68000      1.20698   -6.7803602    23.320867  0.028579494  0.034699026            3 
   69000    1.2452056   -6.7597108    23.672073   0.02858946  0.034673344            2 
   70000    1.2289803   -6.8102254     23.98314  0.028551357  0.034641241            2 
   71000    1.2298637   -6.7165853    24.469136  0.028719643  0.034606469            4 
   72000    1.2305185   -6.7854924    25.033205  0.028973617  0.034580487            2 
   73000     1.227924   -6.7401174    25.596084  0.029219273  0.034574387            1 
   74000     1.220153   -6.7101626     26.22411  0.029531655  0.034592181            3 
   75000    1.2113121   -6.8093033    26.175215  0.029083572  0.034608299            2 
   76000    1.2061713   -6.7552583    26.633521  0.029203422  0.034600687            2 
   77000    1.1913191   -6.7916872    26.887365   0.02909888  0.034575134            5 
   78000    1.2206145   -6.7608352    27.280906  0.029146267  0.034535391            4 
   79000    1.2313109   -6.7694785    27.561547  0.029073362  0.034503211            1 
   80000     1.208623   -6.8058587    27.994264  0.029160691  0.034463449            6 
   81000    1.2232175   -6.8059108    28.343227  0.029159699  0.034427161            5 
   82000    1.2372333   -6.7754474    28.857573  0.029326801  0.034401211            4 
   83000    1.2406009   -6.7775632    29.324788  0.029442559  0.034373287            2 
   84000    1.2302484   -6.7439685    29.647158  0.029411863   0.03435008            4 
   85000    1.2346679     -6.76495    30.147486  0.029556359  0.034332443            3 
   86000    1.2427585   -6.8096813    30.449119   0.02950496  0.034301434            4 
   87000      1.23802   -6.7655369    30.863853  0.029563078  0.034275656            2 
   88000    1.2212247   -6.7874604    31.324372  0.029663231  0.034253558            2 
   89000    1.2167543   -6.8110125    31.683567  0.029666261  0.034233093            1 
   90000    1.1880412   -6.7521537    31.869876  0.029509144  0.034202929            2 
   91000     1.217411   -6.7628581    32.320783  0.029597786  0.034165607            4 
   92000    1.2366542   -6.7894804    32.714513  0.029632711  0.034126916            3 
   93000    1.1936061   -6.7316414    33.199342  0.029748514  0.034098817            2 
   94000    1.2112685   -6.7736267    33.563615  0.029754978  0.034071987            2 
   95000    1.2165482   -6.7420356    34.121984  0.029931565  0.034055403            2 
   96000    1.2264413   -6.8078845     34.26004  0.029739618  0.034037413            2 
   97000    1.2106583   -6.7165154    35.004814  0.030072864   0.03402037            3 
   98000    1.2210566    -6.794735    35.282555  0.030002172  0.034010065            6 
   99000    1.2039672   -6.8141926    35.595096  0.029962202  0.033999762            3 
  100000    1.2095822   -6.7849639    35.864642  0.029887202  0.033974504            2 
  101000    1.2228126   -6.8235302    36.208474  0.029874978  0.033951452            2 
  102000    1.1991047   -6.7724579    36.736937  0.030013837  0.033922951            2 
  103000    1.2115797   -6.7868167    37.073522  0.029994758  0.033897169            4 
  104000    1.2102104   -6.8509759    37.322716  0.029906022  0.033874944            2 
  105000    1.2079221   -6.8232968    37.659485   0.02988848  0.033848089            1 
  106000    1.2149175   -6.7930717    38.111332  0.029961739  0.033815237            4 
  107000    1.2145799    -6.795381     38.53076   0.03000838  0.033781875            3 
  108000    1.2115266   -6.7964394    38.749179  0.029899058  0.033748279            3 
  109000    1.2086882   -6.7911001    39.207576  0.029975211  0.033720256            1 
  110000    1.2083367   -6.7692851    39.654404  0.030041215  0.033698994            1 
  111000    1.1926684   -6.7776005    40.117087  0.030117933  0.033678647            2 
  112000    1.1963244   -6.7953052     40.39575  0.030056361  0.033658743            2 
  113000    1.2268406     -6.80969    40.778153  0.030072384   0.03363515            2 
  114000    1.1959578   -6.8033267    41.204258  0.030120072  0.033615783            6 
  115000    1.2015362   -6.7317915    41.636874  0.030171648  0.033597251            3 
  116000     1.212172   -6.8033475    41.843326   0.03005986  0.033576863            2 
  117000    1.2094748   -6.8448343    42.095856  0.029982803  0.033550455            1 
  118000    1.1924545   -6.7972535    42.655269  0.030123777  0.033525159            2 
  119000    1.2065417   -6.8288231        42.96  0.030084034  0.033498837            2 
  120000    1.2124847   -6.8011361    43.557157  0.030248026  0.033477523            2 
  121000       1.2411   -6.8078958    44.036758  0.030328345  0.033457323            3 
  122000    1.1856234   -6.8170733    44.338128  0.030285606   0.03344292            2 
  123000    1.2041556   -6.8167791      44.7882  0.030344309  0.033427688            4 
  124000    1.2101132   -6.7576847    45.242049  0.030404603  0.033412457            2 
  125000    1.1945048   -6.8248873    45.397214  0.030264809  0.033400058            2 
  126000    1.1839503   -6.8035456    46.011446   0.03043085  0.033385931            2 
  127000    1.2330151    -6.793192    46.275421  0.030364449  0.033374923            4 
  128000    1.2179459   -6.8220851     46.39967  0.030208119  0.033357931            5 
  129000    1.2062256   -6.8024631    46.945126  0.030326308  0.033339649            2 
  130000    1.2255512   -6.8618012    47.116648  0.030202979  0.033317564            1 
  131000    1.1718421   -6.8533712    47.482197   0.03020496  0.033290145            1 
  132000    1.1924234   -6.7982294    47.769214  0.030157332  0.033263568            2 
  133000    1.1784655   -6.8133518    48.035148   0.03009721  0.033238034            1 
  134000    1.2035228   -6.8478813    48.395873  0.030096936  0.033214012            1 
  135000    1.1777722   -6.7933925    48.833817  0.030144331  0.033188843            2 
  136000    1.2044407   -6.8278536    49.176274  0.030132521   0.03316167            2 
  137000    1.1973347   -6.8831249    49.467591  0.030089775  0.033130822            3 
  138000    1.2073808   -6.8393659    49.649786  0.029981754  0.033098322            1 
  139000    1.2089901   -6.8451702    50.035997    0.0299976  0.033063284            3 
  140000    1.2261975   -6.8258584     50.42289  0.030013625  0.033032167            4 
  141000     1.188148    -6.869692    51.012741  0.030149374  0.033007017            4 
  142000    1.1923664   -6.8528808    51.633131  0.030301133  0.032986289            2 
  143000     1.212157   -6.8446992    52.206897  0.030423599  0.032969001            4 
  144000    1.1910983    -6.837156     52.36359  0.030303003  0.032953279            3 
  145000    1.2088511   -6.8380086    52.594214   0.03022656   0.03293272            2 
  146000     1.187969   -6.8404738    52.835318  0.030157145  0.032912254            2 
  147000     1.175962    -6.822605    53.525825  0.030343438  0.032887853            3 
  148000    1.1870465    -6.805181       53.713  0.030243806  0.032866583            3 
  149000     1.196163   -6.8426454    54.027233  0.030216573  0.032841749            3 
  150000    1.1839348   -6.8739011    54.152737  0.030084854  0.032816989            2 
  151000     1.195052   -6.8476821    54.625872  0.030146728  0.032789357            3 
  152000     1.188403   -6.8396038    54.995001  0.030150768  0.032764774            3 
  153000    1.1974214   -6.8438881    55.497156  0.030227209  0.032742203            2 
  154000    1.1775026   -6.8767492    55.510094  0.030037929  0.032719229            4 
  155000    1.1932049    -6.830586    55.942394  0.030076556  0.032689647            2 
  156000    1.1918294   -6.8289279    55.972438  0.029899806  0.032657895            4 
  157000    1.2000398   -6.8225679    56.569481  0.030026264  0.032624567            2 
  158000    1.1647915    -6.850714    56.851266  0.029984845  0.032593629            3 
  159000    1.1994125   -6.8633385    57.541458  0.030157997  0.032566655            4 
  160000    1.1636006   -6.8104358    57.662791  0.030032704  0.032538993            6 
  161000    1.1778953   -6.8376094    58.040564    0.0300417  0.032510776            3 
  162000    1.1886067   -6.8568129    58.631146  0.030160055  0.032487355            3 
  163000    1.2042156   -6.8840127    58.816781  0.030069929  0.032465721            1 
  164000    1.1691819   -6.8347337    59.395978  0.030180883  0.032443575            3 
  165000    1.1669589    -6.837054    59.685198  0.030144039  0.032422567            3 
  166000    1.2240333   -6.8433549    59.912502  0.030076557  0.032402858            2 
  167000    1.1650327    -6.821042    60.729192  0.030303988  0.032382704            4 
  168000    1.1892845   -6.8436644    60.870264  0.030193583  0.032365404            2 
  169000    1.1696893   -6.8557367     61.22411  0.030189403  0.032347264            2 
  170000    1.1969851   -6.8417028    61.711032  0.030250506  0.032325738            1 
  171000    1.1913686   -6.8765449    61.739469   0.03008746  0.032305166            3 
  172000    1.1920572   -6.8338688    62.135768  0.030104539  0.032284901            2 
  173000    1.2107984   -6.8654042    62.552927  0.030131468  0.032263873            5 
  174000    1.1910728   -6.8892527    62.819504  0.030085969  0.032242471            2 
  175000    1.1881052   -6.8903454    63.205646  0.030097927  0.032219065            4 
  176000    1.1952481   -6.8929853    63.262265  0.029953724   0.03219645            3 
  177000    1.2057118   -6.8939816    63.875484  0.030073203  0.032175187            3 
  178000    1.1564918   -6.8610391    64.292667  0.030099563  0.032154899            2 
  179000     1.179475   -6.8534249     64.62115  0.030084334  0.032134893            7 
  180000    1.1529196   -6.8621778     65.00728  0.030095963   0.03211711            1 
  181000    1.1834835   -6.8850114    65.093341   0.02996931  0.032096404            4 
  182000    1.1783762    -6.921238    65.266148  0.029883767  0.032074166            2 
  183000    1.2086646   -6.8846336    65.570965  0.029859274  0.032050226            1 
  184000     1.181306   -6.8934901    65.850565  0.029823625  0.032024677            2 
  185000    1.1630998   -6.8782527     66.25124  0.029842901  0.031998516            8 
  186000     1.161248   -6.8811615     66.56906  0.029824848  0.031972012            2 
  187000    1.1593064   -6.9173141    66.607842  0.029682639  0.031944477            1 
  188000    1.1933176   -6.8869681     67.13887  0.029760137   0.03191446            2 
  189000    1.1780183   -6.9283543    67.314745  0.029680223  0.031886629            2 
  190000    1.1867881    -6.865381    67.724361  0.029703667  0.031858938            2 
  191000     1.197657   -6.8997627    68.149637  0.029733698  0.031831166            2 
  192000    1.1773345   -6.9078243    68.608557  0.029778019  0.031806528            2 
  193000     1.182939   -6.8187854    69.270016  0.029909333  0.031783192            6 
  194000    1.1962858   -6.8571897    69.524062  0.029864288  0.031758575            2 
  195000    1.1632133   -6.8692999    69.663041   0.02977053  0.031731467            2 
  196000     1.173859   -6.8828321     69.60355  0.029593346  0.031703291            4 
  197000    1.1882914   -6.8581312    70.038712  0.029627205  0.031674737            5 
  198000    1.1824971   -6.9085703    70.624407  0.029724077  0.031649369            3 
  199000    1.1833751   -6.8967071    70.752188  0.029628219  0.031623033            2 
  200000     1.165192   -6.8609171    70.949223  0.029562176  0.031595365            2 
  201000    1.1732522   -6.8606541    71.140989  0.029494606  0.031565322            2 
  202000    1.1735382   -6.8928796    71.298559  0.029413597  0.031533334            2 
  203000    1.1710183   -6.9131396    71.455383   0.02933308  0.031501723            3 
  204000    1.1751784   -6.8732312    72.115969  0.029459138  0.031472467            3 
  205000    1.1480926   -6.8946125    72.685263  0.029546855  0.031444212            4 
  206000    1.1853771    -6.893273    72.833122  0.029463237  0.031417583            2 
  207000     1.162466    -6.857323    73.283205  0.029502096  0.031389137            2 
  208000    1.1577916   -6.8936875    73.731902  0.029540025  0.031361122            2 
  209000     1.168251   -6.9204007    73.741271  0.029402421  0.031332288            2 
  210000    1.1722707   -6.8916469    74.176621  0.029435167  0.031303866            4 
  211000    1.1812694   -6.9299953    74.485185   0.02941753  0.031277188            1 
  212000    1.1725854   -6.9019595    75.101219  0.029520919  0.031252246            3 
  213000    1.1780481   -6.9094408    75.338199  0.029475039  0.031226963            3 
  214000    1.1623867   -6.8887612    75.875064  0.029546364  0.031202687            1 
  215000    1.1885563   -6.8600069    76.162635  0.029520401  0.031179424            1 
  216000    1.1841535   -6.9070073    76.240142  0.029413635   0.03115693            5 
  217000    1.1621094    -6.875477    76.827136  0.029503508  0.031132327            4 
  218000     1.185425   -6.8674893    77.125087  0.029482067  0.031109785            2 
  219000    1.1301037   -6.8845867    77.550101  0.029509171  0.031087597            2 
  220000    1.1795671   -6.9144842    77.633615  0.029406672  0.031065362            2 
  221000    1.1602381   -6.8692401    78.183628  0.029481006  0.031043327            4 
  222000    1.1721849   -6.9403069     78.00723  0.029281993    0.0310209            1 
  223000    1.1575805    -6.943736    78.503962  0.029336309   0.03099818            4 
  224000    1.1691607   -6.8864787     79.11496  0.029432649  0.030974613            2 
  225000    1.1470184   -6.9006956    79.111887  0.029300699  0.030951946            4 
  226000    1.1593603   -6.9209917    79.776388  0.029416072   0.03092957            2 
  227000    1.1394429   -6.8926542    80.023137  0.029377069  0.030909115            4 
  228000    1.1358941   -6.9467019    80.480672   0.02941545   0.03088978            2 
  229000    1.1713297   -6.9012857    81.157365  0.029533248   0.03087001            5 
  230000    1.1654418   -6.9388774    81.002678  0.029348796   0.03084959            7 
  231000    1.1797631   -6.9029243    82.045333  0.029597884  0.030829733            2 
  232000    1.1577005   -6.9205534    82.312984  0.029566445  0.030812965            3 
  233000    1.1536341   -6.9904406    82.224726  0.029407985  0.030796124            4 
  234000    1.1737055   -6.9295101    82.488947  0.029376405  0.030779317            1 
  235000    1.1752003    -6.887248    82.986369   0.02942779  0.030764205            2 
  236000    1.1798907   -6.9707858    83.272198  0.029404025  0.030746884            2 
  237000     1.154039   -6.9074663    83.684096  0.029424787  0.030729021            5 
  238000    1.1699669   -6.9499745    84.012175  0.029416027  0.030713267            1 
  239000    1.1629899   -6.9052256    84.685625  0.029527763  0.030696349            5 
  240000    1.1491828   -6.9608051    84.974257   0.02950495  0.030681987            2 
  241000     1.158024   -6.9315888    84.777807  0.029314594  0.030666286            2 
  242000    1.1883946    -6.955627    85.185704   0.02933392  0.030649397            4 
  243000    1.1616909   -6.9101578    85.682358  0.029383525  0.030630791            1 
  244000    1.1547542   -6.9666029    85.725211  0.029277736  0.030611343            2 
  245000    1.1502005   -6.9425802    86.111127  0.029289499  0.030592763            2 
  246000    1.1505489   -6.9554227    86.478861  0.029295007  0.030574432            3 
  247000    1.1609487   -6.9326617    87.064422  0.029373962  0.030557817            2 
  248000    1.1417365   -6.8979627    87.397185  0.029367333  0.030541763            2 
  249000    1.1754657    -6.984503    87.257523  0.029202652  0.030525248            5 
  250000    1.1614166   -6.9590369    87.902505  0.029300835  0.030507213            3 
  251000      1.14143   -6.9646031    88.106722    0.0292519  0.030489275            6 
  252000    1.1689129   -6.9540978    88.498543  0.029265391  0.030472638            3 
  253000    1.1494193   -6.8819041    89.060153  0.029334701  0.030455265            3 
  254000    1.1712601   -6.9679965    88.948282  0.029182507  0.030439401            2 
  255000    1.1545106   -6.9468827    89.628481  0.029290353  0.030422069            3 
  256000    1.1649312   -6.9920068    89.738831  0.029211859  0.030404605            2 
  257000     1.152484   -6.9757795    89.821855  0.029125115  0.030386589            2 
  258000      1.16323   -6.9380411    90.110703  0.029105524  0.030368159            5 
  259000    1.1279259   -6.9406768    90.621777  0.029157586  0.030348753            4 
  260000    1.1349851   -6.9625981    90.740615   0.02908353  0.030329432            2 
  261000    1.1843703   -6.9587305    91.036337  0.029066519  0.030310713            2 
  262000     1.130656   -6.9649324     91.33056   0.02904916  0.030291687            5 
  263000    1.1386341   -6.9464802     91.59203  0.029021556    0.0302717            1 
  264000    1.1663046   -6.9113305    92.518993  0.029204227  0.030253806            3 
  265000    1.1670251   -6.9904163    92.317645  0.029030706  0.030236137            2 
  266000    1.1220179   -6.9479205    93.264362  0.029218158  0.030220295            1 
  267000    1.1455814   -6.9260957    93.493032  0.029180097  0.030205766            3 
  268000    1.1550231   -6.9808808    93.793992  0.029164798  0.030189779            1 
  269000    1.1334199   -6.9640424    94.002943   0.02912111  0.030174895            2 
  270000    1.1527747   -6.9736829    94.430401  0.029145185  0.030159649            4 
  271000    1.1611256   -6.9999119    94.530781  0.029068506  0.030145021            2 
  272000    1.1571654   -6.9533672    94.880439  0.029068762  0.030130181            2 
  273000    1.1366644   -6.9989352    94.888972  0.028964888  0.030115383            2 
  274000    1.1690822   -6.9947781    95.152601  0.028939356  0.030098989            5 
  275000    1.1584514   -6.9459468    95.721417   0.02900649  0.030082823            3 
  276000     1.153271    -6.987244    96.143088   0.02902871  0.030066145            1 
  277000    1.1588806   -6.9910015     96.13791  0.028922356  0.030050082            3 
  278000    1.1444597   -6.9724479    96.290674  0.028864111  0.030031489            2 
  279000    1.1499221   -6.9594333    96.608992  0.028855732   0.03001342            3 
  280000    1.1414543   -6.9766385    97.225045  0.028936025  0.029995615            2 
  281000    1.1351116   -7.0090592    97.300691  0.028855483  0.029978407            3 
  282000    1.1399217   -6.9742604    97.488757  0.028808734  0.029961282            2 
  283000    1.1580349   -7.0035821    97.594198  0.028737985  0.029942491            2 
  284000    1.1459759   -7.0313926    98.074347  0.028777684  0.029923442            2 
  285000    1.1248176   -7.0297139    98.318088  0.028747979   0.02990448            5 
  286000    1.1609553   -6.9579862    98.730251  0.028767556  0.029885725            3 
  287000     1.125473   -6.9856028    99.043834  0.028758372  0.029865578            2 
  288000    1.1212618   -6.9939942     99.11594  0.028679381  0.029844705            1 
  289000    1.1398593   -7.0205193    99.275067  0.028626029  0.029823428           11 
  290000    1.1155496    -7.004406    99.317427  0.028539491   0.02980116            6 
  291000    1.1390429   -6.9833329    99.773705   0.02857208   0.02977927            3 
  292000    1.1617366   -6.9710519    100.27253  0.028616589   0.02975787            2 
  293000    1.1358362   -6.9695687    100.62342   0.02861872  0.029738456            5 
  294000    1.1202167   -7.0082709    100.35668  0.028445772  0.029717405            5 
  295000    1.1438106   -6.9975996    100.82798  0.028482481  0.029696732            3 
  296000    1.1322466   -6.9457259    101.44729  0.028560609  0.029675642            3 
  297000    1.1126957   -7.0019172    101.70791  0.028537573  0.029655369            3 
  298000    1.1063849   -6.9595234     102.0157  0.028527881  0.029635147            8 
  299000    1.1394371   -6.9800207    102.70654  0.028625011   0.02961592            4 
  300000    1.1334159   -7.0131156    102.10653  0.028362926  0.029596216            2 
  301000     1.134537   -6.9881797    102.80853  0.028463048  0.029575879            2 
  302000    1.1457313   -7.0119236    103.14524  0.028461711  0.029555152            4 
  303000    1.1210345   -6.9981118    103.16975  0.028374517  0.029535203            2 
  304000    1.1314112   -7.0235309    103.26784   0.02830807  0.029514546            6 
  305000    1.1132484   -6.9728438     104.1877  0.028466584  0.029494017            3 
  306000    1.1103652   -7.0372518    104.24825  0.028390046   0.02947409            3 
  307000    1.1263392   -7.0051364    104.82275  0.028453515  0.029454446            9 
  308000    1.1180603   -6.9939796     105.2252  0.028470023   0.02943533            1 
  309000    1.1711732   -6.9918308    105.37835  0.028419189  0.029415701            4 
  310000     1.112456   -7.0394099    105.26391  0.028296749  0.029395677            2 
  311000    1.1234523    -7.023369    105.54604   0.02828136  0.029375284           11 
  312000    1.1319441   -7.0363093    106.02553  0.028318785  0.029355408            4 
  313000    1.1366449    -7.000246    106.43535  0.028337421   0.02933638            2 
  314000    1.1414209   -7.0261538    106.69125  0.028315088  0.029317242            7 
  315000    1.1438132   -6.9956598    107.49457  0.028437717  0.029298595            5 
  316000    1.1081425   -6.9754864    107.42755   0.02833005  0.029280755            2 
  317000    1.1143495   -7.0611316    107.29316  0.028205352  0.029262345            2 
  318000    1.1329744   -7.0061154    108.16375  0.028344799  0.029244606            3 
  319000    1.1332291    -6.994336    108.56241  0.028360086  0.029227158            3 
  320000    1.1136294   -7.0340487    108.73348  0.028316011  0.029209152            5 
  321000    1.1377232   -7.0219876    109.09574  0.028321843  0.029191344            7 
  322000    1.1024656   -7.0355587    109.33239  0.028295131  0.029174607            3 
  323000    1.1052888   -7.0189341    110.00496  0.028381052   0.02915791            8 
  324000     1.134944    -6.985064    110.19321  0.028341875  0.029141568            2 
  325000    1.1417436   -7.0088828    110.31886  0.028286887  0.029124992            8 
  326000    1.1231085   -7.0196332    110.68855  0.028294618    0.0291097            5 
  327000    1.1348108   -7.0052831    111.32932  0.028371387  0.029093689            7 
  328000    1.1204307   -7.0236561    111.07454  0.028220157  0.029078262            4 
  329000    1.0952562   -7.0348867    111.25471  0.028180018   0.02906153            2 
  330000    1.1375835    -7.061832    111.60223  0.028182382  0.029044555            3 
  331000    1.1349544   -7.0401508    112.48558  0.028319631   0.02902919            4 
  332000    1.1325579   -7.0565906    112.37113  0.028205605  0.029014127            3 
  333000    1.1289617   -7.0182272    112.85246  0.028241356   0.02899882            3 
  334000    1.1246214   -7.0277682    113.03401  0.028202097   0.02898284            4 
  335000    1.1210238    -7.022305    113.84089  0.028318629  0.028968573            2 
  336000    1.1286043   -7.0521989    114.09706  0.028297881  0.028954763            4 
  337000    1.1156598   -7.0411077    114.60836  0.028340347  0.028941934            8 
  338000    1.1130925   -7.0497221    114.84916  0.028315869  0.028928442            3 
  339000    1.1237211   -7.0437203     114.8167  0.028224361  0.028915894            8 
  340000    1.1115364   -7.0347047    115.48869  0.028306051  0.028902568            2 
  341000    1.1080805   -7.0139782    115.98688  0.028344789  0.028889562            3 
  342000    1.1338976   -7.0519254    115.79238  0.028214518  0.028876916            2 
  343000    1.1156082   -7.0402472     116.3706   0.02827274   0.02886381            2 
  344000    1.1199616   -7.0503908    116.16409  0.028140525  0.028850652            2 
  345000    1.1227944   -7.0583761    116.65788  0.028178233   0.02883655            2 
  346000    1.1161824   -7.0814695    116.81862  0.028135506  0.028822284            2 
  347000    1.1377561    -7.064683    117.00113  0.028098254   0.02880788            8 
  348000    1.1096842   -7.0810916    117.18457   0.02806144  0.028792855            3 
  349000    1.1156064    -7.096274    117.59528  0.028079101  0.028777972            2 
  350000    1.1110696   -7.0386643    117.93625  0.028080059  0.028763615            2 
  351000    1.1085588    -7.045613    118.34526  0.028097165  0.028749699            1 
  352000    1.1270648   -7.0322242    118.56774  0.028070015  0.028735423            2 
  353000    1.1304401   -7.0737373    118.85288   0.02805781  0.028720459            3 
  354000     1.132405   -7.0424526    119.47615   0.02812527  0.028706176            2 
  355000    1.1032223   -7.0510386    119.16394  0.027972756  0.028691819            5 
  356000    1.1053628   -7.1050619     119.4402  0.027958849  0.028676566            4 
  357000    1.1085677    -7.056331    120.28075  0.028076739  0.028662001            8 
  358000    1.1088971   -7.0171169    120.81658  0.028123041  0.028647987            2 
  359000    1.1241988   -7.0312927    120.90722  0.028065743  0.028635174            3 
  360000    1.1309297    -7.018526    121.12632  0.028038501  0.028621265            4 
  361000     1.098305   -7.0783663    120.87863  0.027903655  0.028607152            2 
  362000    1.1236178   -7.0626182    121.10826  0.027879434   0.02859208            2 
  363000    1.1082809   -7.0213363    121.39028  0.027867373  0.028576869            2 
  364000    1.0961287   -7.0737502    121.51478  0.027819319  0.028561009            2 
  365000    1.1137226   -7.0720799    121.44759   0.02772776    0.0285446            3 
  366000    1.1075136   -7.0740826     121.5093  0.027666052  0.028528142            5 
  367000    1.1323009   -7.0661486    122.02404  0.027707548  0.028510365            9 
  368000    1.1216808   -7.0916158    122.20407  0.027673023  0.028492971            3 
  369000    1.1233691   -7.0604316    122.58418  0.027683871  0.028475688            3 
  370000    1.1220047   -7.1019907    122.47298  0.027584005   0.02845746            4 
  371000    1.1007973   -7.0550703    122.90837  0.027607451   0.02843899            3 
  372000    1.0951355   -7.1172829    122.32675  0.027402945  0.028420403            3 
  373000    1.1429863   -7.0508867    123.04094   0.02748904  0.028401141            4 
  374000    1.1185299   -7.0681127    123.44442  0.027505442  0.028382316            3 
  375000    1.1035576   -7.0635391    123.62563  0.027472363  0.028363066            4 
  376000    1.1189518   -7.0696235     123.7682  0.027430894  0.028343483            3 
  377000    1.1027661   -7.1013914    124.05248  0.027420974  0.028324043            5 
  378000    1.1161363   -7.0792488     124.6492  0.027479983   0.02830506           12 
  379000    1.1054863    -7.116207    123.94244  0.027252075  0.028284748            4 
  380000    1.0933978   -7.1435417    124.36213  0.027272397  0.028264206            3 
  381000    1.0903566   -7.0827468     125.1853  0.027380861  0.028244032            2 
  382000    1.1010207   -7.0783265    125.43291    0.0273632  0.028224308            7 
  383000    1.0973072   -7.0743796    125.83039  0.027378239   0.02820523            4 
  384000    1.0841973   -7.0736259    125.44978  0.027224345   0.02818576            5 
  385000    1.0800093   -7.1145733    125.86402  0.027243294  0.028165511            2 
  386000    1.1161787   -7.0968815    126.39617  0.027287602  0.028144572            3 
  387000    1.0915387   -7.0820275    126.61142  0.027263441   0.02812469            6 
  388000    1.0949419   -7.0890006    126.91193  0.027257717  0.028104796            3 
  389000    1.0892599   -7.1029142    126.78367   0.02716017  0.028084408            4 
  390000    1.1248745    -7.063144    127.04116  0.027145547  0.028064262            3 
  391000    1.0990016    -7.104941    127.64091  0.027203944  0.028044509            3 
  392000     1.084926   -7.0742145    127.67366   0.02714151  0.028025009            5 
  393000    1.0881798   -7.0792045    127.99203  0.027139955  0.028005793            6 
  394000      1.09607   -7.1160343    128.29118  0.027134344  0.027986659            3 
  395000    1.0911755    -7.101714    128.85758  0.027185143  0.027967423            3 
  396000    1.0905832   -7.1189586    129.53526  0.027259104  0.027949137            3 
  397000    1.0715644   -7.1042884    129.78372  0.027242594  0.027931435            5 
  398000     1.100943   -7.1488597    129.27192  0.027066984  0.027913758           10 
  399000    1.0972112   -7.1151896     130.6235  0.027281433   0.02789627            3 
  400000    1.1007581   -7.1425367    130.25762  0.027137005  0.027878828            2 
  401000    1.1096439   -7.1444952    130.45418  0.027110178  0.027860848            5 
  402000    1.0926052   -7.1172333    130.63714  0.027080668  0.027842863            3 
  403000     1.108109   -7.0852371     131.0769  0.027104404  0.027824827            9 
  404000    1.0759405   -7.1262466    130.91473  0.027003862  0.027806608            4 
  405000     1.083643   -7.0930524     131.5706  0.027072139  0.027788113            4 
  406000    1.0615587   -7.0783787    131.60193  0.027011891  0.027768769            3 
  407000    1.1151154   -7.1137268    131.57371  0.026939743  0.027749496            3 
  408000    1.0873747    -7.120634    131.98611  0.026957948  0.027729758            5 
  409000    1.1133036   -7.1266341    131.91776  0.026878108  0.027710362            6 
  410000    1.0553096    -7.125008    132.11142  0.026851915  0.027689909            3 
  411000    1.0739332    -7.108423    132.14375  0.026793138  0.027669405            9 
  412000    1.0974322   -7.1132644    132.21399  0.026742311  0.027648228            2 
  413000     1.039368   -7.0805769    132.51815  0.026738932  0.027626519            2 
  414000    1.0705895   -7.1611409    132.37671  0.026645876  0.027605404            6 
  415000    1.1046028   -7.1140077    132.71245  0.026649087  0.027584117            2 
  416000    1.0867469   -7.0763837    133.28752  0.026700225  0.027562657            3 
  417000    1.0884359   -7.1430118    132.94042  0.026566831  0.027541567            3 
  418000    1.1077391   -7.1337119    133.49886  0.026614605   0.02752028            6 
  419000    1.1078893   -7.1772728     133.4037   0.02653216  0.027498825            4 
  420000    1.0908918   -7.1104979    134.21248  0.026629461  0.027477346            2 
  421000    1.0701983   -7.1178486    133.73071  0.026470844  0.027456106            4 
  422000    1.1000568    -7.165571    134.01654  0.026464561  0.027434594            2 
  423000    1.0830903   -7.1554507    134.08315  0.026415121  0.027412799            4 
  424000    1.0810355   -7.0791587    135.03284  0.026539474  0.027390693            6 
  425000    1.0768358   -7.1402665    134.71673  0.026415045  0.027368814            1 
  426000    1.0867622   -7.1481599    134.89613  0.026388132  0.027346073            2 
  427000    1.0941699   -7.1187369    135.42626  0.026429794  0.027324063            4 
  428000     1.075671   -7.1398248    135.62003  0.026405769  0.027301887            4 
  429000    1.0929774   -7.1327924    135.71552  0.026362766  0.027279869            4 
  430000    1.0686674   -7.1215398    136.32129  0.026418855  0.027257708            2 
  431000    1.1017392   -7.1211195     136.9449  0.026478133  0.027236275            2 
  432000    1.0764514   -7.1672152    136.34025  0.026300203  0.027215795            7 
  433000    1.0795002    -7.182366    136.44411  0.026259451  0.027194412            3 
  434000    1.0885411   -7.1160709    137.40466  0.026383384  0.027173159            5 
  435000    1.0445782   -7.0992394    137.87733  0.026413282  0.027152652            3 
  436000     1.077379   -7.1301156    138.25371  0.026424639  0.027132132            4 
  437000    1.0869176   -7.0957046    138.30969  0.026374845  0.027111337            4 
  438000    1.0453858   -7.1567856    138.08535  0.026271945  0.027090755            4 
  439000     1.082489   -7.1697036    138.40221   0.02627225  0.027070042            2 
  440000    1.0736423   -7.1233523     138.7409  0.026276685  0.027049067            4 
  441000    1.0614967   -7.1250852    138.84416  0.026236614  0.027028556            5 
  442000    1.0834513   -7.1563972     139.0613  0.026218194   0.02700797            2 
  443000    1.0761714   -7.1411997    139.39601  0.026221973  0.026987088            6 
  444000    1.0774451   -7.2106803    139.21201  0.026128381  0.026965233            8 
  445000    1.0725941    -7.209247    139.57114  0.026136918  0.026944021            5 
  446000    1.0740107   -7.1500758    139.94735  0.026148609  0.026923307            2 
  447000    1.0694369   -7.1362241    140.27993  0.026152112  0.026902359            2 
  448000    1.0630655   -7.1851066    140.14271  0.026068212  0.026881969            8 
  449000    1.0707144    -7.180821    140.85189  0.026141776  0.026861934            6 
  450000    1.0731464   -7.1479691    140.99263  0.026109746  0.026841838            6 
  451000    1.0608204   -7.1573945    141.06561  0.026065337  0.026821989            3 
  452000     1.072728   -7.2089717    141.53825   0.02609481  0.026802667            4 
  453000    1.0752513   -7.1805067    142.17571  0.026154471  0.026783159            7 
  454000    1.1084864   -7.2130181    142.12419  0.026087405  0.026763096            4 
  455000    1.0808502   -7.2157096    142.63496  0.026123619  0.026743956            6 
  456000    1.0698281   -7.1543243    142.59358  0.026058768  0.026725081            3 
  457000    1.0385508   -7.1685009    143.12923  0.026099423  0.026706615            3 
  458000     1.059032   -7.1708712    143.00116  0.026019134  0.026687388            4 
  459000    1.0647063   -7.2045809    142.46279  0.025864704  0.026667964            3 
  460000    1.0874384   -7.2019815    143.12206   0.02592791  0.026648371            5 
  461000    1.0474022   -7.2460658     142.7468  0.025803833  0.026628159            4 
  462000    1.0762582    -7.193384    143.76381  0.025931422  0.026608375            2 
  463000    1.0574104   -7.1764796    144.23735  0.025960645  0.026589184            6 
  464000    1.0827784   -7.1900344    144.41507  0.025936614   0.02657023            5 
  465000    1.0683078   -7.1502404    144.98282  0.025982583  0.026551282            7 
  466000    1.0516173   -7.1742357    144.94217  0.025919558  0.026532397            3 
  467000    1.0756614   -7.2067668     144.8052  0.025839614  0.026512945            5 
  468000    1.0425613   -7.1873035    145.39791  0.025889941   0.02649322            2 
  469000    1.0655298   -7.1382687    145.75679  0.025898505  0.026473766            4 
  470000    1.0562874   -7.1522462    145.68027  0.025829835  0.026454406            6 
  471000    1.0953293   -7.1865733    145.82929  0.025801361  0.026435295            4 
  472000     1.043354   -7.2166015    145.85689   0.02575157   0.02641575            4 
  473000    1.0510143   -7.1635235    146.33307  0.025781019  0.026396945            5 
  474000    1.0790261   -7.1884201    146.45981  0.025748911   0.02637794            5 
  475000    1.0960187   -7.2237827    146.51604  0.025704569  0.026358873            6 
  476000    1.0523571   -7.2203071    147.01281  0.025737537  0.026339734            2 
  477000    1.0489749   -7.2017596    147.44975  0.025759914  0.026320708            2 
  478000    1.0754481   -7.1661409     147.7813  0.025763826  0.026302096            3 
  479000    1.0685274   -7.1497961     148.1754  0.025778601  0.026283948            2 
  480000     1.057509   -7.2122027    147.94607  0.025685082  0.026265512            6 
  481000    1.0632329   -7.1917028    148.55361  0.025736939  0.026246931            4 
  482000    1.0704385   -7.2017955    148.46116   0.02566756  0.026228762            4 
  483000    1.0577028   -7.2151645    148.42737  0.025608586  0.026209819            6 
  484000    1.0721493   -7.2026742    148.68771  0.025600501  0.026191223            6 
  485000    1.0627887   -7.1695577    148.94076  0.025591196  0.026172741            9 
  486000    1.0593011   -7.2134108    148.61805  0.025483204  0.026153812            4 
  487000    1.0620527   -7.1800194    149.97008  0.025662231  0.026135229            5 
  488000    1.0432285   -7.1896274    149.83286  0.025586213  0.026116758           10 
  489000    1.0634001   -7.2221222    150.31838  0.025616629  0.026098657           15 
  490000    1.0512076    -7.205597    150.32423  0.025565345  0.026080671            3 
  491000    1.0451074   -7.1914089    150.43403  0.025531913  0.026062721            4 
  492000    1.0532562   -7.2113736    150.38064  0.025470976  0.026044356            4 
  493000     1.046717   -7.2568937    151.01784  0.025527018  0.026026119            4 
  494000    1.0630488    -7.209625    151.52342   0.02556063  0.026007941            7 
  495000    1.0408601   -7.1998613    151.79017  0.025553901  0.025990171            7 
  496000    1.0504877   -7.2675664     151.8126  0.025506149  0.025973079            5 
  497000    1.0474956   -7.2525553    152.47577  0.025566025  0.025955678            2 
  498000    1.0451473   -7.2158972    152.60158   0.02553574  0.025938888            2 
  499000    1.0545764   -7.1832363    152.65662  0.025493758  0.025921537            7 
  500000    1.0568878    -7.190647    153.54655  0.025591091  0.025904809            5 
  501000    1.0868086   -7.1851212    153.55238  0.025540982  0.025888502            4 
  502000    1.0562764   -7.1953881    153.95064  0.025556215   0.02587226            2 
  503000    1.0708938   -7.1650521    154.14459   0.02553754   0.02585649            2 
  504000    1.0692874    -7.195323    154.18385  0.025493361  0.025840471            3 
  505000    1.0773563   -7.2153717    154.34562  0.025469574  0.025824031            4 
  506000    1.0169965    -7.237451    154.62173  0.025464711  0.025807541           12 
  507000    1.0492682   -7.2185797    154.77611   0.02543986  0.025791024            3 
  508000    1.0636231   -7.2142231    155.15698  0.025452261  0.025774806            4 
  509000    1.0426392   -7.2477217    155.35496  0.025434669  0.025758589            2 
  510000    1.0801402   -7.2208464    155.49176  0.025407151  0.025742906            2 
  511000    1.0343448   -7.2415722    155.65259  0.025383658  0.025727261            3 
  512000    1.0421389   -7.2525413    155.83102  0.025363122  0.025711655            8 
  513000    1.0572274   -7.2636939    156.34235  0.025396742  0.025695395            4 
  514000    1.0436597   -7.2307407    156.23352  0.025329688  0.025679526            4 
  515000    1.0522293   -7.2196985      157.035  0.025410194  0.025663895            3 
  516000    1.0415496   -7.2402221    157.35875  0.025413234  0.025648544            4 
  517000    1.0574501   -7.2377723     157.8339  0.025440667  0.025633446            4 
  518000     1.029069   -7.2388056    157.65479  0.025362739  0.025618705            6 
  519000    1.0328635   -7.2492229    157.97157  0.025364736  0.025603941            9 
  520000    1.0505964   -7.2166073    158.74274  0.025439541  0.025589417            3 
  521000    1.0534584   -7.2620233    158.48756  0.025349897  0.025574619            4 
  522000    1.0734039   -7.2224132     159.1437  0.025406083   0.02555997            3 
  523000    1.0500983   -7.1981289    159.23887  0.025372668    0.0255457            4 
  524000    1.0329999   -7.2388462    159.79733  0.025413062  0.025531362            3 
  525000    1.0360822   -7.2200297      160.042  0.025403492  0.025517367            7 
  526000    1.0628629   -7.2300385     160.6703  0.025454738  0.025503215           12 
  527000    1.0323509   -7.2856508    159.46722  0.025216196  0.025488644            3 
  528000    1.0215584   -7.2641331    159.75851  0.025214412  0.025473728            2 
  529000     1.025618   -7.2835983    159.76868   0.02516835  0.025458374            8 
  530000    1.0403824   -7.2418028    160.19694  0.025188198   0.02544286            3 
  531000    1.0397357   -7.2727432    160.31746  0.025159676  0.025427215            6 
  532000     1.040604   -7.2652208    160.41832  0.025128183  0.025411932            6 
  533000    1.0367404   -7.2712068    160.76531  0.025135289  0.025396219            4 
  534000    1.0133356   -7.2723631    160.93329  0.025114434  0.025380494            3 
  535000    1.0400746   -7.2324821    160.77746  0.025043219  0.025364816            5 
  536000    1.0326192   -7.2623302    161.38261   0.02509058   0.02534932            8 
  537000    1.0423337   -7.2566823    161.60855  0.025078918  0.025333745            4 
  538000    1.0229727   -7.2516454    162.04011  0.025099149  0.025318262            9 
  539000    1.0376702   -7.3057566    161.48748  0.024967143   0.02530277            6 
  540000     1.040041   -7.2381297    162.57852  0.025089278     0.025287            5 
  541000    1.0398465   -7.2591841    162.45278  0.025023534  0.025271863            7 
  542000    1.0608594   -7.2632509    162.60367  0.025000564  0.025256216            5 
  543000    1.0463378   -7.2668075    162.30913   0.02490932  0.025240507            3 
  544000    1.0293819   -7.2935611    161.79472   0.02478473  0.025224369            4 
  545000    1.0379482   -7.2566141    162.74642  0.024884774  0.025208591            5 
  546000    1.0415477   -7.2640553    162.98566  0.024875712  0.025192872            9 
  547000     1.050923   -7.2647616    163.49012  0.024907087  0.025176779            9 
  548000    1.0264859   -7.2491777    163.47289  0.024859016   0.02516056            7 
  549000    1.0358832   -7.2817709    163.77133  0.024859036  0.025144016            3 
  550000    1.0354621   -7.2683507    164.64121  0.024945637  0.025127749            3 
  551000     1.041967   -7.2428662    164.22563  0.024837512  0.025111601            3 
  552000    1.0486996   -7.2912822    163.78533  0.024726046  0.025095703            3 
  553000    1.0360318   -7.2553787     164.2569  0.024752396  0.025079412            4 
  554000    1.0288323    -7.251563    164.52139  0.024747502   0.02506301            5 
  555000    1.0452743   -7.2713434    164.80827  0.024745987  0.025046972            2 
  556000     1.042036   -7.2467128    165.06314  0.024739679  0.025030793            4 
  557000    1.0187326   -7.2867355    165.19885  0.024715568  0.025014688            3 
  558000    1.0423791   -7.2598765    165.73246  0.024750965  0.024998374            6 
  559000    1.0068993   -7.2993025    165.05403   0.02460555  0.024982315            7 
  560000    1.0258744   -7.2384949    166.50049  0.024776859  0.024966449            4 
  561000    1.0262446   -7.2912116    165.78674  0.024626669  0.024950889            3 
  562000     1.011985    -7.287792    166.38383  0.024671386  0.024934731            3 
  563000    1.0261486   -7.2861745    166.56586  0.024654509  0.024918422            4 
  564000    1.0227365   -7.3289048    166.05031   0.02453462  0.024902068            6 
  565000    1.0807715   -7.3438779    166.33353  0.024532969  0.024885865            4 
  566000    1.0043211   -7.2693976    167.54003   0.02466726   0.02486963            6 
  567000   0.98843046   -7.2511714    167.58293   0.02463006  0.024854015            2 
  568000    1.0492181   -7.2981234    166.76268  0.024466356  0.024837856            6 
  569000    1.0257529    -7.292483    167.89024  0.024588495  0.024821548            4 
  570000    1.0316639   -7.2469307    167.78816  0.024530432  0.024805396            5 
  571000    1.0338018   -7.3248599    167.59762  0.024459665  0.024788992            2 
  572000     1.031258   -7.3223367    167.76383  0.024441118  0.024772466            5 
  573000    1.0320398    -7.320015    167.99003  0.024431359  0.024755635            2 
  574000    1.0182763   -7.2817751    168.13815    0.0244103  0.024738767            5 
  575000   0.99961487   -7.3116003    167.96436  0.024342661   0.02472186           22 
  576000    1.0305185   -7.2882473    168.22866  0.024338637  0.024704779            4 
  577000    1.0072035   -7.3446726    168.27263  0.024302806    0.0246878            8 
  578000     1.013277   -7.3220127    168.28974  0.024263227  0.024670719            4 
  579000    1.0320976   -7.3079564    168.76681  0.024289984  0.024653862            3 
  580000    1.0180476    -7.334658    168.66919  0.024234079  0.024636991            5 
  581000    1.0124182   -7.3224272    169.27199  0.024278827  0.024620034            7 
  582000    1.0231864   -7.3274143    168.89826    0.0241836  0.024602866           14 
  583000    1.0107361   -7.2989207    169.64295  0.024248564  0.024585814            5 
  584000    1.0136232   -7.3296448     169.4845  0.024184432  0.024568403            5 
  585000    1.0200169   -7.2935076    170.11344  0.024232683   0.02455088            4 
  586000    1.0126414   -7.3431667    169.78742  0.024144969  0.024534023            3 
  587000    1.0110934    -7.343056    169.64408  0.024083487  0.024516696            3 
  588000    1.0018168   -7.3254906    170.28268  0.024133033  0.024499322            3 
  589000    1.0186906   -7.3279204     170.3125  0.024096279  0.024481803            6 
  590000    1.0151825   -7.3159603     169.7056  0.023969718  0.024463941            3 
  591000    1.0261958   -7.3531247     170.0519   0.02397799  0.024445898            4 
  592000    1.0310996   -7.3273315    170.82191  0.024045876  0.024427689            4 
  593000    1.0334288   -7.3274186    170.40811  0.023947176  0.024409345            3 
  594000    1.0143616   -7.3381653    170.86082  0.023970373  0.024390753            3 
  595000    1.0257565   -7.3507845    171.17457  0.023974029  0.024372523           12 
  596000    1.0262893   -7.3121727    171.14537  0.023929722  0.024354547            2 
  597000    1.0387647   -7.3144942    171.20584   0.02389808  0.024336776            4 
  598000    1.0099493   -7.3394339    172.19482  0.023995934  0.024319646           15 
  599000    1.0070664   -7.3154531    172.19926  0.023956492   0.02430273            2 
  600000    1.0239077   -7.3384093    172.22557  0.023920218  0.024285574            4 
  601000    1.0258399    -7.359774    172.26076  0.023885297  0.024267879            3 
  602000    1.0175888   -7.3174403     172.3822  0.023862431  0.024250246            8 
  603000    1.0242554   -7.3098849    172.59309  0.023852003  0.024232366            3 
  604000    1.0199291   -7.3481026    172.46521  0.023794869  0.024214615            4 
  605000    1.0074668   -7.3253382     172.7491  0.023794642   0.02419687            2 
  606000    1.0105138   -7.3544468    172.76243   0.02375721  0.024179254            5 
  607000   0.99733548   -7.3450662    173.13262  0.023768894  0.024161548            4 
  608000    1.0158991     -7.36301    172.79557  0.023683603  0.024143523            4 
  609000    1.0088151   -7.3647341    173.03111  0.023676944  0.024125725            1 
  610000    1.0220423   -7.3913601    173.04562  0.023640112  0.024107386            2 
  611000    1.0147733   -7.3585315    173.10038   0.02360889  0.024089168            2 
  612000   0.98295246   -7.3117728    173.57595  0.023635069  0.024071095            4 
  613000    1.0149631   -7.3410785    173.72926  0.023617354  0.024053067            3 
  614000   0.99010391   -7.3563565    173.31883  0.023523185   0.02403449            5 
  615000    1.0425088   -7.3557621    173.55753  0.023517281  0.024015812            3 
  616000    1.0188673   -7.3879118    173.23636  0.023435655  0.023996786            3 
  617000    1.0161762   -7.3613992    173.75684  0.023467968  0.023977264            4 
  618000    1.0013067   -7.3425637     173.7926  0.023434817  0.023958074            4 
  619000     1.000648   -7.3652745     173.7426  0.023390227   0.02393869            5 
  620000    1.0185494   -7.3813704      173.254  0.023286828  0.023919197            3 
  621000   0.99596469   -7.3339549    173.98438   0.02334734  0.023899363           19 
  622000   0.98453612   -7.3631782    174.38556  0.023363554  0.023879805            3 
  623000    1.0039524   -7.3792492     173.6839  0.023232196  0.023860201            6 
  624000    1.0226577   -7.3207548    174.46088  0.023298729  0.023840523            3 
  625000    1.0010676   -7.3260357    174.53285  0.023271046  0.023821025            3 
  626000   0.99462777    -7.307621    174.93482  0.023287382  0.023801472            4 
  627000    1.0250714   -7.3667121    174.40616  0.023179979  0.023782059            5 
  628000    1.0027466   -7.3672658    174.65158  0.023175634  0.023762363            6 
  629000   0.98355195   -7.3657423    175.24971  0.023218033  0.023742781            6 
  630000    1.0171234    -7.361816    175.34753  0.023194117  0.023723297            3 
  631000   0.99733703   -7.3589819    175.48472  0.023175478  0.023703924            4 
  632000    0.9956995   -7.3434968    175.72528  0.023170527  0.023685042            4 
  633000   0.99328405   -7.3297416    175.85447  0.023150931  0.023665593            4 
  634000   0.97938123   -7.3417083    176.23777  0.023164796  0.023645992            4 
  635000     1.027599   -7.3431226    176.32654  0.023139966  0.023626328            3 
  636000   0.99393192   -7.3526996    176.17795  0.023084113  0.023606931            7 
  637000    1.0226891   -7.3623717    176.30674  0.023064723  0.023587448            8 
  638000    1.0203857   -7.3730384    176.35306  0.023034622  0.023567957            7 
  639000   0.97559632   -7.4154341    176.27645  0.022988582  0.023548355            3 
  640000    1.0032198   -7.3868263    176.57555  0.022991608  0.023528876            3 
  641000   0.98988687   -7.4419029    176.63262   0.02296316  0.023509386            3 
  642000   0.99228469   -7.3662045    177.42294  0.023029976   0.02349016            6 
  643000    1.0034304   -7.3418542    177.70604   0.02303085  0.023471414            4 
  644000     1.004569   -7.4050393    177.03718  0.022908538  0.023452357            7 
  645000   0.95727363   -7.4193621    177.38098  0.022917439  0.023432758            4 
  646000   0.99075184   -7.3749405     178.4614  0.023021337  0.023413485            8 
  647000   0.99827228   -7.3718576     177.9218  0.022916255  0.023394575            4 
  648000    1.0055303   -7.3713443    178.34009  0.022934683  0.023376023            3 
  649000   0.99811873   -7.3945935    178.51502  0.022921806  0.023357247            2 
  650000   0.99387818   -7.4120069    178.79481  0.022922411  0.023338536            4 
  651000   0.97856578   -7.3569279     179.2504   0.02294552  0.023319906            4 
  652000   0.99306364   -7.3335785    179.28437  0.022914669  0.023301515            7 
  653000    0.9978313   -7.4326098    178.37799  0.022763908  0.023282815            7 
  654000    0.9859794   -7.3978348    179.16125  0.022828905  0.023263981            7 
  655000   0.98534114   -7.4003117    178.61862  0.022725016   0.02324504            3 
  656000   0.97089313   -7.3801554    179.69795  0.022827483  0.023226273            4 
  657000   0.98600481    -7.375011    180.08493  0.022841823  0.023207686            2 
  658000   0.98518372   -7.4338445    179.82246  0.022773868  0.023189093            4 
  659000      1.00359   -7.3998315    180.02851  0.022765365  0.023170462           11 
  660000   0.98956993    -7.392303    179.74754  0.022695396  0.023151685            5 
  661000    1.0051861   -7.4455104    179.98534  0.022691041  0.023132925            4 
  662000    1.0072815   -7.4292756    179.70427  0.022621383  0.023113972            4 
  663000   0.98173666   -7.3995511    180.67064  0.022708728  0.023095127            7 
  664000   0.99432765    -7.396334    180.64948  0.022671873  0.023076592            4 
  665000   0.97519175    -7.445354     180.3593  0.022601416  0.023057838            5 
  666000   0.99935788   -7.4336386     180.4997  0.022585048  0.023039275            3 
  667000   0.96648401   -7.4180215    181.14688  0.022632045  0.023020617            3 
  668000    1.0048417   -7.4044434    180.43884  0.022509835   0.02300164            3 
  669000   0.97560308   -7.4483429    180.94278  0.022538961  0.022982968            4 
  670000   0.98119524   -7.3732285    181.17677  0.022534424  0.022964425            6 
  671000   0.98748678   -7.4146266    181.97392  0.022599841  0.022945835           10 
  672000    1.0000599   -7.4405206    181.20125  0.022470393  0.022927262            3 
  673000   0.98076409   -7.4254235    181.72954   0.02250242  0.022908268            4 
  674000     1.003164   -7.4213131     181.8588  0.022485015  0.022889498            3 
  675000   0.98900199   -7.4546062    181.86294  0.022452215  0.022870466            4 
  676000   0.99617081   -7.4408926    181.66418    0.0223945  0.022851554            4 
  677000   0.99037438   -7.4571239    181.90408  0.022390951  0.022832757            8 
  678000   0.96330677     -7.39371    182.24306  0.022399589  0.022814276            4 
  679000    0.9866796   -7.4407609     182.8141  0.022436684   0.02279547            5 
  680000   0.99226316   -7.4453017     182.3879  0.022351458  0.022776551            5 
  681000   0.97094361   -7.4660194    182.44572  0.022325712  0.022757603            6 
  682000   0.98302145   -7.4678283    182.29306  0.022274324   0.02273861            5 
  683000   0.96621144   -7.3964646    182.95688  0.022322704  0.022719659           11 
  684000   0.97404709   -7.4627575    182.90962   0.02228431  0.022700727            4 
  685000   0.97997012   -7.4483292    183.04357  0.022268074  0.022681836            3 
  686000   0.97298634   -7.4536049    183.11811  0.022244668  0.022662816            4 
  687000   0.99524785   -7.4382482    183.10872   0.02221115  0.022644092            4 
  688000    0.9955443   -7.4488304    183.80455  0.022263148  0.022625613            3 
  689000   0.96425164   -7.4150088    184.09621  0.022266112  0.022606864            7 
  690000   0.95107153   -7.4496554    183.49934  0.022161756   0.02258825            3 
  691000    0.9766067   -7.4035318    184.39104  0.022237222  0.022569699            5 
  692000   0.96991391    -7.430895    183.68715  0.022120321  0.022551178            3 
  693000   0.98074277   -7.4378414     183.5691  0.022074206  0.022532368            3 
  694000   0.97870641   -7.4491102    183.93709  0.022086586  0.022513585            5 
  695000   0.96983634   -7.4488496    184.22421  0.022089234  0.022494908            6 
  696000   0.96890441   -7.4523729    184.67873  0.022111917  0.022476306            4 
  697000   0.98498145   -7.4142077    185.12871  0.022133993  0.022457766            5 
  698000   0.99294939   -7.4634245    184.35421  0.022009815  0.022439211            5 
  699000   0.99770057     -7.46032    184.46945  0.021992066  0.022420655            4 
  700000   0.96862164   -7.4276327    185.20396   0.02204809  0.022402234           14 
  701000   0.98275145   -7.4466309    185.77594  0.022084634  0.022384041            5 
  702000   0.96420215   -7.4896261    185.56427  0.022028047  0.022365612            4 
  703000   0.98419332   -7.4520401    186.02803  0.022051687  0.022347233            5 
  704000   0.96500511   -7.4516999    185.45237  0.021952222  0.022328992            3 
  705000   0.97288517   -7.4758205    186.10222  0.021997898  0.022310669            9 
  706000   0.96135218   -7.4450646     185.6321  0.021911249  0.022292351            6 
  707000   0.96993708   -7.4958436     185.8966  0.021911433  0.022273872            9 
  708000   0.99555169   -7.4812755    185.72734  0.021860563  0.022255863            5 
  709000   0.97231117   -7.4458768    186.54271  0.021925565  0.022237645            3 
  710000   0.95881145   -7.4721863    186.28066  0.021863927  0.022219303            6 
  711000   0.96665017    -7.463071    186.70255  0.021882624  0.022201172            5 
  712000   0.95413602     -7.45477    186.90415  0.021875486  0.022182856           10 
  713000   0.98067016   -7.4952418     186.8294  0.021836068  0.022164749           14 
  714000   0.97266643   -7.4474492    187.12603  0.021840106  0.022146732            8 
  715000   0.96821283   -7.4772349    186.67435  0.021756917  0.022128446            2 
  716000   0.97894664   -7.4565265    186.99206  0.021763508  0.022110105            5 
  717000   0.94204552   -7.4898793    186.71033   0.02170041  0.022091786            9 
  718000   0.97896402   -7.5320717    186.71186  0.021670365  0.022073121            7 
  719000   0.96006707    -7.491926    187.26904  0.021704803  0.022054583            9 
  720000   0.96105658   -7.4877334    187.04343  0.021648545  0.022035787            8 
  721000   0.98105681   -7.4819086    187.42985  0.021663181  0.022017252            6 
  722000   0.96890196   -7.4883947    187.67783    0.0216618  0.021999065           13 
  723000   0.94320986   -7.4940485    187.58392  0.021621014  0.021980436            5 
  724000   0.97598976   -7.4905014    188.02223  0.021641601  0.021961956           14 
  725000   0.95578894   -7.4711287    187.66656  0.021570868  0.021943508           14 
  726000   0.96732159    -7.519003    188.09666  0.021590526  0.021924907            4 
  727000   0.96653923    -7.522921    187.76006  0.021522245  0.021906312            5 
  728000   0.96482729   -7.4998887    187.94936   0.02151435   0.02188755            8 
  729000   0.94901166   -7.5320927    187.90157  0.021479375  0.021868642            5 
  730000   0.96379039   -7.4911321    188.39213  0.021505951  0.021849895            5 
  731000   0.95457781   -7.5054654    188.21261  0.021456066  0.021831345            3 
  732000   0.96293494   -7.4661352    188.68888  0.021480974  0.021812944            4 
  733000   0.97111276   -7.4709996    188.64012  0.021446126  0.021794804            5 
  734000   0.94099401   -7.5289772    188.70251  0.021423991   0.02177639            4 
  735000    0.9611373   -7.4934679    188.88473  0.021415502  0.021757841            8 
  736000   0.97609286   -7.4782702    189.75581  0.021485033  0.021739592            5 
  737000   0.95488545   -7.5320223    189.18415  0.021391243  0.021721404            6 
  738000   0.94651434    -7.491878    189.66493  0.021416546   0.02170319            6 
  739000   0.96132395   -7.4996397    189.54437  0.021373971  0.021685158            3 
  740000   0.97613599   -7.4886934    189.75379   0.02136867  0.021667074            4 
  741000   0.96246071   -7.4977103    190.35732  0.021407706   0.02164909            3 
  742000   0.95684124   -7.4834828    190.48815  0.021393547  0.021631269            8 
  743000   0.95986013   -7.4811964    190.60936  0.021378349  0.021613394            6 
  744000   0.95345742   -7.5081099    190.94065  0.021386722  0.021595651            7 
  745000   0.96429513   -7.4816869    190.54527  0.021313788  0.021577916            5 
  746000   0.94130043   -7.4887966    190.91527  0.021326549  0.021560207            3 
  747000   0.96071325   -7.5028886    191.38289  0.021350166  0.021542334            9 
  748000   0.95519243   -7.5318023    190.95612  0.021274078  0.021524506            2 
  749000   0.93592712   -7.4952485    191.11866  0.021263758  0.021506812            3 
  750000   0.97237565   -7.5064671    190.82602  0.021202891  0.021488946            9 
  751000   0.95558142   -7.5033313    191.41425   0.02123993   0.02147112            8 
  752000    0.9836635   -7.4971974     191.7909  0.021253424  0.021453196            8 
  753000   0.94831452    -7.496428    191.56793  0.021200524  0.021435389            7 
  754000    0.9499934   -7.4688902    191.81044  0.021199208  0.021417552            6 
  755000   0.94591698    -7.509834    192.09137  0.021202138  0.021399844            5 
  756000   0.94540181   -7.5310742    191.70328  0.021131314  0.021381791            4 
  757000   0.95320958   -7.5439874     191.7306  0.021106406  0.021363762            8 
  758000   0.96504782   -7.5317037     191.9445  0.021102078   0.02134592            5 
  759000   0.97776021   -7.5515508    192.36496  0.021120439  0.021328275            2 
  760000    0.9356081    -7.559624    192.50017  0.021107475  0.021310672            5 
  761000   0.93987833   -7.5523464    192.18153  0.021044846  0.021293039            4 
  762000   0.95598859   -7.5854445     191.9731  0.020994433  0.021275261            8 
  763000   0.95205939   -7.5136389    193.01769  0.021081006   0.02125779           14 
  764000   0.96409752   -7.5661644    193.08678  0.021060949  0.021240076           14 
  765000   0.93831077   -7.5254459    193.10712  0.021035634  0.021222349            9 
  766000   0.95591902   -7.5593228    192.71855    0.0209659  0.021204561            4 
  767000   0.95434302   -7.5353338    192.75453  0.020942474  0.021186753            5 
  768000   0.94452081   -7.5442782    192.72045  0.020911508  0.021169283            9 
  769000   0.96927933   -7.5303994    193.26452  0.020943273    0.0211516            7 
  770000   0.93925973   -7.5244444     193.8529  0.020979752   0.02113405            6 
  771000   0.94348411   -7.5336004     193.7301  0.020939268  0.021116654            8 
  772000   0.93896053   -7.4906665    194.17696   0.02096038  0.021099416            2 
  773000   0.93482066   -7.5008264    193.88243  0.020901512   0.02108216            2 
  774000   0.95782713   -7.5169948    193.78538  0.020864059  0.021064806            4 
  775000   0.95156655   -7.5258466    193.99967  0.020860179  0.021047377            5 
  776000   0.93098636   -7.5151484    193.87297  0.020819691  0.021029969            6 
  777000   0.93428015   -7.5300886    193.84247  0.020789626  0.021012506            5 
  778000   0.94848853   -7.4955664    194.36704  0.020819092   0.02099504            6 
  779000   0.95249001   -7.5044493    194.72452  0.020830607  0.020977562            5 
  780000   0.92928367   -7.5449523    194.14705  0.020742206  0.020960273            8 
  781000   0.94731084   -7.5402285    194.30337  0.020732327  0.020942866            9 
  782000   0.95658717   -7.5275788    194.80678   0.02075946  0.020925452            6 
  783000   0.95208581   -7.5347943    194.95996   0.02074925  0.020907921            3 
  784000    0.9390161   -7.5196436    195.16452  0.020744528  0.020890519            6 
  785000   0.93429528   -7.5358988    195.01488  0.020702216  0.020873323            6 
  786000   0.92630683   -7.5258074    195.12439  0.020687488  0.020856161            6 
  787000   0.92182031   -7.5232561    195.50027  0.020701003  0.020838944            2 
  788000   0.92999495   -7.5579531    195.33347  0.020657092  0.020821869            5 
  789000   0.93856051   -7.6037247    195.25541  0.020622667  0.020804537           10 
  790000    0.9220825     -7.56044    195.16675   0.02058721  0.020787239            5 
  791000   0.93792264   -7.5432399    195.59456  0.020606254  0.020770049           12 
  792000   0.93975339   -7.6049166    195.47364  0.020567513  0.020752766            6 
  793000   0.93656856   -7.5499899    195.95825  0.020592502  0.020735725            7 
  794000   0.93366472    -7.566101    196.16103   0.02058785  0.020718375            6 
  795000   0.93764008    -7.599503    195.64244  0.020507593  0.020701175            9 
  796000   0.95622808   -7.5623729    196.25248  0.020545695  0.020683772            6 
  797000   0.92132506   -7.6134928    196.15495  0.020509719  0.020666441            2 
  798000   0.94040667   -7.6049075    196.22095  0.020490909  0.020649249            5 
  799000   0.96310454   -7.5996349    196.01788  0.020444084  0.020632014            7 
  800000   0.94040647    -7.591665    196.45638  0.020464206  0.020614807            3 
  801000   0.94073964   -7.5813502    196.57031  0.020450511  0.020597563            6 
  802000   0.95672332   -7.5813468    196.66452    0.0204348  0.020580404            7 
  803000   0.95750934   -7.5975671    196.45428  0.020387534  0.020563022            4 
  804000   0.93898111   -7.5990146    196.42336  0.020358971  0.020545798            5 
  805000   0.92343483   -7.5823781    196.90979  0.020384036  0.020528642           13 
  806000   0.94798353   -7.5576217    197.35787  0.020405073  0.020511566           10 
  807000   0.93287882   -7.6202853    196.14081   0.02025411   0.02049443            5 
  808000   0.94303999   -7.5581972    197.47551  0.020366698  0.020477328            4 
  809000    0.9416498   -7.5937035    196.92416  0.020284731  0.020460095            5 
  810000   0.92441588   -7.6027224    196.98651  0.020266102  0.020442843            4 
  811000   0.92595583   -7.5913603    197.24756  0.020267937  0.020425313            3 
  812000   0.93231117   -7.5869752    197.56924   0.02027599  0.020407934            5 
  813000   0.91769728   -7.5971206    197.78349   0.02027301  0.020390819            5 
  814000   0.91102039   -7.5898984     197.3979  0.020208631  0.020373685            8 
  815000   0.93611682   -7.5776072    198.33331  0.020279479  0.020356694            5 
  816000   0.94005903    -7.642853    197.62043  0.020181825   0.02033967            5 
  817000   0.93245558   -7.5640641    198.55988  0.020252946   0.02032274            5 
  818000   0.91073748   -7.6029301    198.50194  0.020222284  0.020305962            6 
  819000   0.95072962   -7.6237829    197.99415  0.020145924  0.020289051            5 
  820000   0.92594839   -7.5805707    198.24847  0.020147203  0.020271917            3 
  821000   0.91322876   -7.6018362    198.65418  0.020163842  0.020255046            5 
  822000   0.93319773   -7.6192536    198.34562  0.020108031  0.020238181            5 
  823000   0.93415271   -7.5988372    198.85502  0.020135178  0.020221389            4 
  824000   0.91408223    -7.613553    198.94237  0.020119576  0.020204385            4 
  825000     0.907909   -7.6187359    199.30927  0.020132249  0.020187517            6 
  826000    0.9353859    -7.589493    199.17666  0.020094498  0.020170628            5 
  827000   0.92977836   -7.6114142    199.11083  0.020063566  0.020153808            6 
  828000   0.91036655    -7.615423    198.76408  0.020004437   0.02013695            5 
  829000   0.92767308    -7.621065    199.15024  0.020019123  0.020119824            9 
  830000   0.93203258   -7.6071879     198.9523  0.019975131   0.02010272            8 
  831000    0.9428099   -7.6126348    198.99718  0.019955594  0.020085755            6 
  832000   0.92346007   -7.6107986    199.66626  0.019998624   0.02006875           11 
  833000    0.9277264   -7.6246847     199.0792  0.019915886  0.020051618            4 
  834000    0.9221918   -7.6377025     199.5005  0.019934102  0.020034471           22 
  835000   0.92604324   -7.6093226    198.80298  0.019840617  0.020017563           10 
  836000   0.93651911   -7.6062002    199.92198  0.019928427  0.020000491           12 
  837000   0.93581933   -7.6326509    200.15262  0.019927581   0.01998347            5 
  838000   0.92705466   -7.6175825     200.1964  0.019908154  0.019966606            5 
  839000   0.93528893   -7.6284773    199.75891  0.019840972  0.019949667            6 
  840000   0.91625222    -7.631097    199.98267  0.019839551  0.019932854            2 
  841000   0.91668477   -7.6377645    200.16023  0.019833554  0.019916214            6 
  842000   0.93953909   -7.5982379     200.9569  0.019888846  0.019899655            8 
  843000   0.95651383   -7.6098453    200.51652   0.01982172  0.019882982            4 
  844000   0.91082698   -7.6043632    200.47051  0.019793692  0.019866248            5 
  845000   0.92631592   -7.6513055    200.39711  0.019763028  0.019849614           17 
  846000   0.90001091   -7.6336732    200.92407  0.019791575  0.019832835           13 
  847000   0.92011503   -7.6181299    200.87808  0.019763683  0.019816211            6 
  848000   0.92705148   -7.5999256    201.17824  0.019769874  0.019799677            8 
  849000   0.90644469   -7.6075291    201.34235  0.019762696   0.01978318            6 
  850000   0.88709838   -7.6488725    200.81724  0.019687964  0.019766569           11 
  851000   0.91257595   -7.6129435    201.73824  0.019755018  0.019749861            7 
  852000   0.92642576   -7.6714689    200.99188   0.01965883  0.019733194            8 
  853000   0.91737657   -7.6324009    200.90704  0.019627495  0.019716359           16 
  854000   0.92784427   -7.6638349    200.87831  0.019601709  0.019699431            6 
  855000   0.92734154   -7.6349177     201.1306  0.019603372   0.01968274            7 
  856000   0.91851973   -7.6695071    201.05111  0.019572733   0.01966595            3 
  857000   0.92514473   -7.6349039    201.54221  0.019597648  0.019649052            6 
  858000   0.88944411   -7.6486608    201.73403  0.019593437  0.019632121            7 
  859000   0.91859278    -7.650799    201.27065  0.019525674  0.019615431            7 
  860000   0.91635644   -7.6501873     201.4695  0.019522238  0.019598689           16 
  861000   0.91808697   -7.6349406    201.68255  0.019520185  0.019581788            7 
  862000   0.92004077   -7.6386322    202.36234  0.019563258  0.019565202           16 
  863000   0.92013032   -7.6442144    202.15024  0.019520108  0.019548622            6 
  864000   0.89836709    -7.657252    202.06176  0.019488982  0.019532004            7 
  865000   0.90907219   -7.6914835    201.63784  0.019425611  0.019515205            4 
  866000   0.92540008   -7.6746471    201.85827  0.019424391  0.019498381            9 
  867000   0.90790063   -7.6367874    202.07982  0.019423281  0.019481613            6 
  868000   0.90756832   -7.6440639    202.32847  0.019424776  0.019464663            7 
  869000   0.91091066     -7.65402     201.7839  0.019350202   0.01944773            5 
  870000   0.90115251   -7.6408892      202.556  0.019401916  0.019430796           13 
  871000   0.91261955   -7.6757964     201.6705   0.01929492  0.019414028            9 
  872000   0.88900544   -7.6649314    202.34544  0.019337294  0.019397253            4 
  873000   0.91230036   -7.6708936    202.10113  0.019291822  0.019380456            8 
  874000   0.90380676    -7.677334    202.12931  0.019272436  0.019363834            7 
  875000    0.9089695   -7.6691859    201.97895   0.01923609  0.019347241            6 
  876000     0.885273   -7.6743848     202.3172  0.019246309   0.01933046            7 
  877000   0.90368258    -7.704104    202.46396  0.019238309  0.019313676           10 
  878000   0.90199165   -7.6521359    202.53559  0.019223196  0.019296911            9 
  879000    0.9049615   -7.6622396    202.65475  0.019212623  0.019280191           21 
  880000   0.91345724   -7.6982029    202.82196  0.019206625  0.019263371           11 
  881000   0.89283804   -7.6573451    203.45184  0.019244404   0.01924661           15 
  882000   0.91639667    -7.685278    202.78124  0.019159226  0.019229886            8 
  883000   0.90880697    -7.726213    202.93505  0.019152044   0.01921316            6 
  884000   0.90532444   -7.6927329    202.83426  0.019120876  0.019196384            4 
  885000   0.90325107   -7.6954377    202.79219   0.01909531    0.0191796            4 
  886000   0.89713144   -7.6888446    203.09739  0.019102463  0.019162641           16 
  887000   0.89991501   -7.6981687    203.78204   0.01914525  0.019145829            6 
  888000   0.88155336   -7.6913601    203.38516  0.019086445  0.019129036            4 
  889000   0.91434462   -7.6516659    203.47749   0.01907363  0.019112277            7 
  890000   0.89401123   -7.6858549    203.41428  0.019046281  0.019095562            5 
  891000   0.90587428    -7.714809    203.01143  0.018987227  0.019078732            7 
  892000   0.91935241   -7.6546704    203.05338  0.018969859  0.019061928            4 
  893000    0.8890037   -7.7083773    203.14064   0.01895676  0.019045103            7 
  894000   0.90263123   -7.7103102    203.15807   0.01893718  0.019028273            7 
  895000   0.87616245   -7.7260804    203.53023  0.018950673  0.019011377            8 
  896000   0.90196756   -7.7062351    203.42282  0.018919533  0.018994577            3 
  897000   0.88881306   -7.7365034     203.1433  0.018872473  0.018977822            4 
  898000   0.87158977   -7.6995759    203.71238  0.018904267  0.018961032            4 
  899000   0.88997372   -7.6740108    203.85123   0.01889611  0.018944251            7 
  900000   0.87954066   -7.7024762     203.8102  0.018871315  0.018927625            5 
  901000   0.87574139   -7.6913627    204.15172  0.018881957  0.018910955            7 
  902000   0.90069693   -7.7283284    204.11359  0.018857501  0.018894328            8 
  903000   0.89869782    -7.705693    203.79516  0.018807231  0.018877612           10 
  904000    0.8920328   -7.7065488    204.15064  0.018819196  0.018860756            4 
  905000   0.88340489   -7.7300915    203.85995  0.018771634  0.018843952            9 
  906000   0.88471795   -7.7399723    203.90594  0.018755145    0.0188271            8 
  907000   0.89939463   -7.7279226    204.02845  0.018745723  0.018810279            5 
  908000   0.90059415   -7.7236647    203.49859  0.018676449  0.018793324            8 
  909000   0.87592378   -7.7151245    204.32849  0.018731984  0.018776338            7 
  910000    0.8955636   -7.7143067    204.16237  0.018696188  0.018759344            7 
  911000    0.9027461   -7.7382166    203.21945  0.018589412  0.018742226            8 
  912000   0.88535215   -7.7253746    203.71038  0.018613887  0.018725196           13 
  913000   0.91157843   -7.7029419     204.3271   0.01864979  0.018708178            9 
  914000   0.88692944   -7.6827208    204.67861  0.018661435  0.018691259            4 
  915000   0.86730351   -7.7356187    203.71712  0.018553472  0.018674267            7 
  916000   0.87649779   -7.7318813    203.92427  0.018552063  0.018657165            8 
  917000   0.87661909    -7.708231    204.71958  0.018604106  0.018640312           12 
  918000   0.91059617    -7.714656    204.35986  0.018551186  0.018623531            4 
  919000   0.88968227   -7.6989541    204.77638  0.018568769    0.0186066            7 
  920000   0.87883649   -7.7304756    204.37294  0.018512041   0.01858964            8 
  921000   0.86215154   -7.7304853    204.12327  0.018469351  0.018572646            9 
  922000    0.8913728   -7.7455322    203.96871   0.01843535  0.018555586            8 
  923000    0.8833456   -7.7244288    204.12857  0.018429809  0.018538443            7 
  924000   0.87711474   -7.7400474    204.11526  0.018408663  0.018521358           11 
  925000   0.89460897   -7.7594003    203.94042  0.018373011  0.018504322           13 
  926000   0.86683921   -7.7372427    204.77889  0.018428626  0.018487187           18 
  927000   0.87832012   -7.7631383    204.06939  0.018344965  0.018469934           13 
  928000   0.87762618   -7.7253445    204.31841  0.018347558  0.018452768            7 
  929000   0.90159609   -7.7430534    204.42864  0.018337697   0.01843562            7 
  930000   0.88465598   -7.7760372    204.23498  0.018300626  0.018418405            7 
  931000   0.88257373   -7.8034739    203.74433  0.018237051  0.018401018           17 
  932000   0.86882331   -7.7554257    204.79397  0.018311335  0.018383701            7 
  933000   0.87106345   -7.7273802    204.28495  0.018246244   0.01836648            6 
  934000   0.85832413   -7.7941308    203.52291  0.018158718  0.018349112            8 
  935000   0.88015141   -7.7600891    204.57216  0.018232813  0.018331722           10 
  936000   0.86278593     -7.77191    204.48805  0.018205845   0.01831443            8 
  937000   0.88489858   -7.7942223    203.73679  0.018119601  0.018297096            5 
  938000   0.88403052   -7.7571387    204.09214  0.018131854  0.018279695            6 
  939000   0.89297163   -7.7444326     204.6769  0.018164439  0.018262305            5 
  940000   0.87578827   -7.7874136    204.40851  0.018121322  0.018244857            5 
  941000   0.87812152   -7.7537135    203.94423  0.018060949   0.01822739           10 
  942000   0.88012394   -7.7849815    203.94532  0.018041872  0.018209853           13 
  943000   0.88982516   -7.8233412     203.8714  0.018016207  0.018192302           13 
  944000   0.88192915   -7.7766076    204.09882  0.018017198  0.018174754           10 
  945000   0.88899809   -7.8100876     204.1154  0.017999594  0.018157059           12 
  946000   0.86492932   -7.7956897    204.10551  0.017979696  0.018139468           30 
  947000   0.88470187   -7.7815867    204.37899  0.017984776   0.01812195           10 
  948000   0.86815216   -7.7822444     204.5529  0.017981092  0.018104605           13 
  949000   0.87487084   -7.7845195    204.60209  0.017966463  0.018087298           21 
  950000   0.89163771   -7.7861897    204.54319  0.017942385  0.018069943           14 
  951000   0.86626346   -7.7849454    204.77008    0.0179434  0.018052635            4 
  952000   0.87418555   -7.8309144    204.24258  0.017878377  0.018035279            8 
  953000   0.88598188   -7.8069562    204.94267  0.017920835  0.018017974            3 
  954000   0.86093494   -7.7620567    205.36347  0.017938808  0.018000794           11 
  955000   0.85361214   -7.7835809    205.63191  0.017943448  0.017983696            4 
  956000   0.89274572   -7.7525972    205.76167  0.017935989  0.017966662            5 
  957000   0.86445466   -7.7785007    204.50253  0.017807605  0.017949667           10 
  958000   0.88067127   -7.7451962    205.88024  0.017908859  0.017932682           14 
  959000   0.86613252   -7.7753854     204.4647   0.01776718  0.017915771           13 
  960000   0.86613365   -7.8025634    205.10638  0.017804373   0.01789868           11 
  961000   0.85991441    -7.795488     205.5343  0.017822953  0.017881623           11 
  962000   0.87156238   -7.8044422    205.26761  0.017781325  0.017864615           23 
  963000   0.86308775   -7.7681998     205.7085  0.017801013  0.017847644           10 
  964000   0.87601314   -7.7520589    205.44093  0.017759417  0.017830743           13 
  965000   0.86790555   -7.7882547    205.95919  0.017785767  0.017813872           10 
  966000   0.86209155   -7.7847008    205.79541  0.017753227  0.017796934           11 
  967000   0.86448389    -7.808164    205.56965  0.017715413  0.017779984            7 
  968000   0.87065774    -7.776954    205.12766  0.017659062  0.017762944            4 
  969000    0.8684186   -7.7794861    205.81074  0.017699582   0.01774588            6 
  970000   0.87907438   -7.8057797    205.25537  0.017633623  0.017728803            7 
  971000   0.85299774   -7.7900618    205.30998  0.017620149  0.017711791            4 
  972000   0.88783799   -7.7963022     205.6745  0.017633273  0.017694784            6 
  973000   0.85399165    -7.806006    205.49905  0.017600124  0.017677802            5 
  974000   0.87629156   -7.7898192    205.85795  0.017612761  0.017660866            4 
  975000   0.85354997   -7.8064184    205.48435  0.017562765  0.017643868            3 
  976000    0.8520526   -7.7923122    205.57758  0.017552731  0.017626978           12 
  977000   0.84349151   -7.7783354    206.25474  0.017592523  0.017610054           12 
  978000   0.87186247   -7.7859851    206.39679  0.017586638  0.017593246            6 
  979000   0.85869871   -7.8413503    206.07097  0.017540941  0.017576491           15 
  980000    0.8888886   -7.8366177    205.91693  0.017509943  0.017559648            8 
  981000   0.86283779   -7.8266476     206.0727  0.017505326  0.017542753           11 
  982000   0.88090644   -7.7698439    207.08171  0.017573126  0.017526038           25 
  983000   0.87427175   -7.8359766    205.94911  0.017459233  0.017509311           36 
  984000   0.86372535   -7.8247071    206.02257  0.017447711   0.01749252           18 
  985000   0.86376676   -7.8429699     206.0348  0.017431032  0.017475796            8 
  986000   0.86485128   -7.8008201    207.06812  0.017500687  0.017459191           13 
  987000   0.85459626   -7.8037751     206.6798  0.017450169   0.01744268            9 
  988000   0.87416958   -7.7692713    207.08772  0.017466913  0.017426232           11 
  989000   0.84286589   -7.8200213    207.27773  0.017465262  0.017409756            7 
  990000   0.86256917   -7.8017714    206.63751   0.01739373    0.0173932            9 
  991000   0.84146827   -7.7926707    207.04333  0.017410304  0.017376624            9 
  992000   0.84048232   -7.7835539    207.20698  0.017406501  0.017360163            6 
  993000   0.87435121   -7.7965288    207.47071  0.017411103  0.017343832           15 
  994000   0.85133026   -7.8263545    207.40602  0.017388164  0.017327538           24 
  995000   0.86554247   -7.7845599    207.65786  0.017391781  0.017311253           26 
  996000   0.85985661   -7.8121612    207.58092  0.017367882  0.017294933           10 
  997000   0.87625362   -7.8042354    206.95382  0.017298046  0.017278715           17 
  998000   0.83441712   -7.8355484    207.37644  0.017316002  0.017262439           16 
  999000   0.85549478   -7.8057908    208.23278  0.017370102  0.017246123           23 
 1000000   0.83891772   -7.8278273    207.64053  0.017303377  0.017229861           22 
 1001000   0.84705255   -7.7905614    207.85934  0.017304307  0.017213669           17 
 1002000   0.85533096   -7.8314267     207.7473   0.01727772  0.017197547           19 
 1003000   0.85441842   -7.8677292    207.13953  0.017209997   0.01718133           39 
 1004000   0.83380249   -7.8326712    207.55575  0.017227403  0.017165037           34 
 1005000   0.85805405   -7.8284689    208.20614  0.017264191  0.017148876           17 
 1006000    0.8650114   -7.8501436    207.72571  0.017207233  0.017132734            9 
 1007000   0.84736461   -7.8414078    207.94893  0.017208617  0.017116483           12 
 1008000   0.85552793   -7.8428557    207.45641  0.017150827  0.017100255           15 
 1009000    0.8716546   -7.8382901    208.13379  0.017189775  0.017084176           16 
 1010000   0.86295208   -7.8452669    208.22441  0.017180231  0.017068133           10 
 1011000   0.85016491   -7.8250388    208.45575  0.017182307  0.017052099           14 
 1012000   0.83745248   -7.8835128    207.86077  0.017116335  0.017036074           11 
 1013000   0.85697999   -7.8780881    207.90604  0.017103162  0.017020039           14 
 1014000   0.84715489   -7.8527752     208.0642  0.017099293  0.017003966           15 
 1015000   0.85478031   -7.8295457    208.29915  0.017101736  0.016987943           17 
 1016000   0.87124061   -7.8466238    208.09782   0.01706839  0.016971966            7 
 1017000   0.84967994    -7.856758    207.74848  0.017022983  0.016955933            6 
 1018000   0.83334495    -7.841574    208.52784  0.017070059  0.016939957           12 
 1019000   0.81387874    -7.859373    208.68219   0.01706593  0.016924093            6 
 1020000   0.84416621   -7.8212621    208.40787  0.017026787   0.01690828           15 
 1021000   0.85109634   -7.8383966    208.29468  0.017000871  0.016892496            6 
 1022000   0.83542208   -7.8413796     208.9249  0.017035624  0.016876595            8 
 1023000   0.84154605   -7.8771792    208.40135  0.016976324  0.016860748            7 
 1024000   0.84117253   -7.8710304    208.98502  0.017007245  0.016844836            9 
 1025000   0.84558383   -7.8665121    208.34759  0.016938828  0.016828915           14 
 1026000   0.83705218   -7.8747418    208.78168  0.016957576  0.016813156           29 
 1027000   0.83872703   -7.8472948     208.5553  0.016922696  0.016797429            5 
 1028000   0.82979786   -7.8556283    208.52104  0.016903456  0.016781635           14 
 1029000   0.84498206   -7.8683369     209.0632  0.016930936  0.016765925            7 
 1030000   0.85336288   -7.8515199    208.91862  0.016902801  0.016750244           11 
 1031000   0.83828928   -7.8704126    208.79507   0.01687642  0.016734478            9 
 1032000   0.84336847   -7.8494778    208.85724  0.016865087  0.016718685           19 
 1033000    0.8435338   -7.8479644    208.88618  0.016851095  0.016702835           12 
 1034000   0.82923113    -7.839758    208.57176  0.016809458  0.016687088           12 
 1035000   0.84551523   -7.8682297    208.92942  0.016822014  0.016671327            9 
 1036000   0.83292641   -7.8925231    208.52142  0.016772959  0.016655551           10 
 1037000   0.84556064   -7.8435112     209.3395  0.016822525  0.016639755           10 
 1038000   0.81875028   -7.8669343    208.98024  0.016777476  0.016624003           11 
 1039000   0.86141005   -7.8742366    208.93952  0.016758062  0.016608293            8 
 1040000   0.82737657   -7.8707687    208.78981  0.016729952  0.016592507           28 
 1041000    0.8558153   -7.8788493    208.90295  0.016722939  0.016576624            6 
 1042000   0.83115674   -7.9019856    208.50044  0.016674699  0.016560714           13 
 1043000   0.84588619   -7.8981619    208.66984  0.016672247  0.016544792            7 
 1044000   0.83518777   -7.8971695    209.25392  0.016702899    0.0165289           16 
 1045000   0.84584933   -7.8879496    208.74088  0.016646003  0.016513114           13 
 1046000   0.82920603   -7.8455279    209.13079  0.016661153   0.01649731           11 
 1047000   0.82595262   -7.8479143    209.16818  0.016648215  0.016481561            7 
 1048000   0.82546029   -7.8955488    208.37826  0.016569518  0.016465852           11 
 1049000   0.82963851   -7.8708228    209.23194  0.016621539  0.016450049           13 
 1050000    0.8264139   -7.8692173    208.60992  0.016556342  0.016434321            4 
 1051000   0.83123171   -7.8938935    208.31405  0.016517131  0.016418501           26 
 1052000   0.83729058   -7.8962138    208.71174  0.016532932  0.016402625           14 
 1053000   0.81602414   -7.8731451    208.52755  0.016502655  0.016386764           12 
 1054000   0.84786416   -7.8966559    208.53408  0.016487514  0.016370905           17 
 1055000    0.8281472   -7.8826874    209.00563  0.016509134  0.016355135           13 
 1056000    0.8329797    -7.898402    209.44827   0.01652843  0.016339428           13 
 1057000   0.85325026   -7.8939001     208.9604   0.01647433  0.016323737            9 
 1058000   0.82488611   -7.8905124    208.87129   0.01645174  0.016308073           11 
 1059000   0.82690663   -7.8849556    209.47774  0.016483926   0.01629235           14 
 1060000   0.83459308   -7.8968801    208.90203  0.016423116   0.01627665            5 
 1061000   0.83060561   -7.9034561    208.93868  0.016410516  0.016260847           27 
 1062000   0.81265188   -7.9468614    208.45325  0.016356972  0.016245066            8 
 1063000   0.82491976   -7.9249897    209.04372  0.016387874  0.016229407           12 
 1064000   0.82617626   -7.9080348    209.21087  0.016385563  0.016213768            9 
 1065000   0.83804123    -7.929787    209.61216  0.016401577  0.016198126           11 
 1066000   0.83458873   -7.9157498    209.56538  0.016382534  0.016182576           13 
 1067000   0.83071855   -7.9067349    209.06233  0.016327892  0.016167011           10 
 1068000   0.83777829   -7.9271885    209.02031  0.016309325  0.016151361           14 
 1069000   0.81073579   -7.9276252    209.35498  0.016320158  0.016135771           16 
 1070000   0.81744975   -7.8946904    209.20255  0.016293034  0.016120174            9 
 1071000   0.82594603   -7.9561781    209.20932  0.016278347  0.016104629           12 
 1072000   0.81132479   -7.9403071    209.40207  0.016278146   0.01608911           18 
 1073000   0.82086377   -7.9594236    209.06564  0.016236847  0.016073523            7 
 1074000   0.82412017   -7.9338834    209.62978  0.016265501  0.016057989            8 
 1075000   0.81411134   -7.9620964    209.54945  0.016244143  0.016042335           10 
 1076000   0.83838642   -7.9896721    209.15352  0.016198383  0.016026773           10 
 1077000   0.83702904    -7.896815    209.41693  0.016203724  0.016011262           10 
 1078000   0.82504664   -7.9277842    210.08917  0.016240659  0.015995759            9 
 1079000   0.82143359   -7.9681852    209.41008  0.016173161  0.015980253           14 
 1080000   0.83071613   -7.9265478    209.86013  0.016192911  0.015964737           11 
 1081000    0.8221985     -7.94267    209.18999  0.016126271  0.015949283            8 
 1082000   0.82404086   -7.9383075    209.59074  0.016142232  0.015933861            4 
 1083000   0.81286023   -7.9878867    209.43274  0.016115169  0.015918422           11 
 1084000   0.82850279   -7.9715386    209.11759  0.016076075  0.015903012           10 
 1085000   0.82758099   -7.9416017    209.88942  0.016120539  0.015887618           10 
 1086000   0.81882524   -7.9588189    209.64556  0.016086983  0.015872292           14 
 1087000   0.82431284   -7.9397105    209.82939  0.016086277  0.015856912           11 
 1088000   0.81908136    -7.969257    209.69133  0.016060917  0.015841581           24 
 1089000   0.80871681   -7.9400331    210.29535   0.01609239  0.015826366           16 
 1090000   0.82867091   -7.9192027    210.03091  0.016057409  0.015811158           13 
 1091000   0.82355603   -7.9686026    210.17346  0.016053579  0.015795946           20 
 1092000   0.81212925   -7.9352721    210.50773  0.016064387  0.015780741            8 
 1093000   0.83360541   -7.9456783    210.10814  0.016019224  0.015765535           10 
 1094000   0.83292661    -7.960859    209.93999  0.015991772  0.015750332           11 
 1095000   0.81070125   -7.9305667    210.24102  0.016000078    0.0157351            7 
 1096000    0.8175542   -7.9504257    210.17019  0.015980094  0.015719997            5 
 1097000   0.80833729   -7.9337321    210.49118   0.01598991  0.015704909            9 
 1098000   0.81216754    -7.973898    209.56747  0.015905242   0.01568983           14 
 1099000   0.81126004   -7.9553005    210.15372  0.015935223  0.015674793           13 
 1100000   0.80619258   -7.9565877     210.5301   0.01594925  0.015659825           11 
 1101000   0.79731433   -7.9473843     210.3537  0.015921412  0.015644941            5 
 1102000   0.80952427   -7.9322358     210.6463  0.015929091  0.015630034            6 
 1103000   0.80376882   -7.9447943    210.70707  0.015919241  0.015615162           20 
 1104000   0.79551154   -7.9652668    210.93677  0.015922159  0.015600292           26 
 1105000   0.80437756   -7.9947535    210.37677  0.015865518  0.015585336           10 
 1106000   0.82690719   -8.0094743    210.26864  0.015843026  0.015570367           13 
 1107000   0.80728651   -7.9913832    210.99888  0.015883686  0.015555433           30 
 1108000    0.8072225   -7.9580004    210.35851  0.015821188  0.015540525           24 
 1109000   0.81139254    -7.979623    210.75006  0.015836343  0.015525603           19 
 1110000   0.80619111   -7.9656475    210.55272  0.015807261  0.015510694           25 
 1111000   0.81836188   -8.0055473    210.02666  0.015753575  0.015495828           18 
 1112000   0.81858262   -7.9650457    211.11636   0.01582107  0.015480888           13 
 1113000    0.8081088   -7.9842476    210.77503  0.015781299  0.015466046           38 
 1114000   0.80906593   -7.9581247    211.00327  0.015784206  0.015451258           28 
 1115000   0.81065956   -8.0063578    210.33146   0.01571984  0.015436505           34 
 1116000   0.81451345    -7.977674    211.09019  0.015762409  0.015421632           25 
 1117000   0.80627349   -7.9709287    210.83025  0.015728905  0.015406796           15 
 1118000   0.80247266        -7.99    210.55991  0.015694686  0.015392019           27 
 1119000     0.819742   -7.9917853    210.63744  0.015686434  0.015377256           26 
 1120000   0.80234731   -8.0048062    210.75391  0.015681094  0.015362507           19 
 1121000   0.80054377   -7.9883554     210.9393  0.015680888  0.015347785           34 
 1122000   0.81666511       -8.022    210.43679  0.015629589   0.01533304           22 
 1123000   0.78505478   -8.0012772    210.94522    0.0156534  0.015318286           13 
 1124000   0.79933875   -7.9874755    211.02181  0.015645152  0.015303603           29 
 1125000   0.80010452   -8.0020314    211.05948  0.015634036  0.015288931           11 
 1126000   0.80105842   -8.0021704    210.77351  0.015598987  0.015274295           27 
 1127000    0.8044303   -7.9828639    211.01513  0.015603012   0.01525964            8 
 1128000   0.80680531   -7.9999469    211.06089   0.01559256  0.015244997           33 
 1129000   0.80242729   -8.0172373    211.58891  0.015617723  0.015230286           41 
 1130000   0.79331801   -8.0099555    210.82959  0.015547905  0.015215609           22 
 1131000   0.80323848   -8.0623199     210.3688  0.015500206  0.015200963           13 
 1132000   0.80041786   -8.0341513    211.35415  0.015559051  0.015186247           29 
 1133000   0.80005919   -8.0069049    211.07592  0.015524855  0.015171675           26 
 1134000   0.83173599   -8.0412723    210.77744   0.01548923  0.015157014           33 
 1135000    0.7982494    -8.030885    211.16606  0.015504116  0.015142354           17 
 1136000   0.80171098   -8.0041577    211.02341  0.015480004  0.015127751           21 
 1137000   0.81232135   -7.9768598    210.98982  0.015463927  0.015113242           14 
 1138000   0.79471095   -8.0510335     210.9945  0.015450681  0.015098657           28 
 1139000   0.80583625   -8.0414451    210.93736  0.015432935  0.015084051            8 
 1140000   0.78642611   -8.0162315    211.32215  0.015447526  0.015069454           11 
 1141000   0.81905233   -8.0084518    211.30264  0.015432562  0.015054961           24 
 1142000   0.79780943   -8.0557398    211.32823  0.015420916  0.015040484           29 
 1143000   0.78835028    -8.027273    211.48819  0.015419086  0.015026015           25 
 1144000   0.79966351    -8.017344    211.83108  0.015430585  0.015011551           42 
 1145000   0.79757726   -8.0398954    211.22145   0.01537274  0.014997168           26 
 1146000   0.77723123   -8.0353067    211.06016  0.015347597  0.014982723           52 
 1147000   0.80001461   -8.0517124    211.29411  0.015351214  0.014968345           58 
 1148000   0.78434251   -8.0348539    211.34942  0.015341857  0.014953917           38 
 1149000   0.79552696   -8.0290758    211.07866  0.015308867  0.014939494           38 
 1150000   0.78678289   -8.0405301    211.36196  0.015316084  0.014925113           34 
 1151000   0.78998945    -8.010094    211.86419  0.015339139   0.01491075           45 
 1152000   0.78740524   -8.0055041    211.58419  0.015305569  0.014896408           40 
 1153000   0.79226537    -8.026427    211.59795  0.015293289  0.014882051           63 
 1154000   0.78587629   -8.0534583     211.7116  0.015288244  0.014867738           69 
 1155000   0.79434012   -8.0526073    211.01716  0.015224903  0.014853394           76 
 1156000   0.79734909   -8.0709721    211.13287  0.015220074  0.014838983           82 
 1157000   0.77898639   -8.0293795    211.63156  0.015242838  0.014824621           41 
 1158000   0.78373803   -8.0856039    211.17933  0.015197131  0.014810253           63 
 1159000   0.77269637   -8.0758902    211.09445  0.015177915  0.014795803           64 
 1160000   0.79268361   -8.0798256    210.97961  0.015156581  0.014781379           53 
 1161000   0.79451935   -8.0571981     211.1783  0.015157787  0.014767079           39 
 1162000   0.78082901   -8.0386928    212.14764   0.01521426   0.01475281           54 
 1163000   0.79662543   -8.0522163    211.09558  0.015125794  0.014738571           52 
 1164000    0.7744314   -8.0622985    211.68106  0.015154715   0.01472433           45 
 1165000   0.79839712   -8.0528226    211.28777  0.015113574  0.014710055           60 
 1166000   0.81168292   -8.0634839    210.93777  0.015075598  0.014695729           59 
 1167000    0.7901187   -8.0647168    211.53424  0.015105273  0.014681479          103 
 1168000   0.76544862   -8.0653442    211.29631  0.015075365  0.014667149           42 
 1169000   0.79500445   -8.0782225    211.69705  0.015091036  0.014652816           72 
 1170000   0.78894035   -8.0691087    211.16267  0.015040076   0.01463848           99 
 1171000   0.80025196   -8.0818188    211.53062  0.015053418  0.014624225           78 
 1172000   0.78325599   -8.0327011    211.53102  0.015040601  0.014610038          120 
 1173000    0.7629493   -8.0917148    211.28663  0.015010417  0.014595773          132 
 1174000    0.7980823   -8.0544749    211.31027  0.014999309  0.014581475           50 
 1175000    0.7788818   -8.0693271    211.70326  0.015014415  0.014567222          113 
 1176000    0.7802843   -8.0500382    211.29605  0.014972793  0.014553018           44 
 1177000   0.77865865   -8.0730164    210.77342  0.014923069  0.014538782          145 
 1178000   0.78512161   -8.0848898    211.34326  0.014950712  0.014524489          218 
 1179000   0.77765603   -8.0726563    210.96802  0.014911509  0.014510216          133 
 1180000   0.77330462    -8.059159    210.35653  0.014855687  0.014495913          151 
 1181000   0.78231537   -8.0937224     210.9572  0.014885492  0.014481615          114 
 1182000   0.77160496   -8.0792164    210.63035  0.014849855  0.014467309          188 
 1183000   0.78163353   -8.0844919    210.32517  0.014815805  0.014452985          229 
 1184000   0.78170022   -8.0757736    210.53948  0.014818376  0.014438661          286 
 1185000   0.79487658     -8.09645    210.94422  0.014834333  0.014424354          281 
 1186000   0.79132055   -8.1123552    211.16696  0.014837476  0.014410057          206 
 1187000   0.77249423   -8.1039928    210.31249  0.014764988  0.014395776          273 
 1188000   0.78384912   -8.1053457    210.95046   0.01479731  0.014381499          215 
 1189000   0.78640568   -8.1221087    210.59992  0.014760297  0.014367175          255 
 1190000   0.76909671    -8.121537    210.67549  0.014753185  0.014352821          262 
 1191000   0.78746126   -8.1263843    210.63114  0.014737695    0.0143385          265 
 1192000   0.79123738   -8.1151135     210.7912  0.014736521   0.01432418          268 
 1193000   0.78262962   -8.1401512    210.18279   0.01468167  0.014309887          301 
 1194000   0.77699836   -8.1137733    210.49909  0.014691449  0.014295574          250 
 1195000   0.78651896   -8.1386997    210.72218  0.014694713  0.014281264          238 
 1196000   0.77630175   -8.1429744    209.74118  0.014614073  0.014266947          293 
 1197000   0.80000498   -8.1341282    210.37732  0.014646151  0.014252646          244 
 1198000   0.77990281   -8.1633066    210.69671  0.014656143  0.014238334          250 
 1199000   0.75308106   -8.1666431     210.1765  0.014607763     0.014224          248 
 1200000   0.78516915   -8.1588232    210.14862  0.014593654   0.01420967          300 
 1201000   0.76755653   -8.1475005    209.85873  0.014561388  0.014195406          410 
 1202000   0.78771897   -8.1096909    210.34654  0.014583093  0.014181171          294 
 1203000   0.77527562   -8.1348266    210.34029  0.014570538  0.014166941          305 
 1204000   0.77504113   -8.1816877    210.40869  0.014563171  0.014152752          329 
 1205000   0.77980899   -8.1520489    210.42286  0.014552065  0.014138554          337 
 1206000   0.76749214   -8.1175383    210.35612  0.014535387  0.014124324          327 
 1207000   0.78221961   -8.1382919    210.39468  0.014526007  0.014110119          404 
 1208000   0.77534544   -8.1491249     210.6477  0.014531436  0.014095941          379 
 1209000   0.76873409   -8.1580205    210.53316  0.014511522  0.014081726          382 
 1210000   0.78835527   -8.1615019    210.37349  0.014488532  0.014067555          351 
 1211000   0.77845119   -8.1754365     210.1146  0.014458753  0.014053412          306 
 1212000   0.76062942   -8.1482758    210.03107   0.01444108  0.014039244          361 
 1213000   0.76559774   -8.1383451    209.59228   0.01439903  0.014025112          361 
 1214000   0.78304855   -8.1442366    210.43356  0.014444918  0.014010981          341 
 1215000   0.75226734   -8.1936157    209.60681  0.014376324   0.01399682          404 
 1216000   0.76931405    -8.167183    210.58051   0.01443123  0.013982637          313 
 1217000    0.7574778   -8.1651524    210.28927   0.01439943  0.013968535          353 
 1218000   0.73849804   -8.1299714    210.79057  0.014421905  0.013954465          376 
 1219000   0.76852684   -8.1636477    210.07152  0.014360919  0.013940397          336 
 1220000   0.76360296   -8.1596333      210.077  0.014349522  0.013926338          422 
 1221000   0.77968527   -8.1966536     209.8531  0.014322489  0.013912267          364 
 1222000   0.76050632   -8.1932311    209.59903  0.014293441  0.013898147          398 
 1223000   0.74500051   -8.1846679    209.49753  0.014274839  0.013884008          448 
 1224000   0.76023421   -8.1768955    210.16376  0.014308535   0.01386991          403 
 1225000    0.7479976   -8.1890938    209.77273  0.014270254   0.01385582          485 
 1226000   0.77349134   -8.1788068    210.08636  0.014279932  0.013841753          447 
 1227000   0.78719638    -8.179323    210.10719  0.014269708  0.013827672          484 
 1228000   0.75396638   -8.1897356    210.02419  0.014252456    0.0138136          494 
 1229000   0.75229627   -8.1832729    210.10312  0.014246211  0.013799527          485 
 1230000   0.76437414   -8.2037231    209.78276  0.014212924  0.013785481          510 
 1231000   0.77161004   -8.1809623    209.68015  0.014194432   0.01377143          498 
 1232000   0.75468198   -8.1930828    209.97188  0.014202643  0.013757393          480 
 1233000   0.75995332   -8.1854357    210.58675  0.014232681  0.013743413          475 
 1234000   0.75830274   -8.1799277    209.93101  0.014176864  0.013729411          479 
 1235000   0.75190589   -8.2094054    209.54673  0.014139455  0.013715412          468 
 1236000   0.76013573   -8.2321189    209.86764  0.014149652  0.013701417          505 
 1237000   0.76261688   -8.1943337    209.98064  0.014145826  0.013687467          603 
 1238000   0.76175225   -8.2022104    210.11703   0.01414358   0.01367352          538 
 1239000   0.76647023    -8.202369    209.93551  0.014119956  0.013659603          592 
 1240000   0.76785667    -8.206046    210.48637  0.014145589  0.013645699          585 
 1241000    0.7610765   -8.2265271    209.73778  0.014083923  0.013631779          606 
 1242000   0.75378144   -8.2241619    209.74798  0.014073268  0.013617839          543 
 1243000   0.76451477   -8.2365953    209.42952  0.014040596  0.013603897          572 
 1244000   0.75958125   -8.2181922    209.83525  0.014056488  0.013590006          592 
 1245000   0.75495129   -8.2430349    209.72267  0.014037662  0.013576125          599 
 1246000   0.76170927   -8.2029028    210.07293  0.014049821  0.013562241          530 
 1247000   0.74163123   -8.2408051    209.46933  0.013998218  0.013548359          608 
 1248000   0.75147487   -8.2231422    209.50942  0.013989678  0.013534505          605 
 1249000   0.74642088    -8.245334    209.65112  0.013987932  0.013520688          582 
 1250000   0.76006395    -8.246389    209.34934  0.013956623  0.013506816          645 
 1251000   0.74930252    -8.262461    209.43915  0.013951449  0.013492957          744 
 1252000   0.75211648   -8.2570631    209.53713  0.013946827   0.01347909          712 
 1253000   0.75649947   -8.2628239    209.68116  0.013945275  0.013465234          673 
 1254000   0.75429619   -8.2379936    209.32643  0.013910582  0.013451409          730 
 1255000   0.73541174   -8.2502125    209.50925  0.013911637  0.013437552          755 
 1256000   0.73775049   -8.2604191    210.08378  0.013938679  0.013423775          767 
 1257000    0.7520003   -8.2714307    209.70691  0.013902606  0.013410001          823 
 1258000   0.75143308    -8.258886    209.79554  0.013897426   0.01339619          811 
 1259000   0.75858249   -8.2383551    209.95223  0.013896759   0.01338243          761 
 1260000   0.74520864   -8.2432225    209.14013  0.013832019  0.013368669          832 
 1261000   0.76368665   -8.2657163    209.46664  0.013842627  0.013354907          817 
 1262000   0.74882209   -8.2470034    209.55067  0.013837207  0.013341197          823 
 1263000   0.74825778   -8.2487425    209.27874   0.01380831  0.013327508          870 
 1264000   0.74855947   -8.2547448    209.03555  0.013781352   0.01331382          802 
 1265000   0.73367274   -8.2610063    210.03136  0.013836058   0.01330012          719 
 1266000    0.7350601   -8.2577168    209.63153   0.01379881  0.013286435          841 
 1267000   0.74383616   -8.2613429    209.46758  0.013777136  0.013272758          827 
 1268000   0.74757051   -8.2576671    210.02295   0.01380277  0.013259066          848 
 1269000   0.74504794   -8.2749478     209.3887  0.013750243  0.013245429          803 
 1270000   0.73406914   -8.2623055    209.48005   0.01374541  0.013231746          831 
 1271000   0.75466918   -8.2851617    209.15992  0.013713606  0.013218086          803 
 1272000   0.74848483   -8.2874257    209.24037  0.013708095  0.013204443          813 
 1273000   0.74939954   -8.2762308    209.67737  0.013725934   0.01319076          794 
 1274000   0.75418685   -8.2808412    209.21025  0.013684605  0.013177128          845 
 1275000   0.74283374    -8.275751    209.22135  0.013674598  0.013163482          876 
 1276000     0.747825   -8.3137196     208.5794  0.013621956   0.01314984          869 
 1277000   0.74757362   -8.3004094    208.80209  0.013625821  0.013136203          943 
 1278000   0.74353732   -8.3259573    208.98096  0.013626823  0.013122613          971 
 1279000   0.74154361   -8.3178216    208.82219  0.013605824  0.013109012          911 
 1280000   0.72038005   -8.3060489    209.17694  0.013618291  0.013095416          902 
 1281000   0.73521005   -8.3242523    208.89537  0.013589342  0.013081841          921 
 1282000   0.73946069   -8.3126374    209.12993  0.013593989   0.01306832         1045 
 1283000   0.74115069    -8.312101    209.12506  0.013583077  0.013054788          940 
 1284000   0.73716473   -8.2933036     209.4906  0.013596223  0.013041238          971 
 1285000   0.73843849   -8.2837608    209.33212  0.013575365  0.013027739          950 
 1286000   0.73440744    -8.334945    209.03304  0.013545428  0.013014222         1023 
 1287000   0.74865084   -8.3076929    209.12029  0.013540552  0.013000677          997 
 1288000   0.73416774   -8.3067772     209.1065  0.013529147  0.012987206          985 
 1289000   0.73375975   -8.3359661    208.85498   0.01350239  0.012973705         1008 
 1290000   0.75169199   -8.3624416    208.41857  0.013463732  0.012960166         1135 
 1291000   0.73440763   -8.3049355    209.22597   0.01350542  0.012946634         1098 
 1292000   0.72318138   -8.3319825    208.58998  0.013453946  0.012933151         1100 
 1293000   0.74462112   -8.3361623    208.84319   0.01345986  0.012919656         1138 
 1294000   0.74727388   -8.3266378    208.73239  0.013442323  0.012906192         1111 
 1295000   0.74306623   -8.3563045    208.55986   0.01342084  0.012892728         1086 
 1296000   0.73147798   -8.3324057     208.9198  0.013433629  0.012879275         1193 
 1297000   0.73673198   -8.3169059    209.35398  0.013451168  0.012865845         1131 
 1298000   0.73841596   -8.3144668    208.86068  0.013409135  0.012852433         1115 
 1299000   0.72273932   -8.3555153    208.65459  0.013385591  0.012838994         1167 
 1300000   0.73511041   -8.3458096    208.66271  0.013375814  0.012825567         1174 
 1301000   0.72970825    -8.347735    208.40994  0.013349343  0.012812172         1189 
 1302000   0.73262279   -8.3554712    208.51113  0.013345567  0.012798755         1237 
 1303000   0.72963123    -8.328125    208.73026  0.013349338  0.012785369         1124 
 1304000   0.73575845   -8.3538764    208.61314  0.013331617   0.01277202         1231 
 1305000   0.73986734   -8.3739886    208.79339  0.013332911  0.012758661         1209 
 1306000   0.74277937   -8.3902952    208.10871  0.013279014  0.012745303         1256 
 1307000   0.73421367   -8.3785537    208.69222  0.013306059  0.012731938         1255 
 1308000   0.72867964   -8.3740659    208.29882  0.013270822  0.012718583         1247 
 1309000   0.72535703   -8.3865064    208.66675  0.013284107  0.012705261         1238 
 1310000   0.72880587   -8.3609221    208.74695  0.013279068  0.012691941         1148 
 1311000   0.72981523   -8.3854866    208.22963  0.013236056  0.012678605         1252 
 1312000   0.73621341   -8.3833827    208.14473  0.013220575  0.012665307         1265 
 1313000   0.73395249   -8.3826429    208.51219  0.013233828  0.012652056         1249 
 1314000   0.73506945   -8.3628204    208.75419  0.013239104  0.012638821         1365 
 1315000    0.7129607   -8.4156663    208.23383   0.01319606  0.012625591         1331 
 1316000   0.73112179   -8.3972823    208.68285  0.013214466  0.012612423         1296 
 1317000   0.72477369   -8.3677486    208.44823  0.013189587  0.012599244         1306 
 1318000   0.73905959   -8.3906772     208.1402  0.013160104   0.01258606         1324 
 1319000   0.72084342   -8.3773773    208.58178  0.013178025  0.012572882         1324 
 1320000   0.71151614    -8.383755    208.58194  0.013168052  0.012559705         1340 
 1321000   0.74632733   -8.4026221    208.53288  0.013154989  0.012546579         1347 
 1322000   0.74004554   -8.3899288    208.57711  0.013147826  0.012533466         1412 
 1323000     0.750524   -8.3628765    208.82767   0.01315367  0.012520383         1339 
 1324000   0.71609821   -8.3993246    208.49797  0.013122984  0.012507302         1400 
 1325000   0.72605433   -8.3876786    208.76177  0.013129671   0.01249421         1397 
 1326000   0.71742254   -8.3598818    208.61019  0.013110243  0.012481127         1387 
 1327000   0.72335854   -8.4134282    208.14139  0.013070924  0.012468097         1467 
 1328000   0.72618132   -8.3835321    208.23972  0.013067252  0.012455089         1407 
 1329000   0.73595009   -8.3794121    208.95887  0.013102513  0.012442091         1455 
 1330000   0.72373745   -8.3802417     208.6577  0.013073791  0.012429123         1467 
 1331000   0.74367879   -8.4050715    208.77566  0.013071354  0.012416134         1472 
 1332000   0.71991458   -8.4009339    209.00206  0.013075705  0.012403159         1502 
 1333000   0.74380099    -8.416387    208.29556  0.013021728  0.012390166         1479 
 1334000    0.7169347   -8.4188093    208.42557  0.013020088  0.012377183         1533 
 1335000   0.73235779   -8.4261504    208.10101  0.012990076  0.012364212         1497 
 1336000   0.71483263   -8.4252243    208.22713  0.012988219  0.012351269         1605 
 1337000   0.72046917   -8.4080192    208.02331  0.012965801  0.012338325         1555 
 1338000   0.72588647   -8.4177181    208.33974  0.012975818  0.012325386         1571 
 1339000   0.71533222    -8.429912    207.99229  0.012944504  0.012312483         1526 
 1340000   0.71269687   -8.3872919    208.23809   0.01295013  0.012299575         1559 
 1341000   0.71492657   -8.3953907    208.08011  0.012930656  0.012286663         1531 
 1342000   0.72543992    -8.407339    208.52508  0.012948651  0.012273781         1545 
 1343000   0.72512044   -8.4444206    208.21637  0.012919854  0.012260889         1618 
 1344000   0.73105777   -8.4228945    207.92404  0.012892115   0.01224802         1585 
 1345000    0.7244071   -8.4130057    208.07976  0.012892179  0.012235158         1657 
 1346000   0.72128262   -8.4245167    207.78513  0.012864359  0.012222273         1756 
 1347000   0.73527759   -8.4537625    208.10296  0.012874472  0.012209378         1717 
 1348000   0.71219515   -8.4154176     208.0315  0.012860503  0.012196501         1734 
 1349000   0.71570443    -8.441206    207.80603  0.012837042   0.01218366         1718 
 1350000   0.72327338   -8.4708744    207.66953  0.012819107  0.012170831         1741 
 1351000   0.71635095   -8.4479516    207.80197  0.012817787  0.012157973         1697 
 1352000   0.71281513    -8.462639    207.85441  0.012811539  0.012145135         1875 
 1353000   0.71598778   -8.4534341    207.62896  0.012788184  0.012132336         1868 
 1354000   0.70953242   -8.4480514    208.35534  0.012823446  0.012119525         1847 
 1355000   0.71195575   -8.4687501    207.74578  0.012776493  0.012106759         1828 
 1356000   0.71715276   -8.4640717    207.60195  0.012758232  0.012093966         1904 
 1357000   0.71232579   -8.4871429    207.57331  0.012747071  0.012081223         1907 
 1358000   0.70731069    -8.458893    207.70652  0.012745859  0.012068459         1899 
 1359000   0.72105313    -8.457854    207.45932  0.012721322  0.012055715         1837 
 1360000   0.72206582   -8.4674867    207.61654  0.012721602  0.012042974         1884 
 1361000   0.71812644   -8.4601666     207.8423  0.012726077  0.012030251         1879 
 1362000   0.71475464   -8.4598393    207.64314  0.012704549  0.012017553         1857 
 1363000   0.70582277   -8.4859416    207.91585  0.012711901   0.01200484         1918 
 1364000   0.70327387   -8.4763171    207.12678  0.012654373  0.011992133         1987 
 1365000   0.72788725   -8.5401407    207.08274  0.012642414  0.011979437         2014 
 1366000   0.71493375   -8.4929614    207.29051  0.012645834  0.011966739         1947 
 1367000   0.70804387   -8.4887343    207.28511  0.012636254  0.011954046         2003 
 1368000   0.70388743   -8.4930416    207.50244  0.012640256  0.011941401         1990 
 1369000    0.7181082   -8.5162608    206.98491   0.01259952  0.011928766         2017 
 1370000   0.70591176   -8.5116427    207.16378  0.012601203  0.011916137         2030 
 1371000   0.69535619   -8.5131701    207.36188  0.012604053  0.011903491         2021 
 1372000   0.70826309   -8.4988719    207.42322  0.012598592  0.011890866         2074 
 1373000   0.70753864   -8.5140426    207.31554  0.012582881  0.011878209         2056 
 1374000   0.71734657   -8.5186256     206.7811  0.012541309  0.011865579         2129 
 1375000   0.69565306   -8.5170695    207.39099  0.012569151  0.011852987         2212 
 1376000   0.68600697   -8.5102702    207.10611  0.012542763  0.011840366         2049 
 1377000   0.70947083    -8.507496    206.88309  0.012520158  0.011827791         2111 
 1378000   0.68659109   -8.5253112    206.79395  0.012505682  0.011815214         2110 
 1379000   0.70509534   -8.5260356    206.88568  0.012502156  0.011802645         2249 
 1380000   0.70365604   -8.5306764    206.87039  0.012492173  0.011790089         2281 
 1381000   0.70038244   -8.5138118    206.68479  0.012471928  0.011777545         2195 
 1382000    0.6958092   -8.5173121    206.92526  0.012477404  0.011765009         2223 
 1383000   0.70814541   -8.5287141     207.0929  0.012478483  0.011752496         2140 
 1384000   0.68699224   -8.5434346    207.10823   0.01247039  0.011740006         2292 
 1385000   0.68233791      -8.5587    206.91151   0.01244955  0.011727528         2284 
 1386000   0.69585989   -8.5372261    206.95281   0.01244305  0.011715049         2242 
 1387000   0.69478737   -8.5630645    207.20741  0.012449376  0.011702594         2214 
 1388000   0.70695859   -8.5449389    206.78101  0.012414806  0.011690146         2314 
 1389000   0.68540946   -8.5545041    206.39488  0.012382702  0.011677711         2231 
 1390000   0.69658316   -8.5333799    206.98412   0.01240912  0.011665275         2200 
 1391000   0.69368478   -8.5542104    206.68053  0.012382011   0.01165285         2242 
 1392000   0.70338483    -8.557826    206.43318  0.012358308  0.011640443         2251 
 1393000   0.69557653   -8.5564381     206.6129  0.012360188   0.01162807         2241 
 1394000   0.69775695   -8.5249182    206.90934  0.012369042  0.011615703         2168 
 1395000   0.68401471   -8.5537361    206.74286   0.01235023  0.011603362         2282 
 1396000   0.71259405   -8.5642891    206.38945  0.012320287   0.01159101         2331 
 1397000   0.69817988   -8.5459362     206.6304  0.012325841  0.011578666         2261 
 1398000   0.69091749    -8.559963    206.65711  0.012318616  0.011566334         2287 
 1399000   0.69200395    -8.585466    206.61352  0.012307215  0.011554012         2324 
 1400000   0.69575065   -8.5748194     206.5882  0.012296917  0.011541713         2304 
 1401000    0.6869524   -8.5351098    206.85644  0.012304095  0.011529418         2301 
 1402000   0.70450808   -8.5595963    206.48969  0.012273519  0.011517151         2355 
 1403000    0.7055108   -8.5492158    206.65492  0.012274585  0.011504896         2358 
 1404000   0.67472802   -8.5521498    206.91704  0.012281401  0.011492653         2296 
 1405000    0.6882922   -8.5574027    206.82166  0.012267002   0.01148042         2343 
 1406000   0.69285008   -8.5782079    206.32707  0.012228963  0.011468188         2329 
 1407000   0.69552776   -8.5690529    206.75644  0.012245703  0.011455985         2332 
 1408000   0.68325116   -8.5600161    206.61574  0.012228678  0.011443799         2321 
 1409000   0.69516842   -8.5464737    206.33338  0.012203299   0.01143163         2322 
 1410000   0.67533183   -8.5735092    206.32541  0.012194173  0.011419467         2303 
 1411000   0.69254251   -8.5864174    206.49457  0.012195521  0.011407322         2271 
 1412000   0.68099487    -8.571274    206.60281  0.012193272  0.011395207         2315 
 1413000   0.69296633    -8.570727    206.53694  0.012180758  0.011383079         2338 
 1414000   0.69879694   -8.5558922    206.66187  0.012179507  0.011370986         2294 
 1415000   0.69313875   -8.5888686    206.76132  0.012176756  0.011358884         2395 
 1416000   0.67672754   -8.5646408     206.3762  0.012145492  0.011346815         2348 
 1417000   0.67813826   -8.6028019    206.44317  0.012140859  0.011334765         2361 
 1418000    0.6871875   -8.5848735    206.84315  0.012155803  0.011322706         2288 
 1419000   0.67508429   -8.5732361    205.97722  0.012096383  0.011310663         2337 
 1420000   0.69786321   -8.5794923    206.34009   0.01210916  0.011298655         2348 
 1421000   0.67863194    -8.574311    206.33157  0.012100139  0.011286643         2358 
 1422000   0.70110835   -8.5736831    206.63497   0.01210941  0.011274652         2421 
 1423000   0.68135446   -8.5928147    206.53562  0.012095082  0.011262679         2415 
 1424000    0.6876885   -8.5772886     206.2259  0.012068463  0.011250715         2359 
 1425000   0.67818804   -8.5852268    206.05618  0.012050069  0.011238756         2339 
 1426000   0.67978878   -8.5942342    206.63747  0.012075589  0.011226839         2336 
 1427000   0.67814282   -8.5777475    206.26103  0.012045143  0.011214914         2343 
 1428000   0.67904747    -8.565487    206.40396  0.012045049  0.011203003         2348 
 1429000   0.69166831   -8.5906092    206.20236  0.012024864  0.011191114         2327 
 1430000    0.6823021   -8.5981676    206.65504  0.012042834  0.011179246         2318 
 1431000   0.67715378   -8.5853243    206.31243  0.012014467  0.011167392         2374 
 1432000   0.70483724    -8.595832    206.12669  0.011995268  0.011155554         2396 
 1433000   0.68383586   -8.5781116    206.45758   0.01200614  0.011143714         2299 
 1434000   0.67172468   -8.5947385    207.04839  0.012032101  0.011131892         2372 
 1435000   0.67558277   -8.5793937    206.47791  0.011990587  0.011120103         2396 
 1436000   0.67395428   -8.5986947    206.32307  0.011973251  0.011108311         2396 
 1437000   0.67936839   -8.5994966    206.23164  0.011959617  0.011096558         2392 
 1438000   0.68103602   -8.5953468    206.24623  0.011952146  0.011084802         2355 
 1439000   0.67080863   -8.6037591    206.14027  0.011937704  0.011073051         2334 
 1440000   0.67276653   -8.5882832    206.46992  0.011948491  0.011061312         2349 
 1441000   0.68107947   -8.5982827    206.35304   0.01193344  0.011049589         2415 
 1442000   0.67198722   -8.6206128    205.96217  0.011902575  0.011037885         2411 
 1443000   0.68720436   -8.5843548    205.71115  0.011879831  0.011026178         2394 
 1444000   0.67999668   -8.5774159     206.1164  0.011894991  0.011014476         2456 
 1445000   0.67194751   -8.5988982    206.01033  0.011880642  0.011002811         2425 
 1446000   0.68504398   -8.6131719    205.92226   0.01186735  0.010991139         2350 
 1447000    0.6837809    -8.595397    205.86254   0.01185571  0.010979476         2439 
 1448000   0.68124869   -8.6151748    206.05479  0.011858586  0.010967845         2442 
 1449000   0.67239995    -8.593701    206.04319  0.011849735  0.010956235         2420 
 1450000   0.69591242   -8.6093145    206.17015  0.011848859  0.010944633         2384 
 1451000    0.6776779   -8.6201568    205.54945  0.011805045  0.010933037         2411 
 1452000   0.68086011   -8.6204512    206.08843  0.011827848  0.010921457         2448 
 1453000   0.67535524   -8.6021745    205.93415   0.01181086  0.010909895         2492 
 1454000   0.65611848   -8.6069441    205.74203  0.011791726  0.010898328         2490 
 1455000   0.66341385   -8.6235823    205.68141  0.011780149  0.010886788         2440 
 1456000   0.67206517   -8.6017127    205.81371  0.011779631  0.010875248         2369 
 1457000   0.67419776   -8.6236058    205.90974  0.011777038  0.010863718         2518 
 1458000   0.68142738   -8.6158942    205.75774  0.011760273  0.010852221         2352 
 1459000   0.68052754   -8.6184517    205.85962  0.011758032  0.010840734         2407 
 1460000    0.6790833   -8.6173398    205.87689  0.011750964  0.010829272         2368 
 1461000   0.67540241    -8.614738    205.77322  0.011737008  0.010817814         2427 
 1462000   0.67102412   -8.6300523    205.68546  0.011723978  0.010806383         2450 
 1463000   0.66504514   -8.6414946     205.4835   0.01170446  0.010794972         2400 
 1464000   0.67188618   -8.6114068    206.60168  0.011760114  0.010783568         2423 
 1465000   0.66467641   -8.6148195    206.26472  0.011732919  0.010772188         2528 
 1466000   0.67021414   -8.6363119    205.65114  0.011690037   0.01076083         2520 
 1467000   0.66826795   -8.6178121    206.05583  0.011705057  0.010749468         2530 
 1468000   0.66936366   -8.6101168    206.00766   0.01169435  0.010738128         2516 
 1469000   0.66984269   -8.6035524    206.01533  0.011686824  0.010726795         2492 
 1470000   0.65598025   -8.6290539    205.89502  0.011672053  0.010715494         2545 
 1471000   0.65373093   -8.6391359    206.02854  0.011671683  0.010704189         2537 
 1472000    0.6652141   -8.6314965    206.10702  0.011668196  0.010692907         2501 
 1473000   0.67358727    -8.612544    205.81087  0.011643521  0.010681638         2464 
 1474000   0.65637736   -8.6307504    205.99555  0.011646063  0.010670399         2523 
 1475000   0.66267498    -8.620524    205.68747  0.011620761  0.010659153         2571 
 1476000   0.66336277     -8.64162    205.70025  0.011613609  0.010647906         2468 
 1477000   0.66253494   -8.6346108    205.65371   0.01160312  0.010636695         2516 
 1478000   0.66669604   -8.6282795    206.15361  0.011623456  0.010625484         2508 
 1479000   0.64763017   -8.6200484    205.84966  0.011598471  0.010614294         2553 
 1480000    0.6584297   -8.6201992    205.79381  0.011587489  0.010603123         2545 
 1481000   0.68080238   -8.6237797    205.69568  0.011574144  0.010591971         2585 
 1482000   0.66565298   -8.6369011    205.76963  0.011570492  0.010580828         2591 
 1483000   0.66103493   -8.6340701    205.46823  0.011545754  0.010569705         2568 
 1484000   0.67505162   -8.6282921    205.74513  0.011553523  0.010558593         2613 
 1485000   0.65270934   -8.6527071    205.53565  0.011533987  0.010547482         2727 
 1486000   0.65923076    -8.657553    205.53632  0.011526263   0.01053637         2657 
 1487000   0.66693667   -8.6594871    205.49302  0.011516085  0.010525293         2643 
 1488000   0.65781698   -8.6417643    205.43181  0.011504917  0.010514233         2667 
 1489000   0.67433322   -8.6507895    205.68785  0.011511521  0.010503177         2673 
 1490000   0.65499498   -8.6549796    205.58456  0.011498018  0.010492136         2697 
 1491000   0.65813966   -8.6661927    205.36484  0.011478026  0.010481103         2657 
 1492000   0.63825642   -8.6658391    205.47645  0.011476567  0.010470072         2723 
 1493000   0.66250627   -8.6558317    205.70897  0.011481858  0.010459059         2745 
 1494000    0.6656827   -8.6671302    205.26196  0.011449239  0.010448049         2781 
 1495000   0.64767487   -8.6442015     205.9098  0.011477692  0.010437043         2742 
 1496000   0.65103762   -8.6864025    205.10232   0.01142504  0.010426057         2741 
 1497000   0.65779146    -8.691631    205.40602  0.011434314  0.010415075         2813 
 1498000   0.66238616    -8.673295    205.34411  0.011423237  0.010404116         2773 
 1499000   0.66325449   -8.6657133     205.3839  0.011417829  0.010393154         2711 
 1500000    0.6469195   -8.6580873    205.42008  0.011412227  0.010382218         2756 
 1501000   0.65836207   -8.6775385     205.5481  0.011411731  0.010371296         2806 
 1502000   0.66164117   -8.6739751    205.67337  0.011411084    0.0103604         2809 
 1503000   0.66191195   -8.6539062     205.8796  0.011414926  0.010349507         2820 
 1504000    0.6626472   -8.6862715    205.33634  0.011377235  0.010338644         2857 
 1505000   0.64910591   -8.6732244    205.08476  0.011355745  0.010327777         2835 
 1506000   0.65817059   -8.6579405    205.40313  0.011365822  0.010316927         2803 
 1507000   0.64348858   -8.6882391    205.43657  0.011360129  0.010306096         2903 
 1508000    0.6643014   -8.6764952    205.41149   0.01135121  0.010295272         2838 
 1509000   0.65593847   -8.6916004    205.33102  0.011339243  0.010284481         2850 
 1510000   0.64621497    -8.666783    205.66519  0.011350176  0.010273687         2751 
 1511000   0.64130702   -8.6942829    205.28645  0.011321776  0.010262912         2792 
 1512000   0.65325668    -8.688782    205.40235  0.011320676  0.010252146         2829 
 1513000   0.65290788   -8.6925091    205.55856  0.011321798  0.010241386         2852 
 1514000   0.63848398   -8.6856451    205.68832  0.011321462  0.010230641         2867 
 1515000   0.64938798   -8.7106506    204.86035  0.011268446   0.01021991         2981 
 1516000   0.65797657     -8.68579    205.44755  0.011293291  0.010209193         2872 
 1517000    0.6467827   -8.6911271    205.24673  0.011274815  0.010198496         2814 
 1518000    0.6483173    -8.686444    205.30896  0.011270804   0.01018781         2874 
 1519000   0.64816242   -8.6955033    205.32345  0.011264179  0.010177123         2842 
 1520000    0.6590899   -8.6946887    205.46128  0.011264325  0.010166464         2868 
 1521000   0.64762586   -8.7098099    205.16076  0.011240454   0.01015582         2969 
 1522000   0.64561487   -8.7033215    205.34175  0.011242978  0.010145178         2853 
 1523000   0.64910966   -8.6977911    205.01093  0.011217494   0.01013456         2914 
 1524000   0.62221853   -8.7058331    205.44742  0.011234002   0.01012395         2808 
 1525000   0.64124063   -8.7045244    205.13953   0.01120981   0.01011335         2942 
 1526000   0.65323319   -8.7180716    205.09583  0.011200078  0.010102779         2872 
 1527000   0.63425536   -8.7122581    204.99039  0.011186989  0.010092219         2931 
 1528000    0.6382863   -8.7106577    205.16927  0.011189424  0.010081655         2977 
 1529000   0.63241934   -8.7287013     205.1509  0.011181104  0.010071113         2935 
 1530000   0.63929447   -8.7177464    205.16957  0.011174813  0.010060577         2925 
 1531000   0.63432537    -8.737311    205.04715  0.011160851  0.010050049         2980 
 1532000     0.624828   -8.7136883    205.18202  0.011160902  0.010039532         3041 
 1533000   0.63753882   -8.7138958     204.9509  0.011141058  0.010029044         2876 
 1534000   0.65316574   -8.7330419    204.54183  0.011111573   0.01001858         3020 
 1535000   0.63986185   -8.7069616    204.96336  0.011127218  0.010008122         2971 
 1536000   0.63699727   -8.7156373    204.94111  0.011118767 0.0099976697         2976 
 1537000   0.62172475   -8.7304299    205.35886  0.011134182 0.0099872392         3024 
 1538000   0.63297209   -8.7046834    205.28683   0.01112304 0.0099767963         2961 
 1539000   0.64638752   -8.7375898    204.88683  0.011094154 0.0099663851         3073 
 1540000   0.63073478   -8.7192423    205.18803  0.011103249 0.0099559896         3049 
 1541000   0.63251027   -8.7274683    204.96493  0.011083978 0.0099456081         3010 
 1542000   0.63949115   -8.7157615    205.17573  0.011088183 0.0099352313         2975 
 1543000   0.63515122   -8.7238177    204.87703  0.011064865 0.0099248803         2986 
 1544000   0.62133995   -8.7316352     204.4682  0.011035633 0.0099145377         2963 
 1545000   0.63908553   -8.7541465    204.84073  0.011048583 0.0099041985         3004 
 1546000   0.64424512   -8.7220961    204.60973  0.011028985 0.0098938777         2930 
 1547000   0.63464666   -8.7134303    205.13427  0.011050111 0.0098835752         2987 
 1548000   0.63019082   -8.7230439    204.69765  0.011019469 0.0098732907         3067 
 1549000   0.62549864   -8.7314928    204.92103  0.011024372 0.0098630163         3059 
 1550000   0.62136991   -8.7221316    204.86097   0.01101403 0.0098527575         2976 
 1551000   0.64521966   -8.7449295    204.68793  0.010997632 0.0098425126         3021 
 1552000   0.63405717   -8.7327068    204.74831  0.010993788 0.0098322799         2969 
 1553000   0.62147465   -8.7313353    204.94189  0.010997097  0.009822063         3055 
 1554000   0.64100354   -8.7417927    204.99469  0.010992851 0.0098118495         2945 
 1555000   0.62808676   -8.7325222    204.96652  0.010984272 0.0098016615         3005 
 1556000   0.63126488    -8.735993    204.92801   0.01097515 0.0097914863         2999 
 1557000   0.63849614   -8.7340572    205.16486  0.010980778 0.0097813089         3038 
 1558000   0.63782729   -8.7262789    205.25394  0.010978495 0.0097711512         3019 
 1559000   0.62996145   -8.7320325    205.15256  0.010966034 0.0097610055         2977 
 1560000   0.62458254   -8.7309233    204.54991  0.010926811 0.0097508667         3025 
 1561000   0.63812242    -8.754531    204.86756  0.010936769 0.0097407515         3087 
 1562000   0.63024745   -8.7538549    204.92534   0.01093285 0.0097306466         3038 
 1563000   0.62918286   -8.7479297    204.75005  0.010916509 0.0097205583         2966 
 1564000   0.63716148   -8.7473424    204.80909  0.010912675 0.0097104681         3042 
 1565000   0.62571974   -8.7144999    204.92499  0.010911874 0.0097003941         3081 
 1566000   0.62306021   -8.7471038    204.71765  0.010893873 0.0096903392         3064 
 1567000   0.62362976   -8.7175611    204.92748  0.010898079 0.0096802953         2965 
 1568000    0.6248932   -8.7406507    204.81559  0.010885182 0.0096702676         3037 
 1569000   0.63340725   -8.7298391    204.80404  0.010877631  0.009660248         2941 
 1570000   0.63318121   -8.7315095    204.57224  0.010858399 0.0096502302         3000 
 1571000   0.63322824   -8.7413114    204.60069  0.010852996 0.0096402252         3027 
 1572000    0.6267452   -8.7175785    204.38795  0.010834815 0.0096302411         2975 
 1573000   0.62207956   -8.7493634    204.67699   0.01084324 0.0096202684         2962 
 1574000   0.61321219   -8.7603984    204.97609  0.010852186 0.0096103086         3074 
 1575000   0.62504601   -8.7302161    204.77674  0.010834748 0.0096003605         3028 
 1576000   0.64504102   -8.7813614    204.50641  0.010813579 0.0095904355         2964 
 1577000   0.63559978   -8.7222609    204.77515  0.010820923 0.0095805095         3069 
 1578000   0.62569482   -8.7517813    204.71134  0.010810696 0.0095705966         3018 
 1579000   0.62314932   -8.7471107    204.77436  0.010807175 0.0095606944         3038 
 1580000   0.62671255   -8.7445782    204.97885  0.010811121 0.0095508148         3044 
 1581000   0.62169572   -8.7486174     205.4172  0.010827388   0.00954095         3055 
 1582000   0.62476641   -8.7758778    204.67177  0.010781277 0.0095310837         3044 
 1583000   0.62470494   -8.7483169    204.30146  0.010754973 0.0095212387         3108 
 1584000   0.60835131    -8.753751    204.70892  0.010769619 0.0095113971         3054 
 1585000   0.61784454   -8.7636383    204.24852  0.010738618 0.0095015778         3056 
 1586000   0.62760822   -8.7777492    204.84782  0.010763337 0.0094917778         3021 
 1587000   0.61232843   -8.7540633    204.51186  0.010738913 0.0094819859         3014 
 1588000   0.62117865   -8.7586299    204.54099  0.010733679 0.0094721934         3008 
 1589000   0.61420721   -8.7761201    204.88779  0.010745112 0.0094624244         2965 
 1590000   0.61739947   -8.7626659    204.75171  0.010731222 0.0094526616         3105 
 1591000   0.61204408   -8.7604405    204.77471  0.010725682 0.0094429215         3025 
 1592000   0.62006565   -8.7547097    204.57702  0.010708596  0.009433201         3004 
 1593000   0.62652835   -8.7635383     204.5343  0.010699639 0.0094234775         3020 
 1594000   0.61523996   -8.7400601    204.51232  0.010691777 0.0094137663         3039 
 1595000   0.62829785   -8.7598026    204.95427  0.010708164 0.0094040767         3051 
 1596000   0.61286113   -8.7580089    204.32362  0.010668527 0.0093943939         3007 
 1597000   0.61121025   -8.7794659    204.43386  0.010667599 0.0093847225         3091 
 1598000   0.61578775   -8.7630633    204.85647  0.010682961 0.0093750795         3034 
 1599000    0.6143907   -8.7623997    204.63649  0.010664816 0.0093654452         3033 
 1600000   0.60824055   -8.7591855    204.32817  0.010642092 0.0093558118         3083 
 1601000   0.62968701   -8.7722726    204.78719  0.010659337 0.0093461925         3077 
 1602000   0.61725806   -8.7742332    204.43738  0.010634487 0.0093365934         3079 
 1603000   0.61600237   -8.7748551    204.27455  0.010619388 0.0093269864         3033 
 1604000   0.62589489   -8.7660002    204.33186  0.010615745 0.0093174118         3038 
 1605000   0.61897998   -8.7791051    204.56621  0.010621299 0.0093078468         3012 
 1606000   0.62034373   -8.7567019    204.76798  0.010625155 0.0092982915         3022 
 1607000   0.61226605   -8.7856591    204.90058  0.010625419 0.0092887589         3051 
 1608000   0.60923044   -8.7816364    204.21553  0.010583309 0.0092792328         3055 
 1609000   0.62026267   -8.7608881    204.39454  0.010586002 0.0092697343         3098 
 1610000   0.60424986   -8.7855494    204.48776  0.010584253 0.0092602378         3001 
 1611000   0.60120694   -8.7721681    204.49795   0.01057821 0.0092507559         3113 
 1612000   0.60152508   -8.7575017    204.64587  0.010579294 0.0092412778         3116 
 1613000   0.60601513   -8.7639195    204.57966  0.010569315 0.0092318262         3094 
 1614000   0.61659788     -8.77954    204.61565  0.010564625 0.0092223739         3109 
 1615000   0.58904949   -8.7782945    204.49886  0.010552057 0.0092129328         3077 
 1616000   0.60455004   -8.7529124    204.44065  0.010542525 0.0092035118         2992 
 1617000   0.60608879   -8.7640478    204.75082   0.01055199 0.0091941027         3069 
 1618000   0.59842532   -8.7863274    204.23295  0.010518797 0.0091847068         3081 
 1619000   0.61383881    -8.795343    204.55095  0.010528668 0.0091753144         3166 
 1620000   0.61644125   -8.7903563    204.38537  0.010513651 0.0091659414         3104 
 1621000   0.61694607   -8.7977003    204.76608  0.010526736 0.0091565824         3045 
 1622000   0.60754963   -8.7927126    204.55728  0.010509519 0.0091472319         3140 
 1623000   0.60501442   -8.7876983    204.27756  0.010488682 0.0091378955         3081 
 1624000   0.60519352   -8.7768518    203.87191  0.010461408 0.0091285758         3057 
 1625000   0.59237175   -8.7772603    204.39717  0.010481906 0.0091192667         3188 
 1626000   0.61931452   -8.8172883    203.87845  0.010448875 0.0091099543         3108 
 1627000    0.6002015   -8.7706224    204.68194  0.010483607 0.0091006693         3110 
 1628000   0.59855789   -8.7773922    204.49849  0.010467777 0.0090913912         3082 
 1629000   0.60094164    -8.785181    204.58747  0.010465903 0.0090821272         3080 
 1630000   0.60081969   -8.7873501     204.2336   0.01044139 0.0090728821         3114 
 1631000   0.60438144    -8.778228    204.18371   0.01043244 0.0090636494         3131 
 1632000   0.61406603   -8.7543741     204.5012  0.010442259 0.0090544338         3147 
 1633000   0.59648632   -8.7898828    204.22004  0.010421517 0.0090452328         3005 
 1634000   0.60209166   -8.7951022    204.56524  0.010432744 0.0090360407         3068 
 1635000    0.5952787   -8.7858846    204.27475  0.010411557 0.0090268532         3057 
 1636000    0.5972756   -8.7984083     204.1828  0.010400509   0.00901767         3064 
 1637000   0.60709801   -8.8128857    204.11932  0.010390924 0.0090085082         3081 
 1638000   0.60756677    -8.779912    204.23299  0.010390364 0.0089993593         3031 
 1639000   0.59743952   -8.7893443    203.86727   0.01036543 0.0089902195         3061 
 1640000   0.59467459   -8.8015999    204.20573  0.010376307 0.0089810912         3071 
 1641000   0.58528511   -8.7795611    203.93631  0.010356303 0.0089719765         3038 
 1642000   0.58938996   -8.7827036    204.25613  0.010366226 0.0089628729         3098 
 1643000   0.59757961   -8.7942479    204.09072  0.010351528 0.0089537757         2985 
 1644000   0.58554929   -8.7990641    204.23463  0.010352526 0.0089446947         3078 
 1645000   0.60030553   -8.7921008    204.15962  0.010342433 0.0089356163         3112 
 1646000   0.58912496   -8.7860701     204.3813  0.010347372 0.0089265689         3076 
 1647000   0.59227023   -8.7958764    203.78556  0.010310947 0.0089175108         3093 
 1648000   0.58793078   -8.7901258    204.41706  0.010336623 0.0089084732         3075 
 1649000   0.59276431    -8.778735    204.42517  0.010330765 0.0088994444         3031 
 1650000   0.59975706   -8.8187975    203.82318    0.0102941 0.0088904341         3062 
 1651000   0.60358435   -8.8157692    204.01865  0.010297731 0.0088814222         3132 
 1652000   0.59580134    -8.796952    203.83038  0.010282001 0.0088724358         3058 
 1653000    0.5772847   -8.7909734    204.21213  0.010295026 0.0088634592         3058 
 1654000   0.59554421   -8.7977605    204.80698  0.010318772 0.0088544935         3070 
 1655000   0.59559474   -8.7886088    204.46527  0.010295331 0.0088455415         3128 
 1656000   0.59548831   -8.8161499    203.91204  0.010261274 0.0088366014         3120 
 1657000   0.59285459   -8.8079391    204.12647  0.010265866 0.0088276764         3071 
 1658000    0.5938672   -8.8125579    203.99609  0.010253121 0.0088187581         3102 
 1659000   0.59291776   -8.7993861    204.28674   0.01026154 0.0088098514         3103 
 1660000   0.58605196   -8.8095032    204.23232  0.010252627 0.0088009507         3082 
 1661000   0.58422736   -8.8359363    204.17474  0.010243565 0.0087920671         3087 
 1662000   0.58084105   -8.8130221    203.99071  0.010228174 0.0087831881         3104 
 1663000   0.59705847   -8.7984785    204.14052  0.010229531 0.0087743295         3024 
 1664000   0.59397699    -8.803569    204.13296  0.010223005 0.0087654869         3095 
 1665000    0.5801286   -8.7922125    204.51456  0.010235964 0.0087566553         3120 
 1666000   0.59509788   -8.8123407    203.84722   0.01019644 0.0087478301         3095 
 1667000   0.58718464   -8.8149257    204.27968  0.010211942 0.0087390137         3068 
 1668000   0.59056386   -8.8309445     203.9456  0.010189129 0.0087302139         3128 
 1669000   0.58500916   -8.8103131    204.57553  0.010214476 0.0087214307         3071 
 1670000   0.58416248   -8.8055856    204.30233  0.010194727 0.0087126618         3162 
 1671000   0.59336801   -8.8148011    204.28321  0.010187672 0.0087038981         3068 
 1672000   0.58274481   -8.8170947    203.88746  0.010161855 0.0086951429         3137 
 1673000   0.59221512   -8.8135402    203.81494  0.010152169 0.0086863977         3091 
 1674000   0.58809248    -8.825031    204.14761  0.010162665  0.008677661         3136 
 1675000   0.57488052   -8.8223052    204.08699  0.010153582 0.0086689416         3137 
 1676000   0.59643434   -8.8206569    203.94904  0.010140664 0.0086602326         3109 
 1677000   0.57602033   -8.8287103    203.96257   0.01013529 0.0086515367         3110 
 1678000    0.5809255   -8.8154891    203.87132  0.010124718  0.008642848         3109 
 1679000   0.58313162   -8.8216928    204.06785  0.010128442 0.0086341748         3103 
 1680000   0.58165972   -8.8531259    203.73256  0.010105782 0.0086255182         3149 
 1681000   0.58617873   -8.8380392    204.15725  0.010120824 0.0086168714         3140 
 1682000   0.58682228   -8.8488026    203.51319  0.010082897  0.008608227         3075 
 1683000   0.58999664   -8.8374513    203.92143   0.01009712 0.0085995912         3118 
 1684000   0.57923896   -8.8247678    203.91872   0.01009099 0.0085909782         3128 
 1685000   0.58415443   -8.8287631    204.00152  0.010089096 0.0085823721         3082 
 1686000   0.57943582   -8.8174473    203.93909  0.010080026 0.0085737811         3154 
 1687000   0.57845338   -8.8033858    204.02402  0.010078246 0.0085652054         3066 
 1688000   0.58006678   -8.8406732    204.28571  0.010085195 0.0085566411         3148 
 1689000   0.58884567   -8.8215685    203.70038  0.010050344 0.0085480781         3115 
 1690000   0.58313555   -8.8430224    203.84853  0.010051702 0.0085395298         3191 
 1691000    0.5806545   -8.8381571    203.71737  0.010039295 0.0085309887         3176 
 1692000   0.58530483   -8.8393769     203.3942  0.010017445 0.0085224564         3110 
 1693000    0.5904434   -8.8191431    203.93386  0.010038091 0.0085139404         3104 
 1694000   0.58074222   -8.8303755    203.86433  0.010028745 0.0085054384         3136 
 1695000   0.56610411   -8.8307012    203.84325  0.010021792  0.008496948         3101 
 1696000   0.57980447    -8.829582    204.18921  0.010032882 0.0084884566         3116 
 1697000   0.56794534   -8.8483235    203.64362  0.010000178 0.0084799862         3130 
 1698000   0.56846565   -8.8407969    203.65474 0.0099948339 0.0084715181         3143 
 1699000    0.5846953   -8.8393031    203.93493  0.010002694 0.0084630579         3145 
 1700000    0.5793186    -8.834334    203.75257  0.009987871 0.0084546126         3164 
 1701000   0.56907011   -8.8274996    203.91993 0.0099901983   0.00844618         3105 
 1702000   0.59214718     -8.84864    203.89821 0.0099832654 0.0084377577         3078 
 1703000   0.59116084    -8.842921    203.90593 0.0099777808 0.0084293544         3110 
 1704000   0.57835374   -8.8323263    203.57079 0.0099555355 0.0084209662         3218 
 1705000   0.57776502   -8.8205372    203.75491 0.0099586957 0.0084125853         3167 
 1706000   0.58094563   -8.8125245    203.70065 0.0099502077 0.0084042179         3116 
 1707000   0.56258275    -8.824989    203.92642 0.0099554005 0.0083958538         3097 
 1708000   0.58327744   -8.8499578    203.66011 0.0099365782 0.0083874986         3126 
 1709000   0.57504988   -8.8207791    203.74969 0.0099351323 0.0083791659         3137 
 1710000   0.56577887   -8.8415795    203.45762 0.0099150886 0.0083708363         3075 
 1711000   0.57498841   -8.8578595    204.00347 0.0099358793 0.0083625188         3069 
 1712000   0.56124652   -8.8412465      203.953 0.0099276186 0.0083542168         3160 
 1713000   0.56780909   -8.8511706    203.89948 0.0099192197 0.0083459181         3156 
 1714000   0.57410753   -8.8397963    203.59832 0.0098987905 0.0083376362         3141 
 1715000   0.57554968    -8.848116    203.35886 0.0098813828 0.0083293669         3093 
 1716000   0.58044683   -8.8521218    204.00897 0.0099071953 0.0083211069         3117 
 1717000   0.56272581   -8.8408815    203.69439 0.0098861578 0.0083128555         3081 
 1718000   0.57268048   -8.8566445    203.73444 0.0098823456 0.0083046185         3111 
 1719000    0.5761741   -8.8381958    203.64811 0.0098724118 0.0082963882         3141 
 1720000   0.56908461   -8.8457516     203.6994 0.0098691569  0.008288174         3137 
 1721000   0.56240292   -8.8468046    203.98504 0.0098772533 0.0082799607         3075 
 1722000    0.5559703   -8.8600328    203.83869  0.009864435 0.0082717635         3093 
 1723000   0.56112877   -8.8330981    204.08036 0.0098703987 0.0082635761         3050 
 1724000   0.54894082   -8.8525946      203.737 0.0098480762 0.0082554027         3140 
 1725000   0.56743832   -8.8385519    203.65609 0.0098384586 0.0082472258         3165 
 1726000   0.56962163   -8.8586394    203.71751 0.0098357237 0.0082390622         3121 
 1727000   0.55245608   -8.8447095    203.99259 0.0098433022 0.0082309105         3135 
 1728000   0.57211097   -8.8666953    203.63125 0.0098201799 0.0082227695         3175 
 1729000    0.5598055   -8.8688795    203.46786  0.009806625 0.0082146428         3162 
 1730000   0.56609563   -8.8451515     203.4959 0.0098023072 0.0082065214         3176 
 1731000    0.5496283   -8.8753986    203.41337 0.0097926713 0.0081984062         3112 
 1732000   0.56050131   -8.8461719      203.745 0.0098029734 0.0081903066         3116 
 1733000   0.55322471    -8.864627    203.17715 0.0097700112 0.0081822178         3115 
 1734000   0.55687374   -8.8757285    203.44811 0.0097773988 0.0081741382         3171 
 1735000   0.56662055    -8.866093    203.53896  0.009776127 0.0081660628         3187 
 1736000    0.5579463   -8.8707524    203.73156 0.0097797406 0.0081580051         3115 
 1737000   0.56030822   -8.8485461    203.62248 0.0097688775 0.0081499502         3104 
 1738000   0.56780195   -8.8741521    203.39129 0.0097521714 0.0081419103         3153 
 1739000   0.54610566   -8.8801621    203.17146 0.0097360291 0.0081338812         3167 
 1740000    0.5726978   -8.8806181    203.41418 0.0097420585 0.0081258612         3139 
 1741000   0.55382415   -8.8518651    203.58224 0.0097445072 0.0081178543         3130 
 1742000   0.55990171   -8.8662958     204.0696 0.0097622271 0.0081098557         3167 
 1743000   0.55106673   -8.8667408    203.65876 0.0097369843  0.008101873         3169 
 1744000   0.55507832   -8.8633265    203.42858 0.0097204025 0.0080938943         3154 
 1745000   0.55890744   -8.8847781     203.4607 0.0097163656 0.0080859302         3135 
 1746000   0.56097559   -8.8650252    203.58925 0.0097169362  0.008077971         3107 
 1747000   0.56215824   -8.8652015    203.41811 0.0097032105 0.0080700231         3183 
 1748000   0.55620299   -8.8632559     203.3543 0.0096946178 0.0080620842         3118 
 1749000   0.55241767   -8.8633048    203.99118 0.0097194197 0.0080541589         3149 
 1750000   0.55590193   -8.8703991    203.66092 0.0096981392 0.0080462464         3141 
 1751000   0.56662851   -8.8785317    203.44177 0.0096821708  0.008038346         3189 
 1752000   0.55260407   -8.8626113    203.27271 0.0096686029 0.0080304488         3111 
 1753000   0.55130488   -8.8558963    203.33233 0.0096659218 0.0080225649         3137 
 1754000   0.55192904   -8.8758035     203.3264 0.0096601294 0.0080146959         3135 
 1755000   0.55774366   -8.8681343    203.42132 0.0096591322 0.0080068377         3150 
 1756000   0.55510804   -8.8810942    203.30194 0.0096479661 0.0079989871         3191 
 1757000    0.5527984   -8.8570294    203.32159 0.0096434069 0.0079911441         3131 
 1758000   0.55856781   -8.8715221    203.28213 0.0096360508  0.007983306         3186 
 1759000   0.55151895   -8.8829584    203.06115 0.0096201038 0.0079754832         3162 
 1760000   0.55181054   -8.8685315    203.34306 0.0096279857 0.0079676803         3090 
 1761000   0.54318687   -8.8751876    203.21758 0.0096165805 0.0079598747         3172 
 1762000   0.54606735   -8.8610171    203.37467 0.0096185523 0.0079520839         3109 
 1763000   0.54965771   -8.8803335    203.50655 0.0096193304 0.0079443006         3188 
 1764000   0.55563434   -8.8836721    203.63151 0.0096197803 0.0079365323         3141 
 1765000   0.55660914   -8.8906982    203.32052  0.009599647 0.0079287698         3149 
 1766000   0.55319775   -8.8786211    203.57151 0.0096060547 0.0079210197         3188 
 1767000   0.55318687    -8.869528     203.5923 0.0096015987 0.0079132857         3134 
 1768000   0.53214941   -8.8989338    203.33142 0.0095838716 0.0079055521         3118 
 1769000   0.55424951   -8.8873345    203.36256 0.0095799209 0.0078978327         3142 
 1770000   0.54802868   -8.8778635    203.54241 0.0095829758 0.0078901195         3158 
 1771000   0.53454327    -8.872736    203.53026 0.0095769931  0.007882418         3170 
 1772000   0.53598087   -8.8751517    203.25153 0.0095584805 0.0078747307         3153 
 1773000   0.54242694   -8.8715995    203.70344 0.0095743295 0.0078670479         3225 
 1774000   0.54008495     -8.89247    203.34489 0.0095520899 0.0078593789         3084 
 1775000   0.53908252   -8.8980804    203.09702 0.0095350715 0.0078517097         3197 
 1776000   0.53921631   -8.8795111     203.3855 0.0095432384 0.0078440529         3106 
 1777000   0.52921839   -8.8966515     203.4965 0.0095430733 0.0078364056         3171 
 1778000   0.54763954   -8.9037046    203.13797 0.0095209021 0.0078287681         3113 
 1779000   0.53450944   -8.8837495    203.05716 0.0095117652  0.007821149         3137 
 1780000    0.5344862    -8.877877    203.31215 0.0095183593 0.0078135346         3127 
 1781000   0.55123353   -8.9059165    203.48647 0.0095211711  0.007805928         3186 
 1782000    0.5452374   -8.8930965    203.11046 0.0094982444 0.0077983386         3125 
 1783000   0.55423128   -8.8892875    203.60324  0.009515949 0.0077907553         3174 
 1784000    0.5514815   -8.8819088    203.25371 0.0094942878 0.0077831851         3125 
 1785000     0.543533   -8.9078273    203.14561  0.009483922 0.0077756253         3145 
 1786000   0.53007184   -8.9107146    203.41657 0.0094912545 0.0077680702         3160 
 1787000   0.52964113   -8.8665315    203.42994 0.0094865667 0.0077605258         3178 
 1788000   0.53583547    -8.877464    203.18971 0.0094700646 0.0077529891         3162 
 1789000   0.53759735   -8.8828762    203.12585 0.0094617968 0.0077454646         3174 
 1790000   0.53585025   -8.9017633    203.07062 0.0094539394 0.0077379447         3194 
 1791000   0.54223217   -8.8908839    203.17043 0.0094533049 0.0077304404         3154 
 1792000   0.54476255   -8.8721837    203.03149 0.0094415685 0.0077229527         3106 
 1793000   0.53134895   -8.8902756    203.43043 0.0094548445 0.0077154743         3195 
 1794000   0.52931498   -8.8849746    203.47136 0.0094514753 0.0077079924         3102 
 1795000   0.53691559   -8.9078822    203.26367 0.0094365678 0.0077005264         3110 
 1796000   0.53660544   -8.9028127    203.17999 0.0094274306 0.0076930701         3199 
 1797000    0.5133196   -8.8934691    203.01001 0.0094143022 0.0076856188         3180 
 1798000   0.52792975   -8.8917131    203.33972 0.0094243474 0.0076781851         3143 
 1799000   0.54181836   -8.9042553    202.64813 0.0093870731 0.0076707578         3100 
 1800000   0.53375534   -8.9132198    203.17893 0.0094064319 0.0076633398         3180 
 1801000   0.51384722   -8.8901429    203.04353 0.0093949438 0.0076559291         3170 
 1802000   0.53624702   -8.8933389    203.02289 0.0093887758 0.0076485196         3229 
 1803000   0.53305569   -8.9021234    203.15571 0.0093897073 0.0076411218         3145 
 1804000   0.53053159   -8.9215227    203.28892 0.0093906561 0.0076337374         3220 
 1805000   0.52769335   -8.9093182    203.06887 0.0093752941 0.0076263613         3198 
 1806000    0.5353992   -8.9051881     202.9105 0.0093627952 0.0076189981         3154 
 1807000   0.51716377   -8.9074475    203.52084 0.0093857608 0.0076116471         3129 
 1808000    0.5283919   -8.9076829    203.04871 0.0093588084 0.0076042992         3159 
 1809000     0.540139    -8.903565    203.00608 0.0093516713  0.007596974         3194 
 1810000   0.52196655   -8.9126868    203.19813 0.0093553465 0.0075896499         3102 
 1811000   0.52162821   -8.8991562    202.95662 0.0093390676 0.0075823279         3168 
 1812000   0.53472672   -8.9067863     203.2256 0.0093462839 0.0075750172         3139 
 1813000   0.52760597   -8.9082806    202.98813 0.0093302137 0.0075677208         3212 
 1814000   0.52799503    -8.910561    203.12579 0.0093313941 0.0075604305         3158 
 1815000   0.53392191   -8.9083376    203.21982 0.0093305704 0.0075531475         3193 
 1816000   0.53428035   -8.9172666    203.03735 0.0093170588 0.0075458766         3207 
 1817000   0.52492121   -8.9134732    202.87298 0.0093043926 0.0075386199         3185 
 1818000   0.52667943   -8.9122754    202.92215 0.0093015285 0.0075313645         3153 
 1819000    0.5342159   -8.9199822     202.9716 0.0092986805 0.0075241246         3194 
 1820000   0.52499385   -8.9247311    202.85114 0.0092880558 0.0075168882         3196 
 1821000   0.53729789   -8.9218828     202.7859 0.0092799696 0.0075096594         3142 
 1822000   0.52502359    -8.918227    202.73328 0.0092724698 0.0075024473         3185 
 1823000   0.52263268   -8.9237401    203.01308 0.0092801735 0.0074952447         3252 
 1824000   0.51737465   -8.9165019    203.32248 0.0092892214 0.0074880497         3204 
 1825000   0.52494238   -8.9241306    202.95229 0.0092672278 0.0074808614         3210 
 1826000    0.5255936   -8.9107474    203.09429 0.0092686331 0.0074736793         3151 
 1827000   0.53173117   -8.9369491    203.05064 0.0092615691 0.0074665095         3156 
 1828000   0.51599336   -8.9299825      203.143 0.0092607128 0.0074593495         3197 
 1829000   0.51625652   -8.9139454     202.7386 0.0092372242 0.0074521975         3182 
 1830000   0.52783183   -8.9319328     202.8656 0.0092379599 0.0074450549         3203 
 1831000   0.51636451    -8.917967    202.59712 0.0092206953 0.0074379248         3153 
 1832000   0.51979483   -8.9164256    202.68918 0.0092198499 0.0074307998         3249 
 1833000   0.52031483   -8.9284837    202.64757 0.0092129282 0.0074236843         3196 
 1834000   0.51877792   -8.9337294    202.85393 0.0092172816 0.0074165699         3194 
 1835000   0.53049567   -8.9297321    202.85509 0.0092123112 0.0074094716         3182 
 1836000   0.52560022   -8.9301566    202.83057 0.0092061804 0.0074023837         3191 
 1837000   0.52926325   -8.9229406    203.21971 0.0092188218 0.0073953061         3257 
 1838000   0.52536939   -8.9194752    202.87036 0.0091979668 0.0073882344         3214 
 1839000   0.51556483   -8.9315747    202.83876 0.0091915334 0.0073811674         3171 
 1840000   0.51635236   -8.9394383    202.60499 0.0091759507 0.0073741162         3183 
 1841000   0.51373402   -8.9295376    202.96101 0.0091870818 0.0073670735         3121 
 1842000   0.51750665   -8.9378225    203.09184 0.0091880129 0.0073600373         3172 
 1843000   0.51915691   -8.9094118    202.96446 0.0091772679 0.0073530104         3182 
 1844000   0.51472629   -8.9169906    202.75136  0.009162661 0.0073459927         3220 
 1845000   0.50771807   -8.9204002    203.05319 0.0091713273 0.0073389863         3167 
 1846000   0.54142193   -8.9440703    202.85818 0.0091575558 0.0073319849         3213 
 1847000   0.51611057   -8.9324788    202.57149  0.009139663 0.0073249932         3207 
 1848000    0.5161498   -8.9255129    202.64056 0.0091378317 0.0073180084         3214 
 1849000   0.52692095   -8.9296963    202.76274 0.0091383966 0.0073110302         3198 
 1850000   0.51470129   -8.9325549    202.62325 0.0091271734 0.0073040635         3205 
 1851000   0.51308829   -8.9425069    202.67081 0.0091243837 0.0072970984         3181 
 1852000   0.51356226   -8.9324201    202.56801 0.0091148315 0.0072901511         3149 
 1853000   0.51405069   -8.9241719    202.92436 0.0091259383 0.0072832036         3173 
 1854000   0.51136827   -8.9464641    202.58475 0.0091057512 0.0072762754         3211 
 1855000   0.51950943   -8.9304168    202.58244 0.0091007385 0.0072693546         3201 
 1856000   0.51819133   -8.9230008    202.99302 0.0091142698 0.0072624444         3232 
 1857000   0.51381317    -8.933716    202.85148 0.0091030103 0.0072555374         3235 
 1858000   0.50663967    -8.943467    202.96154 0.0091030472 0.0072486417         3219 
 1859000   0.52379181   -8.9278745    202.64726  0.009084062 0.0072417524         3168 
 1860000   0.51199858   -8.9396378    202.72916 0.0090828476 0.0072348742         3183 
 1861000   0.51168546   -8.9510956    202.70601 0.0090769303 0.0072279992         3195 
 1862000   0.50397124   -8.9436107    202.78528 0.0090756031 0.0072211385         3219 
 1863000   0.51034277   -8.9476716    202.56087 0.0090606937 0.0072142902         3243 
 1864000   0.50837211   -8.9476176    202.90755 0.0090713319 0.0072074513         3190 
 1865000   0.50524513   -8.9449808    202.35651 0.0090418458  0.007200615         3246 
 1866000    0.5110959   -8.9447778    202.62048 0.0090487886 0.0071937922         3225 
 1867000   0.51506616   -8.9421873    202.55856 0.0090411783 0.0071869708         3168 
 1868000   0.50681478   -8.9447948    202.65424 0.0090406069 0.0071801622         3194 
 1869000   0.50210814   -8.9512967    202.55567 0.0090313745 0.0071733611         3238 
 1870000   0.50520843   -8.9410455    202.67679 0.0090319423 0.0071665749         3217 
 1871000   0.51794184   -8.9546229    202.80128 0.0090326599 0.0071597882         3203 
 1872000   0.50874397   -8.9301356    202.94759 0.0090343477 0.0071530121         3165 
 1873000   0.50891366   -8.9518948     202.7421  0.009020382 0.0071462511         3199 
 1874000   0.51113567   -8.9237661    202.72015 0.0090145923 0.0071395009         3178 
 1875000    0.4988348   -8.9242109    202.66511  0.009007338 0.0071327545         3196 
 1876000   0.49730773   -8.9408969    202.68149 0.0090032646 0.0071260106         3219 
 1877000    0.5052069   -8.9443552    202.66377 0.0089976812 0.0071192834         3195 
 1878000   0.49232379   -8.9504126    203.06331 0.0090106191  0.007112559         3167 
 1879000    0.4927699   -8.9536651    202.80909 0.0089945491 0.0071058478         3245 
 1880000    0.4987836   -8.9496211     202.6747 0.0089838077 0.0070991424         3240 
 1881000   0.50452498   -8.9533128    202.67408 0.0089790043 0.0070924479         3202 
 1882000   0.50757229    -8.958066    202.93733 0.0089858898 0.0070857647         3205 
 1883000   0.50853696   -8.9646082    202.53278  0.008963214 0.0070790883         3231 
 1884000   0.50426225   -8.9423331    202.81293 0.0089708477 0.0070724171         3223 
 1885000   0.51766528    -8.959049    202.72219 0.0089620774 0.0070657594         3202 
 1886000    0.4985899   -8.9517349    202.31887 0.0089395048 0.0070591055         3193 
 1887000   0.49802404   -8.9613336    202.75935 0.0089542196 0.0070524665         3202 
 1888000   0.49815025   -8.9535614    202.46119 0.0089363165 0.0070458278         3261 
 1889000   0.48391983   -8.9501678    202.92283 0.0089519511 0.0070391977         3146 
 1890000    0.5045859   -8.9505804    202.63446 0.0089344998 0.0070325706         3239 
 1891000   0.49283283   -8.9629784    202.80434 0.0089372615 0.0070259614         3173 
 1892000   0.50198165   -8.9670686    202.69262 0.0089276172 0.0070193562         3213 
 1893000   0.49666643   -8.9324049    202.22137 0.0089021559 0.0070127585         3169 
 1894000   0.50496193   -8.9754967    202.44674 0.0089073715 0.0070061724         3255 
 1895000   0.51032869    -8.946417    202.32649 0.0088973829 0.0069995981         3205 
 1896000   0.50032153   -8.9591658    202.43548 0.0088974808 0.0069930345         3167 
 1897000   0.50894219   -8.9453369     202.6704 0.0089031103 0.0069864728         3205 
 1898000   0.49792502   -8.9622235    202.56892 0.0088939636 0.0069799189         3223 
 1899000   0.50153608    -8.940381    202.68268 0.0088942725 0.0069733727         3226 
 1900000   0.50402389   -8.9561119    202.73519 0.0088918941 0.0069668372         3253 
 1901000   0.49581918   -8.9578473    202.65927 0.0088838888 0.0069603127         3191 
 1902000   0.48847733   -8.9558078    202.50018 0.0088722477 0.0069537934         3269 
 1903000   0.48998513   -8.9713479    202.37726 0.0088622025 0.0069472776         3221 
 1904000   0.49619332   -8.9533405    202.41377  0.008859146 0.0069407721         3179 
 1905000   0.48591716   -8.9501234    202.32605 0.0088506583  0.006934279         3244 
 1906000   0.48882466   -8.9826815    202.28865 0.0088443797 0.0069277875         3208 
 1907000    0.4897969   -8.9554166    202.26537 0.0088387243 0.0069213077         3225 
 1908000   0.48982182   -8.9701843    202.35649 0.0088380717 0.0069148374         3230 
 1909000   0.47807895   -8.9606386    202.39789 0.0088352491 0.0069083696         3178 
 1910000   0.49061472   -8.9864102    202.47156 0.0088338376 0.0069019108         3185 
 1911000   0.48920594   -8.9805407    202.25289 0.0088196795 0.0068954615         3228 
 1912000   0.48736385   -8.9653767    202.46373  0.008824256 0.0068890203         3196 
 1913000    0.4796881   -8.9512279    202.40439 0.0088170582 0.0068825857         3193 
 1914000   0.49601667   -8.9627053    202.78781 0.0088291452 0.0068761591         3252 
 1915000   0.48575396   -8.9721103      202.417 0.0088083985 0.0068697458         3210 
 1916000   0.49910731   -8.9840587    202.32748 0.0087999077 0.0068633358         3205 
 1917000   0.47711246   -8.9573591    202.45926 0.0088010457 0.0068569336         3206 
 1918000     0.494257   -8.9753129    202.72085 0.0088078226 0.0068505412         3200 
 1919000   0.47780193   -8.9725322    202.75468  0.008804702 0.0068441587         3199 
 1920000   0.48925556   -8.9766402    202.65608 0.0087958368 0.0068377812         3149 
 1921000   0.47990909   -8.9679665    202.40615 0.0087804162  0.006831412         3200 
 1922000   0.48870722    -8.982294    202.41704 0.0087763199 0.0068250539         3260 
 1923000   0.47252689   -8.9682937    202.44214 0.0087728435 0.0068187027         3206 
 1924000   0.48261265   -8.9765807    202.33837 0.0087637892 0.0068123567         3248 
 1925000   0.48107483   -8.9658309    202.40513 0.0087621269 0.0068060202         3213 
 1926000   0.48959681   -8.9749945    202.62236 0.0087669766 0.0067996967         3249 
 1927000   0.48066776   -8.9875239    202.41586 0.0087534967 0.0067933735         3265 
 1928000   0.47863441   -8.9812923    202.32759 0.0087451413 0.0067870633         3229 
 1929000   0.47557606   -8.9954556    202.57604 0.0087513411 0.0067807564         3228 
 1930000   0.47630559    -8.985083    202.27862 0.0087339644 0.0067744568         3204 
 1931000    0.4807285   -8.9615831    202.30053 0.0087303872 0.0067681673         3199 
 1932000    0.4741457   -8.9858042    202.31973 0.0087266966  0.006761887         3243 
 1933000   0.48352783   -8.9779337    202.29401 0.0087210731 0.0067556118         3255 
 1934000   0.47762396   -8.9758249     202.5964 0.0087295933 0.0067493455         3227 
 1935000   0.47369439   -8.9798894    202.38439 0.0087159515 0.0067430827         3232 
 1936000   0.48257558   -8.9824298    202.37071 0.0087108606 0.0067368326         3221 
 1937000   0.47435945   -8.9928819    202.27712 0.0087023369 0.0067305888         3260 
 1938000   0.47729708   -8.9782524    202.62024 0.0087126005 0.0067243534         3227 
 1939000   0.47215744   -8.9887946    202.21195 0.0086905599 0.0067181209         3235 
 1940000    0.4743828   -8.9936547    202.46739  0.008697053 0.0067118998         3207 
 1941000   0.47659909   -8.9764122    202.47985 0.0086931071 0.0067056862         3208 
 1942000   0.47770159   -8.9843558    202.23476 0.0086781134 0.0066994791         3231 
 1943000   0.47880401   -8.9809002    202.44742 0.0086827679 0.0066932826         3216 
 1944000   0.46848861   -8.9808139    202.14928 0.0086655214 0.0066870894         3246 
 1945000   0.47398987   -8.9984142    202.01222 0.0086551937 0.0066809056         3219 
 1946000   0.48066379   -9.0074383    202.26615 0.0086616199 0.0066747307         3229 
 1947000   0.48054202    -8.985006    202.00253  0.008645888 0.0066685662         3195 
 1948000   0.47707278    -8.987439    202.39684 0.0086583179 0.0066624086         3244 
 1949000   0.47631486   -8.9888466    202.34745 0.0086517637 0.0066562531         3176 
 1950000   0.46852043   -8.9805644    202.40806 0.0086499171 0.0066501049         3215 
 1951000   0.48186028   -8.9877285    202.52579 0.0086505123 0.0066439678         3221 
 1952000   0.47524678   -8.9793838    202.16444 0.0086306542 0.0066378381         3275 
 1953000   0.48434213   -9.0078132    202.00037 0.0086192341 0.0066317162         3238 
 1954000   0.48398183   -8.9718206    202.11934 0.0086198968 0.0066256029         3201 
 1955000   0.47108888   -8.9916646    201.93996 0.0086078415 0.0066194976         3196 
 1956000   0.47065362   -9.0033183    202.42734 0.0086242048  0.006613401         3277 
 1957000   0.47005135   -8.9774087    202.19391 0.0086098583 0.0066073072         3228 
 1958000    0.4732084   -8.9857676    201.76875 0.0085873658 0.0066012262         3208 
 1959000   0.47090525   -8.9945389    202.12114 0.0085979725 0.0065951483         3171 
 1960000   0.47680084    -8.986943    201.90915 0.0085845726 0.0065890791         3225 
 1961000   0.48342338   -8.9851903    202.25195 0.0085947626 0.0065830185         3200 
 1962000   0.48305884   -8.9916174     202.3589 0.0085949246 0.0065769704         3220 
 1963000   0.47780101   -8.9863299    202.21067 0.0085842531 0.0065709251         3233 
 1964000   0.47178202   -9.0098016     201.9806 0.0085701206 0.0065648881         3263 
 1965000   0.47137666   -8.9963734    202.32637 0.0085804229 0.0065588557         3293 
 1966000    0.4690614   -8.9910244     202.0681 0.0085651109  0.006552831         3243 
 1967000   0.46921517   -9.0086146    201.90405 0.0085538064 0.0065468148         3225 
 1968000   0.47033118   -9.0186609    201.89172  0.008548938 0.0065408006         3214 
 1969000   0.46781747   -9.0104323    202.12729 0.0085545662 0.0065347966         3196 
 1970000   0.46952997   -8.9926105    202.10983 0.0085494851 0.0065288067         3210 
 1971000   0.47247154   -9.0055443    202.17655 0.0085479683 0.0065228183         3221 
 1972000   0.47710046   -9.0144317    202.25813 0.0085470812 0.0065168397         3253 
 1973000   0.47068652   -8.9924488     201.9164 0.0085283155 0.0065108642         3206 
 1974000   0.46380443   -9.0028675    201.73108 0.0085161718 0.0065048958         3227 
 1975000   0.46270141   -9.0155046    201.81102  0.008515233 0.0064989379         3226 
 1976000   0.46580985   -9.0130752    201.84622  0.008512408 0.0064929852         3248 
 1977000   0.47012517   -9.0031993    201.94963 0.0085124613 0.0064870396         3223 
 1978000   0.46751148   -8.9999944    202.21319 0.0085192614 0.0064811043         3254 
 1979000   0.46102351   -9.0089113    202.36754  0.008521456 0.0064751768         3227 
 1980000   0.46334521   -8.9855117    201.81854 0.0084940465 0.0064692535         3246 
 1981000   0.45977128    -9.003791    202.01063  0.008497839 0.0064633435         3218 
 1982000   0.46423007   -9.0149018    202.26958 0.0085044391 0.0064574317         3234 
 1983000   0.46815271   -9.0081288     202.1729 0.0084960875 0.0064515327         3289 
 1984000   0.46353521    -9.001455    201.78365 0.0084754559 0.0064456391         3236 
 1985000   0.45616881   -9.0102031     201.7007 0.0084677037 0.0064397503         3268 
 1986000    0.4607735   -9.0025938    202.17045  0.008483151 0.0064338677         3247 
 1987000    0.4659853   -9.0225815    202.09372 0.0084756634 0.0064279953         3240 
 1988000   0.46020945   -9.0007324    202.03948 0.0084691266 0.0064221332         3226 
 1989000   0.47038972   -9.0192563    202.22831 0.0084727799 0.0064162757         3251 
 1990000   0.45418515   -9.0059914    201.90911 0.0084551553 0.0064104299         3223 
 1991000   0.45612549   -9.0143261    201.79674 0.0084462052 0.0064045874         3261 
 1992000    0.4648672   -9.0187163    201.68153 0.0084371455 0.0063987573         3184 
 1993000   0.44436414   -9.0143592    201.97171 0.0084450454 0.0063929259         3263 
 1994000   0.44908826    -9.020582    201.94629 0.0084397478 0.0063871043         3164 
 1995000   0.44606463   -9.0040237    201.85296 0.0084316191  0.006381286         3254 
 1996000   0.45707689   -9.0171119    201.76597 0.0084237631 0.0063754825         3224 
 1997000   0.45913139   -9.0242638    201.73187 0.0084181218 0.0063696846         3301 
 1998000   0.46840757   -9.0302226      201.544 0.0084060729 0.0063638892         3258 
 1999000   0.45152692   -9.0206744    201.89913  0.008416672 0.0063581047         3237 
 2000000   0.44837737   -9.0233912    201.88401 0.0084118336 0.0063523293         3206 
 2001000   0.44921789   -9.0161831    201.86949 0.0084070252 0.0063465584         3315 
 2002000   0.45030544   -9.0166286    202.15295 0.0084146248 0.0063407915         3257 
 2003000   0.45916999   -9.0147609    202.00943  0.008404453 0.0063350342         3259 
 2004000   0.46055061   -9.0162119    201.85361 0.0083937794 0.0063292875         3283 
 2005000   0.46784946   -9.0217547    201.82803 0.0083885299 0.0063235459         3265 
 2006000    0.4576681   -9.0238668     202.1125 0.0083961657 0.0063178112         3239 
 2007000   0.45611367   -9.0224274    202.17775 0.0083946916 0.0063120824         3168 
 2008000   0.44099514   -9.0302567    201.78416 0.0083741768  0.006306362         3235 
 2009000   0.45692624   -9.0263236    201.91317 0.0083753598 0.0063006484         3188 
 2010000   0.44943933    -9.019738    201.89386 0.0083703922 0.0062949417         3240 
 2011000   0.45523776   -9.0128086    202.00179 0.0083707022 0.0062892447         3107 
 2012000   0.44241259   -9.0261215     202.0765 0.0083696361 0.0062835512         3261 
Loop time of 5255.45 on 48 procs for 2000000 steps with 4000 atoms

Performance: 65760.276 tau/day, 380.557 timesteps/s
99.4% CPU use with 48 MPI tasks x no OpenMP threads

MPI task timing breakdown:
Section |  min time  |  avg time  |  max time  |%varavg| %total
---------------------------------------------------------------
Pair    | 386.43     | 427.59     | 469.87     | 100.6 |  8.14
Neigh   | 37.151     | 38.393     | 40.312     |  12.5 |  0.73
Comm    | 331.97     | 374.41     | 414.96     | 104.0 |  7.12
Output  | 5.8255     | 5.8299     | 5.874      |   0.5 |  0.11
Modify  | 4343.4     | 4360       | 4372.9     |   9.7 | 82.96
Other   |            | 49.24      |            |       |  0.94

Nlocal:        83.3333 ave          89 max          77 min
Histogram: 3 1 3 5 5 12 10 5 1 3
Nghost:        2435.35 ave        2453 max        2418 min
Histogram: 2 4 2 6 13 6 6 2 3 4
Neighs:        16890.9 ave       19568 max       14473 min
Histogram: 3 5 6 4 11 4 4 2 5 4
FullNghs:      33781.4 ave       36341 max       31170 min
Histogram: 3 3 4 8 4 7 8 8 0 3

Total # of neighbors = 1621509
Ave neighs/atom = 405.37725
Neighbor list builds = 106485
Dangerous builds = 0

#clear
#
#next RN
#
#jump SELF
Total wall time: 1:27:39
