
units lj                  # Use reduced LJ style units
atom_style atomic         # Uncharged point particles
atom_modify map hash      # Needed for indexing of clusters etc
                          # Used to be able to find where atoms are in relation to each other.

lattice fcc 1.0 spacing 1 1 1
Lattice spacing in x,y,z = 1.5874011 1.5874011 1.5874011
region box block 0 10 0 10 0 10 units lattice
create_box 2 box
Created orthogonal box = (0.0000000 0.0000000 0.0000000) to (15.874011 15.874011 15.874011)
  3 by 4 by 4 MPI processor grid
create_atoms 1 box
Created 4000 atoms
  using lattice units in orthogonal box = (0.0000000 0.0000000 0.0000000) to (15.874011 15.874011 15.874011)
  create_atoms CPU = 0.015 seconds
set type 1 type/fraction 2 0.34 78393
Setting atom values ...
  1376 settings made for type/fraction
mass 1 1.0
mass 2 1.0
pair_style lj/cut  3.5
pair_modify tail  yes
pair_coeff 1  1  1.0  1.0   # Intearaction between 1 and 1 set with epsilon = 1 and sigma = 1
pair_coeff 1  2  1.5  0.8
pair_coeff 2  2  0.5  0.88

write_data data.0
System init for write_data ...
Neighbor list info ...
  update every 1 steps, delay 10 steps, check yes
  max neighbors/atom: 2000, page size: 100000
  master list distance cutoff = 3.8
  ghost atom cutoff = 3.8
  binsize = 1.9, bins = 9 9 9
  1 neighbor lists, perpetual/occasional/extra = 1 0 0
  (1) pair lj/cut, perpetual
      attributes: half, newton on
      pair build: half/bin/atomonly/newton
      stencil: half/bin/3d
      bin: standard
WARNING: Not all mixed pair coeffs generated from mixing. Use write_data with 'pair ij' option to store all pair coeffs. (../write_data.cpp:312)


#############################
#   M E L T   S Y S T E M   #
#############################

velocity all create 2.4 9580093 mom yes dist gaussian # Assign velocities
                                                    # Temperature 2.4, random number seed, zero linear momentum
                                                                                # Gaussian distribution

timestep 0.002   # simulation timestep
thermo 1000       # output thermodynamic data every 1000 steps bf 100

# Define a fix  in this case with index 1 applied to all
# particles in the simulation. This fix is for simulations
# in the anisotropic NPT ensemble. Note that we use the MTK
# correction.
fix 1 all npt temp 2.4 2.4 0.1 iso 5.68 5.68 0.5 mtk yes tchain 5 pchain 5 # Use NPT ensemble
                                                                         # Set temperature and pressure and damping
                                                                         # Numbers of thermostats in chain and in barostat
run 10000          # run for 10000 steps
Per MPI rank memory allocation (min/avg/max) = 3.642 | 3.644 | 3.648 Mbytes
Step Temp E_pair E_mol TotEng Press Volume 
       0          2.4   -6.2108987            0   -2.6117987   -4.0679274         4000 
    1000    2.3500375   -5.0327142            0   -1.5085391    5.6964137    4028.3362 
    2000    2.4116142   -5.0385025            0   -1.4219856    5.6249413    4039.2062 
    3000    2.3811672      -5.0613            0   -1.4904422    5.4733553    4037.0762 
    4000    2.4042577   -5.0558601            0   -1.4503751    5.8597405    4010.2222 
    5000    2.3988099   -5.0940191            0   -1.4967038    5.9608233    3983.7875 
    6000    2.4073564   -5.0679874            0   -1.4578556    5.6449398    4025.2939 
    7000    2.3627711   -5.0338394            0   -1.4905688     5.692308    4028.9759 
    8000    2.3989034   -5.0197141            0   -1.4222586    5.5214551    4060.0374 
    9000    2.4051144   -4.9990543            0   -1.3922847    5.8721927    4041.2538 
   10000    2.4188745   -4.9630314            0   -1.3356266    5.7927928    4061.7544 
Loop time of 2.46262 on 48 procs for 10000 steps with 4000 atoms

Performance: 701690.407 tau/day, 4060.708 timesteps/s
99.6% CPU use with 48 MPI tasks x no OpenMP threads

MPI task timing breakdown:
Section |  min time  |  avg time  |  max time  |%varavg| %total
---------------------------------------------------------------
Pair    | 1.0671     | 1.1369     | 1.2042     |   3.2 | 46.17
Neigh   | 0.20049    | 0.21232    | 0.22862    |   1.1 |  8.62
Comm    | 0.76089    | 0.84087    | 0.92186    |   4.2 | 34.15
Output  | 0.00024281 | 0.00024707 | 0.00031166 |   0.0 |  0.01
Modify  | 0.23162    | 0.25717    | 0.2822     |   2.4 | 10.44
Other   |            | 0.0151     |            |       |  0.61

Nlocal:        83.3333 ave          93 max          73 min
Histogram: 1 1 1 7 11 12 4 5 5 1
Nghost:        1634.29 ave        1661 max        1610 min
Histogram: 2 2 6 9 7 11 5 2 2 2
Neighs:        9399.54 ave       10849 max        7783 min
Histogram: 1 1 0 9 11 12 3 10 0 1

Total # of neighbors = 451178
Ave neighs/atom = 112.79450
Neighbor list builds = 904
Dangerous builds = 197

# Equilibrate just above the melting temperature to avoid step fn in T

fix 1 all npt temp 1.25 1.25 0.1 iso 5.68 5.68 0.5 mtk yes tchain 5 pchain 5
run 2000
Per MPI rank memory allocation (min/avg/max) = 3.643 | 3.645 | 3.649 Mbytes
Step Temp E_pair E_mol TotEng Press Volume 
   10000    2.4188745   -4.9630314            0   -1.3356266    5.7927928    4061.7544 
   11000    1.2442764   -6.9329753            0   -5.0670272    5.9303251    3230.4828 
   12000    1.2238628   -6.9568415            0   -5.1215063    5.5449194    3235.3165 
Loop time of 0.578318 on 48 procs for 2000 steps with 4000 atoms

Performance: 597594.759 tau/day, 3458.303 timesteps/s
99.6% CPU use with 48 MPI tasks x no OpenMP threads

MPI task timing breakdown:
Section |  min time  |  avg time  |  max time  |%varavg| %total
---------------------------------------------------------------
Pair    | 0.2559     | 0.27793    | 0.30729    |   2.3 | 48.06
Neigh   | 0.037929   | 0.040469   | 0.044378   |   0.6 |  7.00
Comm    | 0.17478    | 0.21145    | 0.23835    |   2.9 | 36.56
Output  | 5.3127e-05 | 5.4475e-05 | 7.0009e-05 |   0.0 |  0.01
Modify  | 0.039177   | 0.043656   | 0.047598   |   1.1 |  7.55
Other   |            | 0.004755   |            |       |  0.82

Nlocal:        83.3333 ave          92 max          73 min
Histogram: 1 2 2 6 10 9 7 5 3 3
Nghost:        1894.75 ave        1915 max        1875 min
Histogram: 3 4 5 9 7 4 0 7 6 3
Neighs:        11807.7 ave       13332 max       10322 min
Histogram: 4 2 5 9 5 5 8 4 3 3

Total # of neighbors = 566768
Ave neighs/atom = 141.69200
Neighbor list builds = 144
Dangerous builds = 13

#############################
# L I N E A R  Q U E N C H  #
#############################

# Define solid atoms. This closely follows ten Wolde  Ruiz-Montero and Frenkel  Faraday Discuss  1996  104  93-110
# Compute components of the per-atom q6 vector
compute q6 all orientorder/atom degrees 1 6 components 6 nnn NULL cutoff 1.3 # compute the Q6 parameter.
                                                                             # Use all neighbours within 1.3 unit cell.

# get number of connections
compute coord_number all coord/atom orientorder q6 0.5

# An atom is solid if it has 8 or more connections (of a possible 14)
variable is_solid atom c_coord_number>=8
group solid dynamic all var is_solid    # Must be dynamic to update
dynamic group solid defined

# do clustering
compute cluster solid cluster/atom 1.3 # Create a cluster where all atoms within are solid and max 1.3 units from another member

# define chunks one chunk per cluster
compute clus_chunks solid chunk/atom c_cluster nchunk every compress yes  # Says which atoms are in which chunk

# count the size of each chunk
compute size_chunks solid property/chunk clus_chunks count


# Find the maximum entry in the vector of chunk sizes
variable max_n equal max(c_size_chunks)


# Thermo style which includes this variable
# thermo_style custom step temp pe vol v_max_n

thermo ${N}  # Print the thermo information every 100 steps
thermo 1000  

# Reset the npt fix at a lower temperature (below freezing)
fix 1  all npt temp  ${temp} ${temp}  0.1  iso  5.68  5.68  0.5  mtk yes tchain  5  pchain  5
fix 1  all npt temp  0.45 ${temp}  0.1  iso  5.68  5.68  0.5  mtk yes tchain  5  pchain  5
fix 1  all npt temp  0.45 0.45  0.1  iso  5.68  5.68  0.5  mtk yes tchain  5  pchain  5

dump dmp2 all dcd ${N} traj.dcd
dump dmp2 all dcd 1000 traj.dcd


compute msd all msd com yes
variable twopoint equal c_msd[4]/6/(step*dt+1.0e-6)
fix 9 all vector 10 c_msd[4]
variable fit equal slope(f_9)/6/(10*dt)
thermo_style custom step temp pe c_msd[4] v_twopoint v_fit v_max_n

fix 1 all npt temp 1.25 ${temp} 0.1 iso 5.68 5.68 0.5 mtk yes tchain 5 pchain 5
fix 1 all npt temp 1.25 0.45 0.1 iso 5.68 5.68 0.5 mtk yes tchain 5 pchain 5
run 2000000 # 5000000  # Run for this many steps
Neighbor list info ...
  update every 1 steps, delay 10 steps, check yes
  max neighbors/atom: 2000, page size: 100000
  master list distance cutoff = 3.8
  ghost atom cutoff = 3.8
  binsize = 1.9, bins = 8 8 8
  4 neighbor lists, perpetual/occasional/extra = 1 3 0
  (1) pair lj/cut, perpetual
      attributes: half, newton on
      pair build: half/bin/atomonly/newton
      stencil: half/bin/3d
      bin: standard
  (2) compute orientorder/atom, occasional
      attributes: full, newton on
      pair build: full/bin/atomonly
      stencil: full/bin/3d
      bin: standard
  (3) compute coord/atom, occasional
      attributes: full, newton on
      pair build: full/bin/atomonly
      stencil: full/bin/3d
      bin: standard
  (4) compute cluster/atom, occasional
      attributes: full, newton on
      pair build: full/bin/atomonly
      stencil: full/bin/3d
      bin: standard
Per MPI rank memory allocation (min/avg/max) = 9.815 | 9.820 | 9.824 Mbytes
Step Temp PotEng c_msd[4] v_twopoint v_fit v_max_n 
   12000    1.2238628   -6.9568415 7.667728e-31 5.3248109e-33 8.3333333e+20            2 
   13000    1.2887371   -7.0007648   0.50431979  0.003232819  0.041676988            4 
   14000    1.2688173   -6.9768163   0.95377707 0.0056772443  0.039562005            1 
   15000     1.241644    -6.987688    1.3829309 0.0076829491  0.037966876            1 
   16000    1.2303347   -7.0111716    1.8352531 0.0095586095  0.037165536            2 
   17000     1.256214       -6.966    2.2693301  0.011124167  0.037337447            1 
   18000    1.2510134   -7.0046308    2.6720266  0.012370493  0.036810647            1 
   19000    1.2638503   -6.9234432    3.1115738  0.013647253  0.036616533            2 
   20000    1.2342033   -6.9441066     3.568004  0.014866683   0.03637208            1 
   21000    1.2653129   -6.9982695    4.0128334  0.015923942   0.03637959            1 
   22000    1.2203398   -7.0447057    4.4038133  0.016681111  0.036378126            1 
   23000    1.2514862   -7.0309014    4.8775464  0.017672269  0.036275967            2 
   24000     1.227305   -6.9968922    5.3447219  0.018558062   0.03639741            1 
   25000    1.2360645    -7.041509    5.7681792  0.019227264  0.036408958            1 
   26000    1.2481079   -6.9752585    6.2967783  0.020181981   0.03659394            3 
   27000    1.2524487    -7.025199    6.7580675  0.020858233   0.03683942            1 
   28000    1.2243803   -7.0057085    7.2406165  0.021549454  0.037051083            1 
   29000    1.2625217    -7.047773    7.6468156  0.021973608  0.037187719            2 
   30000    1.2281812   -7.0134582    8.1411298  0.022614249  0.037298015            2 
   31000    1.2398335   -7.0023364    8.4767785  0.022787039  0.037305604            1 
   32000     1.232332   -6.9678958    9.0589881  0.023591114  0.037275061            3 
   33000    1.2610661   -6.9732079      9.49168  0.023968888  0.037344531            1 
   34000    1.2626703   -7.0243534     9.930512   0.02433949  0.037409737            1 
   35000    1.2242761   -6.9726199    10.441245  0.024860108  0.037475069            1 
   36000    1.2298114   -6.9819927    10.984114   0.02542619  0.037574752            2 
   37000    1.2653997   -6.9911191    11.515219  0.025935177   0.03771444            2 
   38000    1.2321062    -6.994823    12.039084    0.0264015  0.037875227            1 
   39000     1.242635   -6.9427953     12.52252   0.02675752  0.038036884            1 
   40000     1.242713   -7.0095195    12.914923   0.02690609  0.038146956            1 
   41000    1.2392966   -7.0026891    13.312554  0.027058035  0.038208573            2 
   42000    1.2160425   -7.0064698    13.716082  0.027214448  0.038227918            1 
   43000    1.2543328   -7.0061489    14.241837  0.027600459  0.038267801            2 
   44000    1.2566642   -7.0053676    14.695462  0.027832314  0.038304235            1 
   45000    1.2380083   -7.0252376    15.152349  0.028059906  0.038342329            1 
   46000    1.2562153   -7.0143077    15.502687  0.028084578  0.038334543            1 
   47000    1.2292936   -7.0506228    15.989101   0.02834947  0.038299577            2 
   48000    1.2370585   -7.0119791    16.419298  0.028505726  0.038293361            1 
   49000    1.2056057   -7.0208716    16.775112  0.028529101  0.038256385            2 
   50000    1.2590528   -7.0249327     17.10403  0.028506716  0.038170843            1 
   51000    1.2365293   -6.9658585    17.594196  0.028748686  0.038093643            1 
   52000    1.2160851   -6.9844074    17.992186  0.028833631  0.038020225            2 
   53000    1.2237781   -7.0110848    18.442471  0.028997595   0.03795755            1 
   54000    1.2282019   -7.0489804    18.917395  0.029193511  0.037900174            1 
   55000    1.2365022   -6.9808221    19.255344  0.029174764  0.037843855            1 
   56000    1.2298873   -7.0172029    19.688002  0.029297622  0.037778954            1 
   57000    1.2017171   -7.0364285    20.089116  0.029370053   0.03770934            1 
   58000     1.235011    -7.060981    20.421211   0.02934082  0.037637541            1 
   59000    1.1990914   -7.0289289    20.874928  0.029484361  0.037563256            1 
   60000    1.2200968   -7.0480813    21.352499  0.029656249  0.037492592            1 
   61000    1.2304905   -7.0286584    21.918627  0.029943479  0.037446694            1 
   62000    1.2325603   -7.0305138    22.400551  0.030108267  0.037420589            2 
   63000     1.207034   -7.0326202    22.690368  0.030013714  0.037394847            2 
   64000    1.2300249   -7.0614694    23.196766  0.030204122   0.03736234            2 
   65000    1.2235228   -7.0195307    23.677789  0.030356139  0.037340004            2 
   66000    1.2560493   -7.0046733    24.240293   0.03060643  0.037313603            1 
   67000    1.2149933   -7.0265462    24.578217  0.030569921  0.037288843            2 
   68000    1.2157897   -7.0485444    24.855706  0.030460423  0.037257415            2 
   69000    1.2425704   -7.0192219    25.252868  0.030498632  0.037216001            1 
   70000     1.223181   -7.0404756     25.69543  0.030589798  0.037172674            2 
   71000     1.251188   -7.0457858    26.102001  0.030636151  0.037126564            2 
   72000    1.1959799   -7.0637072    26.471356  0.030638143   0.03709084            1 
   73000    1.2563162   -7.0336021    27.160708  0.031005375  0.037063196            1 
   74000    1.2374063   -7.0408201    27.733585  0.031231514  0.037058636            2 
   75000    1.1826099   -7.0473511    28.119988  0.031244431  0.037059451            2 
   76000    1.2414972   -7.0453431    28.526447  0.031278999  0.037052918            1 
   77000     1.225782   -7.0111688    28.754907  0.031120029  0.037037568            2 
   78000    1.2190149    -7.071953    29.199021  0.031195535  0.037010273            2 
   79000    1.2001533   -7.0384449    29.676175  0.031303982  0.036978891            1 
   80000    1.2300614   -6.9956262     30.11466  0.031369437  0.036950511            2 
   81000    1.2321536   -7.0510463    30.563221  0.031443643  0.036927274            1 
   82000    1.2359676   -7.0250657     30.96285   0.03146631  0.036905583            1 
   83000    1.2126507   -7.0318009    31.567924  0.031694703  0.036889524            2 
   84000     1.224359    -7.045054    31.959358  0.031705712  0.036886529            1 
   85000    1.1986573   -7.0630164    32.365917  0.031731291  0.036878233            1 
   86000    1.2407918   -7.0850187    32.851481  0.031832831  0.036864276            2 
   87000    1.2196416   -7.0586714    33.104758  0.031709538  0.036852409            1 
   88000    1.2067945   -7.0297203    33.829887  0.032035877  0.036844294            2 
   89000    1.2159468   -7.0551154    34.203478  0.032025728   0.03684154            2 
   90000    1.1914642   -7.0735543    34.506739  0.031950684  0.036830887            2 
   91000    1.1989055    -7.021202    35.198255  0.032232834  0.036825133            1 
   92000     1.237692   -7.0489947    35.638904  0.032281616  0.036826335            1 
   93000    1.2152737   -7.0359531    36.280773  0.032509653  0.036834289            1 
   94000    1.2337173   -7.0296454    36.691463  0.032527893  0.036852175            2 
   95000    1.1976538   -7.0701474    36.912115  0.032379048  0.036864811            2 
   96000    1.2109027   -7.0478861     37.53019   0.03257829  0.036868891            1 
   97000     1.240905   -7.0440191    38.126841  0.032755018  0.036886593            1 
   98000    1.2000441   -7.0526579    38.439045  0.032686262  0.036901578            3 
   99000    1.2173262    -7.016108      38.6703  0.032550758  0.036906211            2 
  100000    1.1915976   -7.0173992    39.210465  0.032675387  0.036904195            2 
  101000    1.2273582    -7.052539    39.518854  0.032606315  0.036902112            1 
  102000    1.2131747   -7.0471005    39.930536  0.032622987  0.036894242            1 
  103000    1.2166964   -7.1087191    40.150164  0.032483951  0.036879514            1 
  104000    1.2169625   -7.0223322    40.534374  0.032479466  0.036855061            1 
  105000    1.2093269   -7.0579747     40.93905   0.03249131   0.03682998            2 
  106000    1.2153954   -7.0787549    41.365233  0.032519837  0.036810956            1 
  107000    1.2089668   -7.0448538    41.642062  0.032431512  0.036790836            1 
  108000    1.2010433   -7.1073878    41.751195  0.032215428  0.036750986            2 
  109000    1.2237837   -7.0432328    42.160118  0.032232506   0.03670701            1 
  110000     1.190156   -7.0467431    42.580257   0.03225777   0.03666265            1 
  111000    1.2205311   -7.0688901     42.98216  0.032268889  0.036618904            2 
  112000     1.222072   -7.1035011    43.295606  0.032213992  0.036575007            1 
  113000    1.2045125   -7.0682716    43.792523  0.032295371  0.036530786            3 
  114000    1.2004151   -7.1235111    44.172651   0.03228995  0.036489973            2 
  115000    1.1938507   -7.0799933    44.488433  0.032237995  0.036449806            2 
  116000    1.2136479   -7.0753336    45.166306  0.032447059   0.03641225            3 
  117000    1.2344004   -7.0680852    45.490786  0.032400845  0.036378845            1 
  118000     1.216772   -7.0504387    45.894457  0.032411339   0.03634742            2 
  119000    1.1870253   -7.0645751    46.293144  0.032418168  0.036316004            1 
  120000    1.2125474   -7.0348266    46.829199  0.032520277  0.036282208            1 
  121000    1.2151426    -7.079337    46.725881  0.032180359  0.036243364            2 
  122000    1.2226424   -7.1148001    47.237816  0.032266268  0.036205006            1 
  123000     1.193985   -7.0745516    47.748866   0.03235018  0.036165662            2 
  124000    1.1834245   -7.0666718    47.923642  0.032206749  0.036125892            1 
  125000    1.2110131   -7.0913627    48.488218  0.032325478  0.036085504            2 
  126000    1.2051196   -7.0479718    48.708275  0.032214467  0.036040099            1 
  127000    1.1647662   -7.0598051    49.237392     0.032308   0.03600147            1 
  128000     1.189276   -7.0979709    49.668617  0.032336339   0.03596663            2 
  129000    1.1903812   -7.1075862    49.971523  0.032281346  0.035932774            1 
  130000    1.2046931   -7.1044269    50.881011  0.032616033  0.035907983            2 
  131000    1.2114309    -7.113386    51.400544  0.032697547  0.035889348            2 
  132000    1.2032968   -7.1108741    52.004692  0.032831245  0.035879963            2 
  133000    1.1963759   -7.0920462    52.710357  0.033026539  0.035871165            2 
  134000    1.1903341   -7.0903439    52.973364  0.032943634  0.035863254            2 
  135000    1.1872991   -7.0518282    53.356096  0.032935862  0.035854696            2 
  136000    1.1995138   -7.1079254    53.507184  0.032786265  0.035844831            1 
  137000    1.2094849   -7.0829526    54.132353  0.032927222  0.035832581            1 
  138000    1.2089628   -7.0607796    54.177634  0.032715962  0.035816359            2 
  139000    1.2162615   -7.1097645    54.394007  0.032610316  0.035798424            3 
  140000    1.1932929   -7.0806781    54.962245  0.032715622  0.035775743            2 
  141000     1.202178   -7.1405266    55.218928    0.0326353  0.035754669            2 
  142000    1.1848533       -7.026    56.168156  0.032962533  0.035739154            1 
  143000     1.214067   -7.1043963    56.160343  0.032727473  0.035726189            2 
  144000     1.182721   -7.1080103    56.726243  0.032827687  0.035706609            1 
  145000     1.215521   -7.1095358    57.021994  0.032771261  0.035685458            3 
  146000    1.1842772   -7.0669679     57.30056  0.032705799  0.035665764            2 
  147000    1.1784892   -7.1365597    57.644369  0.032678214  0.035644553            1 
  148000    1.1954081   -7.0958539     58.14155  0.032737359  0.035625813            1 
  149000     1.226239   -7.0727033    58.824198   0.03289944  0.035610032            1 
  150000    1.1936289   -7.1155906    59.105921  0.032836622   0.03559219            2 
  151000    1.1917677     -7.13443    59.526533  0.032851288  0.035574554            6 
  152000    1.1893828   -7.1082507    59.517098  0.032629988  0.035554359       -1e+20 
  153000    1.1921306   -7.1143358    60.110072   0.03273969  0.035537088            2 
  154000    1.1929842   -7.1332913    60.580826  0.032781832  0.035515808            2 
  155000    1.1902598   -7.1220258    60.814782  0.032696119  0.035496884            1 
  156000    1.1866879   -7.1327757    61.456295  0.032829217  0.035477341            1 
  157000    1.2112757   -7.0783171    61.728517  0.032764605  0.035460981            1 
  158000    1.1872079   -7.0670556    62.474576  0.032950725  0.035446916            2 
  159000    1.1613521   -7.1245184    62.942869  0.032988925  0.035433706            1 
  160000    1.1946454   -7.1049681    63.324299  0.032981406  0.035421783            3 
  161000    1.1667662   -7.0946249     63.42727   0.03282985  0.035405264            1 
  162000    1.2036674   -7.1012638    63.780908  0.032809109  0.035388712            1 
  163000    1.1801284    -7.123835    64.025141  0.032732689  0.035371167            1 
  164000    1.1810438   -7.1453165    64.252862  0.032648812  0.035351785            2 
  165000    1.1931496   -7.1508162    64.930983  0.032793426  0.035334007            2 
  166000    1.1866123   -7.0767805    65.256745   0.03275941  0.035314258            2 
  167000    1.1913674   -7.1401229    65.488118  0.032678702  0.035291593            2 
  168000     1.176652   -7.1297102    65.972953  0.032724679  0.035266319            2 
  169000    1.1912495   -7.1297006    66.150898  0.032618786  0.035242489            1 
  170000    1.1983952   -7.0513353    66.642353   0.03266782  0.035220286            1 
  171000    1.1800525   -7.1368159    67.369871  0.032831321  0.035202974            1 
  172000    1.1924961   -7.1540043    67.676857  0.032789175  0.035185583            1 
  173000    1.2061262   -7.0895563    68.152906  0.032828953   0.03516785            2 
  174000    1.1811893   -7.1161459    68.583288  0.032846402  0.035152255            2 
  175000    1.1777257   -7.1444968    68.938089  0.032827661  0.035137949            1 
  176000    1.1883917   -7.1339204    69.196714  0.032763596  0.035123269            3 
  177000     1.134753   -7.1160045    69.603091  0.032769817  0.035106646            1 
  178000    1.1816463   -7.1230751    69.979444  0.032761912  0.035089016            6 
  179000    1.1774836   -7.1014417     70.39238  0.032771127  0.035069259            1 
  180000    1.1424262   -7.1155789    70.692826   0.03272816  0.035050471            2 
  181000    1.1947896   -7.1339229     71.29448  0.032824346  0.035032951            1 
  182000    1.1765957   -7.1527493    71.297967  0.032645589  0.035013832            1 
  183000    1.1673234   -7.1026237    72.354849  0.032948474  0.034998457            2 
  184000    1.1812291   -7.1058124    72.429424  0.032803181  0.034985624            1 
  185000    1.1805912   -7.1224916    72.921858  0.032847684  0.034973238            1 
  186000    1.1851804   -7.0833593    73.648176  0.032996495  0.034962259            1 
  187000    1.1665869   -7.1282504    73.683611  0.032835834  0.034948727            2 
  188000    1.1534295   -7.0720313    74.309001  0.032938387  0.034934453            3 
  189000    1.1929735   -7.0999878    74.466488  0.032833548  0.034922062            1 
  190000    1.1753266   -7.1528223    74.413574  0.032637532  0.034904708            2 
  191000    1.1712539   -7.1233329     74.79855   0.03263462  0.034886278            1 
  192000    1.1847316   -7.1369942    75.157611  0.032620491  0.034868256            1 
  193000    1.1919439   -7.1485088    75.385147  0.032549718  0.034848573            1 
  194000    1.1563699   -7.1568601    75.869774  0.032590109  0.034828551            2 
  195000    1.1845697    -7.159865     76.43043  0.032662577  0.034808904            3 
  196000    1.1904074    -7.117237    76.739345  0.032627272  0.034788947            2 
  197000    1.1630544   -7.1142558    77.063815  0.032598907  0.034769047            2 
  198000    1.1479904   -7.1408395    77.286988  0.032528194  0.034748634            1 
  199000    1.1924502   -7.1299626    77.956421  0.032645067   0.03472821            2 
  200000    1.1869011    -7.142179    78.283819  0.032618258     0.034709            3 
  201000    1.1644047   -7.1491101    78.248487  0.032441329  0.034688366            2 
  202000    1.1695317   -7.1441864    78.848565  0.032528286  0.034665905            1 
  203000    1.1830381   -7.1463457    79.212936  0.032517626  0.034644172            2 
  204000    1.1558931   -7.0950318    79.793702  0.032595466  0.034625301            4 
  205000    1.1818889   -7.1505581    80.149358   0.03258104  0.034608436            2 
  206000    1.1570428   -7.1831626    80.573716  0.032594545   0.03459063            1 
  207000    1.1638038   -7.1442701    81.155519  0.032671304  0.034573423            1 
  208000    1.1554548   -7.2226692    81.395055  0.032610198  0.034557443            3 
  209000    1.1961935   -7.1820946    82.101758  0.032735948  0.034542789            3 
  210000    1.1755052   -7.1640373    82.195777  0.032617372  0.034526791            1 
  211000    1.1840236   -7.1382336    82.547064  0.032601526  0.034510069            1 
  212000    1.1538048    -7.156139    82.976815  0.032616673  0.034495314            3 
  213000    1.1729936   -7.1497793    83.194687  0.032548782  0.034479355            2 
  214000     1.151286   -7.1469522    83.988177  0.032705677  0.034464654            3 
  215000    1.1527955   -7.1193585    84.258283  0.032658249  0.034448747            1 
  216000    1.1855677   -7.1563073    84.376183   0.03255254  0.034433216            2 
  217000    1.1513854   -7.1545964    84.892346  0.032600747  0.034415964            1 
  218000    1.1555938   -7.1268012    85.219898  0.032576414  0.034399046            2 
  219000    1.1729443   -7.1711052    85.649548  0.032591152  0.034383258            1 
  220000    1.1618506   -7.1341087    85.894834  0.032535922  0.034367651            1 
  221000     1.176217   -7.1628461    86.063335  0.032452238   0.03434977            1 
  222000    1.1587123   -7.1598082    86.312777  0.032399691  0.034330069            4 
  223000    1.1360182   -7.1442232    86.849371  0.032454922  0.034310191            1 
  224000    1.1582715   -7.1425147      87.2908  0.032474256  0.034291447            1 
  225000    1.1789324   -7.1538451    87.388662  0.032366171  0.034270028            3 
  226000    1.1510544   -7.1541372    87.846352  0.032391723  0.034248477            1 
  227000     1.158538   -7.1481358    87.771173  0.032221429  0.034225692            2 
  228000    1.1789408   -7.1313422    88.308921  0.032276652  0.034202764            2 
  229000    1.1800613   -7.1511399    88.870381  0.032340022  0.034181334            4 
  230000    1.1750785   -7.1864845    89.314458  0.032360311  0.034160908            2 
  231000    1.1877501   -7.1900247     89.52493  0.032296151  0.034141393            2 
  232000    1.1626309   -7.2091521    89.934364   0.03230401  0.034120606            1 
  233000    1.1617753   -7.1426456    90.649931  0.032421291  0.034099969            1 
  234000    1.1527185   -7.1572295    90.958579  0.032392656  0.034082157            3 
  235000    1.1695086   -7.1592082    91.337057  0.032389027  0.034064158            1 
  236000    1.1665645   -7.1229667     92.11476  0.032526398  0.034048668            1 
  237000    1.1554186   -7.1578541    92.006145  0.032350965   0.03403189            1 
  238000     1.155366   -7.1931845    92.132179  0.032259166   0.03401132            2 
  239000     1.168819    -7.152713    92.565815  0.032275389  0.033991296            1 
  240000    1.1588838   -7.1769116     92.14889  0.031996142  0.033968619            1 
  241000     1.153213   -7.1735379    92.731414  0.032064804  0.033944264            1 
  242000    1.1459184   -7.1712897      93.3741  0.032153616   0.03392179            1 
  243000    1.1576788   -7.2269152    93.166932  0.031950251  0.033899956            1 
  244000    1.1343077   -7.1861774      94.1425  0.032152493   0.03387802            1 
  245000    1.1548886   -7.1732178     94.40329  0.032109963  0.033857593            2 
  246000    1.1736384   -7.1761985    94.477628  0.032004616  0.033836339            2 
  247000    1.1528445   -7.2128789    94.717454  0.031955956  0.033813541            2 
  248000    1.1689055   -7.1856717     94.77237  0.031845554  0.033789238            1 
  249000    1.1478164   -7.1585479    95.362204  0.031915062  0.033762483            1 
  250000    1.1476809   -7.1838627    95.357771  0.031785924  0.033736055            1 
  251000    1.1841699   -7.2103124    95.665714  0.031761525  0.033710446            1 
  252000    1.1501504   -7.1487416    96.721495  0.031984621  0.033685549            1 
  253000      1.13381   -7.1902216    96.293992  0.031717389   0.03366002            1 
  254000    1.1328999   -7.1847459    96.899013  0.031791015  0.033633141            2 
  255000     1.144396   -7.1798387    97.186387  0.031760257   0.03360573            1 
  256000    1.1433082   -7.1832508    97.333434   0.03168406  0.033578521            1 
  257000    1.1698045   -7.2064222    97.849419  0.031728086  0.033551425            2 
  258000    1.1393897   -7.1673865    98.460156  0.031802376  0.033526383            1 
  259000     1.143073   -7.1882029    98.493039  0.031690167  0.033501392            2 
  260000    1.1506661   -7.1793971    99.048386  0.031746278   0.03347621            1 
  261000    1.1612498   -7.1910812    99.054483  0.031626591   0.03344952            1 
  262000    1.1644039    -7.164726    99.810731  0.031746416   0.03342508            5 
  263000    1.1421648   -7.1317696    100.29678  0.031779716  0.033402454            2 
  264000    1.1550889   -7.1889066    100.83107  0.031827989  0.033378928            1 
  265000    1.1621244   -7.1606948    101.27413  0.031847209  0.033356802            1 
  266000    1.1278591   -7.1978392    100.90485  0.031611796  0.033334344            1 
  267000     1.148817   -7.1681847    101.49423  0.031677349  0.033310849            1 
  268000    1.1471566   -7.1648991    102.15206    0.0317637  0.033289581            2 
  269000    1.1464798   -7.2044807    102.37181  0.031713696   0.03326904            1 
  270000    1.1374796   -7.2454716    102.37063  0.031595875  0.033248239            1 
  271000    1.1635805   -7.2188852    103.15191  0.031719529  0.033226381            1 
  272000    1.1381641   -7.1820617     103.5587  0.031727543  0.033205124            1 
  273000    1.1182584   -7.2199235    103.97505  0.031738416  0.033184222            1 
  274000    1.1509762   -7.1948258    104.31191  0.031725034  0.033164603            2 
  275000    1.1154376   -7.1953453    104.47451  0.031658943  0.033143275            1 
  276000    1.1268151   -7.2078628    104.33558  0.031502288  0.033120176            1 
  277000    1.1265434   -7.2230379    104.86428  0.031547617  0.033096686            1 
  278000    1.1675789   -7.2007773    105.22966  0.031543664  0.033073459            1 
  279000    1.1352039   -7.2428705     105.1472  0.031405973  0.033048346            1 
  280000    1.1716418   -7.1948467    105.62609  0.031436337  0.033023209            2 
  281000    1.1529637   -7.2112248    106.15395  0.031481007  0.032998321            1 
  282000    1.1070345    -7.215137    106.35767  0.031429571  0.032974396            1 
  283000     1.145512   -7.2367293     106.8738  0.031470496  0.032950491            3 
  284000    1.1491361   -7.2147615    107.10244  0.031426774  0.032925866            1 
  285000    1.1439784   -7.1748607    107.60997  0.031464903  0.032902782            2 
  286000    1.1360672   -7.1987221    107.84564  0.031423553  0.032879821            2 
  287000     1.154964   -7.2108847     107.9829  0.031353921  0.032856659            3 
  288000    1.1271713   -7.2327069    108.44118  0.031377657  0.032833741            1 
  289000    1.1315073   -7.2357878    108.54707  0.031299617  0.032810459            3 
  290000    1.1406966   -7.1847376    109.32653  0.031415669  0.032788571            2 
  291000     1.154669    -7.214162    109.56534    0.0313761  0.032766492            3 
  292000    1.1375835    -7.220945    109.32432  0.031199862  0.032742876            1 
  293000    1.1522401   -7.2478827    109.96927  0.031276812  0.032719905            2 
  294000    1.1641095   -7.2293921     109.9778  0.031172846  0.032695256            1 
  295000    1.1369543   -7.2370558    110.23363  0.031139443  0.032671559            1 
  296000    1.1484189   -7.2319641    110.52832  0.031117208  0.032647071            1 
  297000    1.1394515   -7.2165337    111.04429  0.031157209  0.032623579            2 
  298000     1.153939   -7.2434217    111.20298   0.03109703  0.032599087            2 
  299000    1.1266564    -7.221555    111.99044  0.031212497  0.032575436            2 
  300000    1.1485527    -7.227281    111.59097  0.030997492  0.032551645            2 
  301000    1.1527632    -7.219363     112.1045  0.031036683   0.03252695            2 
  302000    1.1385225    -7.228847    112.74644  0.031111048  0.032503023            1 
  303000    1.1179549   -7.1986696    113.30434   0.03116181  0.032479532            3 
  304000    1.1440815     -7.27775      113.222  0.031036732  0.032456058            1 
  305000    1.1103048   -7.2780606    113.73096  0.031074033  0.032432615            1 
  306000    1.1075903   -7.2379101    113.95386  0.031033187  0.032409575            2 
  307000    1.1247691   -7.2248698     114.3628  0.031043105   0.03238841            1 
  308000    1.1290571   -7.2290395    114.48328  0.030974912  0.032366224            1 
  309000    1.1037539   -7.2374993    115.06368  0.031031197  0.032344992            2 
  310000    1.1147275   -7.2113624     115.8318  0.031137582  0.032324402            1 
  311000    1.1235072   -7.2137678    116.52137  0.031222231  0.032304148            2 
  312000    1.1171283   -7.1741672    116.73883  0.031180244  0.032284345            2 
  313000    1.1417169   -7.2254869    116.63256  0.031052332  0.032264196            3 
  314000    1.1119592   -7.2454527    116.96941  0.031042838  0.032243613            1 
  315000    1.1393562   -7.2239094    117.69147  0.031135311  0.032223698            2 
  316000       1.1197   -7.2812312    117.48804  0.030983133  0.032204784            2 
  317000    1.1223734   -7.2714901    118.61236  0.031180956  0.032186365            1 
  318000    1.1296706   -7.2086724    118.72589  0.031112654  0.032168868            1 
  319000     1.109817   -7.2544487    119.37491  0.031184667  0.032150999            1 
  320000    1.1341802    -7.247602    118.96201  0.030979689  0.032133662            1 
  321000     1.122993   -7.2665059    119.65214  0.031062341  0.032115619            3 
  322000    1.1288559   -7.2540685    120.51099  0.031188146  0.032099183            6 
  323000    1.1369722   -7.2269372    120.66144  0.031130403  0.032083195            2 
  324000    1.1237647   -7.2269647    120.98703  0.031118062  0.032066985            2 
  325000    1.1050055   -7.2236575    121.65337  0.031193171  0.032051758            1 
  326000    1.1447917   -7.2669837    121.48743   0.03105507  0.032035615            2 
  327000    1.1185256   -7.2806223    122.01123  0.031093585   0.03201993            3 
  328000    1.1296117   -7.3102505    121.95358  0.030984142  0.032003651            3 
  329000     1.134542   -7.2648586    122.55184    0.0310415  0.031987856            1 
  330000    1.1144244   -7.2321943    123.08522  0.031082125  0.031971545            2 
  331000      1.11842   -7.2624357    123.16384  0.031008015  0.031954741            3 
  332000    1.1366265   -7.2677864    123.00194  0.030873981  0.031936513            2 
  333000    1.1476155   -7.2568641    123.18449   0.03082695   0.03191693            2 
  334000    1.0979091   -7.2679821    122.93223  0.030671714  0.031896312            1 
  335000    1.1124353   -7.2717698    123.60503  0.030747519  0.031875463            1 
  336000    1.1276876   -7.2670872    123.98533  0.030750331  0.031855334            2 
  337000    1.1140658   -7.2418337    124.48355  0.030782282  0.031835487            3 
  338000    1.1396683   -7.3174239    124.32881  0.030653059  0.031815141            2 
  339000    1.1163323   -7.2383993    124.91197  0.030705991  0.031794817            1 
  340000    1.1082644   -7.2992292    125.22832  0.030693216  0.031775869            1 
  341000    1.1372474   -7.2447277    125.60746   0.03069586  0.031756767            2 
  342000    1.0994244   -7.2557279    125.72324  0.030634319  0.031737253            3 
  343000    1.1169767   -7.2785196    126.07679  0.030630902  0.031717431            3 
  344000    1.1439904   -7.2959296    126.55489  0.030657678    0.0316969            1 
  345000    1.1161663    -7.266801     126.6119  0.030582584   0.03167675            1 
  346000     1.121807   -7.2327636    127.75863  0.030770383  0.031657149            1 
  347000      1.12261   -7.2957344    127.77394  0.030685384  0.031638393            1 
  348000    1.1024194   -7.2286511    128.37949  0.030742216  0.031620438            1 
  349000    1.1321266   -7.2262761     128.9409   0.03078818   0.03160379            2 
  350000    1.1124105   -7.3205507    128.34249  0.030557735  0.031586242            2 
  351000    1.1183246   -7.2582169    128.79756  0.030578719  0.031567996            3 
  352000    1.1368342   -7.3002463    129.14131  0.030573227  0.031550434            3 
  353000    1.1320029   -7.2985335    129.26567  0.030515976  0.031532345            1 
  354000    1.1396428   -7.3140808    129.33773  0.030446735  0.031513746            1 
  355000    1.1195506   -7.2885602    129.70202  0.030446483  0.031495011            1 
  356000    1.1124082   -7.3053231    129.89988  0.030407276  0.031476059            1 
  357000    1.1276147   -7.3127652    130.04647  0.030356319  0.031456676            3 
  358000    1.1233232   -7.2848514    130.22023  0.030311972  0.031436477            2 
  359000    1.0992782   -7.3254324    130.29363  0.030244576   0.03141492            2 
  360000    1.1309423   -7.3328197    130.73311  0.030262295  0.031393566            1 
  361000    1.1174686   -7.2533257    131.16956  0.030279215  0.031372292            1 
  362000    1.0864456   -7.3176852    131.15132  0.030191372  0.031350487            1 
  363000    1.1256398   -7.2477746    131.96384  0.030294729   0.03132933            2 
  364000     1.110502   -7.2754748    132.00674  0.030221323  0.031308639            2 
  365000    1.1253253   -7.2975318    132.55562  0.030263841  0.031287504            1 
  366000    1.1219961   -7.3114954    132.46226  0.030159895  0.031266404            2 
  367000     1.109089   -7.3005185    133.67184  0.030352371  0.031246619            2 
  368000      1.13751   -7.3025289    133.01498  0.030121146  0.031226639            1 
  369000     1.098102   -7.2691641    134.02442  0.030267485  0.031207052            1 
  370000     1.129261   -7.2851159    134.45544  0.030282756   0.03118795            1 
  371000    1.1071887   -7.2987527    134.66029  0.030247145  0.031169464            3 
  372000    1.1152061   -7.2753329    135.70209  0.030399214  0.031151276            3 
  373000    1.1086727   -7.2729129     135.4423  0.030259674  0.031133977            3 
  374000    1.1182451   -7.2778116     136.0751  0.030319764  0.031116659            1 
  375000    1.1015242   -7.2651732    137.08661  0.030463691   0.03110035            1 
  376000    1.0993518   -7.3076165    137.04959  0.030374465  0.031084419            4 
  377000     1.138191   -7.2632947    137.61716  0.030419354  0.031069274            2 
  378000    1.1004846   -7.3773623    136.89684  0.030180079  0.031052845            1 
  379000    1.1073569    -7.304075    137.97647  0.030337835  0.031035843            1 
  380000    1.1064723   -7.2987354    137.90811  0.030243006  0.031019768            1 
  381000    1.0818266    -7.292036    138.31961  0.030253634  0.031003754            2 
  382000     1.109398    -7.311748    138.73167  0.030264325  0.030987227            1 
  383000    1.0919961   -7.3144609     138.8368  0.030208181  0.030970437            1 
  384000    1.1030111   -7.3314208    139.08513  0.030183404  0.030953554            1 
  385000    1.1160763   -7.3581978     139.4139  0.030176168  0.030936439            1 
  386000    1.0913326   -7.2887881    139.49357  0.030115192  0.030919879            2 
  387000    1.1027344   -7.3272315    140.10313  0.030168633  0.030903545            2 
  388000    1.1022769   -7.2958737     140.6072  0.030199141  0.030887521            3 
  389000    1.1123484   -7.2933699    141.04183  0.030214617  0.030871779            2 
  390000    1.0931513   -7.3080416    141.00224  0.030128683  0.030856396            1 
  391000    1.0907879   -7.2928628    141.71396  0.030203316  0.030840771            3 
  392000    1.1282054   -7.2975976    141.97872  0.030182551  0.030825279            1 
  393000    1.1025725   -7.2828241    141.82884   0.03007397  0.030810613            1 
  394000    1.0928546    -7.315026    142.50622   0.03014091  0.030795201            3 
  395000    1.0694922   -7.3164097    142.64576  0.030094042  0.030779121            2 
  396000    1.0952378   -7.2967764    143.36201  0.030168772  0.030763447            3 
  397000    1.1081093   -7.3022645    142.89514  0.029994782  0.030747778            1 
  398000     1.106731   -7.3056209    143.15738  0.029974325  0.030731756            2 
  399000     1.078488   -7.3156216     143.3369  0.029936695  0.030714803            1 
  400000    1.0956445   -7.3179926    143.64389  0.029925811  0.030697042            1 
  401000    1.0767575   -7.3240951    143.84274  0.029892506  0.030679883            2 
  402000    1.0673888   -7.3067372     144.4258  0.029939013  0.030662735            2 
  403000    1.0760147    -7.333696    144.84966   0.02995237  0.030645912            1 
  404000    1.0708874     -7.30575    144.63316  0.029833573  0.030628808            1 
  405000    1.0871389   -7.3244219     144.6779  0.029769114  0.030610696            1 
  406000    1.0848477   -7.3580768    144.61242  0.029682353  0.030591904            2 
  407000    1.0672359   -7.2777375    145.38313  0.029767225  0.030573118            2 
  408000    1.0859208    -7.354813    144.96967  0.029609819  0.030554846            1 
  409000    1.1192561   -7.3515242     145.3957  0.029624226  0.030535779            2 
  410000    1.0996431   -7.3311772    146.53837  0.029784221  0.030517834            1 
  411000    1.0951349   -7.3307557    147.22971  0.029851929   0.03050075            3 
  412000    1.0907431   -7.3196958    147.00988  0.029735008  0.030483395            2 
  413000    1.0665305   -7.3519284    147.01425  0.029663892  0.030465738            3 
  414000    1.0733348   -7.3785478     146.5624  0.029501289  0.030447342            2 
  415000    1.1072084    -7.338512    147.02348  0.029522786   0.03042834            1 
  416000    1.0895969   -7.3164427    147.68726  0.029584787   0.03040937            2 
  417000     1.077257   -7.3491885     147.6539  0.029507174   0.03039059            1 
  418000    1.0987109   -7.3455855    148.05868  0.029517281  0.030371868            4 
  419000    1.0787303   -7.3229039    148.08674  0.029452415  0.030353228            3 
  420000    1.0645607   -7.3184498    148.99762   0.02956302  0.030334682            2 
  421000    1.0724361   -7.3134709     149.0823   0.02950956  0.030315976            2 
  422000    1.1212928   -7.3542825    149.16353  0.029455673   0.03029722            1 
  423000    1.0853041   -7.2961753    149.90167  0.029531456  0.030278653            1 
  424000    1.0882877   -7.3025333    149.77836  0.029437571  0.030259886            2 
  425000    1.0962032   -7.3359909    150.23906  0.029458639  0.030241144            3 
  426000    1.0924149   -7.3480756    150.05824  0.029354115  0.030222948            2 
  427000    1.0794914   -7.3756632    150.29304  0.029331194  0.030203644            2 
  428000    1.0765354   -7.3227961    150.93596  0.029387843  0.030185068            4 
  429000    1.0909899   -7.3650451    151.34554  0.029398901  0.030166672            1 
  430000    1.1018607   -7.3436603    151.54595   0.02936937  0.030147894       -1e+20 
  431000    1.0762302   -7.3498079    151.64896  0.029321145  0.030129399            3 
  432000    1.0716924   -7.3560019    151.81607  0.029285508  0.030110652            2 
  433000    1.0995748   -7.3359867    152.27756  0.029306691   0.03009158            1 
  434000    1.1009428   -7.3616812     151.8809  0.029162999  0.030072046            3 
  435000    1.0842286   -7.4008724    152.28502  0.029173376  0.030051656            1 
  436000    1.0976643   -7.3869854     151.8425  0.029021884  0.030031235            1 
  437000     1.069323   -7.3556721    153.03297  0.029182489   0.03001137            3 
  438000    1.0661854   -7.3314158    153.36225   0.02917851  0.029991639            1 
  439000    1.0901749    -7.334759    153.39521  0.029118302  0.029972165            1 
  440000    1.0844028    -7.389617    153.39735  0.029052528  0.029951982            1 
  441000    1.0754073   -7.3849159    153.38127   0.02898361  0.029930683            1 
  442000    1.0773818   -7.3422699    153.59218  0.028957801  0.029909422            2 
  443000    1.0486142   -7.3654641     154.1349  0.028994526  0.029888504            2 
  444000    1.0754767   -7.3823242    153.72521  0.028852329  0.029866981            1 
  445000    1.0793994   -7.3643203    154.44154  0.028921636  0.029845984            2 
  446000    1.0570974   -7.3549175    155.03117   0.02896696  0.029824445            3 
  447000      1.06902    -7.329602    155.42894  0.028976313  0.029803137            2 
  448000    1.0842135   -7.3575948    155.35237  0.028897391  0.029782218            1 
  449000    1.0907793   -7.3536072    155.45207  0.028851535  0.029761285            5 
  450000    1.0631922   -7.3176801    155.90253  0.028870838  0.029740086            4 
  451000    1.0538777   -7.4132514    155.92073  0.028810186  0.029719069            1 
  452000    1.0587429   -7.3586452    156.19689  0.028797362  0.029697626            1 
  453000    1.0864742   -7.3812682    156.56208  0.028800971  0.029676299            1 
  454000    1.0512526   -7.3753316     157.1532  0.028846035  0.029655881            3 
  455000    1.0834043   -7.2965961    157.57962  0.028860737  0.029635403            3 
  456000     1.094167   -7.3276507     157.7255  0.028824105  0.029615017            5 
  457000    1.0884902   -7.3770179    157.93984  0.028800116  0.029594838            2 
  458000    1.0647967   -7.3804835    157.87509  0.028725453  0.029574841            1 
  459000    1.0890366   -7.3660811    158.78856  0.028828715  0.029555265            1 
  460000    1.0651362   -7.3357549    158.69657  0.028749379  0.029535756            2 
  461000    1.0492645    -7.368573    158.98206  0.028738623  0.029516074            1 
  462000    1.0362181   -7.3555406    159.70023  0.028805957  0.029496349            2 
  463000    1.0768709   -7.3708371    159.72025  0.028747345  0.029477159            1 
  464000    1.0877668    -7.386026    160.10832  0.028755087  0.029458113            1 
  465000    1.0707502   -7.3545268    160.63903  0.028788357  0.029439182            2 
  466000    1.0455769   -7.3712756    160.67516   0.02873304   0.02942043            1 
  467000     1.060263   -7.3815339    160.86888  0.028706081  0.029401084            1 
  468000    1.0831566   -7.4359904    161.00368  0.028668747  0.029382438            1 
  469000    1.0556538   -7.3786922    161.56236  0.028706888  0.029364615            3 
  470000    1.0740954   -7.3854125    161.85516  0.028697723  0.029346237            1 
  471000    1.0816408   -7.3549964    162.13974  0.028687144  0.029327805            5 
  472000    1.0601373   -7.3780255    162.18274  0.028633958  0.029309755            1 
  473000    1.0466613    -7.401884     162.5856  0.028644398  0.029291782            1 
  474000    1.0654984   -7.3987332    162.77181  0.028616704  0.029273598            1 
  475000    1.0609318   -7.4077467    162.87558  0.028574663  0.029255244            1 
  476000    1.0693909   -7.3942913    163.43779  0.028613058  0.029236816            1 
  477000    1.0536675   -7.3634891    164.00311  0.028651836   0.02921837            3 
  478000    1.0656626   -7.3994818    164.06076  0.028601945  0.029200513            3 
  479000    1.0750646   -7.4000113    164.44752   0.02860952  0.029182801            7 
  480000    1.0703469   -7.4015053    164.71681  0.028596668  0.029165185            2 
  481000    1.0659303   -7.3883225    164.74229   0.02854163  0.029147705            2 
  482000    1.0645128   -7.4091373    164.81516  0.028495014  0.029131052            2 
  483000     1.065889   -7.4247165    165.64918  0.028579913  0.029114297            3 
  484000    1.0627761   -7.3908416     166.0194  0.028584607  0.029097652            2 
  485000    1.0511223   -7.3802464    166.88591  0.028674554  0.029081359            2 
  486000    1.0611636   -7.4089564    166.73358  0.028589435  0.029065653            2 
  487000    1.0499898   -7.4128699     167.0878  0.028591341  0.029049972            2 
  488000     1.046383   -7.3791295    167.36548   0.02858017  0.029033771            4 
  489000    1.0681123   -7.4326715    167.54001  0.028551467  0.029017313            2 
  490000    1.0559529   -7.4013386    167.86031  0.028547671  0.029001364            1 
  491000    1.0721184   -7.3974836    168.61184  0.028617081  0.028985388            1 
  492000    1.0584875   -7.4385325    167.11686  0.028305701  0.028968486            2 
  493000    1.0720292   -7.4150328    168.02113  0.028401137  0.028950683            1 
  494000    1.0626487   -7.4210624    168.36047   0.02840089  0.028933274            1 
  495000    1.0600875   -7.3887343    168.46271  0.028360725  0.028915772            1 
  496000    1.0470567   -7.3872779    168.81395  0.028362558  0.028898305            1 
  497000    1.0553711   -7.3474116      169.115  0.028355969  0.028880329            1 
  498000    1.0367933   -7.4621576     168.5343  0.028201857  0.028861976            2 
  499000    1.0792022   -7.4048012    169.07067  0.028234915  0.028843588            1 
  500000    1.0508226    -7.439827    169.04723  0.028174539  0.028825244            2 
  501000    1.0547419   -7.3702608    169.88527  0.028257696  0.028806801            3 
  502000     1.058698   -7.4478592    169.04341  0.028061656  0.028788359            1 
  503000    1.0753196   -7.4390163    169.72993  0.028119604  0.028769269            2 
  504000    1.0628653   -7.4321383    169.61544  0.028044881  0.028749647            2 
  505000    1.0367818   -7.4426267    169.64879   0.02799485  0.028730218            2 
  506000    1.0644822   -7.4052914    170.33969  0.028053308  0.028710323            1 
  507000    1.0394839   -7.4752598    169.61866  0.027879465   0.02869073            1 
  508000    1.0544972   -7.4081026    170.85606  0.028027568  0.028671212            1 
  509000    1.0271416   -7.4450839    170.88453  0.027977166  0.028652004            1 
  510000    1.0454528   -7.4168637    170.90189  0.027925145   0.02863294            2 
  511000    1.0597636   -7.4554009    171.28216  0.027932511    0.0286138            1 
  512000    1.0530994   -7.3983841    171.74059   0.02795257  0.028594625            1 
  513000    1.0497113   -7.4595118    171.40702  0.027843895  0.028575336            1 
  514000    1.0483553   -7.4643254    171.59031  0.027819441  0.028555467            1 
  515000    1.0432816   -7.4031979    172.11438  0.027850223  0.028536257            2 
  516000    1.0585534   -7.4230094    172.69775  0.027890463  0.028516941            1 
  517000    1.0518367   -7.4456615    172.20996  0.027757891  0.028496891            2 
  518000    1.0558175   -7.4055575    172.79496  0.027798417  0.028476996            4 
  519000    1.0505952   -7.4312498    172.88909  0.027759969   0.02845707            2 
  520000    1.0606912   -7.4592354    172.96869  0.027719341  0.028437568            2 
  521000    1.0642461   -7.4001026    173.34541  0.027726394  0.028417589            3 
  522000    1.0488402   -7.3982924    173.50199  0.027698274  0.028397842            1 
  523000    1.0383256   -7.3886691    174.34337  0.027779377  0.028378064            2 
  524000    1.0446616   -7.4382162    173.50082   0.02759237  0.028358235            1 
  525000     1.049142   -7.4393302    174.00641  0.027620065  0.028337939            1 
  526000    1.0494381   -7.4321164    174.38586   0.02762767  0.028317915            1 
  527000    1.0440481   -7.4594612    174.47677  0.027589622  0.028298347            1 
  528000    1.0533519   -7.4509033    174.20722  0.027494827  0.028278518            2 
  529000    1.0466211   -7.4092911    175.20427  0.027599917  0.028258439            1 
  530000    1.0365169   -7.4303801    175.26711  0.027557722  0.028238373            3 
  531000    1.0444315   -7.4430941    175.43283  0.027531832  0.028218861            1 
  532000    1.0653445   -7.4390263     175.4724  0.027486278  0.028198595            2 
  533000    1.0223941   -7.4661009    175.49516  0.027438268   0.02817821            2 
  534000    1.0629345   -7.4547845    175.83195  0.027439443  0.028157849            2 
  535000    1.0382776   -7.4207154    175.67026  0.027362969  0.028137289            1 
  536000    1.0210498   -7.4463466    176.39563  0.027424694  0.028116839            2 
  537000    1.0287919    -7.399378    176.89011  0.027450359  0.028096344            1 
  538000    1.0345388   -7.4254167    176.59703  0.027353939   0.02807575            3 
  539000    1.0441105    -7.446735    177.20544  0.027397254  0.028054999            3 
  540000    1.0262626   -7.4704839    176.37724  0.027218709  0.028034339            1 
  541000    1.0358665     -7.46809     177.3138  0.027312661  0.028013682            1 
  542000    1.0214149    -7.441182    177.94448  0.027359238  0.027993693            2 
  543000    1.0308218   -7.4528785    178.00624   0.02731833  0.027974023            1 
  544000    1.0386981   -7.4650619     177.8743  0.027247901  0.027953687            1 
  545000     1.042513   -7.4748298    177.91488  0.027204111  0.027933526            1 
  546000    1.0369346   -7.4480801    178.68724  0.027272167   0.02791318            3 
  547000    1.0309354   -7.4568416    178.55205  0.027201714  0.027892824            1 
  548000    1.0397688   -7.4460129    178.48927   0.02714253  0.027872428            1 
  549000    1.0297033   -7.4752604     178.8459  0.027147221  0.027852091            1 
  550000    1.0250514   -7.4735978    179.01133  0.027122929  0.027831769            2 
  551000    1.0012296   -7.4561558    179.26621  0.027112252  0.027811535            2 
  552000    1.0494923    -7.431713    179.57342  0.027109514  0.027791119            2 
  553000    1.0043593   -7.4267111     179.9759  0.027121143  0.027770776            2 
  554000    1.0300715   -7.4458694    179.85693  0.027054291  0.027750845            4 
  555000    1.0198636   -7.4399192    180.22935  0.027061464  0.027731473            3 
  556000    1.0122504   -7.4715681    180.56334   0.02706285  0.027711626            4 
  557000      1.01864   -7.4841176     181.4227  0.027142833  0.027691965            1 
  558000    1.0513182   -7.4437755    181.33557  0.027081178  0.027672622            1 
  559000    1.0208255   -7.4273256    182.48551  0.027204161  0.027653793            3 
  560000     1.042174    -7.469046    182.43578  0.027148181  0.027635332            1 
  561000    1.0243054   -7.5024182    181.75864  0.026999204  0.027616694            3 
  562000    1.0303289   -7.4612758    182.84797  0.027112688  0.027598237            3 
  563000    1.0358791   -7.4851401    182.29294  0.026982377  0.027579729            2 
  564000     1.043161   -7.4936526    183.09865  0.027053583  0.027560903            2 
  565000    1.0203351   -7.5240348    183.02801  0.026995282  0.027541798            3 
  566000    1.0171565   -7.5071715    182.86717  0.026923906    0.0275231            2 
  567000    1.0289294   -7.4781306    183.79544  0.027012852  0.027504214            1 
  568000    1.0430878   -7.4381034    184.04142  0.027001382  0.027485732            2 
  569000    1.0190904   -7.5118389    183.78873  0.026916921  0.027467123            3 
  570000    1.0196555   -7.4754364    184.92977  0.027036516  0.027448289            2 
  571000    1.0116211   -7.4749679    185.25313  0.027036358   0.02742961            1 
  572000    1.0392572     -7.49542    185.27497  0.026992274  0.027411177            2 
  573000    1.0106442   -7.4910011    184.92874  0.026894814  0.027392515       -1e+20 
  574000    1.0260706   -7.4931051    184.69386  0.026813858  0.027373799            4 
  575000    1.0155898   -7.4681649    185.95555   0.02695008   0.02735554            2 
  576000    1.0188257    -7.487898    185.44216  0.026829016  0.027337317            2 
  577000    1.0122733   -7.4824802    185.50396  0.026791444  0.027318685            3 
  578000    1.0041561   -7.4764516    186.40464  0.026874948  0.027299856            1 
  579000      1.02973   -7.5024558    185.96615  0.026765422   0.02728101            1 
  580000    1.0231377   -7.4790388    186.12032  0.026741425  0.027262151            3 
  581000    1.0448349   -7.4854924    186.52296  0.026753149  0.027243447            4 
  582000    1.0137316   -7.4881573    186.78211  0.026744288  0.027224834            1 
  583000     1.003962   -7.4481843    187.73263  0.026834281  0.027206698            4 
  584000    1.0063495   -7.4943134    187.78295  0.026795513  0.027188948            1 
  585000    1.0108574   -7.5016809    187.45582  0.026703108  0.027170859            3 
  586000   0.99310798   -7.4912811    187.99405   0.02673408  0.027152764            2 
  587000    1.0109985   -7.5381542     187.4491  0.026611172   0.02713463            2 
  588000    1.0149452   -7.5217299    188.25662   0.02668036  0.027116352            2 
  589000    1.0170498   -7.4938627    188.43269  0.026659974  0.027098066            2 
  590000    1.0242688   -7.5120675    188.06082  0.026562263  0.027079787            2 
  591000    1.0167118   -7.5156436    188.98579  0.026647742  0.027062061            2 
  592000    1.0237783   -7.4863595    189.78637  0.026715424  0.027044545            3 
  593000    1.0294505   -7.4407378    189.71441   0.02666026  0.027027141            2 
  594000    1.0106724   -7.4775749    189.81167  0.026629022  0.027009921            2 
  595000    1.0315958   -7.4851118     190.1354  0.026629608  0.026992322            1 
  596000    1.0075792   -7.5253569    190.03944   0.02657151  0.026974207            2 
  597000    1.0169437   -7.4714923    190.36818   0.02657289  0.026956122            2 
  598000   0.97877976   -7.4635405    190.98863  0.026614915  0.026938125            3 
  599000    1.0079887   -7.4788355      190.934  0.026562883  0.026920269            2 
  600000    1.0289098   -7.4944017    191.12326  0.026544898  0.026902633            3 
  601000    1.0157914   -7.5641952    190.48716   0.02641253  0.026884828            4 
  602000    1.0276458   -7.4875797    191.50122  0.026509028  0.026866772            2 
  603000     1.001077   -7.5160128    191.36203  0.026445831    0.0268489            2 
  604000    1.0176346   -7.4888674    191.92062  0.026479114  0.026830974            1 
  605000    1.0193546   -7.4787271    191.68966  0.026403534   0.02681315            3 
  606000    1.0114951   -7.5114842     191.9881  0.026401004  0.026794873            4 
  607000    1.0046139   -7.5338308    191.95212  0.026352569  0.026776963            2 
  608000    1.0392421   -7.4741265    192.42539  0.026374093  0.026758833            2 
  609000    1.0142809   -7.5290858    191.78587  0.026243277  0.026740177            2 
  610000    1.0167177   -7.4782121    192.58382  0.026309266   0.02672169            1 
  611000    0.9995384   -7.5103713     192.7413  0.026287684  0.026703205            3 
  612000    1.0040179   -7.5510738    192.43964  0.026203655  0.026684514            1 
  613000    1.0056761   -7.5012253    192.17196  0.026124519  0.026665734            1 
  614000     1.030446   -7.5210879     193.1769  0.026218363  0.026647187            2 
  615000    1.0066258   -7.5048762    192.93401   0.02614282  0.026628431            3 
  616000    1.0111471   -7.5272428    193.00495  0.026109977  0.026609587            2 
  617000   0.99910409   -7.5602639    192.56622  0.026008403  0.026590456            2 
  618000    1.0187217   -7.5480208    193.16141  0.026046576  0.026571236            2 
  619000    1.0248014   -7.5284748    192.99735  0.025982412  0.026551829            1 
  620000    1.0037938   -7.5016424    193.20217  0.025968034  0.026532226            3 
  621000   0.97984887   -7.4964036    193.86838  0.026015617  0.026512877            1 
  622000   0.99480256   -7.5349862    193.91873  0.025980537   0.02649375            2 
  623000    1.0147709    -7.518818    194.01687  0.025951962  0.026474819            2 
  624000   0.99235275   -7.5509719    194.22831   0.02593861  0.026455802            3 
  625000    1.0121021   -7.4999227    195.03532  0.026004709  0.026436916            4 
  626000    1.0260022   -7.5342068    195.01061  0.025959879  0.026418383            1 
  627000    1.0119625   -7.5501203    195.52926  0.025987408  0.026399682            1 
  628000   0.99602856   -7.5624673    194.43986  0.025801467  0.026380617            3 
  629000   0.99918922   -7.5495859    195.04397  0.025840484  0.026361316            2 
  630000    1.0104881   -7.5244226    195.67634  0.025883114  0.026342359            1 
  631000    1.0015541    -7.524147    196.02794  0.025888528  0.026323735            2 
  632000   0.97760965    -7.544265    195.65581  0.025798498  0.026304795            2 
  633000   0.98951825   -7.5319211    195.91743  0.025792185  0.026285501            4 
  634000   0.99752354    -7.558001    196.06095  0.025770367  0.026266105            1 
  635000   0.97590179   -7.5593379    196.02253  0.025724741   0.02624659            5 
  636000   0.99518352   -7.5661871     196.5017  0.025747078  0.026226861            2 
  637000   0.99952463   -7.5491036    195.66948  0.025597787  0.026207077            1 
  638000   0.97567193   -7.5557779    196.43069  0.025657091  0.026187017            3 
  639000    1.0219679   -7.5546238    196.39867  0.025612763  0.026167343            2 
  640000    0.9968743   -7.5393118    197.16413  0.025672413  0.026147835            2 
  641000   0.98578765   -7.5222143    197.62191  0.025691876  0.026128849            2 
  642000    0.9846463   -7.5355803    197.25055  0.025603654  0.026109863            2 
  643000    1.0074514   -7.5262619    198.00635  0.025661787  0.026091066            2 
  644000   0.99524419   -7.5395116    197.65799  0.025576862  0.026072144            5 
  645000    1.0105571   -7.5547253    198.72067  0.025674506  0.026053499            2 
  646000    1.0127709   -7.5611427    198.23794   0.02557249  0.026034923            1 
  647000    1.0018938   -7.5427137    198.77374  0.025601976  0.026016253            1 
  648000   0.98025917   -7.5652967    198.87436  0.025575406  0.025997779            2 
  649000   0.99325785   -7.5457353    199.50019  0.025616358  0.025979394            2 
  650000    1.0053473   -7.5774746    199.07623  0.025522594  0.025960993            1 
  651000   0.99940182   -7.5647003    199.65813  0.025557876  0.025942372            3 
  652000     1.010402   -7.5652797    199.56313  0.025506535   0.02592378            4 
  653000   0.98187852   -7.5558382    199.26668  0.025429642  0.025905334            3 
  654000   0.99709416   -7.5479966    199.64052  0.025438395  0.025886671            1 
  655000   0.97169384   -7.5417179     200.3565  0.025490649  0.025868137            2 
  656000    1.0013937   -7.5663035    200.49713  0.025469656  0.025849784            3 
  657000   0.98732439   -7.5296091    200.69642  0.025456167  0.025831136            5 
  658000   0.97202606   -7.5675625    200.54067  0.025397754  0.025812553            2 
  659000    0.9997395   -7.5629374    200.84506  0.025397706  0.025794128            3 
  660000   0.99052674   -7.5937849    201.28417  0.025414668  0.025775736            1 
  661000   0.99726603   -7.5648482    201.83281  0.025445388  0.025757505            2 
  662000    1.0001219   -7.5277129     201.3523  0.025346463  0.025739465            3 
  663000    0.9905442   -7.5481069    201.85726  0.025371702  0.025721507            2 
  664000   0.98869104   -7.5532507    201.33842  0.025268375  0.025703101            2 
  665000   0.99619029   -7.6092312     201.6149  0.025265025  0.025684784            1 
  666000    1.0030307   -7.5912926    201.75261  0.025244321  0.025666474            4 
  667000     0.978002   -7.6098057    202.19907  0.025262253  0.025648174            2 
  668000   0.98325595   -7.6077706    202.56224  0.025269741  0.025629673            3 
  669000   0.96389054   -7.5649069    202.84007  0.025266576  0.025611388            1 
  670000   0.99688887   -7.5881325    202.90311  0.025236705   0.02559302            1 
  671000   0.97985065   -7.5943509     202.5938   0.02516068  0.025574763            2 
  672000   0.98640354   -7.5654399    203.53063  0.025239414  0.025556769            1 
  673000   0.97452354   -7.5703924    203.95989  0.025255063  0.025539289            2 
  674000   0.98315933   -7.5818936    204.31901  0.025261995  0.025521933            1 
  675000    1.0090955   -7.5814959     204.4524  0.025241037  0.025504435            3 
  676000   0.98606392   -7.5832833    204.74221  0.025239424  0.025486934            2 
  677000   0.97456369   -7.6130305    204.83579  0.025213662  0.025469276            1 
  678000   0.97667423   -7.6046098     204.7827  0.025169948  0.025451647            4 
  679000   0.99184641   -7.5875106    204.49935  0.025098104  0.025434128            2 
  680000   0.97568023   -7.6146914    205.30271  0.025159646  0.025416733            3 
  681000   0.97163765   -7.5939985    205.41098   0.02513595  0.025399433            2 
  682000   0.98627124   -7.6046021    205.97648  0.025168192  0.025382277            2 
  683000   0.96400368   -7.5832429    206.19462  0.025157958  0.025365054            4 
  684000   0.96447401   -7.5756958    206.32609  0.025137194  0.025347925            2 
  685000   0.99889253   -7.5560232    206.24029   0.02509006   0.02533086            2 
  686000   0.97787664   -7.6169814    206.66142  0.025104643  0.025313628            3 
  687000   0.99742895   -7.6292593    206.64056   0.02506557  0.025296529            2 
  688000   0.99694773    -7.578127    206.69363  0.025035566  0.025279405            1 
  689000   0.99314442   -7.5829796    206.80471  0.025012665  0.025262205            4 
  690000   0.96301146   -7.6000131    206.83718  0.024980336  0.025245234            1 
  691000   0.96931997   -7.6028724     207.8423  0.025065401  0.025228337            2 
  692000   0.97012004   -7.6044421    207.29178  0.024962883  0.025210938            2 
  693000   0.98457619   -7.6097714    207.95295  0.025006367  0.025193974            1 
  694000   0.98800188   -7.5842073    207.88929   0.02496269  0.025177123            3 
  695000   0.98337984   -7.5809798    207.64203  0.024897126  0.025160113            2 
  696000   0.97238957   -7.5949982    207.87237  0.024888934  0.025143095            2 
  697000   0.97223742   -7.5687917    208.43076  0.024919986  0.025125852            5 
  698000   0.95482194   -7.5942476    208.22702   0.02485996  0.025108963            1 
  699000   0.96645684   -7.5691411    208.93851  0.024909216   0.02509218            2 
  700000   0.96403089     -7.57522    209.01804  0.024883099  0.025075036            2 
  701000   0.96056544   -7.5765017    209.61831  0.024918962  0.025058119            2 
  702000   0.97612618   -7.5958344    209.39952  0.024857492  0.025041117            2 
  703000   0.98634925   -7.6138172    208.93008  0.024766486  0.025023764            2 
  704000     0.972154   -7.5960951    208.87782   0.02472512  0.025006363            2 
  705000   0.98476251   -7.6308653    209.12814  0.024719638  0.024989038            1 
  706000   0.94046873   -7.6089403    209.18847  0.024691746  0.024971453            3 
  707000   0.96469627   -7.6044261    209.82662   0.02473204  0.024954107            1 
  708000   0.96470223   -7.6260272     210.0562  0.024724129  0.024936908            1 
  709000   0.97741989   -7.6236327    210.23236  0.024709962  0.024919544            4 
  710000   0.97802629   -7.5854054    210.51388  0.024708201  0.024902361            2 
  711000   0.95975513   -7.5950998    210.59991  0.024683533   0.02488505            2 
  712000   0.96271357   -7.6115563    211.00814  0.024696645  0.024868013            1 
  713000   0.96464874   -7.5859645    211.22541  0.024687402  0.024850945            2 
  714000   0.97502875   -7.6035273    211.27554  0.024658676  0.024833986            2 
  715000   0.97296388   -7.6134399    211.20586  0.024616068  0.024816899            3 
  716000   0.96995155    -7.639524    211.50268  0.024616234  0.024799885            2 
  717000   0.98142738   -7.6217429    211.52595  0.024584606  0.024783206            2 
  718000   0.97976696   -7.6373811     212.0919  0.024616052  0.024766378            2 
  719000   0.95942824   -7.6199256    211.22679  0.024481547  0.024749172            1 
  720000   0.96594877   -7.6415754    211.89896  0.024525343  0.024731849            2 
  721000   0.96347895    -7.638791    212.24512  0.024531336  0.024714614            2 
  722000   0.97538657   -7.5899233    212.87648  0.024570231  0.024697455            4 
  723000   0.96534151   -7.6293092    212.74233  0.024520785  0.024680434            3 
  724000   0.97332914   -7.6415215    212.73763  0.024486375  0.024663555            1 
  725000   0.94729535    -7.651007    212.48803  0.024423912  0.024646545            1 
  726000   0.94418398   -7.6473851    212.76489  0.024422049   0.02462958            2 
  727000   0.96478143   -7.5997607    213.19821  0.024438126  0.024612633            1 
  728000   0.95217729   -7.6221787    213.59464  0.024449936  0.024595566            1 
  729000   0.97702358    -7.634343    213.67041  0.024425058  0.024578752            1 
  730000   0.98393553   -7.6819829    213.41274  0.024362185  0.024561927            2 
  731000   0.97945651   -7.6583945    214.36545  0.024437466  0.024545245            2 
  732000   0.94081004    -7.580929    214.60201  0.024431012  0.024528765            2 
  733000   0.97050956   -7.6240937    214.39186  0.024373791  0.024512277            1 
  734000   0.95838481   -7.5903356    215.00506  0.024410202  0.024495691            2 
  735000   0.95841617   -7.6788557    214.18419  0.024283922  0.024478899            6 
  736000   0.96373466   -7.6653934    214.99948  0.024343238  0.024462207            2 
  737000   0.95719998   -7.5954794    215.55884  0.024373455  0.024445463            1 
  738000   0.94035153   -7.6730308    214.29062  0.024197224  0.024428618            1 
  739000   0.94830073   -7.6387399    214.75288  0.024216608  0.024411526            1 
  740000   0.94060807   -7.6583364    215.28511  0.024243818  0.024394515            2 
  741000    0.9653506   -7.6073947    215.29487  0.024212199    0.0243777            3 
  742000   0.95329226    -7.648912    215.26689  0.024176425  0.024360854            1 
  743000   0.95517142   -7.6725649    215.52868  0.024173248   0.02434414            2 
  744000   0.94592494   -7.6731996     215.8394   0.02417556  0.024327153            1 
  745000   0.94237944   -7.6206236    215.91629   0.02415171  0.024310268            1 
  746000   0.95659074   -7.6854926     215.8895  0.024116343  0.024293421            1 
  747000      0.94342   -7.6585118    215.88591  0.024083658  0.024276444            3 
  748000    0.9507567   -7.6331748    216.42291  0.024111286   0.02425945            2 
  749000   0.95034151   -7.6485357     216.0821  0.024041177  0.024242469            1 
  750000   0.95665842   -7.6524237    216.47043   0.02405227  0.024225182            1 
  751000    0.9729019   -7.6519444    215.80014  0.023945866  0.024207954            2 
  752000   0.96003164   -7.6910901    216.58329  0.024000808  0.024190931            3 
  753000   0.92096872   -7.6791352    216.41178  0.023949953  0.024173835            2 
  754000   0.96020969   -7.6386621    217.38977  0.024026279  0.024156644            2 
  755000    0.9576664   -7.6428164    217.69612  0.024028269  0.024139824            1 
  756000   0.95552007   -7.6723873    217.42558  0.023966665  0.024123091            1 
  757000   0.96782349    -7.676698    217.01645  0.023889966  0.024106262            1 
  758000   0.95687492   -7.6829646    217.64777  0.023927855  0.024089504            1 
  759000   0.94392378   -7.6684244    218.31914  0.023970042  0.024072658            3 
  760000   0.94337456   -7.6285313    218.45902   0.02395384  0.024056023            2 
  761000   0.91910858   -7.6347312    219.17645  0.024000925  0.024039501            2 
  762000   0.93848797   -7.6828424    218.24116  0.023867144  0.024023032            1 
  763000   0.93878669   -7.6653669     218.5921  0.023874192  0.024006539            3 
  764000   0.95933234   -7.6778707    218.84479  0.023870505  0.023989932            1 
  765000   0.92297899   -7.6652921    219.03616  0.023860148  0.023973169            2 
  766000   0.94186152   -7.7076069     218.3782  0.023757419  0.023956296            2 
  767000   0.93729757   -7.6793492    219.51488  0.023849943   0.02393938            2 
  768000   0.96546145   -7.6835458    219.37697  0.023803925  0.023922446            1 
  769000   0.96954301   -7.6871472    218.81216  0.023711764  0.023905683            2 
  770000   0.93597544    -7.663358    219.28122  0.023731734  0.023889068            3 
  771000    0.9369047   -7.6860028    218.94889  0.023665033  0.023872371            2 
  772000   0.94194685    -7.670831     219.4214  0.023685384  0.023855823            5 
  773000   0.95707772   -7.6963314    219.54418   0.02366798   0.02383907            2 
  774000   0.93649592   -7.6829372    219.12127  0.023591868  0.023821901            2 
  775000   0.95761288   -7.6245878    220.27478   0.02368546  0.023804783            2 
  776000   0.93226653   -7.7068089    219.36077  0.023556784  0.023787557            1 
  777000   0.94454764   -7.6473242    219.81284   0.02357495  0.023770475            3 
  778000   0.94923099   -7.6653641    219.80972  0.023544314  0.023753241            1 
  779000   0.92252773   -7.6727191    219.70665  0.023503065  0.023735908            2 
  780000    0.9382085   -7.6934776    220.43934  0.023551212  0.023718616            3 
  781000   0.93142805    -7.705279    220.18973  0.023494423  0.023701418            1 
  782000   0.94790702   -7.7117499    220.30788   0.02347697  0.023684214            2 
  783000   0.96118081   -7.7070687      220.805  0.023499893  0.023666954            2 
  784000   0.95081313   -7.6589286    220.82666  0.023472222  0.023649814            1 
  785000    0.9416657   -7.6670499    221.62027  0.023526568  0.023633047            1 
  786000   0.92955313   -7.6504092     221.2476  0.023457125  0.023616625            4 
  787000   0.93644237    -7.663474    221.98726  0.023505639  0.023599942            1 
  788000   0.95880611    -7.685674    222.06418  0.023483944   0.02358324            2 
  789000   0.94343131   -7.6877598    222.50892  0.023501153  0.023566698            3 
  790000   0.94480107   -7.6641989    222.11865  0.023430237  0.023550078            2 
  791000   0.94348004   -7.7129278     222.0731  0.023395817   0.02353324            2 
  792000   0.95212806   -7.7088198    223.05346   0.02346943  0.023516591            3 
  793000   0.94047626   -7.6972133    223.26082  0.023461625  0.023500204            2 
  794000   0.92049567   -7.6577038    223.57495  0.023465045  0.023483942            1 
  795000   0.91446777   -7.7134737    223.46506  0.023424011  0.023467563            3 
  796000   0.92739897   -7.6778766    223.91821  0.023442024  0.023451343            5 
  797000   0.93584104   -7.7073977    223.55755  0.023374901  0.023435157            2 
  798000   0.92627537   -7.7001439    223.47165  0.023336639  0.023418843            1 
  799000   0.95713097     -7.71652     223.7111  0.023332405  0.023402578            2 
  800000   0.91766278   -7.6695493    223.88549  0.023321405   0.02338612            2 
  801000   0.92693644   -7.7383587    223.87295  0.023290985  0.023369505            1 
  802000   0.93691282   -7.7117322    224.30605  0.023306946  0.023353089            2 
  803000   0.93409411   -7.7293328    224.07158  0.023253589  0.023336526            2 
  804000   0.94084134   -7.7061578    223.92201  0.023209163   0.02331995            2 
  805000   0.93276372    -7.697419    224.13092  0.023201959  0.023303385            2 
  806000   0.95007005   -7.6965133    223.98223  0.023157799   0.02328671            1 
  807000   0.94814317   -7.7285239    224.15578  0.023147024  0.023270082            2 
  808000   0.93052498   -7.7348891    224.05332   0.02310781  0.023253509            4 
  809000   0.93611524   -7.7265627    224.76757  0.023152819  0.023236849            1 
  810000   0.93138012   -7.7000687    225.12131  0.023160629  0.023220731            1 
  811000   0.92013821   -7.7795488    224.69842  0.023088617  0.023204374            1 
  812000    0.9463529   -7.7311131    224.75264  0.023065747  0.023187715            1 
  813000    0.9056843   -7.7409625    224.96787  0.023059437  0.023171263            1 
  814000   0.94376984   -7.7097565    225.60311  0.023096142  0.023154881            3 
  815000   0.91669686    -7.718165     225.1697  0.023023487  0.023138452            6 
  816000    0.9348877   -7.7244491    225.42089  0.023020924  0.023121851            2 
  817000   0.92527118   -7.7368499    225.37804  0.022988376  0.023105262            3 
  818000    0.9235755   -7.7107783    225.85065   0.02300842  0.023088765            1 
  819000   0.93982989   -7.6871547    225.94221  0.022989643  0.023072447            1 
  820000   0.94237016   -7.6924733    227.19854  0.023089282  0.023056235            1 
  821000   0.92904667   -7.7215947    226.88519  0.023029353  0.023040056            1 
  822000   0.92322773   -7.6833115    227.02677  0.023015691  0.023023901            1 
  823000   0.91072973    -7.710765     226.7553  0.022960237  0.023007661            3 
  824000   0.92973925     -7.72833    226.55818  0.022912438  0.022991395            2 
  825000   0.93658743   -7.7121009    226.56617  0.022885472  0.022974964            1 
  826000   0.90722735   -7.7505393    226.15319  0.022816101  0.022958439            4 
  827000    0.9204724   -7.7569408    226.71323  0.022844944  0.022941709            1 
  828000   0.90696071   -7.7613974    226.43415  0.022789266  0.022924969            1 
  829000   0.91955388   -7.7828051    226.82334  0.022800899  0.022908116            2 
  830000   0.92137202   -7.7654775     226.7145    0.0227625   0.02289128            1 
  831000   0.90300757   -7.7515092    226.98409  0.022762143  0.022874579            1 
  832000    0.9198621    -7.731072    227.02765  0.022739148  0.022858005            2 
  833000   0.91601404   -7.7212386     227.5603  0.022765136  0.022841406            1 
  834000   0.90481793    -7.713088     227.8705  0.022768835   0.02282502            2 
  835000   0.90072286   -7.7595105    226.86717  0.022641434  0.022808565            2 
  836000   0.91229885   -7.7834254    227.52628  0.022680052  0.022791834            4 
  837000   0.90821271   -7.7612509    227.91647  0.022691803  0.022775083            3 
  838000   0.94008565    -7.731308    227.72119  0.022645305  0.022758362            2 
  839000   0.91435507   -7.7586901    227.91938     0.022638  0.022741785            3 
  840000   0.92298519   -7.7345393     227.8341   0.02260259  0.022725043            2 
  841000   0.91247971   -7.7416227    227.97457  0.022589633  0.022708257            4 
  842000    0.9317314   -7.7753802     227.8987  0.022555295  0.022691605            3 
  843000    0.9220345   -7.7314883    228.30828  0.022569027  0.022674955            2 
  844000   0.92329034   -7.7375468     228.5703  0.022568158   0.02265835            2 
  845000   0.91421442   -7.7682712     228.7935  0.022563461  0.022641699            2 
  846000   0.90528633   -7.7825532    228.57462   0.02251523  0.022624972            2 
  847000   0.91279768   -7.7410921    229.13677  0.022543956  0.022608439            1 
  848000   0.94705217   -7.7641258    228.47964  0.022452794  0.022591735            2 
  849000   0.92931348   -7.7685456    228.40724  0.022419243  0.022575097            4 
  850000   0.91250352   -7.7381764    228.47611  0.022399618  0.022558351            2 
  851000    0.9100457   -7.7663405    228.93002  0.022417746   0.02254151            2 
  852000    0.9229003    -7.728453    229.41077  0.022438456  0.022524643            2 
  853000   0.90039247   -7.7768431    228.81378  0.022353828  0.022508007            2 
  854000   0.87806201   -7.7491285    229.38946  0.022383827  0.022491214            1 
  855000   0.90969774   -7.7733268     229.0811  0.022327592  0.022474387            2 
  856000   0.91022005    -7.749329    229.05077  0.022298556   0.02245751            4 
  857000   0.91044382   -7.7909807    229.17864  0.022284971  0.022440639            2 
  858000   0.96071109   -7.7519314    229.88645  0.022327743  0.022423885            2 
  859000   0.91168845   -7.7406149     230.2833  0.022340251  0.022407076            6 
  860000   0.91659841   -7.7653742    230.17195  0.022303484  0.022390569            4 
  861000   0.91965019   -7.7657335    229.79482  0.022241079  0.022373674            2 
  862000    0.9164483   -7.7648628    230.03873  0.022238856  0.022356773            1 
  863000   0.90696518   -7.7610382    230.27752  0.022236145   0.02234016            1 
  864000   0.90090555    -7.753042    230.31773  0.022214287  0.022323452            3 
  865000   0.94488735   -7.7730227    230.33752  0.022190512  0.022306721            2 
  866000     0.935977   -7.7447593    230.60107  0.022190249  0.022290045            2 
  867000   0.91643586   -7.7907641    230.53026  0.022157848  0.022273399            2 
  868000   0.90902951   -7.7466508    230.96135  0.022173709  0.022256796            2 
  869000   0.91369467    -7.782515    230.15792  0.022071147   0.02224015            1 
  870000   0.92296315   -7.7662114    231.13963  0.022139812  0.022223391            1 
  871000   0.91144522   -7.7822493    231.50119  0.022148985   0.02220669            2 
  872000    0.9014524   -7.7731047    231.89727  0.022161436  0.022190117            3 
  873000   0.90383914   -7.7757444    231.24305  0.022073602  0.022173382            2 
  874000   0.92046172   -7.7807618    231.10352  0.022035042  0.022156528            5 
  875000   0.91479747   -7.7712832    231.70425  0.022067072  0.022139783            2 
  876000   0.91720637   -7.8177112    231.35329  0.022008494  0.022122881            1 
  877000   0.91535674   -7.7928196    231.95548   0.02204062  0.022106041            2 
  878000    0.9120195   -7.7903777    231.74161  0.021995217  0.022089259            2 
  879000   0.90929406   -7.8024018    231.73519  0.021969586  0.022072482            1 
  880000   0.90733245   -7.7752856    232.44175  0.022011529  0.022055755            4 
  881000   0.91021245   -7.7954522    232.02249  0.021946887  0.022039133            1 
  882000   0.90265612   -7.8144172    232.51102  0.021968161  0.022022427            3 
  883000   0.88186085   -7.7857468    232.12713  0.021907053  0.022005714            3 
  884000   0.89980444    -7.834477    232.32222  0.021900662  0.021989072            3 
  885000   0.89635549   -7.7778505    232.64479  0.021906289  0.021972448            1 
  886000   0.89959866   -7.7728438    233.20498  0.021934253  0.021956086            1 
  887000   0.90270758    -7.796987    232.93152  0.021883833  0.021939628            3 
  888000   0.89698798   -7.7905895    232.99801  0.021865429  0.021923185            2 
  889000   0.90872002   -7.7797679    233.43149  0.021881467  0.021906753            3 
  890000   0.90401318   -7.8131765    233.02268  0.021818603  0.021890375            1 
  891000   0.90120456   -7.7554496    234.08899  0.021893845   0.02187396            2 
  892000     0.917697   -7.7939705    233.33374  0.021798742  0.021857674            2 
  893000    0.8923985   -7.7954413    234.20369  0.021855514  0.021841264            1 
  894000   0.88045505   -7.7892167    233.66347  0.021780712  0.021824899            2 
  895000   0.89365535    -7.792062    233.88036   0.02177657  0.021808499            1 
  896000   0.89393855   -7.8297152    233.87258  0.021751542   0.02179192            3 
  897000   0.87569529    -7.782798    233.55825  0.021698091   0.02177537            1 
  898000   0.89848245   -7.7971202    233.94864  0.021710156  0.021758944            1 
  899000   0.87711278   -7.8225042    233.66989  0.021660168  0.021742328            2 
  900000   0.88484404   -7.8040891     234.1125  0.021677084  0.021725878            2 
  901000   0.89634836     -7.79958    233.92073  0.021635287  0.021709522            1 
  902000    0.8995104   -7.8152045    234.41514  0.021656979  0.021693026            2 
  903000   0.91116239   -7.8082775    234.41055  0.021632572  0.021676666            3 
  904000     0.885921   -7.7992232    234.78141  0.021642829  0.021660304            2 
  905000   0.89428147   -7.8214492    234.64265  0.021606137  0.021644016            2 
  906000   0.89804157   -7.7955868    234.98643   0.02161391  0.021627733            4 
  907000   0.89054669   -7.8207163     235.3406   0.02162262  0.021611353            3 
  908000   0.90289716    -7.793211    235.76683  0.021637925   0.02159517            1 
  909000   0.88625545   -7.8279791    235.72372  0.021610169  0.021579024            2 
  910000   0.90054855   -7.8016267    235.12277  0.021531389  0.021562823            6 
  911000   0.90342591   -7.7810491    235.93068  0.021581658  0.021546652            2 
  912000   0.87199942   -7.7901676    235.72705  0.021539387  0.021530397            3 
  913000   0.88245016   -7.8053976    235.71631  0.021514815  0.021513999            5 
  914000   0.90883113    -7.809661    235.41641  0.021463932  0.021497656            3 
  915000   0.87758472    -7.816028    235.42997  0.021441709  0.021481342            3 
  916000   0.89543058     -7.83808    235.78225   0.02145035  0.021465124            1 
  917000   0.91361733   -7.8322661    236.36461  0.021479881   0.02144895            2 
  918000   0.87386811   -7.8041342    235.95979  0.021419734   0.02143266            4 
  919000   0.88839273   -7.8330738    235.50172  0.021354889  0.021416296            1 
  920000   0.88756532   -7.8375884    236.33334  0.021407006  0.021399861            1 
  921000    0.8865714   -7.8151501     235.8619  0.021341106  0.021383585            1 
  922000   0.89695451   -7.8136135    236.74007  0.021397331  0.021367249            3 
  923000   0.87492445   -7.8033072    236.59051  0.021360645  0.021351112            1 
  924000   0.86982981   -7.7942746    237.07059  0.021380825  0.021335147            1 
  925000   0.87755083   -7.8283491     236.4984  0.021306162  0.021319202            3 
  926000   0.88471577   -7.8143467    237.44361  0.021368215  0.021303286            1 
  927000   0.87082573   -7.8094598    237.26565  0.021329167  0.021287351            1 
  928000    0.9107169    -7.859359    236.95063  0.021277894  0.021271315            2 
  929000   0.88342494    -7.855955     236.8666  0.021247452  0.021255255            4 
  930000   0.86802682   -7.8572199    237.29472  0.021262968  0.021239384            1 
  931000   0.86839304    -7.849401    237.73239  0.021279304  0.021223539            4 
  932000   0.89236072   -7.8455284    237.32924  0.021220426  0.021207704            2 
  933000   0.89799102   -7.8277643    237.40434  0.021204389  0.021191745            3 
  934000   0.88952136   -7.8428542    237.90069  0.021225972  0.021175819       -1e+20 
  935000   0.88892339   -7.8464048    238.60525  0.021266065  0.021160005            3 
  936000   0.89149505     -7.83569    238.68156  0.021250139   0.02114427            2 
  937000   0.87901073   -7.8163565     238.3082  0.021194255   0.02112842            1 
  938000   0.88824395   -7.8259018    238.13605  0.021156365  0.021112779            2 
  939000   0.89329888   -7.8559844    237.65453  0.021091101  0.021096922            2 
  940000   0.88084561   -7.8514951    238.14486  0.021112133  0.021081076            2 
  941000   0.87658762   -7.8489663    238.69834  0.021138712  0.021065261            1 
  942000   0.87240959   -7.8500076    238.45296  0.021094565  0.021049476            2 
  943000    0.8804889   -7.8686681    238.50029  0.021076378  0.021033658            1 
  944000   0.85492151   -7.8585036     238.8708  0.021086759  0.021017921            2 
  945000   0.86683945   -7.8387877    239.09273  0.021084015  0.021002229            1 
  946000   0.89633924   -7.8489088    238.53459  0.021012561  0.020986524            1 
  947000   0.87342249   -7.8516675    239.14038   0.02104368  0.020970765            3 
  948000   0.91035683   -7.8615942    238.91189  0.021001397   0.02095511            3 
  949000   0.89895165   -7.8278789    238.96069  0.020983552  0.020939266            2 
  950000   0.86772347   -7.8516255    239.24882  0.020986738  0.020923278            1 
  951000   0.89767337   -7.8521773    239.56992  0.020992808  0.020907373            1 
  952000   0.88280182   -7.8827965    238.52476  0.020879269  0.020891442            3 
  953000   0.88139989   -7.8538988    239.57462  0.020949162  0.020875555            1 
  954000   0.85941879   -7.8254231     239.7311  0.020940872  0.020859727            2 
  955000   0.88458554   -7.8640313     239.4456  0.020894032  0.020843978            3 
  956000   0.88258226   -7.8564728    239.53195  0.020879703  0.020828201            2 
  957000   0.86762289   -7.8431145    239.96117   0.02089526  0.020812608            3 
  958000   0.87544757   -7.8475004    239.77659  0.020857393  0.020797035            1 
  959000   0.88798026   -7.8770113    240.38352  0.020888384  0.020781381            2 
  960000   0.88947023    -7.859027    239.58038  0.020796908  0.020765553            1 
  961000   0.86238843   -7.8816576    239.84212  0.020797963  0.020749817            2 
  962000   0.87252599   -7.8827072    239.78929  0.020771768  0.020734021            1 
  963000   0.85519456   -7.8800451    239.85779  0.020756126  0.020718166            1 
  964000   0.87618887   -7.8640722    240.07328  0.020753223  0.020702275            1 
  965000   0.88130888   -7.8300727    240.84467   0.02079833   0.02068654            2 
  966000   0.85438049   -7.8704448    240.48699  0.020745945  0.020670922            3 
  967000   0.86676783   -7.8733155    239.58819  0.020647035  0.020655273            2 
  968000   0.86388172   -7.8458992    240.58405  0.020711436   0.02063953            2 
  969000   0.86695792   -7.8906273    240.57999  0.020689713  0.020623821            2 
  970000   0.90129082   -7.8652166    240.94085  0.020699385  0.020608135            2 
  971000   0.86771458   -7.8889518    240.71428  0.020658624  0.020592604            2 
  972000   0.85674387   -7.9056077    241.76898  0.020727793   0.02057706            2 
  973000   0.86585792    -7.859528    241.27335  0.020664042  0.020561657            1 
  974000   0.85959474   -7.8647135    241.40181  0.020653817  0.020546318            2 
  975000   0.86229055   -7.8814693    241.63945  0.020652944  0.020530971            3 
  976000   0.88604699   -7.8939936    241.93988  0.020657435  0.020515575            1 
  977000   0.87136691     -7.86443    242.05767  0.020646339  0.020500075            5 
  978000   0.84998226   -7.8572673    242.11535  0.020630143  0.020484677            3 
  979000   0.87150227   -7.8441689    242.43453  0.020636239  0.020469329            1 
  980000   0.85480105   -7.8545826    241.70733  0.020553344  0.020454068            1 
  981000   0.85791109   -7.8749989    242.30107   0.02058283  0.020438747            2 
  982000    0.8680082    -7.875006    242.35974  0.020566848  0.020423396            1 
  983000   0.85004668   -7.8350882    242.90558  0.020592199  0.020408142            2 
  984000   0.85344539   -7.8608177    242.40893  0.020529212  0.020392774            2 
  985000   0.86653064   -7.9108606    242.28658  0.020498018   0.02037738            2 
  986000   0.86750158   -7.9108126    241.75245  0.020432086   0.02036203            2 
  987000   0.87179589   -7.8864521    242.50736  0.020475123  0.020346519            1 
  988000    0.8753031   -7.9223315    242.00318  0.020411874  0.020331143            3 
  989000   0.84314053   -7.9053424    242.43757  0.020427837  0.020315669            3 
  990000   0.86193809   -7.9075403    242.93225  0.020448843  0.020300196            3 
  991000   0.85399882    -7.901027    242.14856  0.020362308  0.020284789            1 
  992000   0.84051313   -7.8925385    242.78066  0.020394881   0.02026934            2 
  993000   0.86709932   -7.9113138    242.73612  0.020370604  0.020253859            2 
  994000   0.87557601   -7.8844035    243.07969  0.020378915  0.020238269            1 
  995000   0.86193962   -7.8947966    242.49958  0.020309847  0.020222735            4 
  996000   0.84707603   -7.9265392    242.79964  0.020314562  0.020207215            1 
  997000   0.85136223   -7.8926064    242.54174   0.02027263  0.020191719            3 
  998000   0.84975075   -7.9349007    242.55215  0.020253185  0.020176272            3 
  999000   0.82756922   -7.9089381    243.23766  0.020290095  0.020160826            2 
 1000000   0.85129345   -7.9211344    243.14234  0.020261862   0.02014534            1 
 1001000   0.84528859   -7.9312478    243.72861  0.020290427  0.020129828            3 
 1002000   0.86642107   -7.9264032    242.93559  0.020204224  0.020114322            2 
 1003000   0.81094004   -7.9181761    243.11092  0.020198647  0.020098848            4 
 1004000   0.83988407   -7.9106719    243.05701  0.020174055  0.020083274            6 
 1005000   0.85550726   -7.8935074    243.45703   0.02018715  0.020067771            2 
 1006000    0.8438078   -7.8824578    243.42111  0.020164108  0.020052369            1 
 1007000   0.86261534   -7.9254841    242.81719  0.020094107  0.020036876            1 
 1008000    0.8309089   -7.8920129    244.21626  0.020189837  0.020021502            2 
 1009000   0.83613062    -7.906925    243.49375  0.020110155  0.020006134            2 
 1010000   0.83811648   -7.9348932    243.53222  0.020093418  0.019990749            1 
 1011000   0.85905794     -7.92445     243.3683  0.020060031  0.019975412            3 
 1012000   0.83377434   -7.9084269    243.74334  0.020071092  0.019960125            5 
 1013000   0.87288042     -7.90227    244.11634  0.020081963   0.01994484            3 
 1014000   0.84457559   -7.9094773    243.97305  0.020050382  0.019929519            2 
 1015000   0.83719222   -7.8893192    244.76003  0.020095241  0.019914224            2 
 1016000   0.82744816    -7.912318    243.83238  0.019999375  0.019898884            4 
 1017000   0.83570036    -7.920894    244.66606  0.020048022  0.019883474            1 
 1018000   0.86254192   -7.9079485    244.41414  0.020007707  0.019868027            4 
 1019000    0.8380819   -7.9271929    243.57291  0.019919277   0.01985252            3 
 1020000   0.84798757    -7.904726    244.50483  0.019975885  0.019837163            1 
 1021000   0.85459747   -7.9188974    245.09972  0.020004874  0.019821906            1 
 1022000   0.85828431   -7.9402462     244.6235   0.01994647  0.019806646            1 
 1023000   0.84056562   -7.9065825    244.90622  0.019950001  0.019791393            2 
 1024000    0.8513218   -7.9285778    244.88682  0.019928941  0.019776036            1 
 1025000   0.84885627   -7.9373634     244.5211  0.019879764  0.019760702            2 
 1026000   0.83562527   -7.9144644    244.99948  0.019899243  0.019745494            2 
 1027000   0.83175291   -7.9211383    245.45186  0.019916574  0.019730292            3 
 1028000   0.84066333   -7.9451895    245.04486  0.019864207  0.019715165            5 
 1029000   0.84311185   -7.9456075     245.6814  0.019896453  0.019699918            3 
 1030000   0.83607448   -7.8724229    245.68969  0.019877806  0.019684866            2 
 1031000   0.84846506   -7.9324552    246.18486   0.01989855  0.019669906            2 
 1032000   0.85113751   -7.9202732    245.82992  0.019850607  0.019654875            2 
 1033000   0.84304792   -7.9479806    244.97776  0.019762646  0.019639795            2 
 1034000   0.83574541   -7.9117668    245.87675  0.019815986   0.01962484            2 
 1035000   0.84718678   -7.9264731    246.42643  0.019841098  0.019609775            4 
 1036000   0.85205337   -7.9359716     246.8653  0.019857247  0.019594867            2 
 1037000   0.86303846   -7.9478625    245.98809  0.019767606  0.019579977            2 
 1038000   0.83188145    -7.928529    246.63267   0.01980031  0.019565158            2 
 1039000   0.83103829   -7.9429424    246.63893  0.019781756  0.019550337            6 
 1040000   0.84760198   -7.9814388    246.16458  0.019724726  0.019535404            1 
 1041000   0.83404087   -7.9447825    246.61372  0.019741732  0.019520475            4 
 1042000   0.84004136   -7.9734855    246.24656  0.019693423  0.019505581            1 
 1043000   0.84189732   -7.9486868    246.01027  0.019655663  0.019490517            3 
 1044000   0.82446347   -7.9865311    246.35042  0.019663986  0.019475541            3 
 1045000   0.83392351   -7.9520488    246.19638  0.019632885  0.019460579            1 
 1046000    0.8187771    -7.942745    246.42862  0.019632618  0.019445656            2 
 1047000   0.83832364   -7.9356375    246.59915   0.01962744  0.019430693            2 
 1048000   0.84562163   -7.9792999    246.92773  0.019634839  0.019415888            1 
 1049000   0.83583229   -7.9810281    247.17678  0.019635906  0.019400969            1 
 1050000   0.83228309   -7.9601037    247.32496  0.019628965  0.019386146            1 
 1051000   0.84222829    -7.947999    246.95202  0.019580718  0.019371264            1 
 1052000   0.84876411   -7.9716703    246.93402   0.01956068  0.019356463            1 
 1053000   0.82628442   -7.9594094    246.83396  0.019534185  0.019341633            2 
 1054000   0.84407574   -7.9707599    247.12801    0.0195389  0.019326878            3 
 1055000   0.83394067   -7.9709608    247.11748  0.019519549  0.019312159            2 
 1056000   0.83663113   -7.9601317    247.43866   0.01952641  0.019297467            3 
 1057000   0.83262432   -7.9342181    247.59662  0.019520389   0.01928273            1 
 1058000   0.82941969   -7.9398092    248.23079   0.01955189  0.019267984            3 
 1059000   0.82476507   -7.9438324    247.80505  0.019499926  0.019253259            2 
 1060000   0.84114389   -7.9890339    247.38659  0.019448631   0.01923855            1 
 1061000   0.84162822   -7.9794317    247.55889  0.019443834  0.019223779            4 
 1062000   0.82019581   -8.0135192    247.84291  0.019447812  0.019209027            2 
 1063000   0.84211324   -7.9884052    247.50958  0.019403385  0.019194247            2 
 1064000   0.83198351   -8.0038876    248.16068  0.019436143  0.019179509            4 
 1065000   0.81512212   -7.9633298    248.46071   0.01944137  0.019164855            2 
 1066000   0.84100578   -7.9424728    248.64575  0.019437598  0.019150314            1 
 1067000   0.82485138   -7.9796264    248.32636  0.019394436  0.019135745            1 
 1068000   0.81262148   -7.9885447    248.55349  0.019393999  0.019121108            1 
 1069000   0.82085276   -7.9600245    248.41444  0.019365017  0.019106504            1 
 1070000   0.83571795   -7.9814727    247.99577  0.019314312    0.0190918            2 
 1071000   0.83059147   -7.9917758    248.68663  0.019350033  0.019077072            3 
 1072000   0.83242561   -7.9775312    248.70823  0.019333662  0.019062328            2 
 1073000   0.83253976   -7.9587716    248.42217  0.019293427  0.019047627            3 
 1074000   0.84898957   -7.9837708    248.30963  0.019266731  0.019032993            2 
 1075000    0.8217977   -7.9221019    249.02941  0.019304605  0.019018332            2 
 1076000   0.84437023   -7.9648284    248.72801  0.019263322   0.01900372            2 
 1077000    0.8126833    -7.983851     247.9138  0.019182436  0.018988984            3 
 1078000   0.81357971   -7.9468655    249.19677  0.019263819   0.01897426            2 
 1079000   0.82524302   -8.0079897    248.76391  0.019212536  0.018959574            2 
 1080000   0.83253692   -7.9899497    248.74678  0.019193424   0.01894493            2 
 1081000    0.8336754   -7.9956523    249.16886  0.019208207  0.018930295            3 
 1082000   0.83289931   -8.0032204    248.64568   0.01915016  0.018915541            3 
 1083000   0.82200201   -7.9361647    249.49713  0.019197994  0.018900898            5 
 1084000   0.81352888   -8.0089479    248.96522  0.019139393  0.018886316            2 
 1085000   0.83295587   -7.9866065    249.02992  0.019126722  0.018871679            2 
 1086000   0.80485193   -8.0108018    249.42909   0.01913974  0.018857131            2 
 1087000   0.83958811   -8.0171589    248.33764  0.019038457  0.018842559            3 
 1088000   0.82582418   -7.9936753    249.31339  0.019095695  0.018828042            1 
 1089000   0.81627301   -8.0187207    249.91733  0.019124375  0.018813502            2 
 1090000   0.80886524   -8.0183957    249.42077  0.019068866  0.018798966            1 
 1091000   0.81653066   -8.0217072    249.57267   0.01906299  0.018784452            2 
 1092000    0.8181099   -8.0101104    249.79303   0.01906235  0.018769902            2 
 1093000   0.80182118   -8.0405828    249.61272  0.019031162  0.018755425            2 
 1094000   0.83851543   -8.0351695    249.43246  0.019000035  0.018740959            2 
 1095000   0.80809808   -8.0197712    249.89735  0.019018063  0.018726498            5 
 1096000   0.81776932   -8.0065943    250.27138   0.01902915   0.01871203            2 
 1097000   0.80993212   -8.0133775    249.87462  0.018981664   0.01869767            4 
 1098000    0.8148071   -8.0070403    249.56941  0.018941212  0.018683183            6 
 1099000   0.81188236   -8.0448607    249.28575  0.018902468  0.018668634            4 
 1100000   0.82338378   -8.0008293    249.95665   0.01893611  0.018654133            1 
 1101000   0.82556179    -8.017095    249.76935  0.018904734  0.018639693            4 
 1102000   0.81699326   -7.9907913    250.09835  0.018912459  0.018625239            1 
 1103000    0.8069258   -8.0334578    250.20774  0.018903577  0.018610793            2 
 1104000   0.82708172    -7.979773    250.27023   0.01889117   0.01859636            1 
 1105000   0.80558373   -8.0266443    250.24155  0.018871912  0.018582003            2 
 1106000   0.81218558   -8.0349441    250.60497  0.018882231  0.018567691            1 
 1107000   0.82100661   -8.0324107    250.22183  0.018836332  0.018553447            2 
 1108000   0.81175888   -8.0081053    250.58494  0.018846641  0.018539163            2 
 1109000   0.81250844   -8.0367384    250.27378  0.018806265  0.018524789            2 
 1110000   0.80814899   -8.0634018    249.85808  0.018758114  0.018510365            4 
 1111000   0.81020246   -8.0442317    250.07457  0.018757469  0.018496056            1 
 1112000   0.80221485    -8.036674     250.7318  0.018789853  0.018481602            1 
 1113000   0.81735362   -8.0100252     251.2747  0.018813619  0.018467181            2 
 1114000   0.82199264   -8.0413078    250.22287  0.018718048  0.018452692            1 
 1115000   0.80705316   -8.0055229    250.50079  0.018722032  0.018438254            2 
 1116000   0.83311122    -8.008647    251.42783  0.018774479  0.018423898            1 
 1117000   0.80588004   -8.0107328    250.35089  0.018677327  0.018409552            2 
 1118000    0.8125406   -8.0420056    250.62651  0.018681165  0.018395216            2 
 1119000   0.81396286    -7.997303    251.09023  0.018699004  0.018380887            1 
 1120000    0.7998821   -8.0240536    250.53389  0.018640914  0.018366474            1 
 1121000   0.83354961   -8.0661921    250.48813  0.018620884  0.018352064            2 
 1122000    0.7991802   -8.0448473    250.41224  0.018598651  0.018337705            4 
 1123000   0.80651093   -8.0289779    251.33201  0.018650342  0.018323273            3 
 1124000   0.81554719   -8.0264522    250.73287  0.018589329  0.018308858            3 
 1125000   0.78811606   -8.0411562    250.29927  0.018540687  0.018294414            2 
 1126000   0.81019284   -8.0196198    250.48256  0.018537786  0.018279896            2 
 1127000   0.79975965   -8.0252551     250.7133  0.018538399  0.018265464            3 
 1128000   0.79582614   -8.0259144    250.57902  0.018512044  0.018251034            1 
 1129000   0.81482671   -8.0474785    250.37445  0.018480547  0.018236568            1 
 1130000   0.80145649   -8.0171459    250.44328  0.018469268  0.018222018            1 
 1131000   0.79581996   -8.0498588    250.28568  0.018441326  0.018207433            2 
 1132000    0.8157128   -8.0371388    250.90721   0.01847079  0.018192861            1 
 1133000   0.81618626   -8.0738795    250.56081  0.018429009  0.018178221            2 
 1134000   0.79334898   -8.0605295    250.54402  0.018411524  0.018163544            2 
 1135000   0.79170484   -8.0532731    250.63994  0.018402345  0.018148932            3 
 1136000   0.80318934   -8.0390138     250.6851  0.018389458  0.018134298            1 
 1137000   0.79424256   -8.0284684    250.65699  0.018371224   0.01811965            1 
 1138000   0.79345334   -8.0696266    250.63629  0.018353566   0.01810499            1 
 1139000   0.79615252   -8.0562356     250.7369  0.018344813  0.018090387            3 
 1140000   0.79763882   -8.0657858    251.05156  0.018351722  0.018075848            4 
 1141000   0.79535229   -8.0624292    250.84696  0.018320696  0.018061248            4 
 1142000   0.79854045   -8.0887393    250.95063  0.018312218  0.018046645            2 
 1143000   0.79564437   -8.0595897    250.91595  0.018293668  0.018032122            2 
 1144000   0.81186428   -8.0569448     251.2317  0.018300677  0.018017572            1 
 1145000   0.80954646   -8.0421506    251.43614  0.018299574  0.018003072            2 
 1146000   0.76827323   -8.0818831    250.27326  0.018199045  0.017988514            2 
 1147000   0.81268766    -8.062087    250.83009  0.018223633  0.017974003            2 
 1148000   0.78398895    -8.074144    251.24381  0.018237791  0.017959633            2 
 1149000    0.7888622   -8.0526795    251.53775  0.018243237  0.017945197            1 
 1150000   0.78380449   -8.0712714    251.18556  0.018201852  0.017930747            4 
 1151000   0.79039558   -8.0613743    251.60653  0.018216517  0.017916366            4 
 1152000   0.80455402   -8.0881984    251.59831   0.01820011  0.017902043            2 
 1153000   0.79298512   -8.0933648    251.23021   0.01815772  0.017887701            2 
 1154000   0.79403993   -8.0666135    251.42416  0.018155991  0.017873281            2 
 1155000   0.79239215   -8.0884995    251.81771  0.018168666  0.017858901            3 
 1156000   0.79987875   -8.0791486    251.63841  0.018140024  0.017844434            2 
 1157000   0.81260926   -8.1129923    251.28646  0.018098996  0.017830102            1 
 1158000   0.80375713   -8.0801809    251.31646  0.018085525  0.017815714            4 
 1159000   0.77804085   -8.1127358    251.64913   0.01809384   0.01780136            3 
 1160000   0.79922066   -8.0618144    252.37917  0.018130687  0.017787092            2 
 1161000   0.78815202   -8.0654095    252.15926  0.018099287  0.017772825            1 
 1162000    0.7812198   -8.0734657    252.52207  0.018109729  0.017758624            2 
 1163000   0.79051906   -8.1036812    251.97729  0.018055122  0.017744414            2 
 1164000   0.78848296   -8.0880212    252.72415   0.01809308  0.017730166            2 
 1165000   0.78098292   -8.0605915    252.34656   0.01805054  0.017715941            2 
 1166000   0.79569492   -8.0558412    252.62482  0.018054947   0.01770176            3 
 1167000   0.78151283    -8.067626    252.24027  0.018012016  0.017687549            2 
 1168000   0.76834227     -8.06902    252.06498  0.017984088  0.017673285            3 
 1169000   0.77239912   -8.0759731    253.08444  0.018041377  0.017659071            2 
 1170000   0.78850061   -8.0927684    252.44673  0.017980537  0.017644861            2 
 1171000   0.78186959   -8.1230878    251.64919  0.017908425   0.01763063            3 
 1172000   0.79243691   -8.0976424    252.70944  0.017968532   0.01761648            2 
 1173000   0.80352164   -8.0635531    252.22802  0.017919012  0.017602336            3 
 1174000   0.77552705   -8.0839875    252.67031  0.017935144  0.017588176            2 
 1175000   0.77043904   -8.1358146    252.29444  0.017893223   0.01757402            1 
 1176000    0.7734427   -8.0928571    252.76385  0.017911271  0.017559868            1 
 1177000   0.79133716   -8.0892408    252.65398  0.017888274  0.017545814            1 
 1178000    0.7566866   -8.0931284     252.8573  0.017887472  0.017531686            3 
 1179000   0.77601862   -8.1230537    252.21691  0.017827037  0.017517557            4 
 1180000   0.77433032   -8.0918749    252.93414   0.01786258  0.017503487            2 
 1181000   0.77496661   -8.0859042    253.46992  0.017885261  0.017489456            1 
 1182000   0.77904515   -8.1065476    253.29257  0.017857626  0.017475414            3 
 1183000   0.77586755   -8.0954273    252.80073  0.017807884  0.017461372            2 
 1184000   0.77790432   -8.1032133    252.75659  0.017789737  0.017447353            3 
 1185000   0.79854262   -8.1081759    252.85039  0.017781321  0.017433322            2 
 1186000    0.7887539   -8.0845578    253.26287  0.017795311  0.017419341            3 
 1187000   0.77724863   -8.1135359    252.50603  0.017727186  0.017405276            3 
 1188000   0.78120177   -8.0794202     253.3616  0.017772278  0.017391355            2 
 1189000   0.77748511   -8.1294082    252.54611  0.017700176  0.017377417            1 
 1190000   0.79029404   -8.0962414    252.91812  0.017711353  0.017363429            3 
 1191000   0.80114054    -8.128162    253.36377  0.017727664  0.017349443            1 
 1192000    0.7712766   -8.0885183    253.30247  0.017708506  0.017335543            3 
 1193000   0.76636961   -8.1050408    253.02579  0.017674336  0.017321642            1 
 1194000   0.78419279   -8.1006552    253.53504  0.017695075  0.017307694            3 
 1195000   0.78661728   -8.0971028     252.5159  0.017609198  0.017293757            2 
 1196000   0.77455708   -8.0579045    253.61521  0.017671071   0.01727986            3 
 1197000   0.75487447   -8.0770139    253.09519  0.017620105  0.017265852            2 
 1198000   0.79967877    -8.075965    253.01039  0.017599498  0.017251905            4 
 1199000   0.76319979   -8.1063834    253.21749  0.017599214  0.017238011            3 
 1200000    0.7753044   -8.1128179    253.26415  0.017587788  0.017224069            2 
 1201000   0.76581545   -8.1233673    253.45122  0.017586124  0.017210125            4 
 1202000   0.77800829   -8.1013303    253.96909  0.017607397  0.017196183            2 
 1203000   0.78261403   -8.0994309    253.36244  0.017550737  0.017182298            2 
 1204000   0.78036894   -8.0858542    254.14245  0.017590147  0.017168412            2 
 1205000   0.76648731   -8.1207871    253.29751  0.017517117  0.017154544            5 
 1206000   0.77549683   -8.1137837    253.40223  0.017509828  0.017140637            3 
 1207000   0.77568153    -8.104272    253.30295  0.017488467  0.017126667            2 
 1208000    0.7686876   -8.1204507    253.31445  0.017474783  0.017112707            1 
 1209000   0.76449656   -8.1203114    252.88938  0.017431029   0.01709872            2 
 1210000    0.7709479   -8.1260889    253.65554   0.01746939  0.017084807            1 
 1211000   0.76170379   -8.1357346    253.51902   0.01744557  0.017070945            2 
 1212000   0.76372776    -8.115937    253.53109  0.017432005  0.017057094            2 
 1213000   0.77628119   -8.1189062    253.67273  0.017427365  0.017043227            3 
 1214000   0.77076476   -8.1536001    253.69359  0.017414442  0.017029329            3 
 1215000   0.77054972   -8.1493007    253.75133   0.01740407  0.017015448            4 
 1216000   0.76074977   -8.1321011    253.32665  0.017360653  0.017001533            2 
 1217000   0.75829499   -8.1625837    253.45383  0.017355096  0.016987641            5 
 1218000   0.76175958   -8.1421505     253.5918  0.017350287  0.016973764            2 
 1219000   0.77058647    -8.138055    253.26883  0.017313975  0.016959956            1 
 1220000    0.7606473    -8.134104    254.04258  0.017352635  0.016946074            5 
 1221000   0.76898493     -8.10502    253.95199  0.017332241  0.016932202            4 
 1222000      0.75228   -8.1093725    253.94797  0.017317783   0.01691837            2 
 1223000   0.74798407   -8.0788556    254.49519   0.01734091  0.016904588            1 
 1224000   0.77513582   -8.1569056    254.15062  0.017303283  0.016890768            1 
 1225000   0.77683245    -8.165279    253.09212  0.017217151  0.016876949            2 
 1226000   0.75529661    -8.145317    253.93013  0.017260069  0.016863075            3 
 1227000   0.74436917   -8.1489346    253.76387   0.01723471  0.016849225            1 
 1228000   0.75014489   -8.1515234    254.01555  0.017237754   0.01683543            2 
 1229000   0.74531019   -8.1341569    253.74941  0.017205683  0.016821605            1 
 1230000   0.76744062   -8.1448183    254.41176  0.017236569  0.016807797            2 
 1231000   0.73707633   -8.1266122    254.80007  0.017248854  0.016793989            1 
 1232000   0.77452204   -8.1740884    253.97637  0.017179138  0.016780203            1 
 1233000   0.76230827   -8.1484475    253.50208  0.017133149  0.016766456            2 
 1234000   0.76827301   -8.1627339    254.16017  0.017163707  0.016752709            1 
 1235000   0.75769209    -8.174616    254.58597   0.01717854  0.016738985            5 
 1236000   0.74325233   -8.1522435     254.2318  0.017140763  0.016725249            2 
 1237000   0.74828288   -8.1439098    253.76616  0.017095537   0.01671155            3 
 1238000   0.76562846    -8.131263    254.46921  0.017129053  0.016697852            2 
 1239000   0.76220821   -8.1699109    253.73592  0.017065908  0.016684183            6 
 1240000   0.77038041   -8.1326053    254.14966   0.01707995  0.016670514            1 
 1241000    0.7387608   -8.1402364     254.5096  0.017090357  0.016656899            1 
 1242000   0.74680327   -8.1369164    254.63296  0.017084874  0.016643289            2 
 1243000   0.76872564   -8.1600067    254.35335  0.017052383  0.016629604            1 
 1244000   0.76294268   -8.1816009    254.84939  0.017071905  0.016615932            2 
 1245000   0.76413109   -8.1758447     253.5461  0.016970957  0.016602295            1 
 1246000   0.75390995   -8.1731269    254.35519  0.017011449  0.016588582            1 
 1247000   0.76123941   -8.1479782    254.37136  0.016998888  0.016574921            2 
 1248000   0.77827859   -8.1983847    253.95386  0.016957389  0.016561246            2 
 1249000    0.7661508   -8.1772013    253.75507  0.016930549  0.016547538            3 
 1250000   0.76587509   -8.1883284    253.91952  0.016927968  0.016533853            3 
 1251000   0.74672067   -8.1534069     254.1643  0.016930742  0.016520214            2 
 1252000   0.76595158   -8.1615644     253.9049  0.016899953  0.016506634            2 
 1253000   0.75448275   -8.1842345    254.05782  0.016896636  0.016493013            2 
 1254000    0.7398929   -8.2086512     254.2304   0.01689463  0.016479314            1 
 1255000   0.74679783   -8.2056265    254.57541  0.016904078  0.016465653            3 
 1256000   0.75688192   -8.1903174    254.16469  0.016863368  0.016451929            2 
 1257000   0.74153164   -8.1926939    253.83711  0.016828236  0.016438254            2 
 1258000   0.75114659   -8.1893341    254.38469  0.016851132  0.016424642            2 
 1259000   0.75297914   -8.1905229    254.00232  0.016812438  0.016411007            3 
 1260000   0.74982878   -8.2104681    254.28025  0.016817477  0.016397399            1 
 1261000   0.75956711   -8.1913489    254.84093  0.016841193  0.016383781            1 
 1262000   0.75020133   -8.1817652    254.41001  0.016799393  0.016370191            1 
 1263000   0.75647079   -8.1985169    254.64441  0.016801558   0.01635663            2 
 1264000    0.7352832   -8.2070829     254.8676   0.01680298  0.016343103            3 
 1265000   0.74970155   -8.1631979    254.30579  0.016752687  0.016329565            4 
 1266000   0.74963123   -8.1834767    254.37942  0.016744301  0.016316042            1 
 1267000   0.73584651   -8.1748605    254.35511  0.016729486  0.016302537            1 
 1268000   0.76094528   -8.2009996     254.6138  0.016733294  0.016288993            3 
 1269000   0.75244375   -8.1928445     254.8057  0.016732709  0.016275448            3 
 1270000   0.75414005   -8.2029236     254.9001  0.016725729  0.016261955            2 
 1271000   0.75075029   -8.1690757    254.62731  0.016694684  0.016248429            7 
 1272000   0.74615632   -8.1887668    254.98561  0.016705032  0.016234948            2 
 1273000   0.73555771   -8.2103895     254.9057  0.016686679  0.016221486            2 
 1274000   0.75494315   -8.2075946    254.53516  0.016649343  0.016208005            4 
 1275000   0.73812492   -8.2080868    254.91898  0.016661371  0.016194523            1 
 1276000   0.74469032   -8.1900891    254.90704  0.016647534  0.016181014            1 
 1277000   0.72726347   -8.2173647    254.34658  0.016597924  0.016167493            1 
 1278000   0.75120241   -8.1730887    254.59209  0.016600945  0.016153969            2 
 1279000   0.75214888   -8.2031165    255.08379  0.016620002  0.016140485            2 
 1280000   0.73591447    -8.207949      254.649  0.016578711  0.016127003            2 
 1281000   0.73407606   -8.2082418    254.38802  0.016548792   0.01611357            1 
 1282000    0.7432423   -8.1996178    255.10492  0.016582483   0.01610018            2 
 1283000   0.74518688   -8.2092294    254.88778  0.016555455  0.016086855            3 
 1284000   0.75652974   -8.2171117    254.46686  0.016515242  0.016073461            1 
 1285000   0.74749413   -8.2481098    254.48131  0.016503328  0.016060071            6 
 1286000   0.73487982   -8.2138667    255.01344  0.016524977  0.016046708            2 
 1287000   0.73373258   -8.2229486    254.37932  0.016471077  0.016033395            2 
 1288000   0.73610205   -8.2404655    254.33985  0.016455736  0.016020047            3 
 1289000   0.74958198   -8.2126358    255.18398  0.016497542  0.016006687            1 
 1290000   0.73830225   -8.2198946    255.06885  0.016477316    0.0159934            2 
 1291000   0.72500476   -8.2262475    255.17841  0.016471625  0.015980124            6 
 1292000   0.74397851   -8.2469223    255.02011  0.016448666  0.015966811            2 
 1293000   0.74694783   -8.2243691    255.02822  0.016436467   0.01595355            1 
 1294000   0.73949959   -8.2575367    254.75862  0.016406403  0.015940305            2 
 1295000   0.73907112   -8.2405865    255.00749  0.016409748  0.015927039            2 
 1296000   0.74357876   -8.2377807    255.01471  0.016397551  0.015913788            2 
 1297000   0.74229646   -8.2156006    255.76374  0.016433034  0.015900518            1 
 1298000   0.73715904   -8.2566494    255.06817  0.016375717  0.015887254            2 
 1299000   0.73323156   -8.2410397    254.58793  0.016332302  0.015873959            2 
 1300000   0.73028263   -8.2322829    254.72417  0.016328472   0.01586066            2 
 1301000   0.72269214     -8.24131    254.89664  0.016326969  0.015847402            1 
 1302000   0.72841236   -8.2136338    255.47109  0.016351196   0.01583413            1 
 1303000   0.73366562   -8.2443418    254.93882  0.016304606  0.015820821            1 
 1304000   0.73319639   -8.2401456    255.14748  0.016305437  0.015807572            1 
 1305000   0.72729487   -8.2370722    255.35571  0.016306239  0.015794366            1 
 1306000   0.74015506   -8.2386913    255.08569  0.016276524  0.015781155            2 
 1307000   0.74954948   -8.2481508    254.62135  0.016234465  0.015767929            2 
 1308000   0.75618672   -8.2608287      255.066  0.016250382   0.01575467            4 
 1309000   0.75198169   -8.2555171    255.00183  0.016233883  0.015741424            1 
 1310000   0.70359894   -8.2647957    254.99465  0.016221034  0.015728205            1 
 1311000   0.73356297   -8.2406489    255.43751  0.016236811  0.015715028            2 
 1312000   0.72236139   -8.2602387    255.10088  0.016203054  0.015701854            2 
 1313000    0.7349538   -8.2563794    254.92616  0.016179624    0.0156887            2 
 1314000   0.71606898   -8.2542216    254.76212  0.016156908  0.015675531            4 
 1315000   0.72643789   -8.2301401    254.98461  0.016158721  0.015662398            4 
 1316000   0.73228376   -8.2383546    255.70178  0.016191855  0.015649268            1 
 1317000   0.74638962   -8.2551898    255.29577  0.016153871  0.015636136            4 
 1318000   0.71885494   -8.2599944    255.03731  0.016125272  0.015623006            1 
 1319000   0.72642881   -8.2459684    255.05865  0.016114395  0.015609935            4 
 1320000   0.73480718   -8.2503026    255.29822  0.016117312  0.015596836            3 
 1321000   0.72191642   -8.2707004     255.5968  0.016123947  0.015583772            3 
 1322000   0.72931375   -8.2513274    255.25038  0.016089913  0.015570694            1 
 1323000    0.7298823   -8.2307909    255.65682  0.016103352  0.015557623            1 
 1324000   0.71438066   -8.2441499    255.18659  0.016061593  0.015544537            1 
 1325000   0.70074701   -8.2561321    254.78206  0.016024029  0.015531387            2 
 1326000   0.73142884   -8.2760297    254.98277  0.016024558  0.015518269            3 
 1327000   0.71837213   -8.2514913    255.46316   0.01604265  0.015505125            2 
 1328000   0.71652627   -8.2494123    255.49643  0.016032658  0.015492037            2 
 1329000   0.71073759   -8.2846434    255.32103  0.016009595  0.015479005            2 
 1330000   0.70993209    -8.264582     255.5182  0.016009912   0.01546595            1 
 1331000   0.72099429   -8.2480589    254.99478  0.015965113  0.015452878            3 
 1332000    0.7186764   -8.2820511    255.33812  0.015974607  0.015439827            2 
 1333000   0.72547245   -8.2561752    254.96913  0.015939556  0.015426819            2 
 1334000   0.70608832   -8.2810444    254.72516  0.015912367  0.015413829            2 
 1335000    0.7218421   -8.2672361    255.48561  0.015947916  0.015400872            2 
 1336000   0.71755908    -8.232799    255.65081  0.015946283  0.015387972            2 
 1337000   0.71919738   -8.2677591    255.47739  0.015923547    0.0153751            2 
 1338000    0.7072415   -8.2291441    256.22648  0.015958301  0.015362245            2 
 1339000   0.71766421   -8.2734992    255.47087  0.015899357   0.01534939            1 
 1340000   0.70674231   -8.2676216    255.36699  0.015881032  0.015336523            1 
 1341000   0.72376463   -8.2662771    255.91881  0.015903481  0.015323665            2 
 1342000   0.72366862   -8.2618196    255.77026  0.015882406  0.015310811            2 
 1343000   0.72302642   -8.2606493     255.4765  0.015852352  0.015297978            1 
 1344000   0.73219558   -8.2793278    255.87225  0.015865095  0.015285234            1 
 1345000   0.69808659   -8.2501428    256.00658  0.015861622  0.015272462            2 
 1346000   0.70996503   -8.2610671    255.65648  0.015828163  0.015259708            1 
 1347000   0.71522792   -8.2696748    256.42048  0.015863678  0.015246945            1 
 1348000    0.7215284   -8.2666013    256.02858  0.015827682  0.015234218            2 
 1349000   0.70329055    -8.263273    256.12567  0.015821946  0.015221453            2 
 1350000   0.72167494   -8.2553619    255.52769  0.015773314  0.015208686            2 
 1351000    0.7116688   -8.2642372    255.62128  0.015767412  0.015195915            2 
 1352000   0.70390535   -8.2939631    255.26594  0.015733848   0.01518313            1 
 1353000   0.72028473   -8.2999788    255.57896  0.015741498  0.015170333            1 
 1354000   0.70240866   -8.2920225    255.23672  0.015708809   0.01515757            2 
 1355000   0.71517071   -8.3023671    255.10672   0.01568922   0.01514477            1 
 1356000   0.72633178   -8.3047147    255.41197  0.015696409   0.01513196            1 
 1357000   0.73710323   -8.2827771    255.50786  0.015690731  0.015119172            3 
 1358000   0.70395976   -8.2973263    255.22829  0.015662021  0.015106404            3 
 1359000   0.71773086   -8.2980454    255.58568  0.015672411  0.015093645            1 
 1360000   0.70810889   -8.2908421    255.80671  0.015674431  0.015080911            2 
 1361000   0.72819727     -8.31555    255.49131  0.015643602  0.015068196            1 
 1362000   0.70136412   -8.2872872    255.49128  0.015632115  0.015055477            3 
 1363000    0.7051716   -8.3026521    256.04417  0.015654449  0.015042802            2 
 1364000   0.70725886     -8.30688    255.65154  0.015618985  0.015030137            3 
 1365000   0.70440813   -8.3170009     256.1411   0.01563743  0.015017481            4 
 1366000   0.71282968   -8.3098043    256.29613   0.01563544  0.015004843            1 
 1367000    0.7075493   -8.3334865    256.06372  0.015609834  0.014992198            1 
 1368000   0.70423323   -8.3109849    255.68138  0.015575133  0.014979563            1 
 1369000   0.70659803   -8.3201757    255.90643  0.015577455  0.014966937            4 
 1370000   0.70620014   -8.2945735    255.80932  0.015560178  0.014954279            1 
 1371000   0.70791908   -8.3504574    256.00302  0.015560602  0.014941664            1 
 1372000    0.7128732   -8.3346469    256.34765  0.015570192  0.014929057            3 
 1373000   0.70479237   -8.3041404    256.07551  0.015542335   0.01491646            1 
 1374000   0.70039118   -8.3286457    255.83266  0.015516294   0.01490385            3 
 1375000    0.7016771   -8.3119272    256.19922  0.015527226  0.014891248            2 
 1376000   0.68931387   -8.3110017    255.81867  0.015492894  0.014878663            1 
 1377000   0.69863344   -8.3290941    255.81445  0.015481388  0.014866041            4 
 1378000   0.68850518   -8.3504934    255.36859   0.01544319  0.014853445            3 
 1379000   0.69708359   -8.3300018    255.99759  0.015470002   0.01484088            3 
 1380000   0.69375098   -8.3162779    255.75618  0.015444214  0.014828331            2 
 1381000   0.69192722   -8.3144517    255.26579  0.015403439  0.014815746            3 
 1382000   0.70258284   -8.3126361     255.7965  0.015424294  0.014803194            2 
 1383000   0.70340702   -8.3348527    255.75755  0.015410795  0.014790658            1 
 1384000   0.69566877   -8.3311931    255.54813   0.01538705  0.014778138            3 
 1385000   0.67822498   -8.3399881    255.95713   0.01540055  0.014765589            2 
 1386000   0.69804092   -8.3331357    255.44681  0.015358755  0.014753066            6 
 1387000    0.6981213   -8.3308887    255.79294  0.015368478  0.014740536            2 
 1388000   0.70128838   -8.3253159    255.57274  0.015344185  0.014728047            2 
 1389000   0.71036661   -8.3317273     255.5412  0.015331245  0.014715587            2 
 1390000   0.68624363     -8.34325    255.72722  0.015331368  0.014703102            4 
 1391000   0.69549478   -8.3249563    256.55077  0.015369684  0.014690648            2 
 1392000    0.6966865   -8.3279521    255.75805  0.015311186  0.014678186            3 
 1393000   0.69960635   -8.3450687    255.61839  0.015291839  0.014665725            2 
 1394000     0.690617   -8.3380569    255.28035  0.015260662  0.014653276            2 
 1395000   0.69280601   -8.3085823    256.17812  0.015303352  0.014640848            2 
 1396000   0.69076609   -8.3346553    255.61874  0.015258999  0.014628411            1 
 1397000    0.6991852   -8.3442254    255.76821  0.015256992  0.014616009            2 
 1398000   0.69686894   -8.3323181    256.29971  0.015277761  0.014603607            3 
 1399000   0.69766128   -8.3264932    256.03884  0.015251301  0.014591207            1 
 1400000   0.69890193   -8.3424617    255.72057  0.015221462    0.0145788            2 
 1401000   0.69584188   -8.3281519    255.84475  0.015217984  0.014566389            2 
 1402000   0.68314452   -8.3535319    256.24499  0.015230919  0.014554018            3 
 1403000   0.69399939   -8.3268161    255.96086  0.015203187   0.01454167            2 
 1404000   0.69214951   -8.3385723    256.04554  0.015197385  0.014529358            2 
 1405000   0.68922279   -8.3291673    255.49164  0.015153715  0.014517032            2 
 1406000    0.7011672   -8.3192309    256.43891  0.015199082  0.014504733            4 
 1407000   0.70275383   -8.3472534    256.39952  0.015185947  0.014492454            2 
 1408000    0.6819357    -8.325557    256.46581  0.015179084  0.014480159            3 
 1409000   0.69272269   -8.3483281    256.23906  0.015154901   0.01446786            7 
 1410000   0.68264799    -8.337523    256.28347  0.015146777  0.014455568            3 
 1411000   0.70315725   -8.3367322     256.6359  0.015156857  0.014443288            3 
 1412000   0.70288149   -8.3354993    255.72402  0.015092305   0.01443103            3 
 1413000   0.69265326    -8.349775     255.7035  0.015080414  0.014418763            2 
 1414000   0.69773627   -8.3824419    256.03139  0.015089073  0.014406478            2 
 1415000   0.68945653   -8.3577594    255.79611  0.015064553   0.01439419            2 
 1416000   0.70464864   -8.3785852    255.69487  0.015047956    0.0143819            3 
 1417000   0.68115481   -8.3703746    255.53623  0.015028007  0.014369645            3 
 1418000   0.68454272   -8.3568018    255.59538  0.015020885  0.014357377            4 
 1419000   0.68492638   -8.3583164    255.52075  0.015005917  0.014345156            2 
 1420000    0.6768153   -8.3581114    256.00018  0.015023485  0.014332943            4 
 1421000   0.69740836   -8.3460755    255.81338  0.015001958   0.01432071            8 
 1422000   0.68572888   -8.3680196    255.02863  0.014945419  0.014308457            3 
 1423000   0.69715432   -8.3587736    255.66881  0.014972406  0.014296213            3 
 1424000   0.68056798    -8.357197    255.70517   0.01496402  0.014284033            3 
 1425000   0.68046491   -8.3646632    255.78158  0.014957987  0.014271866            1 
 1426000   0.68835121   -8.3623443    256.03429  0.014962265   0.01425973            3 
 1427000   0.68701691   -8.3384175    255.68847  0.014931585  0.014247598            1 
 1428000   0.68232759   -8.3419047    255.82646  0.014929182  0.014235479            2 
 1429000   0.69303301   -8.3754876    255.45184  0.014896888  0.014223345            4 
 1430000   0.67177291   -8.3531827     256.0382  0.014920641  0.014211189            3 
 1431000   0.67930189   -8.3782055    255.93608  0.014904268  0.014199048            1 
 1432000   0.68975453   -8.3335857    255.95653   0.01489505  0.014186908            4 
 1433000     0.678112   -8.3565315    255.85393  0.014878689  0.014174833            2 
 1434000   0.68678781   -8.3762678    255.18681  0.014829545  0.014162749            2 
 1435000   0.68527864   -8.3596564    255.75893  0.014852435  0.014150622            2 
 1436000    0.6866784   -8.3617151    256.18307  0.014866705  0.014138528            2 
 1437000   0.68113714    -8.355164     256.0947  0.014851235  0.014126483            2 
 1438000   0.68191612   -8.3676201    256.18918  0.014846383  0.014114435            1 
 1439000    0.6849473   -8.3556488    256.04403   0.01482766  0.014102385            2 
 1440000   0.68096222   -8.3888011    255.92085  0.014810234   0.01409033            1 
 1441000   0.67543485   -8.3618557    256.03863  0.014806768   0.01407829            2 
 1442000   0.68249543   -8.3886108    256.52741  0.014824746  0.014066299            2 
 1443000   0.68792884   -8.3513973    256.41237  0.014807829  0.014054305            2 
 1444000   0.67371468   -8.3569601    256.42966  0.014798572  0.014042358            2 
 1445000   0.67712138   -8.3625721    256.47542   0.01479097    0.0140304            1 
 1446000   0.66923977   -8.3512252    255.80281  0.014741978  0.014018465            2 
 1447000    0.6804266   -8.3706371    256.23129  0.014756467  0.014006582            2 
 1448000   0.67373864   -8.3735056    256.30431  0.014750478  0.013994735            2 
 1449000    0.6866921   -8.3435249    256.27134  0.014738402  0.013982884            1 
 1450000    0.6744696   -8.4009487    255.81599  0.014702068  0.013971023            2 
 1451000   0.67025119   -8.3668926    256.34512  0.014722325  0.013959166            1 
 1452000   0.69572907   -8.3865867    256.28923  0.014708978  0.013947333            2 
 1453000   0.68258083   -8.3666964    256.72804  0.014724022  0.013935526            3 
 1454000   0.67865898   -8.3858893    256.28649  0.014688588  0.013923731            1 
 1455000   0.67417433   -8.3757333     256.0548  0.014665223  0.013911948            1 
 1456000   0.67266642   -8.3356951    256.52629  0.014682136  0.013900158            4 
 1457000   0.68317951   -8.3597295    256.87296  0.014691888  0.013888433            2 
 1458000   0.66959551   -8.3810431    255.92505  0.014627632  0.013876687            2 
 1459000   0.66194946   -8.3666714    256.52971  0.014652142  0.013864922            2 
 1460000   0.64183978   -8.3611225    256.84669  0.014660199  0.013853184            3 
 1461000   0.66639994   -8.3693443    256.33013  0.014620701   0.01384144            1 
 1462000   0.68089714   -8.3854208      256.285  0.014608128  0.013829712            2 
 1463000   0.66572726   -8.3681297    256.32038  0.014600158   0.01381796            4 
 1464000   0.66023431   -8.3942929    256.06982  0.014575923  0.013806225            4 
 1465000   0.67449383   -8.3878532    255.55115  0.014536471  0.013794468            3 
 1466000   0.65721256   -8.3890115    256.03456  0.014554034  0.013782764            4 
 1467000   0.66259973   -8.4079338    255.77079  0.014529129  0.013771041            3 
 1468000   0.67485849   -8.4319427    256.08181  0.014536887  0.013759335            3 
 1469000    0.6635618   -8.3863052    256.21569  0.014534587  0.013747627            3 
 1470000   0.67177719   -8.4016425    256.22499  0.014525226  0.013735917            1 
 1471000   0.67231314   -8.4066807    256.16368  0.014511879  0.013724245            2 
 1472000   0.66032407    -8.389766    255.73974   0.01447802  0.013712578            6 
 1473000   0.67045811   -8.4054738    256.68747  0.014521807  0.013700904            3 
 1474000   0.66382183   -8.4101165    256.27006  0.014488357   0.01368925            4 
 1475000   0.66930097   -8.4227626    256.32351  0.014481554  0.013677612            3 
 1476000   0.66963673   -8.3902153    256.37708  0.014474767  0.013665964            2 
 1477000   0.65641333   -8.3927725    255.85916  0.014435746  0.013654332            5 
 1478000   0.66433781   -8.3898341    255.69469  0.014416706  0.013642739            2 
 1479000   0.65456974    -8.379283    256.00181  0.014424262  0.013631114            5 
 1480000   0.66774241   -8.4110381    256.32318  0.014432611  0.013619501            6 
 1481000   0.66479852   -8.3967239    256.30879  0.014422057  0.013607894            3 
 1482000   0.66901422   -8.4186127    256.00034  0.014394981  0.013596299            2 
 1483000   0.65239048    -8.385393    256.13188  0.014392666  0.013584692            1 
 1484000    0.6584227   -8.4023428    256.22689  0.014388303  0.013573114            5 
 1485000    0.6477692    -8.421832     255.9876  0.014365185  0.013561545            3 
 1486000   0.64693456   -8.4079674     255.9263   0.01435208  0.013549942            2 
 1487000   0.67955055   -8.4276961    256.31908  0.014364441  0.013538346            3 
 1488000   0.66323856   -8.4141785    255.53162  0.014310687  0.013526752            3 
 1489000   0.66309002   -8.3974158     256.0202   0.01432842  0.013515194            4 
 1490000   0.64644956   -8.4112691    255.59023  0.014294756  0.013503643            2 
 1491000   0.64232435   -8.3981109    255.66214  0.014289187  0.013492112            1 
 1492000    0.6609959   -8.3969945    255.99964  0.014298461  0.013480606            5 
 1493000   0.64334791   -8.4041045     256.5473  0.014319452  0.013469087            2 
 1494000   0.64632115   -8.4325324    255.66344  0.014260567   0.01345756            1 
 1495000   0.65784164   -8.4046705    256.14127  0.014277663   0.01344603            2 
 1496000    0.6429433   -8.4324824    255.51004  0.014232957  0.013434483            1 
 1497000   0.64645636   -8.4177103     255.7469  0.014236634  0.013422908            2 
 1498000   0.64356479   -8.4088956    255.89417  0.014235323  0.013411384            3 
 1499000   0.65615958   -8.4272311    255.81684  0.014221528  0.013399841            2 
 1500000   0.65809268   -8.4349931    255.96206  0.014220114  0.013388317            1 
 1501000   0.64898463   -8.4424278     255.7499  0.014198862  0.013376793            2 
 1502000   0.65822585   -8.4626899     255.1304  0.014155038  0.013365305            2 
 1503000   0.66266472   -8.4275564    255.23762  0.014151565   0.01335381            2 
 1504000   0.65445573   -8.4322745    255.72412  0.014169111  0.013342312            2 
 1505000   0.65393432   -8.4362143    255.77012  0.014162244   0.01333081            4 
 1506000    0.6565466   -8.4270313    255.69381  0.014148617  0.013319342            2 
 1507000   0.64387436   -8.4310747    255.09692  0.014106222  0.013307863            1 
 1508000   0.64590105    -8.450823    255.33545  0.014110049  0.013296402            2 
 1509000   0.64617068   -8.4602327    254.91722  0.014077602  0.013284923            2 
 1510000   0.65303633   -8.4333099    255.61296  0.014106676  0.013273447            2 
 1511000   0.65412555   -8.4618588    255.34203  0.014082398  0.013262005            1 
 1512000   0.63612999   -8.4326826    255.22936  0.014066874  0.013250562            1 
 1513000   0.63021212   -8.4671705    254.92027  0.014040553  0.013239141            2 
 1514000   0.65000142   -8.4498917     255.4376  0.014059753  0.013227671            1 
 1515000    0.6484108     -8.46228    255.40569  0.014048718  0.013216225            3 
 1516000   0.64560095   -8.4605446    255.38002   0.01403804  0.013204799            2 
 1517000   0.65359455   -8.4538699    255.27855  0.014023212  0.013193377            2 
 1518000   0.65826264   -8.4362255    255.08678  0.014003446  0.013181945            2 
 1519000   0.63709091   -8.4583664    254.81548  0.013979344  0.013170523            3 
 1520000   0.64378994   -8.4613765    255.22416  0.013992553  0.013159111            3 
 1521000   0.64176157   -8.4663398    255.52873   0.01400004  0.013147721            4 
 1522000   0.64928346   -8.4416488    255.06218  0.013965297  0.013136369            2 
 1523000   0.62643047   -8.4841771    255.08631  0.013957448  0.013125008            1 
 1524000   0.63780119   -8.4616321    255.60923  0.013976883  0.013113664            2 
 1525000   0.63848222   -8.4497049    255.30731  0.013951219  0.013102349            2 
 1526000     0.648502   -8.4331573    255.71657  0.013964426  0.013091049            2 
 1527000   0.62883592   -8.4586289    254.88511  0.013909906   0.01307972            2 
 1528000   0.64870392    -8.458619    255.61548  0.013940635  0.013068388            4 
 1529000   0.64214299   -8.4499255    255.52447  0.013926557  0.013057044            2 
 1530000   0.64442708   -8.4450613     255.1038  0.013894542  0.013045736            1 
 1531000   0.63539908   -8.4749438    255.23063   0.01389237   0.01303443            1 
 1532000   0.63665875   -8.4594095    255.44539  0.013894984  0.013023151            5 
 1533000   0.65155935    -8.470289    255.13373  0.013868979  0.013011863            3 
 1534000   0.62690984   -8.4754546    255.11468  0.013858903  0.013000592            1 
 1535000   0.62733734   -8.4791377    255.21959  0.013855569  0.012989325            4 
 1536000   0.63693491   -8.4758284     255.0408  0.013836849   0.01297807            2 
 1537000    0.6358605   -8.4744241    255.03897  0.013827747  0.012966818            1 
 1538000   0.64890373   -8.4719681    254.94539  0.013813686  0.012955568            1 
 1539000   0.62800609   -8.4835114    254.70671  0.013791786  0.012944328            1 
 1540000   0.63620266   -8.4808924    255.10105  0.013804169  0.012933085            4 
 1541000    0.6441525   -8.4885853    254.90577  0.013784651  0.012921855            1 
 1542000    0.6487261   -8.4833068    254.96724  0.013779034  0.012910647            1 
 1543000   0.64269071   -8.4797415    255.14047  0.013779459  0.012899435            2 
 1544000   0.64386153   -8.4817321    254.67062  0.013745176  0.012888211            4 
 1545000    0.6423792   -8.4806185    254.82629  0.013744676  0.012877024            2 
 1546000   0.63754254   -8.4749415    254.89675  0.013739583  0.012865841            2 
 1547000   0.63300104   -8.4650355    255.22568  0.013748421  0.012854647            3 
 1548000   0.63409295   -8.4793753    255.05872  0.013730551  0.012843494            1 
 1549000   0.63737424   -8.4826523    254.82289     0.013709  0.012832367            5 
 1550000   0.63332507   -8.4917912    255.17279  0.013718967  0.012821233            3 
 1551000   0.63202687   -8.4956308    255.20373  0.013711785  0.012810133            1 
 1552000   0.63564757   -8.4876602    255.30567  0.013708423  0.012799032            3 
 1553000   0.64223359   -8.4759676     254.6475  0.013664279  0.012787924            3 
 1554000   0.64112554   -8.4871767    254.99224  0.013673972  0.012776843            2 
 1555000   0.63173602   -8.4838852    255.09531  0.013670702  0.012765779            3 
 1556000   0.63981828   -8.4829466    255.19943  0.013667493  0.012754719            3 
 1557000   0.62708607   -8.4947043    254.95298  0.013645525  0.012743665            1 
 1558000   0.63291516   -8.5067811     254.9373  0.013635928    0.0127326            1 
 1559000   0.64312369   -8.5055288    254.61766  0.013610095  0.012721537            2 
 1560000    0.6396688   -8.5025096    255.13057   0.01362877  0.012710479            2 
 1561000    0.6276566   -8.5054527     255.0345  0.013614911  0.012699446            2 
 1562000   0.62878319   -8.5024971    254.86142   0.01359696  0.012688403            1 
 1563000   0.62743278   -8.5096584    255.26209  0.013609623  0.012677377            1 
 1564000   0.64470622   -8.4984227    254.79864  0.013576228  0.012666371            1 
 1565000   0.62623884   -8.4788766    255.39804   0.01359947  0.012655373            3 
 1566000   0.63515221   -8.5025871    254.66288  0.013551665  0.012644388            2 
 1567000   0.64155887   -8.5187679    255.06866  0.013564596  0.012633408            1 
 1568000   0.62660963   -8.4908747    254.49552  0.013525485  0.012622424            2 
 1569000    0.6254767   -8.4874258     255.3368  0.013561547  0.012611467            2 
 1570000   0.63120876   -8.4903247    254.88063  0.013528696  0.012600508            1 
 1571000   0.62307748   -8.5013097      254.912  0.013521748  0.012589549            1 
 1572000   0.62433743   -8.4860786    255.13548  0.013524994  0.012578601            1 
 1573000   0.62566378   -8.5111301    254.53504  0.013484586  0.012567645            3 
 1574000   0.63495052   -8.5268273    254.65993  0.013482631  0.012556714            2 
 1575000   0.62628572   -8.5244491    254.52738  0.013467057  0.012545772            1 
 1576000   0.63639127   -8.5182086    254.92449   0.01347951  0.012534843            1 
 1577000   0.61898655   -8.5189232    254.66673  0.013457342  0.012523927            2 
 1578000   0.61944091   -8.5141729    254.66787  0.013448874  0.012513019            1 
 1579000   0.62125052   -8.5429264     255.0079  0.013458302  0.012502107            3 
 1580000   0.62185956     -8.52222    254.43689  0.013419667  0.012491201            2 
 1581000   0.62889951   -8.5158365    254.80456  0.013430558  0.012480331            1 
 1582000   0.61077434   -8.5314553    254.72213  0.013417727   0.01246947            1 
 1583000   0.62511945   -8.5041961    254.61056  0.013403378  0.012458623            2 
 1584000   0.62753812   -8.5265703    254.73341  0.013401379  0.012447776            1 
 1585000   0.61930685   -8.5347434    254.16802  0.013363198  0.012436942            2 
 1586000   0.62430753     -8.54702    254.30127  0.013361773  0.012426107            3 
 1587000   0.63291882    -8.551564    254.41639  0.013359399  0.012415276            3 
 1588000   0.62677101    -8.534893    254.41506  0.013350916  0.012404462            2 
 1589000   0.62355181   -8.5367191    254.88496  0.013367157  0.012393663            3 
 1590000   0.62339354   -8.5154094    254.51084  0.013339143  0.012382861            2 
 1591000   0.61587107   -8.5457584    254.37506  0.013323647  0.012372051            1 
 1592000   0.61467305   -8.5171042     254.3013  0.013311416  0.012361262            2 
 1593000   0.60470767   -8.5415397    254.63707  0.013320625  0.012350477            3 
 1594000    0.6189725   -8.5282544    254.19513  0.013289164  0.012339696            2 
 1595000   0.62172966   -8.5323247    254.63999  0.013304075  0.012328922            4 
 1596000   0.61836486   -8.5374993    254.53492  0.013290252  0.012318173            2 
 1597000   0.61567393    -8.520774    254.69486  0.013290276  0.012307436            2 
 1598000   0.61255368    -8.543524    253.91338  0.013241207  0.012296694            2 
 1599000   0.61432047   -8.5602736     254.1456  0.013245028  0.012285954            3 
 1600000    0.6206164   -8.5486403    253.98453  0.013228361  0.012275216            5 
 1601000   0.62115393   -8.5332682    254.29708  0.013236367  0.012264507            2 
 1602000    0.6220679   -8.5305022    254.77798   0.01325312  0.012253819            3 
 1603000   0.61214623   -8.5514756    254.70885  0.013241258  0.012243138            4 
 1604000   0.61080104   -8.5526479    254.44318  0.013219201  0.012232475            2 
 1605000   0.60854351   -8.5476014    254.23545  0.013200179  0.012221811            2 
 1606000   0.61232072   -8.5447151    253.97961  0.013178684  0.012211168            2 
 1607000   0.60874887   -8.5624887    254.10243  0.013176853    0.0122005            1 
 1608000   0.61281039   -8.5220112    254.04432  0.013165647  0.012189854            3 
 1609000   0.60215637   -8.5487938    254.37595   0.01317464  0.012179225            1 
 1610000   0.61773951   -8.5569344    254.25936  0.013160422  0.012168589            2 
 1611000   0.60831814   -8.5486428     254.4639  0.013162834  0.012157974            2 
 1612000   0.61715611   -8.5560494    254.22618  0.013142379  0.012147381            2 
 1613000   0.61663841   -8.5514055    254.35926  0.013141107  0.012136802            1 
 1614000   0.61257709   -8.5381099    254.47638  0.013139012  0.012126238            3 
 1615000   0.60374155   -8.5475284    254.62641  0.013138618  0.012115667            2 
 1616000   0.60978476   -8.5494766    254.40759  0.013119203   0.01210512            1 
 1617000    0.6116037   -8.5537478    254.15357  0.013097999  0.012094597            5 
 1618000   0.61559699    -8.569576    253.75008  0.013069122   0.01208407            3 
 1619000   0.60031526   -8.5446443     254.3036  0.013089541  0.012073555            2 
 1620000   0.59931716   -8.5455239    255.05551  0.013120139  0.012063048            4 
 1621000   0.59794754   -8.5613982    253.99259  0.013057402  0.012052519            3 
 1622000   0.61543083   -8.5744174    254.33656  0.013067024  0.012042018            3 
 1623000   0.59978548   -8.5431492    253.92006  0.013037588  0.012031527            3 
 1624000   0.59447767   -8.5279875    254.45938  0.013057234  0.012021074            1 
 1625000     0.598225   -8.5367164    254.46554  0.013049515  0.012010642            1 
 1626000   0.60601145   -8.5613965    254.56783  0.013046732  0.012000198            1 
 1627000   0.60071422   -8.5623535    254.36473   0.01302831  0.011989759            2 
 1628000    0.6023069   -8.5694383    254.03685  0.013003524  0.011979331            2 
 1629000   0.59079363   -8.5723285    253.86429  0.012986714  0.011968919            5 
 1630000   0.58859969   -8.5906782    254.21866  0.012996864    0.0119585            2 
 1631000   0.59717921   -8.5524597    253.92611  0.012973948  0.011948079            2 
 1632000   0.60136218   -8.5651568    253.88477  0.012963887  0.011937685            2 
 1633000   0.61790387   -8.5605635    253.96085  0.012959831  0.011927292            4 
 1634000   0.60047405   -8.5839603    254.13448  0.012960755  0.011916908            5 
 1635000   0.59634478   -8.5496974    254.41613  0.012967183  0.011906535            4 
 1636000   0.60274043   -8.5631677    253.81926  0.012928854   0.01189615            1 
 1637000   0.60006821    -8.573017     254.1056  0.012935533  0.011885792            2 
 1638000   0.60122607   -8.5659618    254.10695  0.012927704  0.011875419            2 
 1639000   0.58971145   -8.5702865    253.57086  0.012892559  0.011865047            1 
 1640000   0.59857333   -8.5802848    253.94958  0.012903942  0.011854687            1 
 1641000   0.58063013   -8.5498104    253.76375  0.012886642  0.011844358            3 
 1642000   0.59354486   -8.5614754    253.90659  0.012886043  0.011834054            5 
 1643000   0.61279842   -8.5817065    253.53597  0.012859402  0.011823726            4 
 1644000    0.6051032   -8.5870945    253.40088  0.012844732  0.011813401            3 
 1645000   0.60296658   -8.5816314    253.96253  0.012865376  0.011803121            3 
 1646000   0.60118057   -8.5836326    253.72605  0.012845588  0.011792837            2 
 1647000   0.59550566   -8.5836173    253.98784  0.012851034  0.011782551            4 
 1648000   0.58521089   -8.5890299    253.78738    0.0128331  0.011772276            1 
 1649000   0.59325224   -8.5794222    253.70395  0.012821101  0.011761999            3 
 1650000   0.59589497    -8.590379    253.83621  0.012820011   0.01175175            1 
 1651000   0.60293184   -8.6104503    253.49195  0.012794869  0.011741492            4 
 1652000   0.59617146   -8.5918087    253.57068  0.012791095  0.011731238            2 
 1653000   0.59491314   -8.6010806    253.38873  0.012774185  0.011721001            2 
 1654000    0.5846668   -8.5876996    253.32977  0.012763491  0.011710765            3 
 1655000   0.59977117   -8.5819834    253.98412  0.012788727  0.011700544            4 
 1656000   0.58026771   -8.5938518    253.80413  0.012771947  0.011690331            2 
 1657000   0.59035356   -8.5898706    253.90038   0.01276908  0.011680133            3 
 1658000   0.58979971   -8.5950479    253.26141  0.012729263  0.011669941            4 
 1659000   0.58078152   -8.5753692    253.44079    0.0127306  0.011659762            2 
 1660000   0.59526578   -8.5809391    253.34372  0.012718058  0.011649609            1 
 1661000   0.58635655   -8.5833117    254.00044  0.012743349  0.011639473            4 
 1662000   0.59584587   -8.5905029    253.66701  0.012718963  0.011629355            4 
 1663000   0.58493756      -8.5972    253.92513   0.01272425  0.011619234            5 
 1664000    0.5884784   -8.5984393     253.5905  0.012699845  0.011609142            3 
 1665000   0.59524536   -8.5832134    253.51764   0.01268857  0.011599053            3 
 1666000   0.59567957   -8.5867097    253.81632  0.012695894  0.011588978            3 
 1667000   0.58429229    -8.593101    254.00019   0.01269747  0.011578911            4 
 1668000   0.58431658   -8.5821361    254.03023  0.012691358  0.011568859            4 
 1669000   0.57258511   -8.5674233    253.92619  0.012678559  0.011558813            2 
 1670000   0.58558476   -8.5973752    253.55953  0.012652671  0.011548774            5 
 1671000   0.58246538   -8.6105829    253.91462  0.012662807   0.01153874            4 
 1672000   0.59438264   -8.5940709     253.7841  0.012648729  0.011528705            4 
 1673000   0.58251545   -8.6101925    253.68218  0.012636092  0.011518672            4 
 1674000   0.58214367   -8.5968584    253.58594  0.012623753  0.011508676            5 
 1675000   0.59590364   -8.5745469    253.74369  0.012624064  0.011498667            3 
 1676000   0.58552468   -8.6154685     253.3697  0.012597937  0.011488677            2 
 1677000   0.58152778   -8.5909602    253.20615  0.012582297    0.0114787            3 
 1678000   0.57466154   -8.6317869     253.2084  0.012574911   0.01146871            1 
 1679000   0.57723091   -8.6191011    253.47983  0.012580893  0.011458735            2 
 1680000   0.56530302    -8.601043    253.47737  0.012573282  0.011448771            3 
 1681000   0.58083745   -8.6161846    253.35671  0.012559821  0.011438827            3 
 1682000   0.57225383   -8.6030026    253.21873  0.012545518    0.0114289            4 
 1683000   0.58540656   -8.6179672    253.49121  0.012551555  0.011418974            4 
 1684000   0.56834681     -8.60861    253.11274  0.012525373  0.011409059            4 
 1685000   0.57734685   -8.6001813     253.3238  0.012528378  0.011399149            3 
 1686000   0.58130226   -8.6179784    253.72145  0.012540601  0.011389242            4 
 1687000   0.58577729   -8.6143858     253.9985  0.012546853  0.011379346            2 
 1688000   0.57351383   -8.5985786    253.17974     0.012499  0.011369465            4 
 1689000   0.58151363    -8.593575    253.22971  0.012494065  0.011359586            6 
 1690000    0.5728076     -8.60799    253.85546  0.012517528  0.011349717            2 
 1691000   0.57729473   -8.6142399    253.07517  0.012471672  0.011339863            4 
 1692000   0.57150868   -8.6222024    253.38982  0.012479798  0.011330014            4 
 1693000   0.57333251   -8.6328826    253.21097  0.012463623   0.01132018            3 
 1694000   0.57740059   -8.6070454    253.70566  0.012480601  0.011310364            5 
 1695000   0.58922013   -8.6101459    253.18425  0.012447603  0.011300547            4 
 1696000   0.57146427   -8.5983707    253.56483  0.012458964  0.011290745            1 
 1697000   0.57934454   -8.6004974    253.55599  0.012451188  0.011280962            5 
 1698000    0.5957485   -8.6262725    253.60491  0.012446256    0.0112712            5 
 1699000   0.58186963   -8.6245273    253.42511  0.012430111   0.01126144            3 
 1700000   0.57072239   -8.6293344    253.68516  0.012435547  0.011251688            1 
 1701000   0.56510495   -8.6317962     253.3559  0.012412106  0.011241933            5 
 1702000   0.56945261    -8.613882    253.42519  0.012408206  0.011232183            3 
 1703000   0.57306968    -8.625465    254.10244  0.012434059  0.011222432            3 
 1704000   0.57377214   -8.6185662     253.1554  0.012380448  0.011212695            3 
 1705000   0.57031899     -8.62845    253.08544  0.012369767   0.01120297            6 
 1706000    0.5713837   -8.6169369    252.95281  0.012356038   0.01119326            3 
 1707000   0.57191515   -8.6281191    253.14867  0.012358361  0.011183566            4 
 1708000   0.57520662   -8.6291126    252.99401   0.01234358  0.011173883            5 
 1709000   0.56482566    -8.630327    253.24605  0.012348647  0.011164192            3 
 1710000   0.57805846   -8.6333792    253.06071  0.012332394  0.011154543            6 
 1711000    0.5684926   -8.6320113    252.95681  0.012320125  0.011144876            2 
 1712000   0.57456468   -8.6318128    253.39971  0.012334487  0.011135225            5 
 1713000   0.57486038   -8.6342058    253.66308  0.012340099  0.011125588            4 
 1714000   0.57571942   -8.6217517      253.403  0.012320255  0.011115961            4 
 1715000   0.56170471    -8.641055    253.15964  0.012301246  0.011106332            8 
 1716000   0.55576572    -8.626768    253.30505  0.012301139  0.011096727            5 
 1717000   0.54667873   -8.6405082    253.34668  0.012295995  0.011087131            9 
 1718000   0.58084229   -8.6331096    252.62199  0.012253686  0.011077547            1 
 1719000   0.56796046   -8.6506463    253.20266  0.012274707  0.011067978            2 
 1720000   0.56916298   -8.6423432    253.45874  0.012279977  0.011058399            7 
 1721000    0.5636913   -8.6366732    253.53626  0.012276596   0.01104884            8 
 1722000   0.56648748   -8.6539503    253.00146  0.012243586  0.011039282            4 
 1723000   0.55561676   -8.6350054    253.00624  0.012236711  0.011029736            3 
 1724000   0.55821952   -8.6437275    252.98637  0.012228653  0.011020196            5 
 1725000   0.57051845   -8.6421123    253.42124  0.012242572  0.011010665            5 
 1726000   0.57279246   -8.6642782    252.99196  0.012214753  0.011001148            4 
 1727000   0.57060035   -8.6479673    253.14227  0.012214933  0.010991648            4 
 1728000   0.56936913   -8.6465767          253  0.012201003  0.010982135            3 
 1729000   0.57127332    -8.626844    253.35504  0.012211058  0.010972639            2 
 1730000   0.56406673   -8.6445711    253.13229   0.01219327  0.010963161            1 
 1731000   0.56663944    -8.645717    253.18046  0.012188545  0.010953694            8 
 1732000   0.56825582   -8.6318523     252.9587  0.012170838  0.010944229            2 
 1733000   0.56074832   -8.6495612    252.90602  0.012161282  0.010934765            6 
 1734000   0.56522601   -8.6516246    252.75075  0.012146806   0.01092531            4 
 1735000    0.5793554    -8.651435    253.15374  0.012159161  0.010915866            4 
 1736000   0.56486008   -8.6626108    253.17967  0.012153402  0.010906436            5 
 1737000   0.55977636   -8.6555789    253.10496  0.012142821  0.010896998            2 
 1738000   0.57946163   -8.6632605     252.8772  0.012124914   0.01088758            2 
 1739000   0.55740484   -8.6576151     253.1573  0.012131364  0.010878181            8 
 1740000   0.56277468   -8.6556177    252.75644  0.012105194  0.010868792            3 
 1741000   0.54885655    -8.624026    253.10093   0.01211473  0.010859401            3 
 1742000   0.56600822   -8.6622815    253.20416  0.012112714  0.010850015            3 
 1743000   0.55976449   -8.6627127    253.24089   0.01210752  0.010840636            2 
 1744000   0.55241046    -8.653809    252.98627  0.012088411   0.01083126            3 
 1745000   0.56068451   -8.6477617    252.89178  0.012076971  0.010821894            1 
 1746000   0.55849096   -8.6443742    253.01369  0.012075873  0.010812545            3 
 1747000   0.57775618   -8.6542573    252.78731  0.012058162  0.010803219            1 
 1748000   0.56014299   -8.6565938    253.00487  0.012061636  0.010793893            1 
 1749000   0.55517532   -8.6532998    252.30621  0.012021451  0.010784566            1 
 1750000   0.54389376   -8.6685106    252.95702  0.012045572  0.010775253            4 
 1751000   0.55066451   -8.6558532     252.5153  0.012017671  0.010765936            3 
 1752000   0.56187997   -8.6601541     252.7179  0.012020448  0.010756617            2 
 1753000   0.55808125   -8.6626571    252.88286  0.012021433  0.010747324            2 
 1754000   0.55596942   -8.6636676    252.98859  0.012019602  0.010738028            4 
 1755000   0.55182204   -8.6589444    252.53094  0.011991023  0.010728748            2 
 1756000   0.53303705   -8.6680648    252.86114  0.011999864  0.010719471            3 
 1757000    0.5430757   -8.6655435    252.55746  0.011978631  0.010710205            2 
 1758000   0.56343112   -8.6756843    252.85336  0.011985844  0.010700947            1 
 1759000   0.55669519   -8.6652571    252.43431  0.011959177  0.010691706            2 
 1760000   0.54877849   -8.6684059    253.14472  0.011986019  0.010682482            2 
 1761000   0.56210741   -8.6744976      252.663  0.011956417  0.010673253            1 
 1762000   0.56194099   -8.6709667     252.6405  0.011948567   0.01066403            3 
 1763000   0.55206747   -8.6850645    252.71271  0.011945203  0.010654813            2 
 1764000   0.54842798   -8.6627088    252.76982  0.011941129  0.010645624            3 
 1765000   0.54829726    -8.673322    252.53715  0.011923378  0.010636445            1 
 1766000   0.55130392    -8.667186    253.01811  0.011939322  0.010627277            3 
 1767000    0.5449275   -8.6554189    252.99003  0.011931241  0.010618116            4 
 1768000   0.54521805   -8.6726122    252.78428  0.011914794  0.010608959            2 
 1769000   0.54192736    -8.678359    252.81989  0.011909736  0.010599815            3 
 1770000   0.54545592    -8.676564    252.70711  0.011897698  0.010590681            3 
 1771000   0.55441906   -8.6814159    252.85464  0.011897922  0.010581562            2 
 1772000    0.5524768   -8.6849286    253.07658  0.011901645  0.010572451            1 
 1773000   0.54693103   -8.6824656    252.51355  0.011868469  0.010563352            2 
 1774000   0.53882973   -8.6797781    252.68354  0.011869764  0.010554268            1 
 1775000   0.53692448   -8.6739205    252.67465   0.01186266  0.010545183            3 
 1776000   0.54821878   -8.6867629    252.52675  0.011849041  0.010536106            1 
 1777000   0.56314366    -8.689799     252.5814  0.011844935  0.010527032            3 
 1778000   0.55227346   -8.7093093    252.69167  0.011843442  0.010517978            5 
 1779000   0.53761235   -8.6551888    252.44628  0.011825289  0.010508925            3 
 1780000   0.55324305   -8.7018828    252.50713  0.011821495  0.010499889            3 
 1781000   0.54797969   -8.6803386     252.7294  0.011825257  0.010490862            2 
 1782000   0.54047596   -8.6729376    252.57061  0.011811196  0.010481843            5 
 1783000    0.5451563   -8.6934657    252.82381  0.011816405  0.010472833            6 
 1784000   0.53957103   -8.6940232    252.66045  0.011802151   0.01046383            3 
 1785000   0.53739214   -8.6773345    252.50299  0.011788188  0.010454833            3 
 1786000   0.53773764   -8.6914586    252.60493  0.011786344   0.01044583            2 
 1787000   0.54148612   -8.6706848    252.28263  0.011764719  0.010436849            2 
 1788000   0.52957135   -8.6852736    252.65056  0.011775287  0.010427871            4 
 1789000   0.54649548   -8.6852595    252.80538  0.011775917  0.010418907            2 
 1790000   0.54373835   -8.6872064    252.67061  0.011763064  0.010409948            3 
 1791000   0.53332286   -8.6734333    252.74693  0.011760047  0.010401007            3 
 1792000   0.54080212   -8.6978987    252.65258  0.011749097  0.010392077            5 
 1793000   0.54215612   -8.6880725    252.30853  0.011726554  0.010383159            3 
 1794000    0.5346986   -8.6942264    252.79203  0.011742476  0.010374252            2 
 1795000   0.53972695   -8.6984169    253.05314  0.011748056  0.010365358            5 
 1796000   0.53814556    -8.688502    252.43201  0.011712695  0.010356472            4 
 1797000   0.53734258   -8.6887454    252.55484  0.011711874  0.010347588            3 
 1798000   0.53440204    -8.684426    252.24022  0.011690778  0.010338705            6 
 1799000   0.54011917   -8.6917812    252.43086   0.01169311  0.010329842            4 
 1800000   0.54369229   -8.7036581     252.3075  0.011680903  0.010320991            4 
 1801000    0.5265727   -8.6988614    251.99068  0.011659758  0.010312134            3 
 1802000   0.54482349   -8.6871001    252.30918  0.011668016   0.01030328            4 
 1803000   0.53116621   -8.7078733    251.94374  0.011644654  0.010294445            3 
 1804000   0.53219429   -8.7040072    252.16899  0.011648604  0.010285621            2 
 1805000   0.52474756   -8.6923298    252.58745   0.01166147  0.010276809            2 
 1806000   0.53216123   -8.7159998    252.34039  0.011643614  0.010268011            3 
 1807000   0.53530488   -8.7147223    252.81435  0.011659027  0.010259204            6 
 1808000   0.53022163   -8.6978448    252.53417  0.011639665  0.010250413            1 
 1809000   0.54134593   -8.6991961    252.37997  0.011626127  0.010241629            3 
 1810000   0.52754786   -8.7094479    252.21289  0.011612012  0.010232849            7 
 1811000    0.5325905   -8.7033967    252.30694  0.011609927  0.010224076            5 
 1812000   0.53009314   -8.7065294    251.81211  0.011580763  0.010215311            7 
 1813000   0.51743947   -8.7024885    252.00741  0.011583352  0.010206554            2 
 1814000    0.5148457   -8.6995732    252.60933  0.011604618  0.010197809            3 
 1815000   0.54096737   -8.7020963    252.16746  0.011577937  0.010189077            2 
 1816000   0.52645088   -8.7298949    252.02457  0.011565004  0.010180346            3 
 1817000   0.52358268   -8.6965001    252.08069  0.011561213  0.010171631            1 
 1818000   0.52949464   -8.7212984    252.24479  0.011562376  0.010162926            1 
 1819000   0.52116691   -8.6802356    252.01685  0.011545577  0.010154237            2 
 1820000    0.5304655   -8.7105849    251.90054  0.011533907  0.010145556            4 
 1821000   0.53672293   -8.7394857    252.04465  0.011534168  0.010136885            3 
 1822000   0.52674321   -8.7013393    252.18401  0.011534212  0.010128214            5 
 1823000    0.5283903   -8.7057414    252.21271  0.011529197   0.01011955            4 
 1824000   0.53111319   -8.7136751    252.10186  0.011517812    0.0101109            4 
 1825000    0.5207134   -8.7110173    252.45601  0.011527672  0.010102274            4 
 1826000   0.52546021   -8.7188633    252.29041  0.011513801  0.010093644            4 
 1827000   0.53411984   -8.7125102    251.87985  0.011488772  0.010085017            5 
 1828000   0.52534842   -8.7219503    251.93817  0.011485146  0.010076404            4 
 1829000   0.52842477   -8.7155363    251.78254  0.011471776  0.010067798            3 
 1830000   0.51656603   -8.7262949    252.19379  0.011484235  0.010059204            3 
 1831000   0.53151697   -8.7304637    252.05765  0.011471766  0.010050616            6 
 1832000   0.53062508   -8.7238869    251.91272  0.011458912  0.010042034            3 
 1833000   0.51200948   -8.7019361    251.93599  0.011453719  0.010033463            2 
 1834000   0.51055437   -8.7217704    251.95162  0.011448183    0.0100249            4 
 1835000   0.50981793   -8.7131336    252.03587  0.011445771  0.010016347            3 
 1836000    0.5279891   -8.7160464    252.13632  0.011444096  0.010007806            5 
 1837000   0.51653627   -8.7178246    252.14049  0.011438055 0.0099992753            5 
 1838000   0.51547097   -8.7253418    252.17229  0.011433274 0.0099907561            4 
 1839000   0.51412165   -8.7096758    252.27114  0.011431536 0.0099822365            3 
 1840000   0.51185519   -8.7231833    252.07477   0.01141643 0.0099737358            2 
 1841000   0.51599137   -8.7197206    252.01515   0.01140753 0.0099652363            4 
 1842000   0.53621089   -8.7216298    251.85492  0.011394088  0.009956751            2 
 1843000   0.51104588   -8.7260818    252.16872  0.011402095 0.0099482804            2 
 1844000   0.52328195   -8.7336263    251.76558  0.011377692 0.0099398136            3 
 1845000   0.50989027   -8.7306022    252.08021  0.011385737 0.0099313539            2 
 1846000   0.51516697   -8.7452967    251.91637  0.011372173 0.0099229013            4 
 1847000   0.50600154   -8.7203868    252.00466  0.011369999 0.0099144543            2 
 1848000   0.51651565   -8.7189758    252.23317  0.011374151 0.0099060272            3 
 1849000    0.5170348   -8.7167622    251.95309  0.011355376 0.0098976082            3 
 1850000   0.51346364   -8.7327824    251.68309  0.011337076 0.0098891859            6 
 1851000   0.50751036   -8.7457235    251.78807  0.011335677 0.0098807765            5 
 1852000   0.51395428   -8.7343075     252.0854  0.011342935 0.0098723801            4 
 1853000   0.51295375   -8.7292649    251.57865  0.011314024 0.0098639878            1 
 1854000   0.50826804   -8.7561503    252.13323  0.011332849 0.0098556054            3 
 1855000   0.51279373   -8.7419388    251.75611  0.011309798 0.0098472365            1 
 1856000    0.5099078   -8.7288931    252.02971  0.011315989 0.0098388681            4 
 1857000   0.51919176   -8.7326965    252.16128    0.0113158 0.0098305109            5 
 1858000   0.50619034   -8.7325907    251.93287  0.011299465 0.0098221667            4 
 1859000   0.52958478   -8.7249888    252.04525  0.011298425 0.0098138273            4 
 1860000   0.50108086   -8.7260867    252.27399  0.011302598 0.0098055025            2 
 1861000   0.51457127   -8.7335815    251.97261  0.011283029 0.0097971744           12 
 1862000   0.49874302   -8.7412282    251.89245  0.011273382 0.0097888631            3 
 1863000   0.51279286   -8.7187793    252.10865  0.011277002 0.0097805695            5 
 1864000   0.51030072   -8.7510746    252.31814  0.011280317  0.009772276            4 
 1865000   0.50183567   -8.7263609    252.07924  0.011263594 0.0097639894            4 
 1866000   0.49368179   -8.7509886    251.79919  0.011245051 0.0097557068            5 
 1867000   0.51128189   -8.7371578    252.07839   0.01125149 0.0097474259            2 
 1868000   0.49778508   -8.7482742    252.00117  0.011242022 0.0097391537            4 
 1869000   0.49681643   -8.7484916    252.02545   0.01123709 0.0097308886            2 
 1870000   0.51144383   -8.7429576    251.85623   0.01122354  0.009722633            3 
 1871000   0.50890014   -8.7365584    251.96969  0.011222594 0.0097143738            3 
 1872000   0.50908881   -8.7512039    251.95979  0.011216159 0.0097061353            6 
 1873000   0.50995339   -8.7275819    251.88306  0.011206757 0.0096979074            3 
 1874000   0.51035029   -8.7406598    252.00835  0.011206348 0.0096896919            3 
 1875000   0.49400182   -8.7437914    252.04061  0.011201805 0.0096814849            1 
 1876000   0.50585649   -8.7408508    251.43465  0.011168916 0.0096732811            4 
 1877000   0.51194053   -8.7471341    251.82629  0.011180354 0.0096650877            3 
 1878000   0.50364343    -8.738135    252.19063  0.011190568 0.0096568989            2 
 1879000   0.52402501   -8.7474365    251.77924  0.011166367  0.009648721            2 
 1880000    0.4916696   -8.7411899     251.6428  0.011154379 0.0096405527            4 
 1881000   0.49182713   -8.7415173    251.77833  0.011154454 0.0096323965            3 
 1882000   0.50533145   -8.7514694     251.8466   0.01115155 0.0096242536            3 
 1883000   0.50418462   -8.7551966    251.50094   0.01113033  0.009616117            4 
 1884000   0.50418454   -8.7534624    251.82358  0.011138693 0.0096079797            2 
 1885000   0.49692707   -8.7387987    251.87528   0.01113507 0.0095998541            2 
 1886000   0.50288648   -8.7600782    251.53134  0.011113969 0.0095917362            3 
 1887000   0.49375343   -8.7510966    251.52781  0.011107923 0.0095836307            1 
 1888000   0.48828242   -8.7463473    252.23518  0.011133262 0.0095755353            3 
 1889000   0.50588771   -8.7398025    251.95569  0.011115038 0.0095674441            1 
 1890000   0.50966222   -8.7649912    251.80065  0.011102321 0.0095593679            2 
 1891000   0.49024983    -8.751418    251.66616  0.011090523 0.0095512965            5 
 1892000   0.48978345   -8.7558717    251.43103  0.011074305 0.0095432275            2 
 1893000   0.50306178   -8.7431671    251.96361    0.0110919  0.009535175            2 
 1894000   0.50224978   -8.7522383    251.63225  0.011071465 0.0095271375            5 
 1895000   0.49761534   -8.7401882    251.65704  0.011066712 0.0095191051            1 
 1896000   0.48030972   -8.7618146    251.50898  0.011054368 0.0095110725            4 
 1897000   0.49929562   -8.7597766    250.97568  0.011025113 0.0095030506            3 
 1898000   0.50031336   -8.7680937    251.36929  0.011036586  0.009495039            2 
 1899000   0.51062371   -8.7827474      251.541   0.01103831 0.0094870394            2 
 1900000   0.49338345   -8.7538063    251.44279  0.011028192 0.0094790438            2 
 1901000   0.51213672   -8.7625142    251.42986  0.011021824 0.0094710543            2 
 1902000   0.48921246   -8.7731805    251.74566  0.011029866 0.0094630784            3 
 1903000   0.49293182   -8.7584088     251.3969  0.011008798 0.0094551135            3 
 1904000   0.49696076   -8.7631977     251.2594  0.010996997 0.0094471508            2 
 1905000   0.49782079   -8.7548623    251.61837  0.011006928 0.0094392034            2 
 1906000   0.49053752   -8.7757095    251.59207  0.011000003 0.0094312559            4 
 1907000   0.48508227   -8.7559002    251.42501  0.010986935 0.0094233248            2 
 1908000   0.50088087   -8.7494751    251.95504  0.011004326 0.0094154019            3 
 1909000   0.48359933   -8.7660505    251.83979   0.01099353 0.0094074837            2 
 1910000   0.48828943   -8.7799173    251.76007  0.010984296 0.0093995762            3 
 1911000   0.47692879   -8.7644156     251.8609  0.010982945 0.0093916786            2 
 1912000   0.48731452   -8.7589134    251.51289  0.010962033 0.0093837827            1 
 1913000   0.48932042   -8.7720605    251.45625  0.010953836 0.0093758983            4 
 1914000   0.48728326   -8.7617681    251.71836  0.010959525 0.0093680153            3 
 1915000   0.50477415   -8.7879744    251.45325  0.010942265 0.0093601494            4 
 1916000   0.48621569   -8.7739746    251.70344  0.010947436 0.0093522936            3 
 1917000   0.48505719   -8.7677401     251.6189   0.01093805 0.0093444398            2 
 1918000   0.48577978   -8.7637434    251.56694   0.01093009 0.0093365974            6 
 1919000    0.4892018   -8.7546754    251.68729   0.01092962 0.0093287616            3 
 1920000   0.49114325   -8.7762954    251.51684  0.010916529 0.0093209322            4 
 1921000   0.49385694   -8.7684373    251.56428  0.010912905 0.0093131107            5 
 1922000   0.47665805   -8.7650379    251.37177   0.01089888 0.0093052948            4 
 1923000   0.48336616   -8.7703047    251.68008  0.010906573  0.009297494            2 
 1924000   0.48092976   -8.7815909    251.56457  0.010895901 0.0092896967            2 
 1925000     0.483112   -8.7657786     251.7263  0.010897242 0.0092819076            3 
 1926000   0.48232483   -8.7724777    251.32983   0.01087443 0.0092741216            3 
 1927000   0.47859141   -8.7752139    251.58823  0.010879961 0.0092663504            2 
 1928000   0.48955628   -8.7758948    251.41126  0.010866669 0.0092585861            5 
 1929000   0.48283549   -8.7756071    251.53332  0.010866309  0.009250828            3 
 1930000   0.48056164   -8.7922457    251.41154  0.010855421 0.0092430779            3 
 1931000   0.47960011   -8.7835271    251.23041  0.010841982 0.0092353399            4 
 1932000   0.48169549   -8.7822537     251.4595  0.010846252 0.0092276098            2 
 1933000   0.48691222   -8.7950417    251.44529  0.010840028 0.0092198807            4 
 1934000   0.47103893   -8.7785488    251.40669   0.01083276 0.0092121646            4 
 1935000   0.47128919   -8.7776716    251.10427  0.010814137 0.0092044544            5 
 1936000   0.47744995   -8.7757312    251.11838  0.010809159 0.0091967496            3 
 1937000   0.48335969   -8.7746095    251.95488  0.010839566 0.0091890561            3 
 1938000   0.48976713   -8.7955886    251.08629  0.010796624 0.0091813682            3 
 1939000   0.47170757   -8.7815596     251.3614   0.01080288 0.0091736934            4 
 1940000   0.48472356   -8.7910504    251.08495  0.010785436 0.0091660189            3 
 1941000   0.48014064   -8.7889061    250.94778   0.01077399 0.0091583579            5 
 1942000   0.47876422   -8.7786181    251.00931  0.010771083  0.009150697            2 
 1943000   0.47559271   -8.7819416    251.43986  0.010784005 0.0091430441            5 
 1944000   0.47183749   -8.7879976    251.50078  0.010781069 0.0091354061            3 
 1945000    0.4755204   -8.7870613    251.38435  0.010770538 0.0091277791            3 
 1946000   0.46849713   -8.7808928    251.13534   0.01075434 0.0091201579            4 
 1947000   0.47435079   -8.7940776    251.34769  0.010757905 0.0091125518            4 
 1948000   0.47488104   -8.7880694    251.27864  0.010749429 0.0091049459            2 
 1949000   0.48340973   -8.7875956    251.43609  0.010750645 0.0090973569            4 
 1950000   0.47157267   -8.7845534    251.05297  0.010728759  0.009089765            4 
 1951000   0.47893392    -8.785424    251.35163  0.010736017 0.0090821823            3 
 1952000   0.47742166    -8.786502    251.28872  0.010727831 0.0090746033            3 
 1953000   0.48005245   -8.8036372    251.31164  0.010723316 0.0090670392            4 
 1954000   0.46543598   -8.7811156    251.22691  0.010714215 0.0090594733            3 
 1955000    0.4650713   -8.7989581    251.06066  0.010701648 0.0090519253            2 
 1956000   0.48118297   -8.7855139    251.44888  0.010712716 0.0090443879            4 
 1957000   0.46809065    -8.808474    251.20348  0.010696793 0.0090368515            4 
 1958000   0.46996146   -8.7958712    250.81367  0.010674739 0.0090293279            4 
 1959000    0.4796308   -8.7970987    251.15384   0.01068376  0.009021813            3 
 1960000   0.48749483   -8.7953498     251.2481  0.010682317 0.0090143113            3 
 1961000   0.47014643   -8.7930108    251.17983  0.010673969 0.0090068126            3 
 1962000   0.47463539   -8.7894118    251.03796  0.010662502 0.0089993154            4 
 1963000   0.47495461   -8.8016536    251.33122   0.01066952 0.0089918277            3 
 1964000   0.47636477   -8.7950741    251.05501  0.010652368 0.0089843517            5 
 1965000   0.45850055   -8.7895509    251.44909  0.010663659  0.008976879            2 
 1966000    0.4722593   -8.7848422    251.08391  0.010642757 0.0089694214            3 
 1967000   0.46769506   -8.8045308    251.15051  0.010640167 0.0089619699            2 
 1968000   0.47378606    -8.804426    251.46134  0.010647923 0.0089545235            4 
 1969000   0.46147258   -8.7936952    250.93345  0.010620173 0.0089470899            4 
 1970000   0.46928218   -8.8077676    250.99598  0.010617427 0.0089396589            4 
 1971000   0.46810577   -8.7957388    250.85177  0.010605943 0.0089322464            3 
 1972000   0.46201532   -8.8060965    250.62283  0.010590891 0.0089248362            4 
 1973000   0.47024844   -8.8148851    251.35981   0.01061665 0.0089174346            3 
 1974000   0.46539171   -8.8031343    251.06082   0.01059865 0.0089100417            2 
 1975000   0.46407336   -8.8042763    251.27174  0.010602183 0.0089026466            2 
 1976000   0.46330327    -8.803026    251.37603  0.010601216 0.0088952648            3 
 1977000   0.47288647   -8.7915366    251.00897  0.010580381 0.0088878889            2 
 1978000   0.46559363   -8.8088253    251.30341  0.010587437 0.0088805217            3 
 1979000   0.45582012   -8.8181906    251.24533  0.010579641 0.0088731602            4 
 1980000    0.4569628   -8.7966013    251.47342  0.010583898 0.0088658026            3 
 1981000   0.46702956   -8.8101128    250.67496  0.010544967 0.0088584534            6 
 1982000   0.46850335   -8.8211024    250.91182  0.010549606 0.0088511123            3 
 1983000   0.46751603   -8.8081834    250.85496  0.010541896  0.008843783            3 
 1984000   0.45543948   -8.8217631    250.85903  0.010536754 0.0088364574            3 
 1985000   0.45955585   -8.7933963    251.44409  0.010556007 0.0088291443            3 
 1986000   0.46060043   -8.8275894    251.02885  0.010533268 0.0088218238            4 
 1987000   0.45909963   -8.8087654    250.89728  0.010522449 0.0088145156            3 
 1988000   0.45573453   -8.8162873    250.86821  0.010515938 0.0088072156            5 
 1989000   0.46187779   -8.8249854    250.45827  0.010493476 0.0087999165            3 
 1990000    0.4606337   -8.7946108    250.74225  0.010500094 0.0087926352            3 
 1991000   0.45640639   -8.8118235    250.96536  0.010504159 0.0087853669            5 
 1992000   0.46845054   -8.8097513    251.04028   0.01050202 0.0087781011            4 
 1993000    0.4653822   -8.8119022    250.90085   0.01049092 0.0087708457            2 
 1994000   0.46323564   -8.8129089    251.06076  0.010492342 0.0087635956            4 
 1995000    0.4555102   -8.8299686    250.72062  0.010472875 0.0087563536            2 
 1996000   0.45557924    -8.831631    251.21444  0.010488245  0.008749124            4 
 1997000   0.44728444   -8.8136134    250.96411  0.010472547  0.008741902            2 
 1998000   0.45147641   -8.8142002    250.61757  0.010452852 0.0087346889            1 
 1999000   0.45570739   -8.8216741     250.7333  0.010452447  0.008727478            4 
 2000000   0.44365294   -8.8366538    250.57438  0.010440599 0.0087202727            3 
 2001000   0.45055425   -8.8251848     250.6162  0.010437123 0.0087130756            3 
 2002000   0.46853489   -8.8239074    250.86286  0.010442177 0.0087058862            4 
 2003000   0.45614969   -8.8248619    250.93355  0.010439905 0.0086987011            5 
 2004000   0.45436882   -8.8149782    250.71296  0.010425522 0.0086915254            3 
 2005000   0.45271958    -8.827194    250.36668   0.01040593  0.008684356            6 
 2006000     0.454963   -8.8331823    250.42341  0.010403099 0.0086771946            2 
 2007000   0.44594399   -8.8198828    250.82831  0.010414728 0.0086700402            4 
 2008000   0.44467455   -8.8296507    250.82548  0.010409424 0.0086629037            6 
 2009000   0.45047144   -8.8253073    250.99119  0.010411116  0.008655768            5 
 2010000   0.45589693   -8.8393804    250.50155  0.010385636 0.0086486381            4 
 2011000   0.45096285    -8.819016    250.25475  0.010370245 0.0086415135            4 
 2012000   0.44727296   -8.8298718    250.92447  0.010392829  0.008634401            3 
Loop time of 4826.9 on 48 procs for 2000000 steps with 4000 atoms

Performance: 71598.771 tau/day, 414.345 timesteps/s
99.4% CPU use with 48 MPI tasks x no OpenMP threads

MPI task timing breakdown:
Section |  min time  |  avg time  |  max time  |%varavg| %total
---------------------------------------------------------------
Pair    | 307.26     | 334.82     | 356.87     |  54.6 |  6.94
Neigh   | 31.609     | 33.104     | 34.299     |  11.3 |  0.69
Comm    | 303.12     | 329.5      | 361.75     |  62.8 |  6.83
Output  | 4.0995     | 4.1016     | 4.1414     |   0.3 |  0.08
Modify  | 4067.6     | 4082.2     | 4092.5     |   7.7 | 84.57
Other   |            | 43.19      |            |       |  0.89

Nlocal:        83.3333 ave          90 max          75 min
Histogram: 1 0 3 3 13 9 6 2 8 3
Nghost:        2112.35 ave        2133 max        2084 min
Histogram: 1 1 2 2 10 12 6 7 3 4
Neighs:        13849.5 ave       15274 max       12351 min
Histogram: 1 3 4 9 7 7 9 3 3 2
FullNghs:      27698.4 ave       30070 max       24757 min
Histogram: 1 0 3 7 9 12 5 2 6 3

Total # of neighbors = 1329523
Ave neighs/atom = 332.38075
Neighbor list builds = 106946
Dangerous builds = 0

#clear
#
#next RN
#
#jump SELF
Total wall time: 1:20:30
