
units lj                  # Use reduced LJ style units
atom_style atomic         # Uncharged point particles
atom_modify map hash      # Needed for indexing of clusters etc
                          # Used to be able to find where atoms are in relation to each other.

lattice fcc 1.0 spacing 1 1 1
Lattice spacing in x,y,z = 1.5874011 1.5874011 1.5874011
region box block 0 10 0 10 0 10 units lattice
create_box 2 box
Created orthogonal box = (0.0000000 0.0000000 0.0000000) to (15.874011 15.874011 15.874011)
  3 by 4 by 4 MPI processor grid
create_atoms 1 box
Created 4000 atoms
  using lattice units in orthogonal box = (0.0000000 0.0000000 0.0000000) to (15.874011 15.874011 15.874011)
  create_atoms CPU = 0.003 seconds
set type 1 type/fraction 2 0.53 78393
Setting atom values ...
  2126 settings made for type/fraction
mass 1 1.0
mass 2 1.0
pair_style lj/cut  3.5
pair_modify tail  yes
pair_coeff 1  1  1.0  1.0   # Intearaction between 1 and 1 set with epsilon = 1 and sigma = 1
pair_coeff 1  2  1.5  0.8
pair_coeff 2  2  0.5  0.88

write_data data.0
System init for write_data ...
Neighbor list info ...
  update every 1 steps, delay 10 steps, check yes
  max neighbors/atom: 2000, page size: 100000
  master list distance cutoff = 3.8
  ghost atom cutoff = 3.8
  binsize = 1.9, bins = 9 9 9
  1 neighbor lists, perpetual/occasional/extra = 1 0 0
  (1) pair lj/cut, perpetual
      attributes: half, newton on
      pair build: half/bin/atomonly/newton
      stencil: half/bin/3d
      bin: standard
WARNING: Not all mixed pair coeffs generated from mixing. Use write_data with 'pair ij' option to store all pair coeffs. (../write_data.cpp:312)


#############################
#   M E L T   S Y S T E M   #
#############################

velocity all create 2.4 3143649 mom yes dist gaussian # Assign velocities
                                                    # Temperature 2.4, random number seed, zero linear momentum
                                                                                # Gaussian distribution

timestep 0.002   # simulation timestep
thermo 1000       # output thermodynamic data every 1000 steps bf 100

# Define a fix  in this case with index 1 applied to all
# particles in the simulation. This fix is for simulations
# in the anisotropic NPT ensemble. Note that we use the MTK
# correction.
fix 1 all npt temp 2.4 2.4 0.1 iso 5.68 5.68 0.5 mtk yes tchain 5 pchain 5 # Use NPT ensemble
                                                                         # Set temperature and pressure and damping
                                                                         # Numbers of thermostats in chain and in barostat
run 10000          # run for 10000 steps
Per MPI rank memory allocation (min/avg/max) = 3.642 | 3.644 | 3.648 Mbytes
Step Temp E_pair E_mol TotEng Press Volume 
       0          2.4   -5.1225569            0   -1.5234569   -4.1795691         4000 
    1000    2.4387307   -4.7459079            0   -1.0887264    6.0638735    3650.4977 
    2000    2.4091344   -4.7575447            0   -1.1447465    5.6635348    3682.8571 
    3000    2.3915336    -4.771799            0   -1.1853954    5.7487257    3661.6898 
    4000    2.3858009   -4.8226015            0   -1.2447948    5.5751643    3659.5925 
    5000    2.4048355   -4.8186178            0   -1.2122663    5.3824109    3670.7928 
    6000    2.4081476   -4.8645426            0   -1.2532243       5.4702    3634.9768 
    7000    2.3914697    -4.782678            0   -1.1963702    5.5258184    3672.9872 
    8000    2.4212486   -4.7684765            0   -1.1375116    6.0062278    3650.0327 
    9000    2.4340365   -4.7910218            0   -1.1408798    5.8619574     3658.878 
   10000    2.4050846   -4.7762068            0   -1.1694817    5.6358177    3674.4636 
Loop time of 2.65615 on 48 procs for 10000 steps with 4000 atoms

Performance: 650566.020 tau/day, 3764.850 timesteps/s
99.6% CPU use with 48 MPI tasks x no OpenMP threads

MPI task timing breakdown:
Section |  min time  |  avg time  |  max time  |%varavg| %total
---------------------------------------------------------------
Pair    | 1.2041     | 1.2662     | 1.3792     |   3.1 | 47.67
Neigh   | 0.21599    | 0.22183    | 0.23602    |   0.9 |  8.35
Comm    | 0.80839    | 0.89874    | 0.99215    |   4.6 | 33.84
Output  | 0.0002406  | 0.00024607 | 0.00030467 |   0.0 |  0.01
Modify  | 0.21143    | 0.2536     | 0.28015    |   3.7 |  9.55
Other   |            | 0.01558    |            |       |  0.59

Nlocal:        83.3333 ave          92 max          72 min
Histogram: 1 2 2 3 8 9 8 5 5 5
Nghost:        1736.46 ave        1766 max        1712 min
Histogram: 3 2 9 9 2 9 4 8 1 1
Neighs:        10384.4 ave       11813 max        8813 min
Histogram: 2 1 4 6 9 11 4 5 4 2

Total # of neighbors = 498449
Ave neighs/atom = 124.61225
Neighbor list builds = 903
Dangerous builds = 195

# Equilibrate just above the melting temperature to avoid step fn in T

fix 1 all npt temp 1.25 1.25 0.1 iso 5.68 5.68 0.5 mtk yes tchain 5 pchain 5
run 2000
Per MPI rank memory allocation (min/avg/max) = 3.644 | 3.646 | 3.649 Mbytes
Step Temp E_pair E_mol TotEng Press Volume 
   10000    2.4050846   -4.7762068            0   -1.1694817    5.6358177    3674.4636 
   11000    1.2788491   -6.8513995            0   -4.9336054    6.2033236    2834.6656 
   12000    1.2644795   -6.9640111            0    -5.067766    5.7500091    2822.2971 
Loop time of 0.65239 on 48 procs for 2000 steps with 4000 atoms

Performance: 529744.600 tau/day, 3065.652 timesteps/s
99.6% CPU use with 48 MPI tasks x no OpenMP threads

MPI task timing breakdown:
Section |  min time  |  avg time  |  max time  |%varavg| %total
---------------------------------------------------------------
Pair    | 0.29287    | 0.31944    | 0.33754    |   1.9 | 48.96
Neigh   | 0.040658   | 0.043217   | 0.045707   |   0.5 |  6.62
Comm    | 0.21597    | 0.23925    | 0.26653    |   2.4 | 36.67
Output  | 5.0766e-05 | 5.2063e-05 | 6.7143e-05 |   0.0 |  0.01
Modify  | 0.039303   | 0.045614   | 0.051069   |   1.7 |  6.99
Other   |            | 0.004821   |            |       |  0.74

Nlocal:        83.3333 ave          89 max          77 min
Histogram: 2 3 3 4 6 16 5 3 1 5
Nghost:        2073.08 ave        2100 max        2047 min
Histogram: 1 4 5 8 8 6 4 9 2 1
Neighs:        13521.0 ave       15358 max       12285 min
Histogram: 4 2 7 13 8 7 4 2 0 1

Total # of neighbors = 649006
Ave neighs/atom = 162.25150
Neighbor list builds = 143
Dangerous builds = 13

#############################
# L I N E A R  Q U E N C H  #
#############################

# Define solid atoms. This closely follows ten Wolde  Ruiz-Montero and Frenkel  Faraday Discuss  1996  104  93-110
# Compute components of the per-atom q6 vector
compute q6 all orientorder/atom degrees 1 6 components 6 nnn NULL cutoff 1.3 # compute the Q6 parameter.
                                                                             # Use all neighbours within 1.3 unit cell.

# get number of connections
compute coord_number all coord/atom orientorder q6 0.5

# An atom is solid if it has 8 or more connections (of a possible 14)
variable is_solid atom c_coord_number>=8
group solid dynamic all var is_solid    # Must be dynamic to update
dynamic group solid defined

# do clustering
compute cluster solid cluster/atom 1.3 # Create a cluster where all atoms within are solid and max 1.3 units from another member

# define chunks one chunk per cluster
compute clus_chunks solid chunk/atom c_cluster nchunk every compress yes  # Says which atoms are in which chunk

# count the size of each chunk
compute size_chunks solid property/chunk clus_chunks count


# Find the maximum entry in the vector of chunk sizes
variable max_n equal max(c_size_chunks)


# Thermo style which includes this variable
# thermo_style custom step temp pe vol v_max_n

thermo ${N}  # Print the thermo information every 100 steps
thermo 1000  

# Reset the npt fix at a lower temperature (below freezing)
fix 1  all npt temp  ${temp} ${temp}  0.1  iso  5.68  5.68  0.5  mtk yes tchain  5  pchain  5
fix 1  all npt temp  0.45 ${temp}  0.1  iso  5.68  5.68  0.5  mtk yes tchain  5  pchain  5
fix 1  all npt temp  0.45 0.45  0.1  iso  5.68  5.68  0.5  mtk yes tchain  5  pchain  5

dump dmp2 all dcd ${N} traj.dcd
dump dmp2 all dcd 1000 traj.dcd


compute msd all msd com yes
variable twopoint equal c_msd[4]/6/(step*dt+1.0e-6)
fix 9 all vector 10 c_msd[4]
variable fit equal slope(f_9)/6/(10*dt)
thermo_style custom step temp pe c_msd[4] v_twopoint v_fit v_max_n

fix 1 all npt temp 1.25 ${temp} 0.1 iso 5.68 5.68 0.5 mtk yes tchain 5 pchain 5
fix 1 all npt temp 1.25 0.45 0.1 iso 5.68 5.68 0.5 mtk yes tchain 5 pchain 5
run 500000 # 5000000  # Run for this many steps
Neighbor list info ...
  update every 1 steps, delay 10 steps, check yes
  max neighbors/atom: 2000, page size: 100000
  master list distance cutoff = 3.8
  ghost atom cutoff = 3.8
  binsize = 1.9, bins = 8 8 8
  4 neighbor lists, perpetual/occasional/extra = 1 3 0
  (1) pair lj/cut, perpetual
      attributes: half, newton on
      pair build: half/bin/atomonly/newton
      stencil: half/bin/3d
      bin: standard
  (2) compute orientorder/atom, occasional
      attributes: full, newton on
      pair build: full/bin/atomonly
      stencil: full/bin/3d
      bin: standard
  (3) compute coord/atom, occasional
      attributes: full, newton on
      pair build: full/bin/atomonly
      stencil: full/bin/3d
      bin: standard
  (4) compute cluster/atom, occasional
      attributes: full, newton on
      pair build: full/bin/atomonly
      stencil: full/bin/3d
      bin: standard
Per MPI rank memory allocation (min/avg/max) = 9.841 | 9.846 | 9.850 Mbytes
Step Temp PotEng c_msd[4] v_twopoint v_fit v_max_n 
   12000    1.2644795   -6.9640111 3.906242e-30 2.7126679e-32 8.3333333e+20            5 
   13000    1.2352969   -7.0164512   0.44286868 0.0028389017  0.035800397            4 
   14000    1.2700778   -7.0390466   0.87547185 0.0052111418  0.035853677            1 
   15000    1.2356278   -6.9961015    1.3163243 0.0073129126  0.035899623            2 
   16000    1.2379499   -7.0448052    1.7273089    0.0089964  0.036023001            4 
   17000    1.2702664   -7.0652474    2.1107123  0.010346629  0.035146638            2 
   18000    1.2396155   -7.0511415    2.4847646   0.01150354  0.034538596            3 
   19000    1.2671077   -7.0044274    2.8828566  0.012644107   0.03403458            1 
   20000    1.2413062   -7.0665231    3.2309461  0.013462275  0.033508019            2 
   21000    1.2825327    -7.039866    3.6102205  0.014326272    0.0331181            1 
   22000     1.216384   -7.0253104    4.0516874    0.0153473  0.033040289            1 
   23000    1.2654228   -7.0524061    4.3964042     0.015929  0.032911733            4 
   24000    1.2522545   -7.1036316    4.7613797  0.016532568  0.032744923            1 
   25000    1.2555806    -7.102386    5.1557283  0.017185761  0.032601898            2 
   26000    1.2259879   -7.0635641    5.5222924  0.017699655  0.032476294            2 
   27000    1.2490642   -7.0396752     5.860252  0.018087197  0.032263201            1 
   28000    1.2334572   -7.1275983    6.1249869  0.018229127  0.032002528            3 
   29000    1.2363385   -7.0361334    6.4319306  0.018482559  0.031655838            2 
   30000    1.2191576   -7.0976959    6.7282476  0.018689576  0.031296095            2 
   31000    1.1968063   -7.0644765    7.1725559  0.019281064  0.031052368            2 
   32000    1.1909028   -7.1260587      7.49316  0.019513437  0.030834924            2 
   33000    1.2341102   -7.0956114    7.9795441  0.020150364  0.030734251            2 
   34000    1.2225489    -7.059022    8.3933428  0.020571918  0.030742218            2 
   35000    1.2387505   -7.1263586    8.8560985  0.021085949  0.030828782            5 
   36000    1.2202498     -7.12343    9.2428698  0.021395532  0.030929003            1 
   37000    1.1978443    -7.123672    9.6746458  0.021789742  0.031024372            1 
   38000       1.1957   -7.1352268     9.950141  0.021820484  0.031084824            2 
   39000    1.2226973   -7.1032878    10.425171  0.022276006  0.031132618            2 
   40000    1.1915102   -7.1375821    10.812921  0.022526918  0.031231581            1 
   41000    1.2061549    -7.147566    11.116536  0.022594585  0.031277227            3 
   42000    1.1842875   -7.1786601     11.41894  0.022656626  0.031289182            7 
   43000    1.1879221   -7.1693091    11.917964   0.02309683  0.031309917            1 
   44000    1.1858407   -7.1963156    12.189456  0.023086091  0.031317072            1 
   45000    1.2087967   -7.1259162    12.529726  0.023203196  0.031293279            1 
   46000    1.1765159   -7.1965102    12.896358  0.023362967  0.031303602            1 
   47000    1.1935114   -7.1592037    13.319227  0.023615651  0.031273996            3 
   48000    1.2003074   -7.1367657    13.607817  0.023624682  0.031258755            2 
   49000    1.2133525   -7.1383673    13.977336   0.02377098  0.031227902            1 
   50000    1.2084257   -7.1775911    14.231502   0.02371917  0.031185927            2 
   51000    1.1833052   -7.1604867    14.612911  0.023877306  0.031125075            4 
   52000    1.2021469   -7.1448864    14.870395  0.023830761  0.031047955            2 
   53000    1.1949091   -7.2190498    15.182008  0.023871081  0.030963992            1 
   54000    1.1730556   -7.1926707    15.531509  0.023968378  0.030885659            2 
   55000    1.1846954   -7.1897053    15.799663  0.023938883  0.030789902            2 
   56000    1.1513929   -7.2012858    16.047766  0.023880605  0.030685809            2 
   57000    1.1683685   -7.2307131    16.305127  0.023837905  0.030569378            2 
   58000    1.1788317   -7.2151238    16.631161  0.023895346  0.030447986            3 
   59000    1.2142287   -7.2382554    16.915575  0.023892056  0.030329223            4 
   60000    1.1708272   -7.2178256    17.247553  0.023954935  0.030203139            4 
   61000    1.1900942   -7.2341158     17.71119  0.024195615  0.030104764            2 
   62000    1.1677036   -7.2469782    17.931447  0.024101407  0.030023442            2 
   63000    1.1913874   -7.2581494    18.100148  0.023941995  0.029928372            8 
   64000    1.1520105   -7.2739571    18.409065  0.023970137  0.029820486            2 
   65000    1.1614839   -7.2432758    18.775575  0.024071249  0.029714576            4 
   66000    1.1804813   -7.2296093    19.010069  0.024002613  0.029603136            1 
   67000    1.1442473   -7.2925869    19.340969  0.024055931  0.029495915            2 
   68000    1.1518668   -7.2572702    19.763463   0.02421993  0.029396396            2 
   69000    1.1544956   -7.2883633    19.988969  0.024141267  0.029302372            3 
   70000    1.1473088   -7.2822876    20.279106  0.024141793  0.029206715            5 
   71000    1.1617911   -7.2790413    20.624279    0.0242069   0.02912099            2 
   72000    1.1749553   -7.2538612    20.862918  0.024146895  0.029035943            6 
   73000    1.1514837    -7.258724    21.180893  0.024179102  0.028947474            6 
   74000    1.1603931    -7.294821    21.423376  0.024125423  0.028857408            1 
   75000    1.1535984   -7.2852552    21.764671  0.024182967  0.028768289            1 
   76000    1.1383492   -7.2652255    21.964616  0.024084008  0.028678185            4 
   77000    1.1252688   -7.3005579    22.205421   0.02403184  0.028576577            3 
   78000    1.1573434   -7.3410045    22.489047   0.02402676  0.028476519            2 
   79000    1.1226351   -7.2999224    22.877988  0.024132898  0.028384581            3 
   80000    1.1168432   -7.2868289    23.126032  0.024089617  0.028304081            3 
   81000    1.1232575   -7.3037445    23.504178  0.024181253  0.028223515            2 
   82000    1.1044472   -7.3247121     23.81397  0.024201189  0.028157528            1 
   83000    1.1253122   -7.2871628    24.212904  0.024310145  0.028093988            2 
   84000    1.1145869     -7.28632    24.589805  0.024394647  0.028033096            1 
   85000    1.1271459    -7.298776    24.929957  0.024441134   0.02797855            4 
   86000    1.1379122   -7.3155209    25.016098  0.024240405  0.027920629            5 
   87000    1.1457193    -7.355979    25.299849  0.024233571  0.027855078            3 
   88000    1.1319899   -7.3014581    25.583843  0.024227124  0.027793073            2 
   89000    1.1387739   -7.3375429    25.915211  0.024265179  0.027727249            2 
   90000    1.1064004   -7.3414749    26.043086  0.024113968  0.027666783            9 
   91000    1.1561845   -7.3237772    26.329666  0.024111416  0.027600434            2 
   92000    1.1035424   -7.3412458    26.356367   0.02387352  0.027522399            2 
   93000    1.1091292   -7.3214062    26.707017  0.023931019  0.027440398            4 
   94000    1.1461274   -7.3649688    26.913167   0.02385919  0.027361582            7 
   95000    1.1188128   -7.3715825     27.14477  0.023811202  0.027278432            2 
   96000    1.1300087   -7.3119222    27.515318  0.023884824  0.027198514            3 
   97000    1.1134042   -7.3879071    27.693331  0.023791521  0.027120034            4 
   98000    1.0991922   -7.3720894    28.051383  0.023853216  0.027042388            4 
   99000    1.1278913   -7.4437951    28.007944   0.02357571  0.026959897            2 
  100000    1.0984846   -7.3924195     28.35797  0.023631641  0.026875545            3 
  101000    1.1005181   -7.4400688    28.560329  0.023564628  0.026791347            3 
  102000    1.1083138   -7.3879402    28.834282   0.02355742   0.02671091            2 
  103000    1.1118849   -7.3933277    29.058808  0.023510363  0.026629479            5 
  104000     1.096798   -7.4278783    29.385301  0.023545914  0.026552388            3 
  105000    1.1049043    -7.435146    29.633818  0.023518903  0.026471756            4 
  106000    1.1028433    -7.377846    29.882294   0.02349237  0.026395196            9 
  107000     1.070104   -7.4072128    29.858546  0.023254319  0.026313443            3 
  108000    1.0858452   -7.4467265    29.992965   0.02314272   0.02622568            3 
  109000    1.1021656   -7.4090558    30.345884  0.023200217  0.026136876            2 
  110000    1.0901489   -7.4089809    30.486147  0.023095566   0.02605039            4 
  111000    1.0967638   -7.4478454    30.644723  0.023006549  0.025963956            2 
  112000    1.0692317   -7.4403072    30.866266  0.022965971  0.025871558            3 
  113000    1.0999107    -7.434183    31.165887  0.022983693  0.025780551            2 
  114000    1.0724587   -7.4233617    31.243578  0.022838873  0.025689862            3 
  115000    1.0881069   -7.4737455     31.41749  0.022766297   0.02559593            2 
  116000    1.0845324   -7.4616033     31.69472  0.022769195  0.025504825            3 
  117000    1.0914589   -7.4710728    31.842692   0.02267998  0.025416616            6 
  118000    1.0950849   -7.4416867    32.176076  0.022723217  0.025329813            2 
  119000    1.0820168   -7.5081983    32.300061   0.02261909  0.025244915            3 
  120000    1.0740314   -7.4390659    32.716456  0.022719761  0.025160975            4 
  121000    1.0687834   -7.4878058    32.620327   0.02246579  0.025076225            2 
  122000    1.0735085   -7.5120717    32.916909  0.022484228  0.024992621            4 
  123000    1.0874938   -7.4774849    33.198964  0.022492523  0.024908098            4 
  124000    1.0965814    -7.457444    33.372695  0.022427886   0.02482703            2 
  125000    1.0724656   -7.4675519     33.69397  0.022462647  0.024749726            2 
  126000    1.0782981    -7.480732    33.939778  0.022446943  0.024671632            6 
  127000    1.0776535   -7.4932592    34.037994  0.022334642  0.024594643            4 
  128000    1.0405386   -7.4843722    34.354447  0.022366177  0.024516557            2 
  129000    1.0574066   -7.5076082    34.597497  0.022349804  0.024440491            4 
  130000    1.0608127   -7.5186134    34.672236  0.022225792  0.024365653            3 
  131000    1.0646539   -7.5210569    34.677405  0.022059418  0.024283493            3 
  132000    1.0576008   -7.5692749    34.731536  0.021926474  0.024201555            6 
  133000    1.0242347   -7.5736895    35.022185  0.021943725  0.024118283            4 
  134000    1.0443607   -7.5459539     35.42478  0.022030336  0.024041021            2 
  135000    1.0603019   -7.4976155    35.619351  0.021987254  0.023963583            3 
  136000    1.0455026   -7.5216103    35.770653  0.021918292  0.023888566            3 
  137000    1.0359577   -7.5010659    36.006596  0.021901823  0.023815157            3 
  138000    1.0288525   -7.5095906     36.19756   0.02185843  0.023742106            2 
  139000    1.0334814   -7.5254798    36.498283  0.021881465  0.023671121            3 
  140000    1.0528912   -7.5531415    36.670183   0.02182749  0.023602589            3 
  141000    1.0550117   -7.5663587    36.700427   0.02169056  0.023531103            6 
  142000    1.0337232   -7.5670513     36.92199  0.021667834  0.023459568            2 
  143000    1.0443673    -7.551235     37.12493  0.021634575  0.023387924            5 
  144000    1.0312109   -7.5460264    37.293764  0.021582039  0.023318688            4 
  145000    1.0277319    -7.624593    37.391521   0.02148938  0.023248868            4 
  146000    1.0322591    -7.587494    37.611112   0.02146753  0.023177563            8 
  147000    1.0318296   -7.5989413    37.888479  0.021478729  0.023108343            2 
  148000    1.0359173   -7.6136734    38.110448  0.021458586  0.023041168            4 
  149000    1.0363673   -7.6017933    38.339559  0.021442707  0.022973539            9 
  150000    1.0193559   -7.5560109    38.460984  0.021367213  0.022905768            3 
  151000    1.0169626   -7.6272691    38.342532  0.021160338  0.022834656            5 
  152000   0.98819983   -7.5797993    38.710255  0.021222727   0.02276314            3 
  153000    1.0143643   -7.6012786    38.785311  0.021124897  0.022692856            3 
  154000    1.0176875   -7.6263687    38.866812  0.021031825  0.022623043            2 
  155000    1.0347855   -7.5877462     39.11944  0.021031957  0.022552255            1 
  156000    1.0272051    -7.645653    39.338843  0.021014339  0.022481306            2 
  157000    1.0239236   -7.6456537    39.295397  0.020857429     0.022411            3 
  158000    1.0203246   -7.6805038    39.428819   0.02079579  0.022339877            2 
  159000    1.0274338   -7.6810168    39.678591  0.020795907  0.022269151            6 
  160000    1.0216959   -7.6333788    39.837536  0.020748717  0.022198063            2 
  161000    1.0338832   -7.6390448    40.032076  0.020720536  0.022128539            4 
  162000    1.0394946   -7.6685315     40.14647  0.020651476  0.022060146            4 
  163000   0.99313625   -7.6447794    40.437568  0.020673603  0.021991456            6 
  164000     1.005664   -7.6886945    40.470418  0.020564237  0.021924511            4 
  165000   0.99430501   -7.6372638    40.516351  0.020462804  0.021857255            3 
  166000   0.98068156   -7.6794013    40.860115  0.020512106  0.021790893            5 
  167000    1.0061237   -7.7105139    40.899255   0.02040881  0.021723325            5 
  168000   0.98941563   -7.6938723     40.82813  0.020252049  0.021655456            4 
  169000    1.0157359   -7.7242158    41.077194  0.020255027  0.021587681            3 
  170000   0.99720005   -7.7165387    41.139695  0.020166517  0.021519245            3 
  171000    1.0001185   -7.7153127    41.235824  0.020095431  0.021448608            3 
  172000    1.0073908   -7.7084668    41.245364  0.019983219  0.021377751            4 
  173000     1.014372   -7.7103062    41.513785  0.019997006  0.021306468            5 
  174000   0.99604182   -7.6991116    41.611324  0.019928795  0.021236064           10 
  175000   0.98161691   -7.6935624    41.785333  0.019897777  0.021165493            5 
  176000   0.98143302   -7.7155643    41.861584  0.019820826  0.021095369            3 
  177000   0.97217721    -7.731023    41.970065  0.019759918  0.021025606            3 
  178000    1.0018783   -7.7338813    42.165055  0.019740194  0.020956733           11 
  179000   0.99557907   -7.7898808    42.249523  0.019669238   0.02088684            2 
  180000    0.9916758   -7.7781921    42.346202  0.019604723  0.020816257            6 
  181000   0.95921235    -7.820396    42.358636  0.019502134  0.020745232            5 
  182000   0.99838725   -7.7930359    42.596995  0.019504118  0.020674955            5 
  183000   0.96029504   -7.7784224    42.572562  0.019386413  0.020604338            8 
  184000    0.9908279   -7.7718223    42.531982  0.019262673   0.02053367            5 
  185000    0.9799633    -7.762348    42.646033  0.019209925   0.02046179            4 
  186000   0.97828925   -7.7840143    42.955447  0.019245272  0.020392119            2 
  187000   0.98213071   -7.7651752     43.03762  0.019178975  0.020322172            6 
  188000   0.95612256   -7.7237185    43.433185  0.019252298  0.020253654            2 
  189000   0.97130859   -7.7868473    43.277497  0.019081789  0.020185759            5 
  190000   0.96406224   -7.8216158    43.769326  0.019197073  0.020117902            3 
  191000   0.95976337   -7.8206992    43.708157  0.019069877   0.02005161            4 
  192000   0.97546672   -7.8237898    43.813528  0.019016288  0.019985575           10 
  193000   0.94684703   -7.8088826    43.755106  0.018892533  0.019917949            3 
  194000   0.95828956   -7.7625639    43.942164    0.0188755  0.019850917            3 
  195000   0.97121787   -7.7994078    44.027186  0.018815037  0.019784198            7 
  196000   0.95636188   -7.8178886    44.115523    0.0187566  0.019717074            5 
  197000   0.97496879   -7.8202793    44.324154  0.018749642  0.019651502            3 
  198000   0.94779397   -7.7995033    44.560871  0.018754575  0.019586875            2 
  199000   0.93813921   -7.8077987    44.651021  0.018698082   0.01952282           14 
  200000   0.97125471   -7.8348849    44.615554  0.018589814  0.019458865            3 
  201000   0.95562691   -7.8803766    44.697457  0.018531284  0.019394482            2 
  202000   0.95940418   -7.8729969    44.695867  0.018438889  0.019329403            5 
  203000   0.93828782   -7.8199713    44.961189  0.018456974  0.019266022            5 
  204000   0.92293161    -7.856153    45.177508  0.018454864  0.019203007            3 
  205000    0.9423746   -7.8438505    45.165288  0.018359873  0.019140173            9 
  206000   0.92795511   -7.8911081    45.286995  0.018319982  0.019078284           10 
  207000   0.93773319   -7.8880676      45.3498  0.018256763  0.019015962            8 
  208000   0.94383623   -7.8373785     45.63335  0.018282592  0.018954542           12 
  209000   0.93731765   -7.8980431    45.618262    0.0181891  0.018893021            4 
  210000   0.94244902   -7.8921171    45.742045  0.018151605  0.018831519            8 
  211000   0.94668897   -7.9077694     45.75153  0.018069325  0.018770438            4 
  212000   0.93417034   -7.8616797    45.804195  0.018004794  0.018709227            4 
  213000   0.93186905   -7.9255749    45.887881  0.017953005  0.018647545            3 
  214000   0.92021922   -7.9008088    45.931947  0.017886272  0.018584934            2 
  215000   0.93941971   -7.9414945    45.892856  0.017787929  0.018520282            6 
  216000   0.92752256   -7.9192236    46.025212   0.01775664  0.018456349           11 
  217000   0.92188625   -7.9530229    46.115472  0.017709475  0.018393592            8 
  218000   0.90822153    -7.925109    46.208162  0.017663671  0.018330886            6 
  219000   0.92705997   -7.9316742     46.12405  0.017551008  0.018268155            3 
  220000   0.91571212   -7.9363435    46.404933  0.017577626  0.018205192            4 
  221000   0.91816489   -7.9267187     46.33473  0.017471617  0.018142425            7 
  222000   0.89853392   -7.9383577    46.342064   0.01739567  0.018078857            5 
  223000    0.9414117   -7.9878584    46.406957  0.017341912  0.018015685            8 
  224000   0.90449633   -8.0197414    46.428055  0.017272342  0.017951985            6 
  225000   0.93194718   -7.9339717    46.430629  0.017196529  0.017887054           10 
  226000   0.90664909   -7.9658028    46.481222  0.017139094  0.017822793            5 
  227000   0.89958278   -8.0011716    46.508963  0.017073775  0.017757984            6 
  228000    0.9070953   -7.9707552    46.633456  0.017044392  0.017693535           10 
  229000   0.91638416   -7.9429998     46.61283  0.016962456  0.017629742            6 
  230000   0.91201732    -7.977116    46.674329  0.016910989  0.017565476           18 
  231000   0.92784794   -7.9680004    46.732256  0.016858678   0.01750183           14 
  232000   0.90674752   -8.0019308    46.784588  0.016804809  0.017437582            6 
  233000   0.88295477   -8.0184751     46.93327  0.016785862  0.017373864           19 
  234000   0.91032536   -8.0336586    46.730402  0.016641881  0.017309528           29 
  235000   0.86785987    -8.012227    46.952482  0.016649816  0.017245626           22 
  236000   0.86928269   -8.0238277     47.06448  0.016618814    0.0171826           15 
  237000    0.8967672   -8.0121718    47.055698  0.016545604  0.017119779           20 
  238000   0.89566019   -8.0242963    47.217172  0.016532623  0.017057392            9 
  239000   0.87256546   -8.0343096    47.193402  0.016455161  0.016994917           10 
  240000   0.87397973   -8.0111895     47.35785  0.016443698  0.016933039            8 
  241000   0.89449414   -8.0611784    47.292612  0.016352909  0.016870491           29 
  242000   0.87510558   -8.0131825    47.407267  0.016324816  0.016808696           14 
  243000   0.88022164   -8.0715383    47.462498  0.016276577  0.016747144           10 
  244000   0.88718449   -8.0518015    47.359803  0.016174796  0.016685625            9 
  245000    0.8777175   -8.0633394    47.362331  0.016109636  0.016624326           13 
  246000   0.87220879   -8.0998259    47.521497  0.016098068  0.016562781            7 
  247000   0.87697685   -8.0839057     47.56323  0.016046974  0.016501125            9 
  248000   0.85540518   -8.0365353    47.570162  0.015984597  0.016438938            6 
  249000   0.88315659   -8.0681681    47.640156  0.015943827  0.016377602           10 
  250000   0.86410233   -8.1082884    47.547656  0.015849219  0.016316412           17 
  251000   0.85108998   -8.1083509    47.664035  0.015824713  0.016254874           14 
  252000   0.86404862   -8.0929155    47.830879   0.01581709  0.016194227           14 
  253000   0.86914614   -8.0836376     47.73486  0.015722945  0.016133893           19 
  254000   0.85659757   -8.1024186    47.810251  0.015685778  0.016073662            9 
  255000   0.86679934   -8.0993109    47.825603  0.015629282  0.016013413           13 
  256000   0.85530956   -8.1391101    47.938068   0.01560484  0.015953366            8 
  257000   0.85135355   -8.1306715    47.933198  0.015542542  0.015893587           25 
  258000   0.87983434   -8.1250242    47.935805  0.015483141  0.015833741            8 
  259000   0.85235487   -8.1522833    48.018269  0.015449893  0.015774478            8 
  260000    0.8428595   -8.1383353    47.960879  0.015372077  0.015715388            4 
  261000   0.83508977   -8.1107489     48.10564    0.0153594  0.015656067           11 
  262000   0.86212853    -8.149219    48.030768  0.015276962  0.015596697            8 
  263000   0.85134364   -8.1080797    48.098441  0.015240317  0.015537394            9 
  264000   0.85124648    -8.151719    48.183549  0.015209454  0.015478657           10 
  265000   0.86657619   -8.1353507    48.183054  0.015151904   0.01542067           11 
  266000   0.85370969   -8.1230404    48.210019  0.015103389  0.015362875           13 
  267000   0.84792549    -8.147883     48.33009  0.015084298  0.015305042           23 
  268000   0.84103789   -8.1413459    48.369718  0.015040335  0.015247904           23 
  269000   0.83516445   -8.1508234     48.43343  0.015004161  0.015191002           18 
  270000   0.83166914   -8.1676348    48.587402  0.014996112  0.015134832            9 
  271000   0.83497356   -8.1752354    48.419441  0.014889127  0.015078369           15 
  272000   0.82978556   -8.2031982    48.495451  0.014857675  0.015021841           14 
  273000   0.84394254    -8.210144    48.456579  0.014791385  0.014965403           10 
  274000   0.83029231   -8.2059944    48.401433   0.01472063  0.014909001           13 
  275000   0.82174094   -8.2169427    48.345342  0.014650103  0.014852313           16 
  276000   0.81861017   -8.1854248    48.595226  0.014672471  0.014796058           20 
  277000   0.81383181   -8.2003517    48.525442  0.014598508  0.014740142           13 
  278000   0.81755753   -8.2287674    48.663942  0.014587513  0.014684798           12 
  279000   0.83811682   -8.2115604    48.655323  0.014532653  0.014629603            9 
  280000   0.82698256    -8.254305    48.532684  0.014444251  0.014574488           17 
  281000   0.83613591   -8.2309384    48.739361   0.01445414  0.014519247           11 
  282000   0.80872499   -8.2340181    48.758264   0.01440847  0.014464554           21 
  283000   0.82850152   -8.2382189    48.803881   0.01437099  0.014410118           19 
  284000   0.82099716   -8.2444858    48.847359  0.014333145  0.014355695           17 
  285000    0.8024944   -8.2669422    48.882198   0.01429304   0.01430114           25 
  286000    0.8186629   -8.2433207    48.965212  0.014267253  0.014247269           21 
  287000   0.80169456   -8.2610169    48.978994  0.014221543  0.014193799           31 
  288000   0.79920066    -8.257577    48.932527  0.014158717  0.014140579           37 
  289000   0.81087879   -8.2754566    49.056341  0.014145427  0.014087533           33 
  290000   0.81234826   -8.2969974    48.919115  0.014057217  0.014034701           19 
  291000   0.79527105   -8.2924585    48.935086  0.014013484  0.013981492           58 
  292000   0.79177979   -8.2688664    48.931637  0.013964508  0.013928741           27 
  293000   0.79025592   -8.3025711     48.84515   0.01389225  0.013875988           18 
  294000   0.80147719    -8.301892    48.936092  0.013870774  0.013823091           20 
  295000    0.7782714   -8.2993463     48.96398  0.013831633  0.013770021           39 
  296000    0.7927969   -8.3153574    48.894717  0.013765404  0.013717069           22 
  297000   0.80356219   -8.3080361    48.990569  0.013745951  0.013664592           20 
  298000   0.79649798   -8.3158981    48.999152  0.013702224  0.013612306           17 
  299000   0.77708111   -8.3533889    48.999504  0.013656495  0.013560521           37 
  300000    0.8087008   -8.3088278    49.116028  0.013643341  0.013508922           45 
  301000   0.78342271   -8.3456945    49.031221  0.013574535  0.013457378           23 
  302000   0.78834468   -8.3832636    49.124666  0.013555371  0.013406245           40 
  303000   0.76985089   -8.3647256     48.98962  0.013473493  0.013354764           45 
  304000   0.75977607   -8.3572877     49.20461  0.013488106  0.013303567           43 
  305000    0.7609335   -8.3821097    48.959862  0.013377011  0.013252606           36 
  306000   0.77020786   -8.3912133    49.136912  0.013381512  0.013201887           16 
  307000   0.78081135   -8.3376479    49.217308  0.013359747  0.013151524           26 
  308000   0.77032003   -8.3654819    49.049296  0.013270914  0.013101124           23 
  309000   0.78014476   -8.3714577    49.114355  0.013245511  0.013050979           35 
  310000   0.78347661   -8.3707613    49.243176  0.013237413  0.013000967           20 
  311000   0.76796495   -8.3907208    49.133634  0.013165497  0.012951233           43 
  312000   0.76185553   -8.3681874    49.139138   0.01312477   0.01290151           34 
  313000   0.78087865   -8.4035268     49.08708  0.013068978   0.01285162           28 
  314000   0.77458727    -8.401641    49.096743  0.013029921  0.012801942           19 
  315000   0.76053089   -8.4423348    49.006028  0.012964558  0.012752377           33 
  316000   0.77623807    -8.391467    48.988875  0.012919007  0.012703264           43 
  317000   0.76984686   -8.4085071     49.06251   0.01289761  0.012654366           46 
  318000    0.7644545   -8.4359328    49.077281  0.012860923  0.012605587           35 
  319000   0.74977454   -8.4204765    49.141662  0.012837425   0.01255705           31 
  320000   0.75376113   -8.4138979    49.280564   0.01283348  0.012508757           46 
  321000   0.76356294    -8.426475    49.237797  0.012782398  0.012460604           23 
  322000   0.74229719   -8.4473267    49.131701  0.012715243   0.01241242           49 
  323000   0.75928862   -8.4338997    49.271799  0.012712022  0.012364595           43 
  324000   0.76016293   -8.4419453     49.21941  0.012659313  0.012317048           33 
  325000   0.76118772   -8.4455863    49.074824  0.012583288  0.012269763           42 
  326000   0.73053215   -8.4357659     49.25712  0.012591288  0.012222532           43 
  327000   0.74242322   -8.4707784    49.267381  0.012555398  0.012175579           61 
  328000   0.72837472   -8.4655896    49.174742  0.012493583  0.012128625           50 
  329000   0.73471363   -8.4766339    49.210918  0.012464771  0.012082158           80 
  330000   0.72650495   -8.4751742    49.281282  0.012444768  0.012035734           84 
  331000   0.74899064   -8.4540279    49.293414  0.012410225  0.011989549           71 
  332000   0.73643981   -8.4487652    49.296665  0.012373661  0.011943535           87 
  333000   0.74516412   -8.4873871    49.219178  0.012317111  0.011897525           99 
  334000   0.73182906    -8.486866    49.268001  0.012292415  0.011851725          107 
  335000   0.76032174   -8.4678687    49.279371   0.01225855  0.011806306          108 
  336000   0.74728024    -8.481026    49.457297  0.012266195  0.011761176          116 
  337000   0.72665657   -8.4998139    49.260248   0.01218107  0.011716219          130 
  338000   0.72976165   -8.4935467    49.290898  0.012152588  0.011671412          139 
  339000   0.72396717   -8.4716402    49.348136   0.01213081  0.011626667          101 
  340000   0.72883841   -8.4899354    49.325172  0.012089503  0.011582007          117 
  341000    0.7008542   -8.5201908    49.301491  0.012048263  0.011537595          137 
  342000   0.71520996   -8.5420745    49.205837  0.011989726  0.011493296          138 
  343000    0.7214729   -8.5261486    49.296381  0.011976769  0.011449011          124 
  344000   0.72327985   -8.5491446    49.317567  0.011947085  0.011405137          153 
  345000   0.72321569   -8.5441917    49.265226  0.011899813  0.011361476          135 
  346000   0.70633342   -8.5515234    49.182474   0.01184549  0.011317826          178 
  347000   0.72824659   -8.5412893    49.253511  0.011828413  0.011274268          125 
  348000   0.71823298   -8.5565598    49.214725  0.011785135  0.011230952          141 
  349000   0.71412244   -8.5679736    49.438093  0.011804702  0.011187939          153 
  350000   0.71038312   -8.5574582    49.290023   0.01173572  0.011145091          128 
  351000   0.70786875   -8.5826316    49.215958    0.0116847  0.011102255          134 
  352000    0.6932326   -8.5529811    49.130144  0.011631189  0.011059468          136 
  353000   0.70700642   -8.5670948    49.342451   0.01164836  0.011017023          184 
  354000   0.68693457    -8.573531     49.22639  0.011588133  0.010974748          165 
  355000   0.70063279   -8.5961406    49.219974  0.011553985  0.010932849          199 
  356000   0.68945257   -8.5774231    49.249974  0.011528552  0.010890887          173 
  357000   0.70578476   -8.5872288    49.175575  0.011478892  0.010849032          163 
  358000   0.72032933   -8.6048651    49.157578  0.011442639  0.010807342          168 
  359000   0.70688269   -8.5928319    49.232826  0.011428233  0.010765868          205 
  360000    0.7006759   -8.5699565      49.2218  0.011393935  0.010724368          196 
  361000   0.69197723   -8.5966308    49.267313  0.011372879  0.010683208          232 
  362000    0.6865261   -8.5916846    49.204826  0.011327078  0.010642032          288 
  363000   0.68020716   -8.6109943    49.163888  0.011286476  0.010601098          209 
  364000   0.70207818   -8.6148834    49.200641  0.011263883  0.010560296          208 
  365000    0.6917088   -8.6290347    49.070926  0.011203408  0.010519592          236 
  366000   0.68794412   -8.6162056    49.221565  0.011207096   0.01047922          231 
  367000   0.67110047   -8.6231503    49.203242  0.011172398  0.010439116          235 
  368000   0.68201937   -8.6401171    49.159037  0.011132028  0.010399133          239 
  369000   0.67526923    -8.627362    49.161997  0.011102529  0.010359286          267 
  370000   0.69039384   -8.6357046    49.218029  0.011085142  0.010319601          282 
  371000   0.67916033   -8.6563072    49.107083  0.011030342  0.010279931          272 
  372000   0.67082452   -8.6497224    49.148003  0.011009857   0.01024041          292 
  373000   0.68037716   -8.6593987    49.100802  0.010969795  0.010200929          276 
  374000   0.68431132   -8.6614617    49.067482   0.01093304  0.010161848          298 
  375000   0.66976594   -8.6600405    49.055948  0.010901322  0.010122727          280 
  376000   0.67064437   -8.6524086    49.124034  0.010887419  0.010083734          278 
  377000   0.65681616   -8.6770413    49.095272  0.010852182  0.010045042          314 
  378000   0.67630705   -8.6863285    49.100498  0.010824625  0.010006517          307 
  379000   0.65464791   -8.6545311     49.18233  0.010814057 0.0099682404          281 
  380000   0.66681683   -8.6726295     49.05768  0.010758263 0.0099300581          310 
  381000   0.66069747   -8.7018426    49.100192  0.010739325 0.0098919959          309 
  382000   0.66691882   -8.6927293    49.017093  0.010693083 0.0098540639          506 
  383000   0.65880289    -8.677241    49.142492  0.010692448 0.0098164486          458 
  384000   0.65240639   -8.7195312    49.022703  0.010638607 0.0097788618          388 
  385000    0.6510278   -8.6965624    49.083221  0.010624074 0.0097414722          288 
  386000   0.64454817   -8.7186821     49.07525  0.010594829 0.0097041298          314 
  387000   0.64958745    -8.692359    49.014601  0.010554393  0.009667021          287 
  388000   0.66168062   -8.7055122    49.046803  0.010534107   0.00963003          481 
  389000    0.6438011   -8.6998261    49.013771  0.010499951 0.0095931882          488 
  390000   0.63268976   -8.7189297     48.98559  0.010467006 0.0095564383          491 
  391000   0.64195993   -8.7260642    48.953458  0.010433388 0.0095200239          338 
  392000   0.64164882   -8.7274963    48.982277  0.010412899 0.0094838791          501 
  393000   0.64192984   -8.7160746    48.961056  0.010381903 0.0094478244          479 
  394000    0.6380592    -8.731838    48.974899  0.010358481 0.0094118415          507 
  395000   0.63422481   -8.7368855    48.967163  0.010330625  0.009375988          332 
  396000   0.64846869   -8.7612285    48.952093  0.010301366 0.0093403125          525 
  397000   0.64069685   -8.7637927    48.981061  0.010281499 0.0093047844          453 
  398000   0.62479293   -8.7740885    48.976737  0.010254761 0.0092693802          490 
  399000   0.63435175   -8.7827998    49.000402  0.010234002 0.0092341748          587 
  400000   0.62423599   -8.7435339    48.990132  0.010206278 0.0091991485          526 
  401000   0.62838938   -8.7604437    48.931402   0.01016862 0.0091642826          536 
  402000   0.63250278    -8.768941    48.983613  0.010154149 0.0091295668          442 
  403000   0.62448466   -8.7935454    48.989589  0.010130188 0.0090949848          360 
  404000    0.6293709   -8.7764836    48.956175  0.010098221  0.009060671          578 
  405000   0.60692637   -8.8002807    49.030586  0.010088598 0.0090263665          324 
  406000   0.61770605   -8.7916679    49.025246  0.010062653 0.0089922743          530 
  407000   0.61911663   -8.7818985    48.870505  0.010006246 0.0089582759          581 
  408000   0.62990058   -8.7533152     48.94301 0.0099965298 0.0089244945          583 
  409000   0.61702197   -8.7979857    48.937785 0.0099710239 0.0088908787          589 
  410000     0.617274   -8.8013591    48.865665 0.0099320457 0.0088573359          613 
  411000   0.61306041    -8.795655     48.88972 0.0099127575 0.0088239144          604 
  412000   0.61187334   -8.8014244    48.724518 0.0098552828 0.0087906868          626 
  413000   0.59937524   -8.7966137    48.896895 0.0098662015 0.0087574926          615 
  414000   0.61118969   -8.8013824    48.896952 0.0098423816 0.0087244181          384 
  415000   0.61421535   -8.8407177    48.860873 0.0098114203 0.0086915443          593 
  416000   0.59956598   -8.8203668    48.797978 0.0097752359 0.0086588344          587 
  417000   0.60626378    -8.800214    48.910279 0.0097742363 0.0086263233          486 
  418000   0.59425302   -8.8337765    48.741219 0.0097171488 0.0085939007          519 
  419000   0.58930527   -8.8207991    48.821753 0.0097099748 0.0085615983          656 
  420000   0.62048355   -8.8323576    48.809369 0.0096843986 0.0085293904          619 
  421000   0.60442109   -8.8455409    48.809488 0.0096614188 0.0084973849          478 
  422000    0.5998348   -8.8267358    48.763657 0.0096294742 0.0084655005          628 
  423000   0.59059128   -8.8431689    48.786818 0.0096112722 0.0084338118          612 
  424000   0.58780605   -8.8428923    48.726934 0.0095768345  0.008402176          621 
  425000   0.57699755   -8.8587634    48.791548 0.0095669701 0.0083707376          633 
  426000   0.58893746   -8.8512421     48.79862  0.009545896 0.0083393799          603 
  427000   0.58927572   -8.8496675    48.734021  0.009510933 0.0083081459          588 
  428000   0.58198889   -8.8756905    48.712303 0.0094844827 0.0082769825          555 
  429000   0.58510239   -8.8547454    48.698615 0.0094597155 0.0082459778          484 
  430000   0.59198466   -8.8607852     48.66169 0.0094305601 0.0082150803          615 
  431000   0.59207345   -8.8511346    48.715757 0.0094191332 0.0081843463          407 
  432000   0.57680575   -8.8639762     48.71775  0.009397714  0.008153845          616 
  433000   0.58219237    -8.876248    48.724519 0.0093773131 0.0081234902          594 
  434000   0.56550543   -8.8631464    48.748659 0.0093603416 0.0080932691          438 
  435000   0.58267354   -8.8594053    48.690242 0.0093276326  0.008063205          605 
  436000   0.58091237   -8.8668751    48.759146 0.0093194086 0.0080332983          535 
  437000   0.56500009   -8.8791806    48.688035 0.0092845222 0.0080034676          612 
  438000     0.574949   -8.8828968    48.677183   0.00926126  0.007973783          601 
  439000   0.56429422   -8.8701283    48.726144 0.0092494579  0.007944314          646 
  440000   0.56228756    -8.890552    48.711322 0.0092256291 0.0079149499          448 
  441000    0.5718007   -8.8988679    48.682694 0.0091992998 0.0078857707          676 
  442000   0.56482592   -8.9052536    48.661883 0.0091745631  0.007856629          629 
  443000   0.55314017   -8.9068887    48.654258 0.0091524187 0.0078276165          689 
  444000   0.56377458   -8.8955013    48.677396 0.0091361479  0.007798752          657 
  445000    0.5667125   -8.9079601    48.589457 0.0090991493 0.0077699892          701 
  446000   0.55612404   -8.9251536    48.583638 0.0090776604 0.0077413604          669 
  447000   0.56113398   -8.9090989     48.64375  0.009068559 0.0077128997          649 
  448000   0.55997695   -8.9299704    48.612416 0.0090424881 0.0076845415          661 
  449000   0.54230482   -8.9000929    48.652442 0.0090297777  0.007656351          651 
  450000   0.53325503   -8.9121178    48.681973 0.0090151801 0.0076282281          712 
  451000   0.54657813   -8.9133044    48.619177 0.0089835878 0.0076003047          458 
  452000   0.55817548   -8.9289799    48.678489 0.0089746477 0.0075725193          677 
  453000   0.53862614   -8.9156028    48.589975 0.0089385532 0.0075449127          664 
  454000   0.54125142   -8.9650104    48.657144 0.0089311938 0.0075174549          663 
  455000   0.55239169   -8.9428206    48.551603 0.0088922349 0.0074900486          636 
  456000   0.53801556    -8.925874    48.542214 0.0088710187 0.0074627461          644 
  457000   0.52291672   -8.9358793    48.619099 0.0088656271 0.0074356123          672 
  458000   0.53414077   -8.9483946     48.55015 0.0088337245 0.0074086154          674 
  459000   0.53793851   -8.9463098    48.602975 0.0088240695  0.007381741          729 
  460000   0.52168814   -8.9365234    48.550937 0.0087954596 0.0073550302          661 
  461000   0.52838547    -8.945352    48.561264 0.0087782473 0.0073283693          687 
  462000   0.52937865   -8.9486935    48.568694 0.0087605869 0.0073018674          653 
  463000   0.52760735   -8.9639719    48.573872 0.0087425976 0.0072754822          641 
  464000   0.52900618   -8.9482814    48.575733 0.0087240899 0.0072492464          654 
  465000   0.52200103   -8.9579651    48.585814 0.0087071351 0.0072230563          660 
  466000    0.5179559    -8.953632    48.559744 0.0086837883 0.0071970525          661 
  467000   0.53177435    -8.962534    48.438666 0.0086435878  0.007171118          658 
  468000   0.52556935   -8.9723386    48.526039 0.0086406764 0.0071453256          634 
  469000   0.50817313   -8.9519075    48.499045 0.0086174565 0.0071196927          655 
  470000   0.51884511   -8.9724042     48.56035 0.0086099911 0.0070941382          671 
  471000   0.51363155   -8.9749485    48.515679 0.0085838074 0.0070686623          648 
  472000   0.49815993   -8.9687405    48.511917  0.008564957 0.0070433596          613 
  473000   0.52091388   -8.9685777    48.576416 0.0085582129 0.0070181428          433 
  474000   0.51849888   -8.9826619    48.523148 0.0085307926 0.0069930448          655 
  475000   0.51472398   -8.9949655    48.378338 0.0084874277 0.0069680415          651 
  476000   0.49568915   -8.9815172    48.554474 0.0085004331 0.0069431489          643 
  477000   0.49166277   -8.9934086    48.448444 0.0084640887 0.0069183665          671 
  478000    0.5067286   -8.9735537    48.451431 0.0084469022 0.0068937293          644 
  479000   0.50574565   -8.9842835    48.424404 0.0084245658 0.0068691748          650 
  480000   0.50198799   -8.9857893    48.455954 0.0084124921 0.0068447885          415 
  481000   0.50222466   -8.9963595     48.46018 0.0083957346 0.0068204944          645 
  482000   0.49347139   -8.9913275    48.397266 0.0083674388 0.0067963047          677 
  483000   0.49640439   -8.9983257    48.448717 0.0083589919 0.0067722552          666 
  484000   0.49335634    -9.006236    48.472707 0.0083458518 0.0067482819          661 
  485000   0.49509014   -9.0127322    48.377241 0.0083122406 0.0067244277          648 
  486000   0.49629411   -9.0196242    48.510015 0.0083179038 0.0067006942          656 
  487000   0.49599972   -9.0034442     48.42655 0.0082865418 0.0066770758          619 
  488000   0.48677528   -9.0195305    48.376277 0.0082609762 0.0066535839          675 
  489000   0.48763232   -9.0304019    48.401843 0.0082484394 0.0066301544          661 
  490000   0.48071796   -9.0226452    48.412369  0.008233396 0.0066068693          650 
  491000   0.48328102   -9.0160771    48.415511 0.0082171607 0.0065836607          657 
  492000   0.48832386   -9.0333328    48.388924 0.0081959559 0.0065605585          644 
  493000   0.48252799   -9.0062765    48.403511  0.008181797 0.0065375997          626 
  494000   0.47828035   -9.0097289    48.374213 0.0081602923 0.0065147417          704 
  495000   0.48495066   -9.0496535    48.353931 0.0081403925 0.0064919825          632 
  496000   0.48702668   -9.0181123    48.432056 0.0081371062 0.0064693043          649 
  497000   0.47337684   -9.0340911        48.39  0.008113682 0.0064467231          672 
  498000   0.46463999   -9.0382209    48.346026 0.0080900311 0.0064242394          694 
  499000   0.47531931    -9.038485    48.351886 0.0080747972 0.0064018686          701 
  500000   0.47185594   -9.0346047    48.340318 0.0080567197 0.0063795935          658 
  501000   0.47537637   -9.0392743    48.405605 0.0080514978 0.0063574597          649 
  502000    0.4619738     -9.04856    48.349399 0.0080261287 0.0063353689          670 
  503000   0.46427739   -9.0576287    48.286349 0.0079997265 0.0063133675          658 
  504000   0.46070339   -9.0661508    48.324877 0.0079902244  0.006291527          680 
  505000   0.46211615   -9.0440444    48.297905 0.0079699513 0.0062697183          679 
  506000    0.4578107   -9.0624299    48.282968 0.0079517404 0.0062479663          685 
  507000   0.45850259    -9.068419    48.334774 0.0079445716 0.0062263524          638 
  508000     0.457367   -9.0677083    48.267645 0.0079179208 0.0062048406          706 
  509000   0.44751198    -9.068207    48.329916 0.0079125599 0.0061834364          712 
  510000   0.44945265   -9.0572261    48.330987   0.00789722 0.0061621138          697 
  511000   0.43723208   -9.0594956    48.284559 0.0078741943 0.0061408944          713 
  512000   0.44408708   -9.0702675    48.227581 0.0078495412 0.0061197408          724 
Loop time of 1291.51 on 48 procs for 500000 steps with 4000 atoms

Performance: 66898.509 tau/day, 387.144 timesteps/s
99.4% CPU use with 48 MPI tasks x no OpenMP threads

MPI task timing breakdown:
Section |  min time  |  avg time  |  max time  |%varavg| %total
---------------------------------------------------------------
Pair    | 91.148     | 97.635     | 102.65     |  28.5 |  7.56
Neigh   | 8.7338     | 9.0533     | 9.4719     |   6.0 |  0.70
Comm    | 82.51      | 88.572     | 96.248     |  33.7 |  6.86
Output  | 1.5238     | 1.5246     | 1.557      |   0.4 |  0.12
Modify  | 1078.6     | 1082.4     | 1084.6     |   4.3 | 83.81
Other   |            | 12.31      |            |       |  0.95

Nlocal:        83.3333 ave          90 max          77 min
Histogram: 2 1 6 13 4 4 10 2 3 3
Nghost:        2353.90 ave        2374 max        2334 min
Histogram: 1 4 5 7 3 8 11 6 2 1
Neighs:        16103.4 ave       18747 max       14211 min
Histogram: 1 5 7 8 14 6 4 2 0 1
FullNghs:      32208.1 ave       34991 max       29620 min
Histogram: 2 1 9 10 4 8 4 6 2 2

Total # of neighbors = 1545991
Ave neighs/atom = 386.49775
Neighbor list builds = 26627
Dangerous builds = 0

#clear
#
#next RN
#
#jump SELF
Total wall time: 0:21:35
