
units lj                  # Use reduced LJ style units
atom_style atomic         # Uncharged point particles
atom_modify map hash      # Needed for indexing of clusters etc
                          # Used to be able to find where atoms are in relation to each other.

lattice fcc 1.0 spacing 1 1 1
Lattice spacing in x,y,z = 1.5874011 1.5874011 1.5874011
region box block 0 10 0 10 0 10 units lattice
create_box 2 box
Created orthogonal box = (0.0000000 0.0000000 0.0000000) to (15.874011 15.874011 15.874011)
  3 by 4 by 4 MPI processor grid
create_atoms 1 box
Created 4000 atoms
  using lattice units in orthogonal box = (0.0000000 0.0000000 0.0000000) to (15.874011 15.874011 15.874011)
  create_atoms CPU = 0.014 seconds
set type 1 type/fraction 2 0.5 78393
Setting atom values ...
  2004 settings made for type/fraction
mass 1 1.0
mass 2 1.0
pair_style lj/cut  3.5
pair_modify tail  yes
pair_coeff 1  1  1.0  1.0   # Intearaction between 1 and 1 set with epsilon = 1 and sigma = 1
pair_coeff 1  2  1.5  0.8
pair_coeff 2  2  0.5  0.88

write_data data.0
System init for write_data ...
Neighbor list info ...
  update every 1 steps, delay 10 steps, check yes
  max neighbors/atom: 2000, page size: 100000
  master list distance cutoff = 3.8
  ghost atom cutoff = 3.8
  binsize = 1.9, bins = 9 9 9
  1 neighbor lists, perpetual/occasional/extra = 1 0 0
  (1) pair lj/cut, perpetual
      attributes: half, newton on
      pair build: half/bin/atomonly/newton
      stencil: half/bin/3d
      bin: standard
WARNING: Not all mixed pair coeffs generated from mixing. Use write_data with 'pair ij' option to store all pair coeffs. (../write_data.cpp:312)


#############################
#   M E L T   S Y S T E M   #
#############################

velocity all create 2.4 6229865 mom yes dist gaussian # Assign velocities
                                                    # Temperature 2.4, random number seed, zero linear momentum
                                                                                # Gaussian distribution

timestep 0.002   # simulation timestep
thermo 1000       # output thermodynamic data every 1000 steps bf 100

# Define a fix  in this case with index 1 applied to all
# particles in the simulation. This fix is for simulations
# in the anisotropic NPT ensemble. Note that we use the MTK
# correction.
fix 1 all npt temp 2.4 2.4 0.1 iso 5.68 5.68 0.5 mtk yes tchain 5 pchain 5 # Use NPT ensemble
                                                                         # Set temperature and pressure and damping
                                                                         # Numbers of thermostats in chain and in barostat
run 10000          # run for 10000 steps
Per MPI rank memory allocation (min/avg/max) = 3.642 | 3.644 | 3.648 Mbytes
Step Temp E_pair E_mol TotEng Press Volume 
       0          2.4   -5.2939675            0   -1.6948675   -4.2078901         4000 
    1000    2.3614425   -4.8602596            0   -1.3189814    5.6755012    3701.2706 
    2000    2.4150247    -4.888072            0   -1.2664406    5.4769338    3716.3465 
    3000    2.4038776   -4.8602553            0   -1.2553404    6.0219405    3689.7243 
    4000    2.3857197   -4.8817752            0   -1.3040904    5.4629585    3727.0932 
    5000    2.3814801   -4.8564969            0   -1.2851698    5.8340703    3697.3413 
    6000    2.3554961   -4.8992191            0   -1.3668583    5.9933186     3668.571 
    7000    2.4518033   -4.8480433            0   -1.1712578    6.0173411    3707.4719 
    8000    2.3954402    -4.926492            0     -1.33423    5.6526906    3677.2886 
    9000     2.405133   -4.8781054            0   -1.2713078    5.9887402    3684.7839 
   10000    2.3571307   -4.8895614            0   -1.3547493     5.499969      3718.65 
Loop time of 2.64951 on 48 procs for 10000 steps with 4000 atoms

Performance: 652195.740 tau/day, 3774.281 timesteps/s
99.7% CPU use with 48 MPI tasks x no OpenMP threads

MPI task timing breakdown:
Section |  min time  |  avg time  |  max time  |%varavg| %total
---------------------------------------------------------------
Pair    | 1.1454     | 1.2489     | 1.4        |   4.1 | 47.14
Neigh   | 0.21472    | 0.22382    | 0.24855    |   1.4 |  8.45
Comm    | 0.73482    | 0.90799    | 1.0263     |   5.7 | 34.27
Output  | 0.00024303 | 0.00024801 | 0.00031231 |   0.0 |  0.01
Modify  | 0.2035     | 0.25326    | 0.30019    |   5.7 |  9.56
Other   |            | 0.0153     |            |       |  0.58

Nlocal:        83.3333 ave          95 max          76 min
Histogram: 3 6 4 10 13 7 2 2 0 1
Nghost:        1723.71 ave        1765 max        1688 min
Histogram: 2 5 4 8 9 6 7 3 3 1
Neighs:        10278.6 ave       11902 max        9104 min
Histogram: 5 3 6 7 10 10 2 2 2 1

Total # of neighbors = 493375
Ave neighs/atom = 123.34375
Neighbor list builds = 911
Dangerous builds = 246

# Equilibrate just above the melting temperature to avoid step fn in T

fix 1 all npt temp 1.25 1.25 0.1 iso 5.68 5.68 0.5 mtk yes tchain 5 pchain 5
run 2000
Per MPI rank memory allocation (min/avg/max) = 3.644 | 3.646 | 3.649 Mbytes
Step Temp E_pair E_mol TotEng Press Volume 
   10000    2.3571307   -4.8895614            0   -1.3547493     5.499969      3718.65 
   11000     1.249616   -6.9897884            0   -5.1158331    5.8307799    2884.9234 
   12000    1.2463243   -7.1157055            0   -5.2466865    5.8684556    2845.2249 
Loop time of 0.645064 on 48 procs for 2000 steps with 4000 atoms

Performance: 535760.714 tau/day, 3100.467 timesteps/s
99.7% CPU use with 48 MPI tasks x no OpenMP threads

MPI task timing breakdown:
Section |  min time  |  avg time  |  max time  |%varavg| %total
---------------------------------------------------------------
Pair    | 0.26866    | 0.31477    | 0.3464     |   2.9 | 48.80
Neigh   | 0.040031   | 0.04331    | 0.046397   |   0.8 |  6.71
Comm    | 0.20426    | 0.23797    | 0.28691    |   3.7 | 36.89
Output  | 5.1603e-05 | 5.2956e-05 | 6.742e-05  |   0.0 |  0.01
Modify  | 0.039346   | 0.04405    | 0.047507   |   1.1 |  6.83
Other   |            | 0.004911   |            |       |  0.76

Nlocal:        83.3333 ave          92 max          75 min
Histogram: 2 1 7 5 11 12 1 4 2 3
Nghost:        2060.50 ave        2081 max        2040 min
Histogram: 4 5 4 5 5 6 9 2 3 5
Neighs:        13424.2 ave       15361 max       11834 min
Histogram: 2 4 8 4 9 10 6 2 2 1

Total # of neighbors = 644362
Ave neighs/atom = 161.09050
Neighbor list builds = 144
Dangerous builds = 12

#############################
# L I N E A R  Q U E N C H  #
#############################

# Define solid atoms. This closely follows ten Wolde  Ruiz-Montero and Frenkel  Faraday Discuss  1996  104  93-110
# Compute components of the per-atom q6 vector
compute q6 all orientorder/atom degrees 1 6 components 6 nnn NULL cutoff 1.3 # compute the Q6 parameter.
                                                                             # Use all neighbours within 1.3 unit cell.

# get number of connections
compute coord_number all coord/atom orientorder q6 0.5

# An atom is solid if it has 8 or more connections (of a possible 14)
variable is_solid atom c_coord_number>=8
group solid dynamic all var is_solid    # Must be dynamic to update
dynamic group solid defined

# do clustering
compute cluster solid cluster/atom 1.3 # Create a cluster where all atoms within are solid and max 1.3 units from another member

# define chunks one chunk per cluster
compute clus_chunks solid chunk/atom c_cluster nchunk every compress yes  # Says which atoms are in which chunk

# count the size of each chunk
compute size_chunks solid property/chunk clus_chunks count


# Find the maximum entry in the vector of chunk sizes
variable max_n equal max(c_size_chunks)


# Thermo style which includes this variable
# thermo_style custom step temp pe vol v_max_n

thermo ${N}  # Print the thermo information every 100 steps
thermo 1000  

# Reset the npt fix at a lower temperature (below freezing)
fix 1  all npt temp  ${temp} ${temp}  0.1  iso  5.68  5.68  0.5  mtk yes tchain  5  pchain  5
fix 1  all npt temp  0.45 ${temp}  0.1  iso  5.68  5.68  0.5  mtk yes tchain  5  pchain  5
fix 1  all npt temp  0.45 0.45  0.1  iso  5.68  5.68  0.5  mtk yes tchain  5  pchain  5

dump dmp2 all dcd ${N} traj.dcd
dump dmp2 all dcd 1000 traj.dcd


compute msd all msd com yes
variable twopoint equal c_msd[4]/6/(step*dt+1.0e-6)
fix 9 all vector 10 c_msd[4]
variable fit equal slope(f_9)/6/(10*dt)
thermo_style custom step temp pe c_msd[4] v_twopoint v_fit v_max_n

fix 1 all npt temp 1.25 ${temp} 0.1 iso 5.68 5.68 0.5 mtk yes tchain 5 pchain 5
fix 1 all npt temp 1.25 0.45 0.1 iso 5.68 5.68 0.5 mtk yes tchain 5 pchain 5
run 2000000 # 5000000  # Run for this many steps
Neighbor list info ...
  update every 1 steps, delay 10 steps, check yes
  max neighbors/atom: 2000, page size: 100000
  master list distance cutoff = 3.8
  ghost atom cutoff = 3.8
  binsize = 1.9, bins = 8 8 8
  4 neighbor lists, perpetual/occasional/extra = 1 3 0
  (1) pair lj/cut, perpetual
      attributes: half, newton on
      pair build: half/bin/atomonly/newton
      stencil: half/bin/3d
      bin: standard
  (2) compute orientorder/atom, occasional
      attributes: full, newton on
      pair build: full/bin/atomonly
      stencil: full/bin/3d
      bin: standard
  (3) compute coord/atom, occasional
      attributes: full, newton on
      pair build: full/bin/atomonly
      stencil: full/bin/3d
      bin: standard
  (4) compute cluster/atom, occasional
      attributes: full, newton on
      pair build: full/bin/atomonly
      stencil: full/bin/3d
      bin: standard
Per MPI rank memory allocation (min/avg/max) = 9.838 | 9.843 | 9.848 Mbytes
Step Temp PotEng c_msd[4] v_twopoint v_fit v_max_n 
   12000    1.2463243   -7.1157055 1.7952502e-30 1.2467015e-32 8.3333333e+20            2 
   13000    1.2435157   -7.1044218   0.46470689 0.0029788902   0.03783355            3 
   14000      1.24236   -7.1668608   0.85728994 0.0051029161  0.034750346            1 
   15000    1.2568827   -7.0882225    1.2533939 0.0069632993  0.034155736            4 
   16000    1.2208977    -7.114664    1.6750891 0.0087244222  0.033972724            2 
   17000    1.2761074   -7.1451653    2.0799432    0.0101958  0.034060129            3 
   18000    1.2336623    -7.114706    2.4843017  0.011501396  0.034167735            2 
   19000     1.237028   -7.1393479    2.8759752  0.012613926  0.033820689            1 
   20000    1.2513272   -7.1282977    3.2787775  0.013661572  0.033738933            2 
   21000     1.255856    -7.086701    3.7620373  0.014928719  0.034029588            1 
   22000     1.223379   -7.1246916    4.1355632  0.015665012  0.034142249            3 
   23000    1.2688845   -7.1208671     4.570206  0.016558717  0.034190381            1 
   24000     1.228805   -7.1662281    4.9588716  0.017218304  0.034251041            4 
   25000    1.2629633   -7.1189398    5.2999633  0.017666544  0.034131144            1 
   26000    1.2473184   -7.1663397    5.5766929  0.017874015  0.033811438            1 
   27000    1.2326315   -7.1424121    5.9199392  0.018271417  0.033442194            2 
   28000    1.2460654   -7.1704939    6.3202822  0.018810363  0.033139618            4 
   29000    1.2568085   -7.0836072      6.70745  0.019274281  0.032904067            2 
   30000    1.2374157   -7.1106731    7.1197387  0.019777052  0.032732933            1 
   31000    1.2368775    -7.122285    7.6616645  0.020595872    0.0327221            1 
   32000    1.2620919    -7.122525    8.0066351  0.020850612  0.032766069            1 
   33000    1.2242943   -7.1680615    8.3667438   0.02112814  0.032764578            2 
   34000    1.2333807   -7.1161882    8.7631836  0.021478391  0.032771423            1 
   35000    1.2163569   -7.1552914    9.1988713  0.021902074  0.032764578            2 
   36000     1.241799   -7.1300891    9.5905426   0.02220033  0.032787784            2 
   37000    1.2464922   -7.1405948    9.9832044  0.022484694  0.032818719            2 
   38000    1.2342038   -7.1144469    10.390497  0.022786177  0.032861185            1 
   39000     1.234813   -7.1165682    10.771611  0.023016263  0.032867537            2 
   40000    1.2530723   -7.1724191    11.130523   0.02318859  0.032885858            2 
   41000    1.2201129   -7.1128229    11.526922  0.023428703  0.032907624            2 
   42000    1.2630348   -7.1249354    11.939121  0.023688732  0.032892484            3 
   43000    1.2444338   -7.1255211    12.241931  0.023724673  0.032855367            4 
   44000    1.2410838   -7.1406845    12.579003   0.02382387  0.032801179            5 
   45000    1.2430575   -7.1619022    12.988225  0.024052268  0.032735922            3 
   46000    1.2102249   -7.1283433    13.392955    0.0242626  0.032690786            3 
   47000    1.2406303   -7.1498778    13.853173  0.024562364  0.032688932            3 
   48000    1.2315208   -7.1219101    14.247419  0.024735102  0.032699124            1 
   49000    1.2326068   -7.0898728    14.704391  0.025007468  0.032703925            2 
   50000    1.2089016   -7.1066286     14.96186  0.024936433  0.032676848            2 
   51000    1.2600706   -7.1361261    15.460236  0.025261823  0.032669663            1 
   52000    1.2198158   -7.1076209    15.918231  0.025509985  0.032679268            3 
   53000    1.2104848   -7.0966106    16.428055  0.025830274  0.032700885            3 
   54000    1.2649849   -7.1615572    16.944828  0.026149425  0.032770245            2 
   55000    1.2449747   -7.1488211    17.224953  0.026098413  0.032824861            3 
   56000    1.2290623   -7.1262282     17.65384  0.026270595  0.032876203            1 
   57000    1.2612472   -7.1092902    17.945304  0.026235824  0.032900367            3 
   58000    1.2235559   -7.1313821     18.34738  0.026361179  0.032925869            3 
   59000    1.2159158   -7.1769741     18.76682  0.026506807  0.032943026            4 
   60000    1.2316022   -7.1603514    19.206145  0.026675201  0.032967437            2 
   61000    1.1939798   -7.1732778    19.623842  0.026808527  0.033014479            4 
   62000    1.2292145   -7.1672988    19.998679  0.026879945  0.033058403            1 
   63000    1.2319378   -7.1188879    20.477248  0.027086307  0.033092829            2 
   64000     1.255629   -7.1605446    20.694297  0.026945699  0.033103868            1 
   65000    1.2376275   -7.1637961    20.932055  0.026835968  0.033097147            3 
   66000    1.2213965   -7.1627895    21.327272  0.026928373  0.033073375            1 
   67000    1.2287358   -7.1606654      21.6753  0.026959328  0.033049792            2 
   68000    1.2241038   -7.2014496    22.017557    0.0269823  0.033018708            2 
   69000    1.2279568   -7.1806464    22.283626  0.026912591  0.032973433            1 
   70000    1.2290536   -7.1538772    22.656795  0.026972374  0.032907561            2 
   71000    1.2416381   -7.1112199    22.909773  0.026889405  0.032845317            1 
   72000    1.2518618   -7.2112152    23.301606  0.026969451  0.032780416            2 
   73000    1.1998385   -7.1812819    23.634293  0.026979786  0.032721729            4 
   74000     1.215015   -7.1860958    24.021285  0.027050996  0.032669161            1 
   75000    1.2046551   -7.1924543    24.281755  0.026979727  0.032609359            3 
   76000    1.2153272   -7.1771772    24.536835  0.026904424  0.032537694            2 
   77000    1.2512099    -7.178227    24.835329  0.026878061  0.032460852            2 
   78000    1.2293892   -7.1914198    25.041565  0.026753808  0.032375914            1 
   79000    1.2305072   -7.1792817    25.343658  0.026733817  0.032287081            1 
   80000    1.2179041   -7.2261863    25.849941  0.026927021    0.0322078            3 
   81000    1.2237138   -7.1939828    26.062472  0.026813243  0.032120184            1 
   82000    1.2356849   -7.1606336    26.366325  0.026795046  0.032034454            1 
   83000    1.2360931    -7.146719    26.759578  0.026867046  0.031949377            1 
   84000     1.242108   -7.1803144     27.14015  0.026924752    0.0318646            1 
   85000     1.194563   -7.1497117    27.520084  0.026980475  0.031793213            3 
   86000    1.2281099   -7.1842313    27.866891  0.027002801  0.031722384            2 
   87000    1.2337275   -7.1593251    28.274373  0.027082733  0.031666439            1 
   88000    1.2086055   -7.2147631    28.664566  0.027144475  0.031612373            2 
   89000    1.2101425   -7.1724065     29.05515  0.027205197  0.031565795            3 
   90000    1.2145981   -7.1507618    29.581146   0.02738995  0.031526596            3 
   91000    1.2179643   -7.1559632    30.046564  0.027515169   0.03149634            2 
   92000    1.2219624   -7.1939483    30.469585  0.027599261  0.031475002            1 
   93000    1.2180346   -7.1866825    31.103079  0.027870143  0.031461059            3 
   94000     1.237712   -7.1935806    31.339164  0.027782947  0.031451602            2 
   95000     1.194623   -7.1120561    31.971861  0.028045492  0.031448457            2 
   96000     1.221948   -7.1981955       32.071   0.02783941  0.031443077            2 
   97000     1.203771   -7.1520448    32.681181  0.028076616  0.031441545            2 
   98000    1.1979411   -7.1728331    32.792486  0.027884767  0.031434758            1 
   99000    1.2046155   -7.1855256    33.057588  0.027826252  0.031419236            1 
  100000    1.2116538   -7.1897881    33.420868  0.027850723  0.031400856            2 
  101000    1.2344534    -7.235637    33.673863  0.027783715  0.031385069            2 
  102000    1.2170043   -7.1668713    34.015257  0.027790243  0.031361821            4 
  103000    1.2187712   -7.1712837    34.363345  0.027802059  0.031340166            1 
  104000    1.2061039   -7.1946928    34.781066  0.027869444  0.031324608            2 
  105000    1.2022467   -7.2153334    35.272501  0.027994048  0.031313288            3 
  106000    1.2291742   -7.1896662    35.739423   0.02809703  0.031304439            3 
  107000    1.2170182   -7.1936042    36.192945  0.028187652  0.031299928            2 
  108000    1.1941382   -7.2453103    36.652383   0.02828116  0.031297173            2 
  109000    1.2117995   -7.2179416    36.994577  0.028283315  0.031297295            2 
  110000    1.1988118   -7.1896042     37.55892  0.028453727  0.031298936            1 
  111000     1.219513   -7.2077178    37.958648  0.028497484  0.031304474            2 
  112000    1.2218696   -7.1934137    38.267068   0.02847252  0.031312353            6 
  113000    1.2220776   -7.2034103    38.717186  0.028552497  0.031319367            4 
  114000    1.2181321   -7.1870291    39.240477  0.028684559  0.031329156            2 
  115000     1.209312   -7.1924545    39.505377  0.028627085  0.031340675            2 
  116000    1.1921011   -7.1905311    39.694118  0.028515889  0.031348005            4 
  117000    1.2066752   -7.1953336     40.00314  0.028492265  0.031346894            4 
  118000    1.2126347   -7.2119916    40.211722  0.028398109  0.031339897            2 
  119000     1.194052    -7.224657     40.54387  0.028392066  0.031331719            2 
  120000    1.1904493    -7.209829    40.790301  0.028326598  0.031317441            1 
  121000    1.1689744   -7.2126502    41.248163  0.028407825  0.031303817            5 
  122000    1.1958761   -7.1921668    41.372154  0.028259668  0.031287928            1 
  123000    1.1694056   -7.2016566    41.686596  0.028242951  0.031266081            2 
  124000    1.1976723   -7.2276203    42.231718  0.028381531  0.031249781            1 
  125000    1.2174916   -7.1886861     42.33955  0.028226366  0.031232305            3 
  126000    1.2273678   -7.1884886    42.981638  0.028427009  0.031212954            2 
  127000    1.1920734   -7.2384446    43.227534  0.028364524  0.031194757            5 
  128000     1.195468   -7.2081536     43.44896  0.028287083  0.031174052            3 
  129000    1.1976554   -7.1615432    44.023908  0.028439217  0.031154251            4 
  130000    1.1898398   -7.2519159    44.417501  0.028472757  0.031137285            1 
  131000     1.216074   -7.2195465    44.705221  0.028438435  0.031121754            2 
  132000    1.2167659   -7.2333448    45.103967  0.028474726  0.031107715            5 
  133000    1.2259303   -7.2166818    45.507206  0.028513287   0.03109643            2 
  134000    1.1735928   -7.2347377     45.61098  0.028365037  0.031084584            3 
  135000    1.1948499   -7.1871679    46.153022   0.02848952  0.031069237            2 
  136000    1.2062684   -7.2869411    45.896679  0.028122965  0.031049755            1 
  137000    1.2212301   -7.2433826     46.40399  0.028226271  0.031026498            1 
  138000    1.2154544   -7.2187236    46.800338  0.028261073  0.031003064            1 
  139000    1.1851362    -7.259278    47.009543  0.028183179   0.03097645            2 
  140000    1.2025197   -7.2748647    47.163409  0.028073458  0.030946645            2 
  141000      1.20803   -7.2740371    47.563715  0.028110943  0.030917584            4 
  142000    1.2177149   -7.2153619    48.243019  0.028311631  0.030894727            2 
  143000    1.1944416   -7.2679289    48.208277  0.028093401  0.030869225            2 
  144000    1.1996767   -7.2121586    48.766273  0.028221223  0.030843227            2 
  145000    1.2188746     -7.23384    49.442279  0.028415103  0.030823973            5 
  146000    1.2021061   -7.2547012    49.548165  0.028280916  0.030808112            9 
  147000    1.1940703   -7.1918797    49.846608  0.028257714  0.030788842            2 
  148000    1.2269389    -7.222967    50.263163   0.02830133  0.030766345            3 
  149000    1.2008672   -7.2539307    50.423185  0.028200886   0.03074355            2 
  150000    1.2040764    -7.228722    50.821021  0.028233901  0.030719801            4 
  151000    1.2000457   -7.2354838    51.164156  0.028236289  0.030698838            2 
  152000    1.1921207   -7.2198139    51.319896  0.028135908  0.030672489            2 
  153000    1.1782431   -7.2672338     51.68113  0.028148763  0.030645169            4 
  154000    1.1989601   -7.2567782    52.201747  0.028247699  0.030618025            8 
  155000    1.1613798   -7.2261047    52.465331  0.028207167  0.030592513            6 
  156000    1.2086032   -7.2580546    52.550498  0.028071847  0.030567287            3 
  157000     1.177184    -7.209364    53.266006  0.028272827   0.03054262            2 
  158000    1.1771905   -7.2635019    53.150844  0.028033145  0.030518574            2 
  159000      1.20275   -7.2331173    53.458693  0.028018183  0.030488709            2 
  160000    1.1716094   -7.2776471    53.447086  0.027837024  0.030456221            2 
  161000    1.1575661   -7.2978649    53.926411  0.027912221  0.030422352            2 
  162000    1.1746543   -7.2317956    54.423432  0.027995593   0.03038989            2 
  163000    1.1999792   -7.2552424     54.26419  0.027742428  0.030354687            2 
  164000    1.1578539    -7.257487    54.709811    0.0277997  0.030317489            1 
  165000    1.2036218   -7.2371231    54.994334  0.027774916  0.030281684            2 
  166000    1.1763601   -7.2633907      55.4151  0.027818825  0.030249036            2 
  167000    1.1964696   -7.2643486    55.865615  0.027877053  0.030217908            2 
  168000     1.188308   -7.2615656    56.281056   0.02791719  0.030189264            1 
  169000     1.187484   -7.2660209    56.452693  0.027836634  0.030160344            1 
  170000    1.1832873   -7.2526851    56.766491  0.027826711   0.03012789            2 
  171000    1.1647872   -7.2235104    57.114215  0.027833438   0.03009522            2 
  172000    1.1808854   -7.2505113    57.281249  0.027752543  0.030063905            2 
  173000    1.1969418   -7.2487298    57.613577  0.027752205  0.030033157            2 
  174000    1.1590777   -7.2766499     57.77448   0.02766977  0.029998378            4 
  175000    1.1624728   -7.2869062    57.855275  0.027550131  0.029963059            1 
  176000    1.1845543   -7.2514319    58.349282  0.027627501  0.029928346            4 
  177000    1.2071712   -7.2858028    58.670038  0.027622428  0.029892512            1 
  178000    1.1872329    -7.227388    59.456133  0.027835268  0.029859888            4 
  179000    1.1999322    -7.246944    59.513049  0.027706261  0.029830408            3 
  180000    1.1737563   -7.2666322    59.714605   0.02764565  0.029799519            2 
  181000    1.1866306    -7.281725     59.81383  0.027538595  0.029768321            2 
  182000    1.1586865   -7.2841992    60.038811  0.027490298  0.029734946            2 
  183000    1.2046586   -7.2795617    60.496749  0.027548611  0.029700955            1 
  184000    1.1850761    -7.287487    60.731423  0.027505173  0.029668305            2 
  185000    1.1812963   -7.2994249    61.194867  0.027565255  0.029637049            1 
  186000    1.1832539   -7.3390796    61.688071  0.027638025  0.029608945           11 
  187000    1.1865929    -7.274182    61.893808  0.027581911  0.029579684            2 
  188000    1.1750566   -7.3324534    61.881184  0.027429603  0.029551613            3 
  189000    1.1792057    -7.268745    62.246937  0.027445739  0.029520421            2 
  190000    1.1580538   -7.3033098    62.317688  0.027332319  0.029488227            3 
  191000     1.188638   -7.2531669    62.784316  0.027392808  0.029454853            3 
  192000    1.1921549   -7.2739496    63.013573  0.027349641  0.029421905            2 
  193000    1.1827939   -7.2973812    63.241182   0.02730621  0.029387658            3 
  194000    1.1524811   -7.2665382    63.524002  0.027286942  0.029353101            6 
  195000    1.1762361   -7.2530212    63.766488  0.027250636  0.029318568            2 
  196000      1.19203   -7.2510078    64.106811  0.027256297  0.029284191            3 
  197000    1.1613964   -7.2489094    64.300021   0.02719967  0.029250724            1 
  198000    1.1725431   -7.2584002    64.718855  0.027238575  0.029215854            2 
  199000    1.1881663   -7.3061087     64.87386  0.027166608  0.029181281            3 
  200000    1.1827713   -7.3218692    65.205141  0.027168809  0.029147229            2 
  201000     1.203698   -7.2796008    65.544664  0.027174405  0.029112474            3 
  202000    1.1671692   -7.2796869     66.08892  0.027264406  0.029079684            2 
  203000    1.1627935    -7.301239    66.016994  0.027100572  0.029048836            3 
  204000    1.2090818   -7.3247529    66.547546  0.027184455  0.029016855            1 
  205000    1.1991712   -7.2829665    66.850902  0.027175163  0.028984926            3 
  206000    1.1978814   -7.3361225    66.957391  0.027086323  0.028953409            2 
  207000    1.1393422    -7.268696    67.613258  0.027219508  0.028921622            2 
  208000    1.1508964   -7.2929118     67.71424  0.027129102  0.028891163            2 
  209000    1.1621288    -7.320799    67.765116  0.027019584  0.028860278            2 
  210000     1.163072   -7.2946888    68.318695  0.027110593  0.028828103            2 
  211000    1.1683763   -7.3475042    68.148088  0.026914727   0.02879535            5 
  212000    1.1882741   -7.2801182    68.564291  0.026951372  0.028762217            2 
  213000    1.1621487   -7.3094783    69.107096  0.027037205  0.028731847            1 
  214000    1.1891512   -7.3190858    69.565979  0.027089556   0.02870399            2 
  215000    1.1539074   -7.3151341    69.969929  0.027120127  0.028676493            3 
  216000    1.1622276   -7.2980721    70.370997  0.027149304  0.028649547            2 
  217000    1.1495684   -7.3369879    70.424347   0.02704468  0.028621867            2 
  218000    1.1858489   -7.2857273    71.028566  0.027151592  0.028595569            4 
  219000    1.1771979   -7.2846415    71.286641  0.027125815  0.028570699            2 
  220000    1.1676737   -7.3271283    71.228386  0.026980449  0.028545775            2 
  221000    1.1630739   -7.3336009    71.414683  0.026928613  0.028519308            2 
  222000    1.1516371   -7.2550003    72.096322  0.027063184  0.028492952            5 
  223000    1.1635815   -7.3327073    72.291296  0.027014685  0.028467653            1 
  224000    1.1818748   -7.2990681    72.328491  0.026907921  0.028440898            1 
  225000    1.1837155   -7.3174691     72.94115  0.027015241  0.028415311            6 
  226000    1.1585864   -7.3642331    73.259141  0.027012958  0.028391824            2 
  227000    1.1568418    -7.333907    73.667102  0.027043723  0.028368416            3 
  228000    1.1825545   -7.3104229    73.946072  0.027027073  0.028348794            5 
  229000    1.1803765   -7.3338199    74.397335  0.027073266  0.028327854            2 
  230000    1.1709932   -7.2646453    74.703218  0.027066383  0.028307719            5 
  231000     1.190551   -7.3319986     74.95744  0.027040923  0.028289214            2 
  232000    1.1492813   -7.3089607    75.543231  0.027134781  0.028271839            1 
  233000    1.1522093   -7.3382267     75.58637  0.027033752  0.028253936            4 
  234000    1.1639663   -7.3445739    75.653715  0.026942206  0.028234908            1 
  235000    1.1489056   -7.3456451    76.255965  0.027041122  0.028216261            1 
  236000    1.1808237   -7.3328022    76.348155  0.026959094  0.028197283            1 
  237000    1.1707748   -7.3080129    76.900035  0.027039393  0.028178623            4 
  238000    1.1399485   -7.3664502    77.224476  0.027039382  0.028159066            2 
  239000    1.1687621   -7.2997716    77.586992  0.027052647  0.028141265            4 
  240000    1.1729232   -7.3216242    77.742961  0.026994084  0.028123283            2 
  241000    1.1772046   -7.3593633    77.511376  0.026801997  0.028103511            1 
  242000    1.1684479   -7.3530427    78.373793  0.026988221  0.028083353            6 
  243000    1.1634907   -7.3521283    78.393884  0.026884048   0.02806519            2 
  244000     1.163374   -7.3808089     78.53669   0.02682264   0.02804514            2 
  245000     1.138958   -7.3660418     79.07516  0.026896313   0.02802404            1 
  246000    1.1582449   -7.3310264    79.428523  0.026906681  0.028003899            2 
  247000     1.166929   -7.3588453    79.685449  0.026884429  0.027983411            5 
  248000    1.1612279   -7.3369989    79.845924  0.026829947  0.027964055            3 
  249000     1.168621   -7.2665901    80.546143  0.026956541  0.027943811            4 
  250000    1.1461896   -7.3620304     80.48116  0.026827053  0.027924523            2 
  251000    1.1582784   -7.3522268    80.699579  0.026792689  0.027905065            2 
  252000    1.1430855   -7.3445165    81.121582   0.02682592  0.027886514            3 
  253000    1.1478979   -7.3272923    81.395762  0.026810198   0.02786755            2 
  254000    1.1458677   -7.3519278    81.469187  0.026728736   0.02784972            3 
  255000    1.1463926   -7.3580394    81.903568  0.026765872  0.027830573            4 
  256000    1.1482294    -7.370839    81.967073   0.02668199  0.027810542            1 
  257000    1.1500002   -7.3326543    82.925093  0.026888811  0.027791487            3 
  258000    1.1493481   -7.2775076    83.232438  0.026883862  0.027774547            2 
  259000    1.1553371   -7.3525357     83.00388  0.026706525   0.02775748            3 
  260000    1.1626662   -7.3512846     83.34327  0.026712587  0.027738875            2 
  261000    1.1681998   -7.3136319    83.661127  0.026711726  0.027719844            3 
  262000    1.1549222    -7.393275    83.368426  0.026516675  0.027700082            2 
  263000     1.148588    -7.345611    84.145634  0.026662115  0.027680323            3 
  264000    1.1462334   -7.3663092     84.35234   0.02662637  0.027660774            3 
  265000    1.1572077   -7.3253495    84.721395  0.026641948  0.027640878            3 
  266000     1.176238   -7.3204776    84.714304  0.026539569  0.027620875            1 
  267000    1.1272911   -7.3481257    85.225893  0.026599842  0.027600636            3 
  268000    1.1278169   -7.3804865    85.111815  0.026465117  0.027579836            1 
  269000    1.1296651   -7.3670191    86.072859  0.026664454   0.02756008            3 
  270000    1.1552619   -7.3843511    86.142648  0.026587237  0.027540915            2 
  271000    1.1496598   -7.3898154     86.40878  0.026570966  0.027521838            2 
  272000    1.1499457   -7.3582718    86.644644   0.02654554  0.027503354            1 
  273000    1.1390763    -7.338466    86.950851  0.026541774  0.027485334            3 
  274000      1.13129   -7.3499421    87.457778  0.026599081  0.027467371            3 
  275000    1.1211266   -7.3584777    88.031155  0.026676108  0.027450771            3 
  276000    1.1272995   -7.3592568    87.876098  0.026532638  0.027434774            1 
  277000    1.1260688    -7.374682    88.297485  0.026563623  0.027418099            2 
  278000    1.1704246   -7.3206982    88.563978  0.026547955  0.027401973            2 
  279000    1.1355145   -7.3900232    88.877262  0.026546374  0.027385841            6 
  280000    1.1516694   -7.3299604    89.821617  0.026732624  0.027371114            3 
  281000    1.1317705     -7.38563     89.57546   0.02656449  0.027357163            4 
  282000    1.1464366    -7.389085    89.948136  0.026580419  0.027343194            1 
  283000    1.1342878   -7.3763433    90.288795  0.026586807  0.027328909            2 
  284000    1.1471437   -7.3826234    90.855168   0.02665938  0.027314639            2 
  285000    1.1166441   -7.3898548    91.057715  0.026625063  0.027301373            4 
  286000    1.1531665   -7.4008515     91.42921  0.026640213  0.027287668            3 
  287000    1.1367864   -7.3960472    90.980255  0.026417031  0.027273351            2 
  288000    1.1314174    -7.399848    91.404643  0.026448103  0.027258461            2 
  289000    1.1172012   -7.3902026    91.937615  0.026510269  0.027243236            2 
  290000    1.1332569   -7.3828331    92.111892  0.026468934  0.027226955            1 
  291000    1.1522602   -7.4398427    91.964582  0.026335791   0.02721005            4 
  292000    1.1586471   -7.4255184    92.376309  0.026363102  0.027192466            2 
  293000    1.1420439    -7.375742    92.549423  0.026322361  0.027176397            4 
  294000    1.1307872   -7.3877107    93.156465  0.026404894  0.027160064            3 
  295000    1.1483607   -7.4214793    92.636858  0.026168604  0.027142098            2 
  296000    1.1335253   -7.3675433    93.514941  0.026327405  0.027123549            3 
  297000    1.1504033    -7.316883    93.925563  0.026353974  0.027106902            3 
  298000    1.1338057     -7.37477    94.213563  0.026346075  0.027091753            5 
  299000    1.1443913   -7.3696347    94.497257  0.026337028  0.027076272            4 
  300000    1.1192688   -7.4005599    94.483203  0.026245334  0.027059481            3 
  301000    1.1345782   -7.3479798    95.017085  0.026305948  0.027043003            1 
  302000    1.1265212   -7.3843597    95.285375  0.026292874  0.027027387            2 
  303000    1.1110093   -7.4266221    95.594039   0.02629099  0.027011381            3 
  304000    1.1185219   -7.4079029    95.848827   0.02627435  0.026995668            2 
  305000    1.1082631   -7.4309582    96.138413  0.026267326  0.026978966            2 
  306000    1.1209106   -7.3628033    96.525199  0.026286819  0.026963006            2 
  307000    1.1339051   -7.4013664    96.639491  0.026232218  0.026946905            2 
  308000     1.140837   -7.3906164    97.141944  0.026282994  0.026931668            2 
  309000    1.1481642   -7.3929599    97.004187  0.026160784  0.026916227            2 
  310000    1.1397571   -7.3979682    97.552414  0.026223767  0.026900263            4 
  311000    1.1153517   -7.4004485    97.788626   0.02620274  0.026884504            2 
  312000    1.1357577   -7.3867632    97.877397  0.026142467  0.026868759            1 
  313000    1.1425868   -7.4038893    97.946981  0.026077471   0.02685127            5 
  314000    1.1218811   -7.4055481    98.062293  0.026025025  0.026834051            3 
  315000    1.1332231   -7.3975096    98.687249  0.026107738  0.026816702            2 
  316000     1.137448   -7.3874257    98.635034  0.026011349  0.026799216            1 
  317000     1.117324   -7.4271277    98.638192  0.025930124  0.026780795            4 
  318000    1.1361811   -7.4182951    98.965042  0.025934235  0.026762222            1 
  319000    1.1146571   -7.4010887    99.365955  0.025957669  0.026743834            2 
  320000    1.1269947   -7.3798384    99.655325  0.025951907  0.026725387            1 
  321000     1.142824    -7.430792    99.413884  0.025808381  0.026706554            4 
  322000    1.1323437   -7.4159656    99.790593  0.025825723  0.026687682            2 
  323000    1.1295224   -7.4488812    100.23718  0.025860985   0.02666936            2 
  324000    1.1220278   -7.4189842     100.1078  0.025747891  0.026651299            1 
  325000    1.1242602   -7.3506254    100.99922  0.025897235  0.026632446            1 
  326000    1.1272342   -7.3938802    100.98096  0.025813128   0.02661395            6 
  327000    1.1128439    -7.402306    100.99142  0.025736854  0.026594645            1 
  328000    1.1275439   -7.4277489    101.12949  0.025693468  0.026574798            5 
  329000    1.1232704   -7.4735759    101.35342  0.025672092  0.026554654            1 
  330000     1.110456   -7.4074625    102.01945  0.025762488  0.026534304            1 
  331000    1.1238145    -7.430144    101.98681  0.025676439  0.026515525            3 
  332000     1.137654    -7.462935    102.43485  0.025711558  0.026496656            3 
  333000    1.1265031   -7.3928094    102.56999  0.025668166  0.026477734            1 
  334000    1.1172697   -7.4512392    102.91153  0.025676529  0.026459957            4 
  335000    1.1235014   -7.4556074    103.15875  0.025661381  0.026441717            3 
  336000    1.1226019   -7.4042131    103.52585  0.025676054  0.026423621            3 
  337000    1.1125428   -7.4317064    104.08677  0.025738569  0.026405725            2 
  338000    1.1297634   -7.4168381    104.39954  0.025739531  0.026387569            2 
  339000    1.1212186   -7.4538289    104.64756  0.025724573  0.026371151            1 
  340000     1.115274   -7.4187113    105.23579  0.025793085  0.026354882            2 
  341000    1.0963641   -7.4032689    105.60036   0.02580654  0.026339046            2 
  342000    1.0912593   -7.4518856    105.18551  0.025629997  0.026321965            2 
  343000    1.1380195   -7.4527718    105.65707  0.025669842  0.026305068            1 
  344000    1.1190267    -7.463383    105.84578  0.025640936  0.026288609            4 
  345000    1.1092639   -7.4370425    105.63859  0.025516569  0.026271035            9 
  346000    1.1015256   -7.4410513    105.95797  0.025519742  0.026253987            2 
  347000    1.0867853   -7.4664994    106.35762  0.025542177  0.026236114            1 
  348000    1.1151961   -7.4681465    106.21971  0.025435755  0.026217771            2 
  349000    1.1065437   -7.4226501    106.67061  0.025470537   0.02619931            2 
  350000    1.1227896   -7.4396268    106.79492  0.025427363   0.02618144            3 
  351000    1.0993896   -7.4719575    107.46583  0.025514204  0.026163716            2 
  352000     1.112407   -7.4461068    107.64865  0.025485003  0.026145788            2 
  353000      1.10631    -7.455604    107.73415  0.025432992   0.02612843            1 
  354000    1.1283072   -7.4418492     108.1988  0.025470528  0.026110368            3 
  355000    1.0976593   -7.4472935    108.32077  0.025427411  0.026092235            3 
  356000      1.09861    -7.438528    108.65625  0.025434517  0.026074518            2 
  357000    1.1079691   -7.4445083     108.6665  0.025365663  0.026056771            4 
  358000    1.1361774   -7.4697671    108.96077  0.025363307  0.026038808            4 
  359000     1.102887   -7.3910706    109.48553  0.025414469  0.026021005            2 
  360000    1.1420441   -7.4482103    109.18488  0.025274279  0.026002934            4 
  361000    1.1026538   -7.4371676    109.47728  0.025271764  0.025984329            2 
  362000    1.0856366   -7.4954162    109.50156  0.025207541  0.025965269            1 
  363000    1.1094518   -7.5223978    109.38361  0.025111022  0.025945229            5 
  364000    1.0935685   -7.5081372    109.72727  0.025120711  0.025924757            2 
  365000    1.1231425   -7.4933601    109.98916  0.025111681  0.025905031            5 
  366000    1.0979091   -7.4638824    110.81475  0.025231045    0.0258865            4 
  367000    1.1030125   -7.5114033    110.85876   0.02517229  0.025867941            2 
  368000     1.080375   -7.4565299    110.93898  0.025122052  0.025849047            2 
  369000     1.090123   -7.4911801    110.96898  0.025060745  0.025830341            3 
  370000    1.1174394   -7.5032108    110.98459  0.024996529  0.025810195            4 
  371000    1.1230503    -7.476621    111.38706  0.025019555  0.025790817            4 
  372000    1.1294737   -7.4994715     111.5065  0.024979055  0.025771172            3 
  373000    1.1374278   -7.5234473      111.867  0.024992627  0.025752183            4 
  374000    1.0757938   -7.4689534    112.59048  0.025087006  0.025732642            6 
  375000    1.1236106   -7.4913558    112.83062  0.025073472  0.025713551            5 
  376000    1.0740004   -7.5367371    112.47767  0.024928561  0.025694431            3 
  377000     1.120154   -7.3915588    113.68219  0.025128688  0.025675395            2 
  378000    1.0861684   -7.4500427    113.80459  0.025089195  0.025657862            3 
  379000    1.0987906    -7.441083    113.68494   0.02499669  0.025640443            1 
  380000    1.1130463   -7.5209585    113.84819  0.024966708  0.025622105            5 
  381000     1.097223   -7.4878448    113.98594  0.024931309  0.025603254            2 
  382000    1.0817534   -7.4962374    114.18642  0.024909778  0.025584205            1 
  383000    1.1028862   -7.5044671    114.14868  0.024836526  0.025565352            5 
  384000    1.0939828   -7.4509245    114.52499  0.024853513  0.025546413            2 
  385000    1.0818298   -7.4612739    114.74882  0.024837408  0.025527709            1 
  386000    1.0928093   -7.4501474    115.24102  0.024879321  0.025509407            3 
  387000     1.087175   -7.5031209    115.29653  0.024826988  0.025490869            3 
  388000    1.0948909   -7.4954525    115.80207  0.024871579  0.025472556            2 
  389000    1.1066282   -7.4986797    115.61786  0.024768179  0.025453742            2 
  390000    1.0899725    -7.517807    115.69535  0.024721228  0.025434607            2 
  391000    1.1132558   -7.4929727    116.37878  0.024803662  0.025416166            2 
  392000    1.0689171   -7.4952259    116.83851  0.024838119  0.025397932            4 
  393000     1.111215   -7.5118558    116.64068  0.024732969  0.025379554            3 
  394000    1.0978165   -7.4933656     117.0357  0.024753744  0.025360998            3 
  395000    1.0869111   -7.4872678      117.198  0.024725317  0.025342358            2 
  396000    1.0705637   -7.5293414    117.30819  0.024686067  0.025323676            4 
  397000    1.0700622   -7.4815144    117.79832  0.024726768  0.025305679            1 
  398000    1.1007443   -7.4400414    118.33563  0.024777141  0.025287638            2 
  399000    1.0871443   -7.5125395    118.17824  0.024682173  0.025269592            4 
  400000    1.0925107   -7.4954685    118.57531  0.024703189  0.025251765            4 
  401000    1.0844149   -7.5016915    118.28178  0.024580586  0.025233354            7 
  402000    1.1082091   -7.4693629    118.90932  0.024649528  0.025214941            2 
  403000    1.0919773     -7.51282     118.7727  0.024560111  0.025196666            1 
  404000    1.0757253   -7.5044812    119.29917  0.024607914  0.025178188            6 
  405000    1.0846566   -7.4691562    119.53354  0.024595378  0.025159918            1 
  406000    1.1061467   -7.5449768    119.54099  0.024536327  0.025141156            2 
  407000    1.1063796     -7.52421    119.67594  0.024503672  0.025122257            3 
  408000    1.0938091   -7.5194771    119.78143  0.024465162  0.025103333            5 
  409000    1.0912217   -7.5534565    119.67353   0.02438336  0.025084156            2 
  410000    1.0819293   -7.5011068    120.31015  0.024453283  0.025064999            3 
  411000    1.0974017   -7.5373983    120.32962  0.024397733   0.02504635            2 
  412000    1.0996847   -7.5204989    121.01595  0.024477336   0.02502732            2 
  413000    1.0994637   -7.5073597    120.69114  0.024352531  0.025008268            2 
  414000     1.091209   -7.5366379    121.12326  0.024380689  0.024989204            7 
  415000     1.084847   -7.5417276    121.11397  0.024320074  0.024969848            4 
  416000    1.1149295   -7.5680571    120.88027  0.024214797  0.024950445            1 
  417000    1.0784437   -7.5297125    121.53376  0.024287323   0.02493076            8 
  418000    1.0803013   -7.5076552    121.71443  0.024265238  0.024910665            2 
  419000    1.0994774   -7.4876047    122.06711  0.024277468  0.024891139            2 
  420000    1.0920175   -7.5230361    121.71713  0.024150223   0.02487088            2 
  421000     1.067964   -7.5094081    121.56529  0.024062804  0.024850137            2 
  422000    1.1067961   -7.5209518    122.33408  0.024157599  0.024828939            1 
  423000    1.0709333   -7.5078198    122.09085  0.024052572  0.024807981            7 
  424000      1.07921    -7.580211    122.08202  0.023994108  0.024786508            2 
  425000    1.0938881    -7.568278    122.95486  0.024108797  0.024765219            5 
  426000    1.0700321   -7.5021367    123.31039   0.02412175  0.024745078            2 
  427000    1.0975555   -7.4969528    123.44201  0.024090946  0.024725234            2 
  428000    1.0888002   -7.5143245    123.64233  0.024073662   0.02470554            5 
  429000     1.067463   -7.5327819    123.62517  0.024014213  0.024685572            3 
  430000    1.1088192   -7.4994588    124.29974  0.024089098  0.024666131            2 
  431000    1.0784907   -7.5427607    123.91327  0.023958483  0.024646729            6 
  432000    1.0991928     -7.50483    124.91262  0.024095798  0.024627236            4 
  433000    1.0946999   -7.4974129    124.82066  0.024022452  0.024608098            3 
  434000    1.0743807   -7.5306174    124.95727  0.023993332  0.024588744            4 
  435000       1.0831   -7.4965209    125.30789  0.024005342  0.024569315            4 
  436000    1.0905621   -7.5521625    125.19469  0.023928649  0.024549639            4 
  437000    1.1019775   -7.5535769    125.54481  0.023940657  0.024530373            1 
  438000     1.094095   -7.5641497    125.77467  0.023929733  0.024510509            4 
  439000    1.0900275   -7.5647778     125.5849  0.023839199  0.024491045            1 
  440000    1.0594927   -7.5555277    126.08706  0.023880125  0.024471533            2 
  441000    1.0612148   -7.5576111    126.22308  0.023851679  0.024452703            1 
  442000    1.0810757   -7.5898981    126.31807  0.023815623  0.024433114            2 
  443000    1.0767571   -7.5464693    126.82152  0.023856569  0.024413699            2 
  444000    1.0757605   -7.5629719    127.06381  0.023848312  0.024395031            5 
  445000    1.0767744   -7.5523003    127.37534  0.023853059  0.024376582            3 
  446000     1.086889   -7.6031168    127.71779  0.023863563  0.024358438            2 
  447000    1.0635238   -7.5341424    128.26896  0.023912931  0.024340406            1 
  448000    1.0706384   -7.5655917    128.00873  0.023811148  0.024322772            3 
  449000    1.0696857   -7.5579379    128.80122  0.023905201  0.024305505            2 
  450000    1.0621108   -7.5683139     128.9638  0.023882186  0.024288071            2 
  451000    1.0517501    -7.522902    129.68217  0.023961967  0.024271349            3 
  452000    1.0682699   -7.5709001    129.48489  0.023872582  0.024255048            6 
  453000    1.0642308   -7.5518071     129.6741   0.02385469  0.024238513            4 
  454000    1.0611229   -7.5507292    129.93152  0.023849397  0.024221349            4 
  455000    1.0700863   -7.5857571    130.07357  0.023822999  0.024204776            4 
  456000    1.0685587    -7.544304    130.40705  0.023831697  0.024188125            4 
  457000    1.0468711   -7.5610803    130.65425  0.023824626  0.024171379            3 
  458000    1.0670267   -7.5023417    130.82757  0.023804143  0.024154888            5 
  459000    1.0583757   -7.5388802    130.71281  0.023731447  0.024137596            4 
  460000    1.0980142   -7.5718194    130.55519  0.023651302  0.024120005            2 
  461000     1.078119   -7.5958414    131.13433  0.023704687  0.024102603            4 
  462000     1.044127   -7.5611968    131.49168  0.023717836  0.024085147            2 
  463000    1.0653207   -7.6128677    130.96084  0.023571065  0.024067141            3 
  464000     1.066455   -7.6035041    131.24383  0.023571091   0.02404907            2 
  465000    1.0756906   -7.6181967    131.24759  0.023521073  0.024031515            3 
  466000    1.0617882   -7.5329394    132.18902  0.023638952  0.024013294            2 
  467000    1.0473961   -7.5494542    132.05983  0.023565281   0.02399591            1 
  468000    1.0706958   -7.5582084    132.88689  0.023662195  0.023978727            2 
  469000    1.0674183   -7.5733399    132.31777   0.02351062  0.023961404            2 
  470000    1.0558359   -7.6303309    132.18581  0.023437201  0.023943413            3 
  471000    1.0556764   -7.5568109    132.87476  0.023509335  0.023925711            2 
  472000     1.071813   -7.5532576    133.16488  0.023510748  0.023908187            2 
  473000    1.0802458   -7.5835565    133.24879  0.023475826  0.023890622            3 
  474000    1.0685419   -7.5597551    133.47052  0.023465281  0.023873473            2 
  475000    1.0585562   -7.5842063    133.51939  0.023424454  0.023855848            1 
  476000    1.0525568   -7.5751451    133.63296  0.023395125  0.023838322            2 
  477000    1.0768133   -7.5724508    133.94356  0.023400343  0.023820591            4 
  478000    1.0800557   -7.5726206    133.56601  0.023285566  0.023802922            2 
  479000    1.0659777   -7.5403322     134.6108   0.02341872  0.023785216            3 
  480000    1.0493525   -7.5506281    134.54913  0.023359224  0.023767587            3 
  481000    1.0694964   -7.6190593    134.75107  0.023345646  0.023750116            3 
  482000    1.0498976   -7.6061863    134.95583  0.023332612  0.023732775            6 
  483000    1.0778025   -7.6055555    135.23647  0.023332724  0.023715185            3 
  484000    1.0577998   -7.5828089    136.11967  0.023436583  0.023697821            4 
  485000    1.0395458   -7.6012154    135.45651  0.023274314  0.023680544            4 
  486000    1.0531463   -7.5969025    136.02743   0.02332432  0.023663308            5 
  487000    1.0639002   -7.6101132    135.65515  0.023212723  0.023645786            5 
  488000    1.0305537   -7.5784067    136.83744  0.023367048  0.023628739            4 
  489000    1.0639035   -7.6130358    136.38251  0.023241736  0.023611835            3 
  490000    1.0574135   -7.5512241    136.71306  0.023250521  0.023594509            4 
  491000     1.052139   -7.5599149    137.01754  0.023254844  0.023577478            2 
  492000    1.0710201   -7.6190254    137.10066  0.023221657  0.023560571            4 
  493000    1.0646703   -7.5668116    137.21119  0.023193237  0.023543318            9 
  494000    1.0211915   -7.6063564    137.29783  0.023160903  0.023526655            3 
  495000    1.0585521    -7.586084    137.78871  0.023196752  0.023509588            7 
  496000    1.0578077   -7.6300075    137.44933  0.023092965  0.023491831            1 
  497000    1.0599107   -7.5855167    137.78613  0.023102973   0.02347393            4 
  498000    1.0556449   -7.5923633    138.02363  0.023096324  0.023456817            2 
  499000    1.0806987   -7.6470927    137.91938  0.023032628  0.023439998            4 
  500000    1.0825372   -7.5987929    138.14332  0.023023887  0.023422626            1 
  501000    1.0607056    -7.603312    138.62571  0.023058169  0.023405209            3 
  502000    1.0600728   -7.6055683     138.9559  0.023067049  0.023387868            1 
  503000    1.0463752   -7.6184483    138.59666  0.022961673  0.023370844            3 
  504000    1.0573385   -7.5840768    139.36575  0.023043279  0.023353978            2 
  505000    1.0615485   -7.6284039    139.22954  0.022975171  0.023337147            2 
  506000    1.0591085   -7.6148361    139.49755  0.022973904  0.023320332            3 
  507000    1.0536948   -7.6340542     139.7877  0.022976282  0.023303201            4 
  508000    1.0551388   -7.6378654    140.73715  0.023086802  0.023286586            6 
  509000    1.0444307   -7.5884604     140.5428  0.023009627  0.023270295            2 
  510000    1.0670029   -7.6237798    141.34683  0.023095887  0.023254956            1 
  511000    1.0655971   -7.6145109    141.48165  0.023072677  0.023239587            2 
  512000    1.0426251   -7.6252345    140.82913  0.022921408  0.023224544            2 
  513000    1.0411973   -7.6337825    141.60717  0.023003114  0.023208757            2 
  514000    1.0562097   -7.6497644    141.45367  0.022933475  0.023193023            2 
  515000     1.034709   -7.6675783     141.5202  0.022899708  0.023176955            3 
  516000    1.0546011   -7.6261509    141.93485  0.022922295    0.0231608            1 
  517000    1.0526773    -7.636031    141.61044  0.022825667  0.023144532            4 
  518000    1.0577586   -7.6024547    142.19978  0.022876412  0.023128376            1 
  519000    1.0374017   -7.6904714    141.98511  0.022797866  0.023112099            3 
  520000     1.038964   -7.6248565    142.90684  0.022901737  0.023095756            6 
  521000     1.047287   -7.6191438    142.85438  0.022849389  0.023079908            5 
  522000    1.0498643   -7.6251898    143.05564  0.022837745  0.023063885            2 
  523000     1.029572   -7.6225114    142.91065  0.022770977   0.02304788            4 
  524000    1.0317212   -7.6195034    143.49068  0.022819764  0.023031761            2 
  525000    1.0533852   -7.6512712    143.45333  0.022770369  0.023015363            5 
  526000    1.0505855   -7.6223878    143.75227  0.022774441  0.022998776            2 
  527000    1.0397357   -7.6708741    143.52538  0.022695348  0.022982724            2 
  528000    1.0188286    -7.663703    143.80738  0.022696872  0.022966469            2 
  529000    1.0252647    -7.660374    143.68861  0.022635256  0.022950137            2 
  530000    1.0358735   -7.6418289    144.43953  0.022710618  0.022934243            3 
  531000    1.0388953   -7.6396293    144.71403  0.022710927  0.022918185            2 
  532000    1.0314256   -7.6759858    145.07103  0.022724158  0.022902547            3 
  533000    1.0316546   -7.5936535    145.33771  0.022723219  0.022886719            8 
  534000    1.0219933   -7.6647992      145.408  0.022691635   0.02287104            7 
  535000    1.0066987   -7.6279255    145.40555   0.02264884  0.022855491            5 
  536000    1.0276504   -7.6272198    145.83901  0.022673975  0.022840147            2 
  537000    1.0266681   -7.6893587    146.00115  0.022656914  0.022824601            1 
  538000    1.0504913    -7.639892     145.9934    0.0226136  0.022808841            2 
  539000    1.0211453   -7.6999336    145.54878  0.022502904  0.022792728            4 
  540000     1.040585   -7.6845967    146.11719  0.022548948  0.022776417            2 
  541000    1.0349641   -7.6934863    145.84825  0.022465842  0.022759519            3 
  542000    1.0345028   -7.6415782      146.063  0.022457411  0.022742726            2 
  543000    1.0345174   -7.6413933    146.56708  0.022493413  0.022726034            2 
  544000     1.049583   -7.6429018    146.58417  0.022454683   0.02270934            2 
  545000    1.0406366   -7.6848965    146.77885  0.022443249   0.02269256            5 
  546000    1.0387617   -7.6465908    146.91761  0.022423322  0.022675966            3 
  547000    1.0236604   -7.6335516    147.05732  0.022403613  0.022659301            4 
  548000    1.0327628   -7.6362107    147.26654  0.022394547  0.022642503            6 
  549000    1.0333765   -7.6933079    146.94254  0.022304575  0.022625664            3 
  550000    1.0418184   -7.7063322    147.36558  0.022328118  0.022608721            2 
  551000    1.0437482   -7.6688915    147.86512  0.022363145  0.022592071            1 
  552000    1.0245084   -7.6601055    148.00247  0.022343368  0.022575725            3 
  553000    1.0436187   -7.6602147    148.31479  0.022350028  0.022559143            2 
  554000    1.0390788   -7.6942593    147.99643  0.022261797  0.022542832            2 
  555000     1.023523   -7.6966546    147.82088  0.022195327  0.022526356            3 
  556000    1.0487465   -7.6988668    148.20685  0.022213257  0.022509438            4 
  557000    1.0090938   -7.6580433    148.80895  0.022263457  0.022492501            5 
  558000    1.0484692   -7.6652716    148.88843  0.022235429   0.02247571            3 
  559000    1.0142239   -7.6686417    149.07477   0.02222343  0.022459059            3 
  560000     1.043578   -7.6946616    148.84023  0.022148844  0.022442155           10 
  561000    1.0425016   -7.6877595    149.08331  0.022145471  0.022425139           10 
  562000    1.0238453   -7.6841314      149.018  0.022096382  0.022408246            5 
  563000    1.0118609   -7.6896125    149.74421  0.022164625  0.022391327            1 
  564000    1.0376191   -7.6702592    149.93762  0.022153904  0.022374933            3 
  565000     1.033605   -7.7084785    149.80678  0.022095396  0.022358437            4 
  566000    1.0184828   -7.7170033    149.80208  0.022055665  0.022341687            3 
  567000    1.0346653   -7.6636522    149.84827  0.022023555   0.02232479            3 
  568000    1.0305685   -7.7032099    150.47391  0.022076572  0.022307789            5 
  569000    1.0270543   -7.6776865    150.94236   0.02210638  0.022290999           13 
  570000    1.0149669   -7.6845027     151.0134  0.022077982  0.022274778            3 
  571000    1.0404431   -7.6962889    150.62432  0.021982533  0.022258719            3 
  572000    1.0163132   -7.7021061    150.59252  0.021939469  0.022241998            3 
  573000    1.0337213   -7.7598586    150.84826  0.021938375  0.022225309            2 
  574000    1.0370967   -7.7101083    151.16491  0.021946125  0.022208505            3 
  575000    1.0058268   -7.6747671      151.569  0.021966522  0.022191838            3 
  576000    1.0070941   -7.6848708    151.46533  0.021913386  0.022175427            5 
  577000    1.0127899   -7.6834685    151.54383  0.021886746  0.022158708            3 
  578000    1.0085575   -7.7282957    151.63587   0.02186215  0.022141666            3 
  579000    1.0364799   -7.6836843    151.89911  0.021862278  0.022124978            2 
  580000    1.0110198   -7.6866441    152.31142  0.021883824  0.022108396            2 
  581000    1.0138173    -7.720986     152.0483  0.021808419  0.022091696            6 
  582000   0.99893111   -7.7267179    152.16669  0.021787899  0.022074888            7 
  583000    1.0042481   -7.7279234    152.93769  0.021860733  0.022058206            5 
  584000    1.0058797   -7.7107521    153.15398  0.021854163  0.022041776            3 
  585000    1.0246012   -7.7091818    152.83793  0.021771784  0.022025235            4 
  586000    1.0257149   -7.6740461    153.37631  0.021811193  0.022008668            7 
  587000    1.0308436   -7.7302089    153.36406  0.021772296  0.021992202            5 
  588000    1.0336561   -7.7541552    153.47158  0.021750507  0.021975607            2 
  589000    1.0176673   -7.6880111    153.47732  0.021714391  0.021958916            4 
  590000    1.0147201   -7.7246581     153.4478  0.021673419  0.021942322            4 
  591000    1.0341925   -7.7177745    153.56743  0.021653613  0.021925551            2 
  592000   0.99837388   -7.7366296    153.62301  0.021624861  0.021908638            4 
  593000    1.0283342    -7.700498     153.9304  0.021631591   0.02189203            3 
  594000    1.0036093   -7.6947877    154.43625   0.02166614   0.02187534            6 
  595000    1.0284901   -7.6879718    154.26611  0.021605898   0.02185854            2 
  596000    1.0126016   -7.7344867    154.01785  0.021534935  0.021841796            2 
  597000    1.0238604   -7.7294286    154.74076  0.021599771  0.021824847            2 
  598000   0.98520237   -7.6833251    154.73323  0.021562602  0.021808113            3 
  599000    1.0252383   -7.6992005    154.61046  0.021509524  0.021791065            3 
  600000    1.0200447   -7.7117982    154.86143  0.021508532   0.02177424            7 
  601000    1.0332403   -7.7373039    155.41699  0.021549777  0.021757359            3 
  602000    1.0331368   -7.6947309    155.76753  0.021562504  0.021740843            3 
  603000    1.0310229    -7.735118     155.1451  0.021440727  0.021724041            1 
  604000    1.0010812   -7.7157128    155.42881  0.021444373  0.021707008            5 
  605000     1.009368   -7.7441073    155.57842  0.021429535  0.021689681            4 
  606000   0.98315153   -7.7104141     155.1544  0.021335864  0.021672478            3 
  607000     1.019601   -7.7536808    155.88846  0.021401491   0.02165552            7 
  608000    1.0081466   -7.7294237    156.14943  0.021402061   0.02163839            6 
  609000    1.0346308   -7.7647178    155.79894  0.021318958  0.021621168            4 
  610000    1.0090238   -7.7544052    155.70109  0.021270641  0.021603851            3 
  611000    1.0097133   -7.7346486    156.37909  0.021328299  0.021586671            3 
  612000    1.0380542    -7.746564    156.76307  0.021345733  0.021569659            1 
  613000    1.0010402    -7.762141    156.83833  0.021321144  0.021552719            6 
  614000    1.0009953   -7.7460566    156.59103  0.021252854  0.021535621            2 
  615000    1.0248424   -7.7776603    156.70182  0.021233309  0.021518567            4 
  616000    1.0333425   -7.7935216    156.78978  0.021210738  0.021501724            4 
  617000    1.0444555   -7.7457936    157.06035  0.021212905  0.021484584            3 
  618000    1.0040374   -7.7621817     157.2416  0.021203021  0.021467683            3 
  619000    1.0054605   -7.7231877    157.90977  0.021258719  0.021450971            3 
  620000    1.0044169   -7.7594215    157.43757  0.021160964   0.02143414            2 
  621000   0.98609096   -7.7721851    157.55051  0.021142044  0.021417016            9 
  622000   0.99796669   -7.7596128    158.10436  0.021182256  0.021400021            3 
  623000    1.0222042   -7.6982057    158.14306  0.021153432  0.021382905            3 
  624000    1.0087727   -7.7149788    158.27092  0.021136608  0.021366052            3 
  625000    1.0282856   -7.7613975    158.04217   0.02107229  0.021348978            3 
  626000   0.98929905   -7.7498883    158.60563  0.021113636  0.021331941            2 
  627000    1.0150361   -7.7388085    158.99962  0.021132326  0.021315062            7 
  628000   0.99380351   -7.7302086    159.16408  0.021120498  0.021298359            2 
  629000    0.9947459   -7.7158073    159.26544   0.02110035  0.021281511            4 
  630000    1.0100174   -7.7625264    158.89723  0.021018152  0.021264493            5 
  631000   0.99590881    -7.769137    158.91613  0.020987339  0.021247523            4 
  632000    1.0102301   -7.8076363    158.40907  0.020887272  0.021230391            5 
  633000   0.99734305   -7.7840938    159.13779  0.020950209  0.021212902            3 
  634000   0.99599922   -7.7825546    159.22057  0.020928045  0.021195498            4 
  635000   0.99265034     -7.72947    159.81615  0.020973248  0.021178378            5 
  636000    0.9997455   -7.7704474    159.69705  0.020924666  0.021161254            2 
  637000    1.0155746   -7.7748045    159.80856  0.020906405  0.021144138            6 
  638000   0.99139873   -7.7749011    159.86118  0.020880509  0.021126879           11 
  639000    1.0033712    -7.775526     160.1204  0.020881638  0.021109883            4 
  640000   0.98196995   -7.7563656    160.02107  0.020836077  0.021092843            3 
  641000   0.99649566   -7.7891569    159.73613  0.020766528  0.021075384            5 
  642000    0.9850013   -7.8244247    160.04879  0.020774765   0.02105784            3 
  643000    1.0116611   -7.7727405    160.03791  0.020741046   0.02104022            4 
  644000   0.98911535   -7.8042718    159.93506  0.020695531  0.021022708            2 
  645000    1.0097975   -7.7966636    160.09629  0.020684275  0.021005086            3 
  646000   0.99761092   -7.7386621    161.15402  0.020788702  0.020987771            2 
  647000   0.99711185   -7.7709841    160.53844  0.020677285  0.020970244            6 
  648000    0.9734983   -7.8102548    160.17227  0.020598286  0.020952593            6 
  649000   0.99787136   -7.7320668    160.99249  0.020671865  0.020934931            2 
  650000   0.99489107   -7.7686256     160.8827  0.020625987  0.020917484            4 
  651000   0.99144347   -7.7956924    161.05679  0.020616589  0.020899654            2 
  652000     1.010953   -7.8505046    160.59139  0.020525484  0.020881799            3 
  653000   0.99395709   -7.7834392    161.60984  0.020624023  0.020864212            7 
  654000   0.99238384   -7.8288615    161.40025  0.020565781  0.020846889           14 
  655000    1.0145234   -7.7596239    161.87284   0.02059451   0.02082946            3 
  656000    1.0066381   -7.7941206    161.63302   0.02053265  0.020812231            4 
  657000    1.0071799   -7.7668341    162.78242  0.020647187  0.020795109            4 
  658000   0.99642615   -7.7581471    162.65543  0.020599725  0.020778077            2 
  659000    1.0074851   -7.8011936    162.23512  0.020515316  0.020761145            3 
  660000    1.0186015   -7.8313663    162.02392  0.020457566  0.020743819            4 
  661000   0.98767724   -7.7917789    162.67543  0.020508753  0.020726662            6 
  662000    1.0102002   -7.7949105    162.70861   0.02048195  0.020709397            3 
  663000    1.0013963   -7.7908578    162.98189  0.020485406   0.02069208            4 
  664000    0.9759983   -7.7922432    163.03058  0.020460666  0.020675088            3 
  665000    1.0044619   -7.7782985    163.09233  0.020437635  0.020658217            3 
  666000   0.96874743     -7.80801    163.38144  0.020443123    0.0206411            1 
  667000   0.99946826   -7.7426322      163.796  0.020464268  0.020624459            3 
  668000   0.97901625    -7.774268    163.81345   0.02043581  0.020607993            3 
  669000    1.0046435   -7.7836295    163.87327  0.020412714  0.020591433            6 
  670000   0.98962139   -7.7926843     164.0378  0.020402711  0.020574705           15 
  671000   0.97560349   -7.8116041    163.78711  0.020341171  0.020557881            6 
  672000   0.99129228   -7.7874471    164.14096  0.020354782  0.020540979            7 
  673000   0.96427991   -7.7486605    164.59412  0.020380648  0.020524183            3 
  674000   0.97705317   -7.7909397     164.6599  0.020358543  0.020507466            9 
  675000   0.98148089   -7.7828701     164.7282  0.020336815  0.020490584            2 
  676000   0.99894165    -7.777458    164.55268  0.020285094   0.02047383            2 
  677000   0.97785794   -7.8083678    164.89577  0.020297362  0.020457172            1 
  678000   0.98664932    -7.790654    165.13606   0.02029696  0.020440409            3 
  679000    1.0055018   -7.7857983    165.27597  0.020284238  0.020423671            3 
  680000   0.99449265   -7.8251228    165.13141  0.020236692  0.020407124            9 
  681000   0.98296888   -7.8403296    165.00338  0.020191309  0.020390359            3 
  682000   0.96088085   -7.8089557     165.5992  0.020234507  0.020373755            3 
  683000   0.96162555   -7.8054691    165.24129  0.020161211  0.020357052            4 
  684000   0.97169403   -7.7818771    166.07615  0.020233449  0.020340415            5 
  685000   0.98968404   -7.8151249    165.94185  0.020187573  0.020324055            2 
  686000   0.99134307   -7.7879544    166.25271  0.020195908  0.020307473            2 
  687000   0.99070621   -7.8140657    166.19279  0.020159242  0.020290902            4 
  688000   0.96466615   -7.8372645    165.87194  0.020091078  0.020274426            1 
  689000    0.9613473   -7.8317617    167.04679  0.020204014  0.020258084            7 
  690000   0.99644817   -7.8164903    166.94963  0.020162999  0.020242073            2 
  691000   0.96956048   -7.8520069    166.50181  0.020079813  0.020226191            3 
  692000   0.98914769   -7.8113241    167.11781  0.020124977  0.020210285            6 
  693000   0.98271027   -7.8169039    167.47885  0.020139352  0.020194288            4 
  694000   0.97326769   -7.8210474    167.24235  0.020081934  0.020178137            4 
  695000   0.97439666   -7.8145898     167.2972  0.020059617  0.020161856            4 
  696000    0.9680337   -7.8067985    167.36235  0.020038596  0.020145636            3 
  697000   0.97483843   -7.8381086    167.00634  0.019967281  0.020129143            2 
  698000   0.96665166   -7.8811077    166.71276  0.019903625  0.020112629            6 
  699000   0.99848905   -7.8400771     167.3392  0.019949834  0.020096013            4 
  700000   0.98723215   -7.8422373    167.44623  0.019934075  0.020079484            3 
  701000   0.98358933   -7.8296867    167.60699   0.01992475  0.020063107            9 
  702000    0.9835696   -7.8237484    167.93925  0.019935808  0.020046871            2 
  703000   0.97178584   -7.8146207    168.23411  0.019942402   0.02003085            6 
  704000   0.95892076   -7.8223891    168.20379  0.019910486  0.020014962            4 
  705000    0.9613796    -7.842903    168.16517   0.01987768  0.019999033            9 
  706000   0.98802303   -7.7751062    168.81891  0.019926689  0.019982971            3 
  707000   0.96266659   -7.8557613    168.38811  0.019847727  0.019966945            4 
  708000   0.96746463   -7.8203963    169.00898   0.01989277   0.01995088            9 
  709000   0.97203903    -7.830548    169.17439  0.019884155  0.019934943            7 
  710000   0.98534239   -7.8456388    168.56481  0.019784602  0.019918872            4 
  711000   0.99161811   -7.8174453    168.97899   0.01980532   0.01990282            3 
  712000   0.97005955    -7.850685    169.09352  0.019790908  0.019886767            2 
  713000   0.96105685   -7.8341668    169.65427   0.01982869  0.019870686            5 
  714000   0.95661003   -7.8438742    168.95921  0.019719795  0.019854476            3 
  715000   0.98070468   -7.8683309    169.45596  0.019750112  0.019838257            5 
  716000   0.94632521   -7.8902794    169.41177  0.019717385  0.019822517            2 
  717000   0.99345957   -7.8244945    169.72935  0.019726795  0.019806706            3 
  718000    0.9595678   -7.8559795    170.17338  0.019750856  0.019790922            5 
  719000   0.95792644   -7.8526248    169.93111  0.019695307  0.019775075            2 
  720000   0.96828158   -7.8728079    170.33391  0.019714573  0.019759131            4 
  721000    0.9815289   -7.8312326    170.68965  0.019728346  0.019743153            1 
  722000   0.98468337   -7.8326703    170.86076  0.019720771   0.01972744            5 
  723000   0.95522626   -7.8146901    171.06261   0.01971676  0.019711711            5 
  724000   0.96573124   -7.8771751    170.84221  0.019664159  0.019695755            4 
  725000   0.98635599   -7.8564892     171.1076  0.019667541  0.019680124            4 
  726000   0.96825619   -7.8426095    171.00564  0.019628746  0.019664528            3 
  727000   0.95320195   -7.8574016    171.10215  0.019612809  0.019648857            3 
  728000   0.96306277   -7.8636193    171.05981  0.019581022  0.019633115            2 
  729000   0.97137026   -7.8723335    171.26726  0.019577876  0.019617367            4 
  730000   0.94503035    -7.854984    171.57536  0.019586228  0.019601655            4 
  731000   0.96866063   -7.8388263    172.11229  0.019620644  0.019586299            2 
  732000     0.970646   -7.8263056    172.41519  0.019628323  0.019570947            4 
  733000   0.97975791   -7.8432838    172.36368  0.019595689  0.019555598            3 
  734000    0.9631292   -7.8421207    172.60154  0.019595997  0.019540247            3 
  735000   0.96139703   -7.9070102    171.46746  0.019440755  0.019524745            3 
  736000   0.94353523   -7.9028792    172.22631  0.019500261  0.019509215            5 
  737000   0.97604492   -7.8702844     171.8909  0.019435877  0.019493678            5 
  738000    0.9418636   -7.9193409    172.32667  0.019458748   0.01947812            3 
  739000   0.95526889   -7.8852097    172.50628   0.01945267  0.019462482            7 
  740000   0.95468104    -7.917765    172.66139   0.01944385  0.019447103            4 
  741000   0.97971208   -7.8595536    173.18699  0.019476719  0.019431981            3 
  742000   0.96953495   -7.8364354    173.29279  0.019462352  0.019416905            3 
  743000   0.95579769   -7.8515172     173.6894  0.019480641  0.019402037            3 
  744000   0.96021818   -7.9131495    173.45375  0.019428063  0.019386925            4 
  745000    0.9592111   -7.8948893    173.94873  0.019457352  0.019371827            3 
  746000    0.9614358   -7.8838437    173.59027  0.019391228  0.019356837            5 
  747000   0.94212479   -7.8615992    174.03793  0.019415209  0.019342011            3 
  748000   0.96398357   -7.8893293    174.08817   0.01939485  0.019327389            3 
  749000    0.9609222   -7.8851725    174.48844  0.019413489  0.019312639            4 
  750000   0.96207212   -7.8965881    174.48215  0.019386905  0.019297936            2 
  751000   0.96197704   -7.9169569    174.89162  0.019406527  0.019283263            6 
  752000   0.95151153   -7.9068128    174.78126   0.01936849  0.019268534            4 
  753000   0.93656091   -7.8997479    174.44194  0.019305216  0.019253749           11 
  754000    0.9564031   -7.8959506    174.93929  0.019334581  0.019239028            3 
  755000   0.96455202   -7.8998016    174.95235  0.019310414  0.019224168            3 
  756000   0.95917375    -7.896607     174.5062  0.019235692  0.019209343            2 
  757000   0.94214629   -7.9178695    175.23002  0.019289963  0.019194542            3 
  758000   0.94378789   -7.9066023    175.30318  0.019272557  0.019179699            2 
  759000   0.91903681   -7.9272074    174.98449  0.019212175  0.019164732            6 
  760000   0.95983833   -7.8904407    175.72461   0.01926805  0.019149923            6 
  761000   0.93412871   -7.9164249    175.48472  0.019216461  0.019135248            6 
  762000   0.93017461   -7.8852784    176.08662  0.019257067  0.019120443            3 
  763000   0.96035545   -7.9259638    175.17517  0.019132281  0.019105677            6 
  764000   0.95919937   -7.8990286    175.49998  0.019142668  0.019090712            4 
  765000   0.95119033   -7.9037458    176.05256  0.019177839  0.019075815            3 
  766000   0.95716789   -7.8943397    175.95317   0.01914199  0.019061129           10 
  767000   0.93337023   -7.9113082    175.62898   0.01908181   0.01904629            1 
  768000   0.96599023   -7.9124849    175.72458  0.019067337  0.019031502            2 
  769000   0.95060118   -7.8841947     176.2431  0.019098732  0.019016662            3 
  770000    0.9633969   -7.9197482    175.98766  0.019046284  0.019001833            2 
  771000   0.95529958   -7.8719911    176.10666  0.019034442  0.018986971            3 
  772000   0.95248299   -7.8995176    176.08552  0.019007505   0.01897217            4 
  773000   0.94679611   -7.8943309    176.30805  0.019006905  0.018957303            3 
  774000    0.9496014   -7.9230217    176.41309  0.018993658  0.018942319            4 
  775000   0.94224183   -7.9494557    176.87782   0.01901912   0.01892745            5 
  776000   0.93984738   -7.9142093    176.50954  0.018955063  0.018912444            8 
  777000   0.94699785   -7.9105958    176.18215  0.018895555  0.018897319           10 
  778000   0.93773935   -7.9123628    176.77113  0.018934354  0.018882233            4 
  779000   0.93389468    -7.933927    176.87311  0.018920957  0.018867166            2 
  780000   0.96658673   -7.9325655    176.45488  0.018852017  0.018851945            5 
  781000   0.92965619   -7.9468582    176.98448  0.018884388  0.018836783            3 
  782000   0.93522643   -7.9403677    177.05874  0.018868152  0.018821508            3 
  783000   0.95733064   -7.9237264    177.49452  0.018890434   0.01880642            3 
  784000   0.94613651   -7.9609384     176.7562  0.018787862  0.018791157            3 
  785000   0.94128113   -7.9670807    176.67554  0.018755365  0.018775556            3 
  786000   0.91400464   -7.9543171    176.94405  0.018759972  0.018760143            8 
  787000   0.93783181   -7.9218935    177.37368  0.018781627  0.018744611            6 
  788000   0.96563907   -7.9491644    176.93688  0.018711599   0.01872918            4 
  789000   0.94150056     -7.94075     176.9798  0.018692416  0.018713832            4 
  790000   0.92887983   -7.9545542    176.86123  0.018656248   0.01869841           11 
  791000   0.93757663    -7.953766    177.46106  0.018695855  0.018682972            2 
  792000   0.95551043    -7.948267    177.39703  0.018665512  0.018667616            7 
  793000   0.94627529    -7.955302    177.32611  0.018634522  0.018652263           12 
  794000   0.91631661   -7.9111099    178.67602  0.018752731   0.01863714           12 
  795000   0.93022287   -7.8917796    178.53353  0.018714207  0.018622217            5 
  796000   0.94140449   -7.9635295    177.75598  0.018609295  0.018607432            6 
  797000   0.91103252   -7.9090977    178.32023  0.018644942  0.018592492           11 
  798000   0.96217419   -7.9106716    178.10096   0.01859868  0.018577402           12 
  799000    0.9382264   -7.9238491    178.50714  0.018617766  0.018562211           17 
  800000   0.95474187   -7.9780183    178.19004  0.018561462  0.018546901            3 
  801000   0.92764182   -7.8980829    178.84492  0.018606421  0.018531758           20 
  802000   0.92932645   -7.9310394     178.6324  0.018561139  0.018516703           14 
  803000   0.95217145   -7.9369301     178.7936  0.018554753   0.01850189            4 
  804000   0.95331519   -7.9464511    178.84626  0.018537133  0.018486855            5 
  805000   0.93242313   -7.9382522    178.99056  0.018529044  0.018471745            7 
  806000   0.96379931   -7.9411596     179.1523  0.018522777  0.018456541            6 
  807000   0.94667655    -7.955637    179.11608  0.018496084  0.018441469            9 
  808000   0.94440421   -7.9616517    178.91193  0.018452138  0.018426203            4 
  809000   0.94656992   -7.9979737    179.04769  0.018443314  0.018411139            3 
  810000   0.93392386   -7.9682134    179.74432  0.018492214   0.01839613            6 
  811000   0.91964492   -7.9682433    179.01355  0.018394322  0.018380755           13 
  812000   0.93455099   -7.9727587    179.19828  0.018390628  0.018365663           11 
  813000   0.91877756   -7.9463017    179.70273  0.018419714  0.018350628            1 
  814000   0.91851357   -7.9542106    179.21661  0.018347319  0.018335596            5 
  815000   0.90672272    -7.953675    179.78854  0.018383287  0.018320651            3 
  816000   0.91089106   -7.9344564    180.02676  0.018385086  0.018305653            9 
  817000   0.93462207   -7.9408199    180.30332  0.018390791    0.0182906            3 
  818000   0.94014165   -7.9504227    179.51664  0.018288166  0.018275542            4 
  819000   0.91639091   -7.9967908    179.62131  0.018276487  0.018260447            4 
  820000   0.91566788   -7.9738981    180.40926  0.018334274  0.018245338            5 
  821000   0.92758755   -7.9976106    180.00598  0.018271009  0.018230372            6 
  822000    0.9215039   -7.9867113     180.3106  0.018279664  0.018215283            3 
  823000   0.91905451   -8.0118827    180.28301  0.018254659  0.018200264            5 
  824000   0.92428036   -7.9914404    179.94581  0.018198403   0.01818505            6 
  825000   0.91664842    -7.984264    180.51484  0.018233822   0.01817002            3 
  826000   0.93152969   -7.9962522    180.82913  0.018243455  0.018155037            4 
  827000   0.91197453   -7.9266961    180.78541   0.01821699  0.018140255            3 
  828000   0.91843709   -7.9784159    181.32002  0.018248795   0.01812535            3 
  829000    0.9035375   -7.9874211    180.95463  0.018190051   0.01811034            3 
  830000   0.94400773   -7.9948645     181.2393  0.018196717  0.018095338            7 
  831000   0.92046725   -8.0025222    180.95796  0.018146607  0.018080343           11 
  832000   0.92474877   -7.9559174    181.56194  0.018185291  0.018065466            2 
  833000   0.91516261   -7.9860991    181.55587  0.018162852  0.018050646            5 
  834000   0.91069119    -7.974341    181.44049  0.018129546  0.018035946            6 
  835000   0.90541153   -7.9935091    181.51272  0.018115042  0.018021284            5 
  836000   0.91896776   -7.9959609    181.43531  0.018085657  0.018006352            9 
  837000   0.91292953   -7.9981887    181.41508  0.018062035  0.017991447            9 
  838000   0.90560872   -8.0051272    181.63224  0.018062076  0.017976731            6 
  839000   0.93450814   -7.9921465    182.02839  0.018079896  0.017962095           11 
  840000   0.90986053   -7.9537253    182.05386  0.018060899  0.017947425            3 
  841000    0.9088532   -7.9708737     182.5053  0.018084155  0.017932874            1 
  842000   0.91815312   -8.0168747    181.81945  0.017994799  0.017918324            4 
  843000   0.91493344   -7.9880326    182.43981  0.018034778  0.017903844            3 
  844000   0.90219912   -7.9688542    182.38028  0.018007532  0.017889327            2 
  845000   0.92463411   -7.9877935    182.53472  0.018001451  0.017874542            3 
  846000   0.93420278   -8.0086423    182.03576  0.017931025  0.017859824            5 
  847000    0.9165186   -7.9743268    182.63335   0.01796865  0.017845207            2 
  848000    0.9048405   -7.9868507    182.75258  0.017959176  0.017830627            4 
  849000   0.91780487   -7.9962335    182.67948  0.017930848  0.017815912            4 
  850000   0.92355979   -8.0392648    183.08552   0.01794956  0.017801404            6 
  851000   0.92487183   -8.0116868    182.80661  0.017901156  0.017786856            5 
  852000   0.92006989   -8.0366172    182.63472  0.017863333  0.017772316            6 
  853000    0.9162039   -8.0430028    182.77409  0.017856008  0.017757625            3 
  854000   0.90819382   -7.9898795    182.91952   0.01784929  0.017742995            3 
  855000   0.91578443   -7.9775247    183.72222  0.017906649  0.017728493            4 
  856000   0.87894087   -7.9845502    183.39919  0.017854282  0.017714005            4 
  857000   0.93189688   -8.0062928    183.83217  0.017875551  0.017699473            5 
  858000   0.90899932   -8.0485439    183.37825   0.01781063  0.017684973            5 
  859000   0.92160321   -8.0123071    183.33115  0.017785326  0.017670297            7 
  860000   0.93739127   -7.9949619    183.42053  0.017773307  0.017655568            3 
  861000   0.90115691   -8.0136107    183.06773  0.017718519  0.017640941            3 
  862000   0.91029756   -7.9913066     183.6219  0.017751537  0.017626226            5 
  863000   0.92079743   -8.0228554    183.57789  0.017726717  0.017611565            9 
  864000   0.90959218   -8.0326224    183.28336  0.017677793  0.017596949            5 
  865000   0.89903947   -8.0528534    183.15192  0.017644694  0.017582156           17 
  866000   0.91269501   -7.9962432    184.12672  0.017718121  0.017567525            5 
  867000   0.92973559   -8.0292298    183.14635  0.017603455  0.017552841           10 
  868000   0.91277673   -8.0382629     183.6701  0.017633458  0.017538109            2 
  869000   0.90219216   -8.0217077    183.47367   0.01759433   0.01752319            9 
  870000   0.93154308   -8.0195877    184.11855  0.017635877   0.01750829            4 
  871000   0.90646608   -8.0052444    184.16464  0.017620039  0.017493693            4 
  872000   0.90302875   -8.0297002    183.70262  0.017555678  0.017478927            6 
  873000   0.92215641   -7.9989225    184.72564  0.017633222  0.017464321            4 
  874000   0.89274504   -8.0457177    184.03886  0.017547565  0.017449731            7 
  875000   0.90386438   -7.9966048    184.28716  0.017551158  0.017435087            6 
  876000   0.88640816   -8.0303188    184.33386  0.017535565  0.017420449            8 
  877000   0.88658477   -7.9834922    184.68653  0.017549081  0.017405724            3 
  878000    0.8904869   -8.0194143    184.02719  0.017466513  0.017391066            5 
  879000   0.91511796   -8.0448079    184.26337  0.017469034  0.017376273            3 
  880000   0.88757781   -8.0474629    184.23688  0.017446674  0.017361383            2 
  881000   0.89194423   -8.0185827    184.78016   0.01747826  0.017346568            2 
  882000   0.90147851   -8.0330196    184.64356  0.017445537  0.017331961            3 
  883000   0.90312184   -8.0189466    184.38429  0.017401311   0.01731721           11 
  884000   0.88800375   -8.0366833    185.04369  0.017443787  0.017302393            6 
  885000   0.90680646    -8.018655    184.41544  0.017364919  0.017287632            4 
  886000   0.90043217   -8.0238923    185.07604  0.017407453  0.017272898            4 
  887000   0.91119285    -8.063112    184.87421  0.017368866  0.017258273            7 
  888000   0.87475242   -8.0066805     185.3984  0.017398498  0.017243664            4 
  889000   0.92144776    -8.052818    184.68772  0.017312309  0.017229106           12 
  890000   0.91263429    -8.045435    186.07378  0.017422639  0.017214646            3 
  891000   0.91772279   -8.0669913    185.29367  0.017330123  0.017200292            5 
  892000   0.88120048   -8.0377095    185.67378  0.017346206  0.017185879            8 
  893000   0.90632981   -8.0483944     185.2605  0.017288214  0.017171336           11 
  894000   0.88564949   -8.0351783     185.4372  0.017285347  0.017156906           10 
  895000   0.91119111   -8.0531145    185.10912  0.017235486  0.017142339            5 
  896000   0.91981488   -8.0158841    185.92414  0.017292052  0.017127743            3 
  897000   0.89789166    -8.034797    185.76457   0.01725795   0.01711319            2 
  898000   0.91087987   -8.0492847    185.77828  0.017240004  0.017098773            2 
  899000   0.89416364   -8.0265234    186.51785  0.017289381  0.017084388            3 
  900000   0.90151162   -8.0686706    185.84975   0.01720831  0.017069992            6 
  901000   0.90884453   -8.0176125    186.03673  0.017206505  0.017055553            5 
  902000   0.89106795   -8.0765774    186.19383  0.017201943  0.017041128            8 
  903000    0.8744544   -8.0694955    186.24183  0.017187323  0.017026687            2 
  904000   0.90120883   -8.0528213    186.02458  0.017148284  0.017012234            5 
  905000   0.87786876   -8.0855484    186.05519  0.017132154  0.016997661            4 
  906000   0.89136979   -8.0967413    186.01082  0.017109163  0.016983135            3 
  907000   0.90672514   -8.0516265    186.49476  0.017134763  0.016968605           10 
  908000   0.91318767   -8.0751064    186.43839  0.017110719  0.016954238            3 
  909000   0.88927006    -8.070479    186.31251  0.017080355  0.016939835           10 
  910000   0.90395603   -8.0424476    186.72485  0.017099345  0.016925577            6 
  911000   0.86740536   -8.0533694    186.63917  0.017072737  0.016911462            5 
  912000   0.87861196   -8.0924078    186.71343  0.017060803  0.016897284           13 
  913000    0.8908973   -8.0137747    187.51895   0.01711564  0.016883071            3 
  914000   0.88482099   -8.0612122    187.23206  0.017070756  0.016868914            5 
  915000   0.89225739   -8.0590542    187.12578   0.01704242  0.016854677            3 
  916000    0.8823114   -8.0572044    187.04376  0.017016354  0.016840329            2 
  917000   0.89764573   -8.0633146    187.12849  0.017005497  0.016825956            6 
  918000   0.89245838   -8.0429648    187.21224  0.016994576  0.016811697            8 
  919000   0.89056017   -8.1134347    186.67431  0.016927304  0.016797449           30 
  920000   0.87868923   -8.1058237    186.96988  0.016935678  0.016783062           11 
  921000   0.87540681   -8.0633469    187.19342  0.016937516  0.016768745            6 
  922000      0.87698   -8.1188184    186.75942  0.016879919  0.016754379            6 
  923000   0.88793792   -8.0738697    187.07799  0.016890393  0.016739943            7 
  924000   0.86124498   -8.1053582    187.44278  0.016905013   0.01672559           16 
  925000   0.85954675   -8.1003625    187.02368   0.01684898  0.016711236            7 
  926000   0.86490722   -8.1088354    187.46989  0.016870941  0.016696837            4 
  927000   0.87256385   -8.0811983    187.42294  0.016848521  0.016682406            4 
  928000   0.87575234   -8.0808938    187.73262  0.016858173  0.016668063            8 
  929000   0.87600383   -8.0965229    187.00816  0.016775042  0.016653674           11 
  930000   0.88308297   -8.1029837    187.94632  0.016841068  0.016639384            5 
  931000    0.8802235   -8.1241657    187.76588  0.016806828   0.01662512           12 
  932000   0.86727897   -8.0968553    187.15302  0.016733997  0.016610851            5 
  933000   0.89017355   -8.0954015    187.51404  0.016748306  0.016596592            4 
  934000   0.87434527   -8.1077836    187.51971  0.016730881  0.016582292            3 
  935000   0.87467231   -8.1238545    187.43758  0.016705666  0.016567992            7 
  936000   0.85838503   -8.1009905    187.24892  0.016671022  0.016553627            9 
  937000   0.88582457   -8.1223039    187.68267  0.016691806  0.016539207           10 
  938000   0.89001088   -8.1072936    187.90963  0.016694175  0.016524826            3 
  939000   0.86159534   -8.1173366    187.77158  0.016664144  0.016510478            8 
  940000   0.86170055   -8.1173923    188.04103  0.016670304  0.016496151            8 
  941000   0.87306449    -8.084479     188.1747  0.016664426  0.016481828            5 
  942000   0.87704878   -8.0989327    188.07663   0.01663806  0.016467677            5 
  943000   0.87145476   -8.0912335    188.25637    0.0166363  0.016453519            6 
  944000   0.88510296   -8.1224543    188.01915  0.016597736  0.016439293            3 
  945000    0.8746929   -8.1006928    188.31891  0.016606606  0.016425107            5 
  946000   0.86728982   -8.1073907    188.72556  0.016624873     0.016411            5 
  947000   0.85684998   -8.0917975    188.88563  0.016621404  0.016396919            5 
  948000   0.89011853    -8.130021    188.42042  0.016562976   0.01638275            6 
  949000   0.87594652   -8.1095322    188.91135  0.016588633  0.016368594            8 
  950000   0.86349984   -8.1092088    188.58988  0.016542972  0.016354295           15 
  951000   0.89984821   -8.1302525     188.7485  0.016539476  0.016340116            5 
  952000   0.87343396   -8.1434227    188.67053  0.016515277  0.016325916            5 
  953000   0.88334092   -8.1451901    188.62966  0.016494374  0.016311771            3 
  954000   0.86012924    -8.118836    189.38188  0.016542792  0.016297588            5 
  955000   0.87655869   -8.1734738    188.34742  0.016435202  0.016283408            2 
  956000   0.87539965   -8.1389361    189.56171  0.016523859  0.016269241            7 
  957000   0.86368627   -8.1201475    188.93766  0.016452252  0.016255134           15 
  958000   0.86633584   -8.1254893    189.73071  0.016504063  0.016241158            4 
  959000   0.83821393   -8.1628389    188.90639  0.016415223  0.016227121            6 
  960000   0.89346653   -8.1595662    189.07019  0.016412343  0.016213143            5 
  961000   0.88017734   -8.1303363    189.00818  0.016389888  0.016199017            3 
  962000   0.86854697   -8.1688781    188.99659  0.016371846  0.016184882            9 
  963000   0.86668345   -8.1397884    189.49243  0.016397752  0.016170748            3 
  964000   0.86226451   -8.1396068    188.70908  0.016313026   0.01615653           11 
  965000    0.8612315   -8.1850454    188.81163  0.016304977  0.016142316            9 
  966000   0.85704798   -8.1932671    189.06434  0.016309898  0.016128024            4 
  967000   0.86911911   -8.1503938    189.12089  0.016297905  0.016113847           10 
  968000   0.86641355   -8.1781955    189.10301  0.016279529  0.016099661           11 
  969000   0.85339927   -8.1579342    189.53516  0.016299894  0.016085591            7 
  970000    0.8703639   -8.1639411    189.38469  0.016270162  0.016071508            3 
  971000   0.86989792   -8.1425469    189.57627  0.016269848  0.016057522            8 
  972000   0.85590666   -8.1108226    189.20647  0.016221405  0.016043526            6 
  973000   0.87603503    -8.130232    189.79931  0.016255508  0.016029561            5 
  974000   0.87348194   -8.1288666    189.22554  0.016189728  0.016015512            5 
  975000   0.85108253   -8.1307265    189.77594  0.016220166   0.01600145           11 
  976000   0.86591851   -8.1445916    190.09953  0.016231175  0.015987433            4 
  977000    0.8742266   -8.1755223     189.5565  0.016168245  0.015973409            9 
  978000   0.87575789   -8.1034312     189.9698  0.016186929  0.015959511           16 
  979000   0.86723862   -8.1154491    190.13347  0.016184326  0.015945671            9 
  980000    0.8782032    -8.166555    189.70441  0.016131328  0.015931785            8 
  981000    0.8706996   -8.2022518    189.81483  0.016124263  0.015917841            7 
  982000    0.8446162   -8.1496824    190.00356   0.01612386  0.015903869            5 
  983000   0.86164896   -8.1799916    189.60873  0.016073985  0.015889928            7 
  984000   0.85864434   -8.1831518    190.06903  0.016096632  0.015875943            5 
  985000   0.87031253   -8.1733426    189.85913  0.016062532  0.015862035            7 
  986000   0.85659341    -8.167653    190.09622  0.016066279  0.015848155            8 
  987000   0.85763856   -8.1697232    190.15246   0.01605475  0.015834238           10 
  988000   0.88069196   -8.1285338    191.03614  0.016113035  0.015820422           21 
  989000   0.86786277   -8.1564213    190.73754  0.016071582  0.015806732           11 
  990000   0.85398115   -8.1530779    190.97399  0.016075252  0.015793074           15 
  991000   0.83212347   -8.1455252    190.68744  0.016034934  0.015779429           13 
  992000   0.85173207    -8.153084    191.62201  0.016097279  0.015765921           12 
  993000   0.84563114   -8.1847593    190.76443    0.0160091  0.015752363            4 
  994000   0.85714062   -8.1702823    191.16664  0.016026714  0.015738789           12 
  995000   0.86065856   -8.2026157    190.91228  0.015989303   0.01572511           17 
  996000   0.87604777   -8.1834246    191.47349  0.016020205  0.015711518            9 
  997000   0.85885759   -8.2075468    191.45313  0.016002435  0.015697942           15 
  998000   0.86670625   -8.1883653    191.57473  0.015996554  0.015684378           20 
  999000   0.85485484   -8.2453837    190.69554  0.015907202  0.015670852            5 
 1000000   0.87503752   -8.2178423    191.10455  0.015925379  0.015657262           15 
 1001000   0.84755689    -8.187127    191.12581   0.01591124  0.015643582            2 
 1002000   0.86077993   -8.2216328    190.90753  0.015877207  0.015629952            4 
 1003000   0.85462666   -8.2214512    191.18888  0.015884753  0.015616299            8 
 1004000    0.8657586   -8.1943699    191.55536  0.015899349  0.015602716            9 
 1005000   0.83814695   -8.1977986    191.23212  0.015856727  0.015589177            4 
 1006000   0.87227864   -8.1953057    191.43392  0.015857681  0.015575548           14 
 1007000   0.85782711   -8.1680554    191.91551  0.015881787  0.015561979            7 
 1008000   0.84906651   -8.1744821    191.70971  0.015849017  0.015548552            9 
 1009000   0.84632371   -8.1979061    191.46408  0.015813023  0.015535066            8 
 1010000   0.84841355   -8.1813176    191.54847  0.015804329  0.015521606            9 
 1011000   0.83823586   -8.1916912    191.47998  0.015783051  0.015508127            8 
 1012000    0.8501427   -8.1885209    191.63957  0.015780597  0.015494724           10 
 1013000   0.85449932   -8.1989649    191.79045  0.015777431  0.015481284            6 
 1014000   0.84557038   -8.2238515    191.70474  0.015754828   0.01546784            8 
 1015000   0.85958032   -8.2129587    191.26359  0.015703087  0.015454333           26 
 1016000   0.83432016   -8.1988468    192.04016  0.015751326  0.015440862           19 
 1017000    0.8385173   -8.2081101    191.67147  0.015705627  0.015427343           11 
 1018000   0.85000926   -8.2189228    191.25756  0.015656316  0.015413786           11 
 1019000   0.85741852   -8.2305424    191.89189  0.015692827  0.015400327            6 
 1020000   0.84921324   -8.1797118    191.62835  0.015655911  0.015386851            4 
 1021000   0.86306204   -8.2278259    192.04449  0.015674542  0.015373348            3 
 1022000   0.86331819   -8.1880459    192.35635  0.015684634  0.015359957            5 
 1023000   0.84433745    -8.241218    191.40287  0.015591632  0.015346474            4 
 1024000   0.83936696   -8.2472521    191.84523  0.015612405  0.015332919           10 
 1025000   0.84459686   -8.2203997    192.34855  0.015638094  0.015319407            3 
 1026000   0.85769184    -8.230781    192.17496  0.015608752  0.015305965            6 
 1027000   0.84553042   -8.2212305    192.40138  0.015611927  0.015292495            5 
 1028000    0.8482599   -8.1879389    192.48588   0.01560359  0.015279202            5 
 1029000   0.84466094   -8.2089263    192.48887  0.015588668  0.015265911           18 
 1030000   0.83040409    -8.213307    192.68287  0.015589229  0.015252575           13 
 1031000   0.82435687    -8.236537    192.33977  0.015546377  0.015239251           10 
 1032000   0.81850293   -8.2686824    191.89143  0.015495109  0.015225795            8 
 1033000   0.84077242   -8.2584781    192.16976  0.015502562  0.015212407           12 
 1034000   0.82941276   -8.2365467     192.3757  0.015504167  0.015199063           18 
 1035000   0.81442865   -8.2377683    192.40628  0.015491649  0.015185679            8 
 1036000   0.84548779   -8.2363268    192.73227  0.015502917  0.015172258            7 
 1037000   0.85319099    -8.243664    192.25616  0.015449708  0.015158816           13 
 1038000   0.83887929   -8.2140605    192.65294  0.015466678  0.015145364           11 
 1039000   0.85970189   -8.1988948    191.95356  0.015395698  0.015132003           25 
 1040000    0.8534551    -8.240326    192.19882  0.015400547   0.01511861           12 
 1041000   0.82415816   -8.2440456    192.85008  0.015437887  0.015105157           19 
 1042000   0.83078808   -8.2421167    192.55185   0.01539922  0.015091785           25 
 1043000   0.83996137   -8.2699414    191.76283  0.015321415  0.015078277           26 
 1044000   0.85005301   -8.2258687    192.60382  0.015373868  0.015064842            7 
 1045000   0.82922453   -8.2317233    192.60209  0.015359018  0.015051418            7 
 1046000   0.80529978   -8.2131063    193.01804  0.015377473  0.015038033           15 
 1047000   0.83824114   -8.2336221    192.16492  0.015294884  0.015024638           20 
 1048000   0.83270604   -8.2721258    192.57133  0.015312606   0.01501124           15 
 1049000   0.84230262   -8.2527872    192.66129  0.015305155  0.014997835           20 
 1050000    0.8365372   -8.2555932    192.29411  0.015261437  0.014984446           11 
 1051000   0.85559593   -8.2305219    192.89517  0.015294574  0.014971079           15 
 1052000   0.83304844   -8.2209306    192.92395  0.015282315  0.014957639           20 
 1053000   0.82840919   -8.2563194    192.00892  0.015195388  0.014944209            6 
 1054000   0.83814524   -8.2411902    192.23739  0.015199035   0.01493075           16 
 1055000   0.82792126   -8.2385655    192.73529  0.015223957  0.014917246           12 
 1056000   0.82895408   -8.2253575    193.15308  0.015242509  0.014903788            6 
 1057000   0.83823647   -8.2660017    192.29729  0.015160619   0.01489034            6 
 1058000    0.8282356   -8.2487676    192.67466  0.015176013  0.014876945           12 
 1059000    0.8331561   -8.2225019    192.77223   0.01516936  0.014863545           12 
 1060000   0.82614325   -8.2372307     192.4345  0.015128498  0.014850089           18 
 1061000   0.84679943   -8.2430717    192.50161   0.01511951  0.014836698           12 
 1062000   0.83011537   -8.2619759    192.96234  0.015141427  0.014823344           18 
 1063000   0.82183036   -8.2781247     192.4264  0.015085168  0.014810042           17 
 1064000   0.82122504   -8.2700084    193.06831  0.015121265  0.014796718           14 
 1065000   0.84172713   -8.2332578    193.14935  0.015113408  0.014783448           17 
 1066000   0.82721731   -8.2758836    192.59328   0.01505576  0.014770176           17 
 1067000   0.83799138   -8.2495189    192.78604  0.015056704  0.014756923           10 
 1068000   0.83395149   -8.2660371    193.09746  0.015066906  0.014743638            6 
 1069000   0.84303705   -8.2472657    193.42312  0.015078198  0.014730384           12 
 1070000   0.84319999   -8.2898358    192.80545  0.015016001  0.014717104            9 
 1071000   0.81625022   -8.2846054    193.35782   0.01504496  0.014703791            6 
 1072000   0.83914339   -8.2671429    193.12265  0.015012644  0.014690516            6 
 1073000   0.82855727   -8.2655499    193.29639  0.015012146  0.014677306            8 
 1074000   0.82976855   -8.2921981    192.76152  0.014956666  0.014664016            7 
 1075000   0.83217054   -8.2767008    193.19482  0.014976343  0.014650738            8 
 1076000   0.82248043   -8.2605809    193.42331   0.01498012  0.014637491           10 
 1077000   0.83911598    -8.317033    192.69199  0.014909625  0.014624161            4 
 1078000   0.81708579   -8.2658377    193.09276  0.014926775  0.014610855            5 
 1079000   0.83436894    -8.331845    192.95469  0.014902278  0.014597542            6 
 1080000   0.83764976   -8.2680176    193.05932  0.014896553  0.014584228           11 
 1081000   0.81083249   -8.3141106    192.81465  0.014863911  0.014570929            7 
 1082000   0.82336976   -8.3078209    193.15035  0.014876028  0.014557632            3 
 1083000   0.81471198   -8.3017114    192.98439  0.014849522  0.014544358            8 
 1084000   0.80814032   -8.2683647     193.6308  0.014885517  0.014531169            6 
 1085000   0.81571009   -8.2887982      193.278    0.0148447  0.014518012            9 
 1086000   0.81370946   -8.2927015    193.28358  0.014831459  0.014504854            7 
 1087000   0.80956941   -8.2672705    193.62676  0.014844124  0.014491756           13 
 1088000   0.81260511   -8.2601011    193.67761  0.014834375  0.014478706            7 
 1089000    0.8154897   -8.2972392    194.14829  0.014856771  0.014465623           11 
 1090000   0.81640583   -8.2838471    193.38944  0.014785125  0.014452607           38 
 1091000   0.82202074   -8.2779871    193.79616   0.01480264  0.014439591            9 
 1092000   0.81652091   -8.2889082    193.80165  0.014789503  0.014426523           19 
 1093000   0.80873466   -8.2925605    193.48471  0.014751808  0.014413404           19 
 1094000   0.82168669   -8.3063716    193.59791  0.014746946  0.014400241           36 
 1095000    0.8248768    -8.292307    193.72108  0.014742852  0.014387105           30 
 1096000   0.82674354   -8.3087059    193.03074  0.014676912  0.014374028           26 
 1097000   0.80665867   -8.2873449    193.55631  0.014703457  0.014360918           20 
 1098000   0.83651953   -8.2830626    193.96926  0.014721407  0.014347926           19 
 1099000   0.81455596   -8.3001411    193.54328  0.014675711  0.014334893           20 
 1100000   0.82044192   -8.3362445    193.02554  0.014623147   0.01432177           24 
 1101000   0.79850183   -8.3414176    193.62613  0.014655323  0.014308636           21 
 1102000   0.83995801   -8.3048923    193.36593  0.014622348  0.014295571           31 
 1103000   0.80340752   -8.3242635    193.69014  0.014633585  0.014282465           34 
 1104000   0.81860395   -8.2877248    193.91608  0.014637385  0.014269403           44 
 1105000   0.80836544   -8.3132937    194.21731  0.014646856  0.014256343           23 
 1106000   0.81684022   -8.3454522    193.38976   0.01457126  0.014243278           35 
 1107000   0.82002748   -8.3166032    194.10263  0.014611761   0.01423025           56 
 1108000   0.81347653   -8.3189549    193.76653  0.014573295  0.014217207           43 
 1109000   0.81457569   -8.3216252    193.84946  0.014566385  0.014204171           38 
 1110000   0.80505675   -8.3116227    194.04839  0.014568198   0.01419118           32 
 1111000   0.80646709   -8.2976895    193.97063  0.014549252  0.014178244           19 
 1112000    0.8034313   -8.2972911    194.10097  0.014545936  0.014165237           31 
 1113000   0.81495915   -8.3255941    193.83736   0.01451313  0.014152245           30 
 1114000   0.81276934   -8.3116226    193.75013  0.014493577  0.014139205           49 
 1115000   0.81520225   -8.3616727    193.74244  0.014480003  0.014126167           41 
 1116000   0.81406098   -8.3457911    194.00086  0.014486324  0.014113128           53 
 1117000   0.80646861   -8.3663992    193.59237  0.014442881  0.014100066           50 
 1118000   0.82113221    -8.322775    194.13545  0.014470442  0.014087021           63 
 1119000   0.80925835   -8.3531657    193.44977  0.014406447  0.014073986           54 
 1120000   0.81543619   -8.3417504    193.70003  0.014412204  0.014060972           36 
 1121000   0.79799603   -8.3364926    193.78994  0.014406032  0.014047983           32 
 1122000   0.80555748   -8.3352956    193.82455  0.014395763   0.01403501           39 
 1123000   0.79425622   -8.3637106    193.79832  0.014380997  0.014022017           47 
 1124000   0.79541429    -8.344073    193.79978  0.014368311  0.014009081           50 
 1125000   0.81964557    -8.327695    194.13558  0.014380413  0.013996172           40 
 1126000   0.82031465   -8.3230694    194.03255  0.014360017  0.013983295           58 
 1127000    0.7971041    -8.363258    193.72148  0.014324274  0.013970375           71 
 1128000     0.801316   -8.3320595    194.47386  0.014367158  0.013957453           63 
 1129000   0.82469261   -8.3576458    194.29813  0.014341462  0.013944576           98 
 1130000   0.79636026    -8.333637    194.52189  0.014345272  0.013931704           56 
 1131000   0.79759571   -8.3288509    194.71968  0.014347162  0.013918834           76 
 1132000   0.80530551   -8.3541731     194.1036  0.014289134  0.013905932           77 
 1133000   0.81670957   -8.3600429    193.53687  0.014234839   0.01389304           90 
 1134000   0.79724804   -8.3287957    193.81539  0.014242754  0.013880155           92 
 1135000   0.80744653    -8.353786    194.03993  0.014246691  0.013867324           74 
 1136000   0.79225765   -8.3550167    194.01817  0.014232553  0.013854481           80 
 1137000   0.80348282   -8.3738929    194.12191   0.01422764  0.013841623           96 
 1138000   0.81985904   -8.3980792    193.98522  0.014205127  0.013828794          103 
 1139000   0.79633564    -8.347099    193.70719  0.014172314  0.013815966           99 
 1140000   0.78975148   -8.3785709    194.05815  0.014185537  0.013803135           91 
 1141000   0.80887299   -8.3696673    194.31122  0.014191587   0.01379037          115 
 1142000   0.78963506   -8.3606903    194.01821  0.014157779  0.013777578          102 
 1143000   0.79902335    -8.359934    194.70559  0.014195509  0.013764776           88 
 1144000   0.80151692   -8.3520708    194.60826  0.014176009  0.013752033          139 
 1145000   0.79362246   -8.3873646     194.3833  0.014147256  0.013739332          133 
 1146000   0.79678574   -8.3838181    193.99768   0.01410687    0.0137266          138 
 1147000   0.79992504   -8.3916816    194.19308  0.014108768  0.013713875          156 
 1148000   0.80648665   -8.4159299    194.10132  0.014089817  0.013701105          130 
 1149000   0.79231109   -8.4168777    193.73827  0.014051223  0.013688293          143 
 1150000   0.78292506   -8.3884467    194.28266  0.014078454  0.013675547          158 
 1151000   0.80429113   -8.3898671    194.15956   0.01405731   0.01366277          172 
 1152000   0.80027932   -8.3646649    194.21485  0.014049107  0.013650067          150 
 1153000   0.79904379   -8.3962269    194.26682  0.014040678   0.01363729          163 
 1154000    0.7963556   -8.4240133    194.03471   0.01401175  0.013624532          159 
 1155000   0.80402051   -8.4231863    194.48911  0.014032403  0.013611792          157 
 1156000   0.77423625   -8.4216432    194.41747    0.0140151  0.013599058          160 
 1157000   0.78540503   -8.4018411    194.01035  0.013973664   0.01358633          171 
 1158000   0.79076544   -8.4109014    194.25043  0.013978874  0.013573575          152 
 1159000   0.78771298   -8.4107404    194.58662  0.013990985  0.013560905          124 
 1160000   0.78583015   -8.4138927    194.60963  0.013980577  0.013548329          128 
 1161000   0.78661157   -8.4018015    194.43159  0.013955756  0.013535701          137 
 1162000   0.78375197   -8.4135152    194.06241   0.01391727   0.01352306          156 
 1163000   0.79759516   -8.4042943    194.34283  0.013925396  0.013510455          147 
 1164000   0.78709475   -8.4346302    194.19883  0.013903123  0.013497857          155 
 1165000   0.79786835   -8.3988539    194.49122  0.013912104  0.013485214          142 
 1166000   0.78585055   -8.4227286    194.43956  0.013896481  0.013472662          135 
 1167000   0.76943426   -8.4097091     194.2568  0.013871522   0.01346014          154 
 1168000   0.76392584   -8.3834348    194.84451  0.013901578  0.013447587          116 
 1169000   0.77997274   -8.3983169    194.46534  0.013862656  0.013435045          130 
 1170000   0.78905208   -8.4240017    194.35035  0.013842617  0.013422473          165 
 1171000   0.77785292   -8.4283563    194.31984  0.013828625  0.013409895          169 
 1172000   0.77872686    -8.409435    194.67191   0.01384186  0.013397322          155 
 1173000   0.78426676   -8.4077332    194.97007  0.013851241  0.013384761          175 
 1174000   0.76989784   -8.4083555    194.45909  0.013803172  0.013372203          160 
 1175000   0.77650427   -8.4462721    194.27767  0.013778558  0.013359569          182 
 1176000   0.78286729   -8.4758903     194.2462  0.013764612  0.013346971          174 
 1177000   0.78842268   -8.4428319    194.61186  0.013778806  0.013334414          204 
 1178000   0.77417145   -8.4325574    194.33516  0.013747535  0.013321898          196 
 1179000   0.79045942   -8.4342365    194.41774  0.013741712    0.0133094          208 
 1180000   0.79113507   -8.4329218    194.68656  0.013749051  0.013296917          217 
 1181000   0.79585809   -8.4643046    193.61986  0.013662141  0.013284399          213 
 1182000   0.77830778   -8.4393612    194.44145  0.013708506  0.013271869          218 
 1183000   0.78886509   -8.4484613    194.60995  0.013708788  0.013259364          236 
 1184000   0.76041231   -8.4408786    194.53451    0.0136919  0.013246857          242 
 1185000   0.79203496   -8.4404158    194.39948   0.01367085  0.013234383          254 
 1186000   0.78108689    -8.467005    194.45993   0.01366357  0.013221845          214 
 1187000   0.78683547    -8.447461    194.33955  0.013643608   0.01320937          245 
 1188000   0.76627372   -8.4712168    194.18529  0.013621302  0.013196824          249 
 1189000   0.78992917   -8.4539518    194.61392  0.013639888  0.013184337          227 
 1190000   0.79613459   -8.4613019    194.37971  0.013612024  0.013171832          238 
 1191000   0.79643982   -8.4465173    194.63551  0.013618494  0.013159309          269 
 1192000   0.79297329   -8.4935054    193.94728  0.013558954  0.013146767          238 
 1193000   0.77254521   -8.4481939    194.30449  0.013572541  0.013134261          273 
 1194000   0.78455364   -8.4545928    194.09215  0.013546353  0.013121697          290 
 1195000   0.77801781   -8.4680531    194.33438  0.013551909  0.013109176          307 
 1196000   0.78028325   -8.4751957     194.2767  0.013536559    0.0130966          286 
 1197000   0.78134583   -8.4403421    194.58297  0.013546573  0.013084073          262 
 1198000   0.77062075   -8.4850555    193.95474  0.013491565   0.01307156          282 
 1199000   0.78261134   -8.4962061    194.24474  0.013500468  0.013059079          298 
 1200000   0.77693406   -8.4765983    194.58031  0.013512521  0.013046583          328 
 1201000    0.7757496   -8.4928069    194.36041  0.013486013  0.013034049          330 
 1202000   0.78209792   -8.5070974    194.21314  0.013464583   0.01302153          333 
 1203000   0.76214854   -8.5000499    194.33773  0.013462021  0.013009034          333 
 1204000   0.77138075   -8.4989284    194.48486  0.013461023  0.012996526          305 
 1205000   0.77280868   -8.4979703    194.08419  0.013422143  0.012984101          341 
 1206000   0.77596552   -8.5006047    194.42207  0.013434361  0.012971678          357 
 1207000   0.78161028   -8.4794879    194.33566  0.013417264  0.012959314          373 
 1208000   0.76783954   -8.5025652    193.92261  0.013377664  0.012946941          405 
 1209000   0.77589592   -8.5065351    194.22158  0.013387206  0.012934523          368 
 1210000   0.74880898   -8.5097904    194.15117  0.013371293  0.012922175          430 
 1211000   0.77716694   -8.5003322    194.42761  0.013379274  0.012909848          374 
 1212000   0.79279555   -8.4813952     194.8843  0.013399636   0.01289758          438 
 1213000   0.76350882   -8.5122785     194.6416  0.013371915  0.012885294          427 
 1214000   0.76784768   -8.4895101    194.75855  0.013368929  0.012873037          427 
 1215000   0.76587873   -8.4889277    194.72691  0.013355755  0.012860794          434 
 1216000    0.7673712   -8.4917844     194.4778    0.0133277  0.012848555          461 
 1217000    0.7630849     -8.53047    193.76998  0.013268281  0.012836231          452 
 1218000   0.76012887   -8.4855929    194.45736  0.013304417  0.012823966          411 
 1219000   0.77866769   -8.5072663    194.55209  0.013299979  0.012811708          420 
 1220000   0.76960493   -8.5046648    194.18489  0.013263995  0.012799474          553 
 1221000   0.76382049   -8.5181079     194.2936  0.013260552  0.012787237          493 
 1222000   0.77528112   -8.5449304    193.97681  0.013228097  0.012774954          529 
 1223000   0.75189844   -8.5487519     194.1411  0.013228475  0.012762672          519 
 1224000   0.77432489   -8.5575859    194.16891  0.013219561  0.012750397          511 
 1225000   0.75621271   -8.5522045     194.2133  0.013211789  0.012738069          617 
 1226000   0.76812586   -8.5838244    194.06629   0.01319102  0.012725727          577 
 1227000   0.76253813   -8.5591125    193.97572  0.013174118  0.012713367          655 
 1228000   0.76615089   -8.5771989    193.84067  0.013154226  0.012701013          665 
 1229000   0.76571019   -8.5746415    193.48124  0.013119151  0.012688661          705 
 1230000   0.77199187    -8.579002    194.21381  0.013158117  0.012676328          697 
 1231000   0.76353617   -8.5993289    193.50716  0.013099591  0.012664014          685 
 1232000   0.78941311   -8.5835837    194.02211   0.01312379  0.012651655          630 
 1233000   0.76239572   -8.6001778    193.90245  0.013105059  0.012639303          718 
 1234000   0.75529752   -8.5848739    194.10639  0.013108211  0.012626956          650 
 1235000   0.77324874    -8.614791    193.66311  0.013067686  0.012614593          682 
 1236000   0.76621678   -8.6129953    193.32827  0.013034538  0.012602216          759 
 1237000   0.76893194   -8.6216333    193.52486  0.013037245  0.012589827          807 
 1238000   0.76132001   -8.6364281    193.47909  0.013023633  0.012577465          731 
 1239000   0.76861749     -8.62844    193.42455  0.013009453  0.012565067          793 
 1240000   0.76673094    -8.615716    193.64909  0.013014052  0.012552666          781 
 1241000   0.77078616   -8.6441093    193.17896  0.012971995  0.012540275          895 
 1242000     0.768081    -8.634777    193.13887  0.012958861  0.012527877          843 
 1243000   0.75575843   -8.6370434    193.33604  0.012961655  0.012515473          738 
 1244000   0.76609584   -8.6404074    193.46688      0.01296  0.012503112          834 
 1245000   0.75027902   -8.6603064     193.5565  0.012955589  0.012490742          869 
 1246000   0.75247704    -8.625352    193.49306  0.012940948  0.012478375          874 
 1247000   0.74583875   -8.6413995    193.56302  0.012935246  0.012466039          950 
 1248000   0.73087379   -8.6358333    193.43084  0.012916055  0.012453731          970 
 1249000   0.75539346   -8.6288861    193.41828  0.012904876  0.012441433          790 
 1250000   0.75182852   -8.6447995     193.5229  0.012901526  0.012429118          856 
 1251000   0.75857511   -8.6873438    192.99474  0.012856031   0.01241676          974 
 1252000   0.76900826   -8.6591595    193.06899  0.012850705  0.012404402         1064 
 1253000   0.74598149   -8.6685405    192.83923  0.012825169  0.012392012          993 
 1254000   0.75770615   -8.6573941    193.00565     0.012826  0.012379654         1072 
 1255000   0.76665123   -8.6488743    193.10767  0.012822554  0.012367291          934 
 1256000   0.75959636   -8.6615323    193.04955  0.012808489  0.012354954         1109 
 1257000   0.72868748    -8.686495    192.52369  0.012763437  0.012342594         1168 
 1258000   0.75665644   -8.6787979    192.61893  0.012759601  0.012330253         1181 
 1259000   0.74431327   -8.7024435    192.42108   0.01273637  0.012317929         1253 
 1260000   0.75353003   -8.6669219    193.29228  0.012783881  0.012305636         1229 
 1261000   0.74732293   -8.6941697    192.88892  0.012747087  0.012293326         1260 
 1262000   0.74677118   -8.7127867    192.50482  0.012711623     0.012281         1312 
 1263000   0.74059393     -8.71989    192.78959  0.012720347  0.012268699         1246 
 1264000   0.76464469   -8.7012536    192.61161   0.01269855  0.012256374         1325 
 1265000   0.74741826   -8.7186105    192.84238  0.012703714  0.012244051         1355 
 1266000   0.75833471   -8.7053312    193.03844  0.012706585  0.012231787         1363 
 1267000   0.75294188   -8.7091436    193.24558   0.01271018  0.012219526         1417 
 1268000   0.75188058    -8.707696    192.85328  0.012674375  0.012207271         1314 
 1269000   0.74330293   -8.7293528    192.80503  0.012661218  0.012195001         1467 
 1270000   0.72661743   -8.7431611    192.91297  0.012658331  0.012182723         1393 
 1271000   0.75029323    -8.744698    192.29525  0.012607871  0.012170463         1407 
 1272000   0.73401438   -8.7153596    192.88951  0.012636891  0.012158207         1397 
 1273000   0.75283035   -8.7515241    192.35954  0.012592272  0.012145948         1465 
 1274000   0.74802477   -8.7591099     192.5265  0.012593308  0.012133654         1493 
 1275000   0.75476062   -8.7599893    192.59335  0.012587801  0.012121373         1486 
 1276000   0.73459684   -8.7728091    192.65623  0.012582042  0.012109077         1489 
 1277000   0.73876586   -8.7766333    192.30355  0.012549175  0.012096758         1497 
 1278000   0.75108998   -8.7765267    192.50599  0.012552555  0.012084441         1477 
 1279000   0.76118376    -8.796059    191.79016  0.012496101  0.012072121         1572 
 1280000   0.73834467   -8.7933124    192.26757   0.01251742  0.012059827         1577 
 1281000   0.74628061   -8.7829571    192.15441  0.012500287  0.012047551         1637 
 1282000   0.75291665   -8.7624286    192.21489  0.012494468  0.012035267         1600 
 1283000   0.72213938    -8.797939    192.33508  0.012492536   0.01202297         1640 
 1284000   0.75451177   -8.8166969    191.72033  0.012442908  0.012010664         1695 
 1285000   0.73581704   -8.8335417    191.87408  0.012443196  0.011998341         1780 
 1286000   0.74039475   -8.7968606    191.91717  0.012436312  0.011986031         1728 
 1287000   0.74944036   -8.7994843    192.43378    0.0124601  0.011973728         1740 
 1288000    0.7608628   -8.8441779    191.89312  0.012415445  0.011961465         1795 
 1289000   0.74099546   -8.8318059    192.27247  0.012430338  0.011949195         1792 
 1290000   0.74483705   -8.7989962    192.33927  0.012425017  0.011936949         1829 
 1291000   0.74455697   -8.8350922      191.966  0.012391299  0.011924723         1782 
 1292000   0.74087022   -8.8303274     191.7641  0.012368686  0.011912487         1857 
 1293000   0.73101486   -8.8669029    192.01116  0.012375043  0.011900252         1840 
 1294000   0.72511423   -8.8338133    191.72129  0.012346812  0.011887992         1840 
 1295000   0.72878976   -8.8752531    191.62178  0.012330874  0.011875736         1920 
 1296000   0.73345613   -8.8674805    191.85987  0.012336669  0.011863484         1959 
 1297000   0.73094632   -8.8497989    191.66691  0.012314759  0.011851229         2000 
 1298000   0.72688795   -8.8614013    191.66043  0.012304855  0.011838974         2041 
 1299000   0.74369026   -8.8654619    191.79816  0.012304219  0.011826724         2075 
 1300000   0.72071619   -8.8731345    191.58419  0.012281038  0.011814459         2078 
 1301000   0.73897236   -8.8699977    191.99618  0.012297988  0.011802225         2129 
 1302000   0.74196779   -8.9020591     191.6726  0.012267832   0.01178996         2117 
 1303000   0.73473494   -8.8958955    191.36081  0.012238476   0.01177772         2158 
 1304000   0.72595173   -8.8979894    191.06705  0.012210318  0.011765455         2182 
 1305000   0.72445821   -8.9060351    191.06833  0.012201043  0.011753223         2186 
 1306000   0.74503136   -8.9134419     191.1694  0.012198149  0.011740988         2285 
 1307000   0.72898743   -8.8842271    191.41384  0.012204402  0.011728735         2262 
 1308000   0.72676886   -8.9057545    191.00144  0.012168797  0.011716476         2273 
 1309000   0.73929469   -8.9219211    191.13951  0.012168291  0.011704219         2312 
 1310000   0.74451741   -8.9453356    190.83899  0.012139885   0.01169195         2302 
 1311000   0.73188041    -8.933663    190.96445  0.012138599  0.011679687         2350 
 1312000   0.73626215    -8.927961    191.24521  0.012147181  0.011667455         2311 
 1313000    0.7319752   -8.9487524    191.27376  0.012139741  0.011655206         2417 
 1314000   0.74299635   -8.9585167    190.86969  0.012104877  0.011642979         2453 
 1315000   0.71756007   -8.9467472    190.87129  0.012095772  0.011630779         2447 
 1316000   0.71933623    -8.972764    190.66971  0.012073816  0.011618559         2524 
 1317000   0.72721879   -8.9742234    190.98339  0.012084497  0.011606338         2501 
 1318000   0.72416149   -8.9692081    190.32791  0.012033884  0.011594104         2568 
 1319000   0.71410578   -8.9983955    190.77634  0.012053092  0.011581869         2588 
 1320000    0.7324172   -8.9815492    190.58983  0.012032186  0.011569688         2564 
 1321000    0.7345816   -8.9861589    190.50548  0.012017757  0.011557492         2590 
 1322000   0.74012176   -9.0108389    190.84135  0.012029838  0.011545298         2569 
 1323000   0.71676445   -8.9899582    190.94658  0.012027373  0.011533118         2630 
 1324000    0.7235222   -9.0109887    190.34438  0.011980387  0.011520931         2626 
 1325000   0.74051985   -9.0137964    190.64185  0.011990053  0.011508745         2622 
 1326000   0.71694561    -8.994641    190.58499  0.011977438  0.011496573         2600 
 1327000   0.71494215   -8.9944626    190.50878  0.011963626  0.011484413         2679 
 1328000   0.71217379   -9.0253437     190.4782  0.011952698  0.011472252         2615 
 1329000    0.7287071   -9.0129159    190.46262  0.011942727   0.01146011         2710 
 1330000   0.71992746   -8.9918663    190.84001  0.011957394  0.011447974         2666 
 1331000   0.71503558   -9.0221215    190.12776  0.011903817  0.011435861         2699 
 1332000   0.70851824   -9.0098849     190.4232  0.011913363  0.011423746         2621 
 1333000   0.74011737   -9.0174597    190.25674   0.01189402  0.011411677         2702 
 1334000   0.72006363   -9.0528249    190.07102  0.011873502  0.011399601         2650 
 1335000   0.73245454   -9.0237569    190.44616  0.011888025  0.011387518         2686 
 1336000   0.73011014    -9.067924    190.08062  0.011856326  0.011375442         2730 
 1337000   0.70528305   -9.0360749    190.23025  0.011856784  0.011363387         2692 
 1338000   0.71503942   -9.0499657     190.2832  0.011851221  0.011351343         2714 
 1339000   0.70843547   -9.0390671    190.35758  0.011846999    0.0113393         2709 
 1340000   0.71402199   -9.0574023     190.3706  0.011838968  0.011327283         2758 
 1341000   0.69966503   -9.0214581    190.34646  0.011828639  0.011315276         2754 
 1342000   0.72192983   -9.0428713    190.37481  0.011821586  0.011303287         2792 
 1343000   0.71216565   -9.0914221    190.05232  0.011792772  0.011291296         2767 
 1344000   0.72237906   -9.0580732    190.33121   0.01180129  0.011279314         2814 
 1345000   0.72277663   -9.0513229    189.89769  0.011765656  0.011267338         2835 
 1346000   0.72649519   -9.0577271    190.29043   0.01178123  0.011255377         2873 
 1347000   0.71531963   -9.0440982    190.05568  0.011757961  0.011243463         2818 
 1348000   0.72726358   -9.0841255    190.13856  0.011754362  0.011231536         2849 
 1349000   0.72010757   -9.0586145    190.23496  0.011751604   0.01121963         2905 
 1350000   0.71413028   -9.0955409    189.91425  0.011723102  0.011207717         2921 
 1351000   0.70948287   -9.0688668    189.89786  0.011713414  0.011195815         2893 
 1352000   0.70477438   -9.0713914    189.81786  0.011699819  0.011183928         2863 
 1353000    0.7112111   -9.0760288    190.00574  0.011702743  0.011172071         2943 
 1354000   0.70666496   -9.0957613    189.84174  0.011684007  0.011160226         2922 
 1355000   0.70175386   -9.0940054    190.23861  0.011699792  0.011148354         3029 
 1356000   0.70036138   -9.1069538     189.4555  0.011643037  0.011136483         2980 
 1357000   0.70404327   -9.0984066    190.27884  0.011685018  0.011124616         2993 
 1358000   0.69459093   -9.1101528     189.7259  0.011642483  0.011112747         2966 
 1359000   0.70304557   -9.1179873    189.78698  0.011637662    0.0111009         3097 
 1360000    0.7113776   -9.1162069    189.92946  0.011637834  0.011089051         3048 
 1361000   0.71201524    -9.120887    189.89212  0.011626997  0.011077214         3035 
 1362000   0.71206424    -9.112479    189.53541  0.011596636  0.011065393         3009 
 1363000   0.71982934   -9.1072134    189.71469  0.011599088  0.011053574         3027 
 1364000   0.68938527   -9.1331141    189.55271  0.011580689  0.011041751         3067 
 1365000   0.69427895   -9.1203549    189.88108  0.011592251  0.011029952         3075 
 1366000   0.71298298   -9.1257118    189.65473  0.011569957  0.011018175         3082 
 1367000   0.70287961   -9.1386327    189.61448  0.011559039  0.011006414         3069 
 1368000   0.71153129   -9.1319261    189.37072  0.011535741  0.010994663         3090 
 1369000   0.71714753   -9.1408693    189.45147   0.01153223  0.010982912         3070 
 1370000   0.70466911   -9.1339553    189.62846  0.011534578  0.010971179         3043 
 1371000   0.71500237   -9.1501919    189.21978  0.011501324  0.010959455         3105 
 1372000   0.71062193    -9.139672    189.41335  0.011504698  0.010947735         3111 
 1373000   0.70199233   -9.1589334    189.14916  0.011480284  0.010936028         3133 
 1374000    0.7084489   -9.1584159     189.0236  0.011464313  0.010924335         3099 
 1375000   0.71296467   -9.1923117    189.53873  0.011487196   0.01091264         3126 
 1376000   0.72202543   -9.1741172    189.65744  0.011486037  0.010900931         3202 
 1377000   0.71634224   -9.1609751     189.1432  0.011446575  0.010889264         3194 
 1378000   0.69535963    -9.170424    189.09299  0.011435232   0.01087759         3203 
 1379000   0.69876405   -9.1584954    189.22452  0.011434888  0.010865947         3183 
 1380000    0.7075248   -9.1643404     188.9141  0.011407856  0.010854302         3175 
 1381000   0.70265739   -9.1899866    189.18232  0.011415781  0.010842664         3273 
 1382000   0.70296858   -9.1801823     189.2573  0.011412042  0.010831034         3220 
 1383000   0.70235505    -9.184027    189.00357  0.011388502  0.010819399         3243 
 1384000   0.69962368   -9.1556716    189.23464  0.011394186  0.010807788         3236 
 1385000    0.7094772   -9.1696313    189.09663  0.011377655  0.010796183         3226 
 1386000   0.68967602   -9.1736567    189.12738  0.011371295  0.010784607         3283 
 1387000   0.68472572   -9.1954022    189.10982  0.011362041  0.010773033         3269 
 1388000   0.71214051   -9.1940406     188.8368  0.011337464  0.010761473         3210 
 1389000   0.68635344   -9.1816957    188.97751  0.011337743  0.010749915         3310 
 1390000   0.70779461   -9.2288996    188.74272  0.011315511  0.010738334         3308 
 1391000   0.70780531   -9.2215261    188.59619  0.011298597   0.01072678         3354 
 1392000   0.69620532   -9.1848118    188.84704  0.011305498  0.010715235         3347 
 1393000   0.68431138   -9.2022257    189.15832  0.011316004  0.010703678         3374 
 1394000   0.69222276   -9.2079399    189.19737  0.011310221   0.01069214         3432 
 1395000   0.71220244   -9.2183519    188.88468  0.011283434  0.010680615         3445 
 1396000   0.69138022   -9.2231972    188.57667  0.011256965  0.010669102         3378 
 1397000   0.69120415   -9.2213102    188.57691  0.011248921  0.010657601         3402 
 1398000    0.6917245   -9.2190877    188.71678  0.011249212  0.010646116         3426 
 1399000    0.7041978   -9.2386316    188.66498  0.011238085  0.010634636         3439 
 1400000   0.68693386   -9.2359847    188.47594  0.011218806  0.010623163         3501 
 1401000   0.68126829   -9.2458637    188.59312  0.011217768  0.010611694         3469 
 1402000   0.68238703   -9.2363911    189.10649  0.011240281  0.010600248         3451 
 1403000    0.6946925   -9.2483264    188.53609   0.01119839  0.010588808         3407 
 1404000   0.68415725   -9.2276421    188.73679  0.011202326   0.01057739         3467 
 1405000   0.68586445   -9.2254051    188.61758  0.011187282   0.01056599         3426 
 1406000   0.67772869   -9.2276675    188.87277   0.01119445  0.010554604         3489 
 1407000   0.69690367   -9.2365778    188.38022  0.011157322  0.010543231         3452 
 1408000   0.68454595   -9.2477829    188.74668  0.011171087  0.010531868         3487 
 1409000   0.66476898   -9.2481939    188.82862  0.011168005   0.01052051         3481 
 1410000   0.70240257   -9.2418721     188.7172  0.011153499  0.010509192         3473 
 1411000   0.69255999   -9.2610589    188.64067  0.011141074  0.010497876         3523 
 1412000   0.68833519   -9.2366303    188.58346  0.011129808  0.010486568         3454 
 1413000   0.69799268   -9.2410286    188.42403  0.011112528  0.010475275         3438 
 1414000   0.69219143   -9.2404444    188.61664  0.011116021  0.010463998         3459 
 1415000   0.67534349   -9.2248883    188.68959  0.011112461  0.010452731         3425 
 1416000   0.69881265   -9.2351416    188.59806  0.011099226  0.010441496         3478 
 1417000   0.68173507   -9.2276604     188.6396  0.011093837  0.010430268         3470 
 1418000   0.70340649   -9.2489111    188.40808  0.011072407  0.010419044         3491 
 1419000   0.68964341   -9.2536776    188.39583  0.011063885  0.010407826         3509 
 1420000    0.6790623   -9.2744745    188.43482  0.011058381    0.0103966         3527 
 1421000    0.6790073   -9.2864377    188.36498  0.011046504  0.010385398         3532 
 1422000    0.6822426   -9.2795057      188.474  0.011045124  0.010374194         3517 
 1423000    0.6794682   -9.2656534    188.61585  0.011045669  0.010363002         3559 
 1424000     0.683088   -9.2484131    188.64258  0.011039477  0.010351823         3521 
 1425000    0.6963916   -9.2818289    187.93034  0.010990078   0.01034065         3580 
 1426000    0.6752462   -9.2805196    187.99088  0.010985909  0.010329499         3542 
 1427000   0.67231311    -9.266311    187.90301  0.010973079  0.010318355         3543 
 1428000   0.68614407   -9.2792121    188.16898  0.010980916  0.010307247         3555 
 1429000   0.68435366   -9.2860746    188.14801  0.010972009  0.010296138         3543 
 1430000   0.69468788   -9.2694196    188.31491  0.010974062  0.010285035         3526 
 1431000   0.69128298   -9.2843387    188.14825  0.010956688  0.010273958         3555 
 1432000   0.68795323   -9.2969563    188.09852  0.010946143  0.010262882         3624 
 1433000   0.69956407   -9.2797674    188.19562  0.010944151  0.010251823         3594 
 1434000   0.68877097   -9.2858787    188.30378  0.010942805  0.010240771         3608 
 1435000   0.68597338   -9.2944792    188.28494  0.010934085  0.010229737         3595 
 1436000   0.69227922   -9.2849903     188.0637  0.010913632  0.010218715         3586 
 1437000   0.67874133   -9.3114015    187.52333    0.0108747  0.010207702         3631 
 1438000    0.6881302   -9.2859717     187.8859  0.010888149  0.010196698         3591 
 1439000   0.66624717   -9.2972173    188.11099  0.010893617  0.010185707         3578 
 1440000   0.67825661    -9.305096    187.98777  0.010878922  0.010174739         3608 
 1441000   0.68090476   -9.2905023      188.297  0.010889255  0.010163791         3617 
 1442000   0.66677782   -9.2591275    188.09294  0.010869911  0.010152851         3624 
 1443000   0.66092075   -9.3055167    188.24294  0.010871041  0.010141936         3603 
 1444000    0.6657878   -9.3074097     187.8562  0.010841193  0.010131044         3646 
 1445000   0.69289921   -9.3035209    188.25067   0.01085644   0.01012016         3638 
 1446000   0.67047225   -9.2938459    187.93283  0.010830615  0.010109292         3604 
 1447000   0.68110935   -9.3092401    188.17956  0.010837339  0.010098422         3648 
 1448000   0.67912518   -9.3088438    187.97997  0.010818368  0.010087584         3624 
 1449000   0.67942432   -9.3055989    188.06953  0.010816053  0.010076736         3618 
 1450000   0.66356548   -9.2918607    188.16393  0.010814019  0.010065918         3649 
 1451000   0.66907592   -9.3049978    187.98352  0.010796205  0.010055108         3646 
 1452000   0.66604105   -9.3043323    188.47344  0.010816887  0.010044313         3610 
 1453000   0.67957083    -9.311012    188.32451  0.010800901  0.010033521         3647 
 1454000   0.69368181   -9.3238613    187.92428  0.010770534  0.010022745         3653 
 1455000   0.67761214   -9.3276894    187.87143  0.010760105  0.010011981         3682 
 1456000   0.66889316   -9.3172681    187.82298  0.010749941  0.010001236         3649 
 1457000    0.6781551   -9.3549097    187.89305  0.010746571 0.0099904849         3654 
 1458000   0.67849903   -9.3270722    187.79131  0.010733385 0.0099797577         3648 
 1459000    0.6459831   -9.3231753    188.18116  0.010748296 0.0099690467         3679 
 1460000   0.65675781   -9.3298655    187.91974  0.010726013 0.0099583528         3685 
 1461000   0.68336915   -9.3438091    187.57507  0.010699011 0.0099476651         3692 
 1462000   0.67444727   -9.3319956     187.8418  0.010706897 0.0099369926         3681 
 1463000   0.66610899   -9.3282972    187.39548  0.010674156  0.009926329         3695 
 1464000   0.65931872   -9.3238613    187.99859  0.010701195 0.0099156813         3690 
 1465000   0.65248782   -9.3533671    188.01886  0.010695043 0.0099050445         3697 
 1466000   0.66344608   -9.3149813    187.86771  0.010679156 0.0098944256         3711 
 1467000   0.67728481   -9.3355593    187.83185  0.010669839 0.0098838277         3666 
 1468000     0.680412   -9.3258468     187.7043   0.01065533 0.0098732472         3649 
 1469000   0.66889766   -9.3279967     187.8839  0.010658265  0.009862671         3674 
 1470000   0.64952999   -9.3479754    187.58522  0.010634083 0.0098521068         3669 
 1471000   0.65966341   -9.3248919    187.71693  0.010634315 0.0098415655         3680 
 1472000    0.6685585   -9.3515333    187.62882  0.010622103 0.0098310334         3697 
 1473000   0.67085113   -9.3439125    187.55821  0.010610897 0.0098205116         3699 
 1474000   0.66448252   -9.3314228    187.45691  0.010597971 0.0098099905         3687 
 1475000   0.65763703   -9.3469659    187.82179  0.010611401 0.0097995041         3694 
 1476000   0.66808534   -9.3479713    188.03754  0.010616392 0.0097890208         3699 
 1477000   0.66151145   -9.3585521    187.61515  0.010585373 0.0097785514         3710 
 1478000   0.66955919   -9.3890542     187.7415  0.010585335 0.0097681025         3717 
 1479000   0.66241791   -9.3146304    188.18927  0.010603407 0.0097576655         3653 
 1480000   0.64568687   -9.3562194    187.67347    0.0105672 0.0097472472         3704 
 1481000   0.65019611   -9.3754453    187.50036  0.010550324 0.0097368297         3700 
 1482000   0.65468387   -9.3613594    187.91732  0.010566651 0.0097264266         3697 
 1483000   0.65852082   -9.3457254    187.24879  0.010521959 0.0097160408         3687 
 1484000   0.67178369   -9.3555248    187.58274  0.010533622  0.009705673         3688 
 1485000   0.67326773   -9.3736949    187.76988   0.01053703 0.0096953349         3706 
 1486000   0.65075603   -9.3629612    187.54736  0.010517461 0.0096849999         3691 
 1487000   0.64311804   -9.3860044    187.53797  0.010509862 0.0096746633         3685 
 1488000   0.65609082   -9.3571216    188.09729  0.010534122 0.0096643549         3643 
 1489000   0.65683442   -9.3506955    187.66478  0.010502842 0.0096540549         3666 
 1490000   0.67202988   -9.3484763    187.32692  0.010476897 0.0096437804         3696 
 1491000   0.66724516   -9.3428863    187.78415  0.010495425 0.0096335109         3696 
 1492000   0.64456424   -9.3640697    187.83274  0.010491105 0.0096232506         3667 
 1493000   0.66748398   -9.3641449    187.66405  0.010474662 0.0096129904         3676 
 1494000   0.65432218   -9.3462392    187.56439  0.010462092 0.0096027393         3679 
 1495000   0.66140523   -9.3780009    187.52768  0.010453048 0.0095925048         3704 
 1496000   0.66295656   -9.3527695    187.69656  0.010455468  0.009582294         3720 
 1497000   0.66499965   -9.3714498    187.95612  0.010462932 0.0095721076         3708 
 1498000   0.64613971   -9.3779311    187.75057  0.010444513  0.009561918         3728 
 1499000    0.6420912     -9.35882    187.69386  0.010434393 0.0095517589         3675 
 1500000   0.65996862   -9.3650274    187.39294  0.010410719 0.0095416074         3750 
 1501000   0.64177313   -9.3542447    187.29148   0.01039815 0.0095314687         3732 
 1502000   0.65211851    -9.354559    187.80753  0.010419859 0.0095213371         3726 
 1503000   0.66407766   -9.3659618    187.43492  0.010392266 0.0095112187         3755 
 1504000   0.64813419   -9.3702259    187.45823  0.010386649 0.0095011197         3765 
 1505000   0.64727435   -9.3851527    187.47375  0.010380606 0.0094910254         3756 
 1506000   0.64353996   -9.3831063    187.41943  0.010370708  0.009480933         3776 
 1507000   0.64999108   -9.4048773    187.29404  0.010356892 0.0094708627         3754 
 1508000   0.64907981   -9.3785412    187.22154  0.010346018 0.0094608176         3798 
 1509000   0.65296162   -9.3606826    187.40993  0.010349565  0.009450782         3789 
 1510000   0.64823542   -9.3854052    187.74995  0.010361476 0.0094407542         3804 
 1511000   0.65183617   -9.3963185    187.27308  0.010328319 0.0094307309         3767 
 1512000   0.67300931   -9.3732096    187.43748  0.010330549 0.0094207437         3775 
 1513000   0.65413823   -9.3797669    187.60393  0.010332889 0.0094107582         3775 
 1514000    0.6451158   -9.3720325    187.51959  0.010321422 0.0094007903         3804 
 1515000     0.649175   -9.3883575    187.65473  0.010322042 0.0093908274         3764 
 1516000   0.63592967   -9.3830593    187.44055   0.01030346 0.0093808857         3758 
 1517000   0.64076512    -9.385989    187.69718  0.010310766 0.0093709435         3769 
 1518000   0.64270967   -9.4017017    187.19034  0.010276149 0.0093610252         3805 
 1519000   0.63308833   -9.4186142    187.49183  0.010285924  0.009351109         3777 
 1520000    0.6318737   -9.4083382    187.30537  0.010268935 0.0093412097         3758 
 1521000   0.65500811   -9.3921779    187.23108  0.010258113 0.0093313194         3759 
 1522000   0.63669208   -9.4163788    187.29846  0.010255063  0.009321452         3762 
 1523000   0.65217222   -9.4027067    186.88338  0.010225617   0.00931159         3794 
 1524000   0.63776446   -9.4264064    187.16056  0.010234064 0.0093017406         3786 
 1525000   0.63683639   -9.4138939    187.41414   0.01024121 0.0092918973         3770 
 1526000   0.65279661    -9.401269    187.16909  0.010221117  0.009282076         3801 
 1527000    0.6536647   -9.3902922    187.30412  0.010221792 0.0092722661         3773 
 1528000   0.64533045   -9.4096489    187.22953  0.010211035 0.0092624719         3778 
 1529000   0.64504818   -9.4105776    187.14704   0.01019986  0.009252696         3779 
 1530000   0.64228426   -9.3798029    187.19827  0.010195984 0.0092429389         3801 
 1531000   0.63653349    -9.386619    187.33236  0.010196623 0.0092331759         3795 
 1532000   0.63713503   -9.3904371    187.13141  0.010179037 0.0092234284         3839 
 1533000   0.63949198   -9.3982159    186.96217  0.010163197 0.0092136855         3827 
 1534000   0.64580448   -9.4194955     187.0053  0.010158914 0.0092039577         3815 
 1535000    0.6371306   -9.4118956    186.98442  0.010151163 0.0091942441         3796 
 1536000   0.63935872   -9.4186297    187.24228  0.010158544 0.0091845391         3827 
 1537000   0.63769695    -9.395564    187.22152  0.010150809 0.0091748504         3796 
 1538000   0.63899636   -9.4080842    187.39188  0.010153439 0.0091651736         3819 
 1539000   0.65520772   -9.4225767    187.13802  0.010133096 0.0091555077         3809 
 1540000   0.64503213    -9.424511    187.00264   0.01011919 0.0091458553         3797 
 1541000    0.6392682   -9.4183924    187.08817  0.010117249 0.0091362115         3815 
 1542000   0.62791641   -9.4223172    187.26034  0.010119992 0.0091265817         3798 
 1543000   0.63460948   -9.4184745     187.1878  0.010109516 0.0091169618         3798 
 1544000    0.6381562   -9.3954054    187.18758  0.010102957 0.0091073563         3802 
 1545000   0.65704211   -9.4224061    187.03477  0.010088175 0.0090977641         3807 
 1546000   0.64061615   -9.4187558    186.98174  0.010078792 0.0090881914         3792 
 1547000   0.64781781   -9.4481253    187.21242  0.010084703  0.009078629         3799 
 1548000   0.62670794   -9.4187752    187.08654  0.010071411 0.0090690786         3815 
 1549000   0.64994967   -9.4223595     186.8859  0.010054115 0.0090595372         3834 
 1550000   0.64372325   -9.4278987    187.02271  0.010054985 0.0090500105         3802 
 1551000   0.64961602   -9.4193991    187.11325  0.010053366 0.0090405012         3819 
 1552000   0.62516368   -9.4334344    187.20612  0.010051875 0.0090310015         3786 
 1553000   0.62959225   -9.4097265    186.92332  0.010030228 0.0090215061         3819 
 1554000   0.64737111   -9.4181447    187.28374  0.010043101  0.009012032         3812 
 1555000   0.64426885    -9.417128    187.12493  0.010028131 0.0090025688         3809 
 1556000   0.63904475   -9.4331009    186.93939   0.01001175  0.008993111         3822 
 1557000   0.61393957   -9.4509424     187.0147   0.01000935 0.0089836643         3849 
 1558000   0.63321129   -9.4424166    187.15125   0.01001023 0.0089742342         3842 
 1559000   0.63480993   -9.4347582    187.08731  0.010000391 0.0089648175         3822 
 1560000   0.64007249   -9.4444983    186.94478 0.0099863665  0.008955416         3818 
 1561000   0.62880988    -9.439629    187.39983  0.010004261 0.0089460259         3833 
 1562000    0.6244113   -9.4318568    186.80454 0.0099660982 0.0089366436         3831 
 1563000   0.63664871   -9.4454065    186.87826 0.0099636524 0.0089272659         3834 
 1564000    0.6403657   -9.4203736    186.90921 0.0099589304 0.0089179102         3836 
 1565000   0.63079917   -9.4405735    187.09844 0.0099626432 0.0089085774         3824 
 1566000    0.6320186   -9.4410662    187.25621 0.0099646768  0.008899258         3808 
 1567000   0.64736142   -9.4537504    187.08059 0.0099489784 0.0088899467         3820 
 1568000   0.61432398   -9.4307145    187.02795  0.009939836 0.0088806513         3823 
 1569000   0.62780411   -9.4388279    186.91162 0.0099273222 0.0088713635         3845 
 1570000   0.63374063   -9.4484858    186.97051  0.009924125 0.0088620889         3843 
 1571000   0.63139974    -9.441672    186.98571  0.009918614 0.0088528321         3794 
 1572000   0.62620101   -9.4348199    187.03916  0.009915138 0.0088435853         3829 
 1573000   0.62421315   -9.4288182    186.90155 0.0099015442  0.008834348         3849 
 1574000   0.63165368   -9.4559153    186.71029 0.0098851276 0.0088251235         3858 
 1575000   0.63082836   -9.4735472    186.88606 0.0098881514 0.0088159155         3829 
 1576000   0.62854449   -9.4396363    187.04861  0.009890472 0.0088067232         3856 
 1577000   0.62498336   -9.4733025    187.01928 0.0098826508 0.0087975444         3854 
 1578000   0.63930506   -9.4829832    186.59843 0.0098541632   0.00878836         3878 
 1579000   0.63080471   -9.4688444    186.81908 0.0098595674 0.0087791965         3887 
 1580000    0.6161336   -9.4590233    186.94626 0.0098600349 0.0087700398         3868 
 1581000   0.61588764   -9.4246028    186.97518 0.0098553227 0.0087608895         3868 
 1582000   0.62818783   -9.4592965    186.96067 0.0098483286 0.0087517504         3869 
 1583000   0.62793486   -9.4539517     186.8436 0.0098359445 0.0087426229         3881 
 1584000   0.61262751   -9.4725864     186.9655 0.0098361481 0.0087335104         3880 
 1585000   0.61535681   -9.4664636    186.78445 0.0098204234 0.0087244067         3865 
 1586000   0.61633712    -9.463248    186.89033 0.0098197946 0.0087153258         3853 
 1587000   0.63003329   -9.4566731    186.76574 0.0098070645 0.0087062479         3864 
 1588000   0.62930799   -9.4577279    186.36063 0.0097796298 0.0086971761         3862 
 1589000   0.61170596   -9.4711752     186.6086   0.00978648  0.008688126         3881 
 1590000    0.6179436   -9.4420972    186.51408 0.0097753708 0.0086790765         3883 
 1591000   0.62706361   -9.4870591    186.75385 0.0097817857 0.0086700533         3885 
 1592000   0.61206282   -9.4751914    186.84903 0.0097806237 0.0086610366         3870 
 1593000   0.62476271   -9.4766612    186.92058 0.0097782267 0.0086520357         3890 
 1594000   0.60924542   -9.4725868    186.67737 0.0097593772 0.0086430383         3885 
 1595000   0.60133622   -9.4618384    186.78546 0.0097589058 0.0086340533         3887 
 1596000   0.60224609   -9.4769006    186.90886 0.0097592345 0.0086250795         3878 
 1597000   0.60775639   -9.4527644    186.88616 0.0097519388 0.0086161229         3875 
 1598000   0.61800279   -9.4861376    186.53337 0.0097274389 0.0086071777         3898 
 1599000   0.60113057   -9.4631232    186.70921 0.0097305197 0.0085982391         3869 
 1600000   0.62295684     -9.48987    186.73433 0.0097257461 0.0085893079         3896 
 1601000   0.61325531   -9.4799975    186.85067 0.0097257271 0.0085803932         3885 
 1602000   0.62236372    -9.509528    186.50057 0.0097014447  0.008571487         3876 
 1603000   0.61479004    -9.490883    186.64388 0.0097028425 0.0085625925         3887 
 1604000   0.61537321   -9.4997527    186.32086 0.0096800116 0.0085537083         3870 
 1605000    0.6245232   -9.5014971    186.77128 0.0096973665 0.0085448334         3894 
 1606000   0.61297046   -9.4844788    186.29935 0.0096668404  0.008535976         3862 
 1607000   0.60222375   -9.4836079    186.37546 0.0096647717 0.0085271256         3892 
 1608000   0.59892536   -9.5030925    186.32047 0.0096559115 0.0085182956         3880 
 1609000    0.6115651   -9.4876656    186.59405 0.0096640796 0.0085094695         3904 
 1610000   0.60718382   -9.4838066    186.33409 0.0096446215 0.0085006596         3884 
 1611000   0.60801306   -9.4945239    186.47513 0.0096459306 0.0084918574         3898 
 1612000   0.60935928   -9.4958531    186.69108 0.0096511103 0.0084830757         3900 
 1613000   0.60870328   -9.4968457    186.70871 0.0096460377 0.0084743047         3911 
 1614000   0.62002191    -9.519186    186.44132 0.0096262556 0.0084655388         3898 
 1615000   0.61874793   -9.4926812    186.91199 0.0096445815 0.0084567819         3890 
 1616000    0.6051451   -9.4997358    186.59911 0.0096224789 0.0084480438         3909 
 1617000   0.60661029   -9.4866557    186.82798 0.0096283232 0.0084393132         3883 
 1618000   0.60323214   -9.4932324    186.65705 0.0096135685 0.0084305784         3912 
 1619000   0.61280403   -9.4971877    186.18663 0.0095834171 0.0084218632         3911 
 1620000   0.60705056   -9.5069757    186.63942 0.0096007932 0.0084131588         3905 
 1621000   0.59767771    -9.485554    186.46131 0.0095857141 0.0084044623         3933 
 1622000   0.59873317   -9.5030372    186.59853 0.0095868541 0.0083957879         3883 
 1623000   0.60212928   -9.5179374    186.21637 0.0095613253 0.0083871179         3901 
 1624000   0.61268076   -9.4934585    186.22658 0.0095559618 0.0083784592         3907 
 1625000   0.60541934   -9.5023377    186.04825  0.009540936 0.0083698216         3892 
 1626000   0.61667301   -9.5152119    186.33421 0.0095497237 0.0083611874         3899 
 1627000    0.6133152    -9.500248    186.45607 0.0095500956  0.008352571         3895 
 1628000   0.59346498   -9.5217712    186.36549 0.0095395932  0.008343955         3886 
 1629000   0.60702563    -9.506582    186.74118  0.009552956 0.0083353514         3877 
 1630000   0.60327335    -9.511622    186.23005 0.0095209635 0.0083267681         3903 
 1631000   0.59711595   -9.4921441    186.28384 0.0095178746 0.0083181912         3890 
 1632000   0.59729149    -9.511031    186.34059 0.0095149401 0.0083096291         3901 
 1633000   0.59855479   -9.5183966    186.22841 0.0095033892 0.0083010803         3906 
 1634000   0.59045964    -9.528227    186.32925 0.0095027159 0.0082925454         3906 
 1635000    0.5911676   -9.5148595    186.44732 0.0095029216 0.0082840129         3898 
 1636000   0.58323709   -9.5219774    186.23716 0.0094864081 0.0082754921         3874 
 1637000   0.59753231   -9.4977716    186.49764 0.0094938728 0.0082669846         3900 
 1638000   0.59845295   -9.5110702    186.11313  0.009468515 0.0082584861         3903 
 1639000   0.59754838   -9.5142471    186.24321  0.009469352 0.0082499984         3900 
 1640000   0.59516679   -9.5253246    186.23067 0.0094629406  0.008241531         3895 
 1641000   0.61445163   -9.5100981    186.20648 0.0094559453 0.0082330743         3889 
 1642000   0.60593984   -9.5137714    186.38413 0.0094592029  0.008224621         3908 
 1643000   0.59035382   -9.5189703    186.45221 0.0094568982 0.0082161889         3876 
 1644000   0.59563366   -9.5044073    186.66388 0.0094618757 0.0082077654         3903 
 1645000   0.59566517   -9.5242706     186.4542 0.0094455015 0.0081993504         3892 
 1646000   0.58988613   -9.5260733    186.29324 0.0094316138 0.0081909416         3884 
 1647000   0.59951971   -9.5220974    186.13666  0.009417965 0.0081825482         3896 
 1648000    0.5836077   -9.5314028    186.45811 0.0094285049 0.0081741669         3885 
 1649000   0.58967031   -9.5098683    186.52813 0.0094263257 0.0081657993         3899 
 1650000   0.59325911   -9.5335708    186.39332  0.009413804 0.0081574412         3885 
 1651000   0.58854114   -9.5197641    186.18875 0.0093977767 0.0081490948         3882 
 1652000    0.5992059   -9.5223947    186.06289 0.0093857389  0.008140762         3904 
 1653000   0.59295907   -9.5249744    186.39794 0.0093969521 0.0081324365         3881 
 1654000   0.58977758   -9.5196156     186.3947 0.0093911075 0.0081241181         3890 
 1655000   0.57511572   -9.5443209    186.11376 0.0093712868 0.0081158186         3897 
 1656000   0.60074689   -9.5229718    186.14109 0.0093670035 0.0081075261         3897 
 1657000   0.58937587   -9.5172646    186.39626 0.0093741833 0.0080992469         3897 
 1658000   0.58383252   -9.5026084    186.52211 0.0093748546 0.0080909791         3890 
 1659000   0.58431918    -9.517173    186.61253  0.009373746 0.0080827246         3915 
 1660000   0.58835297   -9.5069868    186.35103 0.0093549714 0.0080744735         3899 
 1661000    0.5936444   -9.5363223    186.12945 0.0093382224 0.0080662427         3885 
 1662000   0.59484118   -9.5323324    186.00524 0.0093263759  0.008058014         3899 
 1663000   0.58762793   -9.5453108    186.50264 0.0093456923 0.0080498019         3892 
 1664000   0.59371043    -9.519375    186.27138 0.0093284946 0.0080415987         3907 
 1665000   0.59169198   -9.5389836    186.43252  0.009330957 0.0080334047         3893 
 1666000   0.58028929   -9.5317685    186.07959 0.0093077025 0.0080252293         3899 
 1667000    0.5898591    -9.555249    185.97958 0.0092971196 0.0080170623         3909 
 1668000   0.60216895   -9.5420658    186.33389 0.0093092471 0.0080089022         3902 
 1669000   0.59652962   -9.5487703    186.39966 0.0093069531 0.0080007561         3910 
 1670000   0.59317493   -9.5374743    186.31284 0.0092970479 0.0079926168         3895 
 1671000   0.58476916   -9.5218938    186.28863  0.009290277 0.0079844891         3904 
 1672000   0.58961271   -9.5332573    186.02006 0.0092713349 0.0079763738         3884 
 1673000    0.5972964   -9.5308556    186.21326 0.0092754166 0.0079682633         3886 
 1674000   0.57247965   -9.5304826     186.2014 0.0092692849 0.0079601706         3900 
 1675000   0.57235067   -9.5591207    185.83475 0.0092455099 0.0079520873         3909 
 1676000   0.58257869   -9.5438756    185.72942 0.0092347564 0.0079440116         3920 
 1677000   0.60224829   -9.5318484    186.30517 0.0092578597 0.0079359523         3924 
 1678000    0.5765551   -9.5821059    185.83418 0.0092289519 0.0079279031         3905 
 1679000   0.58436003    -9.541791    186.34818 0.0092489665 0.0079198516         3912 
 1680000   0.58521805   -9.5404427    186.43293 0.0092476649 0.0079118207         3922 
 1681000   0.59046618   -9.5466372     185.9157 0.0092165229 0.0079038083         3895 
 1682000   0.58939823   -9.5431342     185.9806 0.0092142589 0.0078958045         3917 
 1683000   0.57263649   -9.5551907    185.69291 0.0091945391 0.0078878001         3906 
 1684000   0.58280521   -9.5401669    186.10732 0.0092095864 0.0078798042         3893 
 1685000   0.56929311   -9.5308217    185.85081 0.0091914349 0.0078718245         3909 
 1686000   0.59170115   -9.5546204    186.08368 0.0091974932  0.007863852         3917 
 1687000   0.56815896   -9.5411328    186.38901 0.0092071236 0.0078558834         3920 
 1688000   0.57996436   -9.5475814    185.93604 0.0091793068 0.0078479288         3927 
 1689000   0.59380616   -9.5472112    186.14459 0.0091841617 0.0078399829         3922 
 1690000   0.57818332   -9.5777224    185.96095 0.0091696721  0.007832049         3921 
 1691000   0.58451827   -9.5580201    185.93883 0.0091631595 0.0078241281         3916 
 1692000   0.58185746   -9.5406947    186.39417 0.0091801699 0.0078162288         3924 
 1693000   0.57597223   -9.5603784    186.14809 0.0091626351 0.0078083354         3910 
 1694000   0.56832334   -9.5511076    185.65353 0.0091328972 0.0078004449         3918 
 1695000   0.58345302   -9.5570346    186.37069 0.0091627673 0.0077925747         3926 
 1696000   0.58304247   -9.5522935    185.99828 0.0091390664 0.0077847051         3906 
 1697000    0.5761973   -9.5494412    186.17351 0.0091422861 0.0077768438         3910 
 1698000    0.5919977   -9.5571892    185.86403 0.0091217133  0.007769004         3923 
 1699000   0.57328931    -9.555259    185.78728 0.0091125797   0.00776117         3912 
 1700000   0.57270965     -9.55068    186.06155 0.0091206642 0.0077533521         3931 
 1701000   0.56600966   -9.5503786    186.14981 0.0091196263 0.0077455386         3923 
 1702000   0.58116813    -9.552436    185.85773 0.0090999671 0.0077377332         3902 
 1703000   0.57595716   -9.5555141    186.09558 0.0091062626 0.0077299457         3908 
 1704000   0.55571429   -9.5685202    185.65176 0.0090792137 0.0077221588         3922 
 1705000   0.57037966   -9.5514471    185.89051 0.0090855578 0.0077143891         3923 
 1706000   0.56841274   -9.5633433    186.06084 0.0090885521 0.0077066302         3919 
 1707000   0.58222555   -9.5816807    185.80715  0.009070843 0.0076988795         3933 
 1708000   0.58534477   -9.5755221    185.93693 0.0090718642 0.0076911368         3916 
 1709000   0.57482035   -9.5735228    185.92098 0.0090657782 0.0076834111         3925 
 1710000    0.5784572    -9.569558    185.64305 0.0090469323 0.0076756917         3922 
 1711000    0.5733162    -9.572179    186.07295  0.009062583 0.0076679803         3918 
 1712000   0.57222355   -9.5577482    185.53786 0.0090312432 0.0076602791         3911 
 1713000   0.56281366   -9.5660647    185.61345 0.0090296481 0.0076525893         3917 
 1714000   0.57994628   -9.5648704    185.91809 0.0090391915  0.007644914         3905 
 1715000   0.57889532   -9.5610626    185.73211 0.0090248838 0.0076372497         3908 
 1716000   0.56896051   -9.5742428    185.92157 0.0090288255  0.007629589         3923 
 1717000   0.57118192   -9.5597071    185.87236 0.0090211783 0.0076219404         3913 
 1718000   0.57052266   -9.5655062    185.78277 0.0090115817 0.0076142992         3908 
 1719000   0.56522723   -9.5706759    185.99724 0.0090167363 0.0076066747         3926 
 1720000   0.56266122   -9.5585099    186.08228 0.0090156142 0.0075990633         3908 
 1721000   0.56623122   -9.5647416    185.93262 0.0090031289 0.0075914571         3929 
 1722000   0.56826001   -9.5617756    185.85637 0.0089942107 0.0075838624         3916 
 1723000   0.55267533   -9.5620678    185.79108 0.0089858327  0.007576278         3923 
 1724000   0.55330747   -9.5794212    185.80682 0.0089813813 0.0075686986         3909 
 1725000    0.5638214   -9.5956219      185.773 0.0089745409 0.0075611345         3908 
 1726000   0.56475391   -9.5745086    185.74606 0.0089680408 0.0075535838         3924 
 1727000   0.56538589   -9.5767962    185.89997 0.0089702747 0.0075460388         3916 
 1728000   0.56679028   -9.5679177    185.73003  0.008956888 0.0075384989         3912 
 1729000    0.5608033   -9.5799622    186.01395  0.008965392 0.0075309729         3925 
 1730000   0.54957626   -9.5846551    185.85373 0.0089524919 0.0075234562         3899 
 1731000   0.56972877    -9.566091    186.00364 0.0089545371 0.0075159534         3919 
 1732000   0.56211653   -9.5642499    185.72148 0.0089357908 0.0075084592         3900 
 1733000   0.56282613   -9.5628662    185.80383 0.0089345946 0.0075009757         3900 
 1734000   0.56357712   -9.5762714    185.92347 0.0089351919 0.0074935008         3929 
 1735000   0.56758778   -9.5719182    185.84652 0.0089263457 0.0074860414         3922 
 1736000   0.57018789   -9.5701733    185.98795 0.0089279928  0.007478594         3919 
 1737000   0.56697185   -9.5801187    185.89114 0.0089182084 0.0074711485         3912 
 1738000    0.5624621   -9.5696639    185.68116 0.0089030093 0.0074637104         3917 
 1739000   0.57119636   -9.5733094    185.58798 0.0088934245 0.0074562825         3911 
 1740000   0.56192817   -9.5775988    185.68877 0.0088931404 0.0074488704         3917 
 1741000   0.56128742   -9.6012557    185.65774 0.0088865472 0.0074414644         3920 
 1742000   0.54208022    -9.595034    185.85436 0.0088908514 0.0074340706         3919 
 1743000    0.5638822   -9.5848702    185.59046 0.0088731335 0.0074266859         3917 
 1744000   0.54715955   -9.5780092    185.98239 0.0088867732 0.0074193119         3905 
 1745000   0.56477105   -9.6020799    185.68976 0.0088677059 0.0074119529         3929 
 1746000   0.54449868    -9.562532    185.60159 0.0088584187 0.0074046014         3913 
 1747000   0.55630552   -9.5813999    185.65303  0.008855802 0.0073972567         3925 
 1748000   0.54500665   -9.5755865     185.6065 0.0088485175 0.0073899185         3917 
 1749000   0.55413228   -9.5808059    185.75475 0.0088505218 0.0073825964         3918 
 1750000   0.56451889   -9.5864004    185.85159 0.0088500758 0.0073752795         3909 
 1751000   0.55747624   -9.5836252     185.5705 0.0088316438 0.0073679694         3915 
 1752000   0.56377325   -9.5899173    185.81947 0.0088384452 0.0073606655         3923 
 1753000   0.54125308   -9.5893256    185.83855 0.0088343103 0.0073533803         3924 
 1754000   0.54927875    -9.587231    185.62474 0.0088191152 0.0073460993         3926 
 1755000   0.53943252   -9.5933025    185.87674 0.0088260562 0.0073388336         3926 
 1756000   0.56774325   -9.5763206    186.08404 0.0088308673 0.0073315759         3923 
 1757000   0.55271773   -9.5811179    185.37178 0.0087920596 0.0073243313         3927 
 1758000   0.54637579   -9.5837192    185.62791 0.0087991994  0.007317086         3907 
 1759000   0.54362536   -9.5802696    186.02373 0.0088129491 0.0073098566         3921 
 1760000    0.5496623   -9.5929779    185.69181 0.0087922261 0.0073026352         3917 
 1761000   0.56277885   -9.5864909    185.71644 0.0087883986 0.0072954222         3914 
 1762000   0.55580944   -9.5882983    185.70602 0.0087829181 0.0072882165         3903 
 1763000   0.55233733   -9.6058856    185.71291 0.0087782618 0.0072810191         3909 
 1764000   0.54051441   -9.6031351     185.5773 0.0087668791 0.0072738322         3910 
 1765000   0.54844068   -9.5788479    185.94403 0.0087792273 0.0072666658         3927 
 1766000   0.55169947   -9.5783607    185.66264 0.0087609775 0.0072594978         3914 
 1767000   0.54500016     -9.59752     185.4778 0.0087473024 0.0072523434         3920 
 1768000   0.55326448    -9.611596    185.49689 0.0087432545 0.0072451987         3925 
 1769000   0.55201972   -9.6147095    185.65414 0.0087457198 0.0072380634         3916 
 1770000   0.54196958   -9.5903584    185.98299 0.0087562613   0.00723094         3895 
 1771000   0.54919271    -9.597082    185.57577 0.0087321555 0.0072238204         3924 
 1772000    0.5447229   -9.5891911    185.86029 0.0087406079 0.0072167151         3909 
 1773000   0.54266938   -9.5938266    185.69547 0.0087279313 0.0072096198         3911 
 1774000   0.54380216   -9.6072431    185.67283 0.0087219481 0.0072025286         3926 
 1775000   0.55005004   -9.5842616    185.69164 0.0087179174 0.0071954526         3919 
 1776000   0.55490745   -9.5842738    185.72351  0.008714504 0.0071883892         3916 
 1777000   0.53139801   -9.5932899     185.5701 0.0087024056 0.0071813351         3908 
 1778000   0.55499761   -9.5922177    185.45818 0.0086922658 0.0071742879         3924 
 1779000   0.54749171   -9.6154456    185.42809 0.0086859703 0.0071672482         3922 
 1780000   0.54048122    -9.611251    185.38083  0.008678878 0.0071602097         3927 
 1781000   0.53681141   -9.5940375      185.589 0.0086837449 0.0071531863         3918 
 1782000   0.54698482   -9.5961583    185.75464 0.0086866179  0.007146175         3909 
 1783000    0.5452238   -9.5961134    185.47496 0.0086686744 0.0071391716         3915 
 1784000   0.54221389   -9.5933443    185.73133 0.0086757909 0.0071321751         3914 
 1785000   0.54817339   -9.6297475    185.44159  0.008657404 0.0071251947         3903 
 1786000   0.52976792   -9.5997789    185.54999 0.0086576144 0.0071182185         3906 
 1787000   0.53522075   -9.5970699    185.38112 0.0086448947 0.0071112513         3889 
 1788000   0.54857009   -9.5938766    185.48067 0.0086446992 0.0071042931         3899 
 1789000   0.54521542   -9.6036137    185.33988 0.0086333093 0.0070973503         3901 
 1790000   0.55521015   -9.6134356    185.59042   0.00864015 0.0070904124         3917 
 1791000   0.52212927    -9.625809    185.46941 0.0086296953 0.0070834855         3907 
 1792000    0.5311319   -9.6006058      185.439 0.0086234656 0.0070765625         3918 
 1793000   0.54278578   -9.5988876    185.68432 0.0086300578 0.0070696481         3909 
 1794000   0.53972725   -9.6133992    185.28133 0.0086065277 0.0070627437         3927 
 1795000   0.53199438    -9.623711    185.40573 0.0086075083 0.0070558477         3898 
 1796000   0.53231709   -9.6045377    185.38116 0.0086015757 0.0070489607         3914 
 1797000   0.53003682   -9.6168263    185.38097 0.0085967805 0.0070420887         3910 
 1798000   0.53742875   -9.6131755    185.44486   0.00859496 0.0070352178         3917 
 1799000   0.53597407   -9.6183911    185.19188 0.0085784638 0.0070283635         3909 
 1800000   0.53340352   -9.6206798    185.27482  0.008577538 0.0070215133         3933 
 1801000   0.53103901   -9.6032325    185.81991 0.0085979968 0.0070146781         3910 
 1802000   0.53281596   -9.6074393    185.29045 0.0085687407 0.0070078459         3915 
 1803000   0.54131868    -9.616741    185.27677 0.0085633562 0.0070010166         3913 
 1804000   0.53700544   -9.6103801    185.49762 0.0085688108 0.0069942101         3901 
 1805000   0.54365965   -9.6139649    185.44671 0.0085617133 0.0069874051         3926 
 1806000   0.52819172   -9.6219383    185.37462 0.0085536461 0.0069806095         3902 
 1807000   0.54390243    -9.603138    185.15216 0.0085386536 0.0069738257         3919 
 1808000   0.53613134   -9.6036951    185.55371 0.0085524389 0.0069670524         3905 
 1809000   0.53145011   -9.6028238     185.3242 0.0085371384 0.0069602848         3919 
 1810000   0.52532257   -9.6436419    185.23347 0.0085282447 0.0069535222         3918 
 1811000   0.53979142   -9.6208123      185.508 0.0085361678 0.0069467686         3917 
 1812000    0.5347023   -9.6114675    185.19699 0.0085171537 0.0069400212         3910 
 1813000   0.52487735   -9.6089939    185.52268 0.0085274259 0.0069332861         3908 
 1814000   0.53287922   -9.6240307    185.48226 0.0085208682 0.0069265606         3894 
 1815000    0.5119573    -9.625617    185.28841 0.0085072732 0.0069198459         3931 
 1816000   0.52305039   -9.6250087    185.32518 0.0085042759   0.00691314         3900 
 1817000   0.53729329   -9.6214153    185.10984 0.0084897193 0.0069064396         3920 
 1818000   0.52930853   -9.6219478    185.47529 0.0085018011 0.0068997501         3907 
 1819000   0.52920633   -9.6167832    185.39242 0.0084933304 0.0068930721         3908 
 1820000   0.51750736   -9.6284791    185.03777 0.0084724256 0.0068864058         3904 
 1821000   0.52701327   -9.6193446    185.37576 0.0084832399 0.0068797358         3926 
 1822000   0.53280555   -9.6321235    185.12846 0.0084672732 0.0068730793         3917 
 1823000    0.5337875   -9.6387385    185.52196 0.0084806161 0.0068664295         3911 
 1824000   0.53264674   -9.6290573    185.26923   0.00846442 0.0068597885         3905 
 1825000   0.52420966   -9.6331871    185.33172 0.0084626358 0.0068531606         3915 
 1826000   0.53382089   -9.6410764    185.04328 0.0084448375 0.0068465435         3916 
 1827000   0.53381755    -9.626825    185.24184 0.0084492719 0.0068399314         3900 
 1828000   0.51994992   -9.6209106    185.11258 0.0084387574 0.0068333279         3900 
 1829000   0.52226463   -9.6298073    185.48831 0.0084512625 0.0068267282         3927 
 1830000    0.5346166   -9.6295307    185.36469 0.0084410152 0.0068201423         3908 
 1831000   0.51634771    -9.630563    185.30854 0.0084338496 0.0068135672         3913 
 1832000   0.51301907   -9.6342099    185.33478 0.0084304396 0.0068069943         3900 
 1833000   0.53186911   -9.6277706    185.33071 0.0084256552 0.0068004321         3913 
 1834000    0.5304424   -9.6483145    185.37083  0.008422884 0.0067938784         3914 
 1835000   0.52423699   -9.6260529     185.2503 0.0084128204 0.0067873372         3915 
 1836000   0.51239851   -9.6365838     185.3636 0.0084133807 0.0067808025         3924 
 1837000   0.52096844   -9.6250383    185.39793  0.008410358 0.0067742746         3921 
 1838000    0.5229546    -9.632664     185.2752 0.0084002176 0.0067677581         3914 
 1839000   0.52000332    -9.638434    185.36988 0.0083999403 0.0067612483         3912 
 1840000   0.50691784   -9.6436349    185.32768 0.0083934637 0.0067547474         3907 
 1841000   0.50767983   -9.6385748     185.0468 0.0083761904 0.0067482519         3920 
 1842000   0.51397036   -9.6409058    185.34336 0.0083850596 0.0067417695         3921 
 1843000   0.53104664   -9.6436601    185.14231 0.0083714193 0.0067352947         3901 
 1844000   0.50361388    -9.646567    185.47915 0.0083821018 0.0067288209         3918 
 1845000   0.51971231   -9.6462155    185.20937 0.0083653733 0.0067223588         3925 
 1846000   0.53005052   -9.6406793    185.07688 0.0083548608 0.0067159032         3930 
 1847000   0.52034494   -9.6444069    185.23284 0.0083573742 0.0067094593         3924 
 1848000   0.50719879    -9.643971    185.05095 0.0083446498 0.0067030241         3919 
 1849000   0.51420824   -9.6635545    185.30427 0.0083515537 0.0066965971         3902 
 1850000   0.49990311   -9.6382157     185.1389 0.0083395903 0.0066901782         3921 
 1851000   0.49738672   -9.6547554    184.92073 0.0083252624 0.0066837629         3909 
 1852000   0.50990982   -9.6579837    185.38135 0.0083414934 0.0066773552         3921 
 1853000   0.50207133   -9.6631057    185.05028 0.0083221031 0.0066709528         3924 
 1854000   0.51585686   -9.6441872    185.14645 0.0083219368 0.0066645622         3918 
 1855000   0.50849363   -9.6417305    185.34549 0.0083263923 0.0066581803         3930 
 1856000   0.50045741   -9.6462216    185.09427 0.0083106262 0.0066518022         3909 
 1857000   0.50936969    -9.654298    185.08363 0.0083056738 0.0066454341         3923 
 1858000   0.51219988   -9.6411766    185.24932 0.0083086348 0.0066390794         3912 
 1859000   0.52881138   -9.6505251    185.05349 0.0082953868 0.0066327315         3919 
 1860000   0.51330613   -9.6553548    184.94277 0.0082859666 0.0066263886         3902 
 1861000   0.50618123   -9.6506463    185.09292 0.0082882377 0.0066200601         3904 
 1862000   0.50295607   -9.6496055    185.22475 0.0082896865 0.0066137358         3918 
 1863000    0.5198076    -9.669589    185.05693 0.0082777297 0.0066074227         3923 
 1864000   0.49768217   -9.6532196    185.00937 0.0082711627 0.0066011124         3906 
 1865000   0.51048445   -9.6443341     185.2013 0.0082753038 0.0065948152         3904 
 1866000    0.5042549    -9.672003    184.97828 0.0082609093 0.0065885231         3925 
 1867000    0.4996758   -9.6644361    184.85296 0.0082508908 0.0065822367         3915 
 1868000   0.51242595   -9.6542849    185.11718 0.0082582612 0.0065759598         3920 
 1869000   0.51281136   -9.6648261    184.94257  0.008246057 0.0065696964         3904 
 1870000   0.50475676   -9.6561581    184.98615 0.0082435897 0.0065634366         3921 
 1871000    0.5131895   -9.6595518     185.1777 0.0082477152 0.0065571881         3910 
 1872000     0.501232   -9.6533509    185.27059 0.0082474444 0.0065509422         3926 
 1873000   0.51148069    -9.667069    185.08049 0.0082345833 0.0065447105         3916 
 1874000   0.50577072   -9.6580176    185.19492 0.0082352774 0.0065384806         3915 
 1875000   0.50985251   -9.6767572     184.8417 0.0082151865 0.0065322608         3922 
 1876000   0.50433861   -9.6608639    184.86193 0.0082117061  0.006526049         3914 
 1877000   0.51395286   -9.6663958    185.02245 0.0082144579  0.006519843         3921 
 1878000   0.50446377   -9.6599386     185.0338 0.0082105874 0.0065136463         3923 
 1879000   0.49822463   -9.6703432    185.28866 0.0082175207 0.0065074582         3916 
 1880000   0.49383887   -9.6667065    184.90812 0.0081962821 0.0065012772         3929 
 1881000   0.49585904   -9.6708944    184.89253 0.0081912338 0.0064951035         3926 
 1882000   0.50516545    -9.666813     185.2409 0.0082023071 0.0064889381         3897 
 1883000    0.5043934   -9.6692935    184.87004 0.0081815382 0.0064827814         3918 
 1884000   0.49955979   -9.6668791    185.06819 0.0081859605 0.0064766295         3908 
 1885000   0.49573547   -9.6705101    184.69011 0.0081649032 0.0064704932         3927 
 1886000    0.5037634   -9.6629845    185.28322 0.0081867806 0.0064643607         3933 
 1887000   0.49448248   -9.6738924    184.49627 0.0081476888  0.006458234         3919 
 1888000   0.50766496   -9.6714977     185.0468  0.008167673 0.0064521158         3910 
 1889000   0.49357859   -9.6804978    184.99895 0.0081612382 0.0064460043         3927 
 1890000   0.50548194   -9.6587519    184.85392 0.0081505254 0.0064399016         3909 
 1891000   0.49552741   -9.6667387    184.90483  0.008148459 0.0064338072         3924 
 1892000   0.49920677   -9.6693183    185.25062 0.0081593824 0.0064277222         3927 
 1893000   0.50494851   -9.6697327    184.91336 0.0081402252 0.0064216434         3921 
 1894000   0.51143542   -9.6767676    184.98266 0.0081389766 0.0064155701         3917 
 1895000   0.50171346   -9.6547284    184.86781  0.008129631 0.0064095084         3918 
 1896000   0.50132441   -9.6671545    184.76698 0.0081209116 0.0064034541         3928 
 1897000   0.48930913   -9.6525591    184.79541 0.0081178793   0.00639741         3927 
 1898000   0.49866077   -9.6636028     184.7878 0.0081132682 0.0063913689         3926 
 1899000    0.4901556   -9.6761053    185.09337  0.008122405 0.0063853405         3923 
 1900000   0.48876905   -9.6774829    184.93125 0.0081110199 0.0063793159         3922 
 1901000   0.49281819   -9.6789414    185.04415 0.0081117021 0.0063732954         3930 
 1902000   0.49163607   -9.6777599    184.89167 0.0081007565  0.006367286         3919 
 1903000   0.49749979   -9.6852618    184.97717 0.0081002437 0.0063612864         3927 
 1904000    0.4872742    -9.688098    184.85801 0.0080907742  0.006355297         3918 
 1905000   0.49805287   -9.6733785     184.8048 0.0080841995 0.0063493147         3929 
 1906000    0.5034497   -9.6828981    184.93476 0.0080856401 0.0063433352         3922 
 1907000   0.49541121    -9.661272    184.65169 0.0080690303 0.0063373641         3930 
 1908000   0.49583942   -9.6975132    184.67826 0.0080659617 0.0063313989         3922 
 1909000   0.49930962   -9.6956601    184.92969  0.008072712  0.006325446         3916 
 1910000   0.48490463   -9.6922733    184.69558 0.0080582715 0.0063195006         3923 
 1911000   0.49447857    -9.703782     184.7573 0.0080567459 0.0063135586         3924 
 1912000   0.49673914   -9.6879011    184.74042 0.0080517964 0.0063076246         3931 
 1913000   0.49677261   -9.6840246    184.75112 0.0080480536 0.0063017006         3917 
 1914000   0.48785589    -9.706459    184.61633 0.0080379802 0.0062957797         3926 
 1915000   0.48404942   -9.6949214    184.90528 0.0080463569 0.0062898657         3919 
 1916000   0.48013445   -9.6822254    184.97194 0.0080450567 0.0062839617         3925 
 1917000   0.48785277   -9.6821931    184.86641 0.0080362726 0.0062780663         3916 
 1918000   0.48832767   -9.6825897    184.83969 0.0080309217  0.006272181         3921 
 1919000   0.47778833   -9.6576759    184.83634 0.0080265913  0.006266301         3929 
 1920000   0.48631276   -9.6837367      184.895 0.0080249565 0.0062604295         3935 
 1921000   0.47945428   -9.6728878    184.93937 0.0080227039 0.0062545618         3907 
 1922000   0.48199587   -9.6928616    184.79897 0.0080124423 0.0062487047         3925 
 1923000   0.49350185   -9.6844257    184.71954 0.0080048337 0.0062428525         3933 
 1924000   0.47827719   -9.6727357    184.94238 0.0080103246 0.0062370141         3918 
 1925000   0.48395183   -9.6965028     184.8108 0.0080004677 0.0062311803         3934 
 1926000   0.47685489   -9.6999107    184.81652 0.0079965611 0.0062253528         3935 
 1927000   0.48082208   -9.6978085    184.52698 0.0079798904 0.0062195304         3927 
 1928000   0.47876766    -9.699798     184.8133 0.0079881269 0.0062137152         3922 
 1929000   0.48471582   -9.6865531    184.59589 0.0079745935 0.0062079103         3914 
 1930000   0.47487202   -9.6887403     184.9248 0.0079846633 0.0062021108         3922 
 1931000   0.46857498   -9.7067979    184.69551  0.007970633 0.0061963175         3921 
 1932000   0.47834633     -9.67987    184.86193 0.0079736859 0.0061905334         3921 
 1933000   0.48552506   -9.6867638    184.68826 0.0079620736 0.0061847572         3924 
 1934000   0.46854938   -9.7053426    184.62359 0.0079551704 0.0061789836         3926 
 1935000   0.46787694   -9.7037242    184.52694 0.0079468965 0.0061732215         3929 
 1936000    0.4737348   -9.7015415    184.77573 0.0079535006  0.006167462         3919 
 1937000   0.48435265   -9.7072174    185.08832 0.0079628428  0.006161716         3921 
 1938000   0.47120624   -9.6913128    184.68566 0.0079414198 0.0061559758         3912 
 1939000    0.4724865   -9.7037566    184.76046  0.007940539 0.0061502415         3918 
 1940000    0.4867977   -9.7053816    184.48062 0.0079244252 0.0061445169         3924 
 1941000   0.48010252   -9.7045457    184.63551 0.0079269923 0.0061388007         3925 
 1942000   0.47302775   -9.6966233    184.92443 0.0079353087  0.006133087         3925 
 1943000   0.47323702   -9.7066195    184.80229 0.0079259862 0.0061273863         3924 
 1944000   0.47130557   -9.7043275    184.57111 0.0079119991 0.0061216911         3929 
 1945000   0.48116462   -9.7061036     184.2743  0.007895214 0.0061160037         3921 
 1946000   0.48583937   -9.7068657    184.36059 0.0078948524 0.0061103219         3917 
 1947000   0.47447996   -9.7117359      184.306 0.0078884608  0.006104645         3926 
 1948000   0.46395089   -9.6997031    184.95671 0.0079122482  0.006098979         3914 
 1949000   0.46262311   -9.7161411    184.67316 0.0078960647 0.0060933163         3933 
 1950000   0.46972031   -9.7114294    184.70207 0.0078932507 0.0060876601         3922 
 1951000    0.4754134   -9.7089759    184.62509 0.0078859172 0.0060820139         3911 
 1952000   0.46291305   -9.7011195    184.66061 0.0078833936 0.0060763749         3920 
 1953000   0.46155752   -9.7155711    184.71745 0.0078817824 0.0060707386         3926 
 1954000   0.47586063   -9.7162895    184.52905 0.0078697139 0.0060651114         3926 
 1955000   0.47404023   -9.6934085     184.7747 0.0078761595  0.006059493         3932 
 1956000    0.4738532   -9.7091195    184.36234 0.0078545645 0.0060538811         3934 
 1957000   0.47430705    -9.730288    184.34348 0.0078497478 0.0060482766         3931 
 1958000   0.47330929   -9.7166978    184.79223  0.007864838 0.0060426781         3924 
 1959000   0.46709891   -9.7270295    184.35223  0.007842106 0.0060370834         3927 
 1960000   0.46730454   -9.7204056    184.47698 0.0078434088 0.0060314949         3932 
 1961000   0.47487685   -9.7155528    184.40422 0.0078363174  0.006025919         3925 
 1962000   0.45892537   -9.7040278    184.68981 0.0078444532 0.0060203532         3911 
 1963000   0.46596262   -9.7023365    184.21576 0.0078203329 0.0060147899         3931 
 1964000   0.47225075   -9.7100139    184.67153 0.0078356895 0.0060092335         3933 
 1965000   0.46899676   -9.7060146    184.37213 0.0078190048 0.0060036853         3935 
 1966000   0.47115171   -9.7195847    184.59147 0.0078243246 0.0059981418         3922 
 1967000   0.47632111   -9.7134943    184.66433 0.0078234337 0.0059926074         3928 
 1968000    0.4720325   -9.7180727    184.59235 0.0078164106  0.005987079         3926 
 1969000   0.45200956   -9.7213997    184.56436 0.0078112561 0.0059815556         3915 
 1970000   0.45853793   -9.7071754    184.53511 0.0078060537 0.0059760453         3942 
 1971000   0.47522094   -9.7187041    184.83586 0.0078148091 0.0059705392         3932 
 1972000   0.47360552   -9.7208551    184.51629 0.0077973415  0.005965039         3922 
 1973000   0.46589255   -9.7243012    184.50287 0.0077928227 0.0059595467         3925 
 1974000   0.46345397   -9.7058499    184.60152 0.0077930395 0.0059540607         3920 
 1975000   0.47253214   -9.7206253    184.63747 0.0077906104 0.0059485807         3931 
 1976000   0.46583557   -9.7231519    184.33202 0.0077737861 0.0059431106         3925 
 1977000   0.46482651   -9.7321203    184.66344 0.0077838238 0.0059376478         3922 
 1978000    0.4655771   -9.7256458    184.23592 0.0077618773 0.0059321858         3928 
 1979000   0.47033701   -9.7132822     184.7172 0.0077782215 0.0059267319         3927 
 1980000   0.46323076   -9.7092025    184.34825 0.0077587647 0.0059212908         3922 
 1981000   0.46105759   -9.7182852    184.61266 0.0077659711 0.0059158512         3927 
 1982000    0.4582574   -9.7199605    184.55158 0.0077594844 0.0059104151         3934 
 1983000   0.46494507    -9.719151    184.13918 0.0077382409 0.0059049908         3926 
 1984000   0.46242304   -9.7255768    184.57103 0.0077524792  0.005899568         3920 
 1985000   0.46304114   -9.7395773     184.4222 0.0077423259 0.0058941553         3923 
 1986000    0.4578118   -9.7156556    184.52853 0.0077428891 0.0058887478         3930 
 1987000   0.45726706   -9.7278004    184.49085 0.0077374118  0.005883347         3923 
 1988000   0.47609189   -9.7205337    184.66675 0.0077408932 0.0058779531         3930 
 1989000   0.46267208   -9.7121792    184.31728 0.0077223598 0.0058725678         3911 
 1990000   0.46084726   -9.7262917    184.58147 0.0077295421 0.0058671866         3919 
 1991000   0.46525932   -9.7220409    184.42385 0.0077190628 0.0058618179         3935 
 1992000   0.47004282   -9.7207271    184.45655 0.0077165559 0.0058564515         3929 
 1993000   0.46155472   -9.7209334    184.47796 0.0077135792 0.0058510965         3926 
 1994000   0.46279388   -9.7432626    184.39365 0.0077061875 0.0058457432         3925 
 1995000   0.45710688   -9.7407315    184.28147 0.0076976387 0.0058403985         3923 
 1996000   0.45714733   -9.7363064    184.37104 0.0076975218 0.0058350562         3927 
 1997000    0.4552423   -9.7232798    184.07009 0.0076811089 0.0058297248         3925 
 1998000   0.45041709   -9.7474095    184.42998 0.0076922747 0.0058243958         3919 
 1999000   0.46200914   -9.7490784    184.27812 0.0076820962 0.0058190777         3930 
 2000000   0.46148109   -9.7369605    184.67567 0.0076948194 0.0058137648         3912 
 2001000   0.45769357   -9.7406735    184.25883 0.0076736146 0.0058084569         3923 
 2002000   0.46477476    -9.737423    184.27632 0.0076705095 0.0058031577         3935 
 2003000   0.45615603   -9.7468506     184.3342 0.0076690882 0.0057978623         3932 
 2004000   0.45795432   -9.7482466    184.51278 0.0076726872 0.0057925734         3929 
 2005000   0.44319078   -9.7394003     184.2149 0.0076564797 0.0057872907         3936 
 2006000   0.44782614   -9.7358333    184.21757 0.0076527736 0.0057820188         3932 
 2007000   0.46077098   -9.7344357     184.4969 0.0076605589 0.0057767527         3922 
 2008000   0.45377209   -9.7364254    184.26973 0.0076473163 0.0057714903         3928 
 2009000   0.44684323   -9.7244766    184.38622 0.0076483416 0.0057662363         3928 
 2010000   0.44468928    -9.724633     184.3542 0.0076432088 0.0057609849         3938 
 2011000   0.45243138    -9.746666    184.29212 0.0076368356  0.005755745         3924 
 2012000   0.44592018   -9.7316139    184.40004   0.00763751 0.0057505101         3923 
Loop time of 5172.05 on 48 procs for 2000000 steps with 4000 atoms

Performance: 66820.637 tau/day, 386.694 timesteps/s
99.4% CPU use with 48 MPI tasks x no OpenMP threads

MPI task timing breakdown:
Section |  min time  |  avg time  |  max time  |%varavg| %total
---------------------------------------------------------------
Pair    | 372.27     | 406.04     | 456.2      |  95.7 |  7.85
Neigh   | 35.399     | 36.763     | 38.889     |  14.8 |  0.71
Comm    | 312.87     | 367.8      | 401.33     | 111.7 |  7.11
Output  | 5.5018     | 5.5039     | 5.5431     |   0.2 |  0.11
Modify  | 4294       | 4307.3     | 4330.5     |  13.2 | 83.28
Other   |            | 48.62      |            |       |  0.94

Nlocal:        83.3333 ave          90 max          75 min
Histogram: 1 0 7 2 8 5 12 5 5 3
Nghost:        2387.98 ave        2407 max        2363 min
Histogram: 2 1 2 6 4 12 8 6 4 3
Neighs:        16287.9 ave       18592 max       14096 min
Histogram: 3 3 10 6 2 7 4 3 5 5
FullNghs:      32574.2 ave       35734 max       28270 min
Histogram: 1 0 3 6 5 13 7 6 5 2

Total # of neighbors = 1563560
Ave neighs/atom = 390.89000
Neighbor list builds = 106416
Dangerous builds = 0

#clear
#
#next RN
#
#jump SELF
Total wall time: 1:26:15
