
units lj                  # Use reduced LJ style units
atom_style atomic         # Uncharged point particles
atom_modify map hash      # Needed for indexing of clusters etc
                          # Used to be able to find where atoms are in relation to each other.

lattice fcc 1.0 spacing 1 1 1
Lattice spacing in x,y,z = 1.5874011 1.5874011 1.5874011
region box block 0 10 0 10 0 10 units lattice
create_box 2 box
Created orthogonal box = (0.0000000 0.0000000 0.0000000) to (15.874011 15.874011 15.874011)
  3 by 4 by 4 MPI processor grid
create_atoms 1 box
Created 4000 atoms
  using lattice units in orthogonal box = (0.0000000 0.0000000 0.0000000) to (15.874011 15.874011 15.874011)
  create_atoms CPU = 0.004 seconds
set type 1 type/fraction 2 0.56 78393
Setting atom values ...
  2252 settings made for type/fraction
mass 1 1.0
mass 2 1.0
pair_style lj/cut  3.5
pair_modify tail  yes
pair_coeff 1  1  1.0  1.0   # Intearaction between 1 and 1 set with epsilon = 1 and sigma = 1
pair_coeff 1  2  1.5  0.8
pair_coeff 2  2  0.5  0.88

write_data data.0
System init for write_data ...
Neighbor list info ...
  update every 1 steps, delay 10 steps, check yes
  max neighbors/atom: 2000, page size: 100000
  master list distance cutoff = 3.8
  ghost atom cutoff = 3.8
  binsize = 1.9, bins = 9 9 9
  1 neighbor lists, perpetual/occasional/extra = 1 0 0
  (1) pair lj/cut, perpetual
      attributes: half, newton on
      pair build: half/bin/atomonly/newton
      stencil: half/bin/3d
      bin: standard
WARNING: Not all mixed pair coeffs generated from mixing. Use write_data with 'pair ij' option to store all pair coeffs. (../write_data.cpp:312)


#############################
#   M E L T   S Y S T E M   #
#############################

velocity all create 2.4 8172548 mom yes dist gaussian # Assign velocities
                                                    # Temperature 2.4, random number seed, zero linear momentum
                                                                                # Gaussian distribution

timestep 0.002   # simulation timestep
thermo 1000       # output thermodynamic data every 1000 steps bf 100

# Define a fix  in this case with index 1 applied to all
# particles in the simulation. This fix is for simulations
# in the anisotropic NPT ensemble. Note that we use the MTK
# correction.
fix 1 all npt temp 2.4 2.4 0.1 iso 5.68 5.68 0.5 mtk yes tchain 5 pchain 5 # Use NPT ensemble
                                                                         # Set temperature and pressure and damping
                                                                         # Numbers of thermostats in chain and in barostat
run 10000          # run for 10000 steps
Per MPI rank memory allocation (min/avg/max) = 3.642 | 3.644 | 3.648 Mbytes
Step Temp E_pair E_mol TotEng Press Volume 
       0          2.4   -4.9459583            0   -1.3468583   -4.1435722         4000 
    1000    2.3970009   -4.6014615            0    -1.006859    5.6239401    3663.6872 
    2000    2.3916806   -4.6557714            0   -1.0691473      5.65446    3635.7134 
    3000    2.4030989   -4.6790932            0   -1.0753461    5.9587726    3614.1764 
    4000    2.3552045    -4.624444            0   -1.0925205    5.8905702    3631.9348 
    5000    2.3598831   -4.7170598            0   -1.1781201    5.6562229    3610.0735 
    6000    2.4154523   -4.6561704            0   -1.0338977    5.8468944    3627.3779 
    7000    2.3633956   -4.6860699            0   -1.1418628    5.7802298    3613.0443 
    8000    2.3627265   -4.7079021            0   -1.1646984    5.8994899    3597.3571 
    9000    2.4034987     -4.70166            0   -1.0973132    5.2131333    3654.4943 
   10000    2.4050105   -4.6861913            0   -1.0795775    5.5357279    3628.5368 
Loop time of 2.63596 on 48 procs for 10000 steps with 4000 atoms

Performance: 655549.824 tau/day, 3793.691 timesteps/s
99.6% CPU use with 48 MPI tasks x no OpenMP threads

MPI task timing breakdown:
Section |  min time  |  avg time  |  max time  |%varavg| %total
---------------------------------------------------------------
Pair    | 1.1971     | 1.2715     | 1.3653     |   2.7 | 48.24
Neigh   | 0.21746    | 0.22348    | 0.24103    |   0.8 |  8.48
Comm    | 0.79079    | 0.88631    | 0.95665    |   3.7 | 33.62
Output  | 0.00024341 | 0.00024905 | 0.00033071 |   0.0 |  0.01
Modify  | 0.22326    | 0.2389     | 0.26238    |   2.0 |  9.06
Other   |            | 0.01554    |            |       |  0.59

Nlocal:        83.3333 ave          92 max          76 min
Histogram: 3 6 3 6 6 14 5 0 1 4
Nghost:        1754.27 ave        1795 max        1721 min
Histogram: 3 4 7 6 5 10 7 3 2 1
Neighs:        10525.0 ave       11949 max        9492 min
Histogram: 4 3 9 3 14 7 2 2 2 2

Total # of neighbors = 505201
Ave neighs/atom = 126.30025
Neighbor list builds = 905
Dangerous builds = 195

# Equilibrate just above the melting temperature to avoid step fn in T

fix 1 all npt temp 1.25 1.25 0.1 iso 5.68 5.68 0.5 mtk yes tchain 5 pchain 5
run 2000
Per MPI rank memory allocation (min/avg/max) = 3.644 | 3.646 | 3.649 Mbytes
Step Temp E_pair E_mol TotEng Press Volume 
   10000    2.4050105   -4.6861913            0   -1.0795775    5.5357279    3628.5368 
   11000    1.2456367   -6.7675425            0   -4.8995546    5.8274201    2798.1437 
   12000    1.2334482   -6.8347138            0   -4.9850041    5.7633377    2782.1914 
Loop time of 0.66009 on 48 procs for 2000 steps with 4000 atoms

Performance: 523565.302 tau/day, 3029.892 timesteps/s
99.6% CPU use with 48 MPI tasks x no OpenMP threads

MPI task timing breakdown:
Section |  min time  |  avg time  |  max time  |%varavg| %total
---------------------------------------------------------------
Pair    | 0.30669    | 0.32413    | 0.36293    |   1.7 | 49.10
Neigh   | 0.041368   | 0.043201   | 0.048181   |   0.6 |  6.54
Comm    | 0.20515    | 0.24193    | 0.25969    |   2.1 | 36.65
Output  | 5.0824e-05 | 5.256e-05  | 6.7742e-05 |   0.0 |  0.01
Modify  | 0.038897   | 0.045821   | 0.051514   |   1.9 |  6.94
Other   |            | 0.00495    |            |       |  0.75

Nlocal:        83.3333 ave          92 max          74 min
Histogram: 1 1 4 7 6 14 8 2 3 2
Nghost:        2099.65 ave        2118 max        2074 min
Histogram: 1 0 1 4 4 17 8 10 2 1
Neighs:        13719.7 ave       15665 max       12085 min
Histogram: 3 2 6 8 8 10 5 3 2 1

Total # of neighbors = 658544
Ave neighs/atom = 164.63600
Neighbor list builds = 141
Dangerous builds = 8

#############################
# L I N E A R  Q U E N C H  #
#############################

# Define solid atoms. This closely follows ten Wolde  Ruiz-Montero and Frenkel  Faraday Discuss  1996  104  93-110
# Compute components of the per-atom q6 vector
compute q6 all orientorder/atom degrees 1 6 components 6 nnn NULL cutoff 1.3 # compute the Q6 parameter.
                                                                             # Use all neighbours within 1.3 unit cell.

# get number of connections
compute coord_number all coord/atom orientorder q6 0.5

# An atom is solid if it has 8 or more connections (of a possible 14)
variable is_solid atom c_coord_number>=8
group solid dynamic all var is_solid    # Must be dynamic to update
dynamic group solid defined

# do clustering
compute cluster solid cluster/atom 1.3 # Create a cluster where all atoms within are solid and max 1.3 units from another member

# define chunks one chunk per cluster
compute clus_chunks solid chunk/atom c_cluster nchunk every compress yes  # Says which atoms are in which chunk

# count the size of each chunk
compute size_chunks solid property/chunk clus_chunks count


# Find the maximum entry in the vector of chunk sizes
variable max_n equal max(c_size_chunks)


# Thermo style which includes this variable
# thermo_style custom step temp pe vol v_max_n

thermo ${N}  # Print the thermo information every 100 steps
thermo 1000  

# Reset the npt fix at a lower temperature (below freezing)
fix 1  all npt temp  ${temp} ${temp}  0.1  iso  5.68  5.68  0.5  mtk yes tchain  5  pchain  5
fix 1  all npt temp  0.45 ${temp}  0.1  iso  5.68  5.68  0.5  mtk yes tchain  5  pchain  5
fix 1  all npt temp  0.45 0.45  0.1  iso  5.68  5.68  0.5  mtk yes tchain  5  pchain  5

dump dmp2 all dcd ${N} traj.dcd
dump dmp2 all dcd 1000 traj.dcd


compute msd all msd com yes
variable twopoint equal c_msd[4]/6/(step*dt+1.0e-6)
fix 9 all vector 10 c_msd[4]
variable fit equal slope(f_9)/6/(10*dt)
thermo_style custom step temp pe c_msd[4] v_twopoint v_fit v_max_n

fix 1 all npt temp 1.25 ${temp} 0.1 iso 5.68 5.68 0.5 mtk yes tchain 5 pchain 5
fix 1 all npt temp 1.25 0.45 0.1 iso 5.68 5.68 0.5 mtk yes tchain 5 pchain 5
run 2000000 # 5000000  # Run for this many steps
Neighbor list info ...
  update every 1 steps, delay 10 steps, check yes
  max neighbors/atom: 2000, page size: 100000
  master list distance cutoff = 3.8
  ghost atom cutoff = 3.8
  binsize = 1.9, bins = 8 8 8
  4 neighbor lists, perpetual/occasional/extra = 1 3 0
  (1) pair lj/cut, perpetual
      attributes: half, newton on
      pair build: half/bin/atomonly/newton
      stencil: half/bin/3d
      bin: standard
  (2) compute orientorder/atom, occasional
      attributes: full, newton on
      pair build: full/bin/atomonly
      stencil: full/bin/3d
      bin: standard
  (3) compute coord/atom, occasional
      attributes: full, newton on
      pair build: full/bin/atomonly
      stencil: full/bin/3d
      bin: standard
  (4) compute cluster/atom, occasional
      attributes: full, newton on
      pair build: full/bin/atomonly
      stencil: full/bin/3d
      bin: standard
Per MPI rank memory allocation (min/avg/max) = 9.846 | 9.850 | 9.854 Mbytes
Step Temp PotEng c_msd[4] v_twopoint v_fit v_max_n 
   12000    1.2334482   -6.8347138 9.7937081e-31 6.8011859e-33 8.3333333e+20            3 
   13000    1.2552544   -6.8789832   0.47589611  0.003050616  0.038455674            4 
   14000    1.2634448   -6.8940992   0.92304854 0.0054943364  0.038055683            3 
   15000    1.2624188   -6.8544511    1.3769431 0.0076496838  0.037485047            1 
   16000    1.2425542   -6.8937376    1.7793023 0.0092671991  0.036887476            1 
   17000    1.2561795   -6.8744491    2.1950138  0.010759871  0.036156971            2 
   18000    1.2517729   -6.8554204    2.6008586  0.012041012   0.03566222            1 
   19000    1.2483427   -6.8505565    3.0874706  0.013541537  0.035705069            1 
   20000    1.2339113    -6.873192    3.4903506  0.014543127  0.035755111            2 
   21000    1.2505156   -6.8891016    3.9270028  0.015583344  0.035864108            2 
   22000    1.2773781   -6.9068893    4.2971117  0.016276938  0.035674281            2 
   23000    1.2368495   -6.8890505    4.7118486  0.017071915  0.035442516            4 
   24000    1.2540325   -6.9351506    5.0330171  0.017475753  0.035144165            3 
   25000    1.2652791   -6.9096706    5.4789717  0.018263239  0.034806923            1 
   26000    1.2411371   -6.9012969    5.9604628  0.019104047  0.034770691            3 
   27000    1.2488916   -6.8862571    6.4024788  0.019760737  0.034844495            3 
   28000    1.2240153   -6.9019529    6.7502397  0.020089999   0.03484002            1 
   29000    1.2327619   -6.8849992      7.18991  0.020660661   0.03476191            2 
   30000    1.2013216   -6.9315432    7.5683823  0.021023284  0.034716462            2 
   31000    1.2513124   -6.8846602    7.9616177  0.021402198  0.034683019            3 
   32000    1.2254297   -6.8906422    8.4270084  0.021945334   0.03467512            1 
   33000    1.2232126   -6.9362064    8.7361034  0.022060867  0.034614943            2 
   34000    1.2523172   -6.9411236    9.1787585  0.022496957  0.034550996            3 
   35000    1.2323244   -6.9173237    9.5989032  0.022854531  0.034468373            2 
   36000    1.2401402   -6.8901591    10.056861   0.02327977  0.034440089            2 
   37000    1.2169034    -6.907991    10.434757  0.023501704  0.034428998            1 
   38000    1.2476711   -6.9221664    10.853671   0.02380191  0.034406623            2 
   39000    1.2434479    -6.943495    11.223385  0.023981591  0.034388288            2 
   40000    1.2251288   -6.9444194    11.656579  0.024284539  0.034369366            4 
   41000    1.2345177    -6.962536    12.013683  0.024418055  0.034349169            2 
   42000    1.2478111   -6.9109948    12.355909  0.024515693  0.034305777            2 
   43000    1.2418849   -6.9764063    12.742874  0.024695492  0.034246306            2 
   44000    1.2364094   -6.9057511    13.220996  0.025039765  0.034197318            2 
   45000    1.2154575    -6.895277    13.676011  0.025325947  0.034180907            2 
   46000    1.2382302   -6.9536513    13.880571  0.025145962  0.034130242            3 
   47000    1.2235769   -6.9516912    14.198826  0.025175223   0.03403948            2 
   48000    1.2474892   -6.9275012    14.613084  0.025369937  0.033933755            3 
   49000    1.2471767    -6.961473    15.066488  0.025623279   0.03384789            4 
   50000    1.2529806   -6.9156423    15.365159  0.025608598  0.033767346            6 
   51000    1.2227201   -6.9310404    15.861491  0.025917469  0.033695694            3 
   52000     1.236871   -6.9123974    16.193011  0.025950338  0.033647377            3 
   53000    1.2231716   -6.9249786    16.577989   0.02606602  0.033596954            2 
   54000    1.2292791   -6.9212569    16.902551  0.026084183  0.033537052            3 
   55000    1.2492989   -6.9171258    17.298389  0.026209681  0.033460387            5 
   56000    1.2329512   -6.9317148    17.734834  0.026391121  0.033406561            2 
   57000    1.2401855   -6.9263118    18.222286  0.026640769  0.033374549            2 
   58000    1.2779335   -6.9529124    18.536051  0.026632258  0.033350725            1 
   59000    1.2066429   -6.9377182    18.968529  0.026791708  0.033323785            2 
   60000    1.2106776   -6.9380393    19.336958  0.026856886   0.03330029            3 
   61000    1.2237259   -6.9758608    19.780144  0.027022054  0.033273765            4 
   62000     1.230616   -6.9056158    20.270594  0.027245421  0.033262702            3 
   63000    1.2291836    -6.922327    20.675019  0.027347908  0.033254435            2 
   64000    1.2488454   -6.9810362     21.00596   0.02735151  0.033265903            1 
   65000     1.249912   -6.9650793    21.469328   0.02752478   0.03326529            1 
   66000    1.2395625   -6.9831208    21.818475  0.027548579  0.033266796            2 
   67000    1.2298572   -6.9506743    22.384527  0.027841451  0.033262521            1 
   68000     1.216648   -6.9330439    22.810416  0.027953941  0.033283135            4 
   69000    1.2086051   -6.9110118    23.206899  0.028027656  0.033305128            2 
   70000    1.2332033   -6.9407898    23.626869  0.028127225  0.033322235            3 
   71000    1.2449431   -6.9215618    23.963028  0.028125619  0.033344228            4 
   72000    1.2094753   -6.9308104    24.372876  0.028209347  0.033348356            3 
   73000    1.2378739     -6.93913     24.71059  0.028208435  0.033355739            3 
   74000    1.2205969   -6.9580401    25.068844   0.02823068  0.033354707            4 
   75000    1.2164901    -6.923614    25.534811  0.028372012  0.033349313            2 
   76000    1.2274876   -6.9610405    25.820491  0.028311942  0.033340219            4 
   77000    1.2415563   -6.9583783     26.14181  0.028292001  0.033313496            1 
   78000    1.2603647   -6.9376782    26.459745  0.028268958  0.033288788            2 
   79000    1.2371827   -6.9712249    26.833951  0.028305855  0.033265658            1 
   80000    1.2289231   -6.9521027    27.208623  0.028342316  0.033242181            2 
   81000    1.2470175    -6.949787     27.62594  0.028421749  0.033221487            2 
   82000    1.1975047   -6.9695955     28.03362  0.028489451  0.033204464            3 
   83000    1.2094504   -6.9664374    28.437066  0.028551271  0.033184252            2 
   84000    1.2277509   -6.9321432    28.788751  0.028560269  0.033165564            6 
   85000    1.2343452   -6.9314401    29.144198  0.028572743  0.033141201            2 
   86000    1.2063503   -6.9542848    29.587692  0.028670244   0.03312755            2 
   87000    1.2346676   -6.9821639    29.905311  0.028644934   0.03310544            2 
   88000    1.2379947    -6.946799    30.386648  0.028775234    0.0330899            2 
   89000    1.2271387   -6.9620268     30.71935  0.028763436  0.033076052            1 
   90000    1.2122971   -6.9880422    30.955628  0.028662619  0.033057735            2 
   91000    1.2147204   -6.9547199    31.321964  0.028683117  0.033029204            5 
   92000    1.2555544    -7.000394    31.499523  0.028532176  0.032998527            1 
   93000    1.2193369   -6.9379311    31.925113  0.028606732  0.032953616            1 
   94000    1.2192578   -6.9535639    32.245024  0.028586014  0.032914741            1 
   95000    1.2469477   -6.9450403    32.590466  0.028588128  0.032870396            3 
   96000    1.2328303   -6.9335717    33.028776  0.028670812  0.032833695            1 
   97000    1.2202915    -6.936354    33.351408  0.028652413  0.032791208            5 
   98000    1.2191074   -6.9977715    33.518433  0.028502068  0.032737293            2 
   99000    1.2299553   -6.9574548    33.880956  0.028519323  0.032691495            3 
  100000    1.2287251   -6.9234039    34.441748  0.028701456  0.032645749            2 
  101000    1.2352327   -6.9525438    34.627886  0.028570863  0.032604607            4 
  102000    1.2059601   -6.9905527    34.941224  0.028546751  0.032558367            2 
  103000    1.2204908   -7.0027987    35.291981  0.028553382  0.032514387            1 
  104000    1.2292933   -6.9934986    35.730282  0.028630033  0.032467715            2 
  105000    1.2077476   -6.9669835    35.965264   0.02854386  0.032420962            2 
  106000    1.1856163   -6.9921171    36.381962  0.028602172  0.032377097            6 
  107000    1.2070476    -6.976946    37.044189  0.028850614  0.032341686            1 
  108000    1.2078043   -6.9817721    37.233642  0.028729662  0.032310745            1 
  109000    1.2136599   -6.9770176    37.710915  0.028830975  0.032282929            4 
  110000    1.2092938   -6.9618817    38.324071  0.029033387  0.032258985            1 
  111000     1.185741   -6.9699845    38.523431  0.028921495  0.032239321            2 
  112000    1.2170045   -6.9622434    38.998617  0.029016828  0.032219272            3 
  113000    1.2054993   -7.0167585    39.204673     0.028912  0.032197139            3 
  114000    1.2135891      -6.9769    39.424151  0.028818824  0.032171346            2 
  115000    1.1997133   -6.9972301    39.862353  0.028885763  0.032147422            2 
  116000    1.2021602   -6.9851389    40.384889  0.029012133  0.032127553            2 
  117000    1.2167811   -6.9425925    40.931542   0.02915352  0.032106948            2 
  118000    1.1841915   -6.9536259    41.092339  0.029020013  0.032086964            1 
  119000    1.2226039   -7.0028827    41.415784   0.02900265   0.03206879            3 
  120000    1.2275844   -6.9721435    42.023504  0.029182989  0.032054808            4 
  121000    1.2018718   -6.9712669     42.52418  0.029286626  0.032046097            3 
  122000    1.2238334    -6.998694    42.909352  0.029309666  0.032041251            2 
  123000    1.2111725   -7.0243076    43.226617  0.029286326  0.032037153            2 
  124000    1.2297322   -6.9771834    43.692468  0.029363218  0.032031057            2 
  125000    1.2180325   -6.9742954    44.038889  0.029359259  0.032022607            3 
  126000    1.1882623   -7.0459476    44.112701  0.029175066   0.03201143            2 
  127000    1.1955856   -7.0749766    44.470394  0.029180048  0.031993661            2 
  128000     1.217828   -6.9942476    44.897773  0.029230321  0.031978156            3 
  129000    1.2092796   -7.0378691    45.076379  0.029119108  0.031961947            4 
  130000    1.1924935   -7.0336024     45.44981  0.029134493  0.031942781            1 
  131000    1.1657912   -7.0811509    45.789223  0.029128004  0.031924542            6 
  132000    1.2127248   -7.0062191    46.077748  0.029089487  0.031902258            6 
  133000    1.1855444   -6.9701311    46.659812  0.029235471  0.031879934            3 
  134000    1.2060202   -7.0112151    46.870747  0.029148474   0.03185952            1 
  135000    1.2180716   -6.9696713    47.180839  0.029123975  0.031840969            4 
  136000    1.1910071   -6.9558779     47.75054  0.029258909  0.031823423            3 
  137000    1.2103953    -7.034349    48.237659  0.029341642  0.031808812            2 
  138000    1.2122776     -7.02102     48.61246   0.02935535  0.031797228            3 
  139000    1.1949161   -6.9894851    48.989421  0.029370156  0.031787096            4 
  140000    1.1805363   -7.0555158    49.142493  0.029251484  0.031774643            6 
  141000    1.1893471   -6.9851625    49.888139  0.029484716  0.031763171            3 
  142000    1.2098094   -7.0428145     50.10146  0.029402265  0.031753409            2 
  143000    1.2097427   -6.9999177    50.415465  0.029379642  0.031744441            4 
  144000    1.1906628   -7.0116538     51.07656  0.029558194  0.031737733            3 
  145000    1.2129855   -7.0370285    51.054423  0.029341622  0.031726792            4 
  146000    1.1768239   -7.0096244    51.682548  0.029499171  0.031714596            3 
  147000    1.1591142   -7.0123255    51.964276  0.029458206  0.031708375            3 
  148000    1.1852585   -7.0294549    52.113662  0.029343278  0.031698564            5 
  149000    1.1793304   -7.0085286    52.569023   0.02940102  0.031686178            3 
  150000    1.1849825   -7.0514403    52.712069  0.029284482   0.03167468            4 
  151000    1.1964865    -7.034118    53.137605  0.029325389  0.031656287            4 
  152000    1.2007211   -7.0390707    53.161464   0.02914554  0.031638473            7 
  153000    1.2021745   -7.0399563    53.597627  0.029192607  0.031617394            3 
  154000    1.1920015   -7.0599349     53.71399  0.029066012  0.031595741            2 
  155000    1.1715443   -7.0039248    54.398406  0.029246455  0.031573922            2 
  156000    1.1996705   -7.0115944    54.572619   0.02915204  0.031556017            3 
  157000    1.2020031   -7.0468673    54.946865  0.029165003  0.031536893            2 
  158000    1.1930155   -7.0021133     55.17624  0.029101392  0.031513504            1 
  159000    1.1764785    -7.003793     55.74422  0.029216048  0.031490844            2 
  160000     1.188038   -7.1036416     55.82952  0.029077875  0.031466136            2 
  161000    1.1901578   -6.9854992    56.266838  0.029123622  0.031443159            3 
  162000    1.1876138   -7.0756591    56.115307  0.028865899  0.031416493            5 
  163000    1.1748375   -7.0242966    56.731174  0.029003667  0.031386774            3 
  164000    1.1799864   -7.0466902    56.964224  0.028945236  0.031359568            1 
  165000    1.2158444   -7.0427279    57.463556  0.029021998  0.031331123            1 
  166000    1.1822852   -7.0383281    57.654038   0.02894279  0.031304402            2 
  167000     1.231836   -7.0193056    58.013073  0.028948639  0.031276025            4 
  168000    1.2039663   -7.0461482    58.429409  0.028982842  0.031249057            3 
  169000    1.1890142   -6.9962886    58.751523  0.028970179  0.031221022            2 
  170000    1.1749956   -7.0506088    58.930647  0.028887572  0.031193237            6 
  171000    1.1834077   -6.9768467    59.405154   0.02894988  0.031165441            2 
  172000    1.1815077   -7.0835833    59.291183  0.028726348  0.031135369            3 
  173000    1.1683409   -7.0561483    59.642309  0.028729436  0.031102262            2 
  174000    1.1794354   -7.0361117    60.108688  0.028787686  0.031070452            2 
  175000    1.1797317   -7.0567426     60.55714  0.028836733  0.031041825            3 
  176000    1.1592857   -7.0564578    60.884704  0.028827985  0.031012542            2 
  177000    1.1678873   -7.0511699    61.096386  0.028764777  0.030983793            2 
  178000    1.1852641   -7.0557655     61.70257  0.028886971   0.03095836            3 
  179000    1.1917966   -7.0676231    61.991994  0.028860332  0.030934599            3 
  180000    1.1931151   -7.0956583     62.18484  0.028789278   0.03091105            3 
  181000    1.1874022    -7.056889    62.723146   0.02887806   0.03088805            1 
  182000    1.1868848   -7.0740105    62.884076  0.028793075  0.030865009            2 
  183000    1.2080525   -7.0255729    63.489911  0.028911617  0.030841797            3 
  184000    1.1662707   -7.0791213    63.515562  0.028766106  0.030820844            4 
  185000    1.1775413   -7.0560166    64.338213  0.028981177  0.030799178            4 
  186000    1.1565147   -7.0567626    64.529599   0.02891111  0.030779256            2 
  187000    1.1735274   -7.0480962    65.216906  0.029062792   0.03076211            2 
  188000     1.189881   -7.0810804    65.280599  0.028936436  0.030745525            7 
  189000    1.1761705   -7.1077928    65.459059  0.028862019  0.030725489            2 
  190000    1.1702353   -7.0639959    65.994607  0.028945003  0.030707734            2 
  191000    1.1600356   -7.0537262    66.362121  0.028953805  0.030689397            4 
  192000    1.1820243   -7.0752323    66.337849  0.028792469   0.03067011            2 
  193000    1.1701813   -7.1048682    66.451191  0.028692224  0.030648945            3 
  194000    1.1664638    -7.105043    66.628597  0.028620531  0.030625608            4 
  195000    1.1687863   -7.0660041    67.017901  0.028640129  0.030599621            3 
  196000    1.1541367   -7.1011951     67.27941  0.028605191  0.030573435            3 
  197000     1.166379   -7.1035984    67.813131  0.028685758  0.030549866            3 
  198000    1.1961086   -7.0678544    68.265044  0.028731079  0.030525513            4 
  199000    1.1834651   -7.1288394    68.414663  0.028649356  0.030501204            3 
  200000    1.1632437   -7.0877387    68.969095  0.028737123  0.030477203            4 
  201000     1.184085   -7.0823899    69.385624  0.028766843  0.030456382            2 
  202000    1.1611807   -7.0425194    69.694347  0.028751793  0.030437125            3 
  203000    1.1631906   -7.0860917    70.300527  0.028859001  0.030419801            6 
  204000    1.1313575   -7.0583894    70.512046   0.02880394  0.030401084            1 
  205000    1.1605768   -7.0820172    71.007677  0.028864909   0.03038288            3 
  206000    1.1564589   -7.0476213     71.32586  0.028853503  0.030366492            1 
  207000    1.1702244   -7.0695092    71.197262  0.028662344  0.030349777            2 
  208000    1.1573868   -7.0965472    71.639593   0.02870176  0.030331661            4 
  209000    1.1772464   -7.0639574    72.391766   0.02886434  0.030314485            2 
  210000    1.1932401   -7.0336616    72.612522  0.028814493  0.030299249            3 
  211000     1.174063   -7.0732331    72.540748  0.028649584  0.030281327            5 
  212000    1.1960091   -7.1365162    72.712007  0.028581764  0.030260588            4 
  213000    1.1778115   -7.1171301    73.358847  0.028700644  0.030238943            3 
  214000    1.1617836   -7.1122879    73.464916  0.028607833  0.030218073            1 
  215000    1.1680717   -7.0707511    73.946679  0.028661503  0.030198277            3 
  216000    1.1520814   -7.1060237    74.241667  0.028642618  0.030177477            2 
  217000    1.1524821   -7.0939628    74.427463  0.028581975  0.030154948            2 
  218000    1.1851313   -7.1081183    74.803645  0.028594666  0.030134528            4 
  219000    1.1420374   -7.0987877    75.272529  0.028642515  0.030115177            4 
  220000    1.1806914   -7.0816332    75.692126   0.02867126  0.030096748            2 
  221000      1.18223   -7.0967061    76.094312  0.028693179  0.030080237            3 
  222000    1.1632788   -7.0806693     76.37815  0.028670476  0.030062812            2 
  223000    1.1620984   -7.1312027    76.585532  0.028619406  0.030043109            2 
  224000    1.2051428   -7.1458757    76.665386  0.028521349  0.030022458            2 
  225000    1.1554782   -7.1125658    77.059465  0.028540543  0.030004268            2 
  226000      1.17049   -7.1161518    77.743989  0.028666663  0.029987816            1 
  227000    1.1659847   -7.1198324    78.340715   0.02875944  0.029974211            5 
  228000    1.1692848    -7.093557    78.795281  0.028799445  0.029962239            3 
  229000    1.1612763    -7.125385    79.110924  0.028788546  0.029951518            3 
  230000    1.1497974   -7.1036577    79.557656  0.028825238  0.029939886            2 
  231000     1.171068   -7.1916922    79.548234  0.028697054  0.029928216            3 
  232000    1.1364915   -7.1237598    80.006699  0.028738038  0.029916007            1 
  233000    1.1629446   -7.1209492    79.943021  0.028591924  0.029902463            4 
  234000    1.1824996   -7.1441235    80.210599  0.028565028    0.0298897            2 
  235000    1.1503765   -7.1728683    80.390695  0.028507338  0.029875584            5 
  236000    1.1599558   -7.1286863    80.781045   0.02852438  0.029860251            3 
  237000    1.1638793   -7.1112225    81.484304  0.028651302  0.029844519            1 
  238000    1.1473873   -7.0769096     81.81774  0.028647668  0.029832422            2 
  239000    1.1519255   -7.0764165    82.261813  0.028682641  0.029820166            3 
  240000    1.1677793   -7.1076331    82.181051  0.028535087  0.029806815            3 
  241000    1.1600643   -7.1105808     82.46624  0.028515297  0.029793087            3 
  242000     1.144085   -7.1257873    82.776843  0.028504423  0.029776902            5 
  243000    1.1501049   -7.0969492     83.01026  0.028467167  0.029760016            4 
  244000    1.1790696    -7.159236    83.418595  0.028489957   0.02974348            4 
  245000    1.1539551   -7.1459915    83.383984  0.028361899  0.029726032            2 
  246000    1.1592791   -7.1245883    83.845193  0.028402843  0.029708978            1 
  247000    1.1926861   -7.1466601    83.934044  0.028317829  0.029691119            2 
  248000    1.1636788   -7.1165619    84.501957  0.028394475  0.029672307            3 
  249000    1.1417179   -7.1218807    84.552425  0.028297331  0.029653256            2 
  250000     1.171119   -7.1329683    84.728365  0.028242788  0.029634816            4 
  251000    1.1346259     -7.11216    85.240248  0.028300215  0.029615215            3 
  252000    1.1558804   -7.1598665    85.208178  0.028177308  0.029595617            2 
  253000    1.1470616   -7.1154446    85.568416   0.02818459  0.029574985            2 
  254000    1.1393409   -7.1290174    85.850956  0.028166324  0.029553683            1 
  255000    1.1523026   -7.1275641    86.094028  0.028135303  0.029532547            1 
  256000    1.1592352   -7.1203874     86.45763   0.02814376  0.029510679            3 
  257000    1.1383347   -7.1307909    86.822323  0.028152504  0.029489909            3 
  258000    1.1378724    -7.112336    87.008566  0.028103542  0.029468076            2 
  259000    1.1715426   -7.1426214    87.299775  0.028088731  0.029446845            4 
  260000     1.164381   -7.1108125    87.797071  0.028140087  0.029425913            3 
  261000    1.1174914   -7.1587758    87.937598  0.028077138  0.029406016            2 
  262000    1.1579661   -7.0901686    88.494883  0.028147227  0.029387253            2 
  263000    1.1609356   -7.1653206    88.638753   0.02808579  0.029367819            5 
  264000    1.1728875   -7.1641192     89.11511  0.028129769  0.029347944            3 
  265000     1.136437   -7.1585733    89.066144  0.028008221  0.029326997            3 
  266000     1.148741   -7.1529311    89.497056  0.028037925  0.029306819            5 
  267000    1.1269013   -7.1257524    89.594404  0.027963297   0.02928584            2 
  268000    1.1417212   -7.0920108    89.917778  0.027959508   0.02926532            3 
  269000    1.1331908   -7.1418658    90.183279  0.027937819  0.029243402            4 
  270000    1.1564962   -7.1718082     90.29035  0.027867392  0.029222415            2 
  271000      1.16024   -7.1489365    90.148462  0.027720929  0.029200015            3 
  272000    1.1357024   -7.1618968    90.269355  0.027656052  0.029175512            2 
  273000    1.1406109   -7.1133775     91.38669  0.027895815  0.029151528            4 
  274000    1.1533943   -7.1683887     91.06885  0.027697339  0.029127188            4 
  275000    1.1442137   -7.1945196    91.133779  0.027616296   0.02910178            1 
  276000     1.136647   -7.1832076    91.344567  0.027579881  0.029075394            3 
  277000    1.1644438   -7.1578917    91.513103  0.027531018  0.029048214            2 
  278000    1.1156648   -7.1482385    91.860439  0.027536103  0.029021076            2 
  279000    1.1366921   -7.1538996    92.342005  0.027581244  0.028995119            2 
  280000    1.1429309   -7.1678556    92.520279  0.027535797  0.028968652            6 
  281000    1.1309058   -7.1754895    92.617874  0.027466748  0.028941884            3 
  282000    1.1338019   -7.1330348    93.067413  0.027502191  0.028914641            4 
  283000    1.1243598   -7.1542045    93.072813    0.0274066  0.028886892            4 
  284000    1.1399045   -7.1503972    93.523797  0.027442429  0.028860155            3 
  285000    1.1604272   -7.1286347    93.805603  0.027428539  0.028833632            4 
  286000    1.1294755   -7.1679642     94.02767   0.02739734  0.028807208            2 
  287000    1.1347775   -7.1337548     94.40087  0.027410241  0.028780196            2 
  288000    1.1239241   -7.1661191      94.2484  0.027270949  0.028753057            3 
  289000     1.147831   -7.1687542    94.689261  0.027303708  0.028725532            6 
  290000    1.1274729   -7.1990392    94.866502  0.027260489   0.02869676            2 
  291000    1.1136323   -7.1721232    94.794638  0.027146231  0.028667813            5 
  292000     1.158109   -7.1555654    95.210668  0.027171994  0.028638287            4 
  293000    1.1377164   -7.1528051    95.494917  0.027160102  0.028608604            2 
  294000    1.1382505   -7.1782102    95.296442  0.027011463  0.028578785            4 
  295000    1.1118544    -7.191905    95.718837  0.027039219  0.028550075            4 
  296000    1.1346155    -7.197335    96.216342  0.027087934  0.028520926            8 
  297000    1.1843515   -7.1794279    96.499308  0.027076125  0.028491794            4 
  298000    1.1247249   -7.1588794    97.283682  0.027204609  0.028464002            2 
  299000    1.1252953   -7.1302113    97.129097   0.02707054  0.028436907            1 
  300000    1.1612545   -7.1949791    97.216188  0.027004497  0.028408708            3 
  301000    1.1442908   -7.1413921    97.702868   0.02704952  0.028380832            2 
  302000    1.1389598   -7.1785635    97.744665  0.026971486  0.028353278            4 
  303000    1.1115973   -7.1942405    98.286669  0.027031537  0.028325646            5 
  304000    1.1177098   -7.1841287    98.473125   0.02699373   0.02829875            4 
  305000    1.1382524   -7.1712787    98.675401  0.026960492  0.028272156            1 
  306000    1.1407597   -7.1610957    99.135992  0.026997819  0.028245769            1 
  307000    1.1591648   -7.1928251    99.332673  0.026963266  0.028219855            2 
  308000    1.1308769   -7.1632922    99.739502  0.026985796  0.028193876            4 
  309000    1.1170879    -7.195121     100.0625  0.026985572  0.028168657            3 
  310000    1.0994799   -7.1705554    100.41029  0.026992013   0.02814388            4 
  311000    1.1243074   -7.2458051    100.59386  0.026954409  0.028120001            3 
  312000    1.1180354   -7.1687349    101.20809  0.027032075  0.028096634            1 
  313000    1.1294882   -7.2038068     101.2355  0.026953009  0.028073068            9 
  314000    1.1300085   -7.1613089    101.23557  0.026867191  0.028048751            2 
  315000    1.1339001   -7.2138325    101.70038  0.026904862   0.02802505            3 
  316000    1.1193623   -7.2176693    102.41121  0.027007174  0.028002274            3 
  317000    1.1241624    -7.194934    102.56461  0.026962306  0.027980433            5 
  318000    1.1379416   -7.2012167    102.84485  0.026950956  0.027959096            2 
  319000    1.1199263   -7.2129142    103.23656  0.026968798  0.027938721            3 
  320000    1.1406107   -7.1935876    103.47251  0.026945966  0.027917682            6 
  321000    1.1114177   -7.1901551    103.82293  0.026952994  0.027896529            3 
  322000    1.1125529   -7.1707243    103.89195  0.026887151  0.027876347            5 
  323000    1.1317913   -7.2060835    103.73401  0.026763161  0.027854593            3 
  324000    1.1334172   -7.2476741    104.11401  0.026778295  0.027832205            2 
  325000    1.1195291   -7.2294081    104.58595  0.026816911  0.027809765            2 
  326000     1.108776    -7.221924    104.65504   0.02675231  0.027787267            2 
  327000    1.0968623   -7.2421271    104.80328  0.026708277  0.027764174            3 
  328000     1.118675   -7.1989681    104.97326  0.026670035  0.027740695            2 
  329000    1.1362222   -7.2046548     105.2916  0.026669605  0.027717378            3 
  330000     1.146421    -7.184063    105.75525  0.026705871  0.027693888            2 
  331000    1.1219735   -7.2141807    105.58902  0.026583338  0.027670314            1 
  332000      1.11763   -7.2538682    105.95402  0.026594885  0.027647079            4 
  333000    1.1174195    -7.210477    106.39107  0.026624391  0.027623504            2 
  334000    1.1226614   -7.2345493    106.67627  0.026615837  0.027600914            2 
  335000    1.1504035   -7.2467099    106.86493  0.026583315   0.02757704            2 
  336000    1.1270755    -7.238673    106.67835  0.026457925  0.027553214            5 
  337000    1.1091137   -7.2286098    107.20859  0.026510532  0.027528791            1 
  338000    1.1260937   -7.2182111    107.76485  0.026569244  0.027504678            2 
  339000    1.1320527   -7.2099687    107.58682  0.026447103  0.027480964            3 
  340000    1.1363228   -7.2235353    108.37696   0.02656298   0.02745744            4 
  341000    1.1069665   -7.1819124    108.58868  0.026536822  0.027434419            3 
  342000    1.1226312    -7.174129    109.18164  0.026603712  0.027412599            2 
  343000    1.0982351    -7.205068    109.27502  0.026548838  0.027391371            5 
  344000    1.1400103   -7.2163115    109.09438  0.026427903   0.02736954            3 
  345000     1.097778   -7.2446821     109.2265  0.026383212  0.027347197            4 
  346000    1.1385362   -7.1889619    109.48393  0.026368962  0.027324909            3 
  347000    1.1184863   -7.2386842    109.68826  0.026342041  0.027301123            4 
  348000    1.1451992   -7.2455487    109.46464  0.026212797    0.0272772            4 
  349000    1.0973815   -7.2252846     109.7491  0.026205611  0.027252767            4 
  350000    1.1478911   -7.2057331    110.57705  0.026327869  0.027228941            3 
  351000    1.1154897   -7.2058805    111.07681  0.026371512  0.027206282            4 
  352000    1.0788131   -7.2572198     110.8155  0.026234729  0.027183708            3 
  353000    1.1251786    -7.217713    111.42907  0.026305256  0.027161803            2 
  354000    1.0852803   -7.2011245    111.85181  0.026330464  0.027140875            3 
  355000    1.0980837   -7.2289092    112.09513  0.026313411  0.027119814            5 
  356000    1.1137726   -7.2088154    112.45324  0.026323323  0.027098472            4 
  357000    1.1362684   -7.2226557    112.57124  0.026277134  0.027078084            3 
  358000     1.103741   -7.2096233    113.14333  0.026336901  0.027057717            6 
  359000    1.1341094   -7.2439389    112.79221  0.026182036  0.027036905            5 
  360000    1.1257605   -7.2793527    112.95523  0.026147043  0.027015649            1 
  361000    1.1089057   -7.2860636    113.29012   0.02615192  0.026993846            4 
  362000    1.1386894   -7.2555307    113.71614  0.026177749  0.026973673            3 
  363000    1.1089857   -7.2377515    114.20837  0.026218633   0.02695389            2 
  364000     1.105513   -7.2282972    114.41056  0.026192895  0.026933832            2 
  365000    1.1041635   -7.2232041    115.03064  0.026262704   0.02691345            3 
  366000    1.1317704   -7.2474744     114.7501  0.026127072  0.026893608            3 
  367000    1.1189568    -7.269883    115.17321  0.026151956  0.026874096            2 
  368000    1.0885913   -7.2539431    115.20566  0.026088238  0.026853707            4 
  369000    1.0925085    -7.273326    115.85115  0.026163314  0.026833045            7 
  370000    1.0995621   -7.2589443    115.67356  0.026052602  0.026812498            2 
  371000    1.1288225   -7.2597702    115.93151  0.026040321  0.026791515            2 
  372000     1.085418   -7.2629977    115.57809  0.025891149   0.02677004            2 
  373000    1.0980648   -7.2918417    115.82358  0.025876581  0.026747283            3 
  374000    1.0970877   -7.2672898    116.21252  0.025894055  0.026726279            2 
  375000    1.1304123   -7.2950041     116.5303  0.025895623  0.026704836            3 
  376000    1.1321603   -7.2552713    117.09518  0.025951946  0.026683722            4 
  377000    1.1071654   -7.2802305    117.25221  0.025917818  0.026662301            3 
  378000    1.0870856   -7.2528245    117.75352  0.025959771  0.026642015            2 
  379000    1.0957185   -7.2745308    117.67568  0.025874161  0.026621645            3 
  380000    1.1075225   -7.2723899    118.27811  0.025938181  0.026600745            5 
  381000    1.1063132   -7.2706447    118.19045  0.025850929  0.026580588            6 
  382000    1.1012862   -7.2478633    118.82826  0.025922395  0.026560864            2 
  383000    1.0750133   -7.3099661    118.37891  0.025756943   0.02654046            6 
  384000    1.0694304   -7.2780078    118.98112  0.025820555  0.026520121            3 
  385000    1.1162753   -7.2695658    119.00015  0.025757608  0.026499511            3 
  386000    1.1011636   -7.2680104    119.18601  0.025731003  0.026479194            4 
  387000     1.083954   -7.2862093    119.72845  0.025781321  0.026458791            2 
  388000    1.0897812   -7.2637131    119.86427  0.025744044  0.026439157            3 
  389000    1.0809091   -7.3287565    120.09568  0.025727438  0.026418942            3 
  390000    1.0940857   -7.3061815    119.93925  0.025628045  0.026398623            7 
  391000    1.1228125   -7.3411839    120.28932   0.02563711  0.026378126            3 
  392000    1.1058314   -7.2728054    120.92202  0.025706211  0.026357637            4 
  393000    1.0881245   -7.2697552    121.26715  0.025713985  0.026338301            1 
  394000    1.0841636   -7.2994584    121.36902  0.025670267  0.026318386            2 
  395000    1.0990154   -7.2548577    121.97233  0.025732558  0.026298579            2 
  396000    1.0702245   -7.3087733    121.62112   0.02559367  0.026278733            3 
  397000    1.0861724   -7.2992663    122.05482  0.025620238  0.026258806            4 
  398000    1.0817399   -7.2507677    122.65988  0.025682555   0.02623972            6 
  399000    1.0555989    -7.302438    122.49217  0.025583161  0.026220046            5 
  400000     1.104143   -7.3109522    122.51957   0.02552491  0.026200402            2 
  401000    1.0733323   -7.3377265    122.69222  0.025497137   0.02618007            5 
  402000    1.1212779   -7.3048711    123.32066  0.025563984  0.026160072            3 
  403000    1.0872622   -7.3158534    123.67971  0.025574796  0.026140138            3 
  404000    1.1003563   -7.2782172    123.60019   0.02549509   0.02612051            2 
  405000    1.0924297   -7.2449491    124.05769  0.025526274   0.02610208            6 
  406000    1.0891061   -7.3461917    123.84424   0.02541959  0.026082698            7 
  407000    1.0813751   -7.2910302     124.5583  0.025503338  0.026063658            2 
  408000    1.1079663   -7.3161487     124.6668  0.025462991    0.0260449            2 
  409000    1.1082465   -7.3251895    124.92154  0.025452637  0.026025952            4 
  410000    1.0851985   -7.3245435    125.29737  0.025466944  0.026006912            6 
  411000    1.0917363    -7.313308    125.19853  0.025384941  0.025987929            3 
  412000    1.0848629   -7.2927192    125.62267  0.025409117  0.025968339            7 
  413000     1.102991   -7.3131225    125.63887  0.025350862  0.025948841            5 
  414000    1.0822155   -7.2762102     126.0595  0.025374296    0.0259294            3 
  415000    1.0668375   -7.3379021    125.59501  0.025219882  0.025909582            4 
  416000    1.1078095   -7.3249642    125.90341  0.025221035  0.025888968            4 
  417000    1.1107875   -7.3222259    126.22494  0.025224808  0.025868304            2 
  418000     1.104792   -7.3379251    126.39215  0.025197797  0.025848205            3 
  419000    1.0941015   -7.3007581    127.11299  0.025281025  0.025828524            2 
  420000    1.0770657   -7.2933292    127.62301  0.025322025   0.02580905            2 
  421000    1.0703658   -7.3352006    127.49242  0.025236029  0.025789981            2 
  422000    1.0820293    -7.339841    127.82818  0.025242531  0.025770653            2 
  423000    1.0756678    -7.340976    128.36575   0.02528876  0.025752107            3 
  424000    1.1057994   -7.3333063    128.02582  0.025162307   0.02573343            5 
  425000    1.0783651    -7.300691    128.48361  0.025192864   0.02571362            1 
  426000    1.0793702   -7.3454622    128.19651  0.025077565  0.025693804            4 
  427000    1.0719907   -7.3546704    128.24288  0.025027884  0.025673351            4 
  428000    1.0862836   -7.3080879    128.38198  0.024996492  0.025652723            2 
  429000     1.071137   -7.3311775    128.53971  0.024968864  0.025632074            4 
  430000    1.0857062   -7.3379813    128.71164  0.024944117  0.025611126            3 
  431000    1.0937219   -7.3217044    129.06408  0.024954385  0.025589861            6 
  432000    1.0950558   -7.3435899     129.0581  0.024895466  0.025568385            3 
  433000    1.0675067   -7.3308781    129.47948  0.024919069  0.025546947            2 
  434000    1.0728443   -7.3765924    129.38159  0.024842855  0.025525837            6 
  435000    1.0708445   -7.2977732    130.23005  0.024948286  0.025505516            5 
  436000    1.0749789   -7.3094071    130.84641   0.02500887  0.025485584            7 
  437000    1.0871993   -7.3233726    130.73071  0.024929578  0.025465879            6 
  438000    1.0818162   -7.3514526    130.60664  0.024849055  0.025446042            4 
  439000     1.082708   -7.3692651    130.96717   0.02486089  0.025426198            5 
  440000    1.0821235   -7.3234747    131.45724  0.024897204   0.02540613            4 
  441000    1.0988014   -7.3657577    131.23957  0.024799617  0.025386351            4 
  442000    1.0738856   -7.3083073    131.80766  0.024850615  0.025367233            6 
  443000    1.0817519   -7.3800269    131.84824  0.024802152  0.025347756            6 
  444000    1.0778121   -7.2884173    132.52945  0.024874146  0.025328861            3 
  445000    1.0474373   -7.3252384    132.71512  0.024853018  0.025310166            3 
  446000    1.0583716   -7.3630813    132.51137  0.024759225   0.02529112            2 
  447000     1.045665   -7.3470072    133.08416  0.024810619  0.025272167            4 
  448000    1.0730377    -7.346113    133.12053  0.024762003  0.025253375            7 
  449000    1.0843648   -7.3381556    133.25569  0.024731939  0.025234234            2 
  450000    1.0794134   -7.2932178    133.81545   0.02478064  0.025216113            2 
  451000    1.0765659    -7.380357    133.50163  0.024667707  0.025197792            2 
  452000    1.0734045   -7.3608254    133.97462  0.024700335  0.025178979            4 
  453000    1.0561769   -7.3489461    134.43666  0.024730806  0.025160463            3 
  454000    1.0754689   -7.3667896    134.81527  0.024745828  0.025142724            3 
  455000    1.0730237   -7.3744621    134.94211  0.024714673  0.025124109            9 
  456000    1.0824663    -7.361018    134.77584  0.024630087   0.02510574            3 
  457000    1.0790406   -7.3481913    135.22517  0.024658127  0.025087164            3 
  458000    1.0716768   -7.3680602    135.75235  0.024700209  0.025068951            2 
  459000    1.0767342   -7.3732211    135.83157  0.024660778  0.025051058            4 
  460000    1.0622785   -7.3921512    135.77594  0.024597091  0.025032982            3 
  461000    1.0622395   -7.4158196    135.97395  0.024579528  0.025014998            5 
  462000    1.0516277   -7.3891633    136.37384  0.024598456  0.024996742            3 
  463000    1.0656677   -7.3238302     137.3279  0.024717044  0.024979138            4 
  464000    1.0873651   -7.4067416    136.58154  0.024529731   0.02496198            5 
  465000    1.0981928   -7.3544908    137.20896  0.024589419    0.0249448            3 
  466000    1.0713962      -7.3622    137.85529  0.024652234  0.024928225           10 
  467000    1.0521944     -7.37062    137.68656  0.024569336  0.024911149            1 
  468000    1.0590581   -7.3468033    137.82532  0.024541545  0.024893839            3 
  469000    1.0693626     -7.37686    138.07128  0.024532921  0.024876678            3 
  470000    1.0820446   -7.3683467    137.83816   0.02443939  0.024859149            3 
  471000    1.0526177   -7.3565166    138.55465   0.02451427  0.024841467            3 
  472000    1.0497336   -7.3732698    138.41436  0.024437564  0.024823907            2 
  473000    1.0650604   -7.3947923    138.85036  0.024462713  0.024806833            7 
  474000    1.0700561   -7.3980038    139.03675  0.024443873  0.024789816            2 
  475000    1.0728133   -7.3366888    139.86773  0.024538198  0.024772799            3 
  476000    1.0530809   -7.3997359     139.3412  0.024394469  0.024755557            2 
  477000    1.0184469   -7.4165855    139.38366  0.024350745  0.024737968            2 
  478000    1.0547094   -7.4109964    139.86031  0.024382899   0.02472041           14 
  479000    1.0723111   -7.3796916    139.64179  0.024293978  0.024702995            7 
  480000    1.0521794   -7.3534185    140.47403  0.024387853  0.024685805            3 
  481000    1.0768001   -7.3835987    140.38717  0.024322102  0.024668321            2 
  482000    1.0375811   -7.3860953     140.3664  0.024268049  0.024650453            4 
  483000    1.0621315   -7.4279457    140.75051  0.024284077  0.024632485            3 
  484000    1.0821743   -7.3879482    140.90759  0.024260948  0.024614969            7 
  485000    1.0662555   -7.4172629    141.30759  0.024279655  0.024597044            2 
  486000    1.0311756   -7.3883725    141.10125  0.024194315  0.024578982            4 
  487000    1.0736222   -7.3962465    141.61223  0.024232073  0.024561303            3 
  488000    1.0748794   -7.3808707    141.69224  0.024196078  0.024543495            4 
  489000    1.0572275   -7.3651125    141.99196  0.024197675  0.024526262            7 
  490000    1.0436768   -7.3718058    142.13045  0.024171845  0.024508898            3 
  491000     1.052648   -7.3859858    142.54338  0.024192699  0.024491225            8 
  492000    1.0724908   -7.3526034    142.73971  0.024176781  0.024473637            2 
  493000    1.0681241   -7.4015711    142.22559  0.024040837  0.024455901            4 
  494000    1.0781023   -7.4409079    142.22172  0.023991518  0.024437473            2 
  495000    1.0464244   -7.4208163    142.92279  0.024061076  0.024419063            3 
  496000    1.0440731   -7.4104066    143.45697  0.024102314   0.02440099            3 
  497000    1.0680453   -7.4347564    143.23632  0.024016821  0.024382622            4 
  498000    1.0652676   -7.4254861    143.03952  0.023935663  0.024364552            3 
  499000    1.0517485   -7.3710074    143.75523   0.02400722   0.02434642            2 
  500000    1.0501204   -7.4106226    143.63409  0.023939015  0.024327997            3 
  501000    1.0465946   -7.4303475    143.95907  0.023945288  0.024309086            3 
  502000    1.0802118   -7.4214526    143.91137   0.02388967  0.024290119            5 
  503000     1.063029   -7.3780183     144.4782  0.023936083  0.024271395            3 
  504000    1.0419822   -7.3786757    144.60056  0.023908822  0.024253115            2 
  505000     1.039568   -7.3952824    145.03276  0.023932799  0.024234719            6 
  506000    1.0592038   -7.3942446    144.66403  0.023824775  0.024216753            4 
  507000    1.0564026   -7.4054747    145.04926  0.023841101   0.02419828            4 
  508000    1.0706228   -7.4692857    144.81669  0.023756019  0.024179317            4 
  509000    1.0472741   -7.4169892    145.10016  0.023755756  0.024160245            4 
  510000    1.0328275   -7.4167965    145.52825  0.023779125  0.024141565            2 
  511000    1.0408501   -7.4559025    145.17716  0.023675336  0.024123006            2 
  512000    1.0380111   -7.4257102    145.89085  0.023745256   0.02410437            3 
  513000    1.0512679   -7.4100304    146.03167  0.023721844  0.024086309            2 
  514000     1.063831   -7.4494225    145.87559  0.023650388  0.024067848            2 
  515000    1.0463214   -7.4042695    146.82054  0.023757368  0.024049746            1 
  516000    1.0600455   -7.4655851    146.60848  0.023677079  0.024031781            3 
  517000    1.0655505   -7.3879691    147.32738   0.02374716  0.024013889            4 
  518000     1.062233   -7.4440907      146.898   0.02363224  0.023996196            4 
  519000    1.0530319   -7.4110968    147.75879  0.023724919  0.023978795            4 
  520000    1.0328251   -7.4471264    147.77748  0.023682288  0.023961192            4 
  521000    1.0481888   -7.4267461    147.87693   0.02365274  0.023943624           14 
  522000    1.0424173   -7.4270969    148.20982  0.023660572  0.023926227            5 
  523000    1.0549267   -7.4710841    148.02671  0.023586155  0.023908551            4 
  524000    1.0498861   -7.4325236    148.41653  0.023603138  0.023890531            6 
  525000    1.0464362   -7.4174208    148.69583  0.023602512  0.023873488            3 
  526000    1.0285133   -7.4259519    149.31591  0.023655879  0.023856787            8 
  527000    1.0313799   -7.4323364    149.38046  0.023621199  0.023839738            4 
  528000    1.0633219   -7.4434104    149.06861  0.023527243  0.023822742            3 
  529000    1.0557133   -7.4334013    149.48381  0.023548174  0.023805633            3 
  530000    1.0585006   -7.3969216    149.70575  0.023538639  0.023788196            2 
  531000     1.054467   -7.4431297    150.23822  0.023577875  0.023770935            2 
  532000    1.0420275   -7.4313609    149.66874  0.023444352  0.023753714            1 
  533000    1.0420684   -7.4314312    150.24053  0.023489764  0.023736119            9 
  534000    1.0240123   -7.4613221    150.24383   0.02344629   0.02371885            4 
  535000    1.0492518   -7.3986476    150.85154  0.023497125  0.023701543            4 
  536000    1.0414424   -7.4123404    151.04984  0.023484116  0.023684593            4 
  537000     1.036831   -7.4495215    150.74122  0.023392492  0.023667146            8 
  538000    1.0555978    -7.478227    151.06627   0.02339936  0.023649621           12 
  539000    1.0436993   -7.4830097    150.82788  0.023319092  0.023632189            3 
  540000    1.0285528   -7.4528512    151.51158  0.023381416  0.023615171            5 
  541000    1.0246569    -7.415083    152.04755  0.023420756   0.02359828            3 
  542000    1.0554178   -7.4674169    151.68045  0.023321102  0.023581394            3 
  543000     1.046542   -7.4539733    152.08107  0.023339636   0.02356436           10 
  544000    1.0490961    -7.473794    151.97943  0.023281163  0.023547326            1 
  545000    1.0323742    -7.411937    152.67448  0.023344722  0.023530636            5 
  546000    1.0581484    -7.492595    152.94916   0.02334389  0.023514241            5 
  547000    1.0146671    -7.477665    152.56155  0.023242162  0.023497408            6 
  548000     1.016818    -7.481796    152.86451   0.02324582  0.023480517            4 
  549000    1.0374679   -7.4574431    153.72594  0.023334235  0.023463782            8 
  550000    1.0370579   -7.4458747    153.63146  0.023277494  0.023447073            2 
  551000    1.0495564   -7.5040012    153.78278  0.023258134  0.023430116            4 
  552000    1.0224345   -7.3811069    154.54147  0.023330536  0.023413553            6 
  553000    1.0493473   -7.4599418     154.1973  0.023236483  0.023396608            3 
  554000    1.0272998   -7.4919135    154.34571  0.023216863  0.023379994            3 
  555000    1.0308687   -7.4831258    154.55185  0.023205983  0.023363015            2 
  556000    1.0403602   -7.4747769    154.42355  0.023145017  0.023346075            4 
  557000    1.0174012   -7.4436668    154.31023  0.023086509  0.023329069            5 
  558000     1.015304   -7.4500033    154.87485  0.023129457  0.023312175            6 
  559000    1.0259699   -7.5089824    154.50544  0.023033011  0.023294946            7 
  560000    1.0247292   -7.4938129    154.81901  0.023038543  0.023277491            5 
  561000    1.0207462   -7.4443927    154.80442  0.022995309   0.02326012            7 
  562000    1.0406039   -7.4929036     154.9954  0.022982711  0.023242872            7 
  563000    1.0379593   -7.5102064    155.67137  0.023041944  0.023226015            2 
  564000    1.0255873   -7.4414505    155.68795  0.023003539  0.023209148            2 
  565000    1.0244386   -7.4798851    155.60393  0.022950432  0.023192602            6 
  566000    1.0238397   -7.4499779    156.26309  0.023006934  0.023175761            3 
  567000    1.0307882   -7.5357045    155.77055  0.022893967  0.023158753            4 
  568000    1.0288893   -7.5096242    155.76231  0.022852452  0.023141332            5 
  569000    1.0313127   -7.5201996    155.51876   0.02277662  0.023123636            6 
  570000    1.0265032   -7.5242036    156.31039  0.022852396  0.023105793            8 
  571000    1.0262637     -7.51805    156.36659  0.022820577  0.023087775            6 
  572000    1.0165095   -7.4879899    156.26893  0.022766452  0.023069959           11 
  573000    1.0324127   -7.4837693    156.47591  0.022756822  0.023051848            6 
  574000    1.0415671   -7.4808055    156.73097  0.022754206  0.023033857            2 
  575000    1.0183684   -7.4757536    156.27178  0.022648083  0.023015481            4 
  576000    1.0148523   -7.4761586    156.64686   0.02266303   0.02299749            4 
  577000    1.0373576   -7.5032567    157.32515  0.022721714  0.022979747            4 
  578000    1.0247364   -7.4815459    157.39085  0.022691876  0.022961872            2 
  579000    1.0221001   -7.4776657    157.93257  0.022730651  0.022944008            5 
  580000    1.0321596    -7.528639    157.42161  0.022618048  0.022925914            5 
  581000    1.0303226   -7.5204325    157.65615  0.022612759  0.022907944            2 
  582000    1.0289859    -7.525812    157.67143  0.022576093  0.022889633            4 
  583000    1.0298819   -7.5133379    157.89361  0.022569127  0.022871537            3 
  584000    1.0319152   -7.5120353    157.85119  0.022524428  0.022853057            9 
  585000    1.0145071    -7.518553    158.22157  0.022538685  0.022834744            5 
  586000    1.0128808   -7.5122275    158.11208  0.022484654  0.022816607            5 
  587000    1.0061904   -7.4801377    158.95418  0.022565897  0.022798462            4 
  588000    1.0430349   -7.5335263    158.22835  0.022424653  0.022780404            2 
  589000     1.009032   -7.5145601    158.24615  0.022389098  0.022761983            6 
  590000    1.0404862   -7.5386051    159.08347  0.022469416  0.022743541            5 
  591000    1.0171627   -7.5464644    158.59131  0.022362001  0.022725066            4 
  592000    1.0333151   -7.4745301    159.50126  0.022452316  0.022706984            3 
  593000    1.0304379    -7.505669    159.50657  0.022415201  0.022688797            3 
  594000    1.0254824     -7.50127    159.40431  0.022363118  0.022670532            3 
  595000     1.021071   -7.4736808    160.13986  0.022428551  0.022652663            3 
  596000    1.0014663   -7.5190165    159.58019  0.022312666   0.02263463            5 
  597000     1.029821    -7.495753     159.7759   0.02230261  0.022616322            7 
  598000    1.0074496   -7.5109682    160.18686  0.022322583  0.022598185            3 
  599000    1.0095699   -7.5329611    160.39783  0.022314668  0.022580026            3 
  600000     1.003318   -7.4905577     160.5709  0.022301514  0.022562167            3 
  601000    1.0240867   -7.5077506    160.30768  0.022227909  0.022544099            2 
  602000     1.003283   -7.4993843    160.69355  0.022244401  0.022525788           10 
  603000     1.025978   -7.5469514    160.13608   0.02213047  0.022507229            5 
  604000    1.0163367   -7.5037416    161.07825   0.02222382   0.02248846            3 
  605000    1.0075053   -7.5344569    160.68998  0.022133606  0.022469439            3 
  606000    1.0075551   -7.5064294    160.69193  0.022097351  0.022450324            4 
  607000    1.0236807   -7.4972972    160.91648  0.022091774  0.022431254            4 
  608000    1.0091705   -7.4969235    161.31252  0.022109721   0.02241242            5 
  609000    1.0088528   -7.5124749     160.9082   0.02201809  0.022393507            4 
  610000    1.0160644   -7.5470838    160.49457  0.021925488  0.022374272            6 
  611000     1.004596   -7.5204631    161.26853  0.021995162  0.022355144            4 
  612000    1.0025397   -7.5570078    161.13728   0.02194135  0.022336096            2 
  613000    1.0374772   -7.5263567    161.49656  0.021954399  0.022316934            3 
  614000    1.0266042   -7.5084808    161.98031  0.021984299  0.022297766            2 
  615000    1.0230763   -7.5434137    161.55294  0.021890642  0.022278584            4 
  616000    1.0084569   -7.5350622    161.46597   0.02184334  0.022259605            7 
  617000    1.0077775   -7.5509885    161.59374  0.021825195   0.02224046            3 
  618000    1.0326359   -7.5548249    161.89068  0.021829919  0.022221154            8 
  619000    1.0468752   -7.5159965    162.52568   0.02188014  0.022201913            3 
  620000    1.0158574   -7.5571774    161.99025  0.021772883   0.02218293            4 
  621000    1.0215535   -7.5711521    162.38211  0.021790406  0.022163752            2 
  622000   0.99584423   -7.5898337     161.7666   0.02167291  0.022144304            4 
  623000    1.0002269   -7.5399806    162.47443  0.021732802  0.022124984            3 
  624000   0.99824979   -7.5586682    162.83785  0.021746508  0.022105831            6 
  625000    1.0413816   -7.5485285    162.86067  0.021714756  0.022086711            2 
  626000    1.0006623   -7.5460831    163.58654  0.021776696  0.022068024            3 
  627000    1.0061537   -7.5682188    162.94788  0.021657081  0.022048847            1 
  628000     0.999097   -7.5629361    163.23098  0.021660162  0.022029837           10 
  629000    0.9826904   -7.5837459    163.81934  0.021703676  0.022011006            3 
  630000   0.98894726   -7.5622773    163.91217  0.021681504  0.021991874            3 
  631000    1.0005972   -7.6052792    163.74671  0.021625291   0.02197285            4 
  632000   0.98591884    -7.565769    163.82229  0.021601041  0.021953615            3 
  633000   0.98969318   -7.5440381     164.4068  0.021643865   0.02193453            6 
  634000   0.95812356   -7.5715124    163.68017  0.021514218  0.021915211            7 
  635000    0.9882058   -7.5518056    164.50079  0.021588031  0.021896031            2 
  636000    1.0217447   -7.5362731    164.77001  0.021589362  0.021876817            5 
  637000    0.9964114   -7.5865127    164.35853  0.021501639   0.02185736            8 
  638000   0.98325152   -7.5671303    164.53466  0.021490943   0.02183825            8 
  639000   0.99338547   -7.5469496    164.75604  0.021486182   0.02181939            2 
  640000   0.99984184   -7.5600529    164.93036  0.021475307  0.021800579            5 
  641000    1.0042298   -7.5602861    165.13109    0.0214679  0.021781868            5 
  642000    1.0140952   -7.5978142    164.84627  0.021397491  0.021762936            6 
  643000   0.98899616   -7.5737259    165.53347  0.021453275  0.021743993            5 
  644000   0.99283234   -7.5704898    165.42148  0.021405471  0.021725317            5 
  645000   0.98297106   -7.6058907    165.50283  0.021382794   0.02170644            3 
  646000    1.0069053   -7.6232198     165.2606  0.021318447  0.021687561            6 
  647000   0.98463832   -7.6285095    165.08348  0.021262684  0.021668343            2 
  648000    1.0040035   -7.5760319    165.62127  0.021299031  0.021649354            2 
  649000    1.0085376   -7.5568024    166.55982  0.021386726  0.021630502            3 
  650000    1.0154464   -7.6004066    166.03143  0.021286081  0.021611572            2 
  651000   0.99946766   -7.5996645    166.22327   0.02127794  0.021592823            4 
  652000   0.99642995    -7.546629    166.79908  0.021318901  0.021574267            8 
  653000    0.9964185   -7.5814984    166.48117  0.021245683  0.021555579            5 
  654000   0.97680662   -7.5849449     166.5947  0.021227663  0.021536688            8 
  655000    1.0050036   -7.5691939    166.45759   0.02117781  0.021517687            7 
  656000   0.98194048    -7.593324    166.65969    0.0211712  0.021498671            6 
  657000   0.98515147   -7.5585356    167.73892  0.021275865  0.021479803            4 
  658000   0.99151422   -7.5929606    166.91697  0.021139434  0.021461246            4 
  659000   0.97570376   -7.6196013    167.28047  0.021153321  0.021442566            4 
  660000   0.99211732   -7.5782069    167.09699  0.021098104   0.02142357            5 
  661000    0.9847891   -7.5832404    167.72296  0.021145104  0.021404704            6 
  662000   0.99654352   -7.5556949    168.52438  0.021214046  0.021385925            6 
  663000   0.99586641   -7.5454528    168.36624  0.021162172  0.021367491            7 
  664000   0.98725622   -7.5770515    168.17942  0.021106855  0.021349019            4 
  665000   0.97194976   -7.6113302    167.96021  0.021047645  0.021330383            2 
  666000    1.0198716   -7.6009185    168.64863  0.021102181  0.021311619            3 
  667000   0.97476101     -7.61114    168.50014  0.021051991  0.021292692            3 
  668000    1.0152813   -7.6032982    168.25227  0.020989554  0.021273847            2 
  669000   0.98175382   -7.6390055    168.50137   0.02098921  0.021255061            5 
  670000   0.98099499   -7.6182782    168.07296  0.020904598  0.021236273            2 
  671000   0.96613924   -7.6281502    168.45092  0.020920383  0.021217513            4 
  672000   0.98140255   -7.6248672    168.59159  0.020906696  0.021198756            4 
  673000   0.97425587    -7.623863    169.22724  0.020954339  0.021179925            3 
  674000    1.0231625   -7.5921309    169.43172  0.020948531  0.021161644            3 
  675000   0.97495027    -7.622422    169.26964  0.020897486  0.021143319            5 
  676000   0.97330618   -7.5775549    169.30303   0.02087069  0.021125031            7 
  677000   0.97996753   -7.6281888    169.50023  0.020864135  0.021106744            5 
  678000   0.97233053   -7.6685353    169.70184  0.020858142  0.021088285            7 
  679000   0.99769988   -7.6056273     170.2137  0.020890243  0.021070011            1 
  680000   0.98873967   -7.6433928    169.75104  0.020802823  0.021051575            3 
  681000   0.97560985   -7.6060747    170.05531  0.020809509  0.021033257            8 
  682000   0.96384442   -7.6141764     170.4099  0.020822324  0.021015077            6 
  683000   0.98426866   -7.6030062    170.20705  0.020767088  0.020996745            3 
  684000   0.96941546   -7.6446419    170.25937  0.020743101  0.020978632            6 
  685000    0.9860182   -7.6081449    170.62608   0.02075743  0.020960484            2 
  686000   0.99503996   -7.6146106    170.79045   0.02074714  0.020942403            5 
  687000   0.97898379   -7.6158283    170.93023  0.020733895  0.020924226           19 
  688000   0.97856971   -7.6142775    171.54918  0.020778728  0.020906297            2 
  689000    0.9715152   -7.6082541    170.97279  0.020678858  0.020888408            6 
  690000   0.97430603   -7.6305173    171.45169  0.020706726   0.02087013            4 
  691000   0.99144928   -7.6653046    171.01986  0.020624682  0.020851847            6 
  692000    0.9799438   -7.6222408    171.39823  0.020640442  0.020833697            5 
  693000   0.98035716   -7.6436843    171.49464  0.020622251  0.020815668            6 
  694000   0.96067055   -7.6159278     171.9275  0.020644513  0.020797779            6 
  695000   0.96379874   -7.6213771    172.28939    0.0206582  0.020779767           10 
  696000    0.9782646   -7.6044585     171.8645  0.020577646  0.020761976            4 
  697000   0.96851492   -7.6297752    172.44964  0.020618083   0.02074412            2 
  698000   0.96471642   -7.6026211    172.37648  0.020579808  0.020726399            2 
  699000   0.95343862   -7.6270539    171.99524  0.020504916    0.0207086            3 
  700000   0.97964269   -7.6531437    172.35797  0.020518805  0.020690697            4 
  701000   0.97979626    -7.618835    172.82508  0.020545064  0.020672876            7 
  702000    0.9743471   -7.6582508    172.36337  0.020460989  0.020654789            7 
  703000   0.97315937   -7.6366482    172.66336  0.020467445  0.020636956            3 
  704000   0.94799452   -7.6503577    172.54516  0.020424379  0.020619085            3 
  705000   0.96860197   -7.6380185    172.99632  0.020448737  0.020601131            6 
  706000   0.95966166    -7.667791    172.95398  0.020414775  0.020583163            3 
  707000    0.9715132   -7.6527259    173.15075  0.020409094  0.020565289            6 
  708000   0.95569678   -7.6215971    173.46172  0.020416869   0.02054746           14 
  709000   0.96195692   -7.6532355    173.18754  0.020355846  0.020529454            2 
  710000   0.97420475   -7.6617691    173.66141  0.020382794   0.02051177            2 
  711000   0.98293692   -7.6463951    174.57298  0.020460968  0.020494231            4 
  712000   0.98394135   -7.6632649    173.64575  0.020323707   0.02047683            3 
  713000   0.95290159   -7.7015194    173.53827   0.02028264  0.020459239            2 
  714000   0.96262652   -7.6926834     174.0317  0.020311823  0.020441478            5 
  715000   0.97778604   -7.6790185    174.33198  0.020318413  0.020423899            3 
  716000   0.97069785   -7.6970438    174.60395  0.020321689  0.020406509            6 
  717000   0.97540762   -7.6895263    174.42698  0.020272778  0.020389014            8 
  718000   0.98755609   -7.7192661    174.20709  0.020219021  0.020371353           19 
  719000   0.94274428   -7.6720464    174.81943  0.020261872   0.02035377            8 
  720000   0.96796434   -7.7173703    174.60725  0.020209172  0.020336284            3 
  721000   0.96420568   -7.6972054    174.75071  0.020197724  0.020319031           11 
  722000    0.9737168   -7.6936708    175.43878  0.020249167  0.020301736            4 
  723000   0.96706429   -7.6794551    175.13311  0.020185928  0.020284502            7 
  724000   0.96687746   -7.6785218    175.68746  0.020221853  0.020267308            4 
  725000   0.97584316   -7.6778457    175.79619  0.020206458  0.020250267           11 
  726000   0.97534578   -7.6517351    175.73487  0.020171587  0.020233102            5 
  727000   0.97057141   -7.6695287    175.86376  0.020158616  0.020215935            4 
  728000   0.94168947   -7.6696605    176.16913   0.02016588  0.020198561            9 
  729000   0.97702832   -7.6584312    175.78325  0.020094107  0.020181121           13 
  730000   0.96836157     -7.69388    175.76129  0.020064075  0.020163501            5 
  731000   0.97924396   -7.6833032    175.81932  0.020043243  0.020146075            5 
  732000   0.95599948    -7.666921    175.54301  0.019984405  0.020128585            6 
  733000   0.94272422   -7.7058063    176.16823  0.020028221  0.020111226            3 
  734000   0.98557981   -7.6867966     176.3902  0.020026135  0.020093797            4 
  735000   0.96828908   -7.6742697    175.81352  0.019933505  0.020076216            3 
  736000   0.96547773   -7.6976785    176.07795  0.019936363  0.020058614            5 
  737000    0.9718828   -7.7017921    175.85374   0.01988396  0.020040923            6 
  738000   0.95855817   -7.7069507    176.04221  0.019878298  0.020023223            3 
  739000   0.96205335   -7.7166331    176.11483  0.019859588  0.020005504            9 
  740000   0.97034814   -7.6993779    176.49807  0.019875909  0.019987752            8 
  741000   0.96541106   -7.6674416    177.09994  0.019916773  0.019970339            4 
  742000   0.95811367   -7.6665815    177.34679  0.019917654  0.019953193            4 
  743000   0.96917043   -7.6314215    177.80475   0.01994221  0.019936228            6 
  744000    0.9608057   -7.7166842    177.50887  0.019882266  0.019919257            3 
  745000   0.94231736   -7.6424739    177.47132  0.019851378  0.019902303            4 
  746000    0.9654123   -7.6746138    178.04688  0.019889062  0.019885432            4 
  747000   0.96994361   -7.6552096    178.03334  0.019860926  0.019868599            3 
  748000   0.95331935   -7.6782501    178.27512   0.01986131  0.019851715            4 
  749000   0.97085546   -7.6971287    178.17707  0.019823884  0.019834777            6 
  750000   0.98381129   -7.6637047    178.72785   0.01985865  0.019817804            4 
  751000    0.9456159   -7.6917781    177.94043  0.019744833  0.019800895            3 
  752000   0.93452689   -7.6855105     178.3463  0.019763553  0.019783884            5 
  753000   0.95198462    -7.698856     178.6794   0.01977417  0.019766987            4 
  754000   0.95516802   -7.6819414    177.90175  0.019661997  0.019749675           13 
  755000   0.94889323   -7.7326847    178.54915  0.019707412  0.019732316            7 
  756000   0.94275137   -7.7699877    178.28964  0.019652738  0.019714958           15 
  757000   0.96238642   -7.6992079    178.41876  0.019640991  0.019697623           10 
  758000   0.94878445   -7.7397201      178.009  0.019570031   0.01968051           12 
  759000   0.93999342   -7.7075075    178.17877  0.019562887  0.019663057           12 
  760000   0.96814111   -7.7397804    178.60287  0.019583648  0.019645787            3 
  761000   0.97173565   -7.6739654    179.25141  0.019628932  0.019628862            7 
  762000   0.94652185   -7.7197814      179.171  0.019594379  0.019612061            4 
  763000   0.94276967   -7.6865119     179.5394  0.019608934  0.019595317            4 
  764000   0.95001441   -7.7017473    179.38051  0.019565937    0.0195784            5 
  765000   0.94561729   -7.6957165    179.63426  0.019568002  0.019561436            4 
  766000   0.94848119   -7.6907379    179.73939  0.019553894  0.019544533           27 
  767000   0.93729306   -7.7091597    179.18306  0.019467956  0.019527684            8 
  768000   0.94117218   -7.7304025     179.3874  0.019464778  0.019510749            2 
  769000   0.91546186   -7.7117987    179.68522   0.01947174  0.019493778            6 
  770000   0.96214534   -7.7377501     179.4547  0.019421504  0.019476654            4 
  771000   0.92493167   -7.7538943    179.48939  0.019400064  0.019459399            3 
  772000   0.94810385    -7.741471    179.49169  0.019375183   0.01944237            8 
  773000   0.95826292   -7.7407815    180.23396  0.019430138  0.019425358            6 
  774000    0.9351718   -7.7020758    180.78505  0.019464368  0.019408581            5 
  775000   0.94844072   -7.7179456    180.77342  0.019438002  0.019392076            8 
  776000   0.94886175   -7.7363835    180.50202  0.019383808  0.019375371            7 
  777000   0.93912344   -7.7572089     179.8408  0.019287945   0.01935854            6 
  778000   0.91887938   -7.7262511    180.63251  0.019347955  0.019341819            5 
  779000   0.96914166   -7.7350602    180.34142  0.019291979  0.019324989            5 
  780000   0.95410506   -7.7432501    180.62298  0.019297327   0.01930828            8 
  781000   0.95211863   -7.7454202    180.87701  0.019299723  0.019291462            6 
  782000   0.97203168    -7.750266    180.86761  0.019274042  0.019274687            7 
  783000   0.93917383   -7.7364512    180.61509  0.019222551  0.019257844            6 
  784000   0.94637012   -7.7614131    181.16576  0.019256564  0.019240836            5 
  785000   0.92797902   -7.7531026    181.18858  0.019234457   0.01922385            8 
  786000   0.94049839   -7.7596271    181.13976  0.019204809   0.01920691           10 
  787000   0.93533322   -7.7550397    180.85914  0.019150693  0.019189987            5 
  788000   0.92469236    -7.805946    180.56244  0.019095013    0.0191728            5 
  789000   0.93494715     -7.77085    180.52985   0.01906737  0.019155506            8 
  790000   0.93773932   -7.7620544    181.15648  0.019109333  0.019138587            5 
  791000   0.93892925   -7.7444925    181.18021  0.019087675  0.019121487            3 
  792000   0.91615111   -7.7374779    181.67482  0.019115616   0.01910469            4 
  793000   0.91934231   -7.7493736    181.69514  0.019093647  0.019087927           22 
  794000   0.93858862   -7.7947373    181.73068  0.019073329  0.019071133            4 
  795000     0.952101   -7.7656909    181.64621  0.019040483  0.019054181            8 
  796000   0.94208581   -7.7544072    181.97131  0.019050598   0.01903736            6 
  797000   0.95867632   -7.7427064     181.8478   0.01901378  0.019020646           13 
  798000   0.93358696    -7.767132    182.15519  0.019022055  0.019004086            5 
  799000   0.95003541   -7.7315136    182.89169  0.019075062  0.018987577           12 
  800000   0.95307509   -7.7337384    182.19232  0.018978367  0.018971043            7 
  801000   0.93188416   -7.8112196    182.35931  0.018972046  0.018954404            8 
  802000   0.91468045   -7.7897906    182.24831  0.018936856  0.018937578            7 
  803000   0.92656568   -7.7833661    182.58948   0.01894868  0.018920745            7 
  804000   0.91904937   -7.7584237     182.1952  0.018884245  0.018903762            8 
  805000   0.92884578   -7.7879177     182.2675  0.018868271  0.018887007            8 
  806000   0.94707459   -7.7821308    182.66552  0.018886013  0.018870189           11 
  807000   0.92791735   -7.7623299    182.78217  0.018874656  0.018853554            8 
  808000   0.94624426   -7.7687116    182.69271   0.01884207   0.01883707            6 
  809000   0.92975207    -7.758797    183.27678  0.018878944  0.018820467           12 
  810000   0.92384424   -7.7773187    183.57684  0.018886506  0.018803917           12 
  811000   0.92522197   -7.7836611    183.14047  0.018818379  0.018787354           25 
  812000   0.94155899   -7.7898835    183.16673  0.018797899  0.018770783           10 
  813000   0.91808516   -7.7790404    183.38295   0.01879694  0.018754291           11 
  814000   0.91917144   -7.7632899    184.10321  0.018847585  0.018737823            9 
  815000   0.90899841   -7.8163996    182.84876  0.018696193  0.018721398            3 
  816000   0.92983816   -7.8094797    183.50815  0.018740619  0.018704871            3 
  817000   0.92040365    -7.749614    183.50214  0.018717068  0.018688359           13 
  818000   0.96164865   -7.7712322     183.7116  0.018715526  0.018671967            4 
  819000   0.90757582   -7.7503349    184.29777  0.018752316  0.018655757            3 
  820000   0.93863962   -7.7573541    184.36334  0.018736112  0.018639564            4 
  821000   0.92795243   -7.7101998     184.6906  0.018746508  0.018623402            9 
  822000   0.92335168   -7.7891287    184.05112  0.018658872  0.018607282            8 
  823000   0.92174072   -7.7712059    184.02047  0.018633097  0.018591004            5 
  824000   0.91393071   -7.7807629     184.5915  0.018668234   0.01857469            6 
  825000   0.91378158   -7.8051748    184.59893  0.018646356  0.018558252            6 
  826000   0.93621645   -7.7814754     184.5919  0.018623073  0.018541997            7 
  827000   0.91225098   -7.7752948    184.36944  0.018578138  0.018525729            7 
  828000    0.9443948   -7.8060124    184.45232  0.018564042  0.018509468           10 
  829000   0.92048654   -7.8037199    184.43972  0.018540382  0.018493169            7 
  830000   0.93135774   -7.7918976    184.70479  0.018544658  0.018476845            6 
  831000   0.93845202   -7.8097082    185.26996  0.018579017  0.018460627            5 
  832000   0.91155499   -7.8389313    184.92203  0.018521838  0.018444325            7 
  833000   0.91973587   -7.8157264    185.22764  0.018530176  0.018428215           14 
  834000   0.90618742   -7.8373181    185.23156  0.018508349  0.018412077            6 
  835000   0.92625205   -7.8626961    185.06967  0.018470027  0.018395885            4 
  836000   0.91330267    -7.798833    185.32703  0.018473587  0.018379803            3 
  837000   0.93665713    -7.812684    185.34642  0.018453447   0.01836369            5 
  838000   0.92332628   -7.8275484    185.25831  0.018422664   0.01834749           14 
  839000   0.92062569   -7.8246956    185.61666    0.0184363  0.018331313           12 
  840000   0.90700574   -7.8395259    185.34989  0.018387886  0.018315076            3 
  841000   0.90038157   -7.7964567    185.67416  0.018398153  0.018298815            6 
  842000   0.91813583   -7.7751161    186.28254  0.018436514  0.018282702            3 
  843000   0.91402374   -7.8214499    185.99294  0.018386017  0.018266541            6 
  844000   0.91888839   -7.7926274    186.21435  0.018386093  0.018250534           11 
  845000   0.91593838   -7.7771927    186.25155  0.018368003  0.018234668            7 
  846000    0.9312823   -7.7886236    186.68764  0.018389247  0.018218663            7 
  847000   0.91902084   -7.8492859    185.49845  0.018250537   0.01820264            5 
  848000   0.90810538   -7.8398716    185.79201  0.018257862  0.018186365            3 
  849000   0.91632995   -7.8064942    186.22061  0.018278426  0.018170141           11 
  850000   0.90835849   -7.8232486     186.2038  0.018255274  0.018153999           16 
  851000    0.9044025   -7.8265789    186.47776   0.01826065  0.018137783            7 
  852000   0.91972638   -7.8503847    186.18102  0.018210193  0.018121664            7 
  853000   0.91914894     -7.82732    186.60863   0.01823062  0.018105592            5 
  854000   0.92226673   -7.7745799    187.32387  0.018279066  0.018089921            7 
  855000   0.89913914   -7.8047706    187.15823  0.018241543  0.018074253            5 
  856000   0.90400477   -7.7957776    187.08666  0.018213265  0.018058493           14 
  857000   0.90785335   -7.8207944    186.68888  0.018153333  0.018042767           11 
  858000   0.93135824   -7.8371105    186.92756  0.018155357  0.018027028            4 
  859000     0.910633   -7.8074658    187.07713  0.018148732  0.018011213            4 
  860000   0.90232797    -7.870657    187.40865  0.018159753  0.017995377            3 
  861000   0.89690529   -7.7976014    187.55014  0.018152355  0.017979526           10 
  862000   0.91458103   -7.8228313    187.37389  0.018114259  0.017963772           11 
  863000   0.87708311   -7.8512241    187.52237  0.018107606  0.017948048            4 
  864000   0.92464433   -7.8325298    187.90688  0.018123735  0.017932327            8 
  865000   0.90674091   -7.8615027    187.58624  0.018071892  0.017916687           13 
  866000   0.91438686   -7.8653833    187.34635  0.018027939  0.017900824            7 
  867000   0.90151102   -7.8585312    187.52374  0.018024197  0.017885048            3 
  868000   0.91008053   -7.8212185    188.22982   0.01807122  0.017869348            3 
  869000   0.90274184   -7.8433388    187.73498  0.018002971  0.017853706            4 
  870000   0.92078448   -7.8439167    187.81546  0.017989986  0.017837996           20 
  871000   0.89366323   -7.8371692    188.37754  0.018023109  0.017822472            6 
  872000   0.89588003   -7.8339298    187.72284  0.017939874  0.017806808            5 
  873000   0.89797975   -7.8346282    188.44757  0.017988505  0.017791256           10 
  874000   0.92388989   -7.8222014    188.00049  0.017925294  0.017775694           12 
  875000   0.92027096   -7.8688268     187.9501  0.017900009  0.017760127            9 
  876000   0.89584524   -7.8630263    188.36536  0.017919079  0.017744531            8 
  877000   0.90248881    -7.886204    188.23508  0.017886268  0.017728909            5 
  878000   0.91111132   -7.8553685    188.50457  0.017891474  0.017713363           11 
  879000   0.90944054   -7.8681331    188.90148  0.017908748  0.017697821            5 
  880000   0.90798779   -7.8567464    188.92457  0.017890584  0.017682356            4 
  881000   0.89317825   -7.8793381    188.63486  0.017842874  0.017666959           11 
  882000   0.90761916    -7.867215    189.45612  0.017900238  0.017651636           15 
  883000   0.90465731   -7.8543295    189.23947   0.01785952    0.0176363            4 
  884000   0.91118547   -7.8118548    189.95311   0.01790659  0.017621076            7 
  885000   0.88879202   -7.8242699    189.65878  0.017858642  0.017605958            6 
  886000   0.90575919   -7.8744697    188.92403  0.017769378  0.017590743           11 
  887000   0.90804946   -7.8764215    189.19044  0.017774374  0.017575394            9 
  888000   0.89950303      -7.8497     189.5695   0.01778993  0.017560203           16 
  889000   0.87697837   -7.8189421    189.84623   0.01779586   0.01754496            6 
  890000    0.8842235   -7.8595052    189.66395  0.017758797  0.017529733            9 
  891000   0.90287035   -7.8474071    189.89599  0.017760567  0.017514535           16 
  892000   0.87819306   -7.8625137     189.8502  0.017736379  0.017499381           19 
  893000   0.89158257   -7.8313915     189.6223   0.01769525  0.017484303           19 
  894000   0.89105904   -7.8503319    190.55486  0.017762384  0.017469225           15 
  895000   0.88509275   -7.8722825    190.23506  0.017712762  0.017454132            9 
  896000   0.88519911   -7.8846486    190.30052  0.017699081  0.017438979           12 
  897000   0.91206878   -7.9026097    189.70109  0.017623661  0.017423844            6 
  898000   0.89149331    -7.913893     190.2034  0.017650649  0.017408749            8 
  899000   0.89205117   -7.8990227    190.11076  0.017622429  0.017393463           13 
  900000   0.88140213   -7.8969319    190.07895  0.017599903  0.017378197           23 
  901000   0.90313189   -7.9040467    189.99534  0.017572636  0.017362839            7 
  902000   0.89334356   -7.8932572    190.05429  0.017558601  0.017347479            8 
  903000   0.89345265   -7.9032155    190.01462  0.017535494  0.017332256            7 
  904000     0.898339   -7.8948544    190.04893   0.01751926  0.017316947           10 
  905000   0.90002844   -7.8881184    190.35536  0.017528118  0.017301737           22 
  906000   0.90493812   -7.9000556    190.20666  0.017495094  0.017286538           22 
  907000   0.90541135    -7.910304    190.94034  0.017543214  0.017271325           16 
  908000   0.88801537   -7.9047693    190.47964  0.017481612  0.017256221           16 
  909000   0.89870608   -7.9274293    190.39354  0.017454487  0.017241007           23 
  910000   0.87412003    -7.933084    190.80869  0.017473323  0.017225814            7 
  911000   0.90911241   -7.8811016    191.29892  0.017498986  0.017210687           11 
  912000   0.89901194   -7.9225043     190.8298  0.017436933  0.017195539           13 
  913000   0.88416639   -7.9225938    190.84034  0.017418797  0.017180317           17 
  914000   0.88698883   -7.9307092    190.52899  0.017371352  0.017165128           13 
  915000   0.88180032   -7.9161823    190.53414  0.017352836  0.017149918           11 
  916000   0.89047452   -7.9030918    190.88228  0.017365564  0.017134636           12 
  917000   0.88284853   -7.8871176    191.10903  0.017367233  0.017119347            6 
  918000   0.88973062   -7.9319718    190.52385  0.017295194  0.017104154            4 
  919000   0.89830966   -7.9011754    191.09521  0.017328183  0.017088962            6 
  920000   0.87594988   -7.9091767    191.03695  0.017304072  0.017073759           10 
  921000   0.89455523   -7.9116803    191.21198  0.017301121  0.017058587           10 
  922000   0.88374278   -7.8953717     191.4645  0.017305179  0.017043546           14 
  923000   0.88562943   -7.9062492    191.61123  0.017299678  0.017028503            7 
  924000    0.8852173    -7.890209    191.64063  0.017283606  0.017013553           18 
  925000   0.88629603   -7.9246775    191.36113  0.017239741  0.016998478           11 
  926000    0.8798444   -7.9660883    191.10911  0.017198444  0.016983295           11 
  927000   0.86344439   -7.9588919    191.73595  0.017236242  0.016968194           26 
  928000    0.8923749   -7.9542665    191.50372  0.017196814  0.016952971           20 
  929000   0.87786449   -7.9737715    190.99713  0.017132861  0.016937797           22 
  930000   0.87986928   -7.9303449    191.40382   0.01715088  0.016922559           27 
  931000   0.87384123   -7.9340907    191.06419  0.017102058  0.016907346           16 
  932000   0.87606637    -7.955855    191.56976  0.017128913  0.016892218           29 
  933000   0.89050172    -7.954631    191.12973  0.017071251  0.016876984            5 
  934000    0.8808755   -7.9510333    191.38998  0.017076193  0.016861783           34 
  935000   0.86889402   -7.9376844    191.69056   0.01708472  0.016846557           30 
  936000    0.8716454   -7.9526819    191.30825   0.01703243  0.016831322            9 
  937000   0.88593191   -7.9737871    191.46231  0.017027953  0.016816055           35 
  938000   0.88366268   -7.9755352    191.23385  0.016989504  0.016800718            8 
  939000   0.87878247   -8.0098615    191.62954  0.017006527  0.016785316            8 
  940000   0.87686493    -7.935919    191.52023  0.016978744  0.016770003           19 
  941000   0.86552487   -7.9660777    191.63121  0.016970529  0.016754755           20 
  942000   0.87993992   -7.9738731    191.55748  0.016945991  0.016739524           34 
  943000   0.88594119   -7.9330879     192.1733  0.016982441  0.016724389           14 
  944000   0.87321831     -7.96217    191.88029  0.016938585  0.016709282           15 
  945000   0.87663659   -7.9665801    191.85144  0.016918116  0.016694148           10 
  946000   0.88517215   -7.9677835     192.3062  0.016940293  0.016679048            8 
  947000   0.87025934   -7.9587836    192.30907  0.016922656   0.01666392           10 
  948000   0.86470001   -7.9473842    192.30874  0.016904777  0.016648929            9 
  949000   0.86866379   -7.9425033    192.48317  0.016902281  0.016633987            8 
  950000   0.89049324   -7.9051757    192.97548  0.016927674  0.016619041           13 
  951000    0.8483968   -7.9529166    192.80243   0.01689471  0.016604154           15 
  952000   0.86362876    -7.944553    192.47268  0.016848099  0.016589252           14 
  953000   0.88135553   -7.9505095    192.33632  0.016818496  0.016574278            7 
  954000   0.87297502   -7.9572817    192.55046  0.016819572  0.016559313           17 
  955000   0.87342595   -7.9781143    191.90678  0.016745792  0.016544308            3 
  956000   0.87081375   -7.9598389    193.23953   0.01684445   0.01652943           21 
  957000   0.87181143    -7.963786    193.03943  0.016809424  0.016514644           20 
  958000   0.87374915   -7.9458084     192.7357  0.016765458  0.016499816            7 
  959000   0.86139882   -7.9626453    193.10342  0.016779929  0.016485039           14 
  960000   0.88184301   -7.9414634    193.11785  0.016763703  0.016470333            9 
  961000   0.87057336   -7.9226661    193.48825  0.016778378  0.016455634            8 
  962000    0.8595915   -7.9504664    193.63268  0.016773448   0.01644089           19 
  963000   0.88616074   -7.9364551    193.34361  0.016731015   0.01642628           15 
  964000   0.84941747   -7.9496182    193.20309  0.016701512  0.016411674           23 
  965000    0.8604518   -7.9656808    193.31163  0.016693578  0.016396962           11 
  966000   0.87555362   -7.9969529     193.2394  0.016670065  0.016382295            8 
  967000     0.872799   -7.9509768    193.56157   0.01668059   0.01636754           16 
  968000   0.88019301    -7.979086    192.92293  0.016608379  0.016352733           23 
  969000   0.88613815   -7.9533828    193.19382  0.016614536  0.016338004           28 
  970000   0.84592214   -7.9683337    192.79566  0.016563201  0.016323312           12 
  971000   0.87936115   -7.9456365    193.59681  0.016614899  0.016308643           11 
  972000   0.86517236   -7.9861351    193.62569  0.016600282  0.016293957           15 
  973000   0.86201947   -7.9502767    193.68203  0.016588047  0.016279306           21 
  974000   0.86103635   -7.9354879    193.98971   0.01659734  0.016264684           15 
  975000   0.87867175    -7.952369    193.96284  0.016578021  0.016250035           18 
  976000   0.86501134   -7.9625507    193.81102  0.016548072  0.016235353           11 
  977000   0.84252858   -7.9274556     193.8094  0.016530997   0.01622065            5 
  978000   0.86271757   -7.9837002    193.63932  0.016499601  0.016205973           14 
  979000   0.87452057   -8.0196551    193.89881  0.016504836  0.016191339            8 
  980000   0.87562322    -7.985383     194.0116  0.016497585  0.016176689           16 
  981000   0.85098267   -7.9905741     193.8541  0.016467389  0.016162054            9 
  982000   0.85906431   -7.9952109    193.87306  0.016452229  0.016147408            4 
  983000   0.84297279   -7.9991428    193.97271   0.01644394  0.016132672            8 
  984000   0.85001533   -8.0031667    193.68232  0.016402636  0.016118028            8 
  985000   0.83789903   -7.9944308    193.77391  0.016393732  0.016103423            8 
  986000   0.86400975   -7.9763601    194.47806  0.016436617  0.016088836            8 
  987000   0.84581127   -7.9938172    194.60854  0.016430981  0.016074454           10 
  988000   0.86507269   -7.9920709    194.55706  0.016410008   0.01606005            4 
  989000   0.83705809   -7.9608344    195.29661  0.016455731  0.016045687            7 
  990000   0.86615283    -7.970872    194.78188  0.016395781  0.016031483            6 
  991000   0.86367564   -7.9963709    194.96445  0.016394589  0.016017188            8 
  992000   0.87158111   -8.0007976    194.58791   0.01634643  0.016002951            4 
  993000    0.8393338   -8.0106724    194.87244  0.016353847  0.015988657            3 
  994000   0.86786013   -8.0097231    194.52891  0.016308594  0.015974351           12 
  995000   0.86227035   -8.0179804     194.6563  0.016302872  0.015959968            7 
  996000   0.84047312   -7.9947599    194.88944  0.016306011  0.015945712            8 
  997000   0.85588479   -8.0566237    194.46935  0.016254543  0.015931372            6 
  998000   0.83407104   -8.0180631    195.03432  0.016285431  0.015917037           11 
  999000   0.85358003   -8.0434571    195.05554  0.016270899  0.015902757           13 
 1000000   0.86560143   -8.0001331    195.54216   0.01629518  0.015888506           18 
 1001000   0.85100334   -7.9950087    195.08266  0.016240647  0.015874268           11 
 1002000   0.85119276     -7.97585    195.65445  0.016271993  0.015859955            7 
 1003000   0.86161473    -8.012632    195.44677  0.016238515   0.01584572            5 
 1004000   0.85256482   -8.0026345    194.96638  0.016182468  0.015831473           17 
 1005000   0.84970349   -8.0277186    195.33545  0.016196969  0.015817184            7 
 1006000   0.85899843   -8.0268736     195.1556  0.016165971  0.015802967            5 
 1007000   0.85845687   -8.0072644    195.18384  0.016152254   0.01578863            6 
 1008000   0.85198072   -8.0465375    194.72733   0.01609849  0.015774335            6 
 1009000   0.85250531   -8.0120294    195.51481  0.016147572  0.015760074           10 
 1010000   0.84549706   -8.0397341    195.47632   0.01612841  0.015745795           29 
 1011000   0.86470951   -8.0145743     195.9106  0.016148252  0.015731633            6 
 1012000   0.85270997    -8.043503    195.50711  0.016099071  0.015717448           17 
 1013000   0.83543139   -8.0585788    194.82263   0.01602687  0.015703202           15 
 1014000   0.84648774   -8.0460771    194.83014  0.016011681  0.015689003           25 
 1015000   0.85048677    -8.025215    195.27992  0.016032835  0.015674677           14 
 1016000   0.84890414   -8.0227953    195.44803  0.016030843  0.015660488            6 
 1017000   0.84989619   -8.0116158    195.98748  0.016059282  0.015646267           14 
 1018000    0.8645156   -8.0478043     195.4285  0.015997749  0.015632107           14 
 1019000   0.84175714   -8.0085071    196.40113  0.016061591  0.015618015            6 
 1020000   0.84141568   -8.0335095    195.82347  0.015998649  0.015604008           10 
 1021000   0.84547701   -8.0578002    195.60188  0.015964894   0.01558995            5 
 1022000   0.81957596   -8.0684355     195.3573  0.015929329  0.015575768           17 
 1023000   0.84605273    -8.058904    196.01341  0.015967205  0.015561728           17 
 1024000   0.84140296   -8.0424704    195.97632  0.015948593  0.015547751           12 
 1025000   0.83025774   -8.0165491    196.12097  0.015944794  0.015533706            9 
 1026000   0.85628787     -8.01735    195.62662  0.015889102  0.015519721           17 
 1027000   0.84800609   -8.0815337    196.04904  0.015907907   0.01550561           15 
 1028000   0.84242863    -8.029339    195.74306  0.015867628  0.015491612            9 
 1029000   0.81913312    -8.037934    196.41363  0.015906514  0.015477732           10 
 1030000   0.84344409   -8.0172926    196.61356  0.015907246  0.015463874            4 
 1031000    0.8477232   -8.0157079    195.99945   0.01584218  0.015450076           16 
 1032000   0.83564607   -8.0164208    196.60722  0.015875906   0.01543616            6 
 1033000    0.8288852   -8.0093897    196.87588  0.015882211  0.015422271            9 
 1034000    0.8406678   -8.0528154    195.47038  0.015753577  0.015408337           15 
 1035000    0.8269106   -8.0198531    195.90767  0.015773564  0.015394442           17 
 1036000   0.85469998     -8.05633    196.26517  0.015787096  0.015380443            8 
 1037000   0.83409187   -8.0541766    196.18436  0.015765378  0.015366518           16 
 1038000   0.86225203   -8.0665672    196.10059  0.015743464  0.015352519           15 
 1039000     0.844376   -8.0912292    196.20564  0.015736737  0.015338522           11 
 1040000   0.83738897   -8.0764342    195.99271  0.015704544  0.015324463           20 
 1041000   0.83992911    -8.097078    196.19604  0.015705735  0.015310486           14 
 1042000   0.83317993   -8.1003114    196.19924  0.015690918  0.015296522           13 
 1043000   0.83254138   -8.0894418    196.51311  0.015700952  0.015282514           18 
 1044000   0.84325676   -8.0907746    196.31622  0.015670197  0.015268534           12 
 1045000   0.83715953   -8.0737329    196.70263  0.015686015  0.015254553           11 
 1046000   0.85851448   -8.0753959    196.25637  0.015635466  0.015240629           12 
 1047000   0.82856844   -8.0739201    196.32967  0.015626366  0.015226643           18 
 1048000   0.84266537    -8.079007    196.56775  0.015630387  0.015212661           12 
 1049000   0.82761339   -8.1075753    196.42298  0.015603987  0.015198791           10 
 1050000   0.83312906   -8.0869669     197.2681  0.015656199  0.015184866           12 
 1051000   0.82734395   -8.0761391    196.63841  0.015591374   0.01517103           15 
 1052000   0.82947888   -8.0885804    196.71001  0.015582225  0.015157193           33 
 1053000   0.82669441   -8.0778799    196.75299  0.015570829  0.015143292           23 
 1054000   0.84648311   -8.0962547     196.6014   0.01554407  0.015129324           21 
 1055000   0.83433876   -8.1088135     196.7769  0.015543199  0.015115357           13 
 1056000   0.83410771   -8.0794152    196.65395  0.015518778  0.015101338           17 
 1057000   0.83380013   -8.1084975    196.27664  0.015474349  0.015087376           36 
 1058000   0.85104079   -8.0982731    196.08771  0.015444842  0.015073401           30 
 1059000   0.83589194   -8.1025199    196.47161  0.015460467  0.015059451           22 
 1060000   0.83585608   -8.1004329    196.61181  0.015456903  0.015045477           32 
 1061000   0.84393145   -8.0896079    196.45665  0.015430149  0.015031594           21 
 1062000   0.83763762   -8.1107082    196.40443  0.015411521  0.015017641           35 
 1063000   0.83971513   -8.0985767    196.49937  0.015404466  0.015003714           13 
 1064000   0.84593079   -8.0822564    196.89953  0.015421329    0.0149898           19 
 1065000   0.82643643   -8.1195174    195.91773  0.015330026  0.014975874           59 
 1066000   0.81506664   -8.1230524    196.56876  0.015366539  0.014961947           78 
 1067000   0.82957974   -8.1056836    196.65449  0.015358832  0.014948072           57 
 1068000   0.84239138   -8.1103573    196.62239  0.015341946  0.014934188           25 
 1069000    0.8216388   -8.0966978    196.83276  0.015343994  0.014920236           45 
 1070000   0.82372411   -8.1176337    196.90828  0.015335536  0.014906382           67 
 1071000   0.84671966   -8.1116575    196.63993  0.015300337  0.014892446           53 
 1072000   0.82907463   -8.1729914    196.43121  0.015269839  0.014878545           77 
 1073000   0.82757974    -8.121925    196.43963  0.015256262  0.014864614           92 
 1074000   0.81139855   -8.1247859     197.2101  0.015301839  0.014850753          138 
 1075000   0.83723622    -8.132932    196.78345  0.015254531  0.014836952          137 
 1076000   0.81563849   -8.1255499    197.12493  0.015266801  0.014823182          145 
 1077000   0.81497171    -8.122423    197.25585  0.015262755  0.014809401          129 
 1078000   0.81593875   -8.1298724    197.59118  0.015274519  0.014795642          108 
 1079000   0.82832366   -8.1252913    196.74833  0.015195268  0.014781917           89 
 1080000   0.80836863   -8.1272642    196.70249  0.015177661  0.014768195          111 
 1081000   0.83611609   -8.1280427    196.94565  0.015182366  0.014754398          123 
 1082000    0.7968114   -8.1340236    196.84854  0.015160855  0.014740628          101 
 1083000    0.8110582   -8.1670427    196.74219  0.015138672  0.014726821          139 
 1084000   0.81878616   -8.1699738    196.71343  0.015122496  0.014712976          155 
 1085000   0.82525568   -8.1634229    196.78296  0.015113899  0.014699123          118 
 1086000   0.80828678   -8.1382753    197.10638  0.015124799  0.014685339          115 
 1087000   0.81169269   -8.1541428    197.21826  0.015119462  0.014671618          131 
 1088000   0.83048717   -8.1234044    197.70016  0.015142476  0.014657879          124 
 1089000   0.81154844   -8.1481388    197.01167  0.015075885  0.014644207          109 
 1090000   0.82626103   -8.1545746     196.8098  0.015046621  0.014630485          131 
 1091000   0.82280135    -8.185039    197.13434  0.015057619  0.014616734          173 
 1092000   0.82213148   -8.1871174    197.24749  0.015052464  0.014602988          173 
 1093000   0.82489724    -8.176572    197.43886  0.015053283  0.014589199          157 
 1094000   0.81559308    -8.207519    196.71699  0.014984536  0.014575447          164 
 1095000   0.80880356   -8.1664812    196.74011  0.014972611  0.014561731          159 
 1096000   0.81504715   -8.1906475    197.22477  0.014995801  0.014548007          134 
 1097000   0.83658156   -8.1855337    196.61327  0.014935678  0.014534357          192 
 1098000   0.79960203   -8.1820646    197.12786  0.014961131  0.014520723          190 
 1099000   0.83035184   -8.1944206     196.9751  0.014935935  0.014507036          174 
 1100000   0.81524862   -8.1837377      197.117  0.014933106  0.014493303          169 
 1101000   0.80794952   -8.2001896    197.07858  0.014916635  0.014479602          211 
 1102000    0.8108699   -8.1930896     197.1119  0.014905619   0.01446595          247 
 1103000   0.81540007    -8.174984    197.40184   0.01491401  0.014452339          214 
 1104000   0.81749715   -8.1812212    197.04121  0.014873279  0.014438684          220 
 1105000   0.82164845   -8.1797219    197.32543  0.014881254  0.014425056          211 
 1106000   0.81711037   -8.1802324    197.14151  0.014853942  0.014411466          210 
 1107000   0.82762353   -8.1543041    197.75388  0.014886621  0.014397929          233 
 1108000   0.82631665   -8.1574961    197.39812  0.014846429  0.014384412          273 
 1109000   0.79586552   -8.1959075    197.72434  0.014857555   0.01437089          284 
 1110000    0.8094874   -8.1638213    197.34514  0.014815701  0.014357373          276 
 1111000   0.82461369   -8.1960966     197.6902  0.014828248  0.014343794          265 
 1112000   0.81535363   -8.1421651    197.92561  0.014832555  0.014330241          237 
 1113000   0.80976032   -8.1695754    197.64642  0.014798324  0.014316787          299 
 1114000   0.80823713   -8.1619193    197.79583  0.014796217  0.014303291          294 
 1115000   0.80534201   -8.2058538    197.11155  0.014731805  0.014289771          358 
 1116000   0.79693395   -8.2213125    197.16122  0.014722313  0.014276197          281 
 1117000    0.8189901   -8.2052875    197.51707  0.014735681  0.014262635          355 
 1118000   0.78581024   -8.1823182      197.539  0.014724136  0.014249105          298 
 1119000   0.81212492   -8.1977664    197.20143  0.014685838  0.014235548          280 
 1120000    0.8166329   -8.1857714    196.94843  0.014653901  0.014221939          298 
 1121000   0.80437968   -8.2367097    196.80673  0.014630295  0.014208321          357 
 1122000   0.79599378   -8.2170644    197.06824  0.014636678  0.014194701          399 
 1123000   0.81046163   -8.2562291    197.07259  0.014623968  0.014181038          361 
 1124000   0.79828098   -8.2232243    196.98229  0.014604262  0.014167452          396 
 1125000   0.78857972   -8.2503712    197.21893   0.01460881  0.014153775          399 
 1126000   0.81063296   -8.2632036    196.73156  0.014559766  0.014140025          433 
 1127000     0.815484   -8.2796329    196.48565  0.014528664  0.014126235          474 
 1128000   0.78359363   -8.2833371    196.18871  0.014493847  0.014112434          442 
 1129000   0.80472446   -8.2748314    196.66452   0.01451613  0.014098598          504 
 1130000   0.80451596   -8.2887523    196.33775  0.014479185  0.014084799          524 
 1131000   0.81973173   -8.2751371    197.29448  0.014536876  0.014071052          469 
 1132000   0.81067265    -8.260722    196.81892  0.014489025  0.014057343          490 
 1133000   0.79963957   -8.2833059    196.59435  0.014459719  0.014043614          582 
 1134000   0.80431472   -8.2539308     196.8916  0.014468813  0.014029919          552 
 1135000   0.80183911   -8.2921769    196.46672  0.014424869  0.014016202          563 
 1136000   0.82056858   -8.2896552    197.04412  0.014454528   0.01400249          566 
 1137000   0.79451224   -8.3012338    196.62724   0.01441126  0.013988759          636 
 1138000   0.81991672   -8.3170635    196.32162  0.014376217  0.013975045          601 
 1139000   0.80879397   -8.2909651    196.29619  0.014361735  0.013961303          626 
 1140000   0.81891098   -8.3031923    196.49251  0.014363488  0.013947504          653 
 1141000   0.78433455   -8.3150583    196.59639  0.014358486  0.013933754          706 
 1142000   0.76857686   -8.3128462    196.50028    0.0143389   0.01392004          757 
 1143000   0.79937859   -8.3094203    196.18882  0.014303647  0.013906307          797 
 1144000   0.79007331   -8.2828251     196.6577  0.014325299  0.013892623          756 
 1145000   0.79911236   -8.3329843    196.34734  0.014290199  0.013878882          787 
 1146000   0.78617093   -8.3424612    196.04695  0.014255887  0.013865137          858 
 1147000   0.81486654   -8.3295518    196.64882  0.014287186  0.013851421          815 
 1148000   0.78738874   -8.3346468    196.61776  0.014272486  0.013837708          856 
 1149000   0.78661431   -8.3410748    196.41526  0.014245377  0.013823986          857 
 1150000   0.78862026   -8.3731663    195.99731  0.014202704  0.013810263          923 
 1151000   0.79900488   -8.3228107    196.76073  0.014245636  0.013796546          851 
 1152000   0.80514681   -8.3491225    196.30308  0.014200165  0.013782868         1003 
 1153000   0.77310787   -8.3962647    196.08584  0.014172148  0.013769117         1000 
 1154000   0.78457234   -8.3674114    196.05859  0.014157899  0.013755399         1033 
 1155000   0.78549814   -8.4026931    196.49758  0.014177314  0.013741712         1058 
 1156000   0.80129686   -8.4094935    196.25069  0.014147253  0.013728039         1169 
 1157000   0.79589614   -8.3976869    196.11479  0.014125237  0.013714278         1203 
 1158000   0.78494952   -8.4144314    196.46161  0.014137997  0.013700563         1235 
 1159000   0.79919888   -8.3873486    196.20526  0.014107367  0.013686821         1240 
 1160000   0.79791503   -8.3898842    196.39454  0.014108803  0.013673061         1336 
 1161000   0.78103033   -8.4197057    195.70762  0.014047346  0.013659305         1398 
 1162000   0.78783866   -8.4221976     196.2623  0.014075036  0.013645513         1419 
 1163000   0.78848378   -8.4485098    195.63189  0.014017762   0.01363169         1507 
 1164000   0.80441564   -8.4695766    195.23516  0.013977316  0.013617811         1530 
 1165000   0.78045311   -8.4750871    195.81827  0.014007029  0.013603987         1494 
 1166000   0.77527817   -8.4664567    196.00427   0.01400831  0.013590177         1599 
 1167000   0.79270524   -8.4650251     195.5357  0.013962846  0.013576367         1688 
 1168000   0.77162071   -8.4620807    195.96593  0.013981588  0.013562542         1592 
 1169000   0.79036171   -8.4886957    196.04637  0.013975361  0.013548727         1682 
 1170000   0.77587837   -8.4839162    195.58783  0.013930757  0.013534885         1640 
 1171000   0.77950126   -8.5051017    195.80315  0.013934184  0.013521111         1695 
 1172000    0.7951555   -8.4903657    195.73252  0.013917273   0.01350731         1726 
 1173000   0.78382037   -8.5006401    195.90348  0.013917553  0.013493531         1810 
 1174000    0.7830072   -8.5427102    195.33375  0.013865258  0.013479713         1809 
 1175000   0.79264678   -8.5186198    195.30651  0.013851526  0.013465872         1855 
 1176000   0.77995287   -8.5089144    195.33405  0.013841699  0.013451981         1972 
 1177000   0.79650262    -8.583209    195.14049  0.013816234  0.013438089         2124 
 1178000   0.78414872   -8.5743975    195.14314  0.013804693  0.013424147         2117 
 1179000   0.77822247   -8.5635375    195.33529  0.013806565  0.013410181         2141 
 1180000   0.77389681   -8.5685173    195.27089  0.013790317  0.013396281         2134 
 1181000   0.77971635   -8.6053867    194.06495  0.013693547  0.013382355         2243 
 1182000   0.77286067   -8.6002331    194.74174  0.013729677  0.013368372         2274 
 1183000   0.77587575   -8.6222901    194.35504  0.013690831  0.013354372         2353 
 1184000   0.78690535   -8.6346437    195.00169  0.013724781  0.013340388         2348 
 1185000   0.78909567    -8.636882    194.38867  0.013670089  0.013326377         2452 
 1186000   0.77657259   -8.6547841    194.80099  0.013687534  0.013312429         2410 
 1187000   0.78153871   -8.6782618    194.54675  0.013658154  0.013298443         2447 
 1188000    0.7719096   -8.6765306    194.50218  0.013643531  0.013284408         2611 
 1189000    0.8014011    -8.682981    194.38406  0.013623778  0.013270349         2638 
 1190000   0.79575141   -8.6831592    194.48311  0.013619266  0.013256296         2725 
 1191000   0.80151777    -8.679778    193.87088  0.013564993   0.01324224         2730 
 1192000   0.76080146   -8.7150465    194.28677  0.013582688  0.013228169         2782 
 1193000   0.79091673   -8.6970152    194.40044  0.013579243  0.013214102         2766 
 1194000   0.78487396   -8.7240484    193.50526  0.013505392  0.013200001         2908 
 1195000   0.76281443   -8.7271159    194.03661  0.013531144  0.013185877         2902 
 1196000   0.77129305   -8.7458902    193.68715  0.013495482  0.013171767         2929 
 1197000    0.7782315   -8.7550103    194.10911  0.013513583  0.013157664         2954 
 1198000   0.78365651   -8.7423239    193.84302  0.013483794  0.013143536         2957 
 1199000   0.77692759    -8.762385    193.60815  0.013456224  0.013129409         3145 
 1200000   0.77868135   -8.7595116    193.83562  0.013460807  0.013115256         3125 
 1201000   0.77260187   -8.7667135    193.22776  0.013407421  0.013101059         3199 
 1202000   0.79331241   -8.7777415    193.39757   0.01340804  0.013086832         3203 
 1203000   0.78286663   -8.8212181    192.87843  0.013360933  0.013072615         3300 
 1204000   0.77460886   -8.8149802     193.1968  0.013371872  0.013058424         3336 
 1205000   0.76595182   -8.8372763    192.54468  0.013315676   0.01304422         3306 
 1206000   0.76615885   -8.8122522    193.03572  0.013338565  0.013029994         3410 
 1207000   0.77215417   -8.8226674    193.20942  0.013339507  0.013015761         3357 
 1208000   0.78258673   -8.8226992     193.2891  0.013333961  0.013001537         3360 
 1209000   0.76326643   -8.8341898    193.14071  0.013312704  0.012987306         3380 
 1210000   0.76614017   -8.8208815    193.00108  0.013292085  0.012973088         3339 
 1211000   0.77985072   -8.8387678    192.93138  0.013276313  0.012958908         3404 
 1212000   0.76898462   -8.8586493    192.86869  0.013261049  0.012944697         3422 
 1213000   0.76441701   -8.8204576    192.88254  0.013251068  0.012930518         3457 
 1214000   0.78393347   -8.8708109    192.70992  0.013228303  0.012916325         3491 
 1215000   0.76817264   -8.8774972    192.50446  0.013203324  0.012902137         3505 
 1216000   0.75855259   -8.8680328    192.91254  0.013220432  0.012887945         3587 
 1217000   0.76574431   -8.8753973    192.80012   0.01320187  0.012873752         3570 
 1218000   0.77577649   -8.8986878    192.71332  0.013185093  0.012859564         3603 
 1219000   0.76277142   -8.8884147    192.47607  0.013158058  0.012845423         3622 
 1220000   0.76125318   -8.8523498    192.77942  0.013167993   0.01283128         3596 
 1221000   0.76999399   -8.8745646    192.74926   0.01315515  0.012817127         3525 
 1222000   0.76409908   -8.9094789    192.40264  0.013120747  0.012802981         3578 
 1223000   0.78239804   -8.8913245    192.46723   0.01311442  0.012788848         3601 
 1224000   0.78377435   -8.9073025    192.22229   0.01308703  0.012774711         3577 
 1225000   0.77152444   -8.8957784    192.48264  0.013094057    0.0127606         3651 
 1226000   0.75952469   -8.8843677    192.40883   0.01307836  0.012746496         3660 
 1227000   0.76460607   -8.8898912    192.31541  0.013061356  0.012732406         3625 
 1228000   0.76286845   -8.9074138    192.39714  0.013056266  0.012718342         3682 
 1229000   0.75631252   -8.9060352    192.52817  0.013054527  0.012704303         3657 
 1230000    0.7460434   -8.9154801    192.63848  0.013051387  0.012690251         3637 
 1231000   0.76787862   -8.9303931    192.18208  0.013009889  0.012676198         3683 
 1232000   0.75373441   -8.9182731    192.25383  0.013004182  0.012662168         3662 
 1233000    0.7592264   -8.9228729    192.11316  0.012984128  0.012648166         3641 
 1234000   0.76852479   -8.9320642    192.44817   0.01299623  0.012634173         3683 
 1235000   0.76097497   -8.9195833    192.67471  0.013000992  0.012620168         3702 
 1236000   0.75709249   -8.9103991    192.23252  0.012960661  0.012606183         3713 
 1237000    0.7469672   -8.9143542    192.47774  0.012966703  0.012592204         3730 
 1238000   0.75199479   -8.9398434     192.1462  0.012933912  0.012578211         3719 
 1239000   0.77210713   -8.9258225    191.98314  0.012912506  0.012564208         3745 
 1240000   0.74964992   -8.9318218    192.00139  0.012903319  0.012550226         3768 
 1241000   0.76923112   -8.9271348    192.27164  0.012911069  0.012536254         3762 
 1242000   0.75939124   -8.9455462    191.90975  0.012876392  0.012522299         3790 
 1243000   0.75040968   -8.9602581    191.86483  0.012863022  0.012508348         3729 
 1244000   0.76060929   -8.9526704    191.42081  0.012822938  0.012494415         3795 
 1245000   0.76028946   -8.9450058    191.89651  0.012844478  0.012480473         3776 
 1246000   0.75468346   -8.9566972    191.94811  0.012837621  0.012466566         3798 
 1247000   0.76158246   -8.9631467    191.56457  0.012801695  0.012452669         3767 
 1248000   0.76297653   -8.9588878    191.66129  0.012797896  0.012438759         3812 
 1249000   0.74570644   -8.9739104    191.78517  0.012795915  0.012424887         3839 
 1250000   0.75105641      -8.9623    191.54913  0.012769942  0.012411009         3773 
 1251000   0.74510768   -8.9600212    191.66366  0.012767363  0.012397154         3791 
 1252000   0.74517156   -8.9914689    191.56034  0.012750289  0.012383305         3796 
 1253000    0.7680077    -8.977553    192.35212  0.012792772  0.012369484         3795 
 1254000   0.74561419    -8.975615    191.91515  0.012753532  0.012355653         3830 
 1255000   0.75499711   -8.9654608    192.00032  0.012749025  0.012341824         3817 
 1256000   0.76821056   -8.9624879    191.70682  0.012719402   0.01232803         3861 
 1257000    0.7725013   -8.9875601    191.66355  0.012706414  0.012314251         3822 
 1258000   0.74323325   -8.9903682    192.03989  0.012721244   0.01230048         3823 
 1259000   0.74781128   -8.9774126    191.82989  0.012697239  0.012286718         3781 
 1260000   0.76002553   -8.9884383    191.48718  0.012664496  0.012272979         3787 
 1261000   0.75069465   -8.9778628     191.4574  0.012652485  0.012259282         3803 
 1262000   0.75116426   -8.9710918    191.73327  0.012660675  0.012245574         3829 
 1263000   0.74804443   -8.9805188    191.82336  0.012656595  0.012231883         3798 
 1264000   0.75104867   -8.9999628    191.53792  0.012627764  0.012218225         3818 
 1265000   0.74768893   -8.9685954    191.66805  0.012626354  0.012204569         3793 
 1266000   0.73936685   -8.9785491    191.90894  0.012632237   0.01219095         3838 
 1267000   0.74563251   -8.9760941    191.56639  0.012599737  0.012177322         3801 
 1268000   0.75744962    -8.982419    191.52195  0.012586879  0.012163721         3808 
 1269000   0.73653582    -8.969572    192.11124  0.012615658  0.012150132         3804 
 1270000   0.73782949   -8.9995564    191.53611  0.012567986  0.012136549         3827 
 1271000   0.72670196   -8.9840609    191.87445  0.012580282   0.01212298         3783 
 1272000   0.73969418   -8.9832736     191.8903  0.012571429  0.012109431         3807 
 1273000   0.76010236   -8.9981051    191.55703  0.012539737  0.012095881         3834 
 1274000   0.75275104   -8.9958173    191.27794  0.012511639   0.01208236         3815 
 1275000   0.75847633   -8.9709119    191.66889  0.012527379  0.012068852         3791 
 1276000   0.74083671   -9.0008452    191.33099  0.012495493  0.012055355         3823 
 1277000   0.74622284   -9.0114807    191.55736   0.01250048   0.01204191         3830 
 1278000   0.73574892   -8.9938785    191.57286   0.01249171  0.012028447         3836 
 1279000   0.74010165   -8.9893386    191.47251  0.012475405  0.012015015         3807 
 1280000   0.73187177   -8.9865919    191.14328  0.012444224  0.012001575         3826 
 1281000   0.75214758   -8.9931794    191.40983   0.01245185  0.011988154         3837 
 1282000   0.71572665   -9.0137663    191.29463  0.012434648  0.011974746         3825 
 1283000   0.74182607   -9.0267765    191.30441  0.012425592  0.011961354         3842 
 1284000   0.72805417   -9.0042871    191.38315  0.012421025  0.011947981         3771 
 1285000   0.74186593   -8.9994375    191.93451  0.012447114  0.011934634         3844 
 1286000   0.75219265   -9.0297368    191.56801  0.012413686  0.011921291         3811 
 1287000   0.72341191   -8.9952545     191.4775   0.01239818  0.011907959         3822 
 1288000   0.74554899   -8.9989969    191.30142  0.012377162  0.011894642         3849 
 1289000   0.75224496   -8.9962192    191.44073  0.012376567  0.011881353         3853 
 1290000    0.7295204   -8.9995356    191.05535  0.012342077  0.011868066         3835 
 1291000   0.72960389    -9.021014    191.46737  0.012359112  0.011854789         3825 
 1292000   0.74598574   -9.0183755    191.70194  0.012364676  0.011841543         3848 
 1293000   0.75210444   -9.0197285    191.03681  0.012312246  0.011828312         3843 
 1294000   0.73982902    -9.029762    190.98274  0.012299249  0.011815082         3863 
 1295000   0.75697751   -9.0385643    191.04276  0.012293614  0.011801875         3836 
 1296000   0.73878045   -9.0100505    191.40397  0.012307354  0.011788668         3874 
 1297000   0.75171685   -8.9872899    191.11714  0.012279436  0.011775493         3819 
 1298000   0.74273814    -9.015295    191.42467  0.012289719  0.011762335         3855 
 1299000   0.73657253   -9.0195536     191.1657  0.012263645  0.011749186         3839 
 1300000   0.71944477   -9.0009512     191.1998  0.012256398  0.011736057         3852 
 1301000   0.73294568   -9.0199942    191.21934  0.012248229  0.011722955         3864 
 1302000   0.75003255    -9.011068    191.55555   0.01226034  0.011709858         3847 
 1303000   0.72454297   -9.0510637    191.01707  0.012216492  0.011696781         3848 
 1304000   0.72249207   -9.0372516    191.04715  0.012209046  0.011683701         3840 
 1305000   0.72853643   -9.0330032    191.43375  0.012224377  0.011670654         3842 
 1306000   0.73104562   -9.0173171    191.20524  0.012200436  0.011657641         3843 
 1307000   0.72049602    -9.044411    190.97469  0.012176402  0.011644622         3873 
 1308000   0.73596816   -9.0094253    191.06509  0.012172853  0.011631619         3845 
 1309000   0.72074416   -9.0531671    190.91401  0.012153935  0.011618612         3851 
 1310000    0.7428283   -9.0317788    191.32558  0.012170838  0.011605657         3822 
 1311000   0.72312703   -9.0049777    191.38886  0.012165577  0.011592704         3814 
 1312000   0.73506562   -9.0387707    191.39178   0.01215649  0.011579777         3860 
 1313000   0.73054474   -9.0455327    191.15892  0.012132452  0.011566863         3856 
 1314000   0.73441804   -9.0553003     191.3361  0.012134456  0.011553966         3847 
 1315000   0.74561363   -9.0443125    191.17962  0.012115312  0.011541056         3853 
 1316000   0.72671861   -9.0402682    191.25198  0.012110688  0.011528164         3859 
 1317000   0.72095468   -9.0437981    191.26149  0.012102094  0.011515271         3847 
 1318000    0.7187038   -9.0407919    191.06703  0.012080617  0.011502407         3862 
 1319000   0.73093928    -9.041904    190.92349  0.012062389  0.011489555         3876 
 1320000   0.74145789   -9.0301616    191.20087  0.012070762  0.011476742         3869 
 1321000   0.73104755   -9.0564012    191.07981  0.012053988  0.011463939         3842 
 1322000   0.71753217   -9.0424042     190.8221  0.012028625   0.01145113         3854 
 1323000   0.73763666   -9.0692062    190.97787  0.012029344  0.011438367         3867 
 1324000   0.72818823   -9.0363288    190.88511   0.01201442  0.011425611         3847 
 1325000   0.72491571   -9.0327417    191.30393  0.012031693  0.011412877         3856 
 1326000   0.72444919   -9.0515686    190.94447   0.01200003  0.011400154         3870 
 1327000   0.73626788   -9.0454947    190.55571  0.011966573  0.011387447         3867 
 1328000   0.72586653    -9.025188     191.2881   0.01200352   0.01137476         3832 
 1329000   0.72759651   -9.0309124    190.86132  0.011967728  0.011362087         3860 
 1330000   0.73432626   -9.0602066    190.60273  0.011942527  0.011349446         3867 
 1331000   0.72457051   -9.0490635    190.91841  0.011953319   0.01133681         3849 
 1332000   0.71799741   -9.0379577    191.29381  0.011967831  0.011324181         3857 
 1333000   0.70511546   -9.0556036    191.17589  0.011951481  0.011311568         3846 
 1334000   0.73634284   -9.0550299      190.751   0.01191598   0.01129898         3845 
 1335000   0.70821928   -9.0539891    190.83732  0.011912442   0.01128639         3870 
 1336000   0.73856848   -9.0342544    191.05118  0.011916865  0.011273826         3836 
 1337000    0.7241086    -9.034618      190.535  0.011875779  0.011261291         3845 
 1338000   0.72353048   -9.0658967    191.19431  0.011907967  0.011248765         3853 
 1339000   0.72871391   -9.0498966    191.15962  0.011896914  0.011236252         3868 
 1340000   0.71025383   -9.0415614    191.07252  0.011882619   0.01122374         3838 
 1341000   0.73169989   -9.0534683    190.56295  0.011842092  0.011211244         3838 
 1342000    0.7241592    -9.045835    190.89501  0.011853888  0.011198785         3846 
 1343000   0.70819996   -9.0415858    190.62486  0.011828298  0.011186317         3857 
 1344000   0.71794106   -9.0655812    190.49188  0.011811252  0.011173885         3855 
 1345000   0.71866117   -9.0869483     191.2392  0.011848773  0.011161467         3835 
 1346000   0.71425617   -9.0564666    190.95373  0.011822296  0.011149053         3860 
 1347000   0.72001096   -9.0425257    191.24096  0.011831289  0.011136646         3855 
 1348000   0.72392112   -9.0623501    190.61337  0.011783715   0.01112427         3856 
 1349000   0.71840326   -9.0883423    190.75143  0.011783508   0.01111189         3830 
 1350000   0.70267592   -9.0785699    190.63911  0.011767846  0.011099534         3857 
 1351000   0.71677534   -9.0839272    190.61564  0.011757688  0.011087189         3863 
 1352000   0.70413353   -9.0584837    190.92261  0.011767912  0.011074868         3851 
 1353000   0.70819304   -9.0606637    190.88848  0.011757113  0.011062559         3868 
 1354000   0.71691749   -9.0693339    190.94567  0.011751949  0.011050266         3857 
 1355000   0.72844574   -9.0618263    190.77407  0.011732723  0.011037998         3863 
 1356000   0.72714758   -9.0654793    190.82517  0.011727211  0.011025744         3844 
 1357000   0.70665254   -9.0605797    190.51498   0.01169952   0.01101348         3844 
 1358000   0.70225091   -9.0665598    190.67416  0.011700673  0.011001275         3871 
 1359000   0.70686729   -9.0871086    190.35094  0.011672243  0.010989052         3881 
 1360000   0.70707653    -9.059906      190.448  0.011669608  0.010976856         3863 
 1361000    0.7099102     -9.07212     190.9676  0.011692848  0.010964686         3860 
 1362000   0.70449322   -9.0828926    190.54912  0.011658659  0.010952522         3880 
 1363000   0.70286925   -9.0784876    190.38225  0.011639903  0.010940386         3855 
 1364000   0.72101403   -9.0676813    190.59302  0.011644246  0.010928255         3849 
 1365000    0.6991757   -9.0850153    190.76183  0.011646021  0.010916126         3840 
 1366000   0.69933616   -9.0757486    190.81965  0.011641023  0.010904022         3880 
 1367000   0.70881659    -9.085175    190.40174  0.011607031  0.010891941         3859 
 1368000   0.69220007   -9.1024637     190.4006  0.011598477  0.010879863         3880 
 1369000   0.71392989   -9.0705248    190.60172  0.011602247  0.010867809         3895 
 1370000    0.6914053   -9.0535748    190.93692  0.011614168  0.010855772         3877 
 1371000   0.71098553   -9.0723607    190.31244  0.011567739  0.010843756         3857 
 1372000   0.70545505   -9.0858993     190.8699  0.011593167  0.010831746         3898 
 1373000   0.72322771   -9.0918951    190.42978   0.01155801  0.010819742         3851 
 1374000   0.68947119      -9.1192     190.2679   0.01153978  0.010807767         3865 
 1375000   0.70877286   -9.0741098    190.73679  0.011559806  0.010795801         3862 
 1376000   0.69707011   -9.1022285    190.79542  0.011554955   0.01078386         3845 
 1377000   0.70707572   -9.0833434    190.71639  0.011541781  0.010771927         3870 
 1378000   0.69942038    -9.108745    190.20226  0.011502314  0.010760014         3872 
 1379000   0.70202378   -9.1120486    190.39505  0.011505623  0.010748114         3893 
 1380000   0.70372687   -9.0742487    190.31893  0.011492689  0.010736227         3868 
 1381000   0.71243503   -9.1081982    190.06438  0.011469007  0.010724363         3872 
 1382000   0.71423499   -9.0837735    190.42329   0.01148235  0.010712512         3891 
 1383000   0.68417959   -9.1041753    190.03006  0.011450353  0.010700665         3886 
 1384000   0.70763525   -9.1132963    190.43973  0.011466747  0.010688847         3903 
 1385000   0.71208379   -9.0911244    190.23746  0.011446298  0.010677045         3882 
 1386000   0.70658631   -9.1144771    190.65225  0.011462978  0.010665243         3864 
 1387000   0.70123374   -9.0948784    190.76376  0.011461413  0.010653464         3880 
 1388000   0.69004407    -9.114705    190.38729  0.011430553  0.010641705         3893 
 1389000   0.69940904   -9.1006659    190.32064  0.011418325  0.010629964         3863 
 1390000   0.69772628   -9.1249658    190.16697  0.011400898  0.010618227         3891 
 1391000   0.70457413   -9.1090756    190.18099  0.011393541  0.010606511         3882 
 1392000   0.70007252    -9.109058    190.46071  0.011402102  0.010594816         3855 
 1393000   0.69832952   -9.1083566    190.46027   0.01139389  0.010583141         3869 
 1394000   0.68971335   -9.1075468    190.41039  0.011382735  0.010571479         3868 
 1395000   0.69465163   -9.1196314    190.12006  0.011357232  0.010559838         3845 
 1396000   0.70338414   -9.0895972     190.7202  0.011384921  0.010548204         3851 
 1397000    0.6923725   -9.0993151    190.57926  0.011368365  0.010536585         3876 
 1398000   0.70793375   -9.1185697     190.8166   0.01137438  0.010524993         3857 
 1399000   0.68914072   -9.1107484    190.45885   0.01134494  0.010513417         3887 
 1400000   0.68674699   -9.1037803    190.39813  0.011333222  0.010501848         3865 
 1401000   0.68891407   -9.1026726    190.24051  0.011315757  0.010490294         3838 
 1402000   0.70071881   -9.1126254    190.32797  0.011312885  0.010478764         3862 
 1403000   0.70123595   -9.0955452    190.43961  0.011311452  0.010467237         3851 
 1404000   0.70002535   -9.1362002    190.26749  0.011293179  0.010455726         3872 
 1405000   0.68554131    -9.107083    190.26279  0.011284863  0.010444219         3865 
 1406000   0.69444882   -9.1154486    190.68815  0.011302048  0.010432723         3868 
 1407000   0.68121169   -9.1176754    190.73995  0.011297083  0.010421259         3828 
 1408000   0.69495492   -9.0946828    190.37825  0.011267652  0.010409806         3829 
 1409000   0.69562987   -9.0829425    190.28137  0.011253926  0.010398382         3855 
 1410000    0.7002914    -9.111986    190.22099  0.011242375  0.010386951         3859 
 1411000   0.69220011   -9.1345908    190.59516  0.011256506  0.010375547         3862 
 1412000   0.67802034   -9.1599567    190.22701  0.011226806  0.010364157         3876 
 1413000   0.68869074   -9.1245625    189.99829  0.011205372  0.010352781         3879 
 1414000   0.69235634   -9.1155629    190.33443  0.011217258  0.010341422         3856 
 1415000    0.6976486    -9.118821     190.1464  0.011198257  0.010330065         3877 
 1416000   0.67474094   -9.1244482    190.39143  0.011204769  0.010318743         3883 
 1417000   0.68310754   -9.1227859    190.21078  0.011186238  0.010307439         3871 
 1418000   0.69214285   -9.1198525    190.05231  0.011169036  0.010296141         3876 
 1419000   0.68672955   -9.1217555    190.14665  0.011166705  0.010284865         3887 
 1420000   0.68565612   -9.1198541    190.09055  0.011155549  0.010273613         3869 
 1421000   0.69318863   -9.1320701    190.23036  0.011155897   0.01026238         3879 
 1422000   0.68708005   -9.1289371    190.53628   0.01116598  0.010251165         3853 
 1423000   0.68675148   -9.1455336    190.14907  0.011135458  0.010239953         3853 
 1424000   0.67949102   -9.1233493    190.23123  0.011132445  0.010228762         3884 
 1425000   0.68376355   -9.1288959    190.28516  0.011127787  0.010217588         3845 
 1426000   0.67877326   -9.1165225    190.28529  0.011119991  0.010206422         3857 
 1427000   0.68684476   -9.1371947    190.28725  0.011112313  0.010195262         3882 
 1428000   0.68953379   -9.1251237     190.1351  0.011095652  0.010184124         3890 
 1429000   0.67797244   -9.1303405    190.24649  0.011094384   0.01017299         3892 
 1430000   0.69351617   -9.1301723    190.52674  0.011102957  0.010161872         3886 
 1431000   0.67847701     -9.14629    190.22693  0.011077739  0.010150761         3875 
 1432000   0.68504965   -9.1446004    190.11819  0.011063675  0.010139676         3865 
 1433000      0.68055   -9.1145054    190.05812  0.011052461  0.010128605         3893 
 1434000    0.6850044   -9.1296753    189.78594  0.011028937  0.010117541         3886 
 1435000   0.66027718   -9.1392772     190.1164  0.011040441  0.010106497         3895 
 1436000   0.68536867   -9.1548402    190.22166  0.011038862  0.010095461         3885 
 1437000   0.68356383   -9.1418419    189.80827  0.011007207  0.010084436         3899 
 1438000   0.68501974   -9.1459441    190.16834  0.011020419  0.010073439         3887 
 1439000   0.67266844   -9.1452227    189.96963  0.011001252  0.010062448         3880 
 1440000   0.68332795   -9.1207688    189.93101  0.010991378  0.010051475         3908 
 1441000   0.67750812   -9.1512495    189.83447  0.010978167  0.010040513         3902 
 1442000   0.67115459   -9.1332744    189.92413  0.010975735  0.010029573         3881 
 1443000    0.6768882   -9.1737479    189.80403  0.010961193  0.010018642         3893 
 1444000   0.68287091   -9.1506288    189.94975  0.010962012  0.010007717         3893 
 1445000   0.65426253   -9.1470151    189.82519  0.010947243 0.0099968123         3895 
 1446000   0.67708184   -9.1459577    189.98407  0.010948829 0.0099859262         3894 
 1447000   0.68145677   -9.1721446    190.05781  0.010945509 0.0099750441         3921 
 1448000   0.67751567   -9.1712435    189.91468  0.010929712 0.0099641772         3905 
 1449000   0.67427552   -9.1637939    190.18069  0.010937468 0.0099533257         3867 
 1450000   0.67303892   -9.1681586    190.18762  0.010930323 0.0099424701         3904 
 1451000   0.69195849   -9.1556828    189.82267  0.010901831 0.0099316539         3898 
 1452000   0.67707416   -9.1563091     189.4338  0.010872004 0.0099208483         3910 
 1453000    0.6830569   -9.1639339    190.23674  0.010910572 0.0099100538         3903 
 1454000   0.66377278   -9.1679591    189.56829  0.010864758 0.0098992633         3907 
 1455000   0.68108808   -9.1823181    189.81966  0.010871687 0.0098884859         3908 
 1456000   0.66243887   -9.1782185     189.6665  0.010855454 0.0098777237         3892 
 1457000   0.67306868   -9.1823856    189.93373  0.010863288 0.0098669891         3910 
 1458000    0.6635678   -9.1623451    190.12759  0.010866918 0.0098562532         3903 
 1459000   0.67630887   -9.1511113    189.62103  0.010830537 0.0098455494         3903 
 1460000   0.66345498   -9.1454068     189.9325  0.010840896 0.0098348471         3922 
 1461000   0.64949132   -9.1710249    190.22408  0.010850107 0.0098241587         3922 
 1462000   0.66271962   -9.1494617    190.12097  0.010836809 0.0098134849         3904 
 1463000   0.66441517   -9.1741403    189.84035  0.010813417  0.009802838         3912 
 1464000   0.68108903   -9.1644449    190.02569  0.010816581 0.0097922021         3899 
 1465000   0.67998489   -9.1574847    189.79804  0.010796248 0.0097815799         3921 
 1466000   0.67639192   -9.1774049      189.731  0.010785073 0.0097709725         3919 
 1467000    0.6638629   -9.1716299    189.78164  0.010780597 0.0097603763         3900 
 1468000   0.67398911   -9.1692079    190.22388  0.010798358 0.0097498103         3910 
 1469000   0.65979931   -9.1752098    189.97809  0.010777064 0.0097392447         3901 
 1470000   0.67334747   -9.1887882    189.43352  0.010738861 0.0097286977         3912 
 1471000   0.66284121   -9.1490564    189.69852  0.010746574 0.0097181674         3906 
 1472000   0.65046596   -9.1653842    189.81362  0.010745789 0.0097076394         3901 
 1473000   0.65820553   -9.1510418    190.17323  0.010758839 0.0096971366         3897 
 1474000   0.66411481   -9.1790415     189.6967  0.010724599 0.0096866538         3909 
 1475000   0.65551206   -9.1886636    189.89877  0.010728744 0.0096761862         3903 
 1476000    0.6617235   -9.1683858    189.82998  0.010717591 0.0096657121         3909 
 1477000   0.65911416   -9.1617538     189.7043  0.010703244 0.0096552552         3883 
 1478000   0.66249736   -9.1696712    189.79079  0.010700879 0.0096448181         3901 
 1479000   0.67975806   -9.1824915    190.03948  0.010707656 0.0096343914         3896 
 1480000   0.65929943   -9.1882859    189.83738  0.010689042 0.0096239693         3908 
 1481000   0.66652098    -9.184379     189.2864  0.010650821 0.0096135632         3922 
 1482000   0.66793825   -9.1896142    189.39624  0.010649811 0.0096031783         3906 
 1483000   0.67057475   -9.1716083     189.6664  0.010657811 0.0095928075         3906 
 1484000   0.67124507   -9.1883651    189.57971  0.010645761 0.0095824475         3908 
 1485000   0.65551429   -9.1925323    189.68769  0.010644651 0.0095721005         3905 
 1486000   0.67314685   -9.2161861    189.51286  0.010627684 0.0095617666         3926 
 1487000   0.65569782   -9.1955918    189.44945  0.010616983 0.0095514529         3927 
 1488000   0.66724979   -9.1984401    189.43239  0.010608893 0.0095411482         3905 
 1489000   0.66663109   -9.2115454    189.67056  0.010615097 0.0095308711         3902 
 1490000   0.64776814   -9.1936648    189.67049  0.010607969 0.0095206011         3920 
 1491000   0.66311569    -9.199391    189.44354   0.01058817 0.0095103533         3922 
 1492000   0.66085802   -9.1998814     189.3892  0.010578038 0.0095001107         3902 
 1493000   0.65611812    -9.192502    189.52505  0.010578536 0.0094898752         3917 
 1494000   0.65780909   -9.2057795    189.27565  0.010557544 0.0094796546         3901 
 1495000   0.64121387   -9.2213293    189.35274  0.010554779 0.0094694469         3919 
 1496000   0.66477799   -9.1778139     189.4144  0.010551158 0.0094592564         3889 
 1497000   0.65935339   -9.1894738    189.68719  0.010559296 0.0094490827         3902 
 1498000    0.6539487   -9.1821054    189.35944  0.010534014 0.0094389245         3906 
 1499000   0.66168027   -9.2028451      189.722  0.010547143 0.0094287763         3902 
 1500000   0.65485212   -9.1820856     189.4615  0.010525639 0.0094186457         3906 
 1501000   0.65524293   -9.1888074     189.7193  0.010532939  0.009408521         3908 
 1502000   0.65908728   -9.1997454    189.83345   0.01053226 0.0093984191         3915 
 1503000   0.65144233   -9.2003463    189.90757  0.010529362 0.0093883349         3903 
 1504000   0.65046209   -9.1990058    189.37434  0.010492816 0.0093782653         3906 
 1505000   0.64656206   -9.1890306    189.54232  0.010495145 0.0093682065         3910 
 1506000   0.65395962   -9.2241032    189.26197  0.010472663 0.0093581494         3917 
 1507000   0.65073732   -9.1960788    189.49252  0.010478462 0.0093481069         3918 
 1508000   0.65039893    -9.200611    189.39897  0.010466344 0.0093380863         3915 
 1509000   0.65479962   -9.1974328    189.46363  0.010462979 0.0093280748         3909 
 1510000   0.64710185   -9.1965754    189.87145  0.010478557 0.0093180692         3888 
 1511000   0.64951268    -9.194901    189.70034  0.010462185 0.0093080892         3871 
 1512000   0.65689163    -9.192337    189.67397  0.010453812 0.0092981319         3906 
 1513000   0.64638308   -9.1935348    189.70055  0.010448367 0.0092881841         3886 
 1514000   0.64654961   -9.1953191    189.92806  0.010453988 0.0092782443         3888 
 1515000   0.65328364   -9.1996407    189.61097  0.010429646  0.009268328         3921 
 1516000    0.6298213   -9.1968241    189.47029  0.010415033 0.0092584207         3898 
 1517000   0.63939219    -9.215231      189.279   0.01039766 0.0092485316         3913 
 1518000   0.65556896   -9.1972285    189.82606  0.010420842 0.0092386484         3914 
 1519000   0.64570156   -9.1969389    189.49459  0.010395797 0.0092287808         3912 
 1520000   0.64050587   -9.1995953    189.52043  0.010390374  0.009218921         3910 
 1521000   0.65759655    -9.218622    189.19681  0.010365813 0.0092090805         3909 
 1522000   0.64420122   -9.2066777    189.25117  0.010361978 0.0091992503         3903 
 1523000   0.64081016   -9.1964066    189.67256  0.010378232 0.0091894296         3913 
 1524000   0.64863897   -9.2022069    189.33131  0.010352762 0.0091796227         3888 
 1525000   0.65262024   -9.2174618    189.53276  0.010356981 0.0091698383         3906 
 1526000   0.64003989   -9.2075567    189.69516  0.010359063 0.0091600622         3902 
 1527000   0.64829293   -9.1928215    189.70702  0.010352926 0.0091503042         3924 
 1528000   0.64169261   -9.1980482    189.64557  0.010342799 0.0091405479         3918 
 1529000    0.6518662    -9.225103    189.58561  0.010332767 0.0091308241         3910 
 1530000   0.65475741   -9.2045605    189.43545  0.010317835 0.0091211094         3899 
 1531000   0.64118487   -9.2202798    189.28315  0.010302806 0.0091114072         3912 
 1532000   0.63594086   -9.2285919    189.44388  0.010304824 0.0091017254         3914 
 1533000   0.64443015   -9.2274576    189.28149  0.010289274  0.009092046         3912 
 1534000   0.63337815   -9.2132012    189.36078  0.010286874 0.0090823749         3922 
 1535000   0.64060009   -9.2041551    189.68522  0.010297786 0.0090727213         3891 
 1536000   0.64900943   -9.2262409    189.30038  0.010270203 0.0090630791         3898 
 1537000   0.62876605   -9.2214651    189.29526  0.010263243 0.0090534593         3909 
 1538000   0.64251444    -9.234905    189.14485   0.01024842 0.0090438445         3905 
 1539000   0.65253916   -9.2381193    189.27084  0.010248584 0.0090342411         3914 
 1540000   0.63768792   -9.2261761    189.20002  0.010238096  0.009024646         3910 
 1541000   0.63908345   -9.2298771    189.49653  0.010247487 0.0090150679         3914 
 1542000   0.63372588   -9.2340219     189.4767   0.01023977 0.0090055083         3895 
 1543000   0.62731609   -9.2377357    189.23538  0.010220101 0.0089959639         3916 
 1544000   0.63729625   -9.2216635    189.25358  0.010214463 0.0089864202         3903 
 1545000   0.63397996   -9.2305851    189.25113   0.01020772 0.0089768901         3908 
 1546000   0.63648625   -9.2366023    189.22457  0.010199686 0.0089673762         3904 
 1547000   0.63448284   -9.2155012    189.16412  0.010189836 0.0089578737         3896 
 1548000    0.6409822   -9.2063127     189.5348  0.010203208 0.0089483892         3906 
 1549000   0.64490874   -9.2152807    189.41539  0.010190197 0.0089389272         3907 
 1550000   0.65232891   -9.2130879    189.49414  0.010187857 0.0089294709         3904 
 1551000   0.64310288   -9.2521887    189.37327  0.010174794 0.0089200271         3887 
 1552000   0.62802696   -9.2163526    189.16727  0.010157177 0.0089105866         3932 
 1553000   0.62659381   -9.2298103     189.5667   0.01017207 0.0089011654         3898 
 1554000   0.62742457   -9.2487945    189.24339  0.010148187 0.0088917533         3911 
 1555000   0.63088059   -9.2357451    189.21748  0.010140272 0.0088823563         3909 
 1556000   0.62432841     -9.23219    189.46209  0.010146856 0.0088729651         3910 
 1557000     0.643941   -9.2273394    189.29089  0.010131176 0.0088635966         3907 
 1558000   0.61839911   -9.2438468    189.42602  0.010131901 0.0088542328         3913 
 1559000   0.63545274   -9.2291936    189.12089  0.010109092 0.0088448904         3909 
 1560000   0.63280569   -9.2537984    189.05785  0.010099244 0.0088355624         3918 
 1561000    0.6235157   -9.2205342    189.24745  0.010102896  0.008826233         3913 
 1562000   0.63113552   -9.2533769    189.18043  0.010092853 0.0088169219         3907 
 1563000   0.62849766   -9.2636502    189.12323  0.010083346 0.0088076261         3927 
 1564000   0.64978529   -9.2170627    189.29688  0.010086151 0.0087983425         3914 
 1565000   0.61645297   -9.2386492    189.12262  0.010070427 0.0087890726         3901 
 1566000   0.62853302   -9.2610062    188.90173  0.010052242 0.0087798103         3911 
 1567000   0.64342938   -9.2406485    189.28052  0.010065971 0.0087705615         3918 
 1568000   0.61677571   -9.2608347    188.96239  0.010042644 0.0087613292         3907 
 1569000   0.61846263   -9.2414872    189.33759  0.010056171 0.0087521028         3901 
 1570000    0.6226921   -9.2191837    189.22483  0.010043781 0.0087429018         3915 
 1571000   0.64050325   -9.2384462    189.04094  0.010027633 0.0087337086         3899 
 1572000   0.61689298    -9.249059     189.1606  0.010027598 0.0087245272         3900 
 1573000   0.63240421   -9.2360133    189.29418  0.010028299 0.0087153618         3904 
 1574000    0.6346785   -9.2389104    189.25428  0.010019816 0.0087062079         3922 
 1575000   0.62867097   -9.2329753    188.84821  0.009991969 0.0086970611         3903 
 1576000   0.61934024   -9.2542966     189.0238 0.0099949135  0.008687931         3895 
 1577000   0.62299731   -9.2535637    189.09755 0.0099924723 0.0086788063         3911 
 1578000   0.61214489   -9.2231608    189.29468 0.0099965503 0.0086696989         3883 
 1579000   0.62936997   -9.2441798    189.17108 0.0099836967 0.0086606007         3911 
 1580000   0.63157053   -9.2534072    189.03478 0.0099701889 0.0086515054         3913 
 1581000   0.62400163   -9.2566156    189.10102 0.0099673742 0.0086424303         3888 
 1582000    0.6426022   -9.2402328    189.12669 0.0099624258  0.008633374         3902 
 1583000   0.61566993   -9.2415625    189.26208 0.0099632599 0.0086243244         3915 
 1584000   0.62611395   -9.2499713    189.10137 0.0099485151  0.008615293         3888 
 1585000   0.61538957   -9.2367375    188.90624 0.0099319789  0.008606267         3898 
 1586000   0.61939296   -9.2546792    188.99172 0.0099302081 0.0085972593         3919 
 1587000    0.6059829   -9.2596456    188.80651 0.0099142253 0.0085882724         3920 
 1588000   0.62753914   -9.2664865    188.74498 0.0099047532 0.0085792871         3922 
 1589000   0.62334817   -9.2547662    189.17404 0.0099210217 0.0085703205         3912 
 1590000   0.62366723   -9.2630277    189.06673 0.0099091578 0.0085613548         3916 
 1591000   0.62292252   -9.2328315     189.0049  0.009899691 0.0085524077         3897 
 1592000    0.6078997   -9.2500123    189.08331  0.009897577 0.0085434811         3901 
 1593000   0.61929135   -9.2295848    189.12275 0.0098934271  0.008534571         3915 
 1594000   0.61610875   -9.2718019    188.96482  0.009878964 0.0085256577         3914 
 1595000   0.62025582   -9.2545161    189.55543 0.0099036273 0.0085167611         3915 
 1596000    0.6029284   -9.2616436    188.81554 0.0098587897 0.0085078824         3902 
 1597000   0.60869684   -9.2608233    188.78076 0.0098508014 0.0084990105         3912 
 1598000   0.61160146   -9.2577594    189.11028  0.009861821 0.0084901579         3896 
 1599000   0.62055189   -9.2568644    189.05095 0.0098525616 0.0084813215         3908 
 1600000   0.62618444   -9.2647538    189.06721 0.0098472507 0.0084724879         3883 
 1601000   0.60639959   -9.2462862    188.90998 0.0098329157  0.008463657         3888 
 1602000   0.61691026   -9.2409817    189.43705 0.0098541954 0.0084548562         3912 
 1603000   0.62280764   -9.2445625    188.78394 0.0098140953 0.0084460583         3911 
 1604000   0.60495156   -9.2550508    189.19187 0.0098291703 0.0084372745         3921 
 1605000   0.60397995   -9.2392948    189.06892 0.0098166624 0.0084284972         3918 
 1606000   0.62199674    -9.269548    189.06046 0.0098101111 0.0084197308         3903 
 1607000    0.6193161   -9.2687053    188.90952 0.0097961794 0.0084109779         3911 
 1608000   0.60448042   -9.2641973    188.89543 0.0097893571  0.008402248         3908 
 1609000   0.61252119   -9.2761193    188.77131 0.0097768444 0.0083935205         3920 
 1610000   0.60671404    -9.268659    188.64674 0.0097643238 0.0083847985         3913 
 1611000   0.61257503   -9.2855642    188.94021 0.0097734434 0.0083760939         3902 
 1612000   0.59831542   -9.2740609    188.68801 0.0097543427  0.008367402         3934 
 1613000   0.61311734   -9.2619852     188.6315 0.0097453762 0.0083587233         3920 
 1614000   0.60667526   -9.2591239     188.7187 0.0097438403 0.0083500501         3911 
 1615000   0.60497994     -9.25799    188.78937 0.0097414534 0.0083414019         3907 
 1616000   0.59848178   -9.2677714     189.1154 0.0097522379 0.0083327487         3922 
 1617000   0.61759545   -9.2549828    188.80621 0.0097302727 0.0083241153         3910 
 1618000   0.61173603   -9.2701309    188.91349  0.009729784 0.0083154888         3901 
 1619000   0.61342314   -9.2757875    188.66724 0.0097110993 0.0083068728         3919 
 1620000   0.60314393   -9.2648397    188.70816 0.0097072098 0.0082982762         3910 
 1621000   0.61375796   -9.2804162    188.80071 0.0097059793 0.0082896801         3911 
 1622000   0.60526966   -9.2760787    188.96577 0.0097084756 0.0082811046         3905 
 1623000   0.61272898   -9.2644512    188.90759 0.0096995066 0.0082725441         3907 
 1624000   0.61977861   -9.2674808    188.81365 0.0096887134 0.0082639936         3899 
 1625000   0.61914102   -9.2922479    188.58413 0.0096709813 0.0082554597         3926 
 1626000   0.60968636   -9.2934624    188.79664 0.0096759245 0.0082469314         3910 
 1627000   0.60435061   -9.2868785    188.82538 0.0096714495 0.0082384149         3911 
 1628000   0.60321033   -9.2923914    188.76129 0.0096622283 0.0082299105         3909 
 1629000   0.60547074   -9.2778797    188.62466 0.0096493075 0.0082214192         3911 
 1630000   0.60617677   -9.2439072    189.05117 0.0096651926 0.0082129432         3906 
 1631000   0.61750427   -9.2737678    188.72727 0.0096427178 0.0082044744         3945 
 1632000   0.59493248   -9.2668994    188.59457 0.0096300331 0.0081960137         3905 
 1633000    0.6002716   -9.2875772    188.64169 0.0096265405  0.008187565         3922 
 1634000   0.61306992   -9.2878967    188.93577  0.009635647  0.008179129         3905 
 1635000   0.60172822   -9.2664452    188.59671 0.0096124725 0.0081706985         3878 
 1636000   0.60025222   -9.2745876    188.99619 0.0096269454 0.0081622823         3919 
 1637000   0.59078448   -9.2921962    188.67235 0.0096045791 0.0081538799         3935 
 1638000   0.61204672   -9.2871309     188.8882 0.0096096969 0.0081454863         3913 
 1639000   0.60387118   -9.2819765    188.78178 0.0095984226 0.0081371074         3911 
 1640000   0.59951027   -9.2981481    188.59082 0.0095828667 0.0081287451         3916 
 1641000   0.58807038   -9.2806005    188.49403 0.0095721121 0.0081203895         3908 
 1642000   0.59467489   -9.2825512    188.93983 0.0095889073 0.0081120443         3919 
 1643000   0.60165964   -9.2801103    188.94589 0.0095833786 0.0081037151         3900 
 1644000   0.59034577   -9.2814921    188.42229 0.0095510084 0.0080953949         3917 
 1645000   0.58566417   -9.2768598    188.42799 0.0095454911 0.0080870793         3923 
 1646000   0.58316014   -9.2951235    188.70423 0.0095536771 0.0080787774         3937 
 1647000   0.59643627   -9.2823557    188.83897 0.0095546937 0.0080704805         3922 
 1648000   0.59505024   -9.2868786    188.57502 0.0095355492 0.0080622042         3913 
 1649000   0.60100249     -9.30991    188.94959 0.0095486955 0.0080539449         3920 
 1650000   0.59502736   -9.2939605    188.72166 0.0095313968  0.008045689         3929 
 1651000    0.5884166    -9.269559    188.77315 0.0095282228 0.0080374494         3910 
 1652000   0.59032404   -9.3090057    188.73384  0.009520472 0.0080292226         3898 
 1653000   0.60443741   -9.2952896    188.37475 0.0094966095 0.0080209944         3916 
 1654000   0.59458567   -9.2859039    188.89754 0.0095172077 0.0080127871         3915 
 1655000   0.58807333   -9.2803121     188.7384 0.0095034443  0.008004586         3940 
 1656000   0.59252572   -9.2938306    188.65245 0.0094933803 0.0079964009         3922 
 1657000   0.58384024   -9.2836165     188.8168 0.0094959163 0.0079882214         3909 
 1658000   0.57394675   -9.2822661    188.63869 0.0094812371 0.0079800572         3922 
 1659000   0.59180676    -9.291758    188.84501 0.0094858857 0.0079719027         3912 
 1660000    0.5873546   -9.2954509    188.71003  0.009473395 0.0079637644         3911 
 1661000   0.59461828   -9.3027434    188.68812 0.0094665925 0.0079556342         3910 
 1662000   0.57672029   -9.3060523    188.59597 0.0094562763 0.0079475116         3914 
 1663000   0.58664836   -9.3047345    188.41971 0.0094417574 0.0079393999         3909 
 1664000   0.59368123   -9.2919746    188.67983 0.0094491103 0.0079313033         3927 
 1665000   0.58693491   -9.3115732    188.48265 0.0094335662 0.0079232176         3912 
 1666000   0.59158621   -9.3149244    188.50297 0.0094289202 0.0079151344         3925 
 1667000   0.59556424   -9.2971245    188.29188 0.0094127117 0.0079070721         3916 
 1668000   0.61031021   -9.3263625     188.4374 0.0094143384 0.0078990156         3923 
 1669000   0.58302419   -9.2935907    188.70353 0.0094219855 0.0078909747         3890 
 1670000   0.58487652   -9.3041408    188.79687 0.0094210014 0.0078829401         3930 
 1671000   0.57885995   -9.3059773    188.45797 0.0093984624 0.0078749148         3917 
 1672000   0.57502808   -9.3172771    188.64068 0.0094019475 0.0078669035         3911 
 1673000    0.5775395   -9.2833161    188.74897 0.0094017219 0.0078589006         3922 
 1674000   0.59577418   -9.2969135    188.71168 0.0093942494 0.0078509154         3911 
 1675000   0.59155183   -9.2888524    188.86969 0.0093965019   0.00784294         3906 
 1676000   0.58207937   -9.3090577    188.79888 0.0093873746 0.0078349804         3913 
 1677000    0.5834291   -9.3056925    188.61083 0.0093724326 0.0078270156         3921 
 1678000   0.58782575   -9.3105522    188.18824 0.0093458603 0.0078190731         3922 
 1679000   0.57911904   -9.3192054    188.43333 0.0093524581 0.0078111389         3925 
 1680000   0.57138544   -9.3027376    188.56277 0.0093533121 0.0078032138         3922 
 1681000   0.57241413   -9.3318488    188.39252 0.0093393081  0.007795294         3918 
 1682000   0.57939407   -9.3203274     188.4352 0.0093358702 0.0077873876         3919 
 1683000   0.58146217   -9.3161508     188.3288 0.0093250545 0.0077794876         3920 
 1684000   0.58657192   -9.3007992    188.16981 0.0093116491 0.0077716062         3921 
 1685000   0.56986525     -9.33395    188.04492 0.0092999467  0.007763732         3936 
 1686000   0.58524817   -9.3256817    188.26386 0.0093052521 0.0077558695         3930 
 1687000   0.58225087    -9.310935    188.24073 0.0092985934 0.0077480204         3930 
 1688000   0.58234435   -9.2990958    188.70321 0.0093159169 0.0077401766         3904 
 1689000   0.58514155   -9.3224434    188.33735   0.00929235 0.0077323501         3923 
 1690000   0.55941454   -9.3075237    188.34147 0.0092870549 0.0077245346         3928 
 1691000   0.57475135   -9.3498409    188.53071 0.0092908886 0.0077167178         3909 
 1692000   0.58532601   -9.3114719     188.4601   0.00928192 0.0077089182         3925 
 1693000   0.57756073   -9.3304596    188.57856 0.0092822681 0.0077011288         3930 
 1694000   0.59039535   -9.3107723    188.06723 0.0092516345 0.0076933493         3912 
 1695000   0.56984389   -9.3255837     188.3848 0.0092617897 0.0076855789         3932 
 1696000   0.58810851   -9.3148667    188.42658 0.0092583817 0.0076778242         3913 
 1697000   0.55460575   -9.3179533     188.3597 0.0092496416 0.0076700794         3917 
 1698000   0.58398356   -9.3237678     188.2292 0.0092377894 0.0076623377         3925 
 1699000   0.58147058   -9.3219998    188.43413 0.0092424038 0.0076546063         3915 
 1700000   0.56577267   -9.3366454    188.56743 0.0092435016 0.0076468924         3937 
 1701000   0.56983742   -9.3367224    188.35191 0.0092275086 0.0076391842         3913 
 1702000   0.58046901   -9.3135091    188.25333 0.0092172605 0.0076314915         3894 
 1703000   0.56325357   -9.3208969    188.65474 0.0092314907 0.0076238081         3924 
 1704000    0.5706117   -9.3107259    188.39699 0.0092134677 0.0076161341         3921 
 1705000   0.58617894   -9.3216261    188.31079  0.009203851 0.0076084743         3925 
 1706000   0.56807557   -9.3233106    188.58957 0.0092120736 0.0076008201         3914 
 1707000   0.57173421   -9.3102182    188.58523 0.0092064652 0.0075931812         3915 
 1708000   0.56440218   -9.3441569    188.24639 0.0091845429 0.0075855471         3925 
 1709000    0.5770835   -9.3142331    188.41746 0.0091875103 0.0075779239         3927 
 1710000   0.56314576   -9.3295011    188.52865  0.009187556   0.00757031         3902 
 1711000   0.56717787   -9.3291005    188.26852 0.0091695168 0.0075626979         3922 
 1712000   0.57351411   -9.3114715    188.49108 0.0091749941 0.0075551007         3920 
 1713000    0.5779566   -9.3260556    188.45279 0.0091677755  0.007547513         3920 
 1714000   0.57588853    -9.329676     188.2418 0.0091521685 0.0075399446         3910 
 1715000   0.55836952   -9.3359881    188.11468 0.0091406549 0.0075323847         3927 
 1716000   0.57166149    -9.321191     188.5872 0.0091582749  0.007524832         3939 
 1717000   0.56685589   -9.3257769    188.31682 0.0091398187 0.0075173029         3941 
 1718000   0.57543141   -9.3135788    188.18704 0.0091282035 0.0075097691         3910 
 1719000   0.56661729   -9.3464334    188.18591 0.0091228385 0.0075022541         3914 
 1720000   0.55645215   -9.3472627    188.43065 0.0091293917 0.0074947431         3928 
 1721000   0.55867626   -9.3411035    188.14878 0.0091104385 0.0074872399         3922 
 1722000   0.57304693   -9.3426622    188.23513 0.0091093267 0.0074797506         3931 
 1723000   0.56340708   -9.3351823    188.32403 0.0091083398 0.0074722702         3937 
 1724000   0.56615074   -9.3158737    188.65397 0.0091190049 0.0074648027         3934 
 1725000    0.5744742   -9.3152858    188.25483 0.0090944361 0.0074573513         3932 
 1726000   0.55597896   -9.3442725    188.16379 0.0090847715 0.0074499013         3925 
 1727000   0.55976911   -9.3323221     187.7403 0.0090590762  0.007442464         3928 
 1728000   0.55864764   -9.3429522    188.14733 0.0090734632 0.0074350336         3918 
 1729000   0.56282835   -9.3317424    188.38267  0.009079558 0.0074276076         3926 
 1730000   0.56883012   -9.3449832    188.35201  0.009072833 0.0074201941         3939 
 1731000   0.57176826   -9.3453648    188.06592 0.0090538184 0.0074127961         3903 
 1732000   0.55847098   -9.3529918    188.32827 0.0090612141 0.0074054132         3938 
 1733000   0.55269323   -9.3568847    188.43881 0.0090613008 0.0073980326         3921 
 1734000   0.55575049   -9.3365037    188.23305 0.0090461868 0.0073906583         3911 
 1735000   0.56549006   -9.3429028    188.37939 0.0090480014 0.0073832999         3934 
 1736000   0.56682993   -9.3500794    188.28759 0.0090383825 0.0073759519         3931 
 1737000    0.5633514   -9.3246811     188.1425 0.0090262185  0.007368614         3913 
 1738000   0.55992543   -9.3448681    188.17575 0.0090226192 0.0073612834         3926 
 1739000   0.55158727   -9.3598974    188.19098 0.0090181606 0.0073539624         3919 
 1740000    0.5656121   -9.3350065    188.08787 0.0090080399 0.0073466465         3921 
 1741000   0.56615356   -9.3415876    188.51213 0.0090231732  0.007339347         3927 
 1742000   0.54930725   -9.3312538    188.23025 0.0090045089 0.0073320569         3937 
 1743000   0.55761256    -9.324245    188.02608 0.0089895813 0.0073247713         3919 
 1744000   0.55101977   -9.3542988    188.40897 0.0090027224 0.0073174943         3920 
 1745000   0.57938515   -9.3530768     188.4111 0.0089976646 0.0073102362         3924 
 1746000   0.57446097    -9.340287    188.26655 0.0089856122 0.0073029893         3924 
 1747000   0.54414663   -9.3469267    187.98264 0.0089669262 0.0072957435         3926 
 1748000   0.54948246   -9.3575197    188.18635 0.0089715077 0.0072885079         3920 
 1749000   0.54967896   -9.3416716    188.12477 0.0089634443  0.007281287         3905 
 1750000    0.5594737   -9.3397334    188.08367  0.008956365 0.0072740682         3901 
 1751000   0.54244101   -9.3622373    188.33847 0.0089633767 0.0072668577         3917 
 1752000   0.56635331   -9.3649323    188.07336 0.0089456507 0.0072596602         3924 
 1753000   0.54613891   -9.3493316    188.11774 0.0089426574 0.0072524759         3900 
 1754000   0.55503659   -9.3496742    187.86986 0.0089257819 0.0072453066         3918 
 1755000   0.55923177   -9.3458305    188.09078  0.008931186 0.0072381308         3924 
 1756000   0.56062592   -9.3503693     188.4335 0.0089423642 0.0072309749         3906 
 1757000   0.54637995   -9.3614626    187.84055 0.0089091513 0.0072238254         3936 
 1758000    0.5555097   -9.3628704    188.42665  0.008931866 0.0072166874         3916 
 1759000   0.55085745   -9.3461273      188.376  0.008924389 0.0072095606         3923 
 1760000   0.53784207   -9.3334328    188.35452 0.0089183011  0.007202438         3915 
 1761000   0.54929818   -9.3410259    188.24704 0.0089081507 0.0071953285         3943 
 1762000   0.55167823    -9.366673     188.0171 0.0088922199 0.0071882223         3935 
 1763000    0.5434447   -9.3522907    187.98564 0.0088856892 0.0071811336         3914 
 1764000   0.55372616   -9.3631293    188.36708 0.0088986717 0.0071740515         3917 
 1765000   0.53791823   -9.3461865    188.34488 0.0088925818 0.0071669824         3914 
 1766000   0.54404681   -9.3658484    187.98168 0.0088704079 0.0071599185         3917 
 1767000   0.55023447   -9.3415218    187.92552 0.0088627392 0.0071528603         3914 
 1768000   0.55680487   -9.3595249     187.9217 0.0088575462 0.0071458097         3936 
 1769000   0.55577185   -9.3768667    188.14389  0.008863006 0.0071387714         3941 
 1770000   0.54127054   -9.3640928    188.09462 0.0088556789 0.0071317502         3923 
 1771000    0.5507655   -9.3618824    187.92713 0.0088427974 0.0071247342         3930 
 1772000   0.55316181   -9.3616337    187.95391 0.0088390663 0.0071177215         3908 
 1773000   0.54764512   -9.3594096    187.97029 0.0088348511 0.0071107233         3925 
 1774000   0.53966097   -9.3668488    187.89999 0.0088265684 0.0071037387         3915 
 1775000   0.53331637   -9.3607765    187.67696 0.0088111249 0.0070967601         3905 
 1776000   0.53544325   -9.3733425    187.89615 0.0088164487 0.0070897846         3931 
 1777000   0.53890327   -9.3600903     188.0347 0.0088179846 0.0070828195         3912 
 1778000   0.54601567   -9.3569586    187.96817 0.0088099066 0.0070758617         3932 
 1779000   0.55353387   -9.3718912    187.83588 0.0087987578 0.0070689154         3922 
 1780000   0.54914556   -9.3510122     187.9215 0.0087978229 0.0070619899         3931 
 1781000   0.54021617   -9.3741244    188.19464 0.0088056637 0.0070550645         3939 
 1782000     0.544114   -9.3591766     187.9973 0.0087914938 0.0070481438         3928 
 1783000   0.54387344   -9.3672922    187.84488  0.008779439 0.0070412377         3934 
 1784000    0.5461308    -9.360686    187.99052 0.0087813208 0.0070343443         3939 
 1785000   0.54873607   -9.3484678    188.04441 0.0087789174 0.0070274588         3909 
 1786000   0.54191326   -9.3722658     188.0108 0.0087724338  0.007020579         3930 
 1787000   0.53860703   -9.3556799    188.01503 0.0087677218 0.0070137081         3930 
 1788000   0.53718421   -9.3682012    188.40855 0.0087811589 0.0070068501         3942 
 1789000   0.54767873   -9.3615129    187.97024  0.008755834 0.0069999968         3932 
 1790000   0.54073757   -9.3785585    187.82854 0.0087443453 0.0069931493         3924 
 1791000   0.53872558   -9.3598559    188.15984  0.008754878 0.0069863122         3936 
 1792000   0.53474034   -9.3712678    188.15353 0.0087496992 0.0069794815         3938 
 1793000   0.52726603   -9.3627035    187.93588 0.0087347033 0.0069726597         3936 
 1794000   0.53426982   -9.3617605    187.89016 0.0087277109 0.0069658544         3928 
 1795000   0.54982789   -9.3751611    188.02954 0.0087293196 0.0069590487         3940 
 1796000    0.5382289   -9.3722921    187.80703 0.0087141347 0.0069522588         3927 
 1797000   0.53064058    -9.384633    188.05734 0.0087208931 0.0069454763         3926 
 1798000   0.53956275   -9.3858129     187.8354 0.0087057564 0.0069387018         3917 
 1799000   0.53602349   -9.3747686    187.83592 0.0087009412   0.00693194         3909 
 1800000    0.5193816   -9.3936244    187.79775 0.0086943401 0.0069251904         3923 
 1801000   0.53061005   -9.3745651    187.67261 0.0086837225 0.0069184412         3934 
 1802000   0.53632482   -9.3943211    187.91178 0.0086899638 0.0069117002         3928 
 1803000    0.5349754   -9.3807051    187.98472 0.0086885153 0.0069049688         3922 
 1804000   0.52130097   -9.3933878    187.91094 0.0086802908  0.006898242         3934 
 1805000   0.53423606    -9.379462    187.76245 0.0086686264 0.0068915279         3940 
 1806000   0.53927599   -9.3870082    187.90694 0.0086704939 0.0068848234         3931 
 1807000   0.53697027   -9.3869289     187.6455 0.0086536384 0.0068781319         3929 
 1808000   0.52979362   -9.3834438    187.98509 0.0086645044 0.0068714524         3936 
 1809000    0.5477419   -9.3830473    188.00918 0.0086608246 0.0068647773         3919 
 1810000   0.51945858   -9.3881734    187.77263 0.0086451486  0.006858109         3927 
 1811000   0.53761278   -9.3780647    187.49866 0.0086277684 0.0068514434         3911 
 1812000   0.53786716   -9.4021746    187.77089 0.0086355264 0.0068447938         3925 
 1813000   0.52534269   -9.3859727    187.50569 0.0086185736 0.0068381548         3926 
 1814000   0.51868761   -9.3800587    187.84922 0.0086296039 0.0068315215         3930 
 1815000   0.52146681   -9.4017999    187.95467  0.008629691 0.0068248929         3933 
 1816000   0.53321913   -9.3884269    187.84966 0.0086201201 0.0068182719         3922 
 1817000   0.53184934   -9.3765581    187.77301 0.0086118606 0.0068116608         3921 
 1818000   0.53288365   -9.4000632    187.69398  0.008603501 0.0068050667         3930 
 1819000   0.53070854    -9.390502    187.84138 0.0086055241 0.0067984827         3931 
 1820000   0.52402656   -9.3678135    187.90696 0.0086037983 0.0067919016         3927 
 1821000   0.52343793   -9.3917253    187.64112 0.0085869081 0.0067853336         3927 
 1822000   0.51345318    -9.395223    187.60077 0.0085803497 0.0067787707         3920 
 1823000   0.53895651   -9.4079687    187.97592 0.0085927919   0.00677222         3936 
 1824000   0.52379482   -9.4034676    187.61917 0.0085717822 0.0067656696         3910 
 1825000   0.53339818   -9.4017855    187.67619 0.0085696892 0.0067591312         3915 
 1826000   0.52565803   -9.3979343    187.66347 0.0085644153 0.0067526002         3938 
 1827000   0.53998059   -9.3978703    187.76565 0.0085643885 0.0067460754         3934 
 1828000   0.51642392    -9.380794    187.83667 0.0085629407  0.006739562         3920 
 1829000   0.51500428   -9.3978974    187.60452  0.008547682 0.0067330594         3930 
 1830000    0.5227902   -9.4057759    187.76088 0.0085501312 0.0067265693         3924 
 1831000   0.52229476   -9.3972535    187.53973 0.0085353965 0.0067200809         3919 
 1832000   0.53161241    -9.396925    187.51641 0.0085296767 0.0067136048         3925 
 1833000   0.51517113   -9.3904144    187.66629 0.0085318371 0.0067071299         3934 
 1834000    0.5281331    -9.402316    187.99335 0.0085420459 0.0067006724         3911 
 1835000   0.50816845   -9.4168214    187.77922 0.0085276668 0.0066942182         3914 
 1836000   0.51401365   -9.3974015    187.88924 0.0085280154 0.0066877737         3915 
 1837000   0.51862106   -9.3855373     187.4508 0.0085034841 0.0066813317         3926 
 1838000   0.50695548   -9.3940757     187.7643 0.0085130715 0.0066749069         3917 
 1839000   0.52046652   -9.4005171    187.46112 0.0084947038 0.0066684906         3929 
 1840000   0.51739006   -9.4056902    187.71888 0.0085017609 0.0066620768         3926 
 1841000   0.50774611   -9.3973363     187.4898 0.0084867734 0.0066556728         3930 
 1842000   0.51943186   -9.4029241    187.57442 0.0084859943  0.006649279         3931 
 1843000   0.50361764   -9.3948255    187.83035  0.008492962 0.0066428966         3936 
 1844000   0.51064517   -9.3991591    187.50689 0.0084737388 0.0066365185         3924 
 1845000    0.5142946    -9.407855    187.62555 0.0084745055 0.0066301508         3940 
 1846000   0.51735183   -9.4033007    187.53152 0.0084656698 0.0066237921         3922 
 1847000   0.51786298   -9.3938582    187.79056  0.008472774 0.0066174404         3930 
 1848000   0.51698233   -9.3970626    187.77093  0.008467304  0.006611094         3930 
 1849000   0.51557654   -9.4038217    187.62926 0.0084563396  0.006604756         3941 
 1850000     0.518886   -9.4061202    187.67399 0.0084537835 0.0065984263         3919 
 1851000   0.51209012   -9.4292711    187.58009 0.0084449886 0.0065921034         3918 
 1852000   0.50519184   -9.4315451    187.54789 0.0084389801 0.0065857891         3930 
 1853000   0.50987498   -9.4102769    187.66675  0.008439771 0.0065794826         3918 
 1854000   0.50659913   -9.3996514    187.28935 0.0084182554 0.0065731803         3924 
 1855000   0.51770815   -9.3925074    187.65261 0.0084300365 0.0065668921         3915 
 1856000   0.50860146   -9.4112854    187.37536 0.0084130458 0.0065606112         3940 
 1857000   0.50792425   -9.4252074    187.32521 0.0084062652 0.0065543373         3930 
 1858000   0.50989333   -9.4126112    187.48158 0.0084087539 0.0065480732         3927 
 1859000   0.49613035   -9.4143555    187.21978 0.0083924951 0.0065418151         3937 
 1860000   0.50442615     -9.39739    187.44812 0.0083982131 0.0065355619         3917 
 1861000   0.51465246   -9.4253471    187.40207 0.0083916384 0.0065293181         3925 
 1862000   0.49530099   -9.4253903    187.33651 0.0083841976 0.0065230824         3932 
 1863000   0.51188023   -9.4301237    187.63525 0.0083930602 0.0065168543         3925 
 1864000   0.50661324   -9.4268243    187.55348 0.0083849015 0.0065106356         3932 
 1865000    0.5126267    -9.422588     187.5543 0.0083804422 0.0065044255         3923 
 1866000   0.51071927   -9.4288536    187.29831 0.0083645189 0.0064982304         3932 
 1867000    0.5025512    -9.422443    187.76751 0.0083809815  0.006492038         3922 
 1868000   0.51270029   -9.4317177     187.4489 0.0083622813 0.0064858514         3905 
 1869000   0.52199107   -9.4058836    187.76448 0.0083718778 0.0064796775         3927 
 1870000   0.50197965   -9.4229199    187.48665 0.0083550202 0.0064735069         3931 
 1871000   0.51113759   -9.4331253    187.70497 0.0083602782 0.0064673418         3941 
 1872000   0.50224163   -9.4257865    187.70453 0.0083557929 0.0064611877         3938 
 1873000   0.50879295   -9.4201397    187.65153 0.0083489735 0.0064550387         3904 
 1874000    0.5139549   -9.4335811     187.3084 0.0083292599 0.0064489008         3923 
 1875000   0.50090937    -9.429805    187.36732 0.0083274365 0.0064427715         3928 
 1876000   0.50761675   -9.4210423    187.43048 0.0083258031  0.006436651         3921 
 1877000   0.50851175   -9.4310031    187.20772 0.0083114774  0.006430536         3935 
 1878000   0.51125846   -9.4311558    187.37673 0.0083145516 0.0064244301         3938 
 1879000   0.51240097   -9.4136542    187.63336  0.008321508 0.0064183312         3924 
 1880000   0.51340792   -9.4198179    187.40841 0.0083071104 0.0064122408         3925 
 1881000   0.50517419   -9.4214299    187.43216 0.0083037464  0.006406158         3936 
 1882000   0.50350971   -9.4291912    187.54038 0.0083041261 0.0064000834         3930 
 1883000   0.49900271   -9.4358412    187.39608   0.00829333 0.0063940147         3942 
 1884000   0.49972533   -9.4355529    187.48068   0.00829267 0.0063879551         3928 
 1885000   0.48946354   -9.4209911    187.40692 0.0082850097 0.0063819035         3912 
 1886000   0.49881707   -9.4373528    187.39292  0.008279998 0.0063758648         3941 
 1887000   0.49627905   -9.4178174    187.23705 0.0082687268 0.0063698258         3929 
 1888000   0.50176176   -9.4286181    187.36185 0.0082698556 0.0063637958         3941 
 1889000   0.50866466   -9.4332045    187.55096 0.0082738204 0.0063577725         3931 
 1890000   0.49718307   -9.4384684     187.5085 0.0082675706 0.0063517595         3937 
 1891000   0.50140684   -9.4240748     187.3308 0.0082553674 0.0063457485         3935 
 1892000   0.49382303   -9.4324389    187.36769 0.0082526289 0.0063397518         3936 
 1893000   0.51388745   -9.4264926     187.4222 0.0082506693 0.0063337659         3942 
 1894000   0.49615924   -9.4337119    187.32788 0.0082421629 0.0063277836         3922 
 1895000   0.49434034    -9.434597    187.52035 0.0082462777 0.0063218069         3934 
 1896000   0.49452727   -9.4484176    187.22788 0.0082290735 0.0063158404         3938 
 1897000   0.49114308   -9.4370201    187.36159 0.0082306094 0.0063098802         3941 
 1898000   0.48184332   -9.4486221    187.39809 0.0082278753 0.0063039286         3928 
 1899000   0.49825444   -9.4285951    186.91463 0.0082023269 0.0062979839         3930 
 1900000   0.48435962    -9.444216    187.25081 0.0082127549  0.006292047         3924 
 1901000   0.50055339   -9.4277754    187.19086 0.0082058066  0.006286119         3926 
 1902000   0.50481635   -9.4381551    187.59119  0.008219032 0.0062801967         3932 
 1903000   0.49221238      -9.4285    187.48185 0.0082099252 0.0062742887         3927 
 1904000   0.50662088   -9.4365669    187.25255 0.0081955772 0.0062683783         3928 
 1905000   0.50380943   -9.4468539    187.44963 0.0081998964 0.0062624821         3930 
 1906000    0.4917487   -9.4518876    187.34007 0.0081908041 0.0062565835         3934 
 1907000   0.49545309   -9.4421529    187.32452 0.0081858293  0.006250697         3925 
 1908000   0.49905612   -9.4523442    187.37276  0.008183646 0.0062448186         3928 
 1909000   0.50156405   -9.4494667      187.489 0.0081844335 0.0062389515         3919 
 1910000   0.48881166   -9.4345081    187.50289 0.0081807543 0.0062330905         3917 
 1911000   0.48855581   -9.4388453    187.32198 0.0081685844 0.0062272426         3923 
 1912000   0.49479143   -9.4452053    187.16698 0.0081575568 0.0062213988         3908 
 1913000   0.48324176   -9.4358926     187.4612  0.008166109 0.0062155624         3929 
 1914000   0.49157915   -9.4435494    187.31391 0.0081554296 0.0062097311         3928 
 1915000   0.49047014   -9.4415374    187.28841 0.0081500615 0.0062039046         3939 
 1916000   0.49489754   -9.4549274     187.3563 0.0081487605 0.0061980807         3932 
 1917000   0.48175467   -9.4566955    187.23512 0.0081392421 0.0061922742         3926 
 1918000   0.48623008   -9.4492783    187.38581 0.0081415453 0.0061864778         3931 
 1919000   0.48444198   -9.4632852    187.30312 0.0081337121 0.0061806828         3935 
 1920000   0.48926579   -9.4484469    187.17869 0.0081240749 0.0061748975         3936 
 1921000   0.49038465   -9.4561652    187.26346 0.0081235234 0.0061691173         3938 
 1922000   0.49034483   -9.4479054    187.33908 0.0081225754 0.0061633436         3934 
 1923000   0.47407528   -9.4500069    187.23946 0.0081140345 0.0061575785         3927 
 1924000   0.48914852   -9.4634576    187.32243  0.008113411 0.0061518204         3943 
 1925000   0.48390218   -9.4622824    187.10693 0.0080998671 0.0061460718         3928 
 1926000   0.48751291    -9.460768    187.02607  0.008092163 0.0061403288         3932 
 1927000   0.47961533   -9.4519323     187.3884 0.0081036327 0.0061345967         3943 
 1928000   0.48777748    -9.459911    186.91538 0.0080789842 0.0061288649         3925 
 1929000   0.48147276   -9.4510217    187.33377 0.0080928707 0.0061231465         3930 
 1930000   0.48701464   -9.4465541    187.23667  0.008084485  0.006117431         3943 
 1931000   0.49108925     -9.45802    187.39116 0.0080869653 0.0061117209         3928 
 1932000   0.49994937   -9.4518722    187.46662 0.0080860343 0.0061060242         3925 
 1933000   0.47437068   -9.4633394    187.32057  0.008075555 0.0061003311         3923 
 1934000   0.48099453   -9.4351003    187.12388  0.008062904 0.0060946456         3926 
 1935000   0.47334338   -9.4580093    187.48904 0.0080744634 0.0060889666         3939 
 1936000   0.47826527   -9.4539674     187.1722 0.0080566548  0.006083297         3918 
 1937000   0.47780762   -9.4651081    187.17914 0.0080527938 0.0060776375         3939 
 1938000   0.46947162   -9.4538084    186.88279 0.0080358958 0.0060719791         3931 
 1939000   0.46572064   -9.4676048     187.1386 0.0080427453 0.0060663262         3927 
 1940000   0.49291272    -9.472805     187.1305 0.0080382516 0.0060606802         3920 
 1941000   0.47233116    -9.463019    186.77298 0.0080187611  0.006055042         3943 
 1942000   0.48305528   -9.4754144    187.10594 0.0080289196 0.0060494147         3926 
 1943000   0.46304911    -9.471963    187.12575 0.0080256369 0.0060437889         3932 
 1944000    0.4857675   -9.4755531    187.11185 0.0080209128 0.0060381731         3912 
 1945000   0.47731862   -9.4699618    187.42654 0.0080302716 0.0060325625         3943 
 1946000   0.47257195   -9.4629739    187.40885 0.0080253877 0.0060269607         3926 
 1947000   0.47687027   -9.4607404    187.08951 0.0080075977 0.0060213656         3927 
 1948000   0.47249455   -9.4653925    187.35662 0.0080149136 0.0060157729         3939 
 1949000   0.47262448   -9.4650879    186.96837 0.0079942008 0.0060101928         3930 
 1950000   0.47560894   -9.4833186    186.94892 0.0079892702 0.0060046221         3933 
 1951000   0.47440601    -9.472795    187.15583 0.0079940128 0.0059990548         3938 
 1952000   0.47494842   -9.4697433    187.30642 0.0079963463 0.0059934928         3916 
 1953000   0.46822198   -9.4592711    187.39233 0.0079959178 0.0059879416         3923 
 1954000   0.47243475    -9.457141    187.10628 0.0079796264 0.0059823977         3929 
 1955000   0.47869161   -9.4640613    187.36578  0.007986606 0.0059768641         3927 
 1956000   0.47575267   -9.4669605     186.9531 0.0079649412 0.0059713306         3930 
 1957000   0.47269261   -9.4683681    187.13622 0.0079686689 0.0059658067         3936 
 1958000   0.47331045   -9.4831844    187.04483 0.0079607097 0.0059602863         3928 
 1959000   0.47424135   -9.4811661    187.34716 0.0079695065 0.0059547773         3935 
 1960000   0.47075187   -9.4509424    187.23722  0.007960766 0.0059492735         3938 
 1961000   0.47249126   -9.4714244    187.25219 0.0079573427  0.005943776         3930 
 1962000   0.47881205    -9.480081    187.07206 0.0079456363 0.0059382849         3942 
 1963000   0.47356103   -9.4776715    187.08593 0.0079421772 0.0059328017         3930 
 1964000   0.46321108   -9.4863133    186.92952 0.0079314971 0.0059273237         3941 
 1965000   0.47294775   -9.4776887    187.18515 0.0079383016 0.0059218553         3929 
 1966000   0.46988961    -9.472981    187.32432 0.0079401629 0.0059163948         3926 
 1967000   0.46478982   -9.4863181    187.11347 0.0079271934  0.005910938         3922 
 1968000   0.45621628   -9.4912749     186.7409 0.0079073891 0.0059054895         3920 
 1969000   0.45784221   -9.4726957      187.202 0.0079228879 0.0059000448         3937 
 1970000   0.46304247   -9.4724055    187.19629 0.0079186246 0.0058946102         3928 
 1971000   0.47503358   -9.4717714     187.0686 0.0079092087 0.0058891806         3942 
 1972000   0.47718688   -9.4777795    187.04549  0.007904221 0.0058837596         3935 
 1973000   0.46885471   -9.4769497    187.10298 0.0079026432 0.0058783428         3935 
 1974000   0.47382056   -9.4789234    186.97009 0.0078930297 0.0058729337         3930 
 1975000    0.4581256   -9.4847389    187.07592 0.0078934988 0.0058675377         3922 
 1976000   0.46120307   -9.4806328    187.01358 0.0078868748 0.0058621424         3934 
 1977000   0.47404855   -9.4704133    187.27237 0.0078937939 0.0058567571         3945 
 1978000    0.4738117   -9.4772411    187.11328 0.0078831009 0.0058513754         3936 
 1979000    0.4726522   -9.4812458    187.32046 0.0078878415 0.0058460013         3942 
 1980000   0.46804629   -9.4769847     186.8324 0.0078633166  0.005840634         3932 
 1981000   0.46375262    -9.478203    187.02634 0.0078675056 0.0058352714         3949 
 1982000   0.46842986     -9.48108    186.81255 0.0078545472 0.0058299105         3945 
 1983000   0.46263212   -9.4750458    186.89043 0.0078538591 0.0058245613         3939 
 1984000   0.46416168   -9.4885336    187.07644 0.0078577132 0.0058192175         3923 
 1985000   0.46027635   -9.4848536    186.93993 0.0078480239 0.0058138775         3935 
 1986000   0.47576193   -9.5050234    186.76898 0.0078368991 0.0058085493         3932 
 1987000   0.46052225   -9.5050898    187.12737 0.0078479858 0.0058032252         3932 
 1988000   0.45683528   -9.4786363    186.72482 0.0078271638 0.0057979072         3921 
 1989000   0.46105301    -9.489873    186.78227 0.0078256358 0.0057925948         3927 
 1990000   0.46062099   -9.4628454     186.8277 0.0078236056  0.005787293         3933 
 1991000   0.46967619   -9.4954801    187.16176 0.0078336579 0.0057819972         3937 
 1992000    0.4672872   -9.5023955    186.78497 0.0078139628 0.0057767106         3941 
 1993000   0.46109349   -9.4825489    186.67117 0.0078052837 0.0057714256         3937 
 1994000   0.44958882   -9.4872734     186.8824 0.0078101974 0.0057661491         3922 
 1995000    0.4592901   -9.4934284    187.02798 0.0078123635 0.0057608755         3944 
 1996000    0.4566762   -9.5025591    186.82929 0.0078001539 0.0057556083         3936 
 1997000   0.45622393   -9.4964043    186.69078 0.0077904683 0.0057503478         3934 
 1998000   0.44235347   -9.4920194    186.76257 0.0077895633 0.0057450916         3939 
 1999000   0.46299705   -9.5035329    186.60924 0.0077792748  0.005739846         3943 
 2000000   0.45426742   -9.4900244    186.90841 0.0077878504 0.0057346056         3941 
 2001000   0.45083976   -9.5039888    186.87003 0.0077823602 0.0057293732         3928 
 2002000   0.45628262    -9.499066    186.92237 0.0077806514  0.005724144         3940 
 2003000   0.45698792   -9.5123352    186.89671 0.0077756993  0.005718922         3927 
 2004000   0.44379438   -9.5124929    186.79126 0.0077674341 0.0057137046         3940 
 2005000   0.44883577   -9.4982262    186.64412 0.0077574447 0.0057084958         3943 
 2006000   0.45040927   -9.5080014    186.72787 0.0077570568 0.0057032965         3940 
 2007000   0.44640906   -9.4944987    186.66389 0.0077505352 0.0056981015         3926 
 2008000   0.45413248   -9.4899486    186.83663 0.0077538443 0.0056929098         3924 
 2009000    0.4503212    -9.494048    186.68553 0.0077437171 0.0056877279         3940 
 2010000   0.43979641   -9.4946775    187.01408 0.0077534859 0.0056825543         3943 
 2011000   0.44501695   -9.5028541    186.62394 0.0077334635 0.0056773866         3925 
 2012000   0.45669091   -9.5021281    186.83518 0.0077383689  0.005672223         3934 
Loop time of 5262.05 on 48 procs for 2000000 steps with 4000 atoms

Performance: 65677.771 tau/day, 380.080 timesteps/s
99.4% CPU use with 48 MPI tasks x no OpenMP threads

MPI task timing breakdown:
Section |  min time  |  avg time  |  max time  |%varavg| %total
---------------------------------------------------------------
Pair    | 366.29     | 402.34     | 433.4      |  77.0 |  7.65
Neigh   | 36.905     | 38.82      | 40.353     |  13.1 |  0.74
Comm    | 328.18     | 359.6      | 404.86     |  87.1 |  6.83
Output  | 5.9238     | 5.9259     | 5.972      |   0.3 |  0.11
Modify  | 4390       | 4405.9     | 4423.9     |  12.8 | 83.73
Other   |            | 49.47      |            |       |  0.94

Nlocal:        83.3333 ave          89 max          76 min
Histogram: 1 0 2 11 2 11 10 3 4 4
Nghost:        2448.27 ave        2478 max        2415 min
Histogram: 3 1 3 10 3 7 11 5 3 2
Neighs:        16981.7 ave       19492 max       14037 min
Histogram: 1 0 7 8 7 8 2 4 8 3
FullNghs:      33963.2 ave       36340 max       30935 min
Histogram: 1 1 5 6 7 5 7 7 6 3

Total # of neighbors = 1630235
Ave neighs/atom = 407.55875
Neighbor list builds = 106364
Dangerous builds = 0

#clear
#
#next RN
#
#jump SELF
Total wall time: 1:27:45
