
units lj                  # Use reduced LJ style units
atom_style atomic         # Uncharged point particles
atom_modify map hash      # Needed for indexing of clusters etc
                          # Used to be able to find where atoms are in relation to each other.

lattice fcc 1.0 spacing 1 1 1
Lattice spacing in x,y,z = 1.5874011 1.5874011 1.5874011
region box block 0 10 0 10 0 10 units lattice
create_box 2 box
Created orthogonal box = (0.0000000 0.0000000 0.0000000) to (15.874011 15.874011 15.874011)
  3 by 4 by 4 MPI processor grid
create_atoms 1 box
Created 4000 atoms
  using lattice units in orthogonal box = (0.0000000 0.0000000 0.0000000) to (15.874011 15.874011 15.874011)
  create_atoms CPU = 0.003 seconds
set type 1 type/fraction 2 0.23 78393
Setting atom values ...
  954 settings made for type/fraction
mass 1 1.0
mass 2 1.0
pair_style lj/cut  3.5
pair_modify tail  yes
pair_coeff 1  1  1.0  1.0   # Intearaction between 1 and 1 set with epsilon = 1 and sigma = 1
pair_coeff 1  2  1.5  0.8
pair_coeff 2  2  0.5  0.88

write_data data.0
System init for write_data ...
Neighbor list info ...
  update every 1 steps, delay 10 steps, check yes
  max neighbors/atom: 2000, page size: 100000
  master list distance cutoff = 3.8
  ghost atom cutoff = 3.8
  binsize = 1.9, bins = 9 9 9
  1 neighbor lists, perpetual/occasional/extra = 1 0 0
  (1) pair lj/cut, perpetual
      attributes: half, newton on
      pair build: half/bin/atomonly/newton
      stencil: half/bin/3d
      bin: standard
WARNING: Not all mixed pair coeffs generated from mixing. Use write_data with 'pair ij' option to store all pair coeffs. (../write_data.cpp:312)


#############################
#   M E L T   S Y S T E M   #
#############################

velocity all create 2.4 5833274 mom yes dist gaussian # Assign velocities
                                                    # Temperature 2.4, random number seed, zero linear momentum
                                                                                # Gaussian distribution

timestep 0.002   # simulation timestep
thermo 1000       # output thermodynamic data every 1000 steps bf 100

# Define a fix  in this case with index 1 applied to all
# particles in the simulation. This fix is for simulations
# in the anisotropic NPT ensemble. Note that we use the MTK
# correction.
fix 1 all npt temp 2.4 2.4 0.1 iso 5.68 5.68 0.5 mtk yes tchain 5 pchain 5 # Use NPT ensemble
                                                                         # Set temperature and pressure and damping
                                                                         # Numbers of thermostats in chain and in barostat
run 10000          # run for 10000 steps
Per MPI rank memory allocation (min/avg/max) = 3.642 | 3.644 | 3.648 Mbytes
Step Temp E_pair E_mol TotEng Press Volume 
       0          2.4   -6.8530311            0   -3.2539311   -3.7471165         4000 
    1000     2.424433   -4.8859802            0   -1.2502399    5.6734204    4372.3023 
    2000    2.3942538   -4.8952501            0   -1.3047672    5.8507276    4348.2376 
    3000    2.3763684   -4.8972276            0   -1.3335661    5.5936569    4374.7928 
    4000    2.4194907   -4.8927887            0     -1.26446    5.9044448    4342.2001 
    5000    2.4056718   -4.8750452            0   -1.2674396    5.5821995     4382.884 
    6000    2.4181619   -4.9176673            0   -1.2913313    5.4838215    4377.0843 
    7000    2.3509818   -4.8836383            0   -1.3580472    5.4509072    4388.3844 
    8000    2.3907235   -4.8380551            0   -1.2528665    5.7265846    4389.8428 
    9000    2.3920535   -4.8665566            0   -1.2793735    5.7711825    4372.8466 
   10000    2.4030547   -4.9146372            0   -1.3109562    5.3276399    4390.4534 
Loop time of 2.31083 on 48 procs for 10000 steps with 4000 atoms

Performance: 747783.709 tau/day, 4327.452 timesteps/s
99.7% CPU use with 48 MPI tasks x no OpenMP threads

MPI task timing breakdown:
Section |  min time  |  avg time  |  max time  |%varavg| %total
---------------------------------------------------------------
Pair    | 0.98728    | 1.0547     | 1.1329     |   2.8 | 45.64
Neigh   | 0.19924    | 0.20689    | 0.2186     |   0.9 |  8.95
Comm    | 0.70914    | 0.79848    | 0.88721    |   3.6 | 34.55
Output  | 0.00023575 | 0.00024196 | 0.00030893 |   0.0 |  0.01
Modify  | 0.21092    | 0.23594    | 0.25993    |   2.4 | 10.21
Other   |            | 0.01454    |            |       |  0.63

Nlocal:        83.3333 ave          95 max          76 min
Histogram: 2 8 9 7 7 7 5 2 0 1
Nghost:        1548.25 ave        1573 max        1517 min
Histogram: 1 1 3 4 10 9 7 8 1 4
Neighs:        8685.23 ave        9841 max        7499 min
Histogram: 1 4 3 10 5 10 6 4 2 3

Total # of neighbors = 416891
Ave neighs/atom = 104.22275
Neighbor list builds = 910
Dangerous builds = 214

# Equilibrate just above the melting temperature to avoid step fn in T

fix 1 all npt temp 1.25 1.25 0.1 iso 5.68 5.68 0.5 mtk yes tchain 5 pchain 5
run 2000
Per MPI rank memory allocation (min/avg/max) = 3.643 | 3.645 | 3.649 Mbytes
Step Temp E_pair E_mol TotEng Press Volume 
   10000    2.4030547   -4.9146372            0   -1.3109562    5.3276399    4390.4534 
   11000    1.2452858   -6.6311523            0   -4.7636905    5.5339822    3565.6983 
   12000    1.2442202   -6.6179888            0   -4.7521252    5.5755461    3566.3519 
Loop time of 0.507573 on 48 procs for 2000 steps with 4000 atoms

Performance: 680886.756 tau/day, 3940.317 timesteps/s
99.7% CPU use with 48 MPI tasks x no OpenMP threads

MPI task timing breakdown:
Section |  min time  |  avg time  |  max time  |%varavg| %total
---------------------------------------------------------------
Pair    | 0.2348     | 0.24984    | 0.27757    |   1.8 | 49.22
Neigh   | 0.032884   | 0.034492   | 0.038341   |   0.6 |  6.80
Comm    | 0.14118    | 0.1712     | 0.19373    |   2.7 | 33.73
Output  | 5.0466e-05 | 5.1903e-05 | 6.697e-05  |   0.0 |  0.01
Modify  | 0.038386   | 0.047549   | 0.057928   |   2.5 |  9.37
Other   |            | 0.004447   |            |       |  0.88

Nlocal:        83.3333 ave          94 max          75 min
Histogram: 2 5 5 9 9 7 7 2 1 1
Nghost:        1773.04 ave        1793 max        1750 min
Histogram: 3 1 5 7 6 4 12 1 5 4
Neighs:        10720.2 ave       12302 max        9474 min
Histogram: 3 1 8 7 11 9 6 1 0 2

Total # of neighbors = 514568
Ave neighs/atom = 128.64200
Neighbor list builds = 142
Dangerous builds = 9

#############################
# L I N E A R  Q U E N C H  #
#############################

# Define solid atoms. This closely follows ten Wolde  Ruiz-Montero and Frenkel  Faraday Discuss  1996  104  93-110
# Compute components of the per-atom q6 vector
compute q6 all orientorder/atom degrees 1 6 components 6 nnn NULL cutoff 1.3 # compute the Q6 parameter.
                                                                             # Use all neighbours within 1.3 unit cell.

# get number of connections
compute coord_number all coord/atom orientorder q6 0.5

# An atom is solid if it has 8 or more connections (of a possible 14)
variable is_solid atom c_coord_number>=8
group solid dynamic all var is_solid    # Must be dynamic to update
dynamic group solid defined

# do clustering
compute cluster solid cluster/atom 1.3 # Create a cluster where all atoms within are solid and max 1.3 units from another member

# define chunks one chunk per cluster
compute clus_chunks solid chunk/atom c_cluster nchunk every compress yes  # Says which atoms are in which chunk

# count the size of each chunk
compute size_chunks solid property/chunk clus_chunks count


# Find the maximum entry in the vector of chunk sizes
variable max_n equal max(c_size_chunks)


# Thermo style which includes this variable
# thermo_style custom step temp pe vol v_max_n

thermo ${N}  # Print the thermo information every 100 steps
thermo 1000  

# Reset the npt fix at a lower temperature (below freezing)
fix 1  all npt temp  ${temp} ${temp}  0.1  iso  5.68  5.68  0.5  mtk yes tchain  5  pchain  5
fix 1  all npt temp  0.45 ${temp}  0.1  iso  5.68  5.68  0.5  mtk yes tchain  5  pchain  5
fix 1  all npt temp  0.45 0.45  0.1  iso  5.68  5.68  0.5  mtk yes tchain  5  pchain  5

dump dmp2 all dcd ${N} traj.dcd
dump dmp2 all dcd 1000 traj.dcd


compute msd all msd com yes
variable twopoint equal c_msd[4]/6/(step*dt+1.0e-6)
fix 9 all vector 10 c_msd[4]
variable fit equal slope(f_9)/6/(10*dt)
thermo_style custom step temp pe c_msd[4] v_twopoint v_fit v_max_n

fix 1 all npt temp 1.25 ${temp} 0.1 iso 5.68 5.68 0.5 mtk yes tchain 5 pchain 5
fix 1 all npt temp 1.25 0.45 0.1 iso 5.68 5.68 0.5 mtk yes tchain 5 pchain 5
run 5000000 # 5000000  # Run for this many steps
Neighbor list info ...
  update every 1 steps, delay 10 steps, check yes
  max neighbors/atom: 2000, page size: 100000
  master list distance cutoff = 3.8
  ghost atom cutoff = 3.8
  binsize = 1.9, bins = 9 9 9
  4 neighbor lists, perpetual/occasional/extra = 1 3 0
  (1) pair lj/cut, perpetual
      attributes: half, newton on
      pair build: half/bin/atomonly/newton
      stencil: half/bin/3d
      bin: standard
  (2) compute orientorder/atom, occasional
      attributes: full, newton on
      pair build: full/bin/atomonly
      stencil: full/bin/3d
      bin: standard
  (3) compute coord/atom, occasional
      attributes: full, newton on
      pair build: full/bin/atomonly
      stencil: full/bin/3d
      bin: standard
  (4) compute cluster/atom, occasional
      attributes: full, newton on
      pair build: full/bin/atomonly
      stencil: full/bin/3d
      bin: standard
Per MPI rank memory allocation (min/avg/max) = 9.779 | 9.786 | 9.792 Mbytes
Step Temp PotEng c_msd[4] v_twopoint v_fit v_max_n 
   12000    1.2442202   -6.6179888 4.1152901e-30 2.8578402e-32 8.3333333e+20            2 
   13000     1.251596   -6.6564505   0.52226822 0.0033478731  0.043564756            3 
   14000    1.3009407   -6.6464143     1.008841  0.006005006  0.041282574            2 
   15000    1.2249185   -6.6437818    1.5124567 0.0084025369   0.04091887            1 
   16000     1.270186   -6.6605622    2.0364311  0.010606412  0.041411951            2 
   17000    1.2545764   -6.6073127    2.5301413  0.012402653  0.041949152            1 
   18000     1.253479   -6.6524965    2.9921059  0.013852342  0.041663322            1 
   19000    1.2199653    -6.652945    3.4751238  0.015241771  0.041588308            1 
   20000    1.2474084    -6.706726    3.9693347  0.016538894  0.041268465            2 
   21000    1.2486392   -6.6809823    4.4461082  0.017643286  0.040987051            2 
   22000    1.2267431    -6.651192    5.0500652  0.019129035  0.041149912            2 
   23000    1.2589679   -6.6486322     5.552207  0.020116692  0.041573822            1 
   24000    1.2543191   -6.6753214    6.1299487  0.021284544  0.041827364            2 
   25000    1.2727184   -6.6521191    6.6675755  0.022225251  0.042219347            2 
   26000    1.2586763   -6.7045137    7.0990951  0.022753509   0.04231986            1 
   27000    1.2609706   -6.6736582    7.5714499  0.023368672  0.042356222            2 
   28000     1.252275   -6.6751028    8.0609267  0.023990853  0.042325182            2 
   29000    1.2333045   -6.6672081    8.5910985  0.024687064  0.042281436            3 
   30000    1.2322316   -6.6547239    9.1850386  0.025513996  0.042319104            1 
   31000    1.2396066   -6.6647224    9.5716525  0.025730248  0.042302693            2 
   32000    1.2364589   -6.6518496    10.082348  0.026256113  0.042197392            1 
   33000    1.2568849   -6.6867771    10.578434  0.026713216  0.042132406            3 
   34000    1.2625713   -6.6426834    11.090333  0.027182189   0.04207102            1 
   35000    1.2512242   -6.6401222    11.811399  0.028122379  0.042084836            1 
   36000    1.2391154   -6.6420703    12.189681  0.028216854  0.042198554            4 
   37000    1.2550234   -6.6369937    12.713123  0.028633159   0.04224733            2 
   38000    1.2455317   -6.6505735    13.323855   0.02921898  0.042359566            3 
   39000    1.2691874   -6.7126296    13.839744  0.029572102  0.042460106            1 
   40000    1.2421986   -6.6626061    14.438521  0.030080252  0.042567979            2 
   41000    1.2597572   -6.7018317    14.875619  0.030234997  0.042652469            1 
   42000      1.22808   -6.6354784    15.448088  0.030650968    0.0427256            1 
   43000    1.2577502   -6.7204609    15.886174  0.030787158  0.042772828            1 
   44000     1.231803   -6.6496906    16.563482   0.03137023  0.042834453            1 
   45000    1.2518456   -6.7081386    17.008158  0.031496589  0.042907313            3 
   46000    1.2418236   -6.6620852    17.494987  0.031693816  0.042976369            1 
   47000    1.2314213   -6.6763453    18.009518  0.031931769  0.043012178            4 
   48000    1.2351106   -6.6537571    18.437838  0.032010135  0.043035846            2 
   49000    1.2427111   -6.6798917    18.911695  0.032162746  0.043028565            5 
   50000    1.2589908   -6.6710968    19.435541  0.032392569  0.043002343            1 
   51000      1.23368   -6.6617897    19.828612  0.032399692  0.042964009            1 
   52000    1.2597711   -6.6747196    20.152328  0.032295397  0.042891829            1 
   53000    1.2282882   -6.7395574     20.80309  0.032709261  0.042810226            1 
   54000    1.2252154   -6.6895561    21.110107  0.032577325  0.042734655            1 
   55000    1.2351609   -6.6578918    21.733494  0.032929536  0.042659484            2 
   56000    1.2594155   -6.6525415     22.17403  0.032997068  0.042592434            2 
   57000    1.2223296   -6.6928421    22.822192  0.033365778  0.042538906            1 
   58000    1.2528683    -6.668474     23.45116  0.033694195   0.04251701            1 
   59000    1.2405314   -6.6605331    23.781459   0.03358963  0.042490464            1 
   60000    1.2558658   -6.7041715    24.046084  0.033397339  0.042429673            1 
   61000    1.2421266   -6.6813422    24.464225  0.033421072  0.042344666            2 
   62000    1.2232663   -6.6775046    25.136468  0.033785575  0.042269892            1 
   63000    1.2433352   -6.6334235    25.545604  0.033790482  0.042210962            2 
   64000    1.2375724   -6.6469607    26.106784  0.033993208    0.0421628            2 
   65000    1.2335371    -6.668154     26.45361  0.033914884  0.042095449            2 
   66000    1.2257848   -6.6919994    27.040017  0.034141436    0.0420568            1 
   67000    1.2593759   -6.7221885    27.544148   0.03425889   0.04203211            3 
   68000    1.2306707   -6.7194051    27.973068   0.03428072  0.041983948            2 
   69000    1.2384624   -6.7186664    28.524528  0.034449913  0.041940233            2 
   70000    1.2336981   -6.6964441    28.870405  0.034369529   0.04188607            2 
   71000    1.2568641   -6.6882939    29.251523  0.034332773   0.04182764            2 
   72000    1.2586139   -6.6663426    29.752014  0.034435201  0.041768883            1 
   73000    1.2427863    -6.690964    30.568819  0.034895912  0.041731723            1 
   74000    1.2197906   -6.6913002     30.98297  0.034890732  0.041712852            2 
   75000    1.2614771   -6.6627511    31.562205  0.035069116  0.041696603            1 
   76000    1.2249004   -6.6599446    32.263689  0.035376851  0.041693881            2 
   77000    1.2470682   -6.6775389    32.618481  0.035301386   0.04169375            2 
   78000    1.2581376   -6.7239454    33.127265  0.035392377   0.04169087            2 
   79000    1.2432248   -6.6525838    33.430053  0.035263769  0.041673079            1 
   80000    1.2250397   -6.6748039    33.854182  0.035264773  0.041645845            1 
   81000    1.2164153   -6.7238748    34.345416   0.03533479  0.041612348            2 
   82000    1.2356504   -6.7104726    34.817089   0.03538322  0.041583272            1 
   83000     1.214462    -6.682823    35.452926  0.035595307  0.041561885            2 
   84000     1.256727   -6.6848444    36.139079  0.035852261  0.041555474            1 
   85000     1.242394   -6.6491808    36.426844  0.035712591  0.041545759            1 
   86000    1.2122455   -6.6992673    36.668479  0.035531471  0.041522172            3 
   87000    1.2292174   -6.6910388     37.09282  0.035529521   0.04148496            2 
   88000    1.2366108   -6.6426584    37.944861  0.035932634  0.041454861            2 
   89000    1.2448448   -6.6917961    38.204543  0.035772043  0.041437045            2 
   90000    1.2427627    -6.659906    38.945244  0.036060411   0.04142257            1 
   91000     1.223682   -6.6801306    39.394508  0.036075557  0.041424748            1 
   92000    1.2190137   -6.7013801    40.012087  0.036242832  0.041432192            3 
   93000    1.2399208   -6.6701806    40.529928   0.03631714  0.041437607            1 
   94000    1.2539336   -6.6586883    41.099824  0.036436014  0.041431862            2 
   95000    1.2257672   -6.6778437    41.265485  0.036197794  0.041424795            2 
   96000    1.2128588   -6.6772594     41.80275  0.036287109  0.041411421            2 
   97000    1.2638433   -6.7279796     41.97619  0.036062019  0.041391821            1 
   98000    1.2424855    -6.692594    42.652484  0.036269119  0.041369437            2 
   99000    1.2255208   -6.7107428     43.09609   0.03627617  0.041345681            1 
  100000    1.2266759   -6.6675239    43.569637  0.036308031  0.041321469            2 
  101000    1.2329448   -6.6523201    43.994922   0.03629944  0.041298593            1 
  102000    1.2206142    -6.708794    44.543321  0.036391602  0.041279437            2 
  103000    1.2179092   -6.6678046    44.970982  0.036384289  0.041256879            2 
  104000     1.237045    -6.666436    45.433881  0.036405353  0.041227927            2 
  105000    1.2538312   -6.6951882    46.071991  0.036565072  0.041210128            1 
  106000    1.2407241   -6.6933384    46.373612  0.036457242  0.041191854            5 
  107000    1.2439732   -6.7001726    46.804301  0.036451948  0.041171963            2 
  108000    1.2424783   -6.6790552    47.291232  0.036490148  0.041149512            2 
  109000     1.253259   -6.6724539    47.858215  0.036588849  0.041130219            2 
  110000    1.2319207   -6.6812068    48.521511   0.03675872  0.041118062            2 
  111000     1.235627   -6.7209982    49.000129  0.036786883  0.041114713            2 
  112000      1.26829   -6.6773973     49.38007  0.036741123  0.041105312            2 
  113000    1.2431948      -6.6979    50.282118  0.037081207  0.041097588            2 
  114000    1.2437706   -6.7443608    50.289844  0.036761581  0.041089252            1 
  115000    1.2045434    -6.691881    50.740768  0.036768672  0.041072432            4 
  116000    1.2108779   -6.6831418     51.23116  0.036803994  0.041054297            5 
  117000    1.2353191   -6.6801291    52.030599  0.037058831  0.041041323            3 
  118000    1.2378603   -6.6565402    52.430594  0.037027255  0.041038311            2 
  119000    1.2473377   -6.7282123    52.897001  0.037042718  0.041032554            1 
  120000    1.2613319    -6.670064    53.506575  0.037157343  0.041026383            2 
  121000    1.2245049   -6.6846945    53.799003  0.037051655  0.041016685            2 
  122000    1.2351766   -6.7292667    54.045459  0.036916297  0.041003984            4 
  123000    1.2239327   -6.7192122    54.507202  0.036928998   0.04099102            2 
  124000    1.2276247   -6.6807597    55.014644  0.036972207  0.040974941            2 
  125000     1.225662   -6.6905039     55.39373  0.036929153   0.04095588            3 
  126000    1.2530275   -6.6834785    55.934817  0.036993926  0.040932455            1 
  127000     1.241745   -6.6759747    56.396718   0.03700572  0.040909181            3 
  128000    1.2353087    -6.705606    56.453634  0.036753668  0.040884591            1 
  129000    1.2277299   -6.6627925    57.198639  0.036950025  0.040857242            1 
  130000    1.2273163   -6.7347311    57.583858   0.03691273  0.040832089            1 
  131000    1.2151782   -6.7168988    58.180717  0.037010634  0.040808049            3 
  132000    1.2042079   -6.6935564    58.598729  0.036994147  0.040787051            2 
  133000    1.2066492   -6.6895245    59.044206  0.036995116  0.040760969            1 
  134000    1.2205312   -6.7143071    59.310687  0.036884755  0.040736761            2 
  135000    1.2359021   -6.7047865    59.914957  0.036984541  0.040714606            2 
  136000    1.2228726   -6.7138156    60.080841  0.036814241  0.040687347            1 
  137000    1.2289087   -6.7435658    60.707991  0.036927001  0.040657971            2 
  138000    1.2385699    -6.700823    61.051603   0.03686691  0.040630468            1 
  139000    1.2174559   -6.7306025    61.525646  0.036885878  0.040599916            2 
  140000    1.2215351    -6.658777    62.007776   0.03690939  0.040568405            1 
  141000    1.2365208   -6.6617271     62.55414  0.036970532  0.040539839            1 
  142000    1.2342162    -6.691177    62.904703  0.036915905  0.040511903            2 
  143000    1.2132851   -6.7009352     63.41448  0.036954825   0.04048539            1 
  144000    1.2171059   -6.6782996      63.8962  0.036976968  0.040460134            6 
  145000    1.2431341    -6.716153    64.275448  0.036939913  0.040437943            1 
  146000    1.2225802   -6.6726785    64.985513  0.037092188  0.040412937            1 
  147000    1.2249988   -6.7113877    65.339604  0.037040592  0.040391714            2 
  148000    1.2435349   -6.6734212    65.945358  0.037131395  0.040370076            3 
  149000    1.2312258    -6.666986     66.18659  0.037017108  0.040347781            1 
  150000    1.2225579   -6.6742194    66.859689  0.037144272   0.04032618            1 
  151000    1.2280345   -6.6953283    67.102146  0.037032089  0.040304437            3 
  152000    1.2283336    -6.700716    67.448444  0.036978314  0.040281573            1 
  153000    1.2263534   -6.6999296    67.838192  0.036948906  0.040254137            1 
  154000    1.2139534   -6.6639646    68.424955  0.037026491   0.04022674            3 
  155000    1.2231583   -6.6418512    68.856502  0.037019625  0.040204105            1 
  156000    1.2362673   -6.7057684    69.221174  0.036977123  0.040180321            1 
  157000    1.2107366   -6.7066442    69.642205  0.036965077  0.040154205            2 
  158000    1.2102668   -6.7268727    70.068214  0.036955809  0.040126063            1 
  159000    1.2206723   -6.7334219     70.50924  0.036954528  0.040100548            2 
  160000    1.2349381   -6.7114949    70.983291  0.036970464   0.04007485            2 
  161000    1.2417017   -6.7242303    71.479072  0.036997449  0.040051753            2 
  162000    1.2142511   -6.7164063    71.988069    0.0370309  0.040026191            4 
  163000    1.2173477   -6.7110393    72.304649  0.036965567  0.040002274            3 
  164000    1.2492812   -6.6749795    72.864172  0.037024478  0.039978048            5 
  165000    1.2071794   -6.7049706    72.944979  0.036840899  0.039954065            1 
  166000    1.2467214   -6.7215546    73.786369   0.03704135  0.039932018            2 
  167000    1.2256353    -6.682879    74.145458  0.036998731  0.039909967            2 
  168000    1.2306379   -6.7173028    74.408731  0.036909093  0.039887471            2 
  169000    1.2367408    -6.686229    75.108234  0.037035618  0.039865766            3 
  170000    1.2190092   -6.6919746    75.788057  0.037151008  0.039844909            1 
  171000     1.236594   -6.6733991    76.197979  0.037133518  0.039825346            2 
  172000    1.2350866   -6.7221543    76.533493  0.037080181  0.039807922            2 
  173000    1.2310238   -6.7257892    76.887464   0.03703635  0.039785709            2 
  174000    1.2246995    -6.734175    77.062681  0.036907414  0.039763536            1 
  175000    1.2209428   -6.7095868     78.10461  0.037192671  0.039741648            2 
  176000    1.2037464      -6.7056    78.228422  0.037039972  0.039723383            2 
  177000    1.2420414   -6.6910345    79.146077  0.037262748  0.039708347            2 
  178000    1.2109614   -6.6714253     79.08068   0.03702279  0.039693171            2 
  179000    1.1999132   -6.7354755    79.599886  0.037057675  0.039676979            2 
  180000    1.2126404    -6.712811    79.997408  0.037035837  0.039660562            1 
  181000     1.216123   -6.7199006    80.957519  0.037273259  0.039643636            2 
  182000      1.21546   -6.6995168    81.112015  0.037139201  0.039628412            2 
  183000    1.1989962   -6.7246607    81.391897  0.037063705  0.039611444            4 
  184000    1.2010728    -6.700143    81.639362  0.036974348  0.039594785            3 
  185000    1.2140771   -6.6904948    82.260192   0.03705414  0.039577983            2 
  186000    1.2271891    -6.703408    82.818642  0.037105126  0.039562526            2 
  187000    1.2117606    -6.720822    83.056051    0.0370125  0.039544683            1 
  188000    1.2252286   -6.7457252     83.24762  0.036900541   0.03952434            2 
  189000    1.2151774   -6.7027673    83.762432  0.036932289  0.039503763            1 
  190000    1.2068112   -6.6886197    84.467833  0.037047295  0.039481863            1 
  191000    1.2280595    -6.699934    84.657652  0.036936148  0.039462012            1 
  192000    1.2412221   -6.6821752    85.274921  0.037011684  0.039440671            3 
  193000    1.2248499   -6.7218453    85.495867  0.036915314  0.039420433            1 
  194000     1.233968   -6.7259961    86.118867   0.03699264  0.039399785            3 
  195000    1.2224856   -6.7392205    86.469986  0.036952985  0.039379143            2 
  196000    1.1924629   -6.7112045    87.015904  0.036996558  0.039358767            1 
  197000    1.2133748   -6.6916149    87.582305  0.037048352  0.039342853            1 
  198000    1.2338897   -6.7554664    88.090612  0.037075173  0.039327517            2 
  199000    1.2620982    -6.699875    88.680661  0.037135955  0.039312281            1 
  200000    1.2258577   -6.7338497    88.807485  0.037003118   0.03929798            1 
  201000    1.1982974    -6.743622    89.643213  0.037165511  0.039285162            1 
  202000     1.251325   -6.7312271    90.519999  0.037343234  0.039274749            2 
  203000    1.2484017   -6.7391871    90.412772  0.037115259  0.039262712            1 
  204000    1.2388071   -6.7542217    90.942218  0.037149599  0.039251962            1 
  205000    1.2127005    -6.737569    91.504524  0.037196961  0.039241865            2 
  206000    1.1828599   -6.7121346    91.830228   0.03714815  0.039230564            1 
  207000    1.2324267     -6.71946    92.318473  0.037165247  0.039217196            2 
  208000    1.2288586   -6.7309725    92.854078  0.037201153  0.039205639            1 
  209000    1.1948455   -6.6931135    93.039289  0.037097005  0.039194652            2 
  210000    1.2141612    -6.728124     93.65289  0.037163845  0.039181194            2 
  211000    1.2041859   -6.7209677    93.695315  0.037004469  0.039167684            1 
  212000    1.2275682   -6.6925655    93.900344  0.036910513  0.039151211            1 
  213000    1.2332458   -6.7286424    94.508354  0.036975099  0.039134478            2 
  214000    1.1990233    -6.716699    95.086085  0.037027291  0.039118074            1 
  215000      1.21265   -6.6843886    95.239599  0.036914573  0.039101531            2 
  216000    1.2069722   -6.7313422    95.632558  0.036895277  0.039086626            1 
  217000    1.2074393   -6.6657199     96.95115  0.037231624  0.039072867            1 
  218000    1.2089994   -6.6854753    97.402663  0.037233434  0.039063168            1 
  219000    1.2123465   -6.7418645    97.664636  0.037163103  0.039053279            1 
  220000    1.2150735   -6.6827738    98.715023  0.037392054  0.039045877            1 
  221000    1.2072687    -6.758739    98.758217  0.037239146  0.039037939            3 
  222000    1.2313877   -6.7471076     99.11677  0.037205995  0.039027596            2 
  223000    1.2214527   -6.6896045    99.878872  0.037323943  0.039017981            1 
  224000    1.2046771    -6.760058    99.902834  0.037166233  0.039009298            2 
  225000    1.1875348    -6.748367    100.61254  0.037263905  0.039000538            1 
  226000    1.2193856   -6.7362329    100.85563  0.037188655  0.038992673            3 
  227000    1.1922195   -6.7200023    101.64594  0.037314954  0.038984964            4 
  228000    1.2185992   -6.7390698    102.25026   0.03737217  0.038979618            2 
  229000    1.2246055   -6.7435343    102.97318  0.037472045  0.038975488            2 
  230000    1.2171536   -6.7580493     102.9223   0.03729069  0.038969078            1 
  231000    1.2222122    -6.752826    103.05086  0.037175637  0.038964174            3 
  232000    1.2336869   -6.7403404    104.00709  0.037358868  0.038958312            2 
  233000    1.1927748   -6.7643116    104.44858  0.037356431  0.038954161            2 
  234000    1.2204682   -6.7995981    104.44859  0.037196791   0.03894766            1 
  235000    1.2229493   -6.7173032     105.5432  0.037426665  0.038940238            1 
  236000    1.2114359   -6.7327356    105.92752  0.037403787  0.038934452            1 
  237000    1.2216061   -6.7332609    106.29366  0.037374706  0.038930995            2 
  238000    1.2114279    -6.718064    106.67731  0.037351998  0.038926466            2 
  239000    1.2352734      -6.7001    107.16296  0.037365047  0.038920543            2 
  240000    1.2214333   -6.7125152    107.78275  0.037424565  0.038915923            1 
  241000    1.2055176   -6.6838691    108.65204  0.037569863  0.038913634            2 
  242000    1.2223619   -6.7192895    108.98284  0.037528527  0.038910117            1 
  243000    1.2410086   -6.7149835    109.24527  0.037464086  0.038906714            1 
  244000    1.1859798   -6.7478434    109.60706  0.037434106  0.038904615            2 
  245000    1.1923781   -6.7943162    109.72387  0.037321043  0.038901272            4 
  246000    1.2367835   -6.6827841    111.15318  0.037653515  0.038898266            1 
  247000    1.1991077    -6.726164    111.18102  0.037510467  0.038897999            2 
  248000    1.2268235    -6.735236    111.05385   0.03731648  0.038897468            2 
  249000    1.2134665   -6.7170489    112.34719  0.037599463  0.038896594            2 
  250000    1.1976876   -6.7234593    112.88958  0.037629858  0.038896536            2 
  251000    1.2230962   -6.7290849    113.42186   0.03765666  0.038895957            3 
  252000    1.1933096   -6.7758118    113.89332  0.037663134  0.038897815            1 
  253000    1.2165462   -6.7240552    113.99444  0.037547576  0.038898262            3 
  254000    1.2305698   -6.7468062    114.82222  0.037671331  0.038898199            1 
  255000    1.2007852   -6.7811654    115.01909  0.037587937  0.038896937            1 
  256000    1.2196235   -6.7027927    115.25105  0.037516617  0.038895638            2 
  257000    1.1994557   -6.7003361    116.27386   0.03770229  0.038894802            2 
  258000    1.2358926   -6.7533861    116.13506  0.037511326  0.038893955            2 
  259000    1.2233177   -6.7495255    116.88027  0.037606265  0.038892579            1 
  260000    1.2088888   -6.7574816    117.11941  0.037538273  0.038890767            1 
  261000    1.1912398    -6.727114    117.68621  0.037575417  0.038887728            1 
  262000     1.226274   -6.7736202    117.80237  0.037468947  0.038884591            2 
  263000    1.1862352   -6.7851717    118.18238   0.03744689  0.038879646            1 
  264000    1.1971508   -6.7435839     118.5203  0.037411711  0.038874218            2 
  265000    1.1934804   -6.7266058    119.03936  0.037433762  0.038869073            3 
  266000    1.2066352   -6.7494555    119.63454  0.037479492   0.03886206            1 
  267000    1.2363283   -6.7549067    120.19334  0.037513526  0.038855681            2 
  268000    1.2105363   -6.7441241    120.16044   0.03736332  0.038850468            3 
  269000     1.171267   -6.7812518     120.4669  0.037319363  0.038844786            1 
  270000    1.2050821   -6.7162179    121.18618  0.037403141  0.038838369            1 
  271000    1.2094937    -6.728443     121.6293  0.037401384  0.038830549            2 
  272000      1.22873   -6.7109712    122.29347  0.037467361  0.038823132            2 
  273000    1.1834275    -6.731563    122.33579  0.037343036  0.038816869            2 
  274000    1.1989888   -6.7534145    122.68338  0.037312463  0.038808402            3 
  275000    1.2235168   -6.7243654    123.81159  0.037518665  0.038803354            1 
  276000    1.2001774   -6.7655802    123.96905  0.037430268  0.038798845            2 
  277000     1.207481   -6.7811703    124.00416  0.037305704  0.038793632            2 
  278000    1.1682823   -6.7631393    124.76833  0.037400579  0.038787038            2 
  279000    1.2048641    -6.720438    125.24379  0.037408539  0.038779962            2 
  280000     1.231514   -6.7506819     125.4911  0.037348541  0.038772382            2 
  281000    1.2258566   -6.7443243    125.87254  0.037328749  0.038764845            3 
  282000    1.2090357    -6.752781    126.06865  0.037254329  0.038756224            2 
  283000    1.2049641   -6.7702849    126.98311  0.037391963  0.038749203            3 
  284000    1.1903284   -6.7275659    127.46186   0.03740078  0.038741177            4 
  285000    1.2064109    -6.812064    127.43592  0.037261966  0.038734118            1 
  286000    1.2145367   -6.7394333    127.96511   0.03728587   0.03872648            1 
  287000    1.2159975   -6.7621525    128.72425   0.03737638  0.038718827            2 
  288000     1.226045   -6.7808069    128.96956   0.03731758  0.038712155            2 
  289000    1.2046552   -6.7467233    129.28932  0.037280657  0.038705147            3 
  290000    1.2264951   -6.7585515    130.16568   0.03740393  0.038698345            2 
  291000    1.1909321   -6.7778389    131.14107  0.037554716  0.038692396            2 
  292000     1.177717   -6.7220662    130.97498  0.037378703  0.038687541            1 
  293000    1.2162399   -6.7259326     131.2734  0.037336007  0.038682236            2 
  294000    1.2076917   -6.7139831    132.03306  0.037424337  0.038676134            2 
  295000    1.2159857     -6.76251    132.49263  0.037427297   0.03867018            2 
  296000    1.2112919   -6.7853547    132.73348   0.03736866  0.038663791            1 
  297000    1.2067727   -6.7724891    133.16754   0.03736463   0.03865861            1 
  298000    1.2063204   -6.7092427    133.86012   0.03743292  0.038653208            2 
  299000    1.1950316   -6.7733637    134.14778  0.037387898  0.038648152            3 
  300000    1.1951956    -6.735045    133.80236  0.037167321  0.038640156            3 
  301000    1.2305575   -6.7373914    134.70584  0.037293976  0.038631673            2 
  302000    1.2195668   -6.7454282     135.5445  0.037401904  0.038624547            1 
  303000    1.2000886   -6.7337717    135.61895  0.037298941  0.038616388            2 
  304000    1.1984963   -6.7464631     135.8022  0.037226481  0.038606836            1 
  305000    1.2014307    -6.760321    136.49432   0.03729353   0.03859844            3 
  306000    1.1960996   -6.7626187    136.63785  0.037210744  0.038589953            1 
  307000    1.1928422   -6.7411857    137.53349  0.037332653  0.038581917            1 
  308000     1.216335   -6.7973705    138.14067  0.037375724  0.038575161            3 
  309000    1.1788492   -6.7319745    138.86719  0.037450697  0.038569492            1 
  310000    1.1764199   -6.7405047    139.05705  0.037380927  0.038563162            3 
  311000    1.2110352   -6.7733507    138.64529    0.0371504  0.038556253            1 
  312000    1.2074859   -6.7693685    139.48337  0.037255173  0.038548291            3 
  313000    1.1945679   -6.7732513    139.65869  0.037182826  0.038540684            2 
  314000    1.1871135   -6.7639417    141.08626  0.037443274  0.038533091            2 
  315000    1.2115877    -6.752802    141.42887  0.037415044  0.038527559            2 
  316000    1.2202135   -6.7433964    141.30523  0.037264038   0.03852213            1 
  317000     1.195992   -6.7710354    141.45528  0.037185929  0.038514925            3 
  318000    1.2025991    -6.773063    141.59449  0.037105475  0.038505187            2 
  319000    1.1926907   -6.7658182    141.85737   0.03705783   0.03849563            2 
  320000    1.2090779   -6.7963706    143.07401  0.037258857  0.038486164            4 
  321000    1.1915617   -6.7660975    143.52565  0.037260035  0.038477346            1 
  322000    1.2068344   -6.7514703    143.40602  0.037113359  0.038468798            1 
  323000    1.1978721   -6.7551942    144.32941  0.037236689  0.038460871            2 
  324000     1.206944   -6.7388448    144.92523  0.037275006  0.038453346            2 
  325000    1.1875566   -6.7419187    146.06789  0.037453304  0.038445548            4 
  326000    1.2063816   -6.7280349     146.4887  0.037445988   0.03843984            2 
  327000      1.20431   -6.7362134    145.95068  0.037194362  0.038432807            1 
  328000     1.174234   -6.7798062     146.4153  0.037199008  0.038427404            3 
  329000    1.1890503   -6.7426138    147.33796  0.037319646  0.038420975            2 
  330000    1.2213098   -6.7362472     147.5719  0.037265632  0.038415562            2 
  331000    1.1722716   -6.7892877    148.40155   0.03736192  0.038410178            3 
  332000    1.1997625   -6.7611775    148.63375  0.037307668  0.038404515            1 
  333000    1.1983464   -6.7422637    148.62911  0.037194473  0.038399091            4 
  334000    1.2047227   -6.7310416    149.66021  0.037340371  0.038393418            2 
  335000    1.1795743   -6.7473334    150.39803  0.037412444   0.03838865            1 
  336000    1.1790173   -6.7442668    150.23867  0.037261575  0.038383818            1 
  337000    1.1850228   -6.7464822    151.17838  0.037383379   0.03838008            2 
  338000    1.2082441   -6.7828711    151.96532  0.037466795  0.038375977            2 
  339000    1.1934291   -6.7822577    152.16322   0.03740492  0.038372632            1 
  340000    1.2014243   -6.7873814    152.93942  0.037485152  0.038370049            2 
  341000    1.2209942   -6.7852451    153.14305  0.037424988  0.038367481            2 
  342000    1.2265855   -6.7159675    154.21391  0.037576489  0.038365948            1 
  343000    1.1713856   -6.7795671    154.22662  0.037470025  0.038364748            4 
  344000     1.193884   -6.7960588    154.60594  0.037452989  0.038363353            1 
  345000    1.1953542   -6.8097769    155.06238   0.03745468  0.038361407            2 
  346000    1.2066728   -6.7644978    156.05765  0.037586139  0.038360099            2 
  347000    1.2094039    -6.778788    156.02033   0.03746886  0.038359579            4 
  348000    1.1939916   -6.7732828    156.39249   0.03745031  0.038357097            1 
  349000    1.2155084   -6.7854402    156.70867  0.037418497   0.03835486            3 
  350000    1.2040847   -6.7388067    157.51318  0.037503137  0.038353535            2 
  351000    1.2037733   -6.7369781    158.37493  0.037600886  0.038352353            1 
  352000    1.1925291   -6.7603977    157.93936  0.037390947  0.038349792            2 
  353000    1.2173889   -6.7539368    158.77567  0.037482452  0.038347174            1 
  354000    1.1568868   -6.7508636    159.51591  0.037550827  0.038345755            1 
  355000    1.1765766   -6.7968209     160.1872  0.037602628  0.038345305            2 
  356000    1.1879307   -6.7537211    160.12921  0.037483428  0.038343806            2 
  357000    1.2138761   -6.7648858    160.85687  0.037548289  0.038341123            1 
  358000    1.1759277   -6.7298423    160.79184  0.037428268   0.03833804            1 
  359000    1.2019277   -6.8060696    160.99499  0.037371167  0.038334235            1 
  360000     1.188605   -6.7365454    161.39999  0.037361108  0.038329524            2 
  361000    1.2153837   -6.7468597    161.70143    0.0373272  0.038324505            2 
  362000    1.2041539    -6.759073    162.18554  0.037335529  0.038319954            2 
  363000    1.2083104    -6.769595    163.17126  0.037458966  0.038316626            1 
  364000     1.203401   -6.7658083    163.10771  0.037341508  0.038312182            1 
  365000    1.1988807   -6.7878826    163.44651  0.037316555   0.03830803            1 
  366000    1.2195667   -6.7621362       164.09  0.037361112  0.038302802            4 
  367000    1.2044383   -6.7780851    164.22593  0.037290176   0.03829743            3 
  368000    1.2102472   -6.7159951    165.89146  0.037566002  0.038293362            1 
  369000    1.2003859   -6.7552155     165.0641  0.037277349  0.038289819            2 
  370000    1.1649929   -6.7582693       165.95  0.037376127  0.038284469            2 
  371000    1.1896838   -6.7888657     165.5967  0.037196023  0.038279072            1 
  372000    1.1720701   -6.7352114     166.9283  0.037394333  0.038273979            3 
  373000    1.1754309   -6.7962273    166.99782   0.03730961  0.038268787            3 
  374000    1.1987132   -6.7465119    167.73481  0.037374066  0.038264086            2 
  375000    1.2134843   -6.7820515    168.10224  0.037356054  0.038260247            3 
  376000    1.1835034   -6.7586564    168.62308  0.037372137   0.03825633            2 
  377000    1.2077671   -6.7766332    168.20202  0.037179933   0.03825113            2 
  378000    1.1640269   -6.8361359    168.19416  0.037079842  0.038245118            2 
  379000    1.1977554   -6.7422618    169.73622  0.037321068  0.038238924            1 
  380000    1.1886365   -6.7417268    170.05097   0.03729188   0.03823328            1 
  381000    1.1870391   -6.7863294    169.60618  0.037096715  0.038226665            3 
  382000    1.1979177   -6.7662994    170.76634  0.037252691  0.038220196            1 
  383000    1.1915683   -6.7869308    171.16064  0.037241219  0.038214466            1 
  384000     1.205169   -6.7523377    171.50096  0.037218091    0.0382092            1 
  385000    1.2026157   -6.8007723     171.5614  0.037134501  0.038203011            3 
  386000    1.2042887   -6.7759888    172.70722  0.037285669  0.038197998            2 
  387000    1.1804489   -6.7604582    172.95027   0.03724166  0.038193366            2 
  388000    1.1861321   -6.8123377    172.52719  0.037054809  0.038188474            1 
  389000    1.1974356   -6.7988839    173.62465  0.037194654  0.038182721            1 
  390000    1.1962108   -6.7655505    173.72958  0.037121705  0.038176453            2 
  391000    1.1626017   -6.7986124    173.72902  0.037026645  0.038169488            1 
  392000    1.1941395   -6.7761417    175.04424  0.037211786  0.038161986            2 
  393000    1.1921983   -6.8171934    174.73392  0.037051298  0.038154705            3 
  394000    1.1785435   -6.7709677    175.64148  0.037149213  0.038147854            1 
  395000    1.1978647    -6.814385    175.97681  0.037125909  0.038140279            2 
  396000    1.1707078   -6.7753813    176.26033   0.03709182  0.038133377            1 
  397000     1.181309   -6.8331453     176.9913  0.037151826  0.038127508            4 
  398000    1.1744252   -6.7888183    177.71254  0.037209493  0.038121461            1 
  399000    1.1945064   -6.7790419    177.66691  0.037106706  0.038115759            2 
  400000    1.1852937   -6.7665691    178.74866  0.037239303  0.038109626            1 
  401000    1.1773694   -6.7556198     178.5627  0.037107792  0.038103135            2 
  402000    1.1989116    -6.787359    178.83482  0.037071895  0.038095849            3 
  403000    1.1831869   -6.7808671    179.02175  0.037018558  0.038087868            1 
  404000    1.1666734   -6.8108691    179.62854  0.037052092  0.038080646            2 
  405000    1.1761648   -6.7730712    180.39933  0.037119204  0.038073295            1 
  406000    1.1778464   -6.7777799    180.72012   0.03709362  0.038065633            3 
  407000    1.1694559   -6.8188685    180.57123  0.036971997  0.038058367            2 
  408000    1.1923145   -6.7844652    181.06581  0.036982395  0.038049998            1 
  409000    1.1906975   -6.8048234    181.43344  0.036966879  0.038041745            2 
  410000    1.1669854   -6.7766145       181.97  0.036985772  0.038033877            2 
  411000    1.1945144    -6.796782    181.76434  0.036854083  0.038024711            2 
  412000     1.156054   -6.8038262    182.64371  0.036942498  0.038015837            2 
  413000    1.1695034   -6.7983304    183.30154  0.036985782  0.038008583            1 
  414000    1.2052745   -6.8228159    183.21351  0.036878726  0.038000044            1 
  415000    1.2026552    -6.762147    184.36297  0.037020676  0.037991946            2 
  416000     1.183346   -6.8158693     184.6298  0.036985135  0.037984147            1 
  417000    1.1885599   -6.7674223    184.72922  0.036916312  0.037976458            2 
  418000    1.1930506   -6.7869262    185.19953  0.036921757  0.037968603            2 
  419000    1.1646269   -6.8151132    185.30679  0.036854971  0.037959499            2 
  420000     1.160518   -6.7860953    185.49163  0.036803895  0.037950501            2 
  421000    1.2177873   -6.8240427    186.06488  0.036829945  0.037942797            3 
  422000    1.2061957   -6.8192543    186.13679  0.036756871   0.03793429            2 
  423000    1.2012838   -6.8289151    187.04353  0.036848608  0.037926496            1 
  424000    1.1589196   -6.7872674    187.88652  0.036927382  0.037918469            1 
  425000    1.2105242   -6.7707259    188.29219  0.036920037  0.037911178            2 
  426000    1.1719014   -6.8076107    187.70866  0.036719221  0.037902727            2 
  427000    1.1872343   -6.7703505    189.09682  0.036904142  0.037894146            2 
  428000    1.1934231   -6.7997866    188.90078  0.036779747  0.037884403            5 
  429000    1.1998783   -6.7837343    189.41164  0.036793247  0.037875291            1 
  430000    1.1730188   -6.7663159    189.20518  0.036667671  0.037865652            4 
  431000    1.1656426   -6.7808777    190.14758  0.036764807  0.037855484            2 
  432000    1.1710059   -6.7457045    191.07681  0.036858953  0.037845625            2 
  433000    1.1905749   -6.7961646    191.15447  0.036788774     0.037837            1 
  434000    1.1845694   -6.7780057    191.86021  0.036839517  0.037828007            3 
  435000    1.1583538   -6.7972467    191.63899   0.03671245  0.037818731            2 
  436000    1.1896824   -6.7492094    192.39478  0.036772703  0.037809936            3 
  437000    1.1813852   -6.8024686    192.49763  0.036708168  0.037800687            1 
  438000    1.1710892   -6.8527991    192.17335  0.036562662  0.037790693            2 
  439000    1.1978701   -6.7938916    193.18638  0.036671674  0.037780884            2 
  440000    1.2097743   -6.7896095     193.3981  0.036628429  0.037770347            1 
  441000    1.1730044   -6.8208316    193.41777  0.036549088  0.037759351            2 
  442000    1.1893584   -6.8397064    194.29725  0.036632212  0.037748447            3 
  443000     1.187101   -6.8193831    194.73364   0.03663161  0.037738368            2 
  444000    1.1920242   -6.7628792    195.12008  0.036621636  0.037728318            1 
  445000    1.1932986   -6.7772975    195.90281   0.03668592  0.037718611            2 
  446000    1.1686232   -6.7817519    195.91557  0.036606049  0.037709207            2 
  447000    1.2071929     -6.83222    196.38105  0.036610933  0.037699081            3 
  448000    1.1886178   -6.7991207    196.66406  0.036581856  0.037689477            1 
  449000    1.1606778   -6.8441991    196.62658  0.036493425  0.037679178            1 
  450000    1.1899403   -6.7907731    197.60801  0.036594075  0.037668778            2 
  451000    1.1707014   -6.8113512     197.8416  0.036556098  0.037658609            2 
  452000    1.1830194   -6.8264378      198.307  0.036561025  0.037647755            2 
  453000    1.1601978   -6.7666824    197.98717  0.036421481  0.037635403            1 
  454000     1.150485    -6.843732    198.16663  0.036374198  0.037622814            1 
  455000     1.167044   -6.8034676    198.20552  0.036301378  0.037609429            2 
  456000    1.1999263   -6.7688379    199.00675  0.036368193  0.037596461            2 
  457000     1.194787   -6.8025438    199.08509  0.036302897  0.037583437            1 
  458000    1.1681667   -6.7997484     199.6079  0.036318758  0.037570538            2 
  459000    1.1770557   -6.8261063    199.70522  0.036257302  0.037558073            2 
  460000    1.1702951   -6.7424353    201.29453  0.036466401  0.037545681            2 
  461000    1.2174836   -6.8413971    200.37146  0.036220437  0.037533279            2 
  462000     1.198079   -6.8021313    201.42831  0.036332668  0.037520654            1 
  463000    1.1680421   -6.7713377    201.88081  0.036335638  0.037508026            2 
  464000    1.1637773   -6.8330504    202.65054  0.036395571  0.037496222            2 
  465000    1.1969226    -6.801507    202.48971  0.036288478  0.037484392            3 
  466000    1.1640287   -6.7964356    203.39798  0.036373029  0.037473035            2 
  467000    1.1766759   -6.8500112    202.67822  0.036166706  0.037460735            2 
  468000    1.1776502   -6.7779686    204.77866  0.036463437  0.037448921            1 
  469000    1.1679482   -6.8128541    203.88112  0.036226213  0.037437457            3 
  470000    1.1673958   -6.8681264    204.40285   0.03624164  0.037425915            2 
  471000    1.1697695   -6.8028038    205.45762  0.036351314  0.037414452            1 
  472000    1.1400156   -6.7942522    205.44516  0.036272098  0.037403223            2 
  473000    1.1963451   -6.8201988    205.46908  0.036199626   0.03739212            3 
  474000    1.1884214   -6.8026494    206.99794  0.036392044  0.037381591            2 
  475000    1.1864655    -6.850252    206.81198  0.036282803   0.03737064            2 
  476000    1.1575608   -6.8238105    207.97984  0.036411036  0.037360043            3 
  477000    1.1570666   -6.8083029    207.38164  0.036230196    0.0373494            2 
  478000    1.1593878   -6.8198754    208.49263  0.036348087  0.037338641            1 
  479000      1.18267   -6.7969492    208.80643  0.036326798  0.037328103            1 
  480000    1.1750155   -6.7751714    209.84134  0.036430789  0.037317705            2 
  481000    1.1997248   -6.8056247    209.55477    0.0363054  0.037307867            3 
  482000    1.1932454   -6.8529984    209.40568  0.036204301  0.037297977            4 
  483000    1.1862608   -6.8225566    210.10492  0.036249987  0.037287629            1 
  484000    1.1606395   -6.8366286    210.58458  0.036257676  0.037277043            3 
  485000    1.1644865   -6.7693171    211.41303  0.036325263  0.037266636            3 
  486000     1.169231   -6.8797012     210.5062  0.036095027   0.03725514            3 
  487000     1.181528    -6.817821    211.78851  0.036240333  0.037244226            3 
  488000    1.1573411   -6.8087814    212.03818  0.036208705  0.037233766            1 
  489000    1.1686776   -6.8398645    212.86628  0.036275781  0.037223272            2 
  490000    1.1958349   -6.8665665    212.43989  0.036129234  0.037213355            2 
  491000    1.1476861   -6.8169111    213.54913  0.036243911  0.037203935            2 
  492000    1.1763277   -6.8087433    214.08637  0.036261241   0.03719425            1 
  493000    1.1915208   -6.8087292    214.15229  0.036198832  0.037184188            1 
  494000    1.1662901     -6.81937    215.02639  0.036273008  0.037174883            1 
  495000    1.1879903    -6.847377    214.83497  0.036167503  0.037166044            2 
  496000    1.1832963   -6.8940205    215.41767  0.036192486  0.037157373            1 
  497000    1.1560322   -6.8653263    216.66186  0.036328279   0.03714878            2 
  498000    1.1707772   -6.8127031    217.00188  0.036312229  0.037140197            1 
  499000    1.1909784   -6.7933861    217.01675  0.036241942  0.037132519            2 
  500000    1.1816568    -6.773642    218.47506  0.036412509   0.03712478            1 
  501000     1.204796   -6.8477766    218.48107  0.036340829  0.037117042            1 
  502000    1.1582582   -6.8345489    218.89511   0.03633717  0.037109232            2 
  503000    1.1707884   -6.8461735    219.40854   0.03634999  0.037101663            2 
  504000    1.1921042   -6.8040059    220.01483  0.036378113  0.037094842            1 
  505000    1.1470245   -6.8635806     219.0856  0.036152739  0.037087714            1 
  506000     1.133367   -6.8536062     221.4865  0.036476697  0.037080804            2 
  507000    1.1522842   -6.7964809    222.30825  0.036539817  0.037074946            1 
  508000    1.1543934   -6.8441025    222.29155  0.036465149  0.037069253            1 
  509000    1.1571246   -6.8072566    222.43132  0.036416392   0.03706333            2 
  510000    1.1648571    -6.805837    222.48102  0.036353107  0.037057405            2 
  511000     1.175656   -6.7863486     223.8989  0.036513192  0.037051601            1 
  512000    1.1686593   -6.8145983    223.71239  0.036411522  0.037046002            3 
  513000    1.1459298   -6.8542037    223.77824   0.03635124  0.037039888            2 
  514000    1.1811463   -6.7918983    225.27562  0.036523284  0.037033905            2 
  515000    1.1752963   -6.8076276    224.26987  0.036289624  0.037028046            1 
  516000    1.1796559   -6.8423289    225.27804  0.036382113  0.037022097            2 
  517000    1.1986138   -6.7999222    226.39349  0.036491536  0.037016335            3 
  518000    1.1759063   -6.7876512    227.00133  0.036518875  0.037010631            1 
  519000    1.1973348    -6.813667    227.22777   0.03648487   0.03700523            1 
  520000     1.185832   -6.8364699    226.86803  0.036357056   0.03700039            1 
  521000    1.1821149   -6.8194416    227.78714  0.036434284  0.036994507            2 
  522000    1.1674078   -6.8287694    227.93328  0.036387816  0.036988107            2 
  523000    1.1824873   -6.8278246    228.87579  0.036468418   0.03698241            2 
  524000     1.172211   -6.8104809    228.42114  0.036326517  0.036976286            1 
  525000    1.1683768   -6.8173369    228.74118  0.036308124  0.036970439            2 
  526000    1.1578085   -6.8314313    229.32999  0.036332381   0.03696391            1 
  527000     1.183074   -6.7930798    230.05326  0.036377809   0.03695719            3 
  528000     1.155935   -6.8540159    229.17955  0.036171015  0.036949871            2 
  529000    1.1564756   -6.8419211    229.10003  0.036090112  0.036941739            1 
  530000    1.1897668   -6.8517732    229.95861  0.036157014  0.036933481            3 
  531000    1.1727866   -6.8045019    230.50841  0.036175206  0.036926047            2 
  532000     1.173654   -6.8182738    230.95996  0.036177939  0.036918287            1 
  533000    1.1631969   -6.8571496    231.55439     0.036203  0.036910346            3 
  534000    1.1661453   -6.8398131    231.73563  0.036163487   0.03690184            2 
  535000    1.1631141   -6.9122997    230.97504   0.03597742  0.036893544            6 
  536000    1.1849987   -6.8380147    231.92021  0.036057247  0.036884582            1 
  537000    1.1535506   -6.8302915    233.09101  0.036171789  0.036875932            1 
  538000    1.1409218   -6.8413458    232.63447   0.03603384  0.036867199            2 
  539000    1.1555932   -6.8347194    233.78148  0.036144322  0.036858872            3 
  540000    1.1729402   -6.8252017    233.78917  0.036078576  0.036850292            3 
  541000    1.1461688   -6.8571621     233.4746  0.035963432  0.036841027            1 
  542000    1.1936405   -6.8163636    234.27365  0.036019933  0.036832016            2 
  543000    1.1596182   -6.7862128    234.95939  0.036058838  0.036822996            1 
  544000    1.1562876   -6.8530647    234.96613  0.035993586  0.036814282            2 
  545000    1.1429339   -6.8179458    235.37058  0.035989385  0.036805273            2 
  546000     1.146536   -6.8506958    235.21728  0.035900074  0.036796248            2 
  547000    1.1707813   -6.8744481    236.13957   0.03597495  0.036787115            1 
  548000    1.1560594   -6.8521813    236.07609  0.035899648  0.036778253            2 
  549000    1.1643644   -6.8541467    237.38913  0.036033565   0.03676924            2 
  550000    1.1417461   -6.8211131    236.91119  0.035895635  0.036760197            1 
  551000    1.1361945   -6.7948762    238.51083  0.036072418  0.036751657            1 
  552000    1.1642138   -6.8450405    237.84589  0.035906687  0.036742465            2 
  553000    1.1727292   -6.8461934    238.21888  0.035897962  0.036732931            1 
  554000    1.1522285    -6.833475    238.55774  0.035884136   0.03672332            1 
  555000    1.1783744   -6.8089901    239.78928  0.036004396  0.036713847            1 
  556000    1.1450581   -6.7709948    240.03344  0.035976235  0.036705496            1 
  557000    1.1741518   -6.8140418    240.69539  0.036010681  0.036697097            1 
  558000    1.1849376   -6.7942826    240.73761   0.03595245  0.036688642            1 
  559000    1.1442604   -6.8539556    240.69207  0.035881346  0.036680057            5 
  560000    1.1669968   -6.7929957    241.44584   0.03592944  0.036671682            1 
  561000    1.1751795   -6.8395369    241.73514  0.035908369  0.036663322            4 
  562000    1.1486408   -6.8288045    242.19913  0.035913276   0.03665499            2 
  563000    1.1912951   -6.8288949    243.76705  0.036081564  0.036647438            2 
  564000    1.1910414   -6.8619129    243.23798  0.035939418  0.036639802            1 
  565000    1.1268805   -6.8344495    243.54586  0.035921219  0.036631824            1 
  566000    1.1575508   -6.8157525    243.68701  0.035878535  0.036623051            2 
  567000    1.1650473   -6.8126943       244.25  0.035898001  0.036614653            2 
  568000    1.1595159   -6.8116192    245.32012  0.035991802  0.036606686            2 
  569000    1.1371918   -6.8505007    246.10091  0.036042898  0.036598858            1 
  570000    1.1725016   -6.8893783     244.2775  0.035713085  0.036590774            2 
  571000    1.1619081    -6.858725    245.81615  0.035875095  0.036583125            2 
  572000    1.1703345   -6.8342809    245.78845  0.035808341  0.036575363            2 
  573000    1.1914153   -6.8430924    247.11211  0.035938352  0.036567798            3 
  574000    1.1911751   -6.8335584    246.83759  0.035835887  0.036560117            2 
  575000    1.1541416   -6.8533912     247.1909  0.035824769  0.036551973            2 
  576000    1.1577096   -6.8662491    247.09968  0.035749375  0.036543701            1 
  577000    1.1610409   -6.8585158    248.30509   0.03586151  0.036535506            2 
  578000    1.1498002   -6.8539686    248.26581  0.035793802  0.036527026            2 
  579000    1.1899355   -6.8053604     249.0961  0.035851483  0.036518875            1 
  580000    1.1440428   -6.8746587    249.39937  0.035833243   0.03651076            2 
  581000    1.1299833   -6.8065387    249.90816  0.035844544   0.03650249            2 
  582000     1.147993   -6.8796521    250.05638  0.035804179  0.036494472            3 
  583000     1.134391    -6.822306    251.22293   0.03590951  0.036486273            2 
  584000     1.169815   -6.8359359    250.56266  0.035753804  0.036478236            2 
  585000    1.1445965   -6.8323765    251.03778  0.035760367  0.036469902            2 
  586000     1.177154   -6.8686601    250.42854  0.035612704  0.036461642            2 
  587000    1.1689795   -6.8251723    252.00637  0.035776032   0.03645297            1 
  588000    1.1489411   -6.8460248    251.83464   0.03569085  0.036444985            4 
  589000    1.1743966   -6.8441299    252.69645  0.035752186  0.036436279            2 
  590000     1.149896   -6.8336448    252.90275  0.035720728  0.036428245            2 
  591000    1.1386411   -6.8571624     252.9877  0.035672264  0.036420569            3 
  592000    1.1531439   -6.8775316    253.77451  0.035722763  0.036412836            2 
  593000    1.1713755   -6.8590583    253.52125  0.035626932  0.036404221            4 
  594000    1.1491484    -6.843051    254.78194  0.035743819  0.036396082            4 
  595000    1.1383665   -6.8677172    255.28547  0.035754268   0.03638762            4 
  596000    1.1373044   -6.8442377    254.83932  0.035631895  0.036379237            3 
  597000    1.1539323   -6.8345196    256.48486  0.035801907  0.036371057            1 
  598000    1.1516132   -6.7900849    256.16123  0.035696939  0.036362876            1 
  599000    1.1664163   -6.8585609    256.27492  0.035653161   0.03635497            1 
  600000    1.1507505   -6.8515038    257.80022  0.035805586  0.036347075            1 
  601000    1.1537948   -6.8076522    257.53064   0.03570863  0.036338978            1 
  602000    1.1678581   -6.7942094    257.10124  0.035589873  0.036330769            1 
  603000     1.147962   -6.8811521     257.3936  0.035571254  0.036322586            1 
  604000    1.1577623   -6.8569442    258.58787  0.035677134  0.036314696            2 
  605000    1.1566407   -6.8607612    259.05897  0.035683054    0.0363068            1 
  606000    1.1718141   -6.8501199    259.47873  0.035681894  0.036299065            1 
  607000    1.1219487   -6.8757427    259.86034    0.0356755  0.036291523            2 
  608000    1.1766972   -6.8433837    261.39419  0.035827054  0.036284265            2 
  609000    1.1628779   -6.8406394    261.97654  0.035847912  0.036277238            2 
  610000    1.1595727   -6.8467318    261.57923  0.035734867  0.036270391            9 
  611000    1.1257688   -6.8317219    261.93502  0.035724907  0.036263306            2 
  612000    1.1710565   -6.8820484    261.77427  0.035644644  0.036255768            2 
  613000     1.148938   -6.8770025    262.16484  0.035639593  0.036247975            1 
  614000    1.1746979   -6.8610861    262.38851  0.035611904  0.036240287            1 
  615000    1.1326767   -6.8773893    262.32817  0.035545822  0.036232952            4 
  616000    1.1687847   -6.8522094    263.93018   0.03570484   0.03622537            2 
  617000    1.1508025   -6.8649933    263.17331  0.035544747  0.036217335            2 
  618000    1.1479322   -6.8453204    263.62849  0.035548609  0.036209036            1 
  619000    1.1570859    -6.854143    263.95965  0.035535764  0.036200805            2 
  620000    1.1483695   -6.8441479    264.48691  0.035549316  0.036192674            2 
  621000    1.1623663   -6.8503929    264.56696  0.035502813    0.0361849            2 
  622000    1.1717539   -6.8194837    266.62014  0.035720812  0.036176745            4 
  623000    1.1503683   -6.8246379    265.85366   0.03556095  0.036168731            4 
  624000    1.1693982   -6.8672628    265.75405  0.035490658  0.036160332            1 
  625000    1.1605144   -6.8484244    265.22723  0.035363631  0.036152061            4 
  626000    1.1429627   -6.8755825    266.72332  0.035506299  0.036143569            2 
  627000    1.1668893   -6.8481892    266.25539  0.035387479  0.036135009            4 
  628000    1.1265685    -6.856878    267.04026  0.035435279  0.036126242            1 
  629000    1.1428065   -6.8615736    266.98641  0.035371809  0.036117669            2 
  630000    1.1637964   -6.8380448    268.67531  0.035539063  0.036109001            2 
  631000    1.1532639   -6.8361577    269.97408  0.035654263  0.036100744            1 
  632000    1.1504973   -6.8264872     269.1971  0.035495398  0.036092938            3 
  633000    1.1505373   -6.8505302    268.50495  0.035348202  0.036084417            1 
  634000    1.1639692   -6.8335186    269.58104  0.035433891  0.036075429            2 
  635000    1.1362829     -6.85392    269.38491  0.035352351  0.036066966            2 
  636000    1.1604915   -6.8439186    270.38649  0.035427999  0.036058392            2 
  637000    1.1393275   -6.8560128    270.10533    0.0353356  0.036049706            2 
  638000    1.1445156   -6.8828779    270.97624  0.035393971  0.036040858            2 
  639000    1.1220828   -6.8292945    271.98487  0.035470118  0.036032461            2 
  640000    1.1440798   -6.8778709    271.70045  0.035377663  0.036024389            1 
  641000     1.163756   -6.8609972    272.31145  0.035401904  0.036016324            1 
  642000    1.1748525   -6.8574623    272.36505  0.035353719  0.036008399            4 
  643000    1.1356166   -6.8361176    273.44946  0.035439276  0.036000666            3 
  644000    1.1384141   -6.8705882    273.80493  0.035430245  0.035992913            1 
  645000    1.1119193   -6.8528549     274.0577  0.035407971  0.035985197            3 
  646000    1.1731099    -6.839703    274.69552  0.035435439   0.03597783            3 
  647000    1.1472737   -6.9081774    275.20161  0.035445853  0.035970257            2 
  648000    1.1486319   -6.8888476    274.77718  0.035336571  0.035962299            2 
  649000    1.1466814   -6.8747472     275.0615  0.035318631  0.035954836            3 
  650000    1.1423023   -6.8490234    275.60921  0.035334514  0.035947018            2 
  651000     1.173016   -6.8582749    275.48712  0.035264609  0.035938785            2 
  652000    1.1629115   -6.8354491    276.94594  0.035396976  0.035930429            2 
  653000    1.1523062   -6.8292022    277.44962  0.035407047  0.035922797            3 
  654000     1.143591   -6.8564322    276.87244  0.035279363  0.035915054            1 
  655000    1.1426551   -6.8513083     277.6918  0.035329746  0.035907757            4 
  656000    1.1638161   -6.8648803    278.37523  0.035362708  0.035900145            2 
  657000    1.1431536    -6.869319    278.32899  0.035303017  0.035892809            2 
  658000    1.1445941   -6.8702258    279.68888   0.03542159  0.035885402            4 
  659000    1.1536761   -6.8837259    280.03867  0.035412073   0.03587799            2 
  660000    1.1346192   -6.8708507    280.53327  0.035420867  0.035871123            1 
  661000    1.1448211   -6.9003961    279.81202  0.035276352  0.035864057            1 
  662000    1.1683434   -6.8841429    281.24463  0.035403402  0.035856959            1 
  663000    1.1564493   -6.8803598    280.88475   0.03530477  0.035849718            2 
  664000    1.1519384   -6.8553805    282.32311  0.035432117  0.035842743            1 
  665000    1.1385687   -6.9002679    282.05838  0.035345661  0.035835632            2 
  666000    1.1590897   -6.8744474    282.51349  0.035349535  0.035828051            3 
  667000    1.1328127   -6.8716093    281.96399  0.035227884  0.035820341            3 
  668000     1.141101   -6.8688032    283.15671   0.03532394  0.035812997            2 
  669000    1.1442989   -6.9206701    282.13286  0.035143605  0.035805819            2 
  670000    1.1518798   -6.8956603    284.41506  0.035375007     0.035799            2 
  671000     1.117804   -6.8588765    284.74316  0.035363036  0.035792311            2 
  672000    1.1493484   -6.8807911    285.43859  0.035396651  0.035785469            2 
  673000    1.1285281   -6.8724606    285.50727  0.035352559  0.035778134            3 
  674000    1.1256772   -6.8243843    286.30095  0.035398238  0.035771457            2 
  675000    1.1549423   -6.9124421    285.15553  0.035204386   0.03576446            3 
  676000    1.1270915    -6.856521    286.67783  0.035339969  0.035757482            2 
  677000    1.1426522   -6.8502722    286.69926  0.035290407  0.035751089            2 
  678000     1.139541   -6.8376015    286.73485   0.03524273  0.035743935            3 
  679000    1.1420454    -6.872444    286.66905   0.03518275  0.035736661            2 
  680000    1.1431239   -6.8631193    287.83241  0.035273579  0.035728965            4 
  681000    1.1679438   -6.8773393    288.56792  0.035311787  0.035721931            2 
  682000    1.1465134   -6.8753216    288.95493  0.035307298  0.035714735            3 
  683000    1.1446978   -6.8821762     289.2433  0.035290788  0.035707632            2 
  684000    1.1722585    -6.889448      289.086  0.035220029  0.035700924            2 
  685000    1.1395056   -6.9032287    290.27843  0.035313677  0.035694147            3 
  686000    1.1381711   -6.9227469     290.0329  0.035232374  0.035687712            2 
  687000    1.1508783   -6.8614865    291.46252  0.035354502  0.035681287            2 
  688000    1.1438615   -6.8661643    292.10308  0.035380702  0.035675689            1 
  689000    1.1443392   -6.8835372    292.50605   0.03537809  0.035669624            3 
  690000    1.1567977   -6.8700428     292.9289  0.035377887   0.03566372            3 
  691000    1.1268681   -6.8774216    292.54858  0.035280822  0.035657813            4 
  692000    1.1548883   -6.8590965     293.2341  0.035312392  0.035651709            1 
  693000    1.1480012   -6.8956941    293.89592  0.035341019  0.035645771            1 
  694000      1.13982   -6.8927633    293.29351  0.035217761  0.035639644            1 
  695000    1.1218137   -6.8526651    293.70055  0.035215894  0.035633288            1 
  696000      1.14896   -6.8806272    294.31534  0.035238905  0.035627283            1 
  697000    1.1426485   -6.8714702    294.67515  0.035231367  0.035621282            1 
  698000    1.1392133   -6.8625272    294.71441  0.035185579  0.035615052            2 
  699000    1.1349214   -6.8797284    294.75771  0.035140405  0.035608049            2 
  700000    1.1063997   -6.8731891    295.68066  0.035200078  0.035601297            3 
  701000    1.1293847    -6.866879     295.7018  0.035152378  0.035594299            3 
  702000     1.147158   -6.9083705    296.05932  0.035144744  0.035586861            5 
  703000    1.1221186   -6.8997272     297.1911  0.035228911  0.035579362            1 
  704000    1.1257349   -6.8650229    295.65952  0.034997576   0.03557193            1 
  705000    1.1240628   -6.9232358     295.9628  0.034983782  0.035564656            1 
  706000    1.1682519   -6.8592305    297.63758  0.035131915  0.035557198            3 
  707000    1.1474234    -6.869973    298.33814  0.035164798  0.035549883            1 
  708000    1.1275696   -6.9209714    298.06795  0.035083328  0.035542978            1 
  709000    1.1231975   -6.8736982      299.306   0.03517936  0.035536302            2 
  710000    1.1549043    -6.886848    299.54085  0.035157377  0.035529528            1 
  711000    1.1278995   -6.9202154    298.62641  0.035000751  0.035522492            2 
  712000    1.1814472   -6.9117494    300.21486  0.035137508   0.03551557            2 
  713000    1.1454753   -6.8881602    299.86736  0.035047611  0.035508198            2 
  714000    1.1448566   -6.8389036    300.98689  0.035129189  0.035501023            3 
  715000    1.1449076   -6.8811232    300.37058  0.035008226  0.035493756            2 
  716000    1.1417121   -6.8974133    301.09529  0.035043679  0.035486277            3 
  717000    1.1373994   -6.8708332    301.15869  0.035002173  0.035479077            2 
  718000    1.1226068   -6.8764403    301.62494  0.035007537  0.035471616            1 
  719000     1.126034   -6.8723981    301.72195  0.034970092  0.035464361            3 
  720000    1.1509147   -6.8784593    301.67332  0.034915894  0.035456974            1 
  721000    1.1309894   -6.8250665    303.42599   0.03507004  0.035449696            2 
  722000    1.1270141   -6.8960764    302.31251  0.034892949  0.035442494            2 
  723000    1.1317967   -6.9110503    302.64383  0.034882876  0.035435057            2 
  724000    1.1208989   -6.9106795    303.37065  0.034918353  0.035427422            2 
  725000    1.1331641   -6.8559601    303.48948  0.034883848  0.035419827            4 
  726000    1.1368318   -6.8947879    304.09897  0.034905758   0.03541196            3 
  727000    1.1294184     -6.89813    304.16334  0.034865124  0.035404247            3 
  728000       1.1363   -6.8996148    305.63699   0.03498592  0.035396461            2 
  729000    1.1543614   -6.8916741     305.2514   0.03489385  0.035389004            2 
  730000    1.1437746   -6.8772728    305.49422  0.034873769  0.035381334            3 
  731000    1.1351418   -6.8912252    306.41782  0.034931352  0.035373678            1 
  732000    1.1145161   -6.9118111    306.15049  0.034853197  0.035365662            1 
  733000    1.1281305   -6.9029213     306.2602  0.034818121  0.035357336            3 
  734000    1.1242353   -6.9193991    306.01405   0.03474274  0.035349508            2 
  735000    1.1276602   -6.9366727    307.23958   0.03483442  0.035341945            2 
  736000    1.1521006   -6.8805405    308.28774  0.034905767  0.035334311            1 
  737000    1.1366978   -6.8800109    308.71621  0.034906854  0.035327319            3 
  738000    1.1610295   -6.8904271     309.0121  0.034892965  0.035320106            2 
  739000    1.1349391    -6.911052    309.40525  0.034890083  0.035312974            3 
  740000     1.152215   -6.8842108    309.58033   0.03486265  0.035305483            1 
  741000    1.1653875   -6.9124384    309.56049   0.03481337  0.035298195            1 
  742000    1.1287608   -6.8737761    310.37889  0.034858366  0.035291069            4 
  743000    1.1367334   -6.9002917    310.88806  0.034868558  0.035284279            1 
  744000    1.1196199   -6.8845401    310.11972  0.034735632  0.035277216            1 
  745000    1.1384447   -6.9031547    311.20851  0.034810796  0.035269933            2 
  746000      1.15335   -6.8611576    312.34724  0.034891336  0.035262928            3 
  747000    1.1242096   -6.9089481    312.22134  0.034830582  0.035255235            2 
  748000    1.1171557   -6.9123875    312.58985  0.034825072  0.035247829            1 
  749000    1.1217132   -6.8891504    313.37538  0.034865975  0.035240395            1 
  750000    1.1326609   -6.9259802    312.16411  0.034684901  0.035232907            1 
  751000    1.1389133   -6.9169236    314.00786  0.034843304  0.035225587            1 
  752000    1.1350682   -6.9219372    313.63314  0.034755445  0.035217888            2 
  753000     1.149506   -6.9513756     312.6607  0.034601671  0.035210204            3 
  754000    1.1309972   -6.8679471    314.87428  0.034800429  0.035202556            2 
  755000    1.1226141   -6.9251399    313.95356  0.034652711  0.035194295            2 
  756000    1.1458247    -6.948235    313.54542  0.034561885  0.035186145            2 
  757000    1.1384394   -6.8857048    315.07476  0.034684584  0.035178253            1 
  758000    1.1292947   -6.8335118    315.62263  0.034699058  0.035170244            2 
  759000    1.1328085    -6.871891    315.76063  0.034668492    0.0351623            3 
  760000    1.1298311   -6.9033536    315.12316  0.034552978  0.035154271            2 
  761000    1.1262601   -6.9304773    315.54499  0.034553765  0.035146305            2 
  762000     1.120345   -6.8849628    315.35858  0.034488034  0.035137996            1 
  763000    1.1457019   -6.9082138    316.42503  0.034559308  0.035129646            1 
  764000    1.1461553   -6.9342627    315.74228  0.034439603  0.035121776            2 
  765000    1.1138464   -6.8771715    318.81307  0.034729093  0.035114027            1 
  766000    1.1532202   -6.8884466    318.80087  0.034682427   0.03510655            4 
  767000    1.1523882   -6.8960107    319.46953  0.034709858  0.035098527            1 
  768000    1.1213663   -6.8429304    319.09115  0.034623606  0.035090645            1 
  769000     1.157214   -6.8834365    320.04883  0.034682362  0.035082956            1 
  770000    1.1264837   -6.9209025    319.63219  0.034592228  0.035074967            2 
  771000    1.1394426   -6.8884854    320.13847  0.034602083  0.035067049            2 
  772000    1.1050632   -6.8957426    321.31313   0.03468406  0.035059341            1 
  773000    1.1416748   -6.8895288    320.68002  0.034570937  0.035051482            1 
  774000    1.1338968   -6.8920865    320.64978  0.034523017  0.035043394            4 
  775000    1.1448559   -6.8690092    321.77346  0.034599297  0.035035352            1 
  776000    1.1338146   -6.9043374    322.69259  0.034653414   0.03502785            2 
  777000    1.1233459   -6.9167032    322.53088  0.034591472  0.035020173            3 
  778000    1.1154853   -6.9267453    323.15323  0.034613671  0.035012364            2 
  779000     1.107989   -6.8949476    323.47899  0.034604085  0.035004562            2 
  780000     1.140607   -6.9000944    323.23115  0.034533243  0.034997267            2 
  781000    1.1223679    -6.899448    323.66353  0.034535161  0.034989635            2 
  782000    1.1342079   -6.9393673    323.84112  0.034509923  0.034982072            2 
  783000    1.1271551   -6.9151287    324.43068  0.034528595  0.034974187            2 
  784000     1.145515   -6.8845427    325.04875   0.03455025  0.034966683            1 
  785000    1.1466514   -6.9143619    325.69668  0.034575019  0.034959254            1 
  786000    1.1394111   -6.9237753     324.8253  0.034438645  0.034951656            3 
  787000    1.1162829   -6.9323619    325.84587  0.034502952  0.034944391            1 
  788000    1.1387824   -6.9348469    325.31736  0.034403274  0.034936803            2 
  789000    1.1315814   -6.9336776    325.81372  0.034412095  0.034928892            1 
  790000    1.1353539   -6.9044671    326.39632  0.034429992  0.034921097            1 
  791000    1.1059831   -6.9030947    326.94646  0.034444423  0.034913361            1 
  792000     1.130407     -6.88929    328.23602  0.034536618   0.03490585            2 
  793000     1.154902   -6.9120481    327.17169   0.03438122  0.034898364            1 
  794000    1.1183045   -6.9388079    328.36689   0.03446336  0.034890898            2 
  795000    1.1248264    -6.917574    328.80479  0.034465911  0.034883654            3 
  796000    1.1215598    -6.901882    329.76396  0.034523028  0.034876163            1 
  797000    1.1344051    -6.897046    328.93136  0.034392656  0.034868612            3 
  798000    1.1398063   -6.8935036    329.72042  0.034431957  0.034861134            3 
  799000    1.1112288   -6.8831649    329.66921  0.034383522  0.034852965            1 
  800000     1.107054   -6.9356642    330.12292  0.034387804  0.034844828            1 
  801000    1.1104592   -6.9277377    328.96896  0.034224819  0.034836815            2 
  802000    1.1123166   -6.8582914    330.74712  0.034366908  0.034828775            4 
  803000     1.116093   -6.9010505    331.60973  0.034413629  0.034820633            1 
  804000    1.1229982   -6.9224766    330.47593  0.034253309  0.034812335            1 
  805000    1.1308789   -6.9034776     330.4423  0.034207277  0.034804098            2 
  806000    1.1209007   -6.8914348    332.06399  0.034332505  0.034795397            1 
  807000    1.1113872   -6.8833237    332.17032  0.034300942  0.034787087            5 
  808000    1.1394839   -6.8967603    331.96106  0.034236908  0.034778748            4 
  809000     1.124751   -6.9299649    332.06733  0.034205535  0.034770521            2 
  810000    1.1387879   -6.9425706    332.68266  0.034226612  0.034762133            1 
  811000    1.1227151   -6.9036834    333.18553   0.03423608  0.034753855            1 
  812000    1.1246407   -6.9598043    333.21956   0.03419741  0.034745386            2 
  813000    1.1098612   -6.9136719    333.34702  0.034168411  0.034736621            1 
  814000    1.1093651   -6.9544677    333.05594  0.034096636  0.034727808            1 
  815000    1.1243933   -6.9063871    334.06473  0.034157948   0.03471884            2 
  816000    1.1187857   -6.9065557    334.12506  0.034122249  0.034710434            2 
  817000    1.1268414   -6.9071179    334.72181  0.034141351   0.03470178            2 
  818000    1.1132564   -6.9211131    334.15016  0.034041377  0.034692973            2 
  819000    1.1115448   -6.9038749    335.97287  0.034185274  0.034684218            1 
  820000    1.1309563     -6.94101    335.43461  0.034088883  0.034675446            2 
  821000    1.1221216   -6.9432326    336.41417  0.034146789  0.034666885            1 
  822000    1.1125138   -6.9039541     337.7477   0.03424044  0.034658437            2 
  823000    1.1151144   -6.9083929    337.25032  0.034148473  0.034650111            3 
  824000    1.1246956   -6.8950699     337.5847  0.034140848  0.034641609            3 
  825000    1.1130622   -6.9311193    339.00674  0.034243105  0.034633532            2 
  826000    1.1391433   -6.9323923    337.18336  0.034017691   0.03462498            3 
  827000    1.1208286   -6.9239657    339.17233  0.034176978  0.034616901            1 
  828000     1.131457   -6.9590133    338.95459  0.034113787  0.034608761            2 
  829000    1.1100025   -6.9098817    339.35556  0.034112943  0.034600436            1 
  830000    1.1265524   -6.9015878    339.44587  0.034080911   0.03459191            1 
  831000    1.1184583    -6.934422    340.29137  0.034124686   0.03458362            2 
  832000    1.0808527    -6.882101    341.11057  0.034165723  0.034575559            2 
  833000    1.0883586   -6.9685888    339.48668  0.033962253   0.03456704            2 
  834000    1.1302402   -6.9465732    340.37665  0.034010456  0.034558588            2 
  835000    1.0998683   -6.9561685    341.48512  0.034080352  0.034550139            2 
  836000    1.1078485   -6.9597331    341.09139  0.034000338  0.034541624            2 
  837000    1.1121347   -6.9609775    341.70161  0.034020471  0.034533259            4 
  838000     1.124008   -6.8862528    341.81316  0.033990967  0.034525011            2 
  839000    1.1216591   -6.9296298    343.58151  0.034126094  0.034517207            3 
  840000    1.1197738   -6.9195787      344.049  0.034131845  0.034509873            1 
  841000    1.1226529   -6.8914336     344.7454  0.034160265  0.034502465            2 
  842000    1.1031204   -6.9571456    344.35391  0.034080949  0.034494921            2 
  843000    1.1103173   -6.9520937    344.81202  0.034085807  0.034487554            2 
  844000    1.1198711   -6.9376857    345.57228  0.034120486  0.034479982            5 
  845000     1.118995    -6.897386     345.8943  0.034111864  0.034472566            2 
  846000    1.0905428    -6.907602    346.24222  0.034105813   0.03446501            2 
  847000    1.1217033   -6.9209065     345.0017  0.033943497  0.034457893            3 
  848000    1.1214508   -6.9286048    347.01925  0.034101735  0.034450868            3 
  849000    1.1150363   -6.9358603    347.55276  0.034113934  0.034443614            2 
  850000    1.1247375   -6.9367683     347.6466     0.034083   0.03443649            4 
  851000    1.1089033   -6.9527212     347.6068  0.034039052   0.03442911            1 
  852000    1.1263843   -6.9567535    348.57648  0.034093944  0.034421749            2 
  853000    1.1169345   -6.9491821    348.62839  0.034059046   0.03441459            2 
  854000    1.1227203   -6.9486175    349.63028  0.034116928  0.034407264            3 
  855000    1.1042211   -6.8817069     350.5204  0.034163782  0.034399843            2 
  856000     1.117773   -6.9113717    349.81354  0.034055057   0.03439279            3 
  857000    1.1392479   -6.9494888    349.79655  0.034013667  0.034385594            2 
  858000    1.0742221   -6.9428462    350.74455  0.034066098  0.034378238            1 
  859000    1.1070584   -6.9162763    350.71277  0.034023357  0.034371037            3 
  860000    1.1028344   -6.9393669     351.9558  0.034104244  0.034364477            3 
  861000    1.1087745   -6.9477359    351.50962   0.03402145  0.034357698            2 
  862000    1.1293343   -6.9409639    352.59299  0.034086716  0.034350447            1 
  863000    1.1365359   -6.9590971    351.36817  0.033928947  0.034343292            2 
  864000    1.1385081   -6.9605102    351.34764  0.033887696  0.034335903            2 
  865000    1.1381239   -6.9243075     352.5489  0.033964248  0.034328404            2 
  866000    1.1043335   -6.9812272    352.12876    0.0338846  0.034320922            2 
  867000    1.1323561   -6.9613255    352.34117  0.033865933  0.034313381            3 
  868000    1.0911631   -6.9469657    353.85871   0.03397261  0.034305759            2 
  869000    1.0910322   -6.9156839    354.45523  0.033990721  0.034298582            2 
  870000    1.1137051   -6.9409608    353.63716  0.033873291  0.034291062            2 
  871000     1.117981   -6.9146631    355.34864  0.033998148  0.034283634            1 
  872000    1.1183792   -6.9413358     355.3499  0.033959279  0.034276274            1 
  873000    1.1343804   -6.9566548    354.08188   0.03379934  0.034268659            2 
  874000    1.1297088   -6.8937491    355.65385   0.03391055  0.034260724            2 
  875000    1.1213043   -6.9266964    355.95851   0.03390081  0.034253267            2 
  876000    1.1121649   -6.9596234     354.3331  0.033707487  0.034245353            2 
  877000    1.1103528   -6.9114695    356.76627  0.033900253  0.034237611            2 
  878000    1.1149045     -6.94274    356.52128   0.03383839  0.034229597            1 
  879000    1.1129741    -6.944017    356.48998  0.033796927  0.034221777            2 
  880000    1.1168822   -6.9528765    356.51701  0.033761081  0.034214029            1 
  881000    1.1155182   -6.9505452    356.94078  0.033762843  0.034206081            1 
  882000    1.1117764   -6.9154057    357.91228  0.033816353  0.034198265            2 
  883000    1.0951155   -6.9168579    358.24001  0.033808985  0.034190668            2 
  884000    1.1294956   -6.9339128    358.97255  0.033839795  0.034183172            3 
  885000    1.1360324   -6.9600045    359.72226  0.033872152  0.034175914            3 
  886000     1.106503   -7.0011852    360.02744  0.033862626  0.034168551            4 
  887000    1.1204783   -6.9251359    360.08141   0.03382952   0.03416112            1 
  888000    1.0840302   -6.8893221    360.98896  0.033876591  0.034153977            4 
  889000    1.1138873    -6.947243     361.4606  0.033882696  0.034146863            3 
  890000    1.1191376   -6.9281479    361.12734  0.033813421  0.034139547            2 
  891000    1.1238116   -6.9683909     361.6976  0.033828807  0.034132575            4 
  892000     1.111395   -6.9552386    361.53914  0.033776078  0.034125288            1 
  893000    1.1252743   -6.9219458    363.02482  0.033876897  0.034118109            2 
  894000    1.1026888   -6.9241991    363.64771  0.033897065  0.034111061            3 
  895000    1.1229922   -6.9202493    363.00742  0.033799573  0.034103916            4 
  896000    1.1155937   -6.9110749    364.08884  0.033862429   0.03409679            6 
  897000    1.1101023   -6.9467276     363.9738  0.033813991  0.034089771            4 
  898000    1.1137302   -6.9603865      364.121  0.033789996  0.034083095            2 
  899000    1.0970079    -6.970442    364.22815  0.033762343  0.034076082            7 
  900000    1.1090654    -6.929232    365.04788  0.033800729  0.034068965            3 
  901000    1.0765247   -6.9258402    365.02758  0.033761337  0.034062069            2 
  902000    1.0984051   -6.8866891    366.99471  0.033905645  0.034055218            2 
  903000    1.0881674   -6.9414533    366.73735  0.033844348  0.034048595            2 
  904000    1.0985486   -6.9921706    366.34676  0.033770903  0.034041785            4 
  905000    1.0874379   -6.9458612    367.04078  0.033797493  0.034035157            1 
  906000    1.0959182   -6.9636849    368.29296  0.033875365  0.034028466            2 
  907000    1.1251211   -6.9230835    367.82038  0.033794596  0.034021799            2 
  908000    1.1226383   -6.9587399     369.2745  0.033890831  0.034015345            1 
  909000    1.0880019   -6.9926303    368.47601  0.033780346  0.034008627            1 
  910000    1.0853954   -6.9582741    368.41929  0.033738031  0.034002128            2 
  911000    1.0998078   -6.9180854    369.36163  0.033787196  0.033995707            1 
  912000    1.1172239   -6.9891804    368.92519   0.03371027  0.033989324            4 
  913000     1.122371   -6.9385332    369.85759  0.033758451  0.033983092            2 
  914000    1.1147639   -6.9429916     370.8703  0.033813849  0.033976697            4 
  915000    1.1210388   -6.9412512    371.82941  0.033864245  0.033970058            2 
  916000    1.1183217   -7.0007962    370.12737  0.033672431  0.033963062            2 
  917000    1.1029048   -6.9968986     370.1005  0.033633269  0.033956215            2 
  918000    1.1044661   -6.9500729    371.45768  0.033719833  0.033949472            3 
  919000    1.0965882   -6.9756284    371.08467  0.033649317  0.033942793            5 
  920000    1.1087829   -6.9400976    373.00409  0.033786602   0.03393584            2 
  921000    1.0830439   -6.9694427     372.7014   0.03372253  0.033929408            1 
  922000    1.1222136    -6.978169    373.12831   0.03372454  0.033922878            2 
  923000    1.1105388    -6.936111    372.56932  0.033637533  0.033916216            2 
  924000    1.1011829   -6.9681856    373.75895  0.033708419  0.033909705            2 
  925000    1.1148774   -6.9824019    373.23842  0.033625083  0.033903209            2 
  926000     1.092005   -6.9673175    373.99633  0.033656977  0.033896797            2 
  927000    1.0750103   -6.9665522    375.00334  0.033711196  0.033890382            3 
  928000    1.0857944    -6.929397    374.70414  0.033648001  0.033883899            1 
  929000    1.1006126   -6.9916891    375.55575  0.033688173  0.033877623            1 
  930000    1.0934593   -6.9573265    376.65835  0.033750748  0.033871147            2 
  931000    1.0987514   -6.9687035    375.52827  0.033613344   0.03386455            3 
  932000    1.0961474   -6.9607795    377.00301  0.033709139  0.033857844            3 
  933000    1.1179258   -6.9463176    376.28414  0.033608802  0.033851346            3 
  934000    1.1044734    -6.939999    376.66269  0.033606593  0.033844555            4 
  935000     1.111204   -6.9673918    375.98477  0.033510229  0.033837531            4 
  936000    1.1056779   -6.9757064    376.43528  0.033514537   0.03383048            3 
  937000    1.0883797   -6.9489558     377.2193  0.033548497  0.033823098            2 
  938000    1.1057928   -6.9451912    377.56798  0.033543708  0.033815725            3 
  939000    1.0791516    -6.949078    376.90024  0.033448726  0.033808142            2 
  940000    1.1004963   -6.9735898    377.30777  0.033449271  0.033800724            1 
  941000    1.0921825   -6.9403375    377.46107    0.0334273   0.03379348            3 
  942000    1.1206561   -6.9750568    377.71832  0.033414572  0.033785972            2 
  943000    1.1087031   -6.9392004     377.8029  0.033386612  0.033778694            4 
  944000    1.0965844   -6.9639919    379.00654  0.033457499  0.033771331            1 
  945000    1.1021597   -6.9312874    379.18865  0.033438152  0.033764188            1 
  946000    1.0791799   -6.9677037    380.72384  0.033538041   0.03375731            1 
  947000     1.090441   -6.9413021     382.7946  0.033684847  0.033750379            3 
  948000    1.1030162   -6.9480394    380.89443  0.033482281  0.033743851            3 
  949000    1.1150655   -6.9622881    382.41947  0.033580916  0.033737221            1 
  950000     1.075489   -6.9613942    380.57473  0.033383748  0.033730567            3 
  951000    1.0889735   -7.0007239    381.23817   0.03340678  0.033723678            1 
  952000    1.0645106    -6.954374    382.11406   0.03344836  0.033716734            1 
  953000    1.0705562   -6.9466164    383.19149  0.033507476  0.033709826            1 
  954000     1.108534   -6.9806464    383.58843  0.033507025   0.03370319            1 
  955000    1.0929719   -6.9622718    384.66739   0.03356609   0.03369673            1 
  956000    1.1098183   -6.9306485    384.54312  0.033520147  0.033690414            2 
  957000    1.0835544    -6.937129     384.4859  0.033480138  0.033684045            1 
  958000    1.0763917    -6.944606    385.09163   0.03349788  0.033677476            1 
  959000    1.1098982   -6.9374406     385.4759  0.033496342  0.033670956            1 
  960000    1.0907643   -6.9644471    385.62959   0.03347479  0.033664263            2 
  961000    1.1217074   -6.9099529    386.05426  0.033476783   0.03365781            2 
  962000    1.0881465   -6.9630545    386.02817  0.033439724  0.033651338            3 
  963000    1.0976316   -6.9564067    386.92621  0.033482711  0.033644654            2 
  964000    1.1148418   -6.9763407    386.07084  0.033374035  0.033638124            2 
  965000    1.1023244   -6.9831514    386.81419  0.033403643  0.033631381            2 
  966000    1.0730366   -6.9825851    387.03124  0.033387788   0.03362442            1 
  967000     1.097954   -6.9568246    386.88644  0.033340782  0.033617233            1 
  968000    1.1039995   -6.9475349    387.14312  0.033328436  0.033610256            2 
  969000    1.0824262   -6.9372473    387.44434  0.033319947  0.033603101            2 
  970000      1.10457   -6.9333439    388.21758  0.033352026  0.033595866            2 
  971000    1.1066532   -6.9404861    388.41414  0.033334547   0.03358873            2 
  972000    1.0845421    -6.954797    389.63695  0.033405088  0.033581916            1 
  973000    1.0997984   -6.9457663      388.154  0.033243748  0.033575019            2 
  974000    1.0891282   -6.9863135    388.49147   0.03323849  0.033568062            2 
  975000    1.1059915    -6.986596    389.91548  0.033326109  0.033561039            2 
  976000    1.1023364   -6.9850815    389.94718   0.03329467  0.033553915            1 
  977000    1.1016693    -6.995747    390.13583  0.033276683  0.033546748            2 
  978000    1.0885382   -6.9661546    391.96319  0.033398363  0.033539773            2 
  979000    1.0996268   -6.9883337    389.53549    0.0331576  0.033532767            2 
  980000    1.1059277   -6.9731799    391.17867  0.033263492  0.033525726            1 
  981000    1.1060098   -6.9559396     391.1591  0.033227922  0.033518575            3 
  982000    1.0953332   -6.9921729    391.90847  0.033257677  0.033511429            2 
  983000    1.1117793   -6.9352898    392.90995  0.033308744  0.033504426            3 
  984000     1.089369   -7.0032283    392.31809   0.03322477  0.033497849            1 
  985000     1.090017   -6.9561534    393.57567  0.033297434  0.033491032            2 
  986000    1.1084418   -6.9777026    393.78911  0.033281703  0.033484452            3 
  987000    1.0802386   -6.9695847    393.76465  0.033245917  0.033477693            3 
  988000    1.0812603   -7.0237952    394.49125  0.033273553  0.033470739            3 
  989000    1.0832974   -6.9646946    394.50259  0.033240865  0.033463763            3 
  990000    1.0946504   -6.9908459    394.05467  0.033169585  0.033457002            3 
  991000    1.0809088   -6.9725825    394.41205  0.033166166  0.033450065            1 
  992000    1.1016919   -7.0008953    394.60479  0.033148924  0.033443198            1 
  993000    1.0807466   -6.9938478    395.94396  0.033227925  0.033436235            1 
  994000    1.0962914    -6.978006    396.41751  0.033234197  0.033429519            2 
  995000    1.1092247   -7.0362945    394.66252  0.033053812   0.03342228            2 
  996000    1.0947484   -6.9177853    397.48766     0.033257  0.033415318            1 
  997000    1.0602351   -6.9630954    398.22771  0.033285499  0.033408618            2 
  998000    1.0839512   -6.9949224    397.73141  0.033210705  0.033401768            4 
  999000    1.1165594   -6.9987944    396.89744  0.033107894  0.033394732            5 
 1000000    1.1008886   -6.9831753    397.69045  0.033140871  0.033387773            1 
 1001000    1.1058954   -7.0059999    397.99163  0.033132836  0.033380683            2 
 1002000    1.0901479   -6.9844022    397.10499  0.033026031  0.033373633            1 
 1003000    1.0903948   -7.0034659     398.1869  0.033082993  0.033366531            1 
 1004000    1.0991642   -6.9662234    400.04588  0.033204339  0.033359364            2 
 1005000     1.112872   -6.9822939    399.63146  0.033136937  0.033352369            2 
 1006000    1.0963949   -7.0177002    397.65355  0.032940155  0.033345146            1 
 1007000    1.0809456   -6.9732363    399.66729  0.033074089  0.033337785            2 
 1008000    1.1244729   -7.0018424    399.43733  0.033022266  0.033330538            1 
 1009000    1.0762991   -6.9409438    401.11021  0.033127701  0.033323189            4 
 1010000    1.0835712   -6.9679188    401.21347  0.033103421  0.033316155            1 
 1011000    1.1033749   -6.9528158    400.91456  0.033046041  0.033309062            3 
 1012000    1.0834095   -6.9605649    402.53907  0.033147156  0.033302112            2 
 1013000    1.0984988   -6.9561745    401.09946  0.032996007  0.033295329            2 
 1014000    1.0990234   -6.9953239    402.33006  0.033064601   0.03328832            3 
 1015000    1.0877039   -6.9865503    402.62145  0.033055949  0.033281409            2 
 1016000    1.0560819   -7.0101713    401.69701   0.03294759  0.033274444            1 
 1017000    1.0879075   -6.9829459    403.26195  0.033043425  0.033267363            2 
 1018000    1.0686736   -6.9926708     401.7534  0.032887475  0.033260186            2 
 1019000    1.0762735   -6.9521399    403.42861  0.032992199  0.033253031            2 
 1020000    1.0896751    -6.949435    403.88255   0.03299694   0.03324598            2 
 1021000    1.0952822   -6.9948003    403.09082  0.032900002  0.033238857            3 
 1022000    1.0966017   -7.0050151    403.61656  0.032910678  0.033231546            2 
 1023000    1.0602623   -6.9765002    404.13714  0.032920914  0.033224236            1 
 1024000    1.0871405   -7.0119696     404.7377  0.032937639  0.033216775            2 
 1025000    1.0873242   -6.9572554    404.24924  0.032865792  0.033209421            4 
 1026000    1.0842691   -6.9510795    405.01988  0.032896351  0.033202025            1 
 1027000    1.0998442   -6.9695246     404.9455  0.032858285  0.033194486            2 
 1028000    1.1064976   -6.9738742    404.98691  0.032829678  0.033187262            5 
 1029000    1.0791537    -7.004124    404.94292  0.032794211  0.033179522            3 
 1030000     1.091472    -6.973788    406.51381  0.032889467  0.033171991            1 
 1031000    1.0936994   -7.0112469    406.45196  0.032852567   0.03316438            2 
 1032000    1.0946492   -6.9451997    406.30964  0.032809241  0.033156819            2 
 1033000    1.0597055   -6.9900091    406.26237  0.032773667  0.033149055            2 
 1034000    1.0917638   -6.9859972    406.64113  0.032772496  0.033141149            1 
 1035000    1.0921366   -6.9960123    406.86133  0.032758561  0.033133069            2 
 1036000    1.0948928   -6.9612282     406.8122  0.032722989  0.033125288            2 
 1037000    1.1040321   -6.9722934    407.56985  0.032752319  0.033117443            1 
 1038000    1.1065651    -7.008435    408.06595  0.032760593  0.033109626            3 
 1039000    1.0928191   -6.9759676    408.81427  0.032789082  0.033101927            3 
 1040000    1.0822888   -6.9951358    410.19312  0.032868038  0.033094482            2 
 1041000    1.0839336   -7.0055569    408.73745  0.032719937  0.033087096            4 
 1042000    1.1113469   -6.9938037    411.34383   0.03289698  0.033079781            2 
 1043000    1.0868775   -7.0078573    410.88554  0.032828823  0.033072605            6 
 1044000    1.1005168   -7.0247797    409.45597  0.032683267  0.033065409            1 
 1045000    1.1150986   -7.0092693    410.83564  0.032762012     0.033058            1 
 1046000    1.0728227   -7.0351354    410.01782  0.032665537  0.033050798            6 
 1047000    1.1094436   -6.9896201    411.77729  0.032774379  0.033043492            4 
 1048000    1.0653485   -6.9729324    412.92852  0.032834647  0.033036471            2 
 1049000    1.0756056   -7.0112094    412.34002  0.032756595  0.033029282            5 
 1050000    1.0906745   -6.9381772    412.76917  0.032759458  0.033022185            1 
 1051000    1.0673533   -7.0059215    411.92673  0.032661491  0.033015074            1 
 1052000    1.0887753   -7.0313969    413.78741  0.032777837  0.033007885            2 
 1053000     1.079849   -6.9747162    414.74157  0.032822219  0.033000816            1 
 1054000    1.0956938   -6.9811304    414.43105  0.032766528   0.03299411            2 
 1055000    1.0564968   -6.9681016     415.2589  0.032800861  0.032987478            2 
 1056000     1.095458   -6.9686038    415.98487  0.032827089  0.032980716            3 
 1057000    1.0781355   -7.0123438    415.45781  0.032754479  0.032973991            2 
 1058000    1.0524166   -7.0190078     416.0912  0.032773409  0.032967087            3 
 1059000    1.0724844   -7.0029779    415.56923  0.032701387  0.032960222            1 
 1060000    1.1122073   -6.9696964    416.60592  0.032752037  0.032953417            2 
 1061000    1.0711316   -7.0284921    416.97925  0.032750491  0.032946584            1 
 1062000    1.0947015   -7.0079915    416.60912  0.032690609  0.032939808            3 
 1063000    1.0964506   -7.0273976    417.45856  0.032726447  0.032933236            2 
 1064000    1.0900225   -6.9975254    418.92042  0.032810183  0.032926707            1 
 1065000    1.0673884   -6.9956846    418.15506  0.032719488  0.032920466            3 
 1066000    1.1008231   -7.0006557    419.29643   0.03277802  0.032914295            3 
 1067000     1.090249    -7.011053    420.39026  0.032832729  0.032907879            1 
 1068000    1.0861346   -7.0204362    421.13764  0.032860303  0.032901368            2 
 1069000    1.1100731   -7.0190134    420.23834  0.032759459  0.032894752            1 
 1070000    1.0803541   -7.0148406    419.01737  0.032633752  0.032888141            3 
 1071000    1.0488635   -7.0154128    420.01264  0.032680722  0.032881343            3 
 1072000    1.0422157   -7.0016554    421.09281  0.032734205  0.032874737            1 
 1073000    1.0809601    -6.977459    420.52187  0.032659356  0.032868201            1 
 1074000    1.0778099   -6.9674168    421.82311  0.032729913  0.032861699            1 
 1075000    1.0648563   -6.9675967    421.38051  0.032665156  0.032855254            3 
 1076000    1.0613705   -6.9789378    422.74203  0.032740244  0.032848672            1 
 1077000    1.0722523   -7.0234111    421.90238  0.032644876  0.032842125            2 
 1078000    1.0797008   -7.0370063    422.65399  0.032672695  0.032835534            1 
 1079000    1.0578924   -7.0251431    422.99729  0.032668929  0.032828881            3 
 1080000    1.0654494   -6.9998141    422.74353    0.0326191  0.032822232            1 
 1081000    1.1015095   -6.9797288    423.42586  0.032641525  0.032815409            4 
 1082000    1.0787906   -7.0101377    424.39941  0.032686338  0.032808706            6 
 1083000     1.075454   -7.0068877    423.94494  0.032621186  0.032802045            1 
 1084000    1.0764595   -6.9650985    424.80905  0.032657522  0.032795397            2 
 1085000    1.0866384   -6.9843563    425.08082  0.032648297  0.032788845            1 
 1086000     1.100479   -6.9931331    425.17855  0.032625733  0.032782306            1 
 1087000    1.0902708   -7.0326935    424.77314  0.032564638   0.03277545            1 
 1088000    1.0686097   -7.0140393    425.28789  0.032574134   0.03276838            2 
 1089000    1.0917696    -7.025776     424.4424  0.032479522  0.032761463            1 
 1090000    1.0733131   -7.0081819    426.73837  0.032625257  0.032754708            1 
 1091000    1.1033064   -7.0432048    425.62937  0.032510645   0.03274783            3 
 1092000    1.0793638   -6.9786404    426.97779  0.032583775  0.032741165            3 
 1093000    1.0918147   -6.9773836    428.00117  0.032631989  0.032734531            2 
 1094000    1.0640476   -7.0059986    426.84779  0.032514305  0.032727797            1 
 1095000    1.0906912   -7.0203855    426.92258  0.032490303   0.03272093            1 
 1096000    1.0939259   -7.0199402    427.29655  0.032489093  0.032713952            1 
 1097000    1.0788082   -6.9966116    429.00727  0.032589431  0.032707341            2 
 1098000    1.0977411   -7.0027917    427.21425  0.032423668  0.032700358            1 
 1099000    1.0835093   -7.0087267    429.40037  0.032559931  0.032693417            2 
 1100000    1.0658427   -7.0315199     429.6543  0.032549568  0.032686665            2 
 1101000    1.0943078   -7.0374842    429.30726  0.032493738  0.032679967            2 
 1102000    1.0397388   -7.0216986    429.35851  0.032468127  0.032673157            4 
 1103000    1.0793115   -7.0373688    430.90068  0.032555204  0.032666338            3 
 1104000    1.0856541   -7.0039892    431.27041  0.032553624  0.032659521            1 
 1105000    1.0774415   -6.9836307    429.89036  0.032420088  0.032652693            2 
 1106000    1.0663272   -7.0119454    431.28943  0.032496189  0.032645745            2 
 1107000    1.0762569   -6.9898005    430.53246  0.032409851  0.032638854            2 
 1108000    1.0855317   -6.9854829    431.45986   0.03245035  0.032632119            4 
 1109000    1.0555539   -7.0538165    430.96559  0.032383949  0.032625308            2 
 1110000    1.0861423   -6.9917373    432.46269  0.032467169  0.032618244            2 
 1111000    1.0729915   -6.9468054    432.35941  0.032430199  0.032611358            1 
 1112000    1.0708778   -6.9876013    432.15026  0.032385361  0.032604417            1 
 1113000    1.1048263   -7.0227957     432.4049  0.032375329  0.032597127            1 
 1114000    1.0968579   -6.9925679    433.68864  0.032442298  0.032590068            2 
 1115000    1.0562685   -7.0071366    431.42942  0.032244351   0.03258284            2 
 1116000    1.0463818   -7.0623749     430.5589  0.032150455  0.032575285            2 
 1117000    1.0780499    -6.993287    433.08064  0.032309806  0.032567628            2 
 1118000    1.0833371   -7.0057205     434.0141  0.032350485  0.032560224            1 
 1119000    1.0902359   -6.9859091    433.97616  0.032318749  0.032552954            1 
 1120000    1.0641762   -7.0126401    433.40548  0.032247431  0.032545687            2 
 1121000    1.0755763   -7.0198166    434.11834  0.032271658  0.032538094            2 
 1122000    1.0834376   -6.9611959     434.7538  0.032290092  0.032530568            2 
 1123000    1.0552012    -7.032585    434.39577  0.032234771  0.032523201            3 
 1124000    1.0638803   -7.0260325    434.70472  0.032228998  0.032515767            2 
 1125000    1.0914577   -7.0001029    436.24007  0.032314079  0.032508456            1 
 1126000      1.06292   -7.0379238    435.88018  0.032258746  0.032501102            2 
 1127000    1.0546572   -7.0239424    435.54264  0.032205164  0.032493537            3 
 1128000    1.0452242   -7.0444154    436.33219  0.032234943  0.032486182            1 
 1129000    1.0628113   -7.0223258     435.7955  0.032166777  0.032478751            2 
 1130000    1.0552483   -7.0396304    435.41236  0.032110056  0.032471173            8 
 1131000    1.0789198   -7.0598124    434.83114   0.03203884  0.032463571            3 
 1132000    1.0736738   -7.0279306    438.08108  0.032249785   0.03245605            1 
 1133000    1.0655721   -6.9769773    437.21237  0.032157426  0.032448729            1 
 1134000    1.0719322   -7.0180581    438.31217  0.032209889  0.032441399            3 
 1135000    1.0838301   -7.0192953    437.27084  0.032105054  0.032434108            2 
 1136000    1.0591737   -7.0279282    439.13195  0.032213318  0.032426685            1 
 1137000     1.073735   -7.0090328    439.23689  0.032192678  0.032419416            2 
 1138000    1.0654919   -7.0443373    438.24305  0.032091612  0.032412003            2 
 1139000     1.050414   -7.0463044    439.55487  0.032159414  0.032404848            2 
 1140000    1.0977326   -6.9921888    441.67359  0.032286081  0.032397982            3 
 1141000    1.0562974    -7.042211    440.53702  0.032174775  0.032391034            3 
 1142000    1.0613293   -7.0426005    439.92969  0.032102283  0.032383992            2 
 1143000    1.0846535   -7.0348416    440.84629  0.032141025  0.032377093            2 
 1144000    1.0573519   -6.9834234    443.16957  0.032282166  0.032370178            2 
 1145000    1.0846619   -7.0408131    442.49197  0.032204656  0.032363095            1 
 1146000    1.0825084    -7.026341    442.99659  0.032213248  0.032356096            2 
 1147000    1.0899746   -7.0276574    441.96448  0.032110177  0.032349063            1 
 1148000    1.0539144   -7.0781145    440.88075  0.032003539  0.032341919            4 
 1149000     1.068652   -7.0215047    442.86778  0.032119799  0.032334777            2 
 1150000    1.0576363   -6.9926821    443.85102  0.032163117  0.032327968            1 
 1151000    1.0652286   -7.0440597    444.05731  0.032150109  0.032321244            4 
 1152000    1.0698769   -7.0064801    444.33305  0.032142148  0.032314291            2 
 1153000    1.0984741   -7.0181986    445.84591  0.032223613  0.032307567            2 
 1154000    1.0642288   -7.0490065     445.3817  0.032162168   0.03230085            2 
 1155000    1.0598103   -7.0509883    443.09726  0.031969499  0.032293788            2 
 1156000    1.0493431   -7.0083662    444.65462   0.03205411  0.032286606            2 
 1157000    1.0851359   -7.0333862    444.31064  0.032001631  0.032279553            3 
 1158000    1.0746276   -7.0649057    444.19232  0.031965481  0.032272305            2 
 1159000    1.0914797   -7.0169709     444.9985  0.031995866  0.032265019            3 
 1160000    1.0409653    -7.039138    444.91125  0.031962015  0.032257922            2 
 1161000    1.0814309    -7.008844    446.68661  0.032061915  0.032250891            2 
 1162000     1.074745   -6.9784321    447.23423  0.032073597  0.032243934            2 
 1163000    1.0751926   -7.0466038    446.59228   0.03200002  0.032236819            4 
 1164000    1.0912465   -7.0068862    447.33467  0.032025678  0.032229587            1 
 1165000    1.0548946   -7.0314334     447.6419  0.032020164  0.032222483            1 
 1166000    1.0746849   -7.0410889    448.14641   0.03202876  0.032215279            2 
 1167000    1.0742768    -7.044377    447.87422  0.031981878  0.032208192            3 
 1168000      1.07073   -7.0531908    447.87883  0.031954825  0.032200944            1 
 1169000    1.0491956   -7.0153989    448.81123  0.031993957  0.032193904            2 
 1170000    1.0686937   -7.0318293    448.46976  0.031942291  0.032186595            2 
 1171000    1.0611899   -7.0467183    449.23589  0.031969534  0.032179449            4 
 1172000    1.0691592   -7.0467931    448.85826  0.031915405  0.032172354            1 
 1173000    1.0718203   -7.0267024    450.27449   0.03198881  0.032165426            3 
 1174000    1.0603451   -7.0050637    449.43507  0.031901978  0.032158667            2 
 1175000    1.0719073   -7.0533602    450.39808  0.031943126  0.032151602            2 
 1176000    1.0503536   -6.9784233      452.801  0.032086239   0.03214499            2 
 1177000    1.0697883   -7.0343747    453.10394  0.032080426  0.032138182            2 
 1178000    1.0770568   -7.0386403    453.18266  0.032058762  0.032131481            2 
 1179000    1.0184754   -7.0705849    451.93229  0.031943193  0.032124812            2 
 1180000    1.0413462   -7.0436773    452.23059  0.031937189  0.032118015            4 
 1181000    1.0594264   -7.0519883    451.63918  0.031868415   0.03211127            2 
 1182000    1.0503344   -7.0127294    454.10116  0.032015028  0.032104505            1 
 1183000    1.0621453   -7.0597952    453.16432  0.031921972  0.032097787            1 
 1184000    1.0615064   -7.0707755    453.34745    0.0319079  0.032091078            2 
 1185000    1.0542072   -7.0480029    455.28918  0.032017523  0.032084275            2 
 1186000    1.0446313    -7.033344    453.45229  0.031861459  0.032077464            2 
 1187000     1.082477   -7.0393474    454.44169  0.031904078  0.032070642            2 
 1188000    1.0812723   -7.0358419    454.04193  0.031849181  0.032063838            3 
 1189000    1.0401868   -7.0358547    454.68345  0.031867357  0.032057168            3 
 1190000     1.041814   -7.0192546    456.44912  0.031964224  0.032050593            2 
 1191000    1.0665549   -7.0363556    456.02092  0.031907425  0.032043974            2 
 1192000     1.052991   -7.0340096    456.10334  0.031886419  0.032037107            1 
 1193000    1.0729423   -7.0055676    457.49513  0.031956911    0.0320306            1 
 1194000    1.0778081   -7.0406703     456.2817  0.031845456  0.032024215            3 
 1195000    1.0585456   -7.0553308    457.22889   0.03188486  0.032017663            1 
 1196000    1.0731554   -7.0775879    457.29151  0.031862563  0.032011011            2 
 1197000    1.0421179   -7.0220131    458.78275  0.031939762  0.032004388            6 
 1198000    1.0564852   -7.0410838     457.5278  0.031825807  0.031997631            2 
 1199000    1.0481799   -7.0134529    459.61785  0.031944527   0.03199114            3 
 1200000    1.0741897   -7.0195097     460.1115  0.031952187  0.031984652            1 
 1201000    1.0799762   -7.0609426    458.56159   0.03181804  0.031977952            1 
 1202000    1.0614693   -7.0256432    459.46025  0.031853872  0.031971294            3 
 1203000    1.0532693      -7.0205    459.71846   0.03184528  0.031964806            2 
 1204000    1.0645729   -7.0567934    460.25273  0.031855809  0.031958162            3 
 1205000    1.0551125   -7.0854039    459.19773  0.031756413  0.031951403            3 
 1206000    1.0655733   -7.0523806    458.68093   0.03169437   0.03194442            2 
 1207000    1.0702285   -7.0864854    457.28994  0.031572075  0.031937204            2 
 1208000     1.048602   -7.0494327    460.15029  0.031743259  0.031930229            1 
 1209000      1.06128   -7.0470082    461.28286  0.031795069  0.031923334            2 
 1210000    1.0547279   -7.0641885    460.81382  0.031736489  0.031916655            1 
 1211000    1.0433838    -7.000672    462.22196  0.031807181  0.031909758            4 
 1212000    1.0524944   -7.0439849    460.38951  0.031654944  0.031902763            2 
 1213000    1.0426744   -7.0731941     460.7111  0.031650941  0.031895647            4 
 1214000    1.0565242   -7.0073123    462.37126  0.031738829  0.031888735            2 
 1215000    1.0668961   -7.0537756    461.84855  0.031676856  0.031881945            2 
 1216000    1.0620419   -7.0453833    461.99087  0.031660558    0.0318751            2 
 1217000    1.0622142   -7.0610897     462.7514   0.03168662    0.0318686            1 
 1218000    1.0748134   -7.0407169     461.4068   0.03156861   0.03186189            2 
 1219000    1.0475098   -7.0801362    462.83411  0.031640287  0.031855129            4 
 1220000    1.0228025   -7.0324245    464.76595  0.031746308  0.031848586            2 
 1221000    1.0677226   -7.0758883    464.79077  0.031722001  0.031841889            2 
 1222000    1.0665438   -7.0295277    466.89504  0.031839542  0.031835381            5 
 1223000    1.0500746   -7.0308373    465.79048  0.031738245  0.031829091            2 
 1224000    1.0765162   -7.0494823    467.19746  0.031808106  0.031822756            3 
 1225000    1.0666277    -7.025786    466.35594  0.031724894  0.031816344            2 
 1226000     1.045945   -7.0860842    466.66121  0.031719767  0.031809815            2 
 1227000    1.0825415   -7.0456493    467.19251      0.03173  0.031803438            1 
 1228000    1.0724293   -7.0678264    467.90962  0.031752825  0.031797125            2 
 1229000    1.0628791   -7.0762162    468.10986  0.031740566  0.031790792            2 
 1230000    1.0328929   -7.0695447    467.53757  0.031675987  0.031784368            1 
 1231000    1.0786689   -7.0150243    468.72306  0.031730508  0.031778002            1 
 1232000    1.0360728   -7.0763704    467.35679  0.031612337  0.031771526            1 
 1233000    1.0462281   -7.0917366    467.91996  0.031624761  0.031764931            2 
 1234000    1.0560339   -7.0199098    468.56617  0.031642772  0.031758317            1 
 1235000    1.0529849   -7.0603278     468.5964  0.031619191  0.031751721            3 
 1236000     1.098548   -7.0479097    469.51082   0.03165526  0.031744972            1 
 1237000    1.0572515   -7.0752032    467.68699  0.031506804   0.03173818            2 
 1238000    1.0386489   -7.0770008    468.51084   0.03153681    0.0317312            2 
 1239000    1.0566795   -7.1001555    467.35455  0.031433585  0.031724345            2 
 1240000     1.045474   -7.0263472    469.22195  0.031533733  0.031717082            1 
 1241000    1.0851599   -7.0247847    469.28536  0.031512581  0.031710086            2 
 1242000    1.0660763   -7.0956618     468.6494  0.031444538  0.031703283            3 
 1243000    1.0493185   -7.0629089     470.1877  0.031522372  0.031696135            1 
 1244000    1.0540827   -7.0413769    469.71925  0.031465652  0.031689193            1 
 1245000    1.0420411   -7.0930811    469.54977  0.031429034  0.031681933            2 
 1246000    1.0648468    -7.072262    468.38343  0.031325805  0.031674622            3 
 1247000    1.0681747   -7.0661282    469.22297  0.031356788  0.031667165            3 
 1248000    1.0381442   -7.0572459    471.37137  0.031475119  0.031659844            2 
 1249000    1.0453408   -7.0855822    469.74736  0.031341564  0.031652557            2 
 1250000    1.0479238   -7.0625222    470.81032  0.031387355   0.03164513            3 
 1251000    1.0490986    -7.083892    471.60766  0.031415378  0.031637711            6 
 1252000    1.0681405   -7.0722957    471.73188  0.031398554  0.031630651            2 
 1253000    1.0564579   -7.0524794    472.58303  0.031430103  0.031623463            2 
 1254000     1.055931   -7.1039559    471.30234  0.031319932  0.031616311            1 
 1255000    1.0266133   -7.0881338    471.39371  0.031301043  0.031609015            2 
 1256000    1.0208068   -7.0931447    472.09502  0.031322652  0.031601643            2 
 1257000    1.0424987    -7.060497    473.22729  0.031372798  0.031594514            3 
 1258000     1.070446   -7.0840959     474.1313  0.031407744  0.031587455            3 
 1259000    1.0546068   -7.0688397    473.31431  0.031328721   0.03158042            1 
 1260000     1.060054   -7.0472275    473.67978  0.031328028  0.031573221            2 
 1261000    1.0605176   -7.0304674    474.69615  0.031370351  0.031566104            2 
 1262000    1.0447661   -7.0572815    474.38359  0.031324854  0.031558917            1 
 1263000     1.060347   -7.0603536    475.08393  0.031346261  0.031551713            2 
 1264000    1.0629816    -7.032404    475.59407  0.031355094  0.031544354            2 
 1265000    1.0397199   -7.0644265    475.21291  0.031305198  0.031537132            1 
 1266000    1.0592999    -7.058865    476.83092  0.031386975  0.031529973            3 
 1267000    1.0260407    -7.022262    475.06989  0.031246375  0.031522796            1 
 1268000    1.0270037   -7.0289328    476.12913  0.031291347  0.031515638            1 
 1269000    1.0382582   -7.1022207    476.69026  0.031303537   0.03150857            3 
 1270000    1.0493921   -7.0961142    476.33446  0.031255542  0.031501472            2 
 1271000    1.0412188   -7.0527994    476.52088  0.031243173  0.031494336            5 
 1272000    1.0461939   -7.0843801    477.61008  0.031289969  0.031487367            2 
 1273000    1.0449149   -7.0513559     479.4304  0.031384551  0.031480518            2 
 1274000    1.0390325   -7.0665947    479.39982  0.031357916  0.031473659            2 
 1275000    1.0528623   -7.0587406    478.39217  0.031267462  0.031466868            4 
 1276000    1.0230296   -7.0777157    478.47102  0.031248107  0.031459952            1 
 1277000    1.0693835   -7.0773057    480.56949  0.031360577  0.031452962            2 
 1278000    1.0591446   -7.0425799    479.99158  0.031298355  0.031446172            2 
 1279000    1.0712703    -7.065201    480.68413  0.031319008  0.031439392            3 
 1280000    1.0608548   -7.1253805    479.23839  0.031200416  0.031432568            1 
 1281000    1.0647239   -7.1111294    480.64022  0.031267253  0.031425669            3 
 1282000    1.0676115   -7.0303748    480.95436  0.031263284  0.031418879            2 
 1283000    1.0412831   -7.0695472    482.60334  0.031346021  0.031412233            2 
 1284000    1.0638732   -7.0944802    481.53405   0.03125221  0.031405449            4 
 1285000    1.0044291   -7.0816577     481.7011  0.031238722  0.031398569            2 
 1286000    1.0520313    -7.090548    483.82598  0.031352124  0.031391655            1 
 1287000    1.0640188    -7.103194    482.78424  0.031260311  0.031384774            1 
 1288000    1.0469636   -7.0754824    484.08218  0.031320017  0.031378015            2 
 1289000    1.0659629   -7.0549794     483.4785  0.031256691  0.031371364            3 
 1290000    1.0623546   -7.0405776    484.37844  0.031290597  0.031364747            2 
 1291000    1.0322134   -7.0525231    485.28948  0.031325166  0.031358024            2 
 1292000    1.0546401   -7.0916866    483.87488   0.03120968  0.031351258            2 
 1293000    1.0566405   -7.1072052    482.65431  0.031106878  0.031344327            2 
 1294000    1.0392982   -7.0908963    483.43875  0.031133356  0.031337168            2 
 1295000    1.0475301   -7.0876541    483.81897  0.031133782  0.031330153            5 
 1296000    1.0757784   -7.1174071    483.34041  0.031078987  0.031323293            2 
 1297000    1.0505043   -7.0749998    484.16471  0.031107987  0.031316354            3 
 1298000     1.041792   -7.0669658    485.65555  0.031179735  0.031309397            3 
 1299000    1.0519816   -7.0997419    484.85086  0.031104109  0.031302339            2 
 1300000    1.0342819   -7.0528669    485.63427  0.031130402  0.031295418            2 
 1301000    1.0331134   -7.0751077    486.11731  0.031137414  0.031288489            1 
 1302000    1.0375652   -7.0995523    485.41562  0.031068588  0.031281409            2 
 1303000    1.0765837   -7.0948241    485.52677  0.031051853  0.031274415            1 
 1304000    1.0290272   -7.0761895    486.55086  0.031093485  0.031267156            2 
 1305000    1.0455063   -7.0837125     487.0427  0.031101066  0.031260169            1 
 1306000    1.0168755   -7.1108658    486.70117   0.03105546  0.031252963            1 
 1307000    1.0344075   -7.0964394    486.59996  0.031025246   0.03124594            2 
 1308000    1.0488355   -7.1036866    486.80815   0.03101479  0.031238792            1 
 1309000    1.0548862    -7.072477    487.48947  0.031034471  0.031231803            2 
 1310000    1.0602626   -7.0529694    487.86771  0.031034842  0.031224831            2 
 1311000    1.0524786   -7.0807123    488.55368  0.031054772  0.031217893            5 
 1312000    1.0522139   -7.1212276    488.09682  0.031002084  0.031210686            2 
 1313000    1.0236479    -7.073588    488.94802  0.031032497  0.031203578            1 
 1314000    1.0550175   -7.1086249    488.15033  0.030958291  0.031196589            1 
 1315000    1.0207571     -7.10361    489.50681   0.03102071  0.031189562            1 
 1316000    1.0376808   -7.0750944    490.96577  0.031089525  0.031182602            2 
 1317000    1.0372471    -7.088834    490.06592   0.03100898  0.031175577            1 
 1318000    1.0744142   -7.1117061    489.81052  0.030969305  0.031168417            1 
 1319000    1.0417694   -7.0755831    490.97569   0.03101944  0.031161191            2 
 1320000    1.0508879   -7.0569928    489.00698  0.030871653  0.031154091            2 
 1321000    1.0328284   -7.1038798    490.56844  0.030946785  0.031146914            3 
 1322000    1.0118303   -7.0822533    492.05533  0.031017104  0.031139743            3 
 1323000    1.0456478   -7.1100255     491.2402  0.030942316  0.031132647            3 
 1324000    1.0375571   -7.0945614    491.09943  0.030910085  0.031125663            4 
 1325000    1.0223019   -7.1130381    491.29613  0.030899128   0.03111879            4 
 1326000     1.042601   -7.0966317    494.02929  0.031047592  0.031111845            2 
 1327000     1.047617   -7.0849757    493.59779  0.030997098  0.031105021            5 
 1328000    1.0383699   -7.1087197     493.2702    0.0309532  0.031098419            8 
 1329000    1.0236671   -7.0741158    493.55082  0.030947505  0.031091604            8 
 1330000    1.0257783   -7.1231069    494.30942  0.030971768   0.03108491            1 
 1331000    1.0330469   -7.0710763    495.52209  0.031024424  0.031078351            2 
 1332000     1.055838   -7.0961127     495.8047  0.031018813  0.031071776            2 
 1333000    1.0498202   -7.0819774    496.54509  0.031041829  0.031065235            2 
 1334000    1.0598665   -7.0987676    496.10669  0.030991172  0.031058694            2 
 1335000    1.0439929    -7.083119    496.80895  0.031011795  0.031052101            2 
 1336000    1.0327375    -7.081832    497.65642  0.031041443  0.031045643            2 
 1337000    1.0215505   -7.0660084    497.60995   0.03101533  0.031039225            1 
 1338000    1.0495662   -7.1147915    497.95155  0.031013425   0.03103279            3 
 1339000    1.0308041   -7.1156893    496.99255  0.030930579  0.031026465            3 
 1340000    1.0514184    -7.088681    500.39106  0.031118847  0.031020133            4 
 1341000    1.0358272   -7.1024448    498.61615  0.030985344  0.031013845            5 
 1342000    1.0573885   -7.1174654    499.51653  0.031018165  0.031007541            3 
 1343000     1.019877   -7.1199818    498.13619  0.030909419  0.031001374            2 
 1344000    1.0159602   -7.0395723    500.90526  0.031058114  0.030995274            5 
 1345000    1.0359431   -7.0605568    500.93567  0.031036907  0.030989156            2 
 1346000    1.0353821   -7.1247825    501.30906  0.031036965  0.030982975            3 
 1347000    1.0493842   -7.1109701     500.5151  0.030964804  0.030976831            1 
 1348000    1.0520187   -7.0794046    501.60633  0.031009293   0.03097077            2 
 1349000    1.0203946   -7.0925395    501.02549  0.030950426  0.030964825            1 
 1350000    1.0404119   -7.0689622     503.6438  0.031089123  0.030958919            1 
 1351000    1.0128404    -7.132673    502.06089  0.030968473  0.030952892            3 
 1352000    1.0480383   -7.1274263    504.44316  0.031092404  0.030947029            2 
 1353000    1.0293987   -7.0793279      501.582  0.030893201  0.030941189            1 
 1354000     1.041679   -7.1138738    503.79183   0.03100639   0.03093516            3 
 1355000    1.0234887   -7.1186773    504.27193  0.031013034  0.030929169            2 
 1356000    1.0421024   -7.1197632    504.44316  0.031000686  0.030923105            2 
 1357000    1.0666988   -7.0993142    504.31763  0.030970132  0.030917069            2 
 1358000    1.0543676   -7.0836525    505.08007  0.030994113  0.030911118            1 
 1359000    1.0217377   -7.1243471    504.94125  0.030962795  0.030905031            1 
 1360000    1.0318567   -7.1442348      504.179  0.030893321  0.030898816            3 
 1361000    1.0373405   -7.0981418    506.77461   0.03102955  0.030892636            3 
 1362000    1.0184667    -7.127852    505.78294  0.030946092  0.030886475            3 
 1363000    1.0443166   -7.1132705    505.19242  0.030887284  0.030880301            2 
 1364000    1.0184093   -7.1095166    504.83155  0.030842592  0.030874066            2 
 1365000    1.0375518   -7.0755445    505.88895  0.030884551  0.030867848            2 
 1366000    1.0295494   -7.1124817    506.85249  0.030920723   0.03086157            1 
 1367000    1.0083399   -7.0825204     507.0139  0.030907943  0.030855461            1 
 1368000    1.0215372   -7.0871039    506.63355   0.03086218  0.030849335            1 
 1369000    1.0078517   -7.0584983    507.52556  0.030893935  0.030843125            2 
 1370000    1.0594138   -7.0974181    507.06551  0.030843401  0.030836882            5 
 1371000    1.0519684    -7.131772    505.67208  0.030736207  0.030830651            4 
 1372000    1.0453531   -7.1148176     507.2705   0.03081089  0.030824383            4 
 1373000    1.0511007   -7.1080554      508.259  0.030848446  0.030818151            1 
 1374000    1.0152061   -7.0677236    508.97992  0.030869718  0.030812066            2 
 1375000    1.0406126   -7.0985036    507.75658  0.030773126  0.030805969            3 
 1376000    1.0312926   -7.1227096    508.63909  0.030804208  0.030799668            2 
 1377000    1.0127899    -7.088257    508.79348  0.030791181  0.030793255            4 
 1378000    1.0119999   -7.1232534    507.73717  0.030704957  0.030786889            2 
 1379000    1.0370117   -7.0825426    509.66279  0.030799056  0.030780493            2 
 1380000    1.0448943   -7.0821406    508.28052  0.030693268  0.030774083            3 
 1381000     1.024877   -7.1213898    509.71785  0.030757775  0.030767601            1 
 1382000    1.0225207   -7.1282178    508.48855  0.030661394  0.030760874            1 
 1383000    1.0304532   -7.0944756    508.62988  0.030647739  0.030754216            1 
 1384000    1.0280046   -7.1210529    507.38361  0.030550554  0.030747704            3 
 1385000    1.0005207   -7.1209792    509.04825  0.030628655  0.030741105            3 
 1386000    1.0232296   -7.1011175    509.32735  0.030623338  0.030734468            1 
 1387000    1.0127808   -7.0911389    509.83813  0.030631948  0.030728013            3 
 1388000    1.0372618   -7.1178233    510.61824  0.030656715  0.030721375            1 
 1389000    1.0242373   -7.1132715    510.58463  0.030632627  0.030714685            1 
 1390000    1.0207636   -7.1107473    511.70083  0.030677508  0.030708026            2 
 1391000    1.0419369   -7.1146991    509.98769  0.030552821  0.030701368            2 
 1392000    1.0174869    -7.056784    513.72655  0.030754703  0.030695003            2 
 1393000    1.0260781   -7.0917484    511.03095  0.030571366  0.030688459            3 
 1394000    1.0204552   -7.0865622    512.13284  0.030615306  0.030681897            7 
 1395000     1.016445   -7.1558425    511.36793  0.030547666  0.030675303            1 
 1396000    1.0342545   -7.1238864    511.09353  0.030509404  0.030668479            3 
 1397000    1.0047287   -7.0818109    514.41257  0.030685551  0.030661884            2 
 1398000    1.0254135   -7.1182702    513.08781  0.030584634  0.030655312            2 
 1399000      1.05648   -7.1235498    513.49805  0.030587208  0.030648601            2 
 1400000    1.0221156   -7.1099344    512.81444  0.030524669  0.030641917            2 
 1401000    1.0303358   -7.1290194    512.91272  0.030508727  0.030635184            4 
 1402000    1.0353307   -7.1277765      512.937  0.030488409  0.030628425            2 
 1403000    1.0165751   -7.1158607    513.20684  0.030482706  0.030621617            3 
 1404000    1.0260578   -7.1091815    514.27726  0.030524528  0.030614836            2 
 1405000    1.0283232   -7.1413145    511.54996  0.030341041  0.030608065            2 
 1406000    1.0191722   -7.1161802    514.06836  0.030468727  0.030601264            6 
 1407000    1.0275584   -7.1241135    515.33999  0.030522387  0.030594653            2 
 1408000    1.0076376   -7.0837532     514.7519  0.030465903  0.030587966            3 
 1409000    1.0203803   -7.0878145    516.63142  0.030555443  0.030581382            3 
 1410000    1.0287558   -7.1208536    514.92014  0.030432633  0.030574839            2 
 1411000    1.0144428   -7.1193742    516.04245  0.030477347  0.030568094            2 
 1412000    1.0144131   -7.1377678    514.79944  0.030382403  0.030561328            2 
 1413000    1.0316592   -7.1517264    516.89385  0.030484421  0.030554675            2 
 1414000    1.0096831   -7.1356789    515.98611  0.030409365  0.030547988            2 
 1415000    1.0298852   -7.1190601    516.78541  0.030434947  0.030541217            3 
 1416000    1.0346385   -7.1164112    517.60437  0.030461651  0.030534519            2 
 1417000    1.0482871   -7.1555846    516.65258  0.030384179  0.030527732            2 
 1418000    1.0247191    -7.117906    517.95829  0.030439486  0.030521037            2 
 1419000    1.0273917   -7.1387748     517.7321  0.030404751  0.030514317            1 
 1420000    1.0387978   -7.1218308    518.47577  0.030426982  0.030507559            3 
 1421000    1.0233767   -7.1129848    517.57063  0.030352488    0.0305008            1 
 1422000     1.026722    -7.103342    520.87379  0.030524718  0.030494425            2 
 1423000    1.0110115   -7.1432751    519.34941  0.030413997  0.030487783            2 
 1424000    1.0233453   -7.1386895    519.32008  0.030390922   0.03048115            2 
 1425000    1.0133993   -7.0803231    520.96095  0.030465552  0.030474545            3 
 1426000    1.0416232     -7.10517       521.13  0.030454067  0.030467982            1 
 1427000     1.023737   -7.1470648    520.44612  0.030392789  0.030461343            3 
 1428000    1.0409296   -7.0979579    520.70517  0.030386623  0.030454798            3 
 1429000     1.005679    -7.129658    521.73733   0.03042555  0.030448312            2 
 1430000    1.0416824   -7.1237665    520.29123  0.030320002  0.030441735            1 
 1431000    1.0217794   -7.1466124    521.27437  0.030356066  0.030434978            1 
 1432000    1.0236654   -7.1362858    519.17491  0.030212693  0.030428293            2 
 1433000    1.0125823   -7.1135466    522.06155  0.030359476  0.030421652            2 
 1434000    1.0052986   -7.1118054    522.64922  0.030372456  0.030415014            5 
 1435000    1.0348432   -7.1435564    521.02036  0.030256699  0.030408323            2 
 1436000    1.0199616   -7.1567845    522.05096  0.030295436  0.030401451            2 
 1437000    1.0231896   -7.1387893    521.69658  0.030253803  0.030394737            2 
 1438000    1.0408814   -7.1158525     522.7269  0.030292472  0.030387905            6 
 1439000    1.0288812    -7.143185    521.88454  0.030222639  0.030380935            3 
 1440000    1.0301757   -7.1374537    522.72865  0.030250501  0.030374054            2 
 1441000    1.0248706   -7.1728549    521.07557   0.03013391  0.030367062            1 
 1442000   0.99885613   -7.1237163    525.26017  0.030354841  0.030360253            2 
 1443000    1.0193622   -7.1385337    524.15369  0.030269906  0.030353599            1 
 1444000    1.0038517   -7.1063012    524.90741   0.03029244  0.030347083            2 
 1445000    1.0500358   -7.1422958    524.61946  0.030254871   0.03034046            2 
 1446000   0.99375268   -7.1335694    523.67751  0.030179663  0.030333885            3 
 1447000   0.99971313   -7.1314359    525.39664  0.030257811  0.030327321            2 
 1448000   0.98882333   -7.1328848    526.97117  0.030327531  0.030320758            3 
 1449000    1.0326009   -7.1530364    525.83992  0.030241541  0.030314211            2 
 1450000    1.0310091   -7.1629956    525.79498  0.030218103  0.030307421            1 
 1451000    1.0179529   -7.1207932    526.68513  0.030248399  0.030300709            2 
 1452000   0.99574823    -7.092924    527.36413  0.030266536  0.030294115            1 
 1453000    1.0368842   -7.1379586    525.85278  0.030159026  0.030287483            3 
 1454000    1.0201411   -7.1521674     527.7628  0.030247753  0.030280878            2 
 1455000    1.0152945   -7.1443691    526.96692  0.030181381  0.030274175            3 
 1456000    1.0122133   -7.1144012    529.04083  0.030279352  0.030267723            4 
 1457000   0.98662366   -7.1774059     527.6853   0.03018104  0.030261163            2 
 1458000    1.0229508   -7.1583849    527.71846  0.030162235  0.030254504            4 
 1459000    1.0189866   -7.0990454    529.41435  0.030238425  0.030247938            2 
 1460000    1.0065355   -7.1428993    529.63996  0.030230592  0.030241371            2 
 1461000    1.0330952   -7.1521316    527.91606  0.030111571  0.030234865            2 
 1462000    1.0130489   -7.1857821    528.28645  0.030112087  0.030228335            3 
 1463000    1.0136689   -7.1594631     530.0091  0.030189627  0.030221886            3 
 1464000    1.0151753   -7.1351059    531.52264  0.030255159  0.030215523            2 
 1465000    1.0078929   -7.1206114    531.49063  0.030232686  0.030209222            2 
 1466000    1.0221932   -7.1405128    529.50671   0.03009929   0.03020287            3 
 1467000    1.0113466   -7.1351023    530.04957  0.030109609   0.03019649            5 
 1468000    1.0217515   -7.1342055    530.49723  0.030114511  0.030190192            3 
 1469000   0.99380702   -7.1113481     532.4414    0.0302043   0.03018401            2 
 1470000    1.0215823    -7.141822    531.83024  0.030149107  0.030177748            1 
 1471000     1.002753   -7.1252166    531.83526  0.030128896  0.030171434            3 
 1472000    1.0290025   -7.1253969    532.90521     0.030169   0.03016514            2 
 1473000    1.0229102   -7.1355639     533.4696  0.030180448  0.030158799            2 
 1474000    1.0084512   -7.1457504    533.47186    0.0301601  0.030152539            2 
 1475000    1.0253543   -7.1498006    533.11167  0.030119304  0.030146116            3 
 1476000    1.0135539   -7.1526365    534.33178  0.030167783   0.03013986            2 
 1477000    1.0140066   -7.1396919    534.59716  0.030162331  0.030133674            5 
 1478000    1.0301656   -7.1282376    535.45793  0.030190456  0.030127612            1 
 1479000    1.0331288   -7.1367537    534.60158  0.030121793  0.030121357            1 
 1480000    1.0043577   -7.1140152    536.66407  0.030217572  0.030115282            5 
 1481000    1.0203422   -7.0966461     537.8697  0.030265007  0.030109351            2 
 1482000    1.0361672   -7.1310526    537.97551  0.030250535  0.030103236            2 
 1483000    1.0056734    -7.142941    537.29192  0.030191724  0.030097158            6 
 1484000    1.0114199   -7.1466503    535.74862  0.030084716  0.030091123            1 
 1485000     1.015951   -7.1385793    536.51579  0.030107508  0.030085063            4 
 1486000    1.0275523   -7.1607338    537.58683   0.03014731  0.030079002            3 
 1487000    1.0237484   -7.1517182    537.58481  0.030126923  0.030072886            4 
 1488000    1.0067921   -7.1504205    536.96954  0.030072219  0.030066754            2 
 1489000    0.9911403   -7.0859977    538.67035   0.03014721  0.030060564            2 
 1490000     1.038133   -7.1505993    536.50011  0.030005599  0.030054344            4 
 1491000   0.98853092   -7.1479005    537.25007  0.030027391  0.030047943            4 
 1492000    1.0099325   -7.1495906    536.83984  0.029984352  0.030041519            2 
 1493000    1.0052282   -7.1573501    537.55889  0.030004403  0.030035181            1 
 1494000    1.0255856   -7.1851826     536.8807  0.029946491  0.030028847            4 
 1495000    1.0119451   -7.1531779    537.16563  0.029942343  0.030022362            7 
 1496000    1.0097309   -7.1157569    541.07288  0.030139978  0.030015993            3 
 1497000    1.0321149   -7.1778601    538.69485  0.029987466  0.030009743            1 
 1498000    1.0239917   -7.1383831    538.68301   0.02996679  0.030003327            3 
 1499000    1.0331687   -7.1583943    538.95027  0.029961656  0.029996907            4 
 1500000   0.99370724   -7.0977818    540.07219   0.03000401   0.02999061            2 
 1501000    1.0288861   -7.1551171    539.05651  0.029927632  0.029984375            2 
 1502000    1.0277352   -7.1403731    540.95923  0.030013273  0.029978181            1 
 1503000       1.0353   -7.1312586    540.03762  0.029942206  0.029971801            3 
 1504000    1.0086465   -7.1625054    541.72337  0.030015701  0.029965435            1 
 1505000    1.0139289   -7.1378374     540.1751  0.029910028  0.029959096            2 
 1506000     1.016741   -7.1461803    541.57972   0.02996789  0.029952789            2 
 1507000    1.0275801   -7.1559574    540.58453  0.029892974  0.029946365            4 
 1508000    1.0087728   -7.1606082    542.61001   0.02998508  0.029940075            2 
 1509000     1.013441   -7.1533588    542.14987  0.029939798  0.029933698            3 
 1510000    0.9883287     -7.15898    540.02989  0.029802974  0.029927309            3 
 1511000    1.0161548   -7.1290119    543.14748  0.029955189  0.029920958            4 
 1512000    1.0022236   -7.1390367    541.91458  0.029867426  0.029914632            2 
 1513000    1.0265579   -7.1549647     542.5231  0.029881202  0.029908345            3 
 1514000    1.0202726   -7.1469036    542.18477  0.029842843   0.02990192            1 
 1515000    1.0022414   -7.1362783    543.55543  0.029898538  0.029895548            1 
 1516000    1.0087451   -7.1640661    545.20557  0.029969523  0.029889069            1 
 1517000    0.9965615   -7.1528288    542.75932  0.029815388  0.029882634            2 
 1518000     1.010982   -7.1908767    542.00515  0.029754345  0.029876136            4 
 1519000   0.99945962   -7.1847304    543.52068    0.0298179  0.029869593            1 
 1520000    1.0069314   -7.1975815    543.26538  0.029784286  0.029863022            3 
 1521000    1.0053148   -7.1371879    543.54798  0.029780187   0.02985649            2 
 1522000   0.99807238   -7.1450257    544.33922  0.029803943  0.029849928            2 
 1523000    1.0183812   -7.1555821    543.96832   0.02976408  0.029843306            2 
 1524000    1.0388869   -7.1677579    544.04379  0.029748676  0.029836637            2 
 1525000   0.98851888   -7.1808068    543.86666  0.029719489  0.029830087            2 
 1526000    1.0156169   -7.1624939    543.24176  0.029665889  0.029823409            5 
 1527000    1.0251696   -7.1477066    545.86618  0.029789685  0.029816859            3 
 1528000    1.0060912   -7.1145011    547.29621  0.029848179  0.029810304            2 
 1529000    1.0027837   -7.1256514    545.98915  0.029757421  0.029803735            1 
 1530000    1.0128805   -7.1803956    545.07944  0.029688423  0.029797125            3 
 1531000    1.0167029   -7.1788564    544.86689  0.029657462  0.029790766            4 
 1532000   0.99570274   -7.1845633    546.57817  0.029731188  0.029784231            2 
 1533000   0.99536889   -7.1665912    545.82335  0.029670763  0.029777708            1 
 1534000    1.0149568   -7.1595306    547.44127  0.029739313  0.029771249            2 
 1535000   0.99901121   -7.1236302    547.58509  0.029727746  0.029764909            1 
 1536000   0.98409992   -7.1756538    547.98019  0.029729828  0.029758532            3 
 1537000   0.99316031   -7.1859592    547.70513  0.029695572  0.029752028            4 
 1538000   0.99674127   -7.1734594    547.75247  0.029678829  0.029745483            2 
 1539000    1.0089781   -7.1537196    548.18442  0.029682933  0.029739098            1 
 1540000   0.98682704   -7.1185312    549.21027  0.029719171  0.029732632            2 
 1541000     1.009476   -7.1731182    550.10737  0.029748398  0.029726186            2 
 1542000   0.99608054   -7.1397658    550.69111  0.029760652  0.029719885            3 
 1543000     1.017756   -7.1571466    549.02484  0.029651374  0.029713493            2 
 1544000    1.0029097   -7.1574255    551.34414  0.029757348  0.029706959            1 
 1545000   0.98247297   -7.1625874    550.08164  0.029669991  0.029700474            2 
 1546000   0.99698627   -7.1513557    548.76676  0.029579925  0.029693885            2 
 1547000   0.99918125   -7.1836392    548.68237  0.029556258  0.029687316            2 
 1548000   0.99129397   -7.1215956    550.25707  0.029621935  0.029680726            3 
 1549000    1.0033975   -7.1405682     550.3395  0.029607246   0.02967414            3 
 1550000   0.99725579   -7.1576276    551.52981   0.02965214  0.029667422            1 
 1551000    1.0012356   -7.1574688    551.21986  0.029616369  0.029660942            2 
 1552000    1.0089106    -7.190449    549.92685  0.029527859  0.029654277            4 
 1553000    1.0159624   -7.1880036    550.73713  0.029552325  0.029647637            2 
 1554000   0.98252084   -7.1713719    551.64784  0.029582145  0.029641074            3 
 1555000   0.99587588   -7.1753684    550.58498  0.029506162  0.029634445            2 
 1556000    0.9988271   -7.2050563    551.63068  0.029543202  0.029627799            2 
 1557000    1.0085111   -7.1887551    552.21187  0.029555334  0.029621143            3 
 1558000    1.0067839   -7.1938412    551.39533   0.02949269    0.0296145            4 
 1559000    1.0106398   -7.1748146    551.87647  0.029499491  0.029607843            2 
 1560000   0.99302124   -7.1937295    552.52744  0.029515354  0.029601282            5 
 1561000   0.99837556   -7.1713618    554.72388  0.029613703  0.029594738            5 
 1562000   0.99516295   -7.1840002    552.76143  0.029490047    0.0295882            1 
 1563000   0.99085444   -7.1874517    554.23563  0.029549778  0.029581634            1 
 1564000   0.99275425   -7.1511722    550.85228  0.029350612  0.029575026            4 
 1565000   0.99223947   -7.1905703    553.26334  0.029460242  0.029568345            2 
 1566000    1.0193263    -7.177285    555.38249  0.029554198  0.029561765            4 
 1567000    0.9866777    -7.191941    553.53446  0.029437059  0.029555109            2 
 1568000   0.98751682   -7.1818755    555.38368  0.029516564   0.02954843            1 
 1569000    1.0057273   -7.1637679    554.16987  0.029433284  0.029541731            1 
 1570000    1.0003139   -7.2263813    554.76687  0.029446224  0.029535011            2 
 1571000    1.0029694   -7.1753029    554.29331  0.029402361  0.029528215            3 
 1572000   0.99712469   -7.1461817    556.01599  0.029474978  0.029521597            2 
 1573000    1.0016229   -7.2212138    554.86349  0.029395184  0.029514819            4 
 1574000    1.0081866   -7.1983546    554.40611  0.029352293  0.029508077            2 
 1575000   0.99069333   -7.1773406    554.93371  0.029361572  0.029501408            3 
 1576000    1.0098606    -7.181705    556.74504  0.029438718  0.029494755            2 
 1577000   0.99749155   -7.1696889    557.54114  0.029462119  0.029488082            2 
 1578000     1.000262   -7.1621762    556.44542  0.029385584  0.029481439            2 
 1579000   0.99373027   -7.1746322    557.66896  0.029431548  0.029474892            1 
 1580000   0.96870896   -7.1667224    557.74015  0.029416675  0.029468309            2 
 1581000   0.98599126   -7.1699368    557.57431  0.029389327  0.029461759            1 
 1582000   0.99039087   -7.1888369    557.29606  0.029356092  0.029455081            2 
 1583000    1.0147089   -7.1691695     555.4981  0.029242898  0.029448343            2 
 1584000   0.99235416   -7.1444288    559.51146  0.029435577  0.029441705            2 
 1585000    1.0034281   -7.1461471    559.27276  0.029404456  0.029435206            2 
 1586000   0.99989881   -7.1676858    559.36613  0.029390822  0.029428663            3 
 1587000   0.99531354   -7.1757164    558.67065  0.029335783  0.029421998            4 
 1588000   0.98917836   -7.1414488    560.17755  0.029396387  0.029415378            3 
 1589000    1.0119759   -7.2198132    558.37748  0.029283484  0.029408796            3 
 1590000   0.97881152   -7.1822628    559.24145  0.029310348  0.029402209            2 
 1591000    1.0051761   -7.1998094    558.41819  0.029248805  0.029395606            3 
 1592000    1.0187348   -7.1821012    560.01626  0.029314084  0.029388972            2 
 1593000   0.98272757   -7.1587134    561.30818  0.029363265  0.029382464            6 
 1594000    1.0003439   -7.1672358    560.55882  0.029305668  0.029375809            2 
 1595000   0.99242696   -7.1932267    561.49005  0.029335948  0.029369222            3 
 1596000   0.99692247   -7.1775931    561.02275  0.029293168  0.029362537            4 
 1597000   0.99568589   -7.1931456    560.92418  0.029269682  0.029355888            1 
 1598000    1.0205584   -7.2229141    560.36959  0.029222444  0.029349286            4 
 1599000    1.0102539    -7.184329    562.21233  0.029300205  0.029342585            1 
 1600000   0.99926593   -7.1850869    562.22083  0.029282335  0.029336012            3 
 1601000   0.99317615   -7.1919891    561.36451  0.029219473  0.029329445            3 
 1602000   0.98104448   -7.1399477      564.252  0.029351436  0.029322878            2 
 1603000   0.99857525   -7.1915918    561.89677  0.029210686  0.029316432            1 
 1604000   0.98159698   -7.1609988    564.54707  0.029330168  0.029309928            2 
 1605000    0.9992732   -7.1879741    562.27394   0.02919387  0.029303505            5 
 1606000   0.99638392   -7.1940538    562.22876  0.029173348  0.029297164            3 
 1607000    1.0140634   -7.1895446    564.50553  0.029273259  0.029290715            3 
 1608000   0.98512664   -7.2061824    563.10091  0.029182261   0.02928412            2 
 1609000   0.99986711   -7.1776926    564.42655  0.029232782  0.029277585            2 
 1610000   0.99035542   -7.2332339     564.4432  0.029215487  0.029270928            2 
 1611000   0.98850953   -7.1715493     564.6972  0.029210491  0.029264339            2 
 1612000    1.0139273   -7.1753713    566.14478  0.029267203  0.029257778            2 
 1613000    1.0053114   -7.1732292    564.62619  0.029170603  0.029251257            3 
 1614000    1.0040963   -7.2181596    565.64941   0.02920536  0.029244696            2 
 1615000   0.99140369   -7.2024502    566.00452    0.0292056  0.029238129            3 
 1616000   0.99606938    -7.181914    566.64214  0.029220407  0.029231615            4 
 1617000   0.98670361   -7.2028055    566.55907  0.029198056  0.029225109            3 
 1618000   0.98053069   -7.2183792    566.29317  0.029166315  0.029218555            3 
 1619000    1.0092697   -7.1821687    568.58069  0.029266043   0.02921209            2 
 1620000   0.98116042   -7.1792359    567.29544  0.029181864  0.029205677            2 
 1621000   0.99176661   -7.2089527    565.60758  0.029077091  0.029199118            1 
 1622000   0.98853852    -7.158773    568.88807  0.029227706  0.029192661            2 
 1623000   0.98011974   -7.1875404    567.39229  0.029132897   0.02918617            2 
 1624000   0.99322664   -7.2083886    566.36689   0.02906234  0.029179583            5 
 1625000    1.0100213   -7.2060232    566.85763  0.029069622  0.029172942            3 
 1626000   0.98375314   -7.2102979    567.78457   0.02909925  0.029166398            2 
 1627000   0.99604337   -7.2430703    567.27687  0.029055361  0.029159889            6 
 1628000    1.0036983   -7.1431967    569.40677  0.029146538   0.02915339            2 
 1629000   0.99263363   -7.1990148    568.77437  0.029096295  0.029146863            1 
 1630000   0.99522166   -7.1932923    569.71692  0.029126632  0.029140235            4 
 1631000   0.99401173    -7.219385     568.8064  0.029062252  0.029133625            2 
 1632000   0.97162903   -7.1782391    570.43634  0.029127673  0.029126954            1 
 1633000    1.0081274   -7.1958522    569.37077  0.029055459  0.029120439            2 
 1634000     1.000452   -7.2050721    569.83469  0.029061337  0.029113823            5 
 1635000   0.99518816   -7.2288845    568.04568  0.028952379  0.029107091            5 
 1636000   0.97669098   -7.2076598    569.80074   0.02902408   0.02910033            2 
 1637000    1.0024582   -7.2122791    570.06094  0.029019596  0.029093587            2 
 1638000    1.0231309   -7.2066952    570.18123  0.029007999  0.029086813            4 
 1639000   0.97915369   -7.1997867    568.71546  0.028915775   0.02907996            1 
 1640000   0.98782616   -7.1978762     568.7628  0.028900549  0.029073157            2 
 1641000    0.9939196    -7.153312    570.33364  0.028962707  0.029066416            6 
 1642000   0.99230632   -7.1657992     571.5348  0.029006029  0.029059724            2 
 1643000   0.98322781   -7.1790521    571.78546  0.029001089  0.029052988            2 
 1644000   0.98532086   -7.1940225     572.2794  0.029008485  0.029046334            1 
 1645000   0.96662549   -7.1900631    571.66522  0.028959738  0.029039601            2 
 1646000   0.97813215   -7.1857883    570.94486  0.028905673  0.029032865            1 
 1647000    1.0015165   -7.2027734    572.22901  0.028953097   0.02902625            2 
 1648000    0.9803021   -7.1693246    573.59596   0.02900465  0.029019607            3 
 1649000   0.99840631   -7.2098742    572.07508  0.028910202  0.029012894            3 
 1650000   0.98292764   -7.1937418    573.18179  0.028948575  0.029006316            3 
 1651000   0.98203108   -7.1902323    572.83049   0.02891331  0.028999613            5 
 1652000   0.99568416    -7.231781     573.8546  0.028947468  0.028992766            6 
 1653000   0.98903446   -7.2160983    572.11716  0.028842365  0.028985946            4 
 1654000   0.98102124   -7.2069705    574.02983  0.028921294  0.028979174            3 
 1655000    1.0173196   -7.2228399    574.14631  0.028909683  0.028972534            2 
 1656000   0.98733672   -7.1862019    571.98768  0.028783599  0.028965862            2 
 1657000   0.98633851    -7.204261    573.60173  0.028847402  0.028959306            4 
 1658000   0.97354621   -7.2031835    573.08237  0.028803899  0.028952662            4 
 1659000    0.9670862    -7.203277    575.35875  0.028900881  0.028946006            3 
 1660000   0.97836023   -7.2348804    575.59733  0.028895448  0.028939361            2 
 1661000   0.99712514   -7.2105299    576.58203  0.028927455   0.02893286            4 
 1662000   0.98639054   -7.1684306    577.92542  0.028977408  0.028926428            4 
 1663000   0.99264438   -7.2009047    577.72931  0.028950156  0.028919937            3 
 1664000   0.98341269   -7.1687175    576.66639  0.028879527  0.028913519            3 
 1665000   0.99353574    -7.209549    574.89201  0.028773374  0.028906951            2 
 1666000    0.9853417   -7.2200687    576.26745  0.028824903  0.028900266            3 
 1667000    0.9806265   -7.1975523    577.40525  0.028864489  0.028893637            2 
 1668000   0.97787076    -7.217194    577.56036  0.028854934  0.028887098            1 
 1669000    0.9782477   -7.1850819    577.11058  0.028815188  0.028880635            3 
 1670000   0.96351178   -7.1963754    577.03454  0.028794139  0.028874163            3 
 1671000   0.98088598   -7.2302106    576.41448  0.028745984  0.028867609            3 
 1672000   0.97292789   -7.1764494    577.56521  0.028786145  0.028861004            4 
 1673000   0.97120664   -7.2265173    578.18519   0.02879982  0.028854358            2 
 1674000   0.97156023   -7.1748182    578.78763  0.028812606  0.028847969            3 
 1675000   0.99430178   -7.1994252    579.04646  0.028808282  0.028841481            2 
 1676000   0.98125962     -7.20795     578.2911  0.028753535  0.028834969            1 
 1677000   0.98598984   -7.1832772    579.81617  0.028812173   0.02882857            2 
 1678000    1.0009731   -7.2056421    578.95881  0.028752424  0.028821996            3 
 1679000   0.99188168   -7.2199818    578.72897  0.028723892  0.028815296            3 
 1680000    1.0010526   -7.2102241    579.67541   0.02875374  0.028808648            2 
 1681000   0.98832858   -7.2273968    578.55404  0.028681045  0.028801927            2 
 1682000   0.98052596   -7.2274092    580.90516  0.028780478  0.028795289            3 
 1683000   0.99501939   -7.1882224    581.05808  0.028770949  0.028788693            2 
 1684000    0.9925844   -7.2494776    581.81174  0.028791159  0.028782158            2 
 1685000   0.97116308   -7.2363881    580.84341  0.028726183  0.028775559            3 
 1686000   0.99667212   -7.2039873    580.84746  0.028709345  0.028768979            3 
 1687000   0.98323978   -7.2360656    580.69672   0.02868488  0.028762408            2 
 1688000    0.9988773   -7.1647675    582.20649  0.028742421  0.028755908            3 
 1689000   0.99174671   -7.2004868    582.23469  0.028726795  0.028749231            2 
 1690000    0.9760612   -7.2002251    580.89521  0.028643748  0.028742656            2 
 1691000   0.98130485   -7.2008437     582.9422  0.028727686  0.028735943            1 
 1692000   0.99155016   -7.1728736    581.72059  0.028650541  0.028729278            3 
 1693000   0.98020425   -7.2116189    581.36673  0.028616201   0.02872262            2 
 1694000   0.96092078   -7.2137106    581.91732  0.028626393  0.028715907            4 
 1695000   0.97281632   -7.2507335     581.2441  0.028576406  0.028709051            3 
 1696000   0.99663147   -7.2678351    580.97492   0.02854633  0.028702244            2 
 1697000   0.97592702    -7.217622     583.2862  0.028643007   0.02869541            2 
 1698000   0.97375486   -7.2003547    583.13891   0.02861891  0.028688584            3 
 1699000   0.99508492   -7.2297148    581.65974  0.028529514  0.028681612            1 
 1700000   0.97393156   -7.2664756     580.9815  0.028479485  0.028674626            2 
 1701000   0.98410368   -7.2404354    582.55315  0.028539739   0.02866762            2 
 1702000    1.0054454   -7.2129694    583.58401  0.028573443  0.028660726            2 
 1703000   0.96149552   -7.2019916    583.62721  0.028558779  0.028654014            2 
 1704000   0.96377297   -7.2173608    583.07537  0.028515032  0.028647189            3 
 1705000    0.9719139   -7.2165001    582.39366  0.028464988  0.028640333            1 
 1706000   0.97327577   -7.1828945    584.96554  0.028573932   0.02863343            3 
 1707000   0.96764878   -7.2353335    584.16107   0.02851792  0.028626447            3 
 1708000    0.9636152   -7.2342322    582.16062  0.028403621  0.028619377            3 
 1709000    0.9789263   -7.1949167    585.49137  0.028549413  0.028612462            2 
 1710000   0.98621036   -7.2310197    583.29746  0.028425802  0.028605634            3 
 1711000   0.98173744   -7.2118895    583.27678  0.028408181  0.028598674            2 
 1712000   0.95650743   -7.2175151    584.36387  0.028444503  0.028591689            2 
 1713000   0.96201464   -7.2045498    583.58697  0.028390104  0.028584695            2 
 1714000    1.0067919   -7.2602266    582.67398  0.028329151  0.028577636            3 
 1715000   0.97946835   -7.2813787    582.52456  0.028305372  0.028570598            5 
 1716000   0.97537098   -7.2418177    583.96163  0.028358665  0.028563598            5 
 1717000   0.95995913   -7.2229459    585.09066  0.028396945  0.028556633            1 
 1718000   0.96750098   -7.2291067    586.01657  0.028425328  0.028549651            3 
 1719000   0.96342908   -7.2003684    586.28886  0.028421992  0.028542648            6 
 1720000    0.9704775   -7.2041827    587.83171  0.028480218   0.02853574            1 
 1721000   0.96660254   -7.2147067    587.39718  0.028442629  0.028528919            2 
 1722000   0.98073423   -7.2214177    587.28512  0.028420689  0.028522177            2 
 1723000   0.97804009   -7.2018684    586.79996  0.028380729  0.028515496            2 
 1724000   0.96554157   -7.2347902    586.37954  0.028343945  0.028508693            2 
 1725000   0.95167931   -7.2080074    588.34116  0.028422278  0.028501882            2 
 1726000    0.9862843   -7.2274214    587.18329  0.028349908  0.028495165            2 
 1727000   0.97686554     -7.19805    589.08805  0.028425403  0.028488422            3 
 1728000   0.97240057    -7.241968    588.08457   0.02836056  0.028481706            3 
 1729000   0.97202931   -7.2130442    587.78566   0.02832975  0.028474906            2 
 1730000   0.97165535   -7.2382588     586.5806  0.028255327  0.028468024            4 
 1731000   0.99558748   -7.2167327    589.59878  0.028384305  0.028461194            1 
 1732000   0.97987813   -7.2168201    587.46185    0.0282651  0.028454372            1 
 1733000   0.98339961   -7.2666237    588.76182  0.028311301  0.028447459            3 
 1734000   0.99077683   -7.2515354    587.52748  0.028235654  0.028440418            1 
 1735000   0.94846697   -7.2563987    588.21946  0.028252616  0.028433333            4 
 1736000   0.95514584   -7.1741933     590.6393  0.028352501  0.028426401            3 
 1737000   0.97654429    -7.215923    590.41075  0.028325213  0.028419663            3 
 1738000   0.96225675    -7.214631    589.76515  0.028277961  0.028412796            1 
 1739000   0.95666267   -7.2310567     587.4955  0.028152937  0.028405829            4 
 1740000   0.97639095   -7.2412389    589.44173  0.028229968   0.02839886            3 
 1741000   0.96674478    -7.217925    590.28288  0.028254015  0.028391874            2 
 1742000   0.95501893   -7.2351154    591.08452  0.028276144  0.028384921            3 
 1743000   0.96745702    -7.219633    592.57128  0.028331004  0.028378009            2 
 1744000   0.97891209   -7.2528396    591.09364  0.028244153  0.028371176            1 
 1745000   0.97082489   -7.2532904    592.27735  0.028284496  0.028364317            2 
 1746000   0.96376035   -7.2076716    591.62362  0.028237095  0.028357391            3 
 1747000   0.98091288   -7.2187539    592.16136  0.028246583  0.028350503            3 
 1748000     0.983842   -7.2091956    592.79805  0.028260777  0.028343542            2 
 1749000   0.98484805    -7.238228    592.99408  0.028253958  0.028336652            6 
 1750000   0.96399904   -7.2154629      591.581  0.028170524  0.028329776            2 
 1751000   0.97430093   -7.2103187    593.54466   0.02824789  0.028322894            1 
 1752000   0.96375894   -7.2192778    592.32147  0.028173586  0.028316048            3 
 1753000   0.97778763   -7.2599472    591.97385  0.028140989  0.028309219            2 
 1754000   0.95125989   -7.2300959    593.26309  0.028186198   0.02830241            1 
 1755000   0.97029007   -7.2401369    593.72294  0.028191973  0.028295578            2 
 1756000   0.96164188   -7.2727655    592.38815  0.028112573  0.028288689            2 
 1757000   0.96881183   -7.2480902     592.4704  0.028100474  0.028281711            3 
 1758000   0.98531944    -7.258239    592.61704  0.028091441  0.028274788            3 
 1759000    0.9731939   -7.2123638    594.88514  0.028182923  0.028267977            2 
 1760000   0.99297262   -7.2640636    595.30399  0.028186742    0.0282611            2 
 1761000   0.97393403   -7.2588791    594.11492  0.028114467  0.028254221            3 
 1762000   0.96955603   -7.2174221    596.34903  0.028204173  0.028247551            3 
 1763000   0.96759104    -7.222674     596.7684  0.028207998  0.028240798            3 
 1764000   0.97384707   -7.2443833    594.95389  0.028106287  0.028234033            2 
 1765000   0.96840647   -7.2263457    595.58722  0.028120265  0.028227138            3 
 1766000   0.96188048   -7.2386932    593.85179  0.028022451  0.028220245            3 
 1767000   0.97660542   -7.2418425    597.13947  0.028161643  0.028213527            1 
 1768000   0.98919215   -7.2409746    595.95904  0.028090075  0.028206783            2 
 1769000   0.97425931   -7.2513774    596.97846  0.028122219  0.028199982            1 
 1770000   0.96215042   -7.2605788    595.69918  0.028046101  0.028193206            2 
 1771000   0.95904273   -7.2784388     593.9254    0.0279468  0.028186267            2 
 1772000    0.9636473    -7.267817    596.48064  0.028051197   0.02817936            2 
 1773000   0.97500091   -7.2129285    597.30441  0.028074094  0.028172435            3 
 1774000   0.95908951   -7.2152296    598.66226  0.028122053  0.028165703            3 
 1775000   0.95412368   -7.2269972    596.49104  0.028004274  0.028158885            3 
 1776000   0.94863155   -7.2658295    598.20008  0.028068697  0.028152165            2 
 1777000   0.97654521   -7.2662823    598.39839  0.028062202  0.028145329            2 
 1778000   0.98181737   -7.2417057    599.55587  0.028100669  0.028138582            2 
 1779000   0.97616372   -7.2665927    598.44449  0.028032813  0.028131852            2 
 1780000   0.95526044   -7.2616701    597.57895  0.027976543  0.028125079            2 
 1781000   0.98435254   -7.2250729    601.76258  0.028156587  0.028118352            1 
 1782000    1.0028024    -7.228676    599.88996  0.028053215  0.028111794            1 
 1783000   0.96683952    -7.270765    600.73139  0.028076808  0.028105199            2 
 1784000   0.97358545   -7.2270134    601.50303  0.028097115  0.028098655            2 
 1785000   0.98416297   -7.2547707     600.0936  0.028015574  0.028092142            2 
 1786000   0.96673057   -7.2331804    602.51979  0.028113092  0.028085538            5 
 1787000   0.95875479   -7.2299986    601.82917  0.028065154   0.02807903            3 
 1788000   0.97012988   -7.2445699    602.30425    0.0280716  0.028072451            4 
 1789000   0.95952986   -7.2243933    600.84465  0.027987919  0.028065992            3 
 1790000   0.96310727    -7.270876    602.66108  0.028056847  0.028059404            1 
 1791000   0.96872002   -7.2360571    603.29799  0.028070817  0.028052831            3 
 1792000   0.96604157   -7.2449654    602.22898   0.02800544  0.028046259            2 
 1793000   0.96745185   -7.2208483    602.08565  0.027983159  0.028039743            3 
 1794000   0.99261912   -7.2512833    602.94957  0.028007691  0.028033148            2 
 1795000   0.96431036   -7.2679897     603.1915  0.028003319  0.028026549            2 
 1796000   0.98182906   -7.2551752    601.47974  0.027908303   0.02801995            3 
 1797000   0.98791785   -7.2514956    604.60006  0.028037473  0.028013331            1 
 1798000   0.95572565   -7.2660345    603.45696  0.027968899  0.028006716            3 
 1799000   0.94137185   -7.2637108    603.88102  0.027972995  0.028000105            2 
 1800000    0.9502053   -7.2779326    602.30477   0.02788448  0.027993566            2 
 1801000   0.95413327   -7.2161869    604.40128  0.027966004  0.027987044            4 
 1802000   0.95630342   -7.2452946    603.37905  0.027903212  0.027980391            3 
 1803000   0.95438977   -7.2375478    605.43904  0.027982947  0.027973774            2 
 1804000   0.96498258   -7.2279559    604.15637  0.027908184   0.02796717            3 
 1805000   0.95994278   -7.2555324    602.65937  0.027823609  0.027960491            4 
 1806000   0.96662755   -7.2465785    604.02671  0.027871295  0.027953775            2 
 1807000   0.96061407    -7.241514    604.05039  0.027856963  0.027947078            2 
 1808000   0.95274338   -7.2517925    605.38928  0.027903267   0.02794038            3 
 1809000   0.95703811   -7.2531401    605.68097  0.027901279   0.02793371            1 
 1810000   0.98126625   -7.2457802     604.2727  0.027821027  0.027927019            2 
 1811000   0.95811732   -7.2747243    602.39803  0.027719401  0.027920258            3 
 1812000   0.96056951   -7.2477895    605.26988  0.027836179  0.027913453            2 
 1813000   0.97281506   -7.2614184    603.73098  0.027750091  0.027906547            3 
 1814000   0.97864824   -7.2296996    604.75522  0.027781846  0.027899693            2 
 1815000   0.96393932   -7.2649213    604.77101  0.027767264  0.027892917            1 
 1816000    0.9627238   -7.2688093    604.72429   0.02774983  0.027885985            4 
 1817000   0.95971453   -7.2948511    603.95399  0.027699229  0.027878957            6 
 1818000   0.95242534   -7.2654864    604.42193  0.027705442  0.027871917            2 
 1819000   0.95434456    -7.305081    603.81955  0.027662615  0.027864857            2 
 1820000   0.96159607   -7.2379604    607.54712  0.027818091  0.027857802            7 
 1821000   0.95570426   -7.2501394    605.37648  0.027703482   0.02785083            2 
 1822000   0.97060731   -7.2340019    605.14099  0.027677506  0.027843912            5 
 1823000   0.96866664   -7.2656295    605.22274  0.027666061  0.027836967            5 
 1824000   0.95563593   -7.2582694    604.69835  0.027626935  0.027829942            2 
 1825000   0.96817678   -7.2651366    605.12506  0.027631281  0.027823008            3 
 1826000    0.9638602    -7.255297    605.49029  0.027632817  0.027816038            3 
 1827000   0.96781846   -7.2388224    606.74857  0.027675085  0.027809104            2 
 1828000   0.96568346   -7.3057148     605.0255  0.027581396  0.027802069            3 
 1829000   0.98104104   -7.2431299    606.87274   0.02765048  0.027795002            2 
 1830000   0.94700551   -7.2686683    606.21504  0.027605421  0.027787996            2 
 1831000    0.9578802   -7.2757891    607.33409  0.027641275  0.027781033            2 
 1832000   0.97376531   -7.2616111    606.41596  0.027584423  0.027774025            3 
 1833000     0.946887   -7.2560169    609.30908  0.027700904  0.027766977            1 
 1834000   0.95134678   -7.2864009    607.27758  0.027593492  0.027760032            2 
 1835000   0.94221528   -7.2645485    604.30261  0.027443352  0.027753019            3 
 1836000    0.9669196   -7.2706566    608.34851  0.027612042  0.027745992            2 
 1837000    0.9634952   -7.2610901    607.55607  0.027561063  0.027739037            2 
 1838000   0.93107509   -7.2504662    610.03183  0.027658317  0.027732148            2 
 1839000    0.9456214   -7.2895367    610.01965  0.027642725   0.02772523            2 
 1840000   0.92145364   -7.2541898    609.69686  0.027613082  0.027718272            4 
 1841000   0.94476756   -7.2720371    609.09986   0.02757106  0.027711386            2 
 1842000   0.95945762   -7.2264097    609.51959  0.027575081  0.027704491            3 
 1843000   0.95158572   -7.2218168    610.17954   0.02758996  0.027697662            4 
 1844000   0.96049229   -7.2874284    609.38671  0.027539168  0.027690778            2 
 1845000   0.93790649   -7.2546956    610.70899  0.027583965  0.027683827            3 
 1846000   0.96801756   -7.2741657     608.9264  0.027488552  0.027676841            3 
 1847000   0.94297463   -7.2713616    609.63469  0.027505626  0.027669855            1 
 1848000   0.96873881   -7.2946601    610.51486  0.027530432  0.027662803            5 
 1849000   0.96257012   -7.2731769    611.17085  0.027545108   0.02765576            2 
 1850000    0.9615535   -7.2915407    609.63766  0.027461156  0.027648771            3 
 1851000   0.95044631   -7.2734429    610.39499  0.027480415  0.027641822            4 
 1852000   0.96785957   -7.2749246    610.30524  0.027461539  0.027634947            4 
 1853000   0.97872061   -7.2550905    612.17797  0.027530939  0.027628039            2 
 1854000   0.96356122   -7.2479219    611.80423  0.027499291  0.027621097            1 
 1855000   0.96421858   -7.2695762    611.08683  0.027452239  0.027614273            4 
 1856000   0.94173161   -7.2817163    613.20859  0.027532713  0.027607418            3 
 1857000   0.95698774   -7.2780432    612.47486   0.02748496  0.027600568            4 
 1858000   0.94029034   -7.2859353    612.79804  0.027484663  0.027593678            1 
 1859000   0.94532669   -7.2861948    611.00291  0.027389408  0.027586736            1 
 1860000   0.94683503   -7.2557005    614.47636  0.027530303  0.027579992            1 
 1861000   0.95680286     -7.25763    614.94262  0.027536388  0.027573299            1 
 1862000   0.95029722    -7.256406    612.96181  0.027432949  0.027566531            3 
 1863000   0.94739684   -7.3001495    615.54364  0.027533711  0.027559733            3 
 1864000   0.95242699   -7.3082757    611.94991  0.027358275  0.027552793            2 
 1865000   0.93517399   -7.2946311    612.89631  0.027385894  0.027545902            4 
 1866000   0.94856728   -7.2662733    613.33673  0.027390887  0.027538952            2 
 1867000   0.95364463   -7.2285892    613.00868  0.027361573  0.027532125            4 
 1868000   0.93659784   -7.2345704    616.62862  0.027508414  0.027525369            2 
 1869000   0.93292673   -7.2834459    614.89776  0.027416522   0.02751853            5 
 1870000   0.97533255   -7.2099291    615.90851  0.027446903  0.027511663            4 
 1871000   0.95839359   -7.2854701    616.54151  0.027460427  0.027504875            3 
 1872000   0.94988564   -7.3158352    613.46494  0.027308802  0.027497995            2 
 1873000   0.96413914   -7.2834117     615.7097  0.027394096  0.027491083            1 
 1874000     0.949015   -7.2740723    613.74686  0.027292194  0.027484266            2 
 1875000   0.95227786   -7.2720575    614.75705  0.027322536  0.027477247            3 
 1876000   0.94702965   -7.2951069    616.50648  0.027385682  0.027470321            2 
 1877000   0.94315475   -7.2867487     615.6855  0.027334643  0.027463441            4 
 1878000   0.96379921   -7.2927751    616.40145  0.027351857  0.027456552            3 
 1879000   0.94296649   -7.3021672    616.38157  0.027336419   0.02744969            3 
 1880000   0.94766569   -7.2903775    618.56998  0.027418882  0.027442834            1 
 1881000   0.94026366   -7.2556035    617.74106  0.027367582   0.02743605            4 
 1882000   0.94175251   -7.2632521    618.83253   0.02740137  0.027429253            3 
 1883000   0.96636426   -7.2784733    617.93429  0.027347066  0.027422489            5 
 1884000   0.96334461   -7.2953014    618.44519  0.027355148  0.027415702            2 
 1885000    0.9513944   -7.2573417    618.71988   0.02735278   0.02740898            3 
 1886000   0.95043703   -7.2676834    616.98791  0.027261749  0.027402283            9 
 1887000   0.93650319   -7.2852504    618.37325  0.027308481  0.027395584            2 
 1888000   0.95743043   -7.2828197    620.44841  0.027385611  0.027388932            1 
 1889000   0.94397868   -7.2890154    619.28015  0.027319576  0.027382159            9 
 1890000   0.94813169   -7.2789468    618.42483  0.027267409  0.027375412            6 
 1891000   0.97284246   -7.2724463    618.64272  0.027262591  0.027368611            8 
 1892000   0.94438648   -7.3096943    618.81835  0.027255917  0.027361861            2 
 1893000   0.95004392   -7.2555277     621.0754  0.027340878  0.027355133            1 
 1894000   0.95738559   -7.3314992    618.37619  0.027207682  0.027348358            4 
 1895000   0.92897362   -7.2869242    619.61571  0.027247832  0.027341607            4 
 1896000   0.92389649   -7.2819386    620.05231  0.027252651  0.027334806            2 
 1897000   0.93850407   -7.2709111    619.01737  0.027192821  0.027328036            5 
 1898000   0.93902486   -7.2838695    619.61128   0.02720457  0.027321209            1 
 1899000   0.97237725    -7.260137    619.75546  0.027196571   0.02731448            4 
 1900000   0.93771801   -7.2682294    620.82643  0.027229229  0.027307717            2 
 1901000   0.93750767   -7.2917409    618.83202  0.027127477  0.027300852            2 
 1902000   0.93606045   -7.2823411    622.39228  0.027269202  0.027294066            9 
 1903000   0.93629934   -7.2862052    620.58268   0.02717563   0.02728727            3 
 1904000   0.97411367   -7.2717038    622.21882  0.027232966  0.027280455            1 
 1905000   0.95007875   -7.3030493    622.33779  0.027223875  0.027273753            2 
 1906000   0.96069189   -7.2747276    621.80901  0.027186473  0.027267064            4 
 1907000    0.9601699   -7.2795137    621.01883  0.027137687  0.027260262            2 
 1908000   0.95904979   -7.2941502    622.36126  0.027182095  0.027253548            5 
 1909000   0.94641253   -7.2666036    622.94555  0.027193362  0.027246776            4 
 1910000   0.95674087   -7.2622815    622.73561  0.027169966  0.027240113            3 
 1911000   0.92949245   -7.2747105    622.46328  0.027143872  0.027233381            2 
 1912000   0.94345857   -7.2843727    623.97143  0.027195408  0.027226727            3 
 1913000   0.92623324   -7.3199309    623.19346  0.027147302  0.027220075            2 
 1914000   0.95234991    -7.289542      625.332  0.027226228  0.027213416            1 
 1915000    0.9594105   -7.3214528    623.08427  0.027114198  0.027206771            7 
 1916000   0.92876806   -7.2907932    625.64368  0.027211364   0.02720015            2 
 1917000    0.9364123   -7.3013059    625.30965  0.027182649  0.027193626            2 
 1918000   0.97720075   -7.2812342    626.45281  0.027218144  0.027187171            3 
 1919000   0.94221898   -7.2842698    625.60495  0.027167142  0.027180755            2 
 1920000    0.9371944   -7.3100106    626.28553  0.027182532  0.027174236            2 
 1921000   0.93890426   -7.2687021    627.28205  0.027211611  0.027167676            2 
 1922000   0.94554143   -7.3090001    626.88878  0.027180402  0.027161133            3 
 1923000   0.96179338   -7.3144279     627.4115  0.027188919  0.027154678            1 
 1924000   0.94053333   -7.3113042    627.60534  0.027183183  0.027148218            2 
 1925000   0.92418702   -7.2921831    627.56236  0.027167202   0.02714181            3 
 1926000   0.92973633   -7.3070466    627.11708   0.02713383  0.027135333            2 
 1927000   0.92743669   -7.2923883    626.87977  0.027109487  0.027128774            1 
 1928000   0.92243093   -7.2705082     628.5235  0.027166472  0.027122321            1 
 1929000   0.95313188   -7.2634072    628.13288  0.027135514  0.027115851            2 
 1930000   0.91921318    -7.305267    627.40332  0.027089953  0.027109377            3 
 1931000   0.93882497   -7.2892883    629.06617  0.027147686  0.027102913            2 
 1932000   0.95045296   -7.2850133    628.09165    0.0270916    0.0270965            1 
 1933000    0.9393676    -7.288935    629.05304  0.027119031  0.027090087            2 
 1934000   0.95171026   -7.2853531    628.68246  0.027089041  0.027083608            4 
 1935000   0.93929396   -7.3087291    629.22469  0.027098393   0.02707715            4 
 1936000   0.93411299   -7.3284522    628.18495  0.027039641  0.027070628            2 
 1937000    0.9501773   -7.2678648    629.11741  0.027065798  0.027064156            2 
 1938000   0.93719604   -7.2956893    628.64528  0.027031531  0.027057703            2 
 1939000   0.94033485   -7.3382682    628.14843  0.026996236  0.027051221            2 
 1940000    0.9482828   -7.3147601    630.22833  0.027071664   0.02704473            4 
 1941000   0.94311123   -7.2947358    629.51338  0.027027021  0.027038256            3 
 1942000   0.96665649   -7.3186027    630.92716  0.027073771  0.027031815            5 
 1943000   0.92640747   -7.3005642    629.56434  0.027001387  0.027025381            4 
 1944000   0.93622637   -7.2929447    631.53296  0.027071886  0.027018963            2 
 1945000   0.93811998   -7.3028557    631.11585  0.027040096  0.027012502            2 
 1946000   0.94357873   -7.3209837    631.09058  0.027025119  0.027006102            5 
 1947000   0.93065722   -7.3063792    631.33651  0.027021765  0.026999635            4 
 1948000   0.93123166   -7.3228047    630.35538  0.026965921   0.02699308            4 
 1949000   0.95469444   -7.3246049    630.41607   0.02695468  0.026986554            1 
 1950000   0.95481663   -7.2798218    632.33153  0.027022715  0.026980058            3 
 1951000   0.92470888    -7.280242    631.16419  0.026959004  0.026973576            2 
 1952000   0.92521125   -7.3202738    632.50961   0.02700263  0.026967135            1 
 1953000   0.96438161   -7.3032689    633.49149    0.0270307    0.0269607            2 
 1954000   0.94178879   -7.3180926     632.6653  0.026981632   0.02695424            3 
 1955000    0.9507049   -7.3225204     632.5295  0.026962042  0.026947854            2 
 1956000   0.94013906   -7.2926827    632.18005   0.02693337  0.026941439            5 
 1957000   0.94214984   -7.3051199    633.02365  0.026955529     0.026935            4 
 1958000   0.94436145    -7.326367    632.24898  0.026908792  0.026928442            4 
 1959000   0.94694145   -7.3311979    633.69808  0.026956699  0.026921953            6 
 1960000   0.91973345   -7.3010089    632.78417  0.026904089  0.026915494            2 
 1961000   0.95187473   -7.3173464    632.79419  0.026890795  0.026909049            2 
 1962000   0.93513956   -7.3165615    634.74335  0.026959877  0.026902606            2 
 1963000   0.93019468   -7.3263834    633.16261  0.026879037  0.026896153            3 
 1964000   0.93533687    -7.335049    634.42352  0.026918853  0.026889799            5 
 1965000   0.94776655   -7.2896904    635.01674  0.026930311  0.026883376            2 
 1966000   0.92802626   -7.3613641    635.90308  0.026954183  0.026877003            3 
 1967000   0.92905892   -7.3332089    635.06864  0.026905128  0.026870601            3 
 1968000   0.91771847   -7.2993825    635.42067  0.026906363  0.026864184            2 
 1969000   0.94966912   -7.3237822    635.32724  0.026888744  0.026857723            1 
 1970000   0.94075206   -7.2922839    636.41947  0.026921297  0.026851252           10 
 1971000   0.94893553    -7.273552    636.31577  0.026903254  0.026844791            5 
 1972000   0.93211755   -7.3105777    634.27544  0.026803391  0.026838298            3 
 1973000   0.92666647    -7.297852    635.49944  0.026841503  0.026831763            1 
 1974000   0.93225065   -7.2850546    636.92062  0.026887902  0.026825236            4 
 1975000   0.94005544   -7.3023343    636.13764  0.026841251  0.026818772            3 
 1976000   0.92996304   -7.3196367    633.76346  0.026727541  0.026812163            4 
 1977000   0.93656307   -7.3232912    634.03615  0.026725516  0.026805499            4 
 1978000   0.93939159   -7.3136113    636.36031  0.026809922  0.026798881            3 
 1979000   0.95493662   -7.3538013    635.22669   0.02674864  0.026792329            3 
 1980000   0.94080111   -7.2975677    635.22908  0.026735231  0.026785756            4 
 1981000   0.92582807   -7.3102815    633.85032  0.026663735  0.026779173            3 
 1982000   0.90416877   -7.3358628    633.48342  0.026634856  0.026772545            2 
 1983000    0.9449569   -7.3343495     636.4677  0.026746836  0.026765835            6 
 1984000   0.94697907    -7.336801    634.73242  0.026660468  0.026759094            3 
 1985000   0.95455457   -7.3360575    634.55966  0.026639784  0.026752379            1 
 1986000   0.94271285   -7.3078675    635.96886  0.026685501  0.026745697            3 
 1987000   0.92761026   -7.2865571    637.26054  0.026726243  0.026739086            5 
 1988000   0.91129497   -7.3456972    635.92465  0.026656801  0.026732429            2 
 1989000   0.93637436   -7.3033342    636.24388  0.026656774  0.026725746            4 
 1990000   0.92983945   -7.3306314    638.09376  0.026720844  0.026719079            4 
 1991000   0.94636238    -7.335353    638.91678  0.026741871  0.026712499            4 
 1992000    0.9387438   -7.3667484    638.56178  0.026713595  0.026705912            3 
 1993000   0.92335887   -7.3320202    638.20683   0.02668535  0.026699294            2 
 1994000   0.92635325   -7.3169264    638.21773  0.026672423  0.026692697            4 
 1995000   0.92631625   -7.3047582    637.71434  0.026638026  0.026686155            2 
 1996000   0.90041461   -7.3562309    638.46479  0.026656012  0.026679556            3 
 1997000   0.94514084   -7.3395307    637.03056  0.026582814  0.026672881            2 
 1998000   0.93840821   -7.3182384    638.34328  0.026624261  0.026666243            3 
 1999000   0.94635369   -7.2962443    637.14016  0.026560787  0.026659598            2 
 2000000   0.93399404   -7.2893455     639.6377  0.026651571  0.026652932            5 
 2001000   0.90897041   -7.3328966     637.6511  0.026555518  0.026646326            2 
 2002000   0.92981752   -7.3401082    636.34352  0.026487825  0.026639699            6 
 2003000   0.92114208   -7.3367949    638.23374  0.026553243  0.026632938            3 
 2004000   0.95137142   -7.3354408    635.63453  0.026431908  0.026626176            3 
 2005000   0.94598987   -7.3361084    639.97117  0.026598968  0.026619438            4 
 2006000   0.91993345   -7.3187232    638.65162  0.026530892  0.026612726            3 
 2007000   0.89710781   -7.3136954    639.58933  0.026556607  0.026606009            3 
 2008000   0.94743063   -7.3148061    639.90447   0.02655646  0.026599279            3 
 2009000   0.94758575   -7.3077701    639.60212    0.0265307  0.026592577            3 
 2010000   0.93886009   -7.3003274     639.1308   0.02649796  0.026585908            6 
 2011000   0.92151163   -7.3447886    640.64907  0.026547699  0.026579168            2 
 2012000   0.92749519   -7.3532519    639.31958  0.026479439  0.026572455            2 
 2013000   0.92074599   -7.3223995    640.37716  0.026510066  0.026565746            2 
 2014000   0.92619674   -7.3350652    641.11302  0.026527351  0.026559056            4 
 2015000   0.92868967   -7.3135146    638.72415  0.026415391  0.026552293            6 
 2016000   0.92525101   -7.3551432    639.13771  0.026419383   0.02654551            2 
 2017000   0.94167506   -7.3290134    639.38225  0.026416388   0.02653876            6 
 2018000   0.93598082   -7.3110368    641.33014  0.026483736  0.026532026            5 
 2019000   0.91967702   -7.2751817    642.52832  0.026520073  0.026525362            2 
 2020000    0.9263265   -7.3393918    640.33872  0.026416614  0.026518615            4 
 2021000    0.9191997    -7.329777     641.7764  0.026462824   0.02651186            3 
 2022000   0.91927897   -7.2655087    643.39341  0.026516378  0.026505132            3 
 2023000   0.91000139   -7.3153646    642.42179  0.026463247  0.026498406            4 
 2024000   0.93425602   -7.3189353    641.69009  0.026420047  0.026491726            2 
 2025000   0.91947683   -7.3375727    642.39493  0.026436005  0.026485024            2 
 2026000    0.9147989   -7.3137276    642.36572  0.026421756    0.0264783            2 
 2027000   0.93002637   -7.3458441    641.86326  0.026388063  0.026471579            2 
 2028000   0.92333857   -7.3426019    642.00682  0.026380951  0.026464931            2 
 2029000   0.92213433   -7.3228044    643.36595   0.02642377  0.026458243            2 
 2030000   0.90355005   -7.3187572    644.40719  0.026453497   0.02645161            1 
 2031000    0.9451774   -7.3269307     643.4857  0.026402663  0.026445003            2 
 2032000   0.90738592   -7.3345007    642.83732  0.026363079   0.02643834            2 
 2033000   0.91990803   -7.3618123    642.74551  0.026346348  0.026431594            3 
 2034000   0.93814764   -7.3350961    643.84656  0.026378505  0.026424903            2 
 2035000   0.94993396   -7.3280724    645.66824  0.026440141  0.026418218            2 
 2036000   0.93379061   -7.3431745    645.60263  0.026424469  0.026411595            3 
 2037000   0.92690047   -7.3185366    645.53721  0.026408821  0.026405013            2 
 2038000   0.93341071   -7.3219286    645.83723   0.02640813  0.026398472            5 
 2039000    0.9157795   -7.3576556    646.43231  0.026419499  0.026391819            3 
 2040000   0.90394134   -7.3496411     644.3083  0.026319783  0.026385124            2 
 2041000   0.92292599   -7.3227944    643.83399  0.026287522  0.026378411            2 
 2042000   0.91387948   -7.3368728    646.49383  0.026383196  0.026371759            3 
 2043000    0.9214364   -7.3648252    644.44563  0.026286736  0.026365143            3 
 2044000   0.93085293   -7.3169784    646.61516  0.026362327   0.02635846            3 
 2045000   0.91726241    -7.339324      646.165  0.026331092  0.026351832            4 
 2046000   0.95216137   -7.3407392    646.42061  0.026328634  0.026345135            2 
 2047000   0.90586967   -7.3359551    645.64182  0.026284067  0.026338485            2 
 2048000   0.92445736   -7.3271839    645.92304  0.026282676   0.02633178            2 
 2049000   0.93542891   -7.3444423    645.21267  0.026240958  0.026325134            3 
 2050000    0.9191575   -7.3195301    645.20375  0.026227795  0.026318472            2 
 2051000   0.93045141   -7.3174246      648.181  0.026335974  0.026311863            2 
 2052000   0.90208946   -7.3540397    646.91549  0.026271747  0.026305169            3 
 2053000   0.92422429    -7.341471    645.94696  0.026219636  0.026298438            3 
 2054000   0.92479952   -7.3091427    646.67738  0.026236505  0.026291771            2 
 2055000   0.92608741   -7.3190239    648.81699  0.026310503  0.026285098            1 
 2056000   0.92688405   -7.3788112    645.59531  0.026167125  0.026278399            3 
 2057000   0.93513335   -7.3686838     647.0559  0.026213576  0.026271731            4 
 2058000   0.93434258   -7.3622352    647.62014  0.026223686  0.026265021            2 
 2059000   0.92704761    -7.310125    647.97276  0.026225221  0.026258353            4 
 2060000   0.93013176   -7.3416668    648.84682  0.026247849  0.026251662            1 
 2061000   0.90825073   -7.2951005     648.4127   0.02621756   0.02624495            3 
 2062000   0.92264784   -7.3448098    646.81446  0.026140255  0.026238292            4 
 2063000   0.93046704   -7.3291413    648.25871  0.026185923  0.026231594            3 
 2064000   0.92294826    -7.363216    648.52912  0.026184154  0.026224924            2 
 2065000   0.92333449   -7.3558169    649.42722  0.026207717   0.02621826            1 
 2066000   0.95077661   -7.3536261    649.14183   0.02618352  0.026211609            5 
 2067000   0.92399585   -7.3549985    648.35691  0.026139208  0.026205002            4 
 2068000   0.93610424    -7.346837    648.35744  0.026126589  0.026198306            2 
 2069000   0.91179894   -7.3252559    649.99518  0.026179925  0.026191678            2 
 2070000   0.91494775   -7.3783407    649.95591  0.026165697  0.026185022            1 
 2071000   0.91606961   -7.3410916    649.91779  0.026151529  0.026178371            2 
 2072000   0.93261752   -7.3747482    649.38362  0.026117424  0.026171706            6 
 2073000   0.92680676    -7.335918    652.94056  0.026247812  0.026165084            2 
 2074000    0.9148918   -7.3359075    650.93776  0.026154683  0.026158534            2 
 2075000   0.92293221   -7.3707894    649.71508  0.026092975  0.026151916            2 
 2076000   0.92182804   -7.3749298    649.86406  0.026086386  0.026145273            2 
 2077000   0.93786966   -7.3695673     650.1451  0.026085103  0.026138601            1 
 2078000   0.94538604   -7.3341011    651.83023  0.026140128  0.026131966            2 
 2079000   0.91509429   -7.3734065    650.73538  0.026083669  0.026125406            2 
 2080000   0.93920212   -7.3667298    651.78743  0.026113279   0.02611885            4 
 2081000   0.89644553   -7.3469568    652.49205  0.026128947  0.026112311            2 
 2082000   0.92010271   -7.3731488    652.00368  0.026096849  0.026105783            3 
 2083000   0.92792813   -7.3530896    651.66464  0.026070757  0.026099242            2 
 2084000   0.94115478   -7.3630532     653.6328  0.026136948  0.026092691            2 
 2085000   0.92774496   -7.3587445    653.01792  0.026099837  0.026086132            3 
 2086000   0.93205779   -7.3515342     651.7016   0.02603474  0.026079596            1 
 2087000   0.92718124   -7.4016017    652.39607  0.026049995  0.026073062            2 
 2088000   0.94619199   -7.3726294    652.66259  0.026048156  0.026066519            3 
 2089000   0.92653715   -7.3581591    652.08524  0.026012655   0.02605996            2 
 2090000   0.89407329   -7.3869693    651.35252  0.025970993  0.026053353            5 
 2091000   0.90533996   -7.3532058    653.13178  0.026029483  0.026046775            1 
 2092000   0.91360208   -7.3393924    652.21449  0.025980501  0.026040135            3 
 2093000   0.88984261   -7.3485103    654.45817   0.02605742  0.026033461            2 
 2094000   0.93994268   -7.3919522    652.39614  0.025962916  0.026026779            1 
 2095000   0.88774007   -7.3768141    653.71747  0.026003081  0.026020082            2 
 2096000   0.92420524    -7.349642    653.45549   0.02598026  0.026013411            1 
 2097000   0.92558616   -7.3230478    654.42259  0.026006302  0.026006766            4 
 2098000   0.91442328   -7.3358111    652.98826  0.025936934  0.026000146            3 
 2099000   0.91061674   -7.3724214    654.76725  0.025995206  0.025993469            2 
 2100000   0.91634927    -7.354586    654.14981  0.025958326  0.025986768            2 
 2101000   0.92371512    -7.387159    653.83665  0.025933549  0.025980132            3 
 2102000   0.93245652   -7.3267103    654.35643  0.025941819  0.025973537            3 
 2103000   0.92146882   -7.3757899    653.63496  0.025900894  0.025966978            5 
 2104000   0.90601893   -7.3456183    654.42234   0.02591977  0.025960361            2 
 2105000   0.92366217   -7.3645885     654.8679  0.025925095  0.025953733            3 
 2106000   0.90523807   -7.3790522    655.75046  0.025947707   0.02594718            2 
 2107000   0.90292171    -7.366372    655.70329  0.025933527   0.02594057            2 
 2108000   0.89298126   -7.3308393     655.4417  0.025910883  0.025933927            3 
 2109000   0.89462667   -7.3527055    657.01035  0.025960579  0.025927309            4 
 2110000   0.90333641   -7.3540744    655.57885   0.02589174  0.025920734            2 
 2111000   0.87911125   -7.3668646    655.40662  0.025872676   0.02591412            3 
 2112000   0.90749503    -7.358486    656.40577  0.025899849  0.025907436            2 
 2113000   0.91548591     -7.34856    654.76948  0.025823059  0.025900812            2 
 2114000   0.92145034   -7.3487898    656.92534  0.025895827  0.025894211            3 
 2115000    0.9100197   -7.3511292    656.66575  0.025873355  0.025887544            2 
 2116000   0.89536471   -7.3577642    655.82081  0.025827852  0.025880835            2 
 2117000    0.9358041     -7.37869    655.38928  0.025798665  0.025874215            2 
 2118000   0.94109017   -7.3545614    655.71095   0.02579914  0.025867562            3 
 2119000   0.90406087   -7.3763747    657.21321  0.025846044  0.025860878            3 
 2120000   0.91718202    -7.373781     656.2526  0.025796093  0.025854216            1 
 2121000   0.91671856   -7.3665039    657.35133  0.025827099  0.025847524            2 
 2122000   0.89818571    -7.410071    656.53474   0.02578286  0.025840793            7 
 2123000   0.90897805   -7.3944016    656.67106  0.025776066  0.025834093            2 
 2124000   0.92282029   -7.4133763    655.01858  0.025699097  0.025827323            2 
 2125000    0.9110174    -7.371878    654.56514  0.025669221  0.025820569            3 
 2126000   0.90804659   -7.4082682    657.05376  0.025754694  0.025813805            2 
 2127000    0.9081368   -7.3996579    656.04529  0.025703075   0.02580704            2 
 2128000    0.9062203   -7.3719697    656.49545  0.025708625  0.025800234            3 
 2129000    0.8940574   -7.3339201    657.18752  0.025723639  0.025793508            2 
 2130000   0.90817354   -7.3330011    657.50593  0.025724019  0.025786798            1 
 2131000   0.88769619   -7.3258591    658.23611  0.025740502    0.0257802            1 
 2132000   0.88953009   -7.3891786    656.13149  0.025646165  0.025773445            3 
 2133000   0.91860814   -7.3501803     658.5793  0.025729774  0.025766686            2 
 2134000   0.89702966   -7.3418416    659.83358  0.025766697  0.025759942            4 
 2135000   0.91703906    -7.360799    658.42408  0.025699613  0.025753214            1 
 2136000   0.91845066   -7.3705067    657.71456    0.0256599  0.025746421            2 
 2137000   0.89591684   -7.3626601    659.78177  0.025728505  0.025739665            4 
 2138000   0.90971346   -7.4076971     656.9086  0.025604482  0.025732834            3 
 2139000   0.91164872   -7.3623763     658.7306  0.025663495  0.025726056            4 
 2140000   0.91650772   -7.3756027    658.67019  0.025649151  0.025719306            3 
 2141000   0.93119998   -7.3609177    660.90441  0.025724133  0.025712581            2 
 2142000   0.91287235   -7.3650439     660.3066  0.025688865  0.025705905            2 
 2143000   0.91148749   -7.3749483    660.03414  0.025666283  0.025699267            2 
 2144000   0.90390995   -7.3845651    658.49985  0.025594677  0.025692578            3 
 2145000   0.90613162   -7.4206349    660.35097  0.025654661  0.025685872            2 
 2146000   0.92046613   -7.4029053    659.71657  0.025618071  0.025679194            3 
 2147000   0.89425827   -7.3963384    661.93376  0.025692197  0.025672535            4 
 2148000   0.91071192   -7.3907126    660.61864  0.025629215   0.02566587            3 
 2149000   0.90450329   -7.3613245    661.80126  0.025663148  0.025659269            4 
 2150000   0.92121579   -7.3843594    661.85297  0.025653216  0.025652685            2 
 2151000   0.90801012   -7.3663798    661.73958  0.025636897  0.025646043            1 
 2152000   0.90590651   -7.3762563    660.06223  0.025560031  0.025639377            4 
 2153000   0.91201759   -7.4035105    661.88076  0.025618546  0.025632734            4 
 2154000    0.9222232   -7.3700509    662.14851  0.025617011  0.025626072            2 
 2155000   0.91078244   -7.3918453    662.21054  0.025607523  0.025619408            6 
 2156000   0.88584069   -7.3636666    662.44064  0.025604539  0.025612789            2 
 2157000   0.89599652   -7.3763994     662.6374  0.025600271  0.025606064            4 
 2158000   0.93177378   -7.3677719    661.48436  0.025543882  0.025599337            4 
 2159000   0.93089925   -7.3661151    660.53167  0.025495278  0.025592601            6 
 2160000   0.90220453   -7.3895378    660.19652  0.025470545   0.02558585            2 
 2161000     0.901986   -7.3905493    662.37694   0.02554284  0.025579041            3 
 2162000   0.90234209   -7.3969089     662.4048    0.0255321  0.025572263            3 
 2163000   0.89110084   -7.3856567     661.6246  0.025490237  0.025565436            1 
 2164000     0.909382   -7.3598401    661.98148  0.025492201  0.025558706            1 
 2165000   0.91338863   -7.3972008    659.84743  0.025398284  0.025551905            2 
 2166000   0.91239513   -7.3667442    662.16426  0.025475695  0.025545122            2 
 2167000   0.91961326   -7.3713836    662.19154  0.025464988   0.02553832            2 
 2168000   0.91441076   -7.3595631     661.9766   0.02544498  0.025531497            2 
 2169000   0.89257266   -7.3805641    661.81567  0.025427066  0.025524704            3 
 2170000   0.91129941     -7.42463      662.281  0.025433218  0.025517835            3 
 2171000   0.89433128   -7.3787314     662.7905   0.02544106  0.025510946            4 
 2172000   0.90141029   -7.3956928    661.59676  0.025383546   0.02550402            4 
 2173000   0.89262966   -7.4003804    663.60883  0.025449027  0.025497133            2 
 2174000   0.91547666   -7.3437354    662.23109   0.02538451  0.025490365            4 
 2175000   0.90260164   -7.3941907    660.66019  0.025312651   0.02548354            5 
 2176000   0.90000121   -7.3384685    663.35896  0.025404372  0.025476716            2 
 2177000   0.87703085   -7.3778273    662.81792  0.025371992  0.025469872            2 
 2178000   0.92366661   -7.4169628     662.6073  0.025352284  0.025462998            3 
 2179000   0.90426546   -7.4081551    662.08383   0.02532063  0.025456086            1 
 2180000   0.89424648   -7.3798439    664.11896   0.02538681  0.025449195            3 
 2181000   0.90857132   -7.3652403    662.13505  0.025299368  0.025442363            4 
 2182000   0.91702622   -7.3633617    662.85312  0.025315197  0.025435502            2 
 2183000   0.91322982   -7.3746523    662.54893  0.025291988  0.025428584            7 
 2184000   0.89514129   -7.3968339    662.23507  0.025268432  0.025421693            2 
 2185000   0.90530343   -7.4009019    664.33897  0.025337108  0.025414818            2 
 2186000   0.88914711    -7.355933    664.72614  0.025340277  0.025407996            2 
 2187000    0.9089484   -7.3710699    663.56596  0.025284482  0.025401082            2 
 2188000   0.90048014   -7.3779121    664.12881  0.025294364  0.025394139            4 
 2189000   0.91501968   -7.4107435    663.17196  0.025246382  0.025387202            2 
 2190000    0.9006131     -7.39476    663.61648  0.025251769  0.025380178            6 
 2191000   0.89366809   -7.3953099      662.196  0.025186216  0.025373186            3 
 2192000   0.91011238   -7.4155165    661.69377  0.025155633  0.025366206            2 
 2193000   0.91356954    -7.375355    664.73778  0.025259834  0.025359233            2 
 2194000   0.90044919    -7.407919    666.48175   0.02531456  0.025352331            2 
 2195000   0.90785826   -7.3670946    664.10513  0.025212799  0.025345403            2 
 2196000   0.88897473   -7.3672503    666.34703  0.025286393  0.025338555            3 
 2197000   0.88930916   -7.3772264    665.57035  0.025245424   0.02533174            2 
 2198000   0.87983858   -7.4076715    663.99412  0.025174178  0.025324847            2 
 2199000   0.89789221   -7.4065779      665.896  0.025234804  0.025318028            3 
 2200000   0.88652864   -7.3900479    666.93947  0.025262859  0.025311205            2 
 2201000   0.89715438   -7.3905362     665.2716  0.025188233  0.025304374            2 
 2202000   0.91049334   -7.4057993     665.5574   0.02518761  0.025297577            3 
 2203000    0.8935514   -7.3758818    667.11858  0.025235231  0.025290782            2 
 2204000   0.90022894   -7.3886314    666.90213  0.025215598  0.025284034            2 
 2205000   0.90232464   -7.4216134    667.61585  0.025231136  0.025277271            2 
 2206000   0.90738389   -7.3710543     667.9937  0.025233972  0.025270517            8 
 2207000   0.88581667   -7.3547767    667.23921   0.02519405  0.025263788            3 
 2208000   0.90343984   -7.3743324    668.11956  0.025215865  0.025257067            2 
 2209000   0.88427226   -7.4175958    668.08235  0.025203046  0.025250379            3 
 2210000   0.89642567   -7.4123017    669.99193  0.025263647  0.025243603            3 
 2211000   0.91368615   -7.3889604    670.05417  0.025254567  0.025236875            4 
 2212000   0.90809754   -7.3924333    667.80886  0.025158562  0.025230159            3 
 2213000   0.91473029   -7.4041329    666.86621  0.025111696   0.02522343            5 
 2214000   0.89522378   -7.4016145    667.66198  0.025130306   0.02521668            2 
 2215000   0.89248523   -7.3989137    668.46482  0.025149165  0.025210022            2 
 2216000     0.901282   -7.3719006    669.82049  0.025188797   0.02520334            3 
 2217000   0.90250333   -7.3563328    669.43049  0.025162776  0.025196667            6 
 2218000   0.90520173    -7.387994    670.02479   0.02517376  0.025190069            5 
 2219000   0.90405188    -7.375658    670.26711  0.025171515  0.025183439            2 
 2220000   0.91445003   -7.3953516     670.4731  0.025167909  0.025176819            2 
 2221000   0.88548072   -7.3785343    672.42882  0.025229957  0.025170186            2 
 2222000   0.88385562   -7.4031328    670.43384  0.025143783   0.02516357            4 
 2223000   0.90061232    -7.400745    672.27749  0.025201585  0.025156953            3 
 2224000   0.90553722   -7.3683896     670.5426  0.025125247  0.025150327            2 
 2225000   0.88374717   -7.3964259    672.22942  0.025177132  0.025143704            2 
 2226000   0.87636507    -7.421345    672.36207  0.025170787  0.025137076            2 
 2227000   0.90233024   -7.4154969    670.37254  0.025085037  0.025130408            2 
 2228000   0.89163652   -7.3907781    670.47801  0.025077723  0.025123809            3 
 2229000   0.90729303   -7.4191323    670.80489  0.025078693  0.025117141            4 
 2230000   0.88802968   -7.4094392    670.32494  0.025049512  0.025110396            6 
 2231000   0.90291927   -7.4016881    672.45915  0.025118002  0.025103699            3 
 2232000   0.90411703   -7.4040409    671.30224  0.025063554  0.025096982            3 
 2233000   0.89817504   -7.4437755    672.54868  0.025098846  0.025090229            3 
 2234000   0.89522888   -7.3989325    671.92053   0.02506418  0.025083569            8 
 2235000   0.88930573   -7.4252574     672.3439  0.025068751  0.025076919            4 
 2236000   0.89499827   -7.3778051    673.78798  0.025111359  0.025070235            1 
 2237000   0.89188634   -7.3835236    672.79846  0.025063271  0.025063678            2 
 2238000   0.89528355   -7.4219369     672.5229  0.025041812  0.025057069            1 
 2239000   0.90698897    -7.393729    672.18606  0.025018091  0.025050396            2 
 2240000   0.90429307   -7.4066593     673.4155   0.02505266  0.025043738            2 
 2241000   0.89426611   -7.3872642    673.69983  0.025052054  0.025037127            3 
 2242000   0.90868982   -7.4233849    672.09778  0.024981333  0.025030478            1 
 2243000   0.89894331   -7.4016084     670.5671  0.024913327  0.025023786            3 
 2244000   0.90480497   -7.4164931    673.25728  0.025002127  0.025017074            1 
 2245000     0.904335   -7.4230378    671.14864  0.024912719  0.025010351            9 
 2246000   0.89791762   -7.4264082    671.15881  0.024902004  0.025003615            4 
 2247000   0.88952834   -7.3886983    673.20929  0.024966967  0.024996868            3 
 2248000    0.8965585   -7.4111822     671.5432  0.024894099   0.02499016            3 
 2249000   0.88943118   -7.3969909    671.82277  0.024893388  0.024983407            1 
 2250000   0.90247543   -7.4224646    673.16139  0.024931903  0.024976675            3 
 2251000    0.8699088    -7.404738     674.4073  0.024966952  0.024969917            3 
 2252000   0.90649501   -7.4141121    672.61567  0.024889568  0.024963143            3 
 2253000   0.89053424   -7.3924143     673.3897   0.02490715  0.024956372            6 
 2254000   0.88294447   -7.3964253    673.95425  0.024916972  0.024949588            3 
 2255000   0.88691388   -7.4237262    673.55747  0.024891259  0.024942795            2 
 2256000   0.88594425   -7.3972764     673.2154   0.02486759  0.024936044            1 
 2257000   0.89936287   -7.4046532    673.33679  0.024861054  0.024929307            3 
 2258000   0.89318703   -7.4090392    673.70319  0.024863566  0.024922592            3 
 2259000   0.90345676   -7.4181653    673.01734  0.024827259  0.024915926            2 
 2260000   0.91164616   -7.4329929    674.51855  0.024871628  0.024909206            2 
 2261000   0.89182018   -7.3880299    675.27279  0.024888427  0.024902546            6 
 2262000   0.88163597   -7.4147807    674.35869  0.024843748  0.024895911            3 
 2263000   0.90665981   -7.4114869    674.95701  0.024854802  0.024889275            3 
 2264000   0.87915983     -7.43007    674.87835  0.024840929  0.024882576            2 
 2265000   0.87273415   -7.4345518    674.42483  0.024813275  0.024875919            3 
 2266000   0.89734999   -7.4086788    674.44334  0.024803006  0.024869252            1 
 2267000   0.87412877   -7.4214701     676.7584  0.024877165   0.02486255            2 
 2268000   0.89184616   -7.4213513    675.94762  0.024836406  0.024855868            3 
 2269000   0.87528904   -7.4399051    674.40179  0.024768686  0.024849152            3 
 2270000   0.88387116   -7.4229654    673.31527  0.024717888  0.024842392            2 
 2271000   0.90075473   -7.3810998    676.91431  0.024839069    0.0248357            2 
 2272000   0.89550542   -7.3956742    675.43313  0.024773809  0.024829057            2 
 2273000   0.87923087   -7.4318194    676.22536  0.024791955  0.024822292            1 
 2274000   0.89426491   -7.3916788    676.28502  0.024783239  0.024815583            1 
 2275000   0.88820866   -7.4462354    676.29491  0.024772707  0.024808864            4 
 2276000   0.88203219   -7.4191062    674.56605  0.024698523  0.024802165            2 
 2277000   0.90327877   -7.4153756    676.77933  0.024768677   0.02479546            3 
 2278000   0.85715133   -7.4233658    676.02095  0.024730061  0.024788705            6 
 2279000   0.90618862   -7.3860234    675.48686   0.02469968  0.024781998            3 
 2280000   0.88868294   -7.3983285    675.86486  0.024702663  0.024775292            4 
 2281000   0.89571245   -7.4151499    675.25198  0.024669442  0.024768613            2 
 2282000   0.88204689    -7.399757    678.59773  0.024780811   0.02476197            2 
 2283000   0.88430179   -7.4196832    676.03495  0.024676411  0.024755369            6 
 2284000   0.89302152   -7.4172357     677.6451  0.024724354   0.02474871            3 
 2285000   0.87851902   -7.4496833    676.54675  0.024673477  0.024742016            2 
 2286000   0.89345288    -7.425128    678.21783  0.024723601  0.024735412            2 
 2287000   0.91531133   -7.4263473    677.39679  0.024682874  0.024728798            3 
 2288000   0.89121645   -7.4172814    679.91315  0.024763737  0.024722226            3 
 2289000    0.8788497   -7.4272281    679.85912  0.024750951  0.024715602            2 
 2290000   0.88780514   -7.4217375    679.70166  0.024734413  0.024708993            2 
 2291000   0.86440914   -7.4420932    678.37514  0.024675365  0.024702357            4 
 2292000   0.90286246   -7.4404898    679.01178  0.024687746  0.024695697            4 
 2293000   0.87559453   -7.4472962    677.80294  0.024633048  0.024689037            3 
 2294000     0.878552   -7.4153622    678.21083  0.024637127  0.024682386            2 
 2295000   0.88932485   -7.3769832    679.11617  0.024659265  0.024675763            2 
 2296000   0.90611953   -7.4443874      679.957  0.024679043   0.02466912            4 
 2297000   0.87162283   -7.4440023    677.29357  0.024571672  0.024662401            2 
 2298000   0.89165149   -7.4292865    678.69216  0.024611697  0.024655706            3 
 2299000    0.8977988   -7.4446198    679.99865  0.024648349  0.024649045            2 
 2300000   0.88810395   -7.4461162      681.386  0.024687898  0.024642364            2 
 2301000   0.88137008   -7.4410591    678.77192  0.024582497  0.024635714            1 
 2302000   0.90509677   -7.4309733    679.88432  0.024612088   0.02462906            4 
 2303000   0.88865724    -7.416722    681.26512  0.024651365  0.024622387            2 
 2304000   0.88037222    -7.437297    678.79098  0.024551179  0.024615727            4 
 2305000    0.8805963   -7.4121529    681.09555  0.024623845   0.02460907            4 
 2306000   0.86944989   -7.4376778    679.50691  0.024555757   0.02460238            2 
 2307000   0.89802191   -7.4303066    680.67907  0.024587454  0.024595681            3 
 2308000   0.86022558   -7.4308343    680.28197  0.024562463  0.024588958            2 
 2309000   0.87994597   -7.4394289    680.63098  0.024564421  0.024582223            6 
 2310000   0.86816628   -7.3917038    680.87262  0.024562504  0.024575579            3 
 2311000   0.87246469   -7.4465376    680.63059  0.024543148  0.024568882            3 
 2312000   0.89145313   -7.4346763    679.53405  0.024493009  0.024562208            1 
 2313000   0.89897552   -7.3752403    680.84535  0.024529664  0.024555541            4 
 2314000   0.87563619    -7.430783    680.29255  0.024499155  0.024548888            2 
 2315000   0.87622882   -7.3968194    680.06576  0.024480409  0.024542175            6 
 2316000   0.89887295   -7.4406659    679.69663  0.024456557  0.024535432            2 
 2317000   0.87952099   -7.4142039    682.32853  0.024540661  0.024528714            4 
 2318000   0.86605996   -7.4511268    680.68751  0.024471078  0.024521935            2 
 2319000   0.88503393   -7.4312889    682.00397  0.024507833  0.024515158            4 
 2320000   0.87734505   -7.4086231    679.39998  0.024403735  0.024508363            2 
 2321000   0.88482752   -7.3979986    681.31194  0.024461868  0.024501597            4 
 2322000   0.86549606   -7.4353042    681.91444  0.024472956  0.024494884            2 
 2323000   0.86663166   -7.4256619    681.34526  0.024442002  0.024488088            3 
 2324000    0.8875801   -7.4469101    680.89953  0.024415503   0.02448132            2 
 2325000   0.87529294   -7.4553942    681.23661  0.024417083  0.024474493            3 
 2326000   0.88647704   -7.4219792    681.27508  0.024407964  0.024467651            3 
 2327000   0.87100759   -7.4326786    681.39064  0.024401613  0.024460843            3 
 2328000    0.8830088   -7.4755595    677.87208   0.02426518  0.024454036            3 
 2329000   0.85997597   -7.4619098    680.19463  0.024337864  0.024447158            6 
 2330000   0.88590599   -7.4355166    680.11764  0.024324665  0.024440325            7 
 2331000   0.88677756   -7.4496118    680.63398  0.024332689  0.024433543            3 
 2332000   0.87766479   -7.3941924    681.39119  0.024349314  0.024426738            1 
 2333000   0.88171739   -7.4419731    681.80203  0.024353551  0.024419935            2 
 2334000   0.88792093   -7.4365355    681.67212  0.024338479  0.024413157            3 
 2335000   0.86952286   -7.4528876    681.89932  0.024336164  0.024406373            2 
 2336000   0.87952813   -7.4191357    679.98506  0.024257458  0.024399558            2 
 2337000    0.8712583   -7.4502644     680.2328  0.024255912   0.02439265            3 
 2338000    0.8667802   -7.4328303    681.39301  0.024286891  0.024385804            4 
 2339000   0.88463893   -7.4386166    683.01903  0.024334439  0.024379016            4 
 2340000   0.88025709   -7.4164973    682.77951   0.02431551  0.024372272            1 
 2341000   0.87575713   -7.4483579    682.53449  0.024296401  0.024365524            4 
 2342000   0.86900661   -7.4300321    683.45143  0.024318653  0.024358784            4 
 2343000   0.87121257   -7.4427575    682.25327  0.024265659  0.024351985            1 
 2344000    0.8877924   -7.4576852    681.93263  0.024243907  0.024345203            4 
 2345000   0.87257996   -7.4146608    682.65423  0.024259212   0.02433845            1 
 2346000   0.86831351   -7.4559699    681.78712  0.024218071  0.024331705            2 
 2347000    0.8649423   -7.4523844    681.53358  0.024198749  0.024324949            3 
 2348000   0.86995274   -7.4788954    681.07004  0.024171992  0.024318171            2 
 2349000   0.90497625   -7.4099013    684.24749  0.024274425  0.024311429            7 
 2350000   0.87902256   -7.4590529    684.31198  0.024266382  0.024304715            3 
 2351000    0.8793893   -7.4538229    684.29073  0.024255307  0.024297906            1 
 2352000    0.8752145   -7.4793819    682.13282  0.024168538  0.024291085            5 
 2353000   0.86754557   -7.4329326    684.36914  0.024237468  0.024284261            3 
 2354000   0.86999363   -7.4811028    683.53449  0.024197624  0.024277472            3 
 2355000   0.88225683   -7.4507242    684.40236   0.02421806  0.024270661            4 
 2356000   0.88140776   -7.4516969     683.2283  0.024166253  0.024263851            4 
 2357000   0.86645112   -7.4365347    686.57724  0.024274404  0.024257068            2 
 2358000   0.88530705   -7.4270382    686.18991  0.024250421  0.024250324            2 
 2359000   0.86910976   -7.4594757    685.59785  0.024219226  0.024243594            4 
 2360000   0.87808762   -7.4557927     685.0016   0.02418791  0.024236817            5 
 2361000   0.86619361   -7.5073865    682.98643  0.024106538  0.024229986            3 
 2362000   0.88180859   -7.4475981    685.54299  0.024186529    0.0242232            5 
 2363000   0.86847054   -7.4484432     687.0818  0.024230561  0.024216467            4 
 2364000   0.89078596    -7.457014    685.83982   0.02417653  0.024209725            5 
 2365000   0.88084612   -7.4653296    684.51704  0.024119698  0.024202948            2 
 2366000   0.88033919   -7.4311245    686.99651  0.024196834  0.024196181            2 
 2367000   0.85785601   -7.4684736    684.32177  0.024092444  0.024189406            3 
 2368000   0.86888369   -7.4235863    685.59098  0.024126935   0.02418263            3 
 2369000   0.86828227   -7.4453691    685.19959  0.024102983  0.024175868            2 
 2370000   0.90664012    -7.439823    683.96862   0.02404953  0.024169092            3 
 2371000   0.87507134   -7.4627723    685.93868  0.024108628  0.024162337            2 
 2372000   0.87518214   -7.4412856    686.07365  0.024103206  0.024155586            3 
 2373000   0.86575825   -7.4421881    685.93945  0.024088336   0.02414882            2 
 2374000   0.87645714   -7.4360205    686.97665  0.024114597  0.024142044            2 
 2375000   0.87248444   -7.4509894    685.98792  0.024069751  0.024135242            1 
 2376000   0.87518853     -7.47691    685.84419   0.02405458  0.024128486            3 
 2377000   0.88104516   -7.4606026    686.54018  0.024068861  0.024121689            2 
 2378000   0.86640226   -7.4644429     686.2249  0.024047691  0.024114896            2 
 2379000   0.87437617   -7.4613607    686.80089  0.024057758  0.024108122            2 
 2380000   0.87512749   -7.4465149     683.9106   0.02394645  0.024101371            1 
 2381000   0.88256065   -7.4516104    684.89987  0.023971016  0.024094599            6 
 2382000   0.87634895   -7.4456085    687.32969  0.024045959  0.024087832            2 
 2383000   0.86730439   -7.4379427    689.39109  0.024107955  0.024081106            2 
 2384000   0.88102325   -7.4379045    687.88845  0.024045318   0.02407439            3 
 2385000   0.85926081   -7.4302625    688.95508  0.024072505  0.024067699            1 
 2386000   0.88121473   -7.4613359    687.80814  0.024022358   0.02406098            1 
 2387000   0.86127696   -7.4610531    688.41181  0.024033369   0.02405427            3 
 2388000   0.87162064   -7.4651213    686.77557  0.023966205   0.02404755            2 
 2389000   0.86914254   -7.4451401    688.30218  0.024009425  0.024040857            3 
 2390000   0.88588654   -7.4766135    688.31349  0.023999773  0.024034147            5 
 2391000   0.87073661   -7.4617213    690.63444  0.024070627  0.024027444            4 
 2392000   0.86635875   -7.4701081    690.25228  0.024047251  0.024020749            3 
 2393000   0.88771338   -7.4805055    687.43441  0.023939073  0.024014044            3 
 2394000   0.86474535   -7.4321861     688.7676   0.02397548  0.024007326            4 
 2395000   0.86621027   -7.4618331    689.48098  0.023990292  0.024000634            4 
 2396000   0.86720344   -7.4747876    691.93015  0.024065462  0.023994009            2 
 2397000   0.88576293     -7.45158    688.95095  0.023951848  0.023987358            2 
 2398000   0.87806177   -7.4492746     691.8916  0.024044051   0.02398075            3 
 2399000   0.86594593   -7.4483239    690.66813  0.023991529   0.02397415            1 
 2400000   0.83957002   -7.4490568    690.12434  0.023962651   0.02396755            2 
 2401000   0.85600281   -7.4653262    690.45065  0.023963996  0.023960936            2 
 2402000   0.86517875   -7.4734358    690.59537   0.02395904  0.023954295            3 
 2403000   0.87421474   -7.4851355    689.50785  0.023911356  0.023947594            4 
 2404000   0.85814693   -7.4618585     691.1183  0.023957234  0.023940953            1 
 2405000   0.86259888   -7.4932016     691.0715  0.023945651  0.023934253            2 
 2406000   0.88310005   -7.4754355    690.41142  0.023912837  0.023927539            2 
 2407000   0.86588588   -7.4609402    690.32406  0.023899877  0.023920896            4 
 2408000   0.86645533   -7.4875147    689.94279  0.023876758  0.023914275            2 
 2409000   0.86737818   -7.4544909    690.98749  0.023902985  0.023907642            2 
 2410000   0.87624504   -7.4912628    691.38158  0.023906694  0.023901018            4 
 2411000   0.88643946   -7.4656665    691.17173  0.023889525  0.023894378            6 
 2412000   0.86266645   -7.4951246    689.19719  0.023811401  0.023887713            3 
 2413000   0.86422995   -7.4658209    690.17075  0.023835155  0.023881041            2 
 2414000   0.87487431   -7.4628179     691.1822  0.023860198  0.023874397            3 
 2415000   0.86704602   -7.4807091    692.94716   0.02391122  0.023867798            4 
 2416000   0.86551444   -7.4842976    692.65528  0.023891255  0.023861174            3 
 2417000   0.87302175   -7.4876988    691.38599  0.023837608  0.023854596            2 
 2418000   0.86606284   -7.4517618    689.55303  0.023764579  0.023848016            3 
 2419000   0.84931715   -7.4646125     692.8397  0.023867979  0.023841403            5 
 2420000   0.87310779   -7.4524195    693.84427  0.023892709  0.023834801            2 
 2421000   0.86551894   -7.4517298    693.32461  0.023864953  0.023828362            3 
 2422000   0.86170223   -7.4727039    692.05194  0.023811311  0.023821831            2 
 2423000   0.88222438   -7.4858189    692.02813  0.023800665  0.023815215            2 
 2424000   0.86156982   -7.5286852    691.91741   0.02378704  0.023808549            9 
 2425000     0.872765   -7.4999477    693.18382   0.02382075  0.023801893            4 
 2426000   0.85697402   -7.4529414    692.28943  0.023780209  0.023795253            3 
 2427000    0.8696127   -7.4798971    691.76831  0.023752517  0.023788539            2 
 2428000   0.86707395   -7.4661608    692.04434  0.023752208  0.023781824            2 
 2429000   0.86500967   -7.4970039    692.05241  0.023742706  0.023775124            3 
 2430000   0.84072804   -7.4993695    692.51153  0.023748681  0.023768461            3 
 2431000   0.87579698    -7.448433    691.94168  0.023719377  0.023761822            3 
 2432000   0.87149286   -7.4974217    692.51157  0.023729152  0.023755182            1 
 2433000   0.88206871   -7.4940049    694.29041  0.023780327  0.023748566            5 
 2434000   0.86545781   -7.5198388    691.54354  0.023676511    0.0237419            4 
 2435000   0.86135209   -7.5043021    694.14094  0.023755679  0.023735244            3 
 2436000   0.87154572   -7.4653624    692.48003  0.023689109   0.02372863            4 
 2437000    0.8607677   -7.4899175    693.30564   0.02370762  0.023722004            2 
 2438000   0.87979293   -7.4967119    692.14487  0.023658219   0.02371538            3 
 2439000   0.87650446   -7.4379873    694.82183  0.023739983  0.023708745            3 
 2440000   0.85950088   -7.4756963    693.99914  0.023702156    0.0237021            4 
 2441000   0.85858178   -7.4937379    693.23772  0.023666452  0.023695453            2 
 2442000   0.86369843   -7.4680758     691.8925  0.023610855  0.023688801            2 
 2443000   0.86948739   -7.4771338     694.5844  0.023693014  0.023682144            2 
 2444000   0.86449656   -7.4865054    694.63345  0.023684992   0.02367553            5 
 2445000   0.87746121   -7.4549335    695.03447  0.023688973  0.023668942            3 
 2446000   0.86853262   -7.4707517    694.98691  0.023677668  0.023662334            3 
 2447000    0.8652364   -7.5024765    694.03601  0.023635609  0.023655666            3 
 2448000   0.86381638   -7.4916026    693.48173  0.023607085  0.023648995            2 
 2449000   0.85284716   -7.4872705    695.28781  0.023658902  0.023642351            3 
 2450000   0.85374169   -7.4638119    694.90232  0.023636133  0.023635682            4 
 2451000   0.84793843   -7.4730392    694.44264  0.023610861  0.023629042            4 
 2452000   0.85859819   -7.4729876     694.9487   0.02361843  0.023622448            3 
 2453000   0.84801369   -7.4843696    694.16205  0.023582078  0.023615793            2 
 2454000   0.86029871   -7.4237693    695.71163  0.023625089  0.023609168            1 
 2455000   0.86364033   -7.4704717    693.93199  0.023555057  0.023602585            2 
 2456000   0.86037561   -7.4889783    696.28423  0.023625279  0.023595999            2 
 2457000   0.85139616   -7.4707375    696.02278  0.023606796  0.023589432            4 
 2458000    0.8635692   -7.4909526       695.92  0.023593708  0.023582837            2 
 2459000   0.84622341     -7.51119    694.59722  0.023539285  0.023576205            4 
 2460000   0.87333771   -7.4902715    695.06176  0.023545452  0.023569566            3 
 2461000   0.86236753   -7.4929498    695.32814  0.023544905  0.023562964            3 
 2462000   0.85847368   -7.4376904    696.59497  0.023578221  0.023556456            2 
 2463000   0.83291445   -7.5061342    696.57902  0.023568109  0.023549901            3 
 2464000   0.86876331    -7.471169     695.1559  0.023510413  0.023543291            1 
 2465000   0.84997006    -7.483635    695.88546  0.023525539  0.023536672            1 
 2466000    0.8823864   -7.4990405    696.29621   0.02352988  0.023530072            3 
 2467000    0.8706401   -7.4999409    696.20666  0.023517317  0.023523496            4 
 2468000   0.86022474   -7.4543176    698.18805  0.023574691  0.023516922            3 
 2469000   0.86799329   -7.4948727    698.34128  0.023570315  0.023510337            3 
 2470000   0.87678652   -7.5065714    695.67423   0.02347079  0.023503737            5 
 2471000   0.84811894   -7.5193547    697.38509   0.02351899  0.023497135            4 
 2472000   0.86020251   -7.4997471    695.48444  0.023445403  0.023490495            4 
 2473000   0.82815063   -7.5034143    697.48521  0.023503343  0.023483868            2 
 2474000   0.85341429   -7.4741323    696.46233  0.023459389  0.023477279            3 
 2475000   0.86859807   -7.4538475    698.08192  0.023504442  0.023470735            3 
 2476000   0.84756592   -7.5248475    697.22483  0.023466102  0.023464153            3 
 2477000    0.8454621   -7.5078932    696.20919   0.02342246   0.02345753            2 
 2478000   0.86772618   -7.4882844    696.28542  0.023415571  0.023450846            8 
 2479000   0.86137023   -7.4869855    695.68844  0.023386058  0.023444219            3 
 2480000    0.8602183   -7.4870041    698.98159  0.023487285  0.023437617            4 
 2481000   0.86637242   -7.4934043    698.12795  0.023449145  0.023431032            2 
 2482000    0.8511839   -7.5129683    698.05312  0.023437185  0.023424377            6 
 2483000   0.85110318   -7.5234957    697.33713  0.023403716  0.023417719            4 
 2484000   0.85242255   -7.5100664    698.33083  0.023427631  0.023411088            1 
 2485000   0.85199769   -7.5058365    698.01565  0.023407634  0.023404454            5 
 2486000   0.85201641   -7.5305263     697.9213  0.023395056  0.023397784            6 
 2487000   0.84018394   -7.4998047    698.84407  0.023416568  0.023391168            2 
 2488000   0.86913869   -7.4834075    699.42555  0.023426633  0.023384568            3 
 2489000   0.84916953   -7.4988882    698.56424  0.023388384  0.023377995            2 
 2490000    0.8527188   -7.5074955    700.05949  0.023429032  0.023371448            3 
 2491000   0.85234735   -7.4992979    699.98524  0.023417143  0.023364902            3 
 2492000   0.86683237   -7.5061559    700.06026  0.023410255  0.023358361            5 
 2493000   0.85660782   -7.4820582    699.36142  0.023377505   0.02335184            4 
 2494000   0.85097858   -7.4812386    701.61479  0.023443424  0.023345328            1 
 2495000   0.85989114   -7.4935173    699.65685  0.023368632  0.023338811            3 
 2496000   0.82097046   -7.5390305    699.10064    0.0233407  0.023332209            3 
 2497000   0.85103579   -7.4722334    701.05052  0.023396427  0.023325637            4 
 2498000   0.85051713   -7.4896182     698.7953  0.023311826  0.023319118            2 
 2499000   0.85023979   -7.5234815    697.94878  0.023274269  0.023312532            3 
 2500000   0.85822096   -7.4922315    700.41781   0.02334726  0.023305935            3 
 2501000   0.84012432   -7.4987219    702.90516  0.023420804  0.023299421            6 
 2502000   0.83993038   -7.5134156    699.17458  0.023287189  0.023292812            5 
 2503000   0.85253191   -7.4832289     698.9924   0.02327182  0.023286202            3 
 2504000   0.84086915   -7.4852332    700.71309  0.023319791  0.023279663            3 
 2505000   0.86057747   -7.5059666    701.38719  0.023332907  0.023273087            2 
 2506000   0.86991674   -7.5016413    702.18853  0.023350244  0.023266549            2 
 2507000   0.84614755   -7.4652631    701.75921  0.023326659  0.023260002            3 
 2508000   0.83988622   -7.4886555    702.19118  0.023331711   0.02325346            4 
 2509000   0.84128723   -7.5065689     701.7039  0.023306228  0.023246902            3 
 2510000   0.86181557   -7.5010295    700.23971   0.02324833  0.023240305            2 
 2511000   0.85931393   -7.5285275    700.03722  0.023232352  0.023233718            3 
 2512000   0.85581446   -7.5069889    701.32605  0.023265859  0.023227136            2 
 2513000   0.85468523   -7.5073046     701.4581  0.023260979  0.023220534            3 
 2514000   0.86080542   -7.5069884    699.64108  0.023191497   0.02321393            6 
 2515000   0.86911795    -7.477479    699.98477  0.023193664  0.023207311            2 
 2516000   0.84739545   -7.5071433     700.7136  0.023208585  0.023200675            5 
 2517000   0.84989575   -7.5120611    698.96156  0.023141357  0.023194005            2 
 2518000   0.88347309   -7.5079133    698.85863  0.023128761  0.023187349            3 
 2519000    0.8534992   -7.5256894    700.69628  0.023180372  0.023180694            4 
 2520000   0.83696062   -7.4950817    701.07663  0.023183751  0.023174069            2 
 2521000   0.84990307   -7.4738544    701.23233  0.023179701  0.023167373            2 
 2522000   0.85170179    -7.516441    700.30404  0.023139837  0.023160693            1 
 2523000   0.85325494   -7.5025154    700.21353  0.023127676  0.023154012            3 
 2524000   0.84396393   -7.5224829    699.29888  0.023088315  0.023147313            3 
 2525000   0.82720077   -7.4914908    702.19745  0.023174833  0.023140595            3 
 2526000   0.82433104   -7.5314597    699.34645  0.023071604  0.023133857            3 
 2527000   0.84178621   -7.5295053    701.29328  0.023126674  0.023127124            3 
 2528000    0.8493591   -7.5053683    700.75836  0.023099893  0.023120418            2 
 2529000   0.84518308   -7.5356401    699.49186  0.023049026  0.023113718            3 
 2530000   0.84028784   -7.5178008    702.24934  0.023130742  0.023106979            3 
 2531000    0.8579378   -7.5228793    700.00239  0.023047623  0.023100255            3 
 2532000   0.84931164   -7.5035496     700.7379  0.023062727  0.023093521            4 
 2533000   0.84086322   -7.5293117    700.30133  0.023039259  0.023086812            3 
 2534000   0.84828636   -7.5223504    699.89408  0.023016774  0.023080107            2 
 2535000   0.85662741   -7.5210636    699.61535  0.022998532  0.023073387            3 
 2536000   0.84160009   -7.5339916    700.55846  0.023020454  0.023066701            4 
 2537000   0.84241372    -7.528881    699.94257   0.02299115  0.023060004            2 
 2538000   0.84016361   -7.4807464    702.67423  0.023071783  0.023053316            3 
 2539000   0.84766339    -7.505655    699.42115  0.022955926  0.023046637            4 
 2540000   0.83824929   -7.5240199    703.83302  0.023091634  0.023039962            2 
 2541000   0.85731493   -7.5056673    701.83983  0.023017179  0.023033329            2 
 2542000   0.85772987   -7.5067197    699.47252  0.022930518   0.02302661            2 
 2543000   0.83073625   -7.5133811    700.88555  0.022967805  0.023019891            5 
 2544000   0.86337202   -7.5330583    702.00795  0.022995544  0.023013168            2 
 2545000   0.83466981   -7.5414606    702.60835  0.023006167   0.02300649            2 
 2546000   0.84520796   -7.5153962    704.66678  0.023064506  0.022999839            8 
 2547000   0.83295454   -7.5061702    702.16798  0.022973694  0.022993128            3 
 2548000    0.8515513   -7.5289338    702.25302  0.022967459  0.022986441            4 
 2549000   0.83408156   -7.5050429    703.52711  0.023000102  0.022979766            2 
 2550000   0.84780691   -7.5276231    703.50358  0.022990313  0.022973107            1 
 2551000   0.84846912   -7.5039966    703.34835   0.02297623  0.022966496            2 
 2552000   0.84644915   -7.5111557    702.18109  0.022929111  0.022959857            3 
 2553000   0.83626765   -7.5079947    701.93958  0.022912246  0.022953167            5 
 2554000   0.84531025   -7.5170182    703.06162  0.022939886  0.022946532            3 
 2555000   0.84591174   -7.5313075    702.75329  0.022920851  0.022939875            3 
 2556000   0.84421356   -7.5423672    701.88591  0.022883604  0.022933205            2 
 2557000   0.85612028   -7.5452459    703.44659  0.022925518  0.022926533            5 
 2558000   0.83981538    -7.526447    703.87462    0.0229305  0.022919855            3 
 2559000   0.83945009   -7.5507476    703.72892  0.022916794  0.022913211            3 
 2560000   0.83927437    -7.510641    703.25901  0.022892546  0.022906531            4 
 2561000   0.83583191   -7.5295855    703.65447  0.022896475  0.022899905            4 
 2562000   0.81898466   -7.5195886    702.24081  0.022841557  0.022893246            3 
 2563000   0.85280752   -7.5319611    703.07321  0.022859709  0.022886568            2 
 2564000   0.83546764   -7.5262067    703.88708  0.022877245  0.022879871            2 
 2565000   0.83352809   -7.5389255    702.95435  0.022838023  0.022873159            5 
 2566000   0.85216744   -7.5520592    704.75093  0.022887469  0.022866483            3 
 2567000    0.8425272   -7.5157768    705.04207  0.022888004  0.022859832            4 
 2568000   0.85568734   -7.5356533    703.77744  0.022838053    0.0228532            4 
 2569000   0.84711853   -7.5497474    702.96298  0.022802744  0.022846565            3 
 2570000   0.83032599   -7.5271498    703.04531  0.022796541   0.02283993            6 
 2571000   0.84503105   -7.5432635    703.00873  0.022786488  0.022833253            3 
 2572000   0.85421881   -7.5217454    704.24597  0.022817715  0.022826632            5 
 2573000   0.86402389   -7.5606211     702.2818  0.022745233  0.022819957            5 
 2574000   0.81786322   -7.5653772    704.38536  0.022804499  0.022813281            4 
 2575000   0.83741799   -7.5575439    704.43811   0.02279735  0.022806608            4 
 2576000   0.83222405   -7.5478972    704.99933  0.022806655  0.022799902            3 
 2577000   0.85078587    -7.532422    703.56477  0.022751415  0.022793215            2 
 2578000    0.8503826   -7.5160731    706.02396  0.022822083  0.022786538            3 
 2579000   0.82718357   -7.5209245    705.90102  0.022809261  0.022779906            1 
 2580000    0.8566668   -7.5314922    706.06266  0.022805641  0.022773287            3 
 2581000   0.84045498   -7.5259877    705.77501  0.022787518  0.022766691            3 
 2582000   0.83327855   -7.5583645    705.34959  0.022764962  0.022760073            2 
 2583000   0.82701458   -7.5341331    706.99459   0.02280922  0.022753442            2 
 2584000   0.84013746   -7.5307389    704.70356  0.022726508  0.022746794            5 
 2585000    0.8356162   -7.5646077    703.21865  0.022669847  0.022740117            2 
 2586000   0.84594779    -7.566428    705.27644  0.022727392  0.022733436            3 
 2587000   0.82429469   -7.5131621    704.89353  0.022706273  0.022726792            3 
 2588000   0.82792087   -7.5298688    703.81516  0.022662776  0.022720171            2 
 2589000   0.84692697   -7.5524764    705.47307  0.022707386  0.022713586            1 
 2590000   0.83404134   -7.5389629     705.4289  0.022697197  0.022706957            3 
 2591000    0.8288916   -7.5366019    705.89009  0.022703271  0.022700309            6 
 2592000   0.82020603   -7.5530035    705.76321  0.022690432  0.022693634            2 
 2593000   0.82277919   -7.5257921    705.73684  0.022680834  0.022686972            3 
 2594000   0.82103642   -7.5631193     705.0116  0.022648792  0.022680347            3 
 2595000   0.84222005   -7.5181475    707.99234  0.022735785  0.022673739            2 
 2596000   0.83682501   -7.5149918    707.08412  0.022697872  0.022667086            5 
 2597000   0.84776834   -7.5609118    706.14074  0.022658861  0.022660444            2 
 2598000   0.84182448   -7.5443486    706.34394  0.022656657   0.02265378            4 
 2599000   0.83266072   -7.5585389    705.29813  0.022614407  0.022647158            4 
 2600000   0.83555093   -7.5204889    706.04306  0.022629585  0.022640515            3 
 2601000   0.80555269    -7.540087    707.43152   0.02266537  0.022633829            4 
 2602000   0.83441402   -7.5700446    705.91117  0.022607967  0.022627144            7 
 2603000   0.83375771   -7.5022697    707.60971   0.02265366  0.022620484            2 
 2604000   0.83034823   -7.5613526    705.82166  0.022587739  0.022613815            2 
 2605000   0.82809051   -7.5650021     705.9296  0.022582521  0.022607146            2 
 2606000   0.84364636   -7.5278499    708.42601  0.022653684  0.022600526            7 
 2607000   0.84835184   -7.5628875    706.76801  0.022591996  0.022593906            2 
 2608000   0.83157453   -7.5734109    706.83085  0.022585341  0.022587293            4 
 2609000   0.84646896   -7.5346892    706.40696  0.022563146  0.022580709            3 
 2610000   0.84548828   -7.5434566    708.30244   0.02261502  0.022574163            2 
 2611000   0.83057478   -7.5588892    707.21206  0.022571558  0.022567561            2 
 2612000   0.82797128   -7.5354836    707.15495  0.022561095   0.02256095            2 
 2613000   0.81491533   -7.5300334    708.85678  0.022606735  0.022554361            3 
 2614000   0.84147659   -7.5578054    706.97337  0.022538044  0.022547775            4 
 2615000   0.83927348   -7.5247298    709.88721  0.022622282  0.022541228            3 
 2616000   0.83725273    -7.540971    710.03098  0.022618214  0.022534677            2 
 2617000   0.82949568   -7.5299068     709.0533  0.022578439  0.022528118            1 
 2618000   0.81153051     -7.53279    706.75335  0.022496605  0.022521579            3 
 2619000   0.81425525   -7.5432356     708.2586  0.022535911  0.022515013            4 
 2620000    0.8439704   -7.5671692    709.03959   0.02255215  0.022508457            2 
 2621000   0.83277964   -7.5948602    708.86178  0.022537892  0.022501863            4 
 2622000   0.84144019   -7.5678011    708.45227  0.022516281  0.022495275            2 
 2623000   0.83701394     -7.54181    709.41208   0.02253819  0.022488692            3 
 2624000   0.84000338   -7.5564292    708.74854  0.022508528  0.022482061            2 
 2625000   0.83532118   -7.5669094    710.58957  0.022558399  0.022475476            2 
 2626000   0.85703527   -7.5642253    708.69563  0.022489706  0.022468934            2 
 2627000   0.85043412   -7.5907214    709.39462  0.022503319  0.022462405            2 
 2628000   0.81388776   -7.5580584    709.40041   0.02249494  0.022455857            2 
 2629000   0.84344449   -7.5415212    710.27848  0.022514216  0.022449287            2 
 2630000   0.83826864   -7.5856932    707.53289  0.022418659   0.02244268            2 
 2631000   0.84284761    -7.577618    709.39864  0.022469233  0.022436067            3 
 2632000   0.84021634   -7.5556493    708.79994  0.022441741  0.022429466            3 
 2633000   0.82914987   -7.5641579    708.48889  0.022423373  0.022422891            3 
 2634000   0.84114305   -7.5905826    708.65339  0.022420064    0.0224163            4 
 2635000   0.82554249   -7.5475179    711.14163  0.022490248  0.022409657            3 
 2636000   0.82612137   -7.5540378    708.71617  0.022405038  0.022403088            3 
 2637000   0.81868351   -7.5594975    709.33296  0.022416033  0.022396504            4 
 2638000   0.82415332   -7.5485006    709.06544  0.022399085  0.022389936            2 
 2639000   0.82350836   -7.5367588      709.064  0.022390552  0.022383366            3 
 2640000   0.84173114   -7.5852271    707.35914  0.022328256  0.022376779            3 
 2641000   0.82105011   -7.5489395    709.16312  0.022376723  0.022370172            3 
 2642000   0.84977848   -7.5919165    709.46172  0.022377672  0.022363529            2 
 2643000   0.83152896   -7.5644863    709.73376  0.022377783  0.022356935            3 
 2644000   0.81415991   -7.5491912    710.95298  0.022407747  0.022350369            2 
 2645000   0.82802015   -7.5782702    710.53512   0.02238611  0.022343822            2 
 2646000   0.82747418   -7.5694592     709.6408  0.022349484  0.022337273            4 
 2647000   0.83141215   -7.5448288    710.90601  0.022380872  0.022330718            3 
 2648000   0.80888678   -7.5711873    710.75441  0.022367649  0.022324145            2 
 2649000    0.8267823   -7.5846132    709.52689  0.022320589  0.022317565            2 
 2650000   0.81542245   -7.5576535    712.40655  0.022402722  0.022311017            3 
 2651000   0.82096641   -7.5978853    710.21673  0.022325435  0.022304473            3 
 2652000   0.83060378   -7.5470102    710.64438  0.022330454  0.022297885            4 
 2653000   0.83589253   -7.5449407    711.95507  0.022363207  0.022291324            2 
 2654000   0.81656484   -7.5738512    711.69935  0.022346752  0.022284756            7 
 2655000   0.82499674   -7.5377352    712.77138  0.022371983  0.022278231            3 
 2656000   0.82711513   -7.5541385    711.45997  0.022322414  0.022271681            2 
 2657000   0.82373245   -7.5721358    711.67813  0.022320855   0.02226509            3 
 2658000   0.82926286    -7.589063    711.04139  0.022292494  0.022258504           11 
 2659000   0.82031084    -7.563571    709.54397  0.022237181  0.022251908            3 
 2660000   0.81699958   -7.5490556    712.70576  0.022327875  0.022245347            1 
 2661000   0.84101756   -7.5688307    711.00595  0.022266252  0.022238775            5 
 2662000   0.84388416   -7.5822472     709.7017  0.022217058  0.022232174            2 
 2663000   0.82932685   -7.5593921    711.58652  0.022267697  0.022225591            5 
 2664000   0.81862791   -7.5679698    710.47803  0.022224663  0.022219024            4 
 2665000   0.85337269   -7.5709125    710.83643  0.022227531  0.022212436            5 
 2666000   0.82613223   -7.5948457    710.79933  0.022218034  0.022205811            3 
 2667000   0.81472365   -7.5430111    710.76993  0.022208784  0.022199211            2 
 2668000   0.83261942   -7.5500338      712.485  0.022254029  0.022192667            1 
 2669000   0.82724208   -7.5333489    710.12887  0.022172127  0.022186092            1 
 2670000    0.8426217   -7.5697514    713.24521  0.022261086   0.02217953            2 
 2671000   0.82084454   -7.5389788    712.21774  0.022220696   0.02217295            5 
 2672000   0.83103192   -7.5881421    711.96118  0.022204378  0.022166341            5 
 2673000   0.80214193   -7.5689025    711.33938  0.022176686  0.022159757            2 
 2674000   0.80716671   -7.5492155    711.90416  0.022185994  0.022153205            2 
 2675000   0.79843984   -7.5419281    713.58829  0.022230165  0.022146689            5 
 2676000   0.84275587   -7.5786028    712.62225  0.022191774  0.022140142            8 
 2677000   0.82240001   -7.5468552    713.25054  0.022203042  0.022133598            8 
 2678000   0.82423478   -7.5615219    711.93604  0.022153848  0.022127073            4 
 2679000   0.82307506    -7.558601    712.20946  0.022154083  0.022120539            4 
 2680000   0.82732402   -7.5760417    714.25045   0.02220928  0.022113999            2 
 2681000   0.80960336   -7.5750979    712.19193  0.022137011  0.022107431            6 
 2682000   0.82637413   -7.5583967    711.15414  0.022096512  0.022100858            2 
 2683000   0.82848372   -7.5539346    713.41288  0.022158432  0.022094346            2 
 2684000   0.82129703    -7.596718    712.51338  0.022122249  0.022087843            4 
 2685000   0.81673196   -7.5566197     713.9627  0.022158991  0.022081319            7 
 2686000   0.83621475   -7.5738396    711.73497  0.022081626  0.022074786            4 
 2687000   0.83043176   -7.5721445    712.88112  0.022108954  0.022068223            2 
 2688000   0.83098079   -7.5921658     712.4537  0.022087478  0.022061686            4 
 2689000   0.81529874   -7.5557632    714.51774   0.02214323  0.022055186            3 
 2690000   0.81001156   -7.5699221    713.65518  0.022108277  0.022048716            2 
 2691000   0.79978714   -7.5437326    716.74368  0.022195704   0.02204224            3 
 2692000    0.7990582   -7.5639369    713.87521  0.022098663  0.022035756            7 
 2693000   0.83716267    -7.578143    712.32576   0.02204251  0.022029263            4 
 2694000   0.83613049   -7.5580696     713.0695  0.022057334  0.022022758            5 
 2695000   0.81493766   -7.5387199     714.4587  0.022092106  0.022016253            3 
 2696000   0.82162424   -7.5492035    715.30126  0.022109955  0.022009767            6 
 2697000    0.8317694    -7.567633    713.69926  0.022052257  0.022003295            4 
 2698000   0.80784717   -7.5590449    714.63835  0.022073089  0.021996819            3 
 2699000   0.81322148    -7.562354    713.60859  0.022033117   0.02199033            2 
 2700000   0.84720813   -7.5957387    714.09983  0.022040118  0.021983834            8 
 2701000   0.80837011   -7.5546798    713.61678  0.022017055  0.021977342            5 
 2702000   0.81213767   -7.5924849    713.61145  0.022008742  0.021970836            8 
 2703000   0.83039759   -7.6035382    713.27059  0.021990091  0.021964365            4 
 2704000   0.81734752   -7.5580045    715.02207  0.022035937  0.021957882            3 
 2705000   0.81727904   -7.5858084    714.04084  0.021997561  0.021951408            3 
 2706000   0.80661136   -7.5544614    716.96202  0.022079392  0.021944935            2 
 2707000   0.81568686   -7.5664899    715.52634  0.022027039  0.021938462            3 
 2708000   0.80722014   -7.5622473    715.85782  0.022029106  0.021931993            4 
 2709000    0.8135165   -7.6044792    712.10721  0.021905599  0.021925495            3 
 2710000   0.83709231   -7.5767604    714.61099  0.021974508  0.021918989            4 
 2711000   0.80766471      -7.5975    712.91846  0.021914375  0.021912483            4 
 2712000   0.80809739   -7.6161465    714.41169  0.021952178  0.021905984            4 
 2713000   0.82688918   -7.5781668    716.66866  0.022013413  0.021899519            3 
 2714000   0.82468036   -7.5805947    715.65942  0.021974313  0.021893065            3 
 2715000   0.81908965   -7.6139898    716.07521  0.021978981  0.021886626            3 
 2716000   0.81776822   -7.5751379    715.73407  0.021960422  0.021880174            3 
 2717000   0.81492646   -7.5745915    715.41818  0.021942651  0.021873714            8 
 2718000   0.81566124   -7.5788462    716.54824  0.021969225  0.021867274            1 
 2719000   0.81482797   -7.5608779    715.30702  0.021923104  0.021860833            2 
 2720000   0.80463809   -7.5716837    715.89809  0.021933152  0.021854367            5 
 2721000   0.82730238   -7.5728276    715.94983  0.021926676  0.021847913            5 
 2722000   0.81251271   -7.6009227    715.89475  0.021916935  0.021841438            3 
 2723000   0.82313791   -7.6180821    715.96329  0.021910983  0.021834961            5 
 2724000   0.79912043   -7.5956714    715.96985   0.02190314  0.021828481            2 
 2725000   0.81983974   -7.5843282    716.41759  0.021908795  0.021821991            5 
 2726000   0.80828853   -7.5941845    716.71094  0.021909725    0.0218155            2 
 2727000   0.81396584   -7.5647268    716.06325  0.021881899  0.021809033            3 
 2728000   0.80278475   -7.5961683    717.00999  0.021902798  0.021802614            5 
 2729000   0.81090809   -7.5995596    716.88068  0.021890823    0.0217962            2 
 2730000   0.80629982   -7.5750491    717.34497  0.021896977  0.021789788            2 
 2731000   0.82350313   -7.5836728    715.49715  0.021832575  0.021783357            6 
 2732000   0.80895154   -7.5775395    717.14773  0.021874931   0.02177695            3 
 2733000   0.80996916   -7.5973314    717.75115  0.021885326  0.021770508            3 
 2734000   0.79632472    -7.562658    717.44325  0.021867936  0.021764077            3 
 2735000   0.79803738   -7.5816312    717.92594  0.021874648  0.021757643            3 
 2736000    0.8247695   -7.5744492    718.15207   0.02187354  0.021751223            4 
 2737000   0.80433063   -7.5679534    719.31018  0.021900809  0.021744789            3 
 2738000   0.80661711   -7.5813594     716.1604  0.021796944  0.021738368            4 
 2739000   0.83306622   -7.6024918     717.2153  0.021821081  0.021731914            3 
 2740000   0.80706134    -7.598384    716.91643  0.021804028  0.021725454            2 
 2741000   0.80432238   -7.6043621     716.8301  0.021793448  0.021718965            3 
 2742000   0.81406916   -7.6046435    716.12178  0.021763973  0.021712493            2 
 2743000   0.82033027   -7.5932744    717.68622  0.021803567  0.021706048            2 
 2744000   0.79731488    -7.572622    718.24093  0.021812468  0.021699597            5 
 2745000   0.80225655   -7.5957256    716.60236  0.021754777  0.021693141            1 
 2746000   0.82498163   -7.6115868    717.20996  0.021765294  0.021686669            6 
 2747000   0.83283648   -7.6040995    718.18646  0.021786994   0.02168021            3 
 2748000    0.8157462   -7.5861912    719.07397  0.021805979  0.021673765            4 
 2749000   0.82465155   -7.5637355    720.58498  0.021843852  0.021667354            4 
 2750000   0.80127015   -7.5951272    717.75482  0.021750146  0.021660938            4 
 2751000   0.81033796   -7.5722108    716.99841  0.021719327  0.021654506            2 
 2752000   0.83512421   -7.6221054    716.26029  0.021689083  0.021648055            4 
 2753000   0.82377832   -7.5628253    717.69715  0.021724699  0.021641584            2 
 2754000    0.7983147   -7.6136159    717.20278  0.021701851  0.021635132            3 
 2755000   0.82376469   -7.6298011    716.60599  0.021675922  0.021628678            8 
 2756000   0.83463955   -7.6105559    717.00757    0.0216802  0.021622226            6 
 2757000   0.80569882   -7.5899468    718.45639  0.021716128  0.021615775            3 
 2758000   0.80315371   -7.6052304    717.63428  0.021683414  0.021609354            2 
 2759000    0.8203502   -7.5690184    718.40958  0.021698973  0.021602962            3 
 2760000   0.81285244   -7.5812363    718.57374  0.021696067  0.021596567            2 
 2761000   0.80397385   -7.5820303    719.42762  0.021713981  0.021590214            6 
 2762000   0.82511081   -7.5696583    721.54145  0.021769897  0.021583874            2 
 2763000   0.80978278   -7.5726829    719.22183  0.021692057  0.021577518            2 
 2764000   0.81342118   -7.5866384    718.97494  0.021676765  0.021571192            2 
 2765000   0.82633852   -7.6090894    718.01483  0.021639989  0.021564857            5 
 2766000   0.80816217   -7.5862969    720.10673   0.02169519   0.02155846            4 
 2767000   0.80945184   -7.6286689    718.69359  0.021644789  0.021552104            3 
 2768000   0.79656291   -7.6183325    719.32264  0.021655908  0.021545761            2 
 2769000   0.81389779   -7.6110756    720.80857  0.021692806  0.021539407            2 
 2770000   0.81648175   -7.5842548    721.33935  0.021700943  0.021533055            2 
 2771000   0.80602501   -7.6000834    720.79037  0.021676602  0.021526732            2 
 2772000   0.79733226    -7.578106    719.30972   0.02162427  0.021520423            3 
 2773000   0.82762161   -7.5667905       720.76  0.021660055  0.021514081            3 
 2774000   0.81014276   -7.6235226    719.68603  0.021619984  0.021507718            1 
 2775000   0.79819856   -7.6312463    720.90602  0.021648829  0.021501356            2 
 2776000   0.82072511   -7.6024893    720.52219  0.021629509  0.021494985            3 
 2777000   0.82250782   -7.6150271    719.39126  0.021587782   0.02148861            4 
 2778000   0.79828234   -7.6224153    723.10029  0.021691273  0.021482237            3 
 2779000   0.80999135    -7.610372    720.44461  0.021603832  0.021475909            2 
 2780000   0.80499835   -7.6429165    721.77116  0.021635826  0.021469551            2 
 2781000   0.79816077    -7.592956    718.94266   0.02154329  0.021463185            2 
 2782000   0.80938733   -7.6380298    720.66917  0.021587263  0.021456808            5 
 2783000    0.8031105   -7.6201848    720.14168  0.021563711  0.021450438            5 
 2784000   0.80665543   -7.6161714    719.07203  0.021523947  0.021444075            9 
 2785000   0.79676204    -7.623394    720.93495  0.021571961  0.021437716            5 
 2786000   0.79011456   -7.6047829     721.4069  0.021578335  0.021431408            4 
 2787000   0.78878433   -7.6396494    721.29637  0.021567288  0.021425063            4 
 2788000   0.81222287   -7.5981966    721.28625  0.021559249  0.021418766            5 
 2789000   0.79368472   -7.5954198    721.82271  0.021567548    0.0214125            2 
 2790000   0.79283411   -7.6178412    721.63126    0.0215541  0.021406217            7 
 2791000    0.8174954   -7.6329618    721.28218  0.021535954   0.02139992            3 
 2792000   0.81524254   -7.6114674    721.86578   0.02154566  0.021393613            2 
 2793000   0.80815261   -7.6122555    721.87211  0.021538134  0.021387308            1 
 2794000   0.79209075   -7.6149221    722.37514  0.021545429  0.021381027            3 
 2795000    0.8172751   -7.6062207    721.33265  0.021506638  0.021374773            2 
 2796000   0.80582767   -7.6068301    722.80809  0.021542921  0.021368477            3 
 2797000   0.79480679   -7.6289624    721.33732  0.021491399  0.021362222            3 
 2798000   0.81400702   -7.6147478    722.03332  0.021504447  0.021355933            3 
 2799000   0.79166631   -7.5921589    722.94996  0.021524055  0.021349682            3 
 2800000   0.79663988   -7.5995382    721.46632  0.021472212  0.021343435            6 
 2801000    0.8163068   -7.6286213     723.0577  0.021511892  0.021337207            4 
 2802000   0.79485222    -7.656456    720.89062  0.021439764  0.021330903            3 
 2803000   0.80914372   -7.5940507    723.94979  0.021523064  0.021324586            2 
 2804000   0.81450761    -7.641167    723.04737  0.021488569  0.021318318            2 
 2805000   0.79602146   -7.6230021    721.97948  0.021449183  0.021312032            5 
 2806000   0.79497847   -7.6099253    724.19755  0.021507411  0.021305765            2 
 2807000   0.80476983    -7.604539    723.79613  0.021487832  0.021299521            3 
 2808000   0.80697724   -7.6147139    722.47378  0.021440936  0.021293247            4 
 2809000   0.79585002   -7.5934392     725.2248  0.021514916  0.021287004            3 
 2810000   0.80413439   -7.6024364    723.80882  0.021465267  0.021280783            3 
 2811000   0.78771279   -7.6062559    724.19012  0.021468935  0.021274569            2 
 2812000   0.80579448   -7.6192698     723.6527  0.021445374  0.021268344            2 
 2813000   0.80228322   -7.6199694    722.30943  0.021397957    0.0212621            2 
 2814000   0.81048097   -7.6273235    723.69756  0.021431461  0.021255877            7 
 2815000   0.80049573   -7.6519851    721.76585  0.021366662  0.021249631            2 
 2816000   0.79731373   -7.6271616    724.07303   0.02142735  0.021243421            4 
 2817000   0.81182533   -7.6009774    723.60033   0.02140576  0.021237235            5 
 2818000   0.80127493   -7.6229456    724.51805  0.021425303  0.021231032            5 
 2819000   0.78411778   -7.6038477    723.27185  0.021380863  0.021224799            9 
 2820000   0.79381697   -7.5915556    725.58286  0.021441574  0.021218577            3 
 2821000   0.79589707   -7.6371051     722.2716  0.021336157  0.021212345            2 
 2822000   0.81538717   -7.6031509    723.77421  0.021372969  0.021206096            5 
 2823000   0.78133847   -7.6138694    723.27069  0.021350534  0.021199852            2 
 2824000   0.80335932   -7.6250542    724.51959  0.021379827  0.021193612            2 
 2825000    0.7990051   -7.6281429    724.14297   0.02136115  0.021187394            3 
 2826000   0.81475366   -7.6091721    723.14583  0.021324187  0.021181207            4 
 2827000   0.80108648    -7.612723    724.67579  0.021361744  0.021175038            3 
 2828000   0.79528832   -7.6532473    723.01526  0.021305259  0.021168849            3 
 2829000   0.79483623   -7.6353956    725.75566  0.021378451  0.021162628            5 
 2830000   0.79370316   -7.6273686    723.39188  0.021301292  0.021156418            3 
 2831000   0.79972612   -7.6233218    726.44358  0.021383598  0.021150233            4 
 2832000   0.79558371   -7.6265279    723.17722  0.021279932  0.021144053            2 
 2833000   0.79100134   -7.6258348    724.87428   0.02132234  0.021137866            3 
 2834000   0.80171877   -7.6301659    725.67375  0.021338325  0.021131681            5 
 2835000   0.80865266   -7.6567335    726.29205  0.021348973  0.021125492            2 
 2836000   0.80054856   -7.6420295     726.6247  0.021351219  0.021119312            2 
 2837000   0.78275662   -7.6072561    726.04404  0.021326637  0.021113134            2 
 2838000   0.77933307   -7.6238132    725.23361  0.021295326  0.021106957            3 
 2839000   0.79250832    -7.633072    726.55601  0.021326641  0.021100776            4 
 2840000   0.80216044   -7.6050848    726.08257   0.02130524   0.02109459            3 
 2841000   0.79308162   -7.6219775    726.36902  0.021306143  0.021088422            3 
 2842000   0.79619381   -7.6442174     725.5031  0.021273255  0.021082223            2 
 2843000   0.78468072   -7.6365731    726.20519  0.021286352  0.021076025            2 
 2844000   0.78679147   -7.6504248      725.722  0.021264709   0.02106984            1 
 2845000   0.79476619   -7.6366266    726.62064  0.021283557  0.021063657            6 
 2846000   0.78026375   -7.6651401    726.65626  0.021277122  0.021057468            1 
 2847000   0.78317876   -7.6635072     724.8359  0.021216365  0.021051224            6 
 2848000   0.79296293   -7.6765602    725.10972  0.021216928  0.021044996            2 
 2849000   0.79234825   -7.6478584    726.44185  0.021248445  0.021038799            3 
 2850000   0.79518531   -7.6386226    728.50274   0.02130125  0.021032567            3 
 2851000   0.79012791   -7.6513398    726.72763  0.021241893  0.021026374            1 
 2852000   0.80506791   -7.6309133    725.12369  0.021187579  0.021020164            2 
 2853000   0.82165337   -7.5971786    727.02609   0.02123572  0.021013979            2 
 2854000   0.79358381   -7.6185746    726.03769  0.021199419  0.021007834            3 
 2855000   0.78891925    -7.611123    725.83367  0.021186038  0.021001676            7 
 2856000   0.78801014   -7.6319998    726.55266  0.021199599  0.020995514            2 
 2857000   0.78463009   -7.6215905    726.68414  0.021196014  0.020989366           11 
 2858000   0.78100272   -7.6145833    725.74177   0.02116112  0.020983223            1 
 2859000   0.80171472   -7.6513481    725.66795  0.021151567   0.02097706            5 
 2860000    0.7794871   -7.6353215    726.96374  0.021181927  0.020970916            2 
 2861000   0.77152879   -7.6221639     727.0096  0.021175859  0.020964761            6 
 2862000   0.80096968   -7.6393729    727.74325  0.021189822  0.020958614            4 
 2863000   0.79368604    -7.646411    729.00558  0.021219164  0.020952451            5 
 2864000   0.79506336   -7.6602821    726.40966  0.021136221    0.0209463            6 
 2865000   0.80171417   -7.6856458    724.77904  0.021081415   0.02094011            5 
 2866000   0.78093213   -7.6556284    728.08877  0.021170295  0.020933917            4 
 2867000   0.81128975   -7.6371558    729.91316  0.021215939  0.020927759            2 
 2868000   0.79948602    -7.650586    725.72555  0.021086865  0.020921591            5 
 2869000   0.79918562   -7.6492283    727.42117  0.021128766  0.020915429            2 
 2870000   0.78085132   -7.6617392    726.95376  0.021107833  0.020909256            6 
 2871000   0.80616839   -7.6583248    727.51489  0.021116768  0.020903079            6 
 2872000   0.80599754   -7.6590305    727.97341   0.02112272  0.020896899            3 
 2873000   0.78476351   -7.6412681    727.51931  0.021102196  0.020890743            4 
 2874000   0.77025104   -7.6376312     729.1244  0.021141394  0.020884619            3 
 2875000   0.78393232   -7.6525456    728.03163  0.021102366  0.020878535            2 
 2876000   0.78424833   -7.6403548    728.44642  0.021107047  0.020872452            1 
 2877000    0.8005148    -7.655946    727.47871  0.021071681  0.020866372            5 
 2878000   0.79797438   -7.6540659    727.78585  0.021073253  0.020860267            1 
 2879000   0.77953618   -7.6381962    727.91517  0.021069676  0.020854173            2 
 2880000    0.7969397   -7.6489573    728.90253   0.02109093  0.020848091            4 
 2881000   0.77806423   -7.6422997    729.32153  0.021095729  0.020841989            4 
 2882000   0.78817643   -7.6494674    727.53084  0.021036631  0.020835893            4 
 2883000   0.77236495   -7.6459941    730.03909  0.021101835   0.02082979            3 
 2884000   0.79848854   -7.6651403    728.85077  0.021060182  0.020823671            2 
 2885000    0.7868825   -7.6586361    728.96355   0.02105614  0.020817567            4 
 2886000   0.77336763   -7.6700867    728.49075  0.021035192   0.02081144            3 
 2887000   0.79828321   -7.6384467    728.91053  0.021040022   0.02080529            5 
 2888000   0.78031629   -7.6660739    727.51457  0.020992456   0.02079915            2 
 2889000   0.79830761   -7.6381438    727.89119  0.020996054  0.020793039            2 
 2890000    0.7791146   -7.6575717    728.17736   0.02099704  0.020786906            4 
 2891000   0.78038972   -7.6342649    729.55265   0.02102942   0.02078076            3 
 2892000   0.78148334   -7.6734813    726.96813  0.020947676  0.020774586            5 
 2893000   0.77600677   -7.6684297    728.84495  0.020994497  0.020768436            3 
 2894000   0.78313499   -7.6732149    727.80585  0.020957321  0.020762269            3 
 2895000   0.80735013   -7.6486297    730.99859  0.021041986  0.020756153            2 
 2896000   0.78738793   -7.6503091     729.9725  0.021005194  0.020750063            3 
 2897000    0.7872524   -7.6585587    729.61681  0.020987712  0.020743989            2 
 2898000   0.80140499    -7.624627    729.11255  0.020965969  0.020737904            3 
 2899000   0.78505808   -7.6423561    729.43797  0.020968092  0.020731789            3 
 2900000   0.76296957   -7.6497083    728.48097  0.020933361  0.020725654            2 
 2901000   0.78097763   -7.6581456    729.42447  0.020953248  0.020719501            3 
 2902000   0.77342989    -7.657811    729.19739  0.020939507  0.020713361            4 
 2903000   0.79597528   -7.6355876    729.81326  0.020949973   0.02070723            2 
 2904000   0.78880915   -7.6620535    728.50803  0.020905304  0.020701097            2 
 2905000   0.78685536   -7.6711906    729.82608  0.020935917   0.02069493            3 
 2906000   0.79154547   -7.6522623    728.67028  0.020895569   0.02068881            3 
 2907000   0.78784252   -7.6663022    728.82804  0.020892903  0.020682659            1 
 2908000    0.7793572   -7.6551259    728.35094  0.020872047  0.020676543            2 
 2909000   0.79985942   -7.6537005    730.37105  0.020922741  0.020670449            4 
 2910000   0.77002934   -7.6495616    730.63402  0.020923082  0.020664364            3 
 2911000   0.78775781   -7.6621293    728.83229  0.020864316  0.020658241            1 
 2912000   0.79267707   -7.6236394    729.27313  0.020869767  0.020652139            3 
 2913000   0.78158008   -7.6402173    730.73306  0.020904367  0.020646034            2 
 2914000   0.78621883   -7.6812498    728.72059  0.020839642  0.020639904            3 
 2915000     0.794015   -7.6818043    730.21285  0.020875153  0.020633785            2 
 2916000   0.79047682   -7.6908829    729.01164  0.020833666  0.020627694            1 
 2917000   0.78391542   -7.6490002    729.88837   0.02085157  0.020621553            1 
 2918000   0.79849573   -7.6705677    730.64162  0.020865936  0.020615458            4 
 2919000   0.79223061   -7.6689916    729.15112  0.020816236  0.020609346            4 
 2920000   0.76371449    -7.676116    728.34524  0.020786108  0.020603193            4 
 2921000   0.77693546   -7.6314544    730.03927  0.020827322  0.020597067            2 
 2922000   0.78112063   -7.6883151    729.91718  0.020816712  0.020590946            3 
 2923000   0.78742073   -7.6515335    732.78131  0.020891245  0.020584829            3 
 2924000   0.78387142   -7.6107963    732.19961  0.020867522  0.020578735            2 
 2925000    0.7695185   -7.6340916     730.2862  0.020805875  0.020572653            3 
 2926000   0.77023971   -7.6584843    728.69053  0.020753319  0.020566551            2 
 2927000   0.79788144   -7.6369087    731.39668  0.020823274  0.020560456            5 
 2928000   0.75937778   -7.7001374    731.17626  0.020809889  0.020554325            2 
 2929000   0.77143677   -7.6576629    728.42975  0.020724643   0.02054817            4 
 2930000   0.77753637   -7.6731568    729.23489  0.020740469   0.02054202            3 
 2931000   0.78740513   -7.6655669    729.35332   0.02073676  0.020535882            3 
 2932000   0.77412417   -7.6519093    728.73216  0.020712033  0.020529713            5 
 2933000   0.78432778   -7.6583639     731.9293  0.020795809   0.02052356            2 
 2934000   0.78098857   -7.6639656    730.05892  0.020735598  0.020517422            5 
 2935000   0.77441778   -7.6359133    729.37068  0.020708992  0.020511285            3 
 2936000   0.76771174    -7.674154    730.93457  0.020746326  0.020505129            2 
 2937000   0.79002501   -7.6539952    732.25294  0.020776669  0.020499013            3 
 2938000   0.78937199   -7.6790785     730.2636  0.020713172  0.020492865            2 
 2939000   0.79662265   -7.6721533    731.03072  0.020727876  0.020486717            6 
 2940000   0.78379709   -7.6631669    732.80805  0.020771203  0.020480579            3 
 2941000   0.77509452    -7.680654    730.48587  0.020698342   0.02047445            3 
 2942000   0.79792136   -7.6917315    729.74526  0.020670328  0.020468317            2 
 2943000   0.78005564   -7.6997061    729.80913  0.020665113  0.020462176            2 
 2944000   0.77991233   -7.6928181    731.02908  0.020692626  0.020456005            2 
 2945000   0.79254649   -7.6827807    730.66119  0.020675189  0.020449846            2 
 2946000   0.77998965   -7.6838663    729.43046  0.020633358  0.020443697            4 
 2947000   0.78113049   -7.6748857    729.60209  0.020631209  0.020437547            5 
 2948000   0.78343861     -7.70077    729.96052  0.020634343    0.0204314            2 
 2949000    0.7886547   -7.6806689    730.60676  0.020645608  0.020425257            3 
 2950000   0.77326134   -7.6609022    730.96901  0.020648842  0.020419083            3 
 2951000   0.76824131   -7.6909071    730.46595  0.020627639  0.020412914            3 
 2952000    0.7898091   -7.6817906     729.3324  0.020588652  0.020406747            3 
 2953000   0.76729722   -7.6607025     730.6359  0.020618464  0.020400606            4 
 2954000   0.78304514   -7.6860451    732.23517    0.0206566  0.020394467            8 
 2955000   0.77426542    -7.657624    730.42187  0.020598474  0.020388359            7 
 2956000   0.77073344   -7.6931045    730.60545   0.02059668  0.020382214            4 
 2957000    0.7715505   -7.6543518    729.96549   0.02057168  0.020376099            3 
 2958000   0.78931284    -7.681511    731.36733  0.020604218  0.020369988            5 
 2959000   0.76521466   -7.6623967    731.35567  0.020596927  0.020363885            2 
 2960000   0.78417414   -7.6821701    731.84833  0.020603838  0.020357778            2 
 2961000   0.79188495   -7.6923671    732.50118  0.020615253  0.020351677            2 
 2962000   0.77236161   -7.6694095     730.3511  0.020547803  0.020345567            2 
 2963000   0.78410244   -7.6652543    732.39409  0.020598326  0.020339505            3 
 2964000   0.78772077   -7.6506935    732.35517  0.020590283  0.020333427            4 
 2965000   0.76532649   -7.6636943    732.09729   0.02057609  0.020327362            2 
 2966000   0.78092163   -7.6548272    732.60497  0.020583417  0.020321286            4 
 2967000   0.77610507   -7.6811787    730.94456  0.020529844  0.020315186            2 
 2968000   0.77266691   -7.6821991    732.40302  0.020563876   0.02030906            5 
 2969000   0.77044879    -7.684845    730.24148   0.02049628  0.020302944            3 
 2970000   0.76140603   -7.6794747    731.09718  0.020513389  0.020296833            4 
 2971000   0.78753074   -7.6843537    730.34852  0.020485485  0.020290756            2 
 2972000   0.78190222   -7.6681035    731.56869  0.020512805  0.020284676            5 
 2973000   0.76947515   -7.6688645    730.45453  0.020474676  0.020278589            5 
 2974000   0.78662758   -7.6887057    733.40078  0.020550347  0.020272514           11 
 2975000    0.7706065   -7.6694698     732.3934  0.020515221   0.02026641            5 
 2976000   0.77247377   -7.6916848    731.16315  0.020473878  0.020260327            2 
 2977000    0.7867203   -7.6500909    732.97896   0.02051783  0.020254251            3 
 2978000   0.76871779    -7.682689    732.16742  0.020488231  0.020248188            7 
 2979000   0.77314492   -7.7141442    732.76836  0.020498164  0.020242083            4 
 2980000   0.78112618   -7.7059141    731.70898  0.020461661  0.020235978            3 
 2981000   0.78477412    -7.689224    732.90481  0.020488226  0.020229899            3 
 2982000   0.78635935   -7.6994426    732.06967  0.020458017  0.020223823            3 
 2983000    0.7695157   -7.6574511    732.01701  0.020449688  0.020217725            5 
 2984000   0.77945103   -7.6878906    732.44294  0.020454729  0.020211666            6 
 2985000   0.78480453   -7.6473376    732.56299  0.020451228  0.020205598            4 
 2986000   0.78434915   -7.6503708    733.30355  0.020465047  0.020199521            2 
 2987000   0.78777226   -7.6503156    732.68549  0.020440952  0.020193456            3 
 2988000   0.76238805   -7.6978149    733.85028  0.020466596  0.020187374            2 
 2989000   0.76997015   -7.6942613    733.19111  0.020441371  0.020181279            3 
 2990000   0.76601407   -7.6742717     731.8242  0.020396438   0.02017518            2 
 2991000   0.77752191    -7.705538    732.36815  0.020404774  0.020169066            3 
 2992000   0.76057746   -7.6999426    732.40616  0.020399013  0.020162981            3 
 2993000   0.75909689   -7.6859834    734.78398  0.020458402  0.020156897            1 
 2994000   0.75497939   -7.6836878    732.43152  0.020386092  0.020150791            3 
 2995000   0.76881799    -7.716048    731.06786  0.020341343  0.020144676            4 
 2996000   0.78006751   -7.7110461    732.76858  0.020381859  0.020138574            3 
 2997000   0.77983755   -7.6917741     731.2722   0.02033345   0.02013246            3 
 2998000   0.77710405   -7.6865129    730.78278  0.020313064  0.020126364            5 
 2999000   0.76425231   -7.6896419    734.12334  0.020399115  0.020120251            3 
 3000000     0.774637    -7.695191    733.03303  0.020362029  0.020114166            3 
 3001000   0.77127016   -7.7125611    735.00897  0.020410113   0.02010807            4 
 3002000   0.78000369    -7.712444    731.63946  0.020309779  0.020101964            6 
 3003000    0.7714444   -7.6658726    735.73442  0.020416651  0.020095888            2 
 3004000   0.77215741   -7.7042333    733.52808  0.020348648  0.020089852            3 
 3005000   0.76804849   -7.6972322    734.31902  0.020363811  0.020083787            4 
 3006000   0.76621593   -7.7064068    732.65522  0.020310912   0.02007772            2 
 3007000   0.77029553   -7.6863535    733.15266  0.020317943  0.020071634            2 
 3008000   0.77602587   -7.7148199    732.98099  0.020306433   0.02006557            1 
 3009000   0.77309421   -7.6936345    733.01208  0.020300545  0.020059515            3 
 3010000   0.75655888   -7.7024215    734.53205  0.020335882  0.020053463            2 
 3011000   0.76300122   -7.6975419    734.00366  0.020314504  0.020047386            4 
 3012000   0.73946952   -7.6889532     735.4136  0.020346769  0.020041315            3 
 3013000   0.77170517    -7.723843    733.45638  0.020285883  0.020035244            4 
 3014000   0.76783639    -7.711263    733.73583  0.020286879  0.020029182            4 
 3015000   0.76377562   -7.6973934    733.27213  0.020267333  0.020023121            2 
 3016000   0.78499638   -7.7342122    734.95404  0.020307086  0.020017064            3 
 3017000   0.76403465   -7.6837992    734.81882   0.02029662  0.020011015            2 
 3018000   0.75642059    -7.731533     733.5554  0.020255009  0.020004979            4 
 3019000    0.7768711   -7.6846686    735.12446   0.02029161  0.019998956            3 
 3020000   0.77481015   -7.7231415    732.82523  0.020221447  0.019992931            6 
 3021000   0.77524298   -7.7030743     733.2834  0.020227392  0.019986927            2 
 3022000   0.76338057   -7.6842278    733.45227  0.020225355   0.01998091            2 
 3023000   0.77419545   -7.6810018    737.33078  0.020325581  0.019974883            2 
 3024000   0.77930057   -7.7107704    733.22538  0.020205726  0.019968871            5 
 3025000   0.76942401   -7.7026849    734.40564   0.02023156  0.019962866            1 
 3026000   0.76902891   -7.6811708    734.98601  0.020240857  0.019956874            7 
 3027000   0.78527167   -7.7041763    734.22982  0.020213353   0.01995086            2 
 3028000   0.77904387   -7.7289512    734.91837  0.020225627  0.019944833            3 
 3029000   0.75168689   -7.6736078    734.80906  0.020215942  0.019938837            8 
 3030000   0.77592617   -7.7249703    734.47219  0.020200005  0.019932826            4 
 3031000   0.75500137   -7.6996616    736.44685  0.020247631  0.019926844            3 
 3032000   0.75515885   -7.7080871    735.88921  0.020225627  0.019920863            4 
 3033000   0.78389974   -7.7066964    734.01352  0.020167423  0.019914867            6 
 3034000   0.76362105   -7.7160557    735.22959  0.020194177  0.019908861            3 
 3035000   0.76293537   -7.7220546    736.77666  0.020230002   0.01990287            5 
 3036000   0.75754893   -7.7149192    735.85816  0.020198127  0.019896892            3 
 3037000   0.77101193    -7.706047    735.68602  0.020186753  0.019890907            3 
 3038000   0.78137292   -7.7296561    737.00224  0.020216212  0.019884933            2 
 3039000   0.77691213   -7.7124451     735.8262  0.020177312  0.019878973            2 
 3040000   0.76601098   -7.6793818     735.3364  0.020157248  0.019873006            3 
 3041000   0.77303507   -7.7275525    735.59492  0.020157704  0.019867024            3 
 3042000   0.77117777   -7.6906747    735.29632  0.020142897  0.019861062            4 
 3043000   0.75209811   -7.6711291    737.56747  0.020198474  0.019855119            3 
 3044000   0.76635414   -7.7081305    736.70486  0.020168223  0.019849182            4 
 3045000   0.75907785   -7.7106446    736.20176  0.020147831  0.019843222            3 
 3046000   0.75589867   -7.7399668    736.01954  0.020136232   0.01983728            4 
 3047000   0.76365552   -7.7121598    737.14824  0.020160492  0.019831334            4 
 3048000   0.76554162   -7.7013531     737.3555  0.020159544  0.019825416            2 
 3049000   0.74407284   -7.6820301    738.27714  0.020178122  0.019819521            3 
 3050000   0.75905211    -7.727452    736.86266  0.020132859  0.019813614            5 
 3051000   0.77135707   -7.7002629    738.34379  0.020166716  0.019807666            3 
 3052000   0.76054489   -7.7557707    736.18923  0.020101279  0.019801735            3 
 3053000   0.76793783   -7.7402259    735.50561  0.020076035  0.019795764            7 
 3054000   0.75996456   -7.7504705    735.20962  0.020061385  0.019789789            2 
 3055000   0.74945873   -7.7169407    737.33112  0.020112687  0.019783819            2 
 3056000   0.76053219   -7.7364426    736.74498  0.020090123  0.019777871            1 
 3057000   0.75758811   -7.7309886     738.0812  0.020119976   0.01977192            5 
 3058000   0.75885373   -7.7295077     735.8854  0.020053559  0.019765975            5 
 3059000    0.7629492   -7.7114212      737.766  0.020098235  0.019760034            2 
 3060000   0.76417654   -7.7161687    737.06745  0.020072643  0.019754107            4 
 3061000   0.76101619     -7.71153    738.83353  0.020114165  0.019748191            1 
 3062000   0.75693792   -7.7040082    735.44466  0.020015367  0.019742275            3 
 3063000   0.76669816   -7.6993904    736.19114  0.020029142  0.019736369            3 
 3064000   0.74200636   -7.7076238    735.48706  0.020003456  0.019730428            3 
 3065000   0.76375664   -7.6830448    737.47061  0.020050859  0.019724491            4 
 3066000   0.78125257   -7.6967452    737.66215  0.020049526  0.019718569            3 
 3067000   0.75297355   -7.6943157    739.37505   0.02008953  0.019712692            3 
 3068000   0.76414528   -7.7296991    736.89445  0.020015603  0.019706796            6 
 3069000   0.75210586   -7.7357565    736.74509  0.020005026  0.019700875            8 
 3070000   0.76690739   -7.7401845     736.9884  0.020005114  0.019694948            2 
 3071000   0.73785734    -7.712815    737.17253  0.020003596  0.019689027            3 
 3072000   0.77293919   -7.6989328    736.88727  0.019989346  0.019683089            5 
 3073000   0.76353629   -7.7160773    737.06319  0.019987612  0.019677152            3 
 3074000   0.74878802   -7.7279598    738.13022  0.020010036  0.019671183            3 
 3075000   0.76113101   -7.7185455     737.4005  0.019983753  0.019665245            3 
 3076000   0.75336333   -7.7309329    736.41974  0.019950686  0.019659281            7 
 3077000   0.74733106    -7.720268     736.4557  0.019945177  0.019653348            5 
 3078000   0.76280209   -7.7167961    737.65922  0.019971281  0.019647403            2 
 3079000   0.74411735   -7.7148255    737.91616  0.019971748   0.01964152            3 
 3080000   0.76480129   -7.7411929    737.35925  0.019950196  0.019635589            3 
 3081000   0.75737494   -7.7546107    736.90481  0.019931429  0.019629654            2 
 3082000   0.76708075    -7.732334     736.4634  0.019913027  0.019623754            2 
 3083000   0.75225368   -7.7347975    736.85578  0.019917174   0.01961785            2 
 3084000   0.77711463   -7.7377923    738.50907   0.01995539  0.019611963            2 
 3085000   0.74952713   -7.7458925    738.78545  0.019956387  0.019606091            4 
 3086000   0.75974562   -7.7157594    738.53905  0.019943267  0.019600212            7 
 3087000   0.77452198    -7.676936    739.66504  0.019967202  0.019594347            3 
 3088000   0.74094017     -7.72227     738.3038  0.019924002  0.019588487            2 
 3089000   0.76121457   -7.7110844    739.71618  0.019955654  0.019582647            1 
 3090000   0.77242082    -7.722013    740.12156  0.019960128  0.019576812            3 
 3091000   0.74771571   -7.7354901    738.22427   0.01990252  0.019570953            6 
 3092000   0.76065595   -7.7113688     740.9414  0.019969313  0.019565119            5 
 3093000   0.75830813   -7.7493992    738.98446  0.019910132  0.019559279            4 
 3094000   0.76954002   -7.7193747    738.76159  0.019897694  0.019553463            4 
 3095000   0.75233421   -7.7294766    739.99422  0.019924454  0.019547645            3 
 3096000   0.75850852   -7.7211598    739.05353  0.019892698  0.019541848            3 
 3097000   0.73895707   -7.7385851    738.54875  0.019872693  0.019536014            3 
 3098000   0.75934921   -7.7434266     739.3782   0.01988859  0.019530172            4 
 3099000    0.7413397   -7.7142006    741.27881   0.01993328  0.019524329            3 
 3100000   0.76242685   -7.7306732    740.52829  0.019906674  0.019518508            2 
 3101000   0.76240089   -7.7629128    739.06061  0.019860814  0.019512697            5 
 3102000   0.76039661   -7.7115104    740.02753  0.019880387  0.019506891            5 
 3103000   0.75986154   -7.7481142    738.13685  0.019823205  0.019501068            4 
 3104000   0.76106183   -7.7603104    739.48551  0.019853026  0.019495215            2 
 3105000   0.76312408   -7.7399254    740.95392  0.019886042   0.01948934            2 
 3106000   0.74590178   -7.7192422    739.76965  0.019847866  0.019483503            3 
 3107000   0.74272626   -7.7497124    740.25804  0.019854577  0.019477685            4 
 3108000   0.77237516   -7.7341205    739.44075  0.019826275  0.019471887            2 
 3109000   0.77008222   -7.7383299    739.33318  0.019817015  0.019466098            2 
 3110000   0.74996412   -7.7363067    741.54461  0.019869898  0.019460299            3 
 3111000   0.75092287   -7.7503395     741.7308  0.019868499  0.019454501            4 
 3112000   0.73763657    -7.774661    738.14881  0.019766196  0.019448659            5 
 3113000   0.74425506   -7.7565284    741.66131  0.019853874  0.019442819            4 
 3114000   0.75453256   -7.7473614    739.37805  0.019786396   0.01943701            3 
 3115000   0.75296538   -7.7415105    740.23647  0.019803009  0.019431184            3 
 3116000   0.74763648   -7.7506483    740.12526   0.01979368  0.019425382            2 
 3117000    0.7528621   -7.7620126    739.96105  0.019782939  0.019419565            2 
 3118000   0.73932581   -7.7222202     742.0052  0.019831227  0.019413776            4 
 3119000   0.74926133   -7.7366063     740.4745  0.019783972  0.019407998            2 
 3120000   0.76290412   -7.7340635    740.18719  0.019769957  0.019402208            6 
 3121000   0.75089764   -7.7431273    740.31984  0.019767164  0.019396409            4 
 3122000   0.75045491   -7.7266404    740.70995  0.019771246  0.019390598            2 
 3123000    0.7490386   -7.7259998    741.34497   0.01978186  0.019384788            5 
 3124000   0.75771556   -7.7349088     741.3102    0.0197746  0.019379006            3 
 3125000   0.75499673   -7.7049973    740.76531  0.019753742  0.019373221            3 
 3126000   0.75817079   -7.7504684    739.77954  0.019721144  0.019367439            3 
 3127000   0.74677505   -7.7304053     740.1014  0.019723414   0.01936167            2 
 3128000   0.74847715   -7.7473925    740.13369  0.019717969  0.019355857            4 
 3129000   0.76270762   -7.7541444    741.77278  0.019755321  0.019350066            2 
 3130000   0.74564175   -7.7471799    740.18775  0.019706809   0.01934428            3 
 3131000   0.75210476   -7.7626563    738.94086  0.019667328  0.019338477            3 
 3132000   0.75509056   -7.7773001    740.84558  0.019711728  0.019332689            4 
 3133000   0.73971196   -7.7525653    740.56981  0.019698101  0.019326905            5 
 3134000   0.74008057   -7.7399986    741.69436  0.019721718  0.019321135            3 
 3135000   0.74404656   -7.7494151    742.39893  0.019734155  0.019315344            4 
 3136000   0.73970532   -7.7413283    739.56956  0.019652677  0.019309559            2 
 3137000   0.73952608   -7.7459576    741.76929  0.019704848  0.019303805            6 
 3138000   0.74650666   -7.7359728     742.0203  0.019705234  0.019298062            7 
 3139000   0.74383303   -7.7195827    741.46936  0.019684331  0.019292319            4 
 3140000   0.76250066   -7.7438426    741.29286  0.019673377  0.019286567            3 
 3141000   0.75817162   -7.7364626     742.5694  0.019700982  0.019280804            4 
 3142000   0.76326384   -7.7445363    741.88697  0.019676612  0.019275035            4 
 3143000   0.75005707   -7.7046638    741.31229  0.019655114  0.019269287            3 
 3144000   0.74883563   -7.7250023    742.27869  0.019674477  0.019263533            2 
 3145000   0.75394462   -7.7488994    740.32804  0.019616535  0.019257768            5 
 3146000   0.75250801   -7.7642205    741.32179  0.019636623  0.019251982            3 
 3147000   0.74939325   -7.7465323     741.5557  0.019636577  0.019246202            3 
 3148000   0.73276398   -7.7741362    740.37197  0.019599004  0.019240441            4 
 3149000   0.75315781   -7.7321432    741.37263  0.019619261   0.01923467            1 
 3150000   0.75696662   -7.7676046    742.18441  0.019634508  0.019228926            4 
 3151000   0.75940789   -7.7599443    742.08072  0.019625535  0.019223167            3 
 3152000   0.74222726   -7.7728938    741.77476  0.019611219  0.019217406            5 
 3153000   0.74997362   -7.7448073    742.35119  0.019620234  0.019211612            3 
 3154000   0.76104309   -7.7321416    741.11384  0.019581321  0.019205846            4 
 3155000   0.74984218   -7.7742255    740.59856  0.019561505  0.019200078            2 
 3156000   0.73856889   -7.7505853    741.05375  0.019567325  0.019194298            8 
 3157000   0.75385006   -7.7812192    742.58253  0.019601482  0.019188522            4 
 3158000   0.74925802   -7.7665152    741.43092  0.019564886  0.019182743            2 
 3159000     0.737476   -7.7588119    741.16774   0.01955175  0.019176956            3 
 3160000    0.7506151   -7.7648186    742.76268  0.019587623  0.019171167            2 
 3161000     0.739411   -7.7543972    741.43799  0.019546504  0.019165394            2 
 3162000   0.74451142   -7.7675564    741.57183  0.019543849  0.019159615            4 
 3163000    0.7454547   -7.7626746    740.37527  0.019506146  0.019153852            4 
 3164000   0.75082047   -7.7515065    742.24646  0.019549264  0.019148068            4 
 3165000   0.73959549   -7.7336155    741.59637  0.019525971  0.019142307            2 
 3166000   0.73835386   -7.7799072    740.79888  0.019498812  0.019136546            3 
 3167000   0.74406689   -7.7748763    743.56992   0.01956557  0.019130763            3 
 3168000   0.75329589   -7.7686924    741.77507  0.019512181  0.019124988            3 
 3169000   0.74819108   -7.7554314    742.27929  0.019519283  0.019119232            2 
 3170000   0.75445144   -7.7426075    742.90722  0.019529632  0.019113468            2 
 3171000   0.74677218   -7.7421186    741.96229  0.019498641  0.019107717            4 
 3172000   0.74251445    -7.789133     740.6094  0.019456952  0.019101952            1 
 3173000   0.74131872   -7.7464467    743.43292  0.019524974  0.019096185            3 
 3174000   0.75464613   -7.7492544    741.32948  0.019463597  0.019090425            2 
 3175000   0.73965286   -7.7567654    743.11162  0.019504242   0.01908466            3 
 3176000   0.74889432   -7.7545615    742.65106  0.019486016  0.019078923            7 
 3177000   0.75114822   -7.7450655    741.51984  0.019450211  0.019073204            8 
 3178000   0.74731375   -7.7383434    745.11011  0.019538234  0.019067512            3 
 3179000   0.75299289   -7.7350154    742.69809  0.019468861  0.019061813            4 
 3180000   0.75245074   -7.7687454    743.43455  0.019482037  0.019056105            2 
 3181000   0.73759422   -7.7548286    743.07741  0.019466557  0.019050378            3 
 3182000   0.74527815   -7.7524064    742.99845  0.019458371  0.019044677            5 
 3183000   0.74222449   -7.7545073    742.73216  0.019445286  0.019038959            3 
 3184000   0.75672981   -7.7750542    742.87311  0.019442868  0.019033238            4 
 3185000   0.75375786   -7.7726093    743.72376   0.01945902  0.019027528            5 
 3186000   0.75175223   -7.7425979    743.93643  0.019458475  0.019021807            3 
 3187000   0.73512107   -7.7648116    742.39061   0.01941195  0.019016103            6 
 3188000   0.73157215   -7.7625629     743.7561  0.019441554  0.019010405            2 
 3189000   0.74843988   -7.7811019    743.25989  0.019422491  0.019004705            2 
 3190000   0.74798809    -7.741222    745.25076  0.019468411  0.018999024            3 
 3191000   0.74348306   -7.7723134    742.96152  0.019402526  0.018993353            5 
 3192000   0.72541075    -7.770908    742.30255  0.019379244  0.018987654            3 
 3193000   0.76094062   -7.7510808    744.31568  0.019425715  0.018981993            2 
 3194000   0.73502257   -7.7541062    743.64595  0.019402159   0.01897632            2 
 3195000   0.73046402   -7.7715184    742.66283  0.019370444  0.018970632            2 
 3196000   0.74973971   -7.7781976    744.99206  0.019425116  0.018964977            2 
 3197000   0.74439298   -7.7510089    744.80599   0.01941419  0.018959322            8 
 3198000   0.74515833     -7.76352    743.91073  0.019384791  0.018953681            5 
 3199000   0.75667308   -7.7821362    743.28358  0.019362394   0.01894802            3 
 3200000   0.74450251   -7.7594375    743.45375  0.019360775  0.018942334            4 
 3201000   0.75156623   -7.7328385    744.23761  0.019375133  0.018936641            4 
 3202000   0.74068515   -7.7670882    744.17029   0.01936733  0.018930959            4 
 3203000   0.73257066   -7.7660583    743.93015  0.019355036  0.018925297            4 
 3204000   0.73290041   -7.7635637    745.00117  0.019376851  0.018919652            3 
 3205000   0.73756694   -7.7663317    744.98116  0.019370285  0.018913999            2 
 3206000    0.7526698   -7.7727756    742.94854  0.019311409  0.018908348            6 
 3207000   0.74293775   -7.7819059    742.89543  0.019304008  0.018902675            2 
 3208000   0.75411784   -7.7644339    743.75794  0.019320395   0.01889701            5 
 3209000   0.74818692   -7.7758236    746.74995  0.019392073   0.01889135            7 
 3210000   0.73993921   -7.7918915    744.52849  0.019328362  0.018885696            3 
 3211000   0.74127551   -7.7798695    745.15575  0.019338621  0.018880048            2 
 3212000   0.71506136   -7.8035663    743.96417  0.019301686  0.018874395            6 
 3213000   0.73994417   -7.7787546    746.14234  0.019352172  0.018868733            3 
 3214000   0.75021034   -7.7863979    743.77994  0.019284898  0.018863088            4 
 3215000   0.73164796   -7.7727219    745.07245  0.019312402  0.018857447            6 
 3216000   0.74003895   -7.7755939    742.90318  0.019250186  0.018851773            5 
 3217000   0.74530744   -7.7913129    744.24518  0.019278966  0.018846124            6 
 3218000   0.74704991   -7.8052427    742.70174  0.019233005  0.018840468            4 
 3219000   0.72119705   -7.8059136    744.10482  0.019263353    0.0188348            5 
 3220000   0.74433546   -7.8142406    744.86701  0.019277097  0.018829148            6 
 3221000   0.73584037    -7.803647    744.52366  0.019262229   0.01882349            4 
 3222000   0.74393546   -7.7684477    744.65991  0.019259774  0.018817842           14 
 3223000   0.73382342   -7.7937604     745.4468  0.019274144   0.01881219            2 
 3224000   0.73197201   -7.7999008    744.18535   0.01923556  0.018806554            2 
 3225000   0.71592932   -7.7958966    744.42629  0.019235821  0.018800915            3 
 3226000   0.73554199   -7.7744239    746.82923  0.019291931  0.018795268            3 
 3227000   0.72365269   -7.7927605    745.26798  0.019245635   0.01878964            3 
 3228000   0.74100073   -7.7862302    745.55548  0.019247095  0.018784018            6 
 3229000   0.73773874   -7.7766798    746.16143  0.019256773  0.018778392            3 
 3230000   0.74543362   -7.7683672    746.34426  0.019255528  0.018772786            4 
 3231000   0.72928168   -7.7685732    747.24685  0.019272848  0.018767176            3 
 3232000   0.72510641   -7.7812996    745.86389  0.019231227  0.018761563            2 
 3233000   0.74478717   -7.7637694    746.69814  0.019246782  0.018755961            2 
 3234000   0.73536549    -7.768884    745.97286  0.019222141  0.018750353            6 
 3235000   0.73623521   -7.7807772    746.97928  0.019242125  0.018744791            3 
 3236000   0.73637112   -7.7673194     745.9856  0.019210589  0.018739194            3 
 3237000   0.73734061   -7.7722866    746.66318  0.019222098  0.018733623            4 
 3238000   0.73987875   -7.7604932    745.95831  0.019198021  0.018728029            2 
 3239000   0.73622833   -7.8007502    745.20228  0.019172643  0.018722428            2 
 3240000   0.72876311   -7.7734646    745.79015  0.019181845   0.01871684            2 
 3241000   0.73380133   -7.7857153    747.38142  0.019216842   0.01871124            4 
 3242000   0.73278677   -7.7734822    745.79341  0.019170096  0.018705649            3 
 3243000   0.74047603   -7.8007786    745.01918   0.01914429  0.018700044            3 
 3244000   0.73637094   -7.7869421    747.51084  0.019202395  0.018694414            3 
 3245000   0.74252073   -7.7549272    746.76697  0.019177375  0.018688826           11 
 3246000   0.72954294   -7.7725192    746.48529  0.019164235  0.018683227            3 
 3247000   0.73540175   -7.7775514    745.35526  0.019129331  0.018677656            4 
 3248000   0.73857417   -7.8032225     745.8723  0.019136707  0.018672077            6 
 3249000   0.73464294   -7.8047775    744.95145  0.019107198  0.018666505            3 
 3250000   0.72606764   -7.7744145    747.44788   0.01916533  0.018660932            4 
 3251000   0.72911664   -7.7790578    747.23173  0.019153894  0.018655359            3 
 3252000   0.73666126   -7.7848245    747.05951  0.019143591  0.018649794            3 
 3253000   0.72680432   -7.7884754    747.13299  0.019139589  0.018644224            5 
 3254000   0.72486114   -7.7973979    747.15542  0.019134282  0.018638668            4 
 3255000   0.72892621   -7.7915539    747.46981  0.019136452  0.018633133            5 
 3256000   0.75285044   -7.7728514    747.97929  0.019143614  0.018627605            5 
 3257000    0.7317215   -7.8035034    746.70927  0.019105242  0.018622061            3 
 3258000   0.72308989   -7.7814411    746.94422  0.019105387  0.018616523            4 
 3259000   0.71831375   -7.8050142    748.88471  0.019149144  0.018610986            2 
 3260000   0.72768818   -7.7798703    747.75674  0.019114436  0.018605449            7 
 3261000   0.73486556   -7.7817527    748.15134  0.019118658  0.018599908            1 
 3262000   0.73515019   -7.7956756    747.45568  0.019095026  0.018594378            2 
 3263000   0.74718284   -7.7741984    748.34192  0.019111807  0.018588873            2 
 3264000    0.7274642   -7.7960117    747.69063  0.019089324  0.018583339            4 
 3265000   0.73239925   -7.7635314    748.41382  0.019101935  0.018577805            3 
 3266000   0.73280417   -7.8012139    747.11402  0.019062921  0.018572264            4 
 3267000   0.73174582   -7.7612928    748.26252  0.019086382  0.018566734            9 
 3268000   0.72829923   -7.7900185    747.18512  0.019053068  0.018561203            9 
 3269000   0.73245613   -7.7765176    749.81115  0.019114182  0.018555663            2 
 3270000   0.73129374    -7.799322    747.38658  0.019046549  0.018550111            2 
 3271000   0.72948912   -7.8010416    746.90798  0.019028533  0.018544553            5 
 3272000   0.73060564   -7.8014858    747.20782  0.019030354  0.018538999            4 
 3273000   0.73376351   -7.7699507     746.9778  0.019018683   0.01853345            3 
 3274000   0.73783942   -7.7761351    748.04652  0.019040076  0.018527917            3 
 3275000   0.71727265   -7.8076292    747.30781  0.019015466  0.018522382            4 
 3276000   0.72842169   -7.7775212    748.23966  0.019033365  0.018516846            7 
 3277000   0.72079425   -7.7984531    748.61451   0.01903709  0.018511339            2 
 3278000    0.7302297   -7.7941453     748.0659  0.019017335  0.018505843            6 
 3279000   0.73654718    -7.785499    747.22031  0.018990045  0.018500328            3 
 3280000   0.72902937   -7.7841889    748.03849  0.019005043  0.018494823            2 
 3281000   0.71721156   -7.7999868    748.26596  0.019005028  0.018489303            3 
 3282000   0.72524828   -7.7814137     748.3471  0.019001297   0.01848378            4 
 3283000   0.72897859    -7.793924    748.61701  0.019002361  0.018478264            4 
 3284000    0.7317477   -7.8124468    748.87505  0.019003122  0.018472761            3 
 3285000   0.73605602   -7.8010487    746.96584  0.018948905  0.018467232            8 
 3286000   0.72210334   -7.8244989    746.21302  0.018924047  0.018461683            4 
 3287000   0.70693966    -7.824264    745.91809  0.018910813  0.018456129            4 
 3288000   0.72239102   -7.8021009    747.84549   0.01895391  0.018450564            5 
 3289000   0.71537395   -7.8300355     745.6441  0.018892371  0.018445002            3 
 3290000   0.73676657   -7.8258911    746.30022  0.018903248  0.018439442            5 
 3291000   0.72873333   -7.8195955    746.93568  0.018913595  0.018433892            2 
 3292000   0.72146003   -7.8100285    748.86475  0.018956682  0.018428359            3 
 3293000   0.69717628   -7.8298868    746.92459  0.018901827  0.018422803            5 
 3294000    0.7118511   -7.8048844     747.3511  0.018906879  0.018417253            5 
 3295000   0.72232963   -7.8229584    748.32614    0.0189258  0.018411723            2 
 3296000   0.71378603   -7.8028875    747.27001  0.018893356  0.018406192            2 
 3297000   0.71260216   -7.8178849    747.75002  0.018899758  0.018400673            4 
 3298000   0.72837125   -7.7915266    749.91347  0.018948693  0.018395178            5 
 3299000   0.72357276   -7.7895363    747.76765  0.018888745  0.018389696            9 
 3300000   0.74055154   -7.7877595     746.8705  0.018860366    0.0183842            3 
 3301000   0.72155647   -7.7666848    747.63424  0.018873933  0.018378703            2 
 3302000   0.72402925   -7.7755893    748.61728  0.018893026  0.018373226            4 
 3303000   0.73367016   -7.7968601    748.40476  0.018881945   0.01836772            3 
 3304000   0.71190629   -7.7949194    750.09667  0.018918903  0.018362225            2 
 3305000   0.73380709   -7.7961046     749.1014  0.018888084  0.018356736            4 
 3306000   0.72015144   -7.8310871    747.35504   0.01883835  0.018351227            3 
 3307000   0.71488268    -7.846954    745.57984  0.018787921  0.018345689            6 
 3308000   0.72598019   -7.8218106    747.72813  0.018836359   0.01834015            2 
 3309000   0.71005496   -7.8430061    747.51581   0.01882532  0.018334631            1 
 3310000   0.71147494   -7.8141931    747.90402  0.018829406  0.018329078            5 
 3311000   0.72297478   -7.8237564    747.43004   0.01881179  0.018323528            4 
 3312000   0.70534157    -7.850829    747.52681  0.018808545  0.018317974            4 
 3313000   0.72292467   -7.8254158    748.55031  0.018828612  0.018312451            3 
 3314000   0.70821994   -7.8269662     748.4368  0.018820076  0.018306923            6 
 3315000   0.72470244   -7.8329208    746.63379  0.018769075  0.018301386            3 
 3316000   0.72287224   -7.8365591    747.08292  0.018774701  0.018295859            4 
 3317000   0.73508851   -7.8337319    749.54935  0.018831006  0.018290347            2 
 3318000   0.72916396   -7.8183785    748.48183  0.018798519  0.018284815            5 
 3319000   0.72139449   -7.8201403    747.30019  0.018763186   0.01827931            4 
 3320000    0.7143405   -7.8243334     748.8383  0.018796142  0.018273801            4 
 3321000   0.71222004   -7.8169582    748.40388  0.018779581  0.018268293            2 
 3322000   0.71917975   -7.8156102    747.63017   0.01875452  0.018262805            2 
 3323000   0.72698062   -7.8159529    747.70841  0.018750838  0.018257329            5 
 3324000   0.73182087   -7.8059627    748.01758  0.018752948  0.018251838            2 
 3325000    0.7242178   -7.8236162    748.16303  0.018750953  0.018246375            2 
 3326000   0.73223034   -7.7897218    748.64731  0.018757449   0.01824091            2 
 3327000   0.72322039   -7.8005638    749.24701  0.018766832  0.018235449            2 
 3328000   0.72209139   -7.7776916    749.98378  0.018779642  0.018230017            2 
 3329000   0.70506146   -7.8006359    747.94359   0.01872293  0.018224585            4 
 3330000   0.72044686   -7.8073973    749.06073  0.018745264  0.018219152            2 
 3331000   0.72114301   -7.7966554    751.52773  0.018801354  0.018213718            3 
 3332000   0.71566575   -7.8314787    750.00196  0.018757552  0.018208283            4 
 3333000   0.72066104   -7.8293277    750.38079  0.018761396  0.018202853            3 
 3334000   0.72083312   -7.8264521    750.56952  0.018760486  0.018197405            5 
 3335000   0.71176803   -7.8291679     750.5562  0.018754528  0.018191986            4 
 3336000   0.71732691   -7.8265961    749.13084    0.0187133  0.018186564            3 
 3337000   0.72039053    -7.793817    751.47922  0.018766338  0.018181143            2 
 3338000   0.70439388   -7.8077524    750.62151  0.018739303  0.018175718            4 
 3339000   0.71961029   -7.8046312    750.42666  0.018728827  0.018170293            3 
 3340000   0.74788093    -7.818677    750.10395  0.018715168  0.018164884            5 
 3341000   0.71501068   -7.7987727    750.08125     0.018709  0.018159468            3 
 3342000   0.71339062   -7.7947284    750.42609  0.018712001  0.018154057            4 
 3343000   0.71967536   -7.7993533    751.04529  0.018721839  0.018148667            5 
 3344000    0.7091592   -7.8245974    751.33554  0.018723473   0.01814325            6 
 3345000   0.70569114    -7.809831    750.60133  0.018699585  0.018137831            2 
 3346000   0.70765297   -7.8308816    750.12025  0.018682015  0.018132412            5 
 3347000   0.70888553   -7.8344528    749.03469  0.018649405  0.018126969            4 
 3348000   0.71733775   -7.8127068    750.77141  0.018687062  0.018121534            6 
 3349000   0.72608708   -7.8205847    749.55225  0.018651146  0.018116114           11 
 3350000   0.72370673   -7.8454238     749.7152  0.018649632  0.018110676           10 
 3351000   0.71772996   -7.8361148    751.41376  0.018686307  0.018105249            2 
 3352000   0.72692163   -7.8126942    750.52477  0.018658631   0.01809983            8 
 3353000   0.71202945   -7.8216509    749.91941  0.018638021  0.018094416            4 
 3354000   0.71453295   -7.8113399    750.70627  0.018652014  0.018089015            4 
 3355000   0.71668718   -7.8008912    750.45156  0.018640128  0.018083608            4 
 3356000   0.70456493   -7.8194834    751.01551  0.018648577  0.018078188            4 
 3357000   0.71194946   -7.8341182     749.5347  0.018606263   0.01807276            2 
 3358000    0.7252235    -7.814784    748.45389    0.0185739  0.018067318            3 
 3359000   0.70926458   -7.8263106    751.01044  0.018631796  0.018061877            5 
 3360000   0.72152635   -7.8273333    749.94887  0.018599922  0.018056448            2 
 3361000   0.69957712   -7.8360334    750.27322   0.01860243  0.018051022            3 
 3362000   0.71280076     -7.84171    749.54179  0.018578767  0.018045585            4 
 3363000   0.70460471   -7.8168037    750.40428  0.018594615  0.018040148            5 
 3364000   0.72352752   -7.8345869    751.02178  0.018604384  0.018034732            3 
 3365000   0.70087013   -7.8275491    750.86707  0.018595024  0.018029306            5 
 3366000    0.7257805   -7.8006926    751.93238  0.018615874  0.018023906            4 
 3367000   0.70220922   -7.8355374    750.88673  0.018584465  0.018018488            3 
 3368000    0.7136021    -7.835666    750.08067  0.018559003  0.018013064            2 
 3369000   0.70744823   -7.8427279    749.54827  0.018540325  0.018007637            2 
 3370000   0.71458038   -7.8236966    749.61539  0.018536483  0.018002216            3 
 3371000   0.71563222   -7.8504434    750.33292  0.018548722  0.017996805            3 
 3372000   0.71157227   -7.8156081    751.91574  0.018582338  0.017991378            2 
 3373000   0.72353033   -7.8226233    751.96581  0.018578066  0.017985961            2 
 3374000   0.69445383   -7.8323924    749.04752  0.018500482  0.017980546           10 
 3375000   0.71997225   -7.8522247    748.88829  0.018491069  0.017975115            3 
 3376000   0.70852791   -7.8440508    750.31676  0.018520852  0.017969697            3 
 3377000    0.7131342   -7.7807013    751.20838   0.01853737  0.017964287            3 
 3378000   0.72320706   -7.8224853    751.47073  0.018538354  0.017958897            2 
 3379000   0.70623332    -7.821744    750.58804  0.018511099  0.017953494            3 
 3380000   0.71292557   -7.8509263    750.36892   0.01850022  0.017948083            2 
 3381000   0.71304976   -7.8430644    750.78648   0.01850504  0.017942654            3 
 3382000   0.70946384    -7.833802    751.01527  0.018505206   0.01793724            3 
 3383000   0.70225514   -7.8409427    751.60627  0.018514294  0.017931824            5 
 3384000    0.7242563    -7.841045    750.99062  0.018493662  0.017926419            7 
 3385000   0.71392247   -7.8442702    749.46631  0.018450672  0.017921005            2 
 3386000   0.70550113   -7.8313055    749.32671  0.018441787  0.017915588            2 
 3387000   0.71296633   -7.8780677    748.69743   0.01842086  0.017910176            2 
 3388000   0.72772058    -7.844436     751.0084  0.018472265  0.017904757            8 
 3389000   0.70977328   -7.8486237    749.73988  0.018435622  0.017899334            5 
 3390000   0.70223926   -7.8508423    751.20854  0.018466287  0.017893912            3 
 3391000   0.72398804   -7.8667259    749.81513  0.018426598  0.017888497            3 
 3392000   0.70540592   -7.8432859    750.16505  0.018429763  0.017883081            5 
 3393000   0.72132007    -7.846545    750.99673  0.018444757   0.01787766            4 
 3394000   0.71093849   -7.8586152    750.72231  0.018432585  0.017872251            4 
 3395000   0.72759776    -7.841122    750.55127  0.018422957  0.017866846            4 
 3396000   0.71038118   -7.8672413     750.0663  0.018405632  0.017861444            3 
 3397000   0.70960463   -7.8529376    752.28715  0.018454694  0.017856066            2 
 3398000   0.72854884   -7.8211952    750.60811  0.018408086  0.017850677            4 
 3399000   0.71497136   -7.8588179    752.97526  0.018460706  0.017845303            2 
 3400000   0.70539486   -7.8257653    751.44639  0.018417804  0.017839932            2 
 3401000   0.71918165   -7.8590452    751.03845  0.018402393   0.01783456            9 
 3402000   0.70916988   -7.8336861    750.75884  0.018390134  0.017829181           15 
 3403000   0.69324608   -7.8381016    750.67865  0.018382766  0.017823803            8 
 3404000   0.70723485   -7.8608694    751.25046  0.018391365   0.01781843            8 
 3405000   0.71983569   -7.8557311    751.32494  0.018387786  0.017813075            4 
 3406000    0.7057147   -7.8367214    750.75498  0.018368443  0.017807725            2 
 3407000   0.69502966    -7.811788    753.16342   0.01842196  0.017802387            1 
 3408000   0.72284227   -7.8699182    752.71649  0.018405626  0.017797041            6 
 3409000   0.69574942   -7.8590732    751.19222  0.018362966   0.01779168            4 
 3410000   0.70959491   -7.8509995    752.23807   0.01838314  0.017786299            8 
 3411000   0.70870171   -7.8700583    750.47071  0.018334572  0.017780914            6 
 3412000   0.70010144   -7.8638269    750.40609  0.018327621  0.017775497            4 
 3413000   0.71186436   -7.8500613    750.73756  0.018330344  0.017770096            3 
 3414000   0.68951155    -7.830127    749.40717  0.018292501  0.017764693            6 
 3415000   0.71832277    -7.846228    750.92423  0.018324164  0.017759296            1 
 3416000   0.70001711    -7.850381    751.10779  0.018323277  0.017753918            4 
 3417000   0.71152072   -7.8799772    750.04404  0.018291972  0.017748532            2 
 3418000   0.71631631   -7.8432744    752.11452  0.018337101  0.017743134            4 
 3419000   0.71959601   -7.8527796    751.30343  0.018311968  0.017737757            3 
 3420000   0.70914868    -7.867516    750.95654  0.018298161  0.017732368            4 
 3421000   0.69414277   -7.8483675    751.04265   0.01829491   0.01772697            3 
 3422000   0.69366002   -7.8607895    750.26195  0.018270552  0.017721562            4 
 3423000   0.69062476   -7.8667633    749.04943  0.018235696  0.017716154            5 
 3424000   0.69711239   -7.8809037    749.95155  0.018252325  0.017710738            3 
 3425000   0.70782493   -7.8799523    749.67667  0.018240308   0.01770533            5 
 3426000   0.70839118   -7.8603166    749.17215  0.018222712  0.017699924            4 
 3427000   0.70071864   -7.8617505    750.38613  0.018246915  0.017694528            6 
 3428000   0.69518147   -7.8484988    749.35895  0.018216622  0.017689137            2 
 3429000    0.7009918   -7.8749286    750.64331  0.018242522  0.017683754            2 
 3430000   0.71047097   -7.8587724    750.91895  0.018243901  0.017678379            4 
 3431000   0.71443475   -7.8711152    752.20675  0.018269862  0.017672993            5 
 3432000   0.70183313   -7.8422601    749.59341  0.018201083  0.017667604            2 
 3433000    0.7119278   -7.8687163    750.61594  0.018220603   0.01766222            7 
 3434000   0.70333729   -7.8495575    751.28478  0.018231527  0.017656882            5 
 3435000   0.70731794   -7.8466443    752.75245  0.018261826  0.017651535            6 
 3436000   0.70889363   -7.8721989    753.08548  0.018264588  0.017646195            2 
 3437000   0.70162382   -7.8403109     750.9118  0.018206571  0.017640857            7 
 3438000   0.70095346    -7.833593     750.8989  0.018200962  0.017635516            5 
 3439000   0.70123034   -7.8710851    751.65017  0.018213874  0.017630176            8 
 3440000   0.69288826   -7.8468863    749.78826  0.018163475   0.01762483            3 
 3441000   0.68877103   -7.8407586    750.82388  0.018183277   0.01761949            3 
 3442000   0.69377197   -7.8474311    751.21874  0.018187554  0.017614123            3 
 3443000   0.69824585   -7.8597005     751.2523  0.018183084  0.017608762            4 
 3444000   0.69348293   -7.8628363    751.31369   0.01817929  0.017603406            5 
 3445000   0.70829811   -7.8543562    751.74282  0.018184393  0.017598055            5 
 3446000    0.6973979   -7.8419613    751.82747  0.018181164  0.017592703            3 
 3447000   0.69195994   -7.8444773    751.71478  0.018173165   0.01758736            8 
 3448000   0.71702193   -7.8327083     752.1179  0.018177637   0.01758202            2 
 3449000   0.68512494   -7.8599045    750.16702   0.01812523  0.017576675            5 
 3450000    0.7122144   -7.8604331    752.04028  0.018165224  0.017571313            4 
 3451000   0.69212393   -7.8832855    751.99298  0.018158818  0.017565961            3 
 3452000   0.69795381   -7.8742688    751.87903  0.018150807  0.017560603            3 
 3453000   0.70699166   -7.8629553    750.91119  0.018122193  0.017555221            2 
 3454000   0.68619071   -7.8612955    751.47815  0.018130625  0.017549845            5 
 3455000   0.69664466    -7.847179    750.97891  0.018113336  0.017544459            4 
 3456000   0.69987189     -7.86373    750.95652  0.018107555   0.01753909            2 
 3457000   0.69671134   -7.8946637    749.74087  0.018073013  0.017533711            6 
 3458000   0.69852997   -7.8607521    751.20194  0.018102996   0.01752833            3 
 3459000   0.70577052   -7.8459651      751.817  0.018112581  0.017522963            2 
 3460000   0.71620071   -7.8787091     751.5471  0.018100845  0.017517617            5 
 3461000   0.69818298   -7.8384746    751.59683  0.018096813  0.017512272            2 
 3462000   0.70058782   -7.8773549     751.3297  0.018085155  0.017506913            5 
 3463000   0.69747594   -7.8626626    749.87437  0.018044912  0.017501542            2 
 3464000   0.69889317    -7.879145    751.71887  0.018084076  0.017496167            4 
 3465000   0.67459746   -7.8721018    749.64458   0.01802897  0.017490796            2 
 3466000   0.70728384   -7.9043387    751.29919  0.018063551  0.017485397            5 
 3467000   0.69838136   -7.8775373    750.89389  0.018048599  0.017480004            6 
 3468000   0.69292207   -7.8896854    751.63963  0.018061314  0.017474603            4 
 3469000   0.69938354   -7.8997732    749.91674  0.018014719  0.017469207            7 
 3470000   0.68992133   -7.8711003    750.28312  0.018018327  0.017463826            4 
 3471000   0.69863633   -7.8767716    750.99778  0.018030293  0.017458473            5 
 3472000   0.70673169   -7.8720506    751.71416  0.018042295  0.017453112            3 
 3473000   0.69501781   -7.8879938    752.56209  0.018057445  0.017447767            3 
 3474000   0.70511899   -7.8804539     750.6337   0.01800599  0.017442418            6 
 3475000   0.70628376   -7.8871032    751.10877  0.018012201   0.01743706            4 
 3476000   0.69095452   -7.8800296    751.26497  0.018010763  0.017431694            2 
 3477000   0.67557662   -7.8836786    752.01391  0.018023533  0.017426333            3 
 3478000   0.69308685   -7.8682454    751.29594  0.018001149  0.017420967            4 
 3479000   0.70929253   -7.8752877    750.61321  0.017979621  0.017415601            3 
 3480000   0.68420537   -7.8641425    751.17034  0.017987796  0.017410242            3 
 3481000   0.69979412   -7.8910559     751.8576  0.017999081  0.017404887            3 
 3482000    0.6996751    -7.880438     750.9825  0.017972968  0.017399544            2 
 3483000    0.6992807   -7.8692747    751.38576  0.017977456  0.017394187            4 
 3484000   0.68625769   -7.8805281    749.85023  0.017935568  0.017388848            2 
 3485000   0.69357573   -7.8721791    752.22572  0.017987224   0.01738353            3 
 3486000   0.69326701   -7.8729396      751.678  0.017968971    0.0173782            4 
 3487000   0.67999466   -7.8770976     750.5848  0.017937692  0.017372877            5 
 3488000   0.69565265   -7.8811633    752.13882  0.017969677  0.017367553            2 
 3489000    0.6876644   -7.8920844    752.22342  0.017966548  0.017362217            4 
 3490000   0.68940977   -7.8605952    750.80063  0.017927427  0.017356898            2 
 3491000   0.69894402   -7.8981836    751.85293  0.017947411  0.017351582            3 
 3492000    0.6780735   -7.8901129     752.8558  0.017966204  0.017346257            4 
 3493000   0.67756343    -7.869298    751.90172  0.017938298  0.017340939            4 
 3494000   0.70083829   -7.8868218    751.48501  0.017923226  0.017335612            2 
 3495000   0.69369944   -7.8958399    753.30222  0.017961426  0.017330298            1 
 3496000    0.7030771   -7.8735608     750.0972  0.017879891  0.017324959            3 
 3497000   0.70982874   -7.9115622    750.15845  0.017876238  0.017319641            6 
 3498000   0.70375002    -7.863127    750.52656  0.017879897   0.01731432            3 
 3499000   0.69299844   -7.9183908    752.05887  0.017911281   0.01730899            3 
 3500000   0.68603299   -7.8965272    750.82009  0.017876669  0.017303644            4 
 3501000   0.69811408    -7.927675    748.90471  0.017825971   0.01729829            5 
 3502000   0.68232601   -7.9103684    749.73247  0.017840578  0.017292946            8 
 3503000   0.68511709   -7.9115092    751.35933  0.017874187  0.017287616            6 
 3504000   0.69647723    -7.897267    750.62368   0.01785159  0.017282305            4 
 3505000   0.70063454   -7.9002879    751.86834   0.01787609  0.017276985            3 
 3506000   0.69338991   -7.9193423     750.5962  0.017840754  0.017271664            3 
 3507000   0.69767074   -7.8884902    751.62581  0.017860132  0.017266332            4 
 3508000   0.68059705   -7.9082032    750.42731   0.01782657  0.017261005            2 
 3509000   0.67898772   -7.9193521    751.25811   0.01784122  0.017255679            4 
 3510000   0.69738617   -7.9218712    751.62057  0.017844743  0.017250335            5 
 3511000   0.67385544   -7.9230171    749.84071  0.017797416  0.017244978            4 
 3512000   0.68802256   -7.9291204    748.85206  0.017768889  0.017239623            3 
 3513000   0.69289477   -7.8849566    750.61133  0.017805563   0.01723428            2 
 3514000   0.70245772   -7.9313979    749.81308  0.017781566  0.017228936            2 
 3515000   0.69286386   -7.9053763    750.46003  0.017791845   0.01722359            3 
 3516000   0.69075448   -7.9072056    750.30147  0.017783027   0.01721826            4 
 3517000   0.67648797   -7.8852649    751.52107  0.017806868  0.017212929            5 
 3518000   0.68642624   -7.8981206    750.23591  0.017771364  0.017207598            2 
 3519000   0.68599855   -7.9297154    749.90467   0.01775847  0.017202271            3 
 3520000   0.68123446   -7.9154137     751.1024   0.01778178  0.017196948            3 
 3521000   0.70463967   -7.8973188    751.47671  0.017785589  0.017191633            4 
 3522000   0.70107407   -7.8988072    751.41329  0.017779039  0.017186332            9 
 3523000    0.6838109   -7.8787704    753.51235  0.017823643  0.017181044            4 
 3524000   0.68475724   -7.8934516    752.16824  0.017786801  0.017175759            4 
 3525000   0.69210445   -7.8961674    752.70954  0.017794552  0.017170474            2 
 3526000   0.68231796    -7.880496    751.60821  0.017763476  0.017165201            3 
 3527000   0.69464761   -7.9101118    751.03195  0.017744824  0.017159932            6 
 3528000   0.68076852    -7.888112    751.25913  0.017745161  0.017154655            2 
 3529000   0.67288598   -7.8928402    752.75865  0.017775542    0.0171494            6 
 3530000    0.7035298   -7.8707068    753.61847  0.017790804  0.017144132            4 
 3531000   0.69132218   -7.8966709     750.8197  0.017719714  0.017138868            2 
 3532000    0.6822414   -7.8875256    751.88379  0.017739803  0.017133605            4 
 3533000   0.68874719   -7.8868652    753.49779  0.017772851  0.017128342            2 
 3534000   0.68076675   -7.9031388    753.33118  0.017763893  0.017123078            5 
 3535000   0.67469012   -7.8911248     753.5287  0.017763524  0.017117816            4 
 3536000   0.68659453   -7.8986358    751.47142  0.017710016  0.017112546            7 
 3537000   0.69358425   -7.8917609    752.19358  0.017722024  0.017107283            3 
 3538000   0.67314951   -7.9168714    752.23498   0.01771799  0.017102025            3 
 3539000   0.69569814   -7.8932344    751.11761  0.017686673  0.017096753            7 
 3540000   0.69167105   -7.8727049    749.66886  0.017647572  0.017091472           13 
 3541000   0.67702688   -7.8996602    750.16466  0.017654256  0.017086203            4 
 3542000   0.68026689   -7.9275919    751.78533  0.017687402  0.017080939            4 
 3543000   0.69143672   -7.8841707    751.35051  0.017672182  0.017075677            4 
 3544000   0.68594731   -7.8904359    752.43267  0.017692642   0.01707042            2 
 3545000     0.679012   -7.8980192    752.44034  0.017687831  0.017065163            5 
 3546000   0.68763996   -7.8904182    751.90637  0.017670294   0.01705991            2 
 3547000   0.68095459   -7.9152066    750.71322  0.017637281  0.017054647            7 
 3548000   0.67433534   -7.9008633    752.03199  0.017663284  0.017049371            9 
 3549000   0.67836596   -7.8860388    751.86641  0.017654419  0.017044124            5 
 3550000   0.68918763   -7.9119761    752.73362  0.017669803  0.017038872            7 
 3551000   0.68002905   -7.8979978    754.00012  0.017694549  0.017033624            3 
 3552000   0.68545006   -7.9147108    751.72847  0.017636272  0.017028375            3 
 3553000    0.6809176   -7.9015028    752.99526   0.01766102  0.017023135            5 
 3554000   0.67593356   -7.9162785    752.72161  0.017649634    0.0170179            9 
 3555000   0.67284491   -7.8996573    752.42972  0.017637827  0.017012659            4 
 3556000   0.69398788   -7.9014262    752.29877  0.017629799  0.017007439            3 
 3557000   0.66961298   -7.8951208    753.30753  0.017648476  0.017002209            5 
 3558000   0.66930772   -7.9017936     753.0562  0.017637629  0.016996974            7 
 3559000   0.69730931   -7.8976562    752.00581  0.017608078  0.016991745            5 
 3560000   0.67641432   -7.8995466    753.58029  0.017639988  0.016986528            3 
 3561000   0.68063965   -7.8910466    754.27811  0.017651364  0.016981308            5 
 3562000   0.66703971   -7.8958452     752.3407  0.017601083  0.016976087            3 
 3563000   0.68942367   -7.9198397    751.10932  0.017567343  0.016970846            3 
 3564000   0.67209358   -7.9153998    750.77748  0.017554655  0.016965606            8 
 3565000   0.69632712   -7.9132415    753.30676  0.017608854  0.016960372            5 
 3566000   0.67752316   -7.9157123    750.96047  0.017549086  0.016955144            6 
 3567000   0.69395011   -7.9017893    751.85156  0.017564984  0.016949916            3 
 3568000   0.67866805   -7.9111147    753.05543  0.017588178  0.016944691           10 
 3569000   0.68643368   -7.9177325    752.30026  0.017565617  0.016939463            4 
 3570000    0.6856784   -7.9186989    751.67681  0.017546144  0.016934238            4 
 3571000   0.68720058   -7.9281379    751.98363  0.017548391  0.016929026            7 
 3572000   0.69322059    -7.904861    752.10982  0.017546422  0.016923809            9 
 3573000   0.68509682    -7.894296    754.79171  0.017604061  0.016918611            6 
 3574000   0.68457174   -7.8974633    753.67889  0.017573188   0.01691341            6 
 3575000   0.65065282   -7.9078495    753.43246  0.017562528  0.016908205            4 
 3576000   0.68567337    -7.893752    753.12931  0.017550553   0.01690301            4 
 3577000   0.68469518   -7.9192716    752.47219  0.017530337   0.01689782            4 
 3578000   0.68304055   -7.9044645    753.52908  0.017550053  0.016892618            2 
 3579000   0.69283173   -7.9200958    750.97376  0.017485651  0.016887414            2 
 3580000   0.68355089   -7.9100025    753.25538  0.017533878  0.016882222            4 
 3581000    0.6840812   -7.9404134     751.2207  0.017481632  0.016877025            4 
 3582000   0.68308016   -7.9077569     752.9235  0.017516367  0.016871834            2 
 3583000   0.67085775    -7.890762    754.93653  0.017558297  0.016866622            7 
 3584000   0.66126317   -7.9100447    754.20519  0.017536393   0.01686143            6 
 3585000   0.67201784   -7.9048293    753.12956  0.017506498  0.016856233            6 
 3586000   0.67613839   -7.8928148    752.78199   0.01749354  0.016851043            3 
 3587000   0.69694662   -7.9134558    752.92545  0.017491995  0.016845853            4 
 3588000   0.68909097   -7.9203767    753.73739  0.017505978  0.016840655            6 
 3589000   0.67986073   -7.8821403     752.7478  0.017478123  0.016835474            4 
 3590000   0.67061625   -7.9130221    752.76927  0.017473753  0.016830297           11 
 3591000   0.68825417   -7.8957887     755.2361  0.017526133  0.016825121            2 
 3592000   0.67082172   -7.8988696    753.37997  0.017478192  0.016819958            6 
 3593000    0.6794317   -7.9078762    754.20588  0.017492483  0.016814793            7 
 3594000    0.6652096   -7.9069407    752.81074  0.017455267  0.016809612            8 
 3595000    0.6576762   -7.9469255    750.75794  0.017402827  0.016804417            7 
 3596000   0.67314171   -7.9192014    753.14099  0.017453212  0.016799207            3 
 3597000   0.67578166   -7.9629992    750.91208  0.017396721  0.016793985            3 
 3598000   0.68710678   -7.9264102    751.17562   0.01739799  0.016788768            4 
 3599000   0.68503932   -7.9346347    752.86845  0.017432353  0.016783562            3 
 3600000   0.69490563    -7.935212    752.92877  0.017428907  0.016778356            5 
 3601000   0.67435165   -7.9244925    752.09668  0.017404811   0.01677316            4 
 3602000   0.68152302   -7.9224831    751.46743  0.017385421  0.016767959            7 
 3603000   0.66084565   -7.9425805    751.75544  0.017387257  0.016762759            3 
 3604000    0.6700419   -7.9352121    753.03149  0.017411938   0.01675757            4 
 3605000   0.67950933   -7.9101822    753.16281  0.017410143   0.01675239            3 
 3606000   0.69042907    -7.916158    753.64774  0.017416522  0.016747209            3 
 3607000   0.66224884    -7.904998    753.97504  0.017419255  0.016742019            7 
 3608000   0.67917436   -7.9291013    752.04654  0.017369885  0.016736843            7 
 3609000   0.66672021   -7.9603795     750.7152  0.017334331  0.016731643            2 
 3610000    0.6622409   -7.9205377    752.47045  0.017370047  0.016726452            6 
 3611000    0.6730763   -7.9315547    752.59714  0.017368161  0.016721261            4 
 3612000   0.67068279   -7.9376837    752.87959  0.017369869  0.016716075            4 
 3613000   0.68151817   -7.9462757    753.05628  0.017369137  0.016710884            2 
 3614000   0.67787008   -7.9371374    751.04007   0.01731784  0.016705709            4 
 3615000   0.67661897   -7.9315948    751.53533  0.017324466  0.016700528            5 
 3616000   0.67387986   -7.9545177    753.11387  0.017356053  0.016695355            5 
 3617000   0.66895306   -7.9148333    753.72448  0.017365323  0.016690184            5 
 3618000   0.67238052   -7.9081851    752.74724  0.017338015  0.016685015            3 
 3619000   0.67955716   -7.9445463    752.83262   0.01733519  0.016679855            3 
 3620000   0.68589038   -7.9146234    752.99226  0.017334076  0.016674695            2 
 3621000   0.66921614   -7.9195314    752.70114  0.017322589  0.016669537            2 
 3622000   0.67535849   -7.9370254    752.08047  0.017303526  0.016664374            2 
 3623000   0.67499196   -7.9214864    752.00056  0.017296912  0.016659203           10 
 3624000   0.67720541   -7.9485892    753.07674  0.017316886  0.016654053            8 
 3625000   0.66924821   -7.9181138    752.93973  0.017308959  0.016648901            3 
 3626000   0.67880872   -7.9172523    752.47287  0.017293456   0.01664375            5 
 3627000   0.68256023   -7.9426703    753.51154  0.017312553  0.016638592            2 
 3628000   0.67530994    -7.965153    753.74941  0.017313244  0.016633434            7 
 3629000    0.6851093   -7.9217737     753.0154  0.017291618  0.016628282            8 
 3630000   0.67375551   -7.9306545    753.36528  0.017294887  0.016623135            4 
 3631000   0.66249647    -7.929969    753.22535  0.017286913  0.016617986            4 
 3632000    0.6683579   -7.9459952    752.05861  0.017255383  0.016612826            4 
 3633000   0.68506328   -7.9434692    753.28763  0.017278824  0.016607667            5 
 3634000    0.6628824   -7.9432056    753.24041  0.017272987  0.016602518            4 
 3635000   0.66320918   -7.9466075    754.62504  0.017299978  0.016597359            5 
 3636000    0.6850895   -7.9466277    752.66629  0.017250327   0.01659221            4 
 3637000   0.67266382   -7.9319757    752.05881  0.017231665   0.01658707            6 
 3638000   0.64421417   -7.9375192    752.93995  0.017247113  0.016581922            8 
 3639000   0.67327442   -7.9501055    752.98166  0.017243328  0.016576786            5 
 3640000   0.65990287     -7.94351     752.4979  0.017227516  0.016571645            2 
 3641000   0.65591062   -7.9421764    752.92767  0.017232621  0.016566497            8 
 3642000   0.66758569   -7.9401615    753.72024  0.017246024  0.016561363            4 
 3643000    0.6681258   -7.9482385    754.35331  0.017255772  0.016556231           10 
 3644000   0.67752356   -7.9617987    753.54032  0.017232444  0.016551083            4 
 3645000     0.681357   -7.9532712    753.29432  0.017222092  0.016545933            2 
 3646000   0.67125758   -7.9574587    753.43717  0.017220634  0.016540786            5 
 3647000    0.6660637   -7.9725305    753.71918  0.017222356  0.016535655            8 
 3648000   0.68136227   -7.9576662    753.18707  0.017205479  0.016530534            3 
 3649000   0.66146361   -7.9493843    753.59493  0.017210079  0.016525412            4 
 3650000   0.66188182   -7.9667089    753.77193  0.017209405  0.016520293            8 
 3651000   0.66183037   -7.9651556    753.78972  0.017205097  0.016515173            6 
 3652000    0.6609101    -7.952585    753.54746  0.017194858  0.016510047            4 
 3653000   0.67991666   -7.9533965    753.44766  0.017187874  0.016504928            5 
 3654000   0.66892587   -7.9634397    752.97328  0.017172352   0.01649981            2 
 3655000   0.65923882   -7.9492794    752.31829   0.01715272  0.016494691            2 
 3656000   0.66026128   -7.9424527    753.72201  0.017180024  0.016489563            6 
 3657000   0.67892335   -7.9477051    752.48216  0.017147073   0.01648444            5 
 3658000   0.66630896   -7.9527326    753.86927  0.017173986  0.016479315            2 
 3659000   0.66686534   -7.9477818    754.44806  0.017182474  0.016474184            4 
 3660000   0.66486201   -7.9736484    751.69923  0.017115192  0.016469035            4 
 3661000   0.66405933   -7.9398301    753.69061  0.017155846  0.016463899            2 
 3662000   0.66922508   -7.9809971    754.49239  0.017169406  0.016458764            4 
 3663000   0.66520138   -7.9791505    752.40494  0.017117229  0.016453623            1 
 3664000   0.64966592   -7.9395992    753.01811  0.017126504  0.016448484            3 
 3665000   0.66410881   -7.9686819    751.96134  0.017097802  0.016443349            3 
 3666000   0.66517276   -7.9373361    752.34868  0.017101943  0.016438229            1 
 3667000   0.66752406   -7.9477416    754.23466  0.017140139  0.016433121            4 
 3668000   0.65745632   -7.9377772    754.35366  0.017138169  0.016428006            3 
 3669000   0.67125516   -7.9661149     753.7044  0.017118752  0.016422892            4 
 3670000    0.6600852   -7.9571567    752.35079  0.017083351  0.016417776            4 
 3671000   0.65773851   -7.9621097    752.31277  0.017077835  0.016412668            2 
 3672000   0.67792378   -7.9806365    754.55067  0.017123971  0.016407565            2 
 3673000   0.65722453   -7.9533567    753.93868  0.017105424  0.016402462            3 
 3674000   0.65566641     -7.93942    754.51009  0.017113729  0.016397373            3 
 3675000   0.66363299   -7.9498135    754.05556  0.017098766  0.016392277            4 
 3676000   0.65355148   -7.9544676    753.20372  0.017074803  0.016387171            6 
 3677000   0.65977273   -7.9500358      754.461  0.017098654   0.01638207            4 
 3678000   0.64858631   -7.9419012    752.85561  0.017057631  0.016376972            3 
 3679000   0.66606801   -7.9420145    754.35381  0.017086931  0.016371886            6 
 3680000   0.65953646   -7.9412705    752.86603  0.017048597  0.016366797            2 
 3681000   0.65555866   -7.9489165    753.02016  0.017047454   0.01636169            4 
 3682000    0.6590778   -7.9506925    753.56943  0.017055256  0.016356584            3 
 3683000   0.67331321    -7.957799    753.72153  0.017054067  0.016351464            6 
 3684000   0.67129001   -7.9400364    751.43276  0.016997665  0.016346357            3 
 3685000   0.66478953   -7.9657081    752.15804  0.017009454  0.016341239            5 
 3686000    0.6558086   -7.9723321    751.50323  0.016990035  0.016336122            9 
 3687000   0.66239378   -7.9691252    753.02868  0.017019905  0.016331011            4 
 3688000   0.68874729   -7.9366795    752.97817  0.017014149  0.016325899            3 
 3689000   0.65688034   -7.9952474    752.20635  0.016992102  0.016320784            4 
 3690000   0.66871458   -7.9775025    751.95891  0.016981908  0.016315665            3 
 3691000   0.66721003   -7.9571919    750.55573  0.016945627  0.016310537            7 
 3692000   0.66692013   -7.9831764    750.59619  0.016941951  0.016305405            4 
 3693000   0.67665596     -7.98973    753.10458  0.016993966  0.016300261            6 
 3694000   0.65290991   -7.9809139     751.7254  0.016958252  0.016295136            3 
 3695000   0.66676031   -7.9925119    752.48164  0.016970718  0.016290002            9 
 3696000   0.66772925   -7.9797657     752.1177  0.016957921  0.016284864            2 
 3697000   0.66229546   -7.9938794    751.80416  0.016946266  0.016279723            2 
 3698000   0.65757377   -7.9809572    752.00139  0.016946128  0.016274598            2 
 3699000   0.65300752   -7.9718871    751.92502  0.016939827  0.016269468            3 
 3700000   0.66731845   -7.9729167    751.42949  0.016924088  0.016264345            3 
 3701000   0.65596088   -7.9628779     752.4485  0.016942459  0.016259225            3 
 3702000   0.68037664   -7.9615799    751.21201  0.016910049  0.016254104            5 
 3703000   0.65844407   -7.9897374    752.57981  0.016936264  0.016248988            4 
 3704000   0.66147412   -7.9820032    752.78538  0.016936316   0.01624387            7 
 3705000   0.65103697   -7.9870926    750.06865   0.01687064  0.016238743            9 
 3706000   0.64832965    -7.978612    752.36089  0.016917631  0.016233618            4 
 3707000   0.66782154   -7.9952617    753.02272  0.016927945  0.016228484            2 
 3708000    0.6581661   -7.9858158    752.17307  0.016904285  0.016223363            3 
 3709000   0.65629502   -8.0026216    750.52228  0.016862638  0.016218231            2 
 3710000   0.64707339   -7.9807381    750.93817  0.016867434  0.016213114            2 
 3711000   0.67133519   -7.9810575    752.35543  0.016894715  0.016207998            3 
 3712000   0.66256268   -7.9962475    751.99892   0.01688216  0.016202885            4 
 3713000   0.64202766   -7.9952641    751.09284  0.016857277  0.016197776            4 
 3714000   0.65995282   -7.9858528    752.33838  0.016880685  0.016192677            6 
 3715000   0.67306163   -7.9759338    752.07724  0.016870283  0.016187574            1 
 3716000   0.67974177   -7.9772013    752.95824  0.016885501  0.016182488            3 
 3717000    0.6738729   -7.9711862    752.32315  0.016866719  0.016177397            3 
 3718000   0.66100808   -7.9866463     752.0113  0.016855193  0.016172303            3 
 3719000   0.65026234   -7.9900037    750.91144  0.016826016  0.016167214            6 
 3720000   0.66166378   -7.9912128    750.66984  0.016816081  0.016162128            2 
 3721000   0.66083522   -7.9790709    752.73844  0.016857888  0.016157048            4 
 3722000   0.66035888   -7.9670919    752.58834  0.016849999  0.016151976            2 
 3723000   0.65890504   -8.0080021    752.09965  0.016834534  0.016146898            2 
 3724000   0.65160986   -7.9766579    752.41961  0.016837174   0.01614182            4 
 3725000   0.65546832   -7.9769675    752.05308  0.016824454  0.016136749            4 
 3726000   0.65659163   -7.9902931     752.9847  0.016840774  0.016131671            4 
 3727000   0.65063627   -7.9879344    753.63249   0.01685074  0.016126587            5 
 3728000   0.65951055   -7.9999975    752.82739  0.016828223  0.016121498            4 
 3729000   0.64355003   -7.9810434    752.57763  0.016818129  0.016116416            3 
 3730000   0.65540604   -7.9942648    752.82527  0.016819153  0.016111339            4 
 3731000   0.65971092   -7.9589536    752.84006  0.016814975   0.01610627            2 
 3732000   0.65582094   -7.9777025    750.93279  0.016767881  0.016101197            5 
 3733000   0.65521028   -7.9687422    750.60784  0.016756135  0.016096127            5 
 3734000    0.6659809   -7.9712059    752.85861  0.016801879  0.016091065            4 
 3735000    0.6361258   -7.9905123    751.54139  0.016767992  0.016085998            3 
 3736000   0.67525944   -7.9700401    752.11751  0.016776354  0.016080927            4 
 3737000   0.65626614   -7.9911084    751.22972  0.016752068  0.016075867            4 
 3738000   0.65447748   -7.9741577     752.1607  0.016768341  0.016070803            4 
 3739000   0.66009079   -7.9621131    752.06173   0.01676165  0.016065746            9 
 3740000   0.64366463   -7.9749625    752.73637  0.016772201  0.016060694            3 
 3741000   0.65760333   -8.0063856    753.53455  0.016785497  0.016055653            7 
 3742000   0.65444759   -7.9595871    754.72507  0.016807524  0.016050618            9 
 3743000   0.64983373   -7.9865769    752.32074  0.016749504  0.016045582            4 
 3744000   0.65391572   -7.9559232    753.27241  0.016766213  0.016040541            4 
 3745000   0.64972657   -7.9922841    752.53541  0.016745336  0.016035502            5 
 3746000   0.65918413   -7.9679305    752.93334  0.016749718  0.016030476            4 
 3747000   0.66605004   -7.9884702    752.82922  0.016742933  0.016025442            4 
 3748000   0.65670043   -7.9893832    752.62758  0.016733982  0.016020406            6 
 3749000   0.66063622   -7.9944552    752.48808  0.016726418  0.016015368            2 
 3750000   0.66037955   -7.9899202    753.14174  0.016736483  0.016010337            4 
 3751000   0.67170776   -7.9996181    750.83512  0.016680777  0.016005294            7 
 3752000   0.65975795   -7.9627809    751.85959  0.016699085  0.016000257            2 
 3753000   0.64317232   -8.0034281    753.29584  0.016726526  0.015995226            3 
 3754000   0.63932599   -7.9707517    754.67218  0.016752623   0.01599021            3 
 3755000   0.65983994   -7.9842612    753.70261  0.016726645  0.015985199            5 
 3756000   0.63773209   -7.9918616    753.02339  0.016707122  0.015980179            7 
 3757000   0.65120138   -7.9609162    753.31479  0.016709138  0.015975173            4 
 3758000    0.6443336   -7.9842394    752.86175  0.016694646  0.015970162            4 
 3759000   0.64461198    -7.983851    753.79801  0.016710961  0.015965143            3 
 3760000   0.66114635    -7.987232    752.21235  0.016671373  0.015960125            4 
 3761000   0.65347145   -7.9794979    752.39562  0.016671001  0.015955097            4 
 3762000   0.63023378   -7.9714081    751.99566   0.01665771  0.015950071            3 
 3763000   0.65291358   -8.0081052    750.85935  0.016628119  0.015945043            2 
 3764000   0.65373745   -8.0032121    751.68752  0.016642037  0.015940016            5 
 3765000   0.64188109   -8.0064321    752.12381  0.016647273  0.015934985            5 
 3766000   0.64791255   -8.0112892    750.48749  0.016606645  0.015929953            6 
 3767000   0.65425335   -7.9838474    751.16555  0.016617236  0.015924918            7 
 3768000   0.65652276   -7.9891802    751.74552  0.016625653  0.015919885            5 
 3769000   0.65214156   -7.9849487    753.42876  0.016658458   0.01591487            5 
 3770000   0.65580418   -7.9957027    754.55324  0.016678896  0.015909861            3 
 3771000   0.64589398   -8.0157331    752.07486  0.016619704  0.015904843            2 
 3772000   0.64963688   -8.0049883    750.23028  0.016574547  0.015899821            5 
 3773000   0.64804542   -7.9992755    752.03732  0.016610065  0.015894796            4 
 3774000   0.64677121   -7.9761791    752.26587  0.016610711  0.015889774            4 
 3775000   0.64147823   -8.0192639      751.487  0.016589117  0.015884754            6 
 3776000   0.64777065   -8.0127474    752.47452  0.016606517  0.015879739            2 
 3777000   0.65584997   -7.9740147    753.42439  0.016623078  0.015874735            5 
 3778000   0.63496587   -7.9953495    752.24957  0.016592764  0.015869734            3 
 3779000   0.65374801   -7.9988715     753.1104  0.016607356  0.015864728            3 
 3780000   0.64119563   -7.9766075    753.84969  0.016619261  0.015859722            2 
 3781000   0.64659751   -8.0180735    752.32866  0.016581342  0.015854714            3 
 3782000   0.65119991   -8.0303882    752.91824  0.016589949  0.015849722            4 
 3783000   0.66572875   -7.9913162    751.92605  0.016563707  0.015844729            4 
 3784000   0.64607888   -7.9874592    752.81695   0.01657895  0.015839733            3 
 3785000   0.64731055    -7.995856     753.2432  0.016583954  0.015834744            2 
 3786000   0.64431716   -7.9989941    752.83072  0.016570495  0.015829767            4 
 3787000   0.65284938   -7.9995574    752.37134   0.01655601  0.015824783            6 
 3788000   0.64237514   -8.0036505    753.75597  0.016582101  0.015819787            3 
 3789000   0.64667116   -7.9863849    752.46858   0.01654941  0.015814799            4 
 3790000   0.63725326   -8.0033046    751.49104   0.01652355  0.015809801            3 
 3791000   0.64229088   -7.9842228    753.14995  0.016555657  0.015804808            5 
 3792000   0.63986991   -7.9949333    753.18897  0.016552149  0.015799828            4 
 3793000   0.63963598   -7.9858183    751.77662  0.016516755  0.015794836            2 
 3794000   0.63951257    -7.997263    751.74177  0.016511636  0.015789844            3 
 3795000   0.63732759   -7.9936229    751.22177  0.016495867  0.015784862            4 
 3796000   0.64179269   -8.0025535    752.88537  0.016528042  0.015779879            5 
 3797000   0.64115902   -7.9896033    751.87892    0.0165016  0.015774894            6 
 3798000   0.63529841   -7.9924418    752.47603  0.016510357  0.015769913            6 
 3799000   0.63388302   -8.0071369    753.55129  0.016529597  0.015764922            3 
 3800000   0.63827033   -8.0144572    753.35102  0.016520856  0.015759949            2 
 3801000   0.65509585    -7.997662    752.75287  0.016503395  0.015754971            3 
 3802000   0.65155812   -8.0180333    752.89331  0.016502133  0.015749997            4 
 3803000   0.63671503   -8.0123617    752.52788  0.016489786  0.015745017            6 
 3804000   0.65679667   -7.9948868    753.22367  0.016500694  0.015740026            8 
 3805000   0.64293503   -8.0140341    752.17606  0.016473413  0.015735055            4 
 3806000   0.63645686   -8.0186054    752.83064  0.016483417  0.015730074            4 
 3807000    0.6342024   -8.0112276    752.17758  0.016464793   0.01572508            5 
 3808000   0.63863448   -7.9996009    752.05906  0.016457875  0.015720085            6 
 3809000   0.64932922   -7.9968554    751.81062  0.016448119  0.015715098            3 
 3810000   0.65107717   -7.9997665    752.89961  0.016467621  0.015710126            8 
 3811000   0.63641641    -7.985201    752.79593  0.016461032  0.015705156            4 
 3812000   0.63976535   -8.0276931    750.96851  0.016416765  0.015700178            6 
 3813000   0.62745224   -8.0058466    751.62441  0.016426794  0.015695203            8 
 3814000   0.64593456   -8.0250083    753.00238  0.016452595  0.015690224            5 
 3815000   0.62454571   -8.0069303    752.51936  0.016437732  0.015685246            7 
 3816000   0.63741636   -8.0262842    752.82451  0.016440088  0.015680259            4 
 3817000   0.65310913   -7.9982961     752.2622  0.016423505  0.015675288            6 
 3818000   0.63577408   -8.0252233    751.99683  0.016413411  0.015670318            5 
 3819000   0.64687205   -8.0030468    750.91359  0.016385476   0.01566534            5 
 3820000   0.63937775   -7.9766107    751.71364   0.01639864  0.015660367            4 
 3821000   0.63324388   -8.0101386    752.11339  0.016403066  0.015655383            3 
 3822000   0.63723131   -8.0177806    751.75001  0.016390851  0.015650418            9 
 3823000   0.64906795   -8.0089921    751.33426  0.016377501  0.015645439            6 
 3824000   0.64181797   -8.0102732    750.46256  0.016354222  0.015640464           10 
 3825000   0.63338881   -8.0207143    752.30658  0.016390122  0.015635499            6 
 3826000   0.64022901   -8.0156965    753.27681   0.01640697  0.015630523            4 
 3827000    0.6379884   -8.0015491     751.4592  0.016363104  0.015625551            4 
 3828000   0.64342981   -7.9894632    751.20889  0.016353381  0.015620604            4 
 3829000   0.63803531   -8.0094589    752.08856  0.016368254  0.015615642            5 
 3830000   0.65345481    -7.998737    751.65557   0.01635456  0.015610679            3 
 3831000   0.62381628   -8.0156109    751.15944  0.016339499  0.015605707            4 
 3832000   0.62459039    -8.015214    751.60083  0.016344834  0.015600748            5 
 3833000   0.64401181   -7.9849476    753.94854  0.016391611  0.015595791            4 
 3834000   0.64479966   -8.0025482     753.4512  0.016376526  0.015590847            4 
 3835000   0.63184319   -8.0120481    751.96659  0.016339995  0.015585893            5 
 3836000   0.63814835   -8.0295296    751.83184  0.016332809   0.01558094            4 
 3837000   0.64010181    -8.019184    751.54265  0.016322271  0.015575991            3 
 3838000   0.63516558   -8.0286261    752.82303  0.016345819  0.015571027            4 
 3839000    0.6490207   -8.0316339    750.42405  0.016289486  0.015566075            3 
 3840000   0.64430325   -8.0284606     751.5914  0.016310577  0.015561118            3 
 3841000   0.64183766   -8.0290318    751.63165  0.016307204  0.015556168            4 
 3842000    0.6357156   -8.0435888    751.07117  0.016290803  0.015551214            6 
 3843000   0.64729796   -8.0348262      751.631  0.016298703  0.015546242            6 
 3844000   0.63726109   -8.0141537    752.60504  0.016315579  0.015541277            4 
 3845000    0.6329923   -8.0373912     750.6832  0.016269684  0.015536309            8 
 3846000   0.63862805   -8.0206107    750.75772  0.016267068  0.015531348            5 
 3847000   0.63272082   -8.0251967     750.0547  0.016247611   0.01552639            9 
 3848000   0.61396711   -8.0164371    751.62556  0.016277407  0.015521428            7 
 3849000   0.64475989   -8.0189315    751.43014  0.016268947  0.015516475            7 
 3850000   0.64808673   -8.0385659    750.45827  0.016243685  0.015511517            7 
 3851000   0.63016636   -8.0478383     751.0418  0.016252095  0.015506563            3 
 3852000   0.63699281   -8.0329705    751.79298  0.016264126  0.015501608            3 
 3853000   0.64698143   -8.0411227    751.32096  0.016249696   0.01549665            3 
 3854000   0.65471213   -8.0393728    751.10696  0.016240853   0.01549169            4 
 3855000   0.62099143   -8.0220903    751.07701  0.016235992  0.015486727           10 
 3856000   0.63895299   -8.0142342    752.01537  0.016252061  0.015481762            5 
 3857000   0.63074965   -8.0410548     751.1148   0.01622839  0.015476801            5 
 3858000   0.63797637   -8.0390374    750.58429  0.016212724  0.015471849            6 
 3859000   0.63332935   -8.0372849    750.14708  0.016199082  0.015466895           10 
 3860000   0.63719704   -8.0297599    751.49015  0.016223881  0.015461938            6 
 3861000   0.62943923   -8.0387305    751.59479  0.016221937  0.015456989            4 
 3862000   0.63853366    -8.034387    750.94743  0.016203768  0.015452043            4 
 3863000    0.6479264   -8.0115109    750.25533  0.016184643  0.015447095            4 
 3864000    0.6254302   -8.0251712    749.88742   0.01617252  0.015442153            3 
 3865000   0.64531227   -8.0420242    752.25899  0.016219469  0.015437218            5 
 3866000   0.63974921   -8.0510976    751.21018  0.016192666  0.015432281            3 
 3867000   0.62244666   -8.0444599    750.59577  0.016175239  0.015427335           10 
 3868000   0.62636612   -8.0378188    749.54453  0.016148408  0.015422392            5 
 3869000   0.62646176   -8.0610213    750.54633  0.016165812  0.015417445            5 
 3870000   0.62702483   -8.0350418    749.85692   0.01614679  0.015412498            8 
 3871000   0.63220015   -8.0360736    750.35545  0.016153351   0.01540756            4 
 3872000   0.63707164   -8.0172729    749.62433  0.016133444  0.015402627            3 
 3873000   0.62482691   -8.0175694    749.84065  0.016133933  0.015397694            3 
 3874000   0.64842023   -8.0295573    750.10791  0.016135517  0.015392759            6 
 3875000    0.6280328   -8.0385475    751.93916  0.016170735  0.015387825            3 
 3876000   0.62071645   -8.0146135    751.73332  0.016162137  0.015382906            4 
 3877000   0.62676181    -8.050399     751.5739  0.016154542  0.015377984            4 
 3878000   0.61538362   -8.0483931    749.83416  0.016112991  0.015373061            3 
 3879000   0.64558041   -8.0307651    749.84588  0.016109089  0.015368139            5 
 3880000   0.64659433   -8.0262356    750.80976  0.016125639  0.015363223            6 
 3881000   0.64599832   -8.0186353    752.11004  0.016149404  0.015358317            5 
 3882000   0.62662938   -8.0120337    750.79584  0.016117032  0.015353414            4 
 3883000   0.64554869   -8.0456896     751.8837  0.016136228  0.015348526            5 
 3884000   0.61620314   -8.0242769    751.96313  0.016133778  0.015343633            2 
 3885000    0.6124573   -8.0376651     751.7371  0.016124777  0.015338733            2 
 3886000   0.63899553   -8.0341545    752.20915   0.01613075   0.01533383            4 
 3887000   0.62741498   -8.0381946    751.33258  0.016107808  0.015328945            4 
 3888000   0.63267977    -8.034395    752.46041  0.016127838  0.015324062            4 
 3889000   0.63608559   -8.0340189    750.37144  0.016078928  0.015319177            5 
 3890000   0.62626974   -8.0586789    749.96442  0.016066076   0.01531428            3 
 3891000    0.6484043   -8.0144057     752.4837  0.016115902  0.015309391            4 
 3892000   0.63127145    -8.032259     751.6543  0.016094003  0.015304513            4 
 3893000   0.62817023   -8.0529228    750.78407   0.01607124  0.015299635            5 
 3894000   0.63038797   -8.0515259    751.85846  0.016090106  0.015294742            8 
 3895000   0.64978207   -8.0521905     751.8112  0.016084964   0.01528985            6 
 3896000   0.62695322   -8.0270215    751.39112   0.01607185   0.01528496           17 
 3897000   0.63834827   -8.0230918    750.33482  0.016045138  0.015280072            5 
 3898000   0.62641048   -8.0464656    751.59608  0.016067985  0.015275176            6 
 3899000   0.62212839   -8.0341782    750.92569  0.016049536  0.015270278            4 
 3900000   0.61865303   -8.0399454    751.39726  0.016055497  0.015265388            7 
 3901000   0.63084139   -8.0607305    751.27711  0.016048815  0.015260499            3 
 3902000   0.63108772   -8.0368008    753.03574   0.01608226  0.015255626            9 
 3903000    0.6361955   -8.0530777    751.28533  0.016040766  0.015250748            5 
 3904000   0.62774874   -8.0524762    751.87683  0.016049283  0.015245871            5 
 3905000   0.63203327   -8.0661853    750.14347  0.016008183  0.015240986            6 
 3906000   0.63005418   -8.0514165    751.24891  0.016027669  0.015236116            3 
 3907000   0.61933145   -8.0660517     752.3373  0.016046781   0.01523125            6 
 3908000   0.62060152   -8.0512839    751.31948  0.016020972  0.015226386            3 
 3909000   0.62748265   -8.0391431    751.05029  0.016011134  0.015221522            3 
 3910000   0.62144985   -8.0503476    751.17049  0.016009601  0.015216645            3 
 3911000   0.61274955   -8.0425296    751.48865  0.016012287   0.01521178            5 
 3912000   0.62226398   -8.0365244    751.21775  0.016002423  0.015206916            3 
 3913000   0.63405705   -8.0435898    751.39816  0.016002176  0.015202059            5 
 3914000   0.62352453   -8.0703877       750.52   0.01597939   0.01519719            3 
 3915000   0.63382511    -8.062641    751.03152  0.015986197  0.015192333            3 
 3916000   0.61662462   -8.0678414    751.59133  0.015994027  0.015187473            5 
 3917000   0.61495303   -8.0505667    750.14617  0.015959199  0.015182612            7 
 3918000      0.62977   -8.0324425    751.83504  0.015991046  0.015177759            4 
 3919000   0.61313386   -8.0392527    752.00656  0.015990613  0.015172926            6 
 3920000    0.6224115   -8.0303972    751.81667  0.015982497   0.01516809            3 
 3921000   0.63233616   -8.0243715    751.77273  0.015977487  0.015163268            4 
 3922000   0.60731917   -8.0178969    751.92635  0.015976677  0.015158445            4 
 3923000   0.63497925   -8.0567878    750.54079  0.015943172  0.015153622            5 
 3924000    0.6237084   -8.0428949    751.45975  0.015958625  0.015148799            4 
 3925000   0.62386737   -8.0631324     751.8512   0.01596287  0.015143974            4 
 3926000   0.62384183   -8.0503566    751.41491  0.015949544  0.015139145            3 
 3927000   0.63053691   -8.0337832    751.97318  0.015957329  0.015134325            5 
 3928000   0.62436473   -8.0390337    751.00977  0.015932828  0.015129502            8 
 3929000   0.61702186   -8.0658269    752.37583  0.015957746  0.015124684            2 
 3930000   0.62504543    -8.065629    751.51529  0.015935439  0.015119871            4 
 3931000   0.62580307    -8.051374    750.67763  0.015913627  0.015115045            4 
 3932000   0.62157605   -8.0420451    751.93308  0.015936188  0.015110223            3 
 3933000   0.62352915   -8.0300354    751.21056  0.015916827  0.015105403            3 
 3934000   0.61724584   -8.0541699    751.85726   0.01592648  0.015100582            2 
 3935000   0.63226226   -8.0658508    751.30296  0.015910694  0.015095761            3 
 3936000   0.61703468   -8.0570991    751.02195  0.015900702  0.015090925            5 
 3937000   0.63722753   -8.0346674    751.89311  0.015915103  0.015086093            5 
 3938000   0.61429846   -8.0562985    750.47824  0.015881121  0.015081272            3 
 3939000   0.60788393   -8.0583235    750.91005  0.015886224  0.015076439            3 
 3940000   0.62279008   -8.0459959    752.48742  0.015915555  0.015071615            8 
 3941000   0.59847556   -8.0401419    749.85937  0.015855945  0.015066793            5 
 3942000   0.61503786   -8.0439384    751.81739  0.015893315   0.01506197            4 
 3943000   0.62078777   -8.0728433    750.22001  0.015855525  0.015057157            3 
 3944000   0.62869703   -8.0706787    750.41951   0.01585572  0.015052337            5 
 3945000   0.61556454    -8.041245    751.11643  0.015866422  0.015047519            8 
 3946000    0.6160827   -8.0642665     751.1451  0.015863007  0.015042699            3 
 3947000   0.61856352   -8.0770263    750.75013  0.015850649  0.015037876            6 
 3948000   0.61937013   -8.0863528    750.65441  0.015844614  0.015033052            6 
 3949000   0.61953573   -8.0633893    749.88073  0.015824275   0.01502823            5 
 3950000   0.62904433    -8.079982    751.37737  0.015851843  0.015023416            6 
 3951000   0.60877859   -8.0722171    750.04894  0.015819812  0.015018595            4 
 3952000   0.62421537   -8.0638938    752.43965  0.015866221  0.015013781            3 
 3953000   0.62658159   -8.0800285    751.94692   0.01585182  0.015008969            3 
 3954000   0.61793851   -8.0516843    748.88599  0.015783299  0.015004154            7 
 3955000   0.62216943   -8.0627357    751.72351  0.015839096   0.01499934            2 
 3956000   0.63024481   -8.0965258    750.87299  0.015817176  0.014994528            6 
 3957000   0.60801699   -8.0625004    750.07092  0.015796288  0.014989715            2 
 3958000   0.62066102   -8.0823014    751.83385  0.015829414  0.014984908            6 
 3959000   0.63511121   -8.0788922    750.87772   0.01580529  0.014980097            3 
 3960000   0.61074457   -8.0598899     751.6223  0.015816968  0.014975292            4 
 3961000   0.63516881   -8.0541467    752.02231   0.01582139  0.014970494            5 
 3962000   0.63163107   -8.0702229    750.81369  0.015791976    0.0149657            3 
 3963000   0.60906007   -8.0533059    751.95382  0.015811965  0.014960908            5 
 3964000   0.63601386   -8.0699763    749.89314  0.015764656  0.014956111            4 
 3965000   0.62817631   -8.0416427    751.48526  0.015794142  0.014951323            8 
 3966000    0.6297781   -8.0554594    752.29097  0.015807089  0.014946527            6 
 3967000   0.60154477   -8.0768212    750.07886  0.015756635  0.014941736            3 
 3968000    0.6286292   -8.0803369    750.63661  0.015764378  0.014936944            6 
 3969000    0.6139006   -8.0608354    751.29729  0.015774278  0.014932165            4 
 3970000   0.62082393   -8.0481187    749.91866  0.015741366  0.014927375            6 
 3971000   0.61514388   -8.0781935    750.60063  0.015751713  0.014922601            3 
 3972000   0.61502523   -8.0717065    750.42302  0.015744021  0.014917813            3 
 3973000   0.62204936   -8.0729304    751.14309  0.015755162  0.014913029            2 
 3974000   0.62586085   -8.0843776    751.67761  0.015762406  0.014908246            6 
 3975000   0.60558933   -8.0556081    751.45267  0.015753725   0.01490346            6 
 3976000   0.62193815   -8.0823681    751.05593  0.015741447  0.014898672            3 
 3977000   0.61577981   -8.0796722    749.55591  0.015706058  0.014893886            4 
 3978000   0.59283173   -8.0623989    750.12204  0.015713969  0.014889105            3 
 3979000   0.62059692   -8.0712155    751.18153  0.015732209  0.014884328            3 
 3980000   0.62176493   -8.0853597    750.24038  0.015708551  0.014879553            2 
 3981000   0.61538574   -8.0814788    750.26128  0.015705042   0.01487477            4 
 3982000   0.61743467   -8.0738899    750.80815  0.015712543  0.014869995            3 
 3983000   0.61458016   -8.0678611    750.76464  0.015707688  0.014865229            3 
 3984000   0.61955404   -8.0673292    750.07135  0.015689243  0.014860458            4 
 3985000   0.61599126   -8.0798481    751.23363  0.015709612  0.014855679            4 
 3986000    0.6083727   -8.0912859    750.12666  0.015682528  0.014850902            3 
 3987000    0.6184174   -8.0947862    749.01374  0.015655333  0.014846123            2 
 3988000   0.60720731   -8.0764126    750.76286  0.015687957  0.014841357            3 
 3989000   0.62460772   -8.0768901    750.61617   0.01568096  0.014836592            5 
 3990000   0.60947603   -8.0664631    751.36688  0.015692709  0.014831828            5 
 3991000    0.6134942   -8.0474073    750.64411  0.015673685   0.01482707            7 
 3992000   0.62211735   -8.0732827     749.5399  0.015646708  0.014822301            4 
 3993000   0.62623728   -8.0525076    750.93738  0.015671955  0.014817546            5 
 3994000   0.61901806   -8.0739603    751.21238  0.015673769  0.014812795            6 
 3995000   0.60503954   -8.0839992    751.19492  0.015669481   0.01480804            3 
 3996000   0.62653151   -8.0650907    750.57188  0.015652567  0.014803299            4 
 3997000   0.60800299   -8.0857216    750.44128  0.015645928  0.014798546            4 
 3998000   0.63819995   -8.0898424    750.37416  0.015640615  0.014793791            3 
 3999000   0.61153968   -8.0895552    749.96827  0.015628246  0.014789045            3 
 4000000   0.60756826   -8.0936283    751.24147  0.015650864  0.014784303            6 
 4001000   0.61307464   -8.0826028    750.88224   0.01563947  0.014779561            3 
 4002000   0.60699623   -8.0802261    750.11788  0.015619646  0.014774815            3 
 4003000   0.62123281   -8.0694179    752.33116  0.015661819  0.014770081            6 
 4004000   0.62277111   -8.0800828    749.50492  0.015599087  0.014765338            3 
 4005000   0.62094721   -8.0793104    751.59908  0.015638766  0.014760608            4 
 4006000   0.59863282   -8.0768765    751.81405  0.015639334  0.014755875            5 
 4007000   0.60797064   -8.0798261    750.84514   0.01561528  0.014751142            4 
 4008000    0.6053103   -8.0723793    751.70176  0.015629195  0.014746402            6 
 4009000   0.60431299   -8.0822789    750.44604  0.015599194  0.014741668            6 
 4010000   0.60261303   -8.0999875    751.72277  0.015621836  0.014736934            6 
 4011000   0.60885435   -8.0908229    751.17027  0.015606463  0.014732207            7 
 4012000   0.60848903   -8.0979819    750.96782  0.015598368  0.014727475            3 
 4013000   0.61145981    -8.084996    750.19967   0.01557853  0.014722746            4 
 4014000   0.60797465   -8.0815512     749.0674  0.015551142  0.014718011            3 
 4015000   0.61152807   -8.1001066      749.226   0.01555056  0.014713274            7 
 4016000   0.61858221   -8.0887804    749.92956  0.015561287   0.01470854            3 
 4017000   0.60947081   -8.0873712    750.01823  0.015559253  0.014703805            3 
 4018000    0.5946549   -8.1053624    750.05532   0.01555615  0.014699079            4 
 4019000   0.61732547   -8.0895716    751.95546  0.015591678  0.014694352            5 
 4020000   0.60439673   -8.1030246    749.87079  0.015544585   0.01468963            4 
 4021000   0.60933908   -8.0952194    749.29197  0.015528724  0.014684901            3 
 4022000   0.61416307   -8.1007002    749.66059    0.0155325  0.014680174            6 
 4023000   0.61551488   -8.1115207    750.10208  0.015537784  0.014675447            3 
 4024000   0.59845963   -8.1009959     751.1069  0.015554732  0.014670719            3 
 4025000    0.6198701   -8.0970155    751.03721  0.015549425  0.014665987            3 
 4026000   0.61073687   -8.0884995    750.45627  0.015533538  0.014661264            7 
 4027000    0.6029171   -8.0875846    752.10363   0.01556377  0.014656545            3 
 4028000   0.60972119   -8.0931289    750.37481   0.01552414  0.014651828            5 
 4029000   0.60788558   -8.0745446     750.9085  0.015531325  0.014647111            3 
 4030000   0.60260464   -8.1006868    749.62006  0.015500828  0.014642397            3 
 4031000   0.60108133   -8.0988329    749.79446  0.015500588  0.014637677            7 
 4032000   0.59226757   -8.1147375    750.93253  0.015520266  0.014632957            7 
 4033000   0.61203568   -8.0996566    751.05528  0.015518954   0.01462825            6 
 4034000   0.61810436   -8.0992635    749.91905  0.015491635  0.014623544            7 
 4035000   0.60751034   -8.0918398      750.151  0.015492586  0.014618835           10 
 4036000   0.62058188   -8.0849555    749.90884  0.015483747  0.014614135            5 
 4037000   0.62235095    -8.111388    750.48973  0.015491903  0.014609432            2 
 4038000   0.59845501   -8.0989292     749.9045  0.015475989  0.014604732            3 
 4039000   0.60572536   -8.1065279    749.55504  0.015464947  0.014600032            6 
 4040000   0.61209411   -8.0977552    750.13422  0.015473066  0.014595333            7 
 4041000   0.61100277     -8.08773    749.31767  0.015452398  0.014590635            4 
 4042000    0.6054868   -8.1063838    751.16953  0.015486754  0.014585941            4 
 4043000   0.61679029   -8.0998219    750.36616  0.015466365  0.014581256            6 
 4044000   0.60081191   -8.1069972    749.50288  0.015444751  0.014576556            7 
 4045000     0.612374    -8.100681    749.38474  0.015438499  0.014571858            8 
 4046000   0.60340015   -8.0895017     750.5499  0.015458681  0.014567158            5 
 4047000   0.59651571   -8.1207114    748.63058   0.01541534   0.01456246            5 
 4048000   0.60210758   -8.1103753    750.22039   0.01544426  0.014557762            3 
 4049000   0.59177676    -8.105436    750.22742  0.015440591  0.014553065            4 
 4050000   0.60910996   -8.1163825    750.64789   0.01544543  0.014548374            6 
 4051000   0.61507544   -8.0945132    750.96551  0.015448151  0.014543694            3 
 4052000   0.61690577   -8.0982069    750.72324  0.015439356  0.014539014            7 
 4053000   0.60627765   -8.1009159    749.92656  0.015419166  0.014534339           12 
 4054000   0.60563091   -8.0996673    750.16893  0.015420345   0.01452967            6 
 4055000   0.60208167   -8.0877344    750.21234  0.015417434  0.014524992            3 
 4056000   0.60679244   -8.0974544    750.52606  0.015420078  0.014520315            6 
 4057000   0.59350187   -8.1015168    751.01921  0.015426407  0.014515646            5 
 4058000   0.59902448   -8.0985848    750.99025  0.015422011  0.014510981            3 
 4059000   0.59747856   -8.0771874    751.05333  0.015419507  0.014506314            4 
 4060000   0.59897625   -8.1091937    750.82385  0.015410999  0.014501648            5 
 4061000   0.60243628   -8.1102722    751.30694  0.015417117  0.014496977            5 
 4062000   0.59034915   -8.1013486    750.32924  0.015393263  0.014492314            3 
 4063000   0.60457216   -8.0986076    750.65385  0.015396133  0.014487649            2 
 4064000   0.59581738   -8.1140085    749.14584  0.015361422  0.014482992            4 
 4065000   0.60128285   -8.0949696    749.62404  0.015367446  0.014478335            3 
 4066000   0.60515094   -8.1082268    749.49569  0.015361036  0.014473676            4 
 4067000   0.59659727   -8.1184421    752.18918  0.015412449  0.014469028            5 
 4068000   0.61042745   -8.1095458    750.14288  0.015366742  0.014464372            3 
 4069000   0.60226161   -8.1070467     750.0801   0.01536168  0.014459727            3 
 4070000   0.59688161   -8.1073012     749.5863  0.015347795  0.014455075            4 
 4071000   0.61051841   -8.0908959    750.43697  0.015361438  0.014450425            9 
 4072000    0.6037968   -8.1147148    750.20684  0.015352956  0.014445768            5 
 4073000   0.60086145   -8.1365687    748.58724   0.01531605  0.014441117            7 
 4074000   0.59613237   -8.1014282    748.78365  0.015316308  0.014436461            5 
 4075000   0.59075683   -8.1279702    750.71857  0.015352118   0.01443181            5 
 4076000   0.59958768   -8.1342292    749.14279  0.015316135  0.014427166            3 
 4077000    0.5947085   -8.1251204    748.88727  0.015307155  0.014422517            6 
 4078000   0.60822341   -8.1244315    749.76235  0.015321284  0.014417869            6 
 4079000   0.60759638   -8.1193225    749.10447  0.015304087  0.014413213            2 
 4080000   0.60081109   -8.0988801    750.36599  0.015326103  0.014408562            6 
 4081000   0.59548006   -8.1102961    750.27479  0.015320485  0.014403915            4 
 4082000   0.60268868   -8.1219713    750.47521  0.015320823  0.014399279            4 
 4083000    0.6089305   -8.1207897    748.86135  0.015284132  0.014394636            6 
 4084000   0.58972949   -8.1307958    749.69041  0.015297307  0.014389994            4 
 4085000   0.58588407   -8.1356687    748.60428  0.015271405   0.01438535            5 
 4086000   0.60159126   -8.1208464    749.73533  0.015290735   0.01438071            6 
 4087000   0.59451047   -8.1156032    750.69585  0.015306579  0.014376076            6 
 4088000   0.59804563   -8.1196503    750.59952  0.015300871  0.014371434            6 
 4089000    0.6064814   -8.1026334    749.17771  0.015268153  0.014366799            4 
 4090000   0.58191842   -8.1173883    749.65475  0.015274139  0.014362169            7 
 4091000   0.59270991   -8.1240619     749.5376  0.015268019  0.014357537            5 
 4092000   0.60125458   -8.1328587    750.65981  0.015287142  0.014352908            5 
 4093000    0.5875921    -8.105031    750.35242  0.015277148  0.014348276            5 
 4094000   0.60240873   -8.1176928    750.07793  0.015267829  0.014343649           10 
 4095000   0.60037393   -8.1360669    749.25457  0.015247346  0.014339018            6 
 4096000   0.60222829   -8.1107538    750.02054  0.015259207  0.014334394            5 
 4097000   0.58457395   -8.1264829    750.00695  0.015255206  0.014329771            4 
 4098000   0.58634639   -8.1250207    748.85764  0.015228112  0.014325153            3 
 4099000   0.59298933   -8.1213377    748.68628  0.015220913  0.014320534            7 
 4100000   0.59658309     -8.12193    747.62708  0.015195672  0.014315912            5 
 4101000    0.5932755   -8.1285443    749.76618  0.015235434  0.014311289           14 
 4102000   0.59389344    -8.123492    751.54752  0.015267908  0.014306671            4 
 4103000   0.59915001   -8.1278511     749.1172  0.015214827  0.014302044            6 
 4104000     0.595567   -8.1487386    748.45249  0.015197622  0.014297427            7 
 4105000   0.59795595   -8.1370757    750.00164  0.015225368  0.014292797            2 
 4106000   0.58830229   -8.1354678    750.34103  0.015228548  0.014288173            4 
 4107000   0.59159717   -8.1561041    749.38072  0.015205355  0.014283559            4 
 4108000   0.59419136   -8.1210126     748.4844  0.015183471  0.014278931            4 
 4109000   0.59271074    -8.120269    749.32005  0.015196724  0.014274306            5 
 4110000   0.59060088   -8.1374336    748.80095  0.015182501  0.014269689            6 
 4111000   0.60173073   -8.1245742    749.97827  0.015202673  0.014265084            4 
 4112000   0.59609104   -8.1371184    748.62238  0.015171498  0.014260477            5 
 4113000   0.58729716   -8.1442804    749.84775  0.015192636  0.014255874            4 
 4114000   0.58686524   -8.1403044    749.45103  0.015180907  0.014251272            5 
 4115000   0.59397028   -8.1539473    749.49473  0.015178103  0.014246661            4 
 4116000   0.59016731   -8.1363828    749.37788   0.01517205  0.014242059            3 
 4117000    0.5933336   -8.1252503    750.28002  0.015186625  0.014237462           10 
 4118000   0.58701989   -8.1215522     749.3641  0.015164402  0.014232863            6 
 4119000   0.58739581   -8.1262936     749.4236  0.015161924  0.014228272           11 
 4120000   0.58815971   -8.1439829    749.67853  0.015163401  0.014223684            5 
 4121000   0.58102478   -8.1345607    747.70454  0.015119804  0.014219087            4 
 4122000   0.58757925   -8.1461784    747.87895  0.015119662  0.014214493            6 
 4123000    0.5885783   -8.1227468    748.65122  0.015131604  0.014209901            8 
 4124000   0.59944543   -8.1375428    748.39377  0.015122732  0.014205311            4 
 4125000   0.58890089   -8.1542971    750.53014  0.015162225  0.014200722            5 
 4126000   0.58176847   -8.1548138    748.62248  0.015120021  0.014196137           12 
 4127000   0.57746279   -8.1644714    750.09085  0.015146007  0.014191554            8 
 4128000    0.5954267   -8.1647027    750.50908  0.015150781  0.014186969            8 
 4129000   0.58962318   -8.1350702    749.30795   0.01512287  0.014182388           12 
 4130000     0.589131   -8.1204496    749.60112  0.015125123  0.014177803            8 
 4131000    0.5776333   -8.1369125    749.34975  0.015116391  0.014173224            5 
 4132000   0.58853017   -8.1255762    749.35732  0.015112886  0.014168644            4 
 4133000   0.57436511    -8.143583    748.17285  0.015085347  0.014164057           10 
 4134000   0.58527265   -8.1521387    749.02265  0.015098828   0.01415947            7 
 4135000   0.59273917   -8.1470037    749.17007  0.015098147  0.014154896            3 
 4136000   0.59463696   -8.1283149    748.53924  0.015081787   0.01415032            3 
 4137000   0.59967218   -8.1546054    750.41864  0.015115999  0.014145746            5 
 4138000    0.5752042   -8.1548509    747.95274  0.015062686  0.014141172            7 
 4139000   0.59688097   -8.1412862     749.6457  0.015093132  0.014136591            6 
 4140000   0.59830681    -8.134419    749.41857  0.015084915  0.014132016            7 
 4141000   0.58921852   -8.1534363    749.24055   0.01507769  0.014127447           11 
 4142000   0.58680761   -8.1401142    749.73732  0.015084044  0.014122881            5 
 4143000   0.58057298   -8.1683039    749.04824  0.015066543  0.014118308            7 
 4144000   0.58794755   -8.1540586    749.26828  0.015067332  0.014113735            7 
 4145000   0.57055072   -8.1474583    748.60911  0.015050445  0.014109167           13 
 4146000    0.5881147   -8.1312608    749.02166  0.015055107  0.014104606           13 
 4147000   0.58763472   -8.1532946    748.55607   0.01504212  0.014100039            3 
 4148000   0.59558803   -8.1413435    749.45878  0.015056629   0.01409548            6 
 4149000     0.604178   -8.1240611    748.84532  0.015040679   0.01409092            4 
 4150000    0.6020328   -8.1319752     749.4405  0.015049006   0.01408636            9 
 4151000   0.59678543   -8.1293983    748.63089  0.015029127  0.014081809            5 
 4152000   0.58730843   -8.1242214    747.93574  0.015011556  0.014077262            5 
 4153000   0.58576662   -8.1360336    750.08534  0.015051074  0.014072712            6 
 4154000   0.58651874   -8.1228792    748.78899  0.015021445   0.01406817           13 
 4155000    0.5725894    -8.115607    749.91995  0.015040512  0.014063631            9 
 4156000   0.58869299   -8.1278181    749.34433  0.015025351  0.014059083           12 
 4157000   0.60300807   -8.1418268    748.36765  0.015002158  0.014054543            5 
 4158000   0.58502609   -8.1443222    748.81338  0.015007483  0.014049997            7 
 4159000   0.58953665   -8.1501971    749.32702  0.015014167  0.014045449            6 
 4160000   0.57643845   -8.1447923    749.19084  0.015007829  0.014040897           10 
 4161000   0.59478672   -8.1311569    747.81918  0.014976752  0.014036346            7 
 4162000   0.59429342   -8.1435359    749.84052  0.015013626    0.0140318            5 
 4163000   0.58602588   -8.1468812    748.35783  0.014980339  0.014027252            9 
 4164000   0.58496508   -8.1241544    749.36166  0.014996831  0.014022711            3 
 4165000   0.58467089   -8.1463531    748.70149  0.014980022   0.01401817            7 
 4166000   0.59041496    -8.151133     748.4953  0.014972302   0.01401363            9 
 4167000   0.58832098    -8.162977     747.6064  0.014950932  0.014009088           12 
 4168000   0.58652328   -8.1392715    747.61296  0.014947476  0.014004545            3 
 4169000   0.58985489   -8.1669508    748.83452  0.014968308   0.01400001            4 
 4170000   0.58075066   -8.1319893    749.56976  0.014979412  0.013995481            6 
 4171000   0.58440152   -8.1609586    748.57788  0.014956003  0.013990945           11 
 4172000   0.58199948   -8.1554981    747.51059    0.0149311  0.013986408            6 
 4173000   0.58331588   -8.1450167    749.24362   0.01496213  0.013981879            6 
 4174000   0.58990719   -8.1626787    748.23987  0.014938506  0.013977351           14 
 4175000   0.58660452   -8.1501459    748.27381  0.014935605  0.013972819            8 
 4176000     0.576821   -8.1332999    748.05971  0.014927756  0.013968297            5 
 4177000    0.5805444   -8.1478458    748.60891  0.014935139  0.013963777           12 
 4178000   0.59294834   -8.1466199    750.21295  0.014963558  0.013959263            7 
 4179000   0.58599469    -8.158822    750.36682  0.014963046  0.013954749           14 
 4180000   0.58115148   -8.1495767    748.48797  0.014922009  0.013950235            8 
 4181000    0.5842045   -8.1524455    748.86646  0.014925984  0.013945714           11 
 4182000   0.57394227   -8.1538281     749.6559  0.014938146  0.013941185            8 
 4183000   0.60694192   -8.1652203    749.85044   0.01493845  0.013936673            5 
 4184000   0.58402022   -8.1976115    747.97563  0.014897539  0.013932158            8 
 4185000   0.57307609   -8.1484569    747.93602   0.01489319  0.013927639            6 
 4186000   0.59271601   -8.1550856    748.58626  0.014902577  0.013923125            8 
 4187000    0.5925748   -8.1703424    747.87153  0.014884793  0.013918617            7 
 4188000    0.5790085   -8.1532643    746.78884  0.014859695  0.013914107            8 
 4189000   0.59102317   -8.1791004    748.60641  0.014892305  0.013909598            6 
 4190000   0.58023846   -8.1560349    748.21021  0.014880871  0.013905095            4 
 4191000    0.5693831   -8.1578489    749.57584  0.014904475  0.013900595            6 
 4192000    0.5857243   -8.1496355    749.18152   0.01489308  0.013896088            8 
 4193000   0.57457041    -8.166909     749.8614  0.014903041  0.013891586           10 
 4194000   0.58736521   -8.1827478    747.89608  0.014860437   0.01388709           11 
 4195000   0.58695792   -8.1581505    748.12736  0.014861489  0.013882588            8 
 4196000   0.57907231   -8.1579344    748.51968  0.014865739  0.013878086            7 
 4197000   0.56009885   -8.1831369     747.9687  0.014851257  0.013873583            6 
 4198000   0.58187227   -8.1603408    749.31214  0.014874387  0.013869087            7 
 4199000   0.58333003   -8.1663714    748.53087   0.01485534  0.013864588            5 
 4200000    0.5945776   -8.1787494    748.88596  0.014858848  0.013860092            5 
 4201000   0.57813434   -8.1447127    748.73925  0.014852401   0.01385561            7 
 4202000   0.59015935   -8.1794288     748.9266  0.014852582  0.013851121            6 
 4203000   0.58921851   -8.1544305    748.65184  0.014843601  0.013846631            5 
 4204000   0.59514756   -8.1698586    748.35815  0.014834248   0.01384215           11 
 4205000   0.57916016   -8.1682197    748.50391  0.014833609  0.013837667            6 
 4206000   0.57728326   -8.1667706    749.03784  0.014840661  0.013833185            7 
 4207000   0.58180025   -8.1702815    748.73339  0.014831103  0.013828708            7 
 4208000   0.59348935    -8.172928    747.54169  0.014803978  0.013824225            6 
 4209000   0.56623024   -8.1691432    748.34707  0.014816407  0.013819745            4 
 4210000   0.57521426   -8.1772147    748.85296  0.014822901   0.01381527           10 
 4211000   0.58244258   -8.1626852    747.62211  0.014795023  0.013810785            7 
 4212000   0.57784642   -8.1646229     747.9865   0.01479872  0.013806304            5 
 4213000   0.58132682   -8.1777791    748.37552  0.014802902  0.013801826            6 
 4214000   0.57441608   -8.1774929    748.36966  0.014799273  0.013797352            5 
 4215000   0.57941766   -8.1612647    746.99202  0.014768526  0.013792879            9 
 4216000   0.56575036   -8.1508914    747.48976  0.014774861  0.013788411            4 
 4217000   0.58865002   -8.1653288    748.11715  0.014783755  0.013783944            5 
 4218000   0.56949177   -8.1584956    746.45449  0.014747402  0.013779474            5 
 4219000   0.58291608   -8.1669132    747.91336  0.014772722  0.013775003            9 
 4220000   0.58094286   -8.1534985      748.172  0.014774329  0.013770548            7 
 4221000   0.58082351   -8.1826086    748.94238  0.014786038  0.013766089            5 
 4222000   0.56579467   -8.1596665      747.684  0.014757698  0.013761629            6 
 4223000   0.57850403   -8.1686006    747.44811  0.014749548  0.013757169            6 
 4224000   0.57142982    -8.154566    748.67362  0.014770234  0.013752712            4 
 4225000   0.57855672   -8.1884503    748.34638  0.014760284  0.013748258            7 
 4226000   0.57113183   -8.1775348    746.97167  0.014729683  0.013743801            3 
 4227000    0.5820084   -8.1695472    749.36189   0.01477332  0.013739355            5 
 4228000   0.57249464   -8.1762034    747.44118  0.014731969  0.013734904            6 
 4229000   0.57781129   -8.1865304     748.6428  0.014752164  0.013730454            4 
 4230000   0.58150241   -8.1868429    748.23375  0.014740618  0.013726008            4 
 4231000   0.58705394     -8.18503    748.52961  0.014742961  0.013721564            4 
 4232000   0.56719234   -8.1705278    747.25067  0.014714293  0.013717118            8 
 4233000   0.58070891   -8.1565701    748.99386  0.014745135  0.013712675            8 
 4234000   0.59494732   -8.1691708    747.30866  0.014708484  0.013708232            6 
 4235000   0.57228416   -8.1865601    748.30503  0.014724617  0.013703792            7 
 4236000   0.57364167   -8.2033314     747.8914  0.014713004  0.013699359            6 
 4237000   0.56818804   -8.1808585     747.3595   0.01469907  0.013694923            6 
 4238000   0.58572116   -8.1793984    747.87817    0.0147058  0.013690483           11 
 4239000   0.57198632   -8.1860986    747.49157  0.014694731   0.01368604           10 
 4240000    0.5731364   -8.1755782    747.84318  0.014698176  0.013681598           10 
 4241000   0.57820902   -8.1702705    747.08509  0.014679814   0.01367716            8 
 4242000   0.57509937   -8.1595109    747.48489  0.014684207  0.013672726            5 
 4243000   0.56872678   -8.1675197    747.12016  0.014673583  0.013668286            9 
 4244000   0.57218308   -8.1862803    747.54917  0.014678549  0.013663848           10 
 4245000   0.55648212   -8.1818374    746.99877  0.014664287   0.01365941            7 
 4246000   0.56850076   -8.1850797    748.38588  0.014688057  0.013654983           11 
 4247000   0.58671261   -8.2090072    749.05216  0.014697672  0.013650553            7 
 4248000   0.57106098   -8.1989278    747.72517   0.01466818  0.013646125            9 
 4249000   0.56945626   -8.1811991    746.78042  0.014646199  0.013641703           13 
 4250000   0.56827515   -8.1717401    748.07642  0.014668165  0.013637281            3 
 4251000   0.57208342   -8.1834531    748.04137  0.014664027  0.013632866            5 
 4252000    0.5742252   -8.1662993     745.9973  0.014620518  0.013628441           12 
 4253000   0.56154561   -8.1829626    746.85253  0.014633837  0.013624017            5 
 4254000   0.57866542   -8.1624453    747.86231  0.014650178  0.013619599           12 
 4255000   0.57207102   -8.1965785    747.82181  0.014645942   0.01361518            5 
 4256000   0.57823016   -8.1754918     748.7489  0.014660654   0.01361076           12 
 4257000   0.58016277   -8.1877666    748.41836  0.014650739  0.013606345           17 
 4258000   0.57455381   -8.1747235    745.69654   0.01459403   0.01360193            8 
 4259000   0.56598596   -8.1773178    747.04215  0.014616932  0.013597513           10 
 4260000   0.56448776   -8.1914932    747.98767  0.014631997  0.013593097            3 
 4261000   0.57353506    -8.166611    747.75363  0.014623986  0.013588691            9 
 4262000   0.58826685   -8.2097277    748.56238  0.014636367  0.013584288            5 
 4263000   0.56832596   -8.1841417    746.19098  0.014586578  0.013579883            8 
 4264000   0.56871079   -8.1773801    747.25508  0.014603953  0.013575483            7 
 4265000   0.57679657   -8.1802559    748.00289  0.014615141  0.013571085            8 
 4266000   0.56749147   -8.1876532     747.5984  0.014603813  0.013566686            8 
 4267000   0.55489278   -8.1870218    749.00302  0.014627822  0.013562286            9 
 4268000   0.57491084   -8.2023908    745.55382  0.014557049  0.013557886            6 
 4269000   0.57102983   -8.2010418     747.0732  0.014583298  0.013553488           12 
 4270000   0.55926623   -8.1842371     748.3685  0.014605162  0.013549085            7 
 4271000   0.58204592    -8.189058    746.75046  0.014570172   0.01354469            4 
 4272000   0.55699017   -8.1707687    746.94472  0.014570551  0.013540299           15 
 4273000   0.56499254   -8.1717296    746.83182  0.014564939  0.013535907           10 
 4274000   0.56397764   -8.1925422    747.42736  0.014573143  0.013531516            9 
 4275000   0.56037643   -8.1899026    746.80504  0.014557603  0.013527129            9 
 4276000   0.57577901   -8.1914009    747.25338  0.014562936  0.013522742            7 
 4277000   0.56404205    -8.187308    747.64256  0.014567114  0.013518361            9 
 4278000   0.55998108   -8.1746273    748.87121  0.014587642  0.013513982            7 
 4279000   0.56711407   -8.1933704    747.44199  0.014556399  0.013509602            6 
 4280000   0.56524138   -8.1879847    747.58194  0.014555723  0.013505216            9 
 4281000   0.55828595   -8.1977411    747.58354  0.014552354  0.013500837            6 
 4282000   0.56194063   -8.1855739    747.82995  0.014553751  0.013496457            8 
 4283000   0.56016972   -8.1910005    746.62709  0.014526949  0.013492076            7 
 4284000   0.57438545   -8.1945039    747.70685  0.014544562  0.013487702            8 
 4285000   0.57085017   -8.1778286    747.59566  0.014539005  0.013483326            7 
 4286000   0.57426911    -8.180915    747.04973  0.014524999  0.013478949            4 
 4287000    0.5615819   -8.1982438      746.848  0.014517689   0.01347458            5 
 4288000   0.56942647   -8.1959625    748.16889  0.014539974  0.013470212            4 
 4289000   0.56345428   -8.1872609    748.21729  0.014537524   0.01346585            8 
 4290000   0.56033284    -8.173618     748.0722  0.014531317  0.013461483            5 
 4291000   0.56524098   -8.1994059    748.13388  0.014529128  0.013457121            3 
 4292000   0.57453826   -8.1887033    746.99992  0.014503726  0.013452757            6 
 4293000   0.56286638   -8.1821831    747.70098  0.014513956  0.013448396            6 
 4294000   0.55779024    -8.190194    747.87239  0.014513903  0.013444038            7 
 4295000   0.55739039   -8.2027968    747.09887  0.014495515   0.01343968            5 
 4296000   0.57014331   -8.1860278    748.68459  0.014522901  0.013435331            9 
 4297000   0.55423943   -8.2068751    747.12126  0.014489203  0.013430971            5 
 4298000   0.57191013   -8.2023028    747.13919   0.01448618  0.013426614            5 
 4299000   0.57585091   -8.2112024    747.19175  0.014483829  0.013422262            8 
 4300000   0.56615963   -8.1892003    747.00098  0.014476763  0.013417906            6 
 4301000   0.56873998   -8.2080871     747.4307  0.014481723  0.013413552            5 
 4302000    0.5569768   -8.2069495    747.54891  0.014480647  0.013409205            9 
 4303000   0.55999891    -8.191851    747.63101  0.014478871  0.013404861            5 
 4304000   0.56766598   -8.1855745    747.68537   0.01447656  0.013400515            6 
 4305000   0.55298684   -8.1704618     745.4407  0.014429746  0.013396165            3 
 4306000     0.555748   -8.1796738    747.05019  0.014457543  0.013391816            3 
 4307000     0.564187   -8.1847012    747.21146  0.014457307  0.013387472            5 
 4308000   0.55025341   -8.2044805    745.96011  0.014429745  0.013383133            7 
 4309000   0.57452434   -8.1804369    746.76782  0.014442017  0.013378787            5 
 4310000   0.57796405   -8.1902505    746.32185  0.014430043  0.013374443            9 
 4311000   0.55701272   -8.2059832     747.7658  0.014454608  0.013370106            7 
 4312000   0.57210401   -8.2062014    746.70544  0.014430764  0.013365771            7 
 4313000   0.55387207   -8.1791807     747.3146  0.014439188  0.013361433            4 
 4314000   0.56635238   -8.2031234    746.17009  0.014413732  0.013357096            8 
 4315000   0.56912596   -8.1940306    745.00065  0.014387807  0.013352763            4 
 4316000   0.56512005   -8.1961305    747.32221  0.014429298   0.01334843            7 
 4317000   0.55987669    -8.202134    747.62288   0.01443176  0.013344096            5 
 4318000   0.55012385   -8.2123045    747.77654  0.014431383  0.013339766            6 
 4319000   0.55522135   -8.1953164    746.05767  0.014394877   0.01333543            8 
 4320000    0.5713863   -8.1953134    745.92507  0.014388987  0.013331101            7 
 4321000   0.56152962   -8.1894776    745.70416  0.014381396  0.013326773            5 
 4322000   0.56268776   -8.2065429    747.37777  0.014410338  0.013322447            5 
 4323000   0.56350712    -8.190283    746.25933  0.014385445  0.013318118            7 
 4324000   0.56444187   -8.2059232    747.32146  0.014402587  0.013313796            3 
 4325000   0.56514678   -8.1857693    746.91459  0.014391418  0.013309481            7 
 4326000    0.5611378    -8.194171    746.09979  0.014372395  0.013305165            4 
 4327000   0.55139742   -8.2086218    746.37701  0.014374413  0.013300848            4 
 4328000   0.58073192   -8.1908226    746.54488  0.014374324  0.013296534            4 
 4329000   0.57178054   -8.1828062    746.00814  0.014360671  0.013292221            3 
 4330000   0.56321278    -8.191688     746.3311   0.01436357  0.013287908            5 
 4331000   0.56199813   -8.1938076    747.18483   0.01437668  0.013283597            4 
 4332000    0.5523552   -8.2036808    745.03357  0.014331979  0.013279281            5 
 4333000   0.55334408   -8.1824861    746.37091  0.014354391  0.013274973            5 
 4334000   0.55825064   -8.1756672    746.96183  0.014362441  0.013270666            4 
 4335000   0.56529209   -8.1812995    747.24538  0.014364579  0.013266365            4 
 4336000    0.5552921   -8.1794072    746.91978  0.014355008  0.013262064            5 
 4337000   0.55982854   -8.2110009    746.78472  0.014349103  0.013257762            2 
 4338000   0.55598739   -8.2206618    746.55036  0.014341293  0.013253461            5 
 4339000   0.55908039   -8.1853502    745.76537  0.014322912  0.013249162            5 
 4340000   0.55500427   -8.2205153    746.41719  0.014332127  0.013244863            4 
 4341000   0.55048545   -8.1950795    746.34322  0.014327406  0.013240566            6 
 4342000   0.55491365   -8.2144253    746.80653  0.014332998  0.013236269            5 
 4343000   0.55136101   -8.2067855     746.3735  0.014321389  0.013231974            3 
 4344000   0.56117255   -8.2076163    747.04521  0.014330978  0.013227681            4 
 4345000   0.55590814   -8.1974893    746.16181  0.014310737  0.013223387            6 
 4346000   0.55362979   -8.1999509    747.44105  0.014331973  0.013219093            6 
 4347000   0.56503854   -8.2005042    747.47784  0.014329381    0.0132148            4 
 4348000   0.55583289   -8.1987319    746.16845   0.01430099  0.013210511            6 
 4349000   0.55330655   -8.2194402     747.6236  0.014325584  0.013206224            5 
 4350000   0.54605614   -8.1984405    747.23986   0.01431494  0.013201938            8 
 4351000   0.55961227   -8.1990421    745.34966  0.014275447  0.013197653            4 
 4352000   0.56458215   -8.1946064    745.84836  0.014281716  0.013193368            5 
 4353000   0.55731027   -8.1987173    746.35157  0.014288069  0.013189083            6 
 4354000   0.56769724   -8.1944941     746.2764  0.014283349    0.0131848            7 
 4355000   0.56876917   -8.2114851    745.70169  0.014269072  0.013180517            4 
 4356000   0.56267867   -8.2216198    745.54351   0.01426277  0.013176232           10 
 4357000    0.5619147   -8.2028682    746.23221  0.014272669  0.013171954            9 
 4358000   0.56374926   -8.2217508    746.22182  0.014269195  0.013167672            5 
 4359000   0.55064239   -8.2020244    746.42379  0.014269783  0.013163391            5 
 4360000   0.55951672   -8.2169051    746.74234  0.014272598  0.013159116            5 
 4361000   0.54820074   -8.2042047    745.63366   0.01424814   0.01315484            6 
 4362000   0.55972898   -8.2267672    746.47759  0.014260996  0.013150569            4 
 4363000   0.55398568   -8.2086324    745.79867   0.01424476    0.0131463            4 
 4364000   0.55380468   -8.2086551    745.57053   0.01423714   0.01314203            6 
 4365000   0.56560003   -8.2223372    746.22226   0.01424632  0.013137763            4 
 4366000   0.54359208   -8.2046425    746.58303  0.014249943  0.013133498            3 
 4367000   0.56393753   -8.2124634    746.40743  0.014243329  0.013129238            4 
 4368000   0.57302687   -8.2193208    746.61547  0.014244037  0.013124974            4 
 4369000   0.54848825    -8.183771     744.8018  0.014206184  0.013120715            4 
 4370000    0.5504748   -8.2018686    747.16298  0.014247959  0.013116455            6 
 4371000   0.55602921   -8.2344709    746.79268   0.01423764  0.013112199            3 
 4372000   0.54858411   -8.2235092    746.41679  0.014227219  0.013107942            7 
 4373000   0.54004355    -8.207692    745.24038  0.014201547  0.013103688            3 
 4374000   0.54396584   -8.2003855    746.39281  0.014220256  0.013099438            5 
 4375000   0.54836692   -8.2102921    746.95153  0.014227648  0.013095191            3 
 4376000    0.5571968   -8.2229514    746.33621  0.014212679   0.01309094            3 
 4377000   0.55747439   -8.2117423    746.72716  0.014216875  0.013086688            6 
 4378000   0.55628009   -8.1881546    747.51027  0.014228534   0.01308244            7 
 4379000   0.55951505   -8.2166998    745.30695  0.014183355  0.013078194            7 
 4380000   0.55919447   -8.2252279    745.76731  0.014188876  0.013073952            4 
 4381000   0.55356605   -8.2028197    747.17756  0.014212462  0.013069713            5 
 4382000   0.53899782    -8.221751    745.25752  0.014172705  0.013065477            6 
 4383000   0.56160041    -8.211946    745.61445  0.014176258  0.013061241            6 
 4384000   0.55442868   -8.2077672    746.59734  0.014191707  0.013057008            8 
 4385000   0.55896558   -8.2318242    745.24346  0.014162741  0.013052772           11 
 4386000   0.56062365   -8.2058917    746.88127  0.014190631  0.013048543            8 
 4387000   0.55177467   -8.2114805    746.86762  0.014187137  0.013044311            8 
 4388000   0.55576653    -8.215328    746.69728  0.014180668  0.013040081            4 
 4389000   0.54769011   -8.2272074     745.9302  0.014162873  0.013035853            4 
 4390000   0.54841821   -8.2250977    744.61334   0.01413465  0.013031618            4 
 4391000   0.54246746   -8.2193489    744.86845  0.014136272  0.013027385            3 
 4392000    0.5570768   -8.2304735    746.50666  0.014164137   0.01302316            5 
 4393000   0.54830886   -8.2334996    746.34774  0.014157898  0.013018935            3 
 4394000   0.56476849   -8.2135156    745.39777  0.014136659  0.013014713            4 
 4395000   0.54544915   -8.1945134    747.23831  0.014168341  0.013010497            6 
 4396000   0.54371384    -8.206638    744.42202  0.014111731  0.013006278            3 
 4397000   0.54860528   -8.2352399    746.10554  0.014140428  0.013002058            5 
 4398000   0.54665261   -8.2419855    744.88049     0.014114  0.012997836            5 
 4399000   0.55398788   -8.2202943     744.5708  0.014104925  0.012993613           12 
 4400000   0.54028745   -8.2176526    745.99633  0.014128718  0.012989392            4 
 4401000   0.54387145   -8.2033815    745.28493  0.014112038  0.012985171            8 
 4402000   0.53537238   -8.2052364    744.23987  0.014089048  0.012980956            6 
 4403000   0.54057725    -8.246556    746.31162  0.014125059  0.012976737            3 
 4404000   0.54818783   -8.2379336    744.44805  0.014086589  0.012972523            3 
 4405000   0.54855444   -8.2096235    745.86998  0.014110291   0.01296831            7 
 4406000   0.55673764   -8.2357465     746.3622  0.014116398  0.012964106            9 
 4407000   0.54739588   -8.2100461    745.46154  0.014096164  0.012959901            5 
 4408000   0.55680278   -8.2207883    746.33415  0.014109463  0.012955698            6 
 4409000   0.54289972     -8.21128    746.30315  0.014105677  0.012951493            7 
 4410000   0.52635551   -8.2364608    745.76865  0.014092378  0.012947294            6 
 4411000   0.55294065   -8.2267848    745.87913   0.01409127  0.012943093            7 
 4412000   0.54905413   -8.2288393    746.03739  0.014091066  0.012938898            5 
 4413000    0.5446294   -8.2200506    746.05666  0.014088237  0.012934695            7 
 4414000   0.53707792   -8.2290133    745.15283  0.014067981  0.012930498            9 
 4415000   0.54907241   -8.2355722    745.52208  0.014071765    0.0129263            4 
 4416000    0.5393609   -8.2314063    744.70992  0.014053252  0.012922105            3 
 4417000   0.55257258   -8.2287158    746.18207  0.014077844  0.012917917            4 
 4418000   0.54283829   -8.2191133    746.33746  0.014077589  0.012913726            8 
 4419000   0.54586484   -8.2231475     745.4232  0.014057162  0.012909535            7 
 4420000    0.5551891    -8.229955    744.86244  0.014043409  0.012905351            4 
 4421000   0.53436426   -8.2414499    746.18712  0.014065202  0.012901163            7 
 4422000   0.54497041   -8.2318816    745.70048  0.014052851  0.012896979            7 
 4423000    0.5474228   -8.2288627    745.23178  0.014040843  0.012892797            4 
 4424000   0.54790725   -8.2074179    745.41993  0.014041213  0.012888617            5 
 4425000   0.55076639   -8.2261859    745.56739  0.014040817  0.012884434            7 
 4426000   0.53600039   -8.2302174    744.26656  0.014013153  0.012880255            6 
 4427000   0.53704306   -8.2167516    746.02308  0.014043052  0.012876076            7 
 4428000   0.54359649     -8.22245    745.63272  0.014032534  0.012871899            4 
 4429000   0.53490868    -8.244609    745.52938  0.014027421  0.012867724            3 
 4430000   0.54325555   -8.2247619    744.48257  0.014004563   0.01286355            6 
 4431000   0.53972413   -8.2279821    747.08325  0.014050313  0.012859379            9 
 4432000   0.54255698   -8.2204834    744.76313  0.014003519  0.012855206            4 
 4433000   0.54696655   -8.2337599    744.40434  0.013993615  0.012851032            4 
 4434000   0.53871859   -8.2440047    744.79553  0.013997811  0.012846862            4 
 4435000   0.53729514   -8.2343571     746.5707   0.01402801  0.012842694           11 
 4436000   0.54683491   -8.2281329    745.75108  0.014009451  0.012838527           12 
 4437000   0.52858169   -8.2232178    745.20369  0.013996013   0.01283436            8 
 4438000   0.53926396   -8.2404915    744.82745  0.013985794  0.012830201            8 
 4439000   0.54073517    -8.244279    745.29602   0.01399144  0.012826041            6 
 4440000   0.54742657   -8.2272889    745.52276  0.013992544  0.012821889            5 
 4441000   0.55128315    -8.224648    745.97287   0.01399784  0.012817734            7 
 4442000   0.54490409   -8.2543952      744.867  0.013973942  0.012813581            4 
 4443000    0.5307738   -8.2507367    744.53311  0.013964534  0.012809422            4 
 4444000     0.543971   -8.2350088    745.64791  0.013982297  0.012805271            9 
 4445000   0.53746115   -8.2355089    744.78346  0.013962945  0.012801123            6 
 4446000   0.53999712   -8.2459385    744.40645  0.013952738  0.012796972            4 
 4447000   0.53033893   -8.2408814    744.41352  0.013949732  0.012792819            3 
 4448000   0.53851639   -8.2438136    745.35224  0.013964183  0.012788673           14 
 4449000   0.54260463   -8.2403994    745.96248  0.013972475  0.012784528            3 
 4450000   0.53892716   -8.2458168    744.94333   0.01395025  0.012780389            6 
 4451000   0.52901309   -8.2260345    744.71028  0.013942752  0.012776248            9 
 4452000   0.54273179   -8.2493501    745.57563  0.013955818  0.012772109            5 
 4453000   0.53534873   -8.2472776    745.09527  0.013943695  0.012767972            5 
 4454000   0.53405398   -8.2088429    745.17677  0.013942089  0.012763836            5 
 4455000   0.52793128   -8.2390647    744.41438  0.013924698  0.012759702            5 
 4456000   0.53474899   -8.2299223    745.29849  0.013938108  0.012755573            4 
 4457000    0.5355331   -8.2152857    745.47621  0.013938303  0.012751447            6 
 4458000   0.53563298   -8.2519922    745.74717  0.013940242  0.012747322            5 
 4459000   0.54494725   -8.2559503    744.12193  0.013906742  0.012743199            4 
 4460000   0.53793151   -8.2427617    746.54453  0.013948889  0.012739072            7 
 4461000   0.53590852   -8.2390006     745.2965  0.013922448  0.012734943            3 
 4462000   0.53755489   -8.2435806    745.05297   0.01391478  0.012730825            5 
 4463000   0.54232939   -8.2395113     745.3201   0.01391665  0.012726703            5 
 4464000   0.54339051   -8.2538201    746.03099  0.013926803  0.012722582            7 
 4465000    0.5424607   -8.2347097    745.14876  0.013907218  0.012718459            8 
 4466000   0.53935608   -8.2518147    745.55167  0.013911622  0.012714341            3 
 4467000   0.54460647    -8.243011    746.28786  0.013922242  0.012710224            6 
 4468000   0.54092303   -8.2446333    745.89139  0.013911731  0.012706106            3 
 4469000   0.53888678   -8.2271397    744.92671   0.01389063  0.012701988            5 
 4470000   0.54236009   -8.2337589    744.16064  0.013873241  0.012697873           10 
 4471000   0.53399135   -8.2134547    745.48996  0.013894915  0.012693763            4 
 4472000   0.52480102   -8.2255456    745.14754  0.013885427  0.012689655            5 
 4473000   0.52894763    -8.252345    744.53803  0.013870967  0.012685544            6 
 4474000   0.53461548   -8.2445179    745.21066  0.013880395  0.012681434            3 
 4475000   0.53228988   -8.2314028    744.61756  0.013866249  0.012677324            4 
 4476000   0.53717309   -8.2534721    745.05317  0.013871261  0.012673216            5 
 4477000   0.53443364    -8.248589     746.1832  0.013889197   0.01266911            7 
 4478000   0.52807464   -8.2464409    745.16838   0.01386721  0.012665007            4 
 4479000   0.53048214   -8.2397855    745.05442  0.013861993  0.012660904            3 
 4480000   0.54574052   -8.2428998      745.474  0.013866704  0.012656804            3 
 4481000   0.53261708   -8.2465638    745.51386  0.013864351  0.012652705            5 
 4482000   0.53308406   -8.2341909    744.96084  0.013850975   0.01264861            3 
 4483000   0.53822664   -8.2472987      745.848  0.013864377  0.012644512            3 
 4484000   0.53894099   -8.2377141    745.35803  0.013852179  0.012640415            4 
 4485000   0.53669651   -8.2541916    745.56255   0.01385289  0.012636323            5 
 4486000    0.5227672   -8.2459278    744.80674  0.013835762  0.012632229            3 
 4487000   0.52421487   -8.2453556     745.2724  0.013841327  0.012628134            6 
 4488000   0.53702251   -8.2459224    744.99554  0.013833102  0.012624043            2 
 4489000   0.51470577   -8.2475969    744.38764  0.013818735  0.012619953            4 
 4490000   0.52413173   -8.2443031     745.3667  0.013833829  0.012615864            4 
 4491000   0.53152905   -8.2667263    743.68866  0.013799611  0.012611778            7 
 4492000   0.51983734   -8.2374837    745.07884  0.013822329  0.012607691            4 
 4493000   0.53018442   -8.2574929    744.98889  0.013817584  0.012603608            6 
 4494000   0.53137044   -8.2439073    745.10711  0.013816702  0.012599525            5 
 4495000   0.52576139   -8.2494639    745.03205  0.013812237  0.012595448           12 
 4496000   0.53927063   -8.2452504    745.34265  0.013814922  0.012591371            9 
 4497000   0.52510523   -8.2539014    744.77044  0.013801246  0.012587298           11 
 4498000   0.52962863   -8.2595485    744.63367  0.013795644  0.012583228            8 
 4499000   0.54312809    -8.255744    746.22462  0.013822046   0.01257916            6 
 4500000   0.52620074   -8.2453097    744.77195  0.013792073  0.012575088            4 
 4501000   0.53050754   -8.2486824    743.80023  0.013771018  0.012571022            8 
 4502000   0.52368264   -8.2639257    744.76439  0.013785806  0.012566954            5 
 4503000   0.53571805   -8.2372541    745.66589  0.013799428  0.012562886            5 
 4504000   0.52538037   -8.2492779    744.77571  0.013779894  0.012558822           10 
 4505000   0.52026705   -8.2371122    745.29667  0.013786472  0.012554762            6 
 4506000   0.54329985   -8.2511023     743.9943  0.013759326    0.0125507            3 
 4507000   0.53382258   -8.2528911    744.05966  0.013757482  0.012546643            7 
 4508000   0.54974669   -8.2510187    744.19943  0.013757014  0.012542584            4 
 4509000   0.52382572   -8.2425829    745.27745  0.013773886  0.012538528           17 
 4510000   0.52823194   -8.2588234     744.0634    0.0137484  0.012534475            7 
 4511000   0.53289034   -8.2562682    745.02688  0.013763151  0.012530423            7 
 4512000   0.53324861   -8.2382693    745.78153  0.013774038  0.012526372            3 
 4513000   0.52953456   -8.2597083    743.88522  0.013735971  0.012522321           12 
 4514000   0.53327158   -8.2277384    744.11193  0.013737113  0.012518273           17 
 4515000   0.53699538   -8.2550593    744.37017  0.013738837  0.012514224            7 
 4516000    0.5169321   -8.2407393     744.1617  0.013731948  0.012510181            5 
 4517000   0.52806051   -8.2465959     743.5108  0.013716899  0.012506136            9 
 4518000   0.52559556   -8.2569665    745.23372  0.013745642  0.012502094            5 
 4519000   0.52242964   -8.2581831    744.34077  0.013726133  0.012498053            4 
 4520000   0.54748091   -8.2720247    744.28811  0.013722126  0.012494013            4 
 4521000   0.52438191   -8.2486164    744.92069  0.013730751  0.012489978            5 
 4522000   0.53966177   -8.2534653    744.64393  0.013722614  0.012485942           11 
 4523000   0.52937474   -8.2523714    745.38837  0.013733296  0.012481907           12 
 4524000   0.53517251   -8.2646632    743.96865  0.013704109  0.012477873           14 
 4525000   0.53379092   -8.2524313    743.42065  0.013690988  0.012473842            5 
 4526000   0.53680748   -8.2554741      745.412  0.013724628  0.012469811            5 
 4527000   0.52382847   -8.2516392    745.88575  0.013730317  0.012465785           15 
 4528000   0.52630917   -8.2616561    744.58617  0.013703367  0.012461758            5 
 4529000   0.53831387   -8.2430549    744.19899  0.013693218  0.012457731            9 
 4530000   0.51786621   -8.2644218    744.24119  0.013690971  0.012453706            6 
 4531000   0.52898625   -8.2498243    743.81256  0.013680066  0.012449685            7 
 4532000   0.52480168   -8.2727631    744.80201  0.013695241  0.012445666            9 
 4533000   0.52443983   -8.2493852    744.76861  0.013691606  0.012441647            7 
 4534000   0.52929591   -8.2453798    744.29168  0.013679821  0.012437624            5 
 4535000   0.52228108   -8.2551327    744.75913  0.013685394  0.012433612           10 
 4536000   0.54079215   -8.2491307    745.98604  0.013704917  0.012429598            6 
 4537000   0.52635627   -8.2495382    745.25187  0.013688411  0.012425586            6 
 4538000   0.53558432   -8.2666981    744.79393  0.013676986   0.01242157            5 
 4539000   0.52576518   -8.2647424    745.24001  0.013682162  0.012417559            3 
 4540000   0.52524595   -8.2584987    745.22637  0.013678898  0.012413551            8 
 4541000   0.53503663   -8.2566594     745.4436  0.013679872  0.012409544            7 
 4542000   0.53735225   -8.2643123    745.53287  0.013678498  0.012405538           10 
 4543000   0.51239261   -8.2546332    745.32083  0.013671598  0.012401534            7 
 4544000   0.51910818   -8.2580908    744.93598  0.013661531  0.012397531            6 
 4545000   0.51944889   -8.2547913    744.06375  0.013642533  0.012393524            5 
 4546000   0.51911909   -8.2648408    744.05227  0.013639322  0.012389519            4 
 4547000   0.52235158   -8.2600063    744.81451  0.013650292  0.012385518           11 
 4548000   0.53039709   -8.2651312    745.97719  0.013668594  0.012381514            5 
 4549000   0.52263112    -8.261911    745.61639   0.01365898  0.012377513            7 
 4550000   0.53149568   -8.2625946    743.86587  0.013623917  0.012373518           11 
 4551000   0.52323097   -8.2617787    743.85211  0.013620671  0.012369521            6 
 4552000   0.51782372   -8.2712912    745.47084  0.013647313  0.012365526            6 
 4553000   0.53179512   -8.2822716    743.90423  0.013615642  0.012361533            6 
 4554000   0.53103862   -8.2659769    743.22961  0.013600308   0.01235754            6 
 4555000   0.52407684   -8.2559428    744.06391  0.013612585   0.01235355            4 
 4556000   0.52121338   -8.2675176    744.05848  0.013609498  0.012349561            4 
 4557000    0.5231324   -8.2702692    744.35596  0.013611952  0.012345572            4 
 4558000   0.51832075   -8.2726164    744.19623  0.013606045  0.012341584            4 
 4559000   0.52845545   -8.2745559    743.81037  0.013596007  0.012337598            8 
 4560000   0.52145886    -8.263954    743.87633  0.013594231   0.01233361            6 
 4561000   0.50949073   -8.2454892    743.77712  0.013589438  0.012329624            6 
 4562000   0.50940699   -8.2718071    745.14218  0.013611394   0.01232564            4 
 4563000    0.5174324   -8.2714062    743.88514  0.013585454  0.012321658            3 
 4564000   0.51109564   -8.2794081     745.0301  0.013603383  0.012317677            3 
 4565000   0.53302895   -8.2683715    743.71599  0.013576415  0.012313697            5 
 4566000   0.52649275   -8.2636573    743.85237   0.01357593  0.012309721            5 
 4567000   0.51119398   -8.2738034    743.79932   0.01357199  0.012305744            6 
 4568000   0.50899599   -8.2864884    745.35942  0.013597479   0.01230177            5 
 4569000   0.52382852    -8.249219      744.346   0.01357602  0.012297797            4 
 4570000   0.51677205   -8.2780115    745.00602  0.013585084  0.012293825            3 
 4571000   0.51066542   -8.2603508    744.33165  0.013569818  0.012289853            5 
 4572000   0.51718109   -8.2623628    743.57512  0.013553061  0.012285887            5 
 4573000   0.52588542   -8.2517426    744.81669  0.013572722  0.012281923            4 
 4574000   0.53032361   -8.2608163    744.03784  0.013555565  0.012277958            3 
 4575000   0.50876427   -8.2536131    745.17889  0.013573386  0.012273998            3 
 4576000   0.52065318   -8.2817213    743.63684  0.013542337  0.012270037            3 
 4577000   0.52651955   -8.2807868    744.62706  0.013557408  0.012266075            3 
 4578000   0.51913999   -8.2598085    745.33212  0.013567281  0.012262118            3 
 4579000   0.52160125    -8.261355    743.88741  0.013538025  0.012258165            4 
 4580000    0.5162601   -8.2595589    744.80213  0.013551713  0.012254212            3 
 4581000   0.52197637   -8.2720187    743.70326  0.013528765  0.012250261            4 
 4582000   0.51856668    -8.258897    744.51265  0.013540533  0.012246308            8 
 4583000   0.52288832    -8.274212    744.06098  0.013529365  0.012242355            4 
 4584000    0.5111239   -8.2852476    744.66231  0.013537346  0.012238406            4 
 4585000   0.50762935   -8.2794304    744.50604  0.013531553  0.012234457            6 
 4586000   0.51638517   -8.2852985    743.94225  0.013518357  0.012230505            8 
 4587000   0.53445946   -8.2790025     744.2753  0.013521461  0.012226562            6 
 4588000   0.51998532   -8.2793373    743.58754  0.013506022  0.012222621            4 
 4589000   0.51207477   -8.2667095    743.91247  0.013508979  0.012218677            3 
 4590000   0.51015387   -8.2663912    743.46787  0.013497964   0.01221473            7 
 4591000    0.5172951   -8.2808526    743.53207   0.01349619  0.012210792            5 
 4592000   0.50042493   -8.2808067    743.27782  0.013488636  0.012206855            6 
 4593000   0.51306965    -8.286717    745.40083  0.013524219  0.012202921            4 
 4594000   0.52601644   -8.2612374    744.10769  0.013497818  0.012198988            6 
 4595000   0.50802654   -8.2781947    744.67373  0.013505146  0.012195054            4 
 4596000    0.5122031   -8.2755419    744.35416  0.013496413   0.01219112            6 
 4597000    0.5256323   -8.2798268    744.48446  0.013495839  0.012187192            3 
 4598000   0.52811714   -8.2844464    743.99728  0.013484074  0.012183259            5 
 4599000   0.50868735   -8.2752566    744.73866  0.013494576  0.012179327            7 
 4600000   0.51926011   -8.2855487    743.74692  0.013473676  0.012175396            7 
 4601000   0.52102304   -8.2792065    744.11471  0.013477409  0.012171465            7 
 4602000   0.52589398   -8.2666255    744.81295  0.013487124  0.012167534            9 
 4603000   0.51105464   -8.2739855    742.58796  0.013443913  0.012163608            5 
 4604000   0.51506537   -8.2984858    742.68852  0.013442813  0.012159686            9 
 4605000   0.51124329    -8.265646    742.82338  0.013442334  0.012155766            6 
 4606000   0.52048929   -8.2620538    744.06939  0.013461959  0.012151846            5 
 4607000   0.51115438   -8.2706372    744.44106   0.01346576  0.012147926            4 
 4608000   0.51562274   -8.2760297     743.8018  0.013451277  0.012144008            4 
 4609000   0.51085234   -8.2845783    742.91646  0.013432351  0.012140093            5 
 4610000   0.51173329   -8.2873399    742.87649  0.013428715  0.012136175            2 
 4611000    0.5066979   -8.2802621    743.88983  0.013444116  0.012132258            7 
 4612000   0.51435299   -8.2737116    743.67582  0.013437334  0.012128343            5 
 4613000   0.51594052    -8.272137     743.7747  0.013436207  0.012124428            4 
 4614000   0.52682358   -8.2856068    743.00466  0.013419388  0.012120516            4 
 4615000   0.51688191   -8.2897663      742.805  0.013412875  0.012116608            8 
 4616000   0.50589612   -8.2671896    744.25859  0.013436211  0.012112705            3 
 4617000   0.52023853   -8.2865334    743.81501  0.013425294    0.0121088            3 
 4618000   0.51812814   -8.2714036    743.10158  0.013409513  0.012104895            6 
 4619000   0.52437828   -8.3076709    744.37739  0.013429627   0.01210099            5 
 4620000   0.51060885   -8.2805953    743.99355  0.013419797  0.012097086            9 
 4621000   0.51476556   -8.2847385    744.22632  0.013421091  0.012093183            4 
 4622000   0.51505079   -8.2821884    743.67567  0.013408259  0.012089285            5 
 4623000   0.51154862   -8.2764239    743.18794  0.013396567  0.012085389            5 
 4624000   0.50705423   -8.2897443    743.85236  0.013405644  0.012081493            7 
 4625000   0.49997789   -8.2788491    743.35454  0.013393776  0.012077597            5 
 4626000   0.51177229   -8.2756484    743.02499  0.013384944  0.012073698           14 
 4627000   0.49906196   -8.2971031    743.03171  0.013382172  0.012069799            8 
 4628000   0.50588561   -8.2872948    744.12555  0.013398976  0.012065903            6 
 4629000   0.49736135   -8.2793967    743.15715  0.013378648  0.012062011            5 
 4630000   0.51318764   -8.2786052    743.46197  0.013381245  0.012058121            5 
 4631000   0.50497345   -8.2954799    743.02483  0.013370489  0.012054236            5 
 4632000   0.51288534   -8.2924297    742.20717  0.013352892   0.01205035            7 
 4633000   0.52371407   -8.2869176    744.05818  0.013383304  0.012046467           11 
 4634000   0.52409393   -8.2782671     743.5895  0.013371988  0.012042587           10 
 4635000   0.50672671    -8.272899    744.25873  0.013381135   0.01203871            7 
 4636000   0.50900182   -8.2769897     743.6946  0.013368108  0.012034831            3 
 4637000    0.5061246   -8.2852238    743.32635  0.013358607  0.012030957            6 
 4638000   0.50083824    -8.304622    742.66908  0.013343918  0.012027081            5 
 4639000   0.52007304   -8.3007807    743.43067  0.013354722  0.012023211            4 
 4640000   0.51135767   -8.2821957    743.21825  0.013348029  0.012019337            6 
 4641000   0.51173086    -8.295928    743.94035  0.013358119  0.012015467            3 
 4642000    0.5052767   -8.2891741    743.26573   0.01334313  0.012011599            5 
 4643000   0.50800685   -8.2917137    743.16268  0.013338407  0.012007731            3 
 4644000   0.51233079   -8.2742736    742.58373  0.013325146  0.012003864            3 
 4645000   0.51365159   -8.2900107    742.99784  0.013329706  0.012000002            3 
 4646000   0.50861201   -8.2972765    743.27975  0.013331894  0.011996143            5 
 4647000   0.50660059   -8.2889693    744.60919  0.013352865   0.01199228            4 
 4648000   0.51053297   -8.3017295    743.93827  0.013337964   0.01198842            4 
 4649000   0.49359888   -8.2869156    743.62762  0.013329526  0.011984562            5 
 4650000   0.50259299   -8.2776936    744.53515  0.013342924  0.011980705            3 
 4651000   0.51436112   -8.2863769    744.06291  0.013331594  0.011976848            5 
 4652000    0.5128646    -8.290316    742.31861  0.013297482  0.011972995            3 
 4653000   0.50599921     -8.29515     743.7792  0.013320782  0.011969143            5 
 4654000   0.50647954   -8.2863626    742.38842  0.013293017  0.011965289            4 
 4655000    0.5021643   -8.3145455    744.16055  0.013321886  0.011961441            5 
 4656000   0.49545051   -8.2965083     743.0084  0.013298404   0.01195759            4 
 4657000   0.51372801   -8.2964841     744.1532  0.013316033  0.011953742            9 
 4658000   0.51438318   -8.2944161    743.65051  0.013304181  0.011949894            6 
 4659000   0.50986529   -8.3086096    743.02665  0.013290167  0.011946049            4 
 4660000   0.51759718   -8.2881307    744.02434  0.013305156  0.011942201            5 
 4661000   0.50043094   -8.2868017     743.2577  0.013288595  0.011938356            4 
 4662000   0.50950897   -8.2964909    744.10836   0.01330095  0.011934513            5 
 4663000   0.49846484   -8.2740738    742.14937  0.013263088  0.011930674            7 
 4664000   0.50726388   -8.2927342    743.72956  0.013288478  0.011926834            6 
 4665000   0.52045577   -8.2951606    742.34511  0.013260899  0.011922995            5 
 4666000   0.50484663     -8.29623    743.88661  0.013285587  0.011919163            8 
 4667000   0.50560054   -8.3157154    742.43304  0.013256786  0.011915326            5 
 4668000    0.5015035   -8.2929931    743.91506  0.013280403  0.011911491            6 
 4669000   0.50155871   -8.2982998    743.25243  0.013265732  0.011907659            8 
 4670000   0.50597046   -8.2921418    743.00102  0.013258405  0.011903829            4 
 4671000    0.5004028   -8.2788701    743.82715  0.013270305  0.011899998            2 
 4672000   0.50402761   -8.2957869    741.90015  0.013233093  0.011896171           13 
 4673000   0.50241728   -8.2932895      742.689  0.013244329  0.011892344            7 
 4674000   0.50478978   -8.2854732    742.38481  0.013236072  0.011888519            6 
 4675000   0.51201242   -8.3134993    742.10008  0.013228165  0.011884692            5 
 4676000   0.49936117   -8.3102599    743.47101  0.013249768   0.01188087           11 
 4677000   0.50635355   -8.2917808    743.02885  0.013239057  0.011877047            4 
 4678000   0.51173714   -8.3007301    742.98635   0.01323547  0.011873225            5 
 4679000   0.48188262   -8.2865506     742.4921  0.013223839  0.011869404            4 
 4680000   0.49042031    -8.290387    741.84858  0.013209554  0.011865584            6 
 4681000   0.51068389   -8.3051979    741.72218  0.013204482  0.011861767            5 
 4682000   0.49267739   -8.2948493    743.90391  0.013240494  0.011857953            4 
 4683000   0.50587047   -8.2959738    743.63437   0.01323287  0.011854142            7 
 4684000   0.49612629   -8.2857256    741.99337   0.01320085  0.011850331            5 
 4685000   0.51395253   -8.2985125    743.36831  0.013222489  0.011846524            3 
 4686000    0.4959227   -8.3117571    743.51929  0.013222352  0.011842716            3 
 4687000   0.49885072   -8.2831036    742.92494  0.013208963  0.011838911            4 
 4688000   0.50733821   -8.2880652    742.67345  0.013201675  0.011835106            5 
 4689000   0.50787305   -8.3060225    742.20443  0.013190524  0.011831302            4 
 4690000   0.50557147     -8.30136    741.99242  0.013183945  0.011827501            6 
 4691000   0.50199647   -8.2894953    741.84388  0.013178496    0.0118237            5 
 4692000   0.50421845   -8.3061174     742.7527  0.013191828  0.011819902            5 
 4693000   0.49437195   -8.3162761    741.95623  0.013174874  0.011816104            4 
 4694000   0.50655955   -8.3110912    743.84884  0.013205668  0.011812308           11 
 4695000   0.49977713   -8.2875811    742.88843  0.013185808  0.011808515            6 
 4696000   0.50184149    -8.296861    742.67946  0.013179292   0.01180472            6 
 4697000   0.48650276   -8.3146266     741.9998  0.013164428  0.011800928            4 
 4698000   0.50915166   -8.2898137    743.41742  0.013186771  0.011797137            6 
 4699000   0.50264947   -8.3114998    743.82332  0.013191163   0.01179335            4 
 4700000   0.49700452   -8.3033331    742.41468  0.013163381  0.011789565            3 
 4701000   0.49503628   -8.3237809    742.49673  0.013162035   0.01178578            3 
 4702000    0.4993766   -8.3055915      742.623  0.013161474  0.011781997            7 
 4703000   0.49281327   -8.2951477    742.45189  0.013155643  0.011778219            7 
 4704000   0.50445275   -8.3049731    743.34421  0.013168655  0.011774437            7 
 4705000    0.4907624   -8.2941646    743.75071  0.013173056  0.011770662            3 
 4706000     0.496357   -8.2979596     743.1091  0.013158895  0.011766883            5 
 4707000   0.49417266    -8.306651    742.04398  0.013137242  0.011763107            4 
 4708000   0.48718185   -8.3029808    743.30474  0.013156768  0.011759335            4 
 4709000   0.48941191   -8.3084831    741.55853  0.013123072  0.011755563            4 
 4710000   0.48859905   -8.3112031    744.47214  0.013171835  0.011751789            3 
 4711000   0.49872992   -8.3163913     742.6552  0.013136899  0.011748019            6 
 4712000   0.49587994   -8.3144737    742.80654  0.013136788  0.011744249            7 
 4713000   0.48630022   -8.3045936    742.04311  0.013120502  0.011740482            4 
 4714000    0.4925687   -8.2981861      742.766  0.013130498  0.011736715            5 
 4715000   0.49580455   -8.3090789     742.4462  0.013122061  0.011732952            6 
 4716000   0.48997011   -8.3164486    743.01202  0.013129277  0.011729193            3 
 4717000   0.49699148    -8.301529    741.75216  0.013104236  0.011725432            6 
 4718000   0.50024473   -8.3043862    743.04427  0.013124281  0.011721673            5 
 4719000   0.49588181   -8.3218556    742.99475  0.013120625  0.011717917            7 
 4720000   0.49953415   -8.2878374    741.65691  0.013094225  0.011714163            6 
 4721000   0.49539963   -8.3074454    743.75472  0.013128481   0.01171041            4 
 4722000   0.49220589   -8.3156449    743.57042  0.013122449  0.011706658            6 
 4723000   0.49811541   -8.3003739    742.80538  0.013106172  0.011702902            4 
 4724000   0.49846874     -8.31476    742.59417  0.013099671  0.011699154            6 
 4725000   0.49487284   -8.3117016    743.80051  0.013118175  0.011695409            4 
 4726000   0.50201257   -8.3090173     742.7042  0.013096068  0.011691663            3 
 4727000    0.4969836   -8.3256767    742.21642  0.013084698  0.011687917            6 
 4728000   0.49555352    -8.318849    741.92032  0.013076712  0.011684172            4 
 4729000   0.49674832   -8.3122603    743.16213  0.013095829  0.011680423            3 
 4730000   0.49553006   -8.3097566    742.43953   0.01308033  0.011676679            5 
 4731000    0.5109357   -8.3212851    743.27949  0.013092361  0.011672937            4 
 4732000   0.49308063   -8.3284703    742.35632  0.013073336  0.011669198            4 
 4733000   0.49494808   -8.2965419    741.52277  0.013055898  0.011665458            4 
 4734000   0.49357839   -8.3200012    742.47968  0.013069985  0.011661722            5 
 4735000   0.49320785   -8.3065672    742.48346  0.013067291  0.011657989            3 
 4736000    0.4911799    -8.322955    741.30127   0.01304373  0.011654259            5 
 4737000   0.48830948   -8.3264377    742.81236   0.01306756  0.011650528            4 
 4738000   0.48799958   -8.3069686      742.994  0.013067996  0.011646799            3 
 4739000   0.49301754   -8.3138946    743.15867  0.013068134  0.011643071            3 
 4740000   0.49566772   -8.3160311    742.07974  0.013046409  0.011639346            3 
 4741000   0.49779051   -8.3210104    743.18113  0.013063016  0.011635623            6 
 4742000   0.47957107   -8.3082817    742.16153  0.013042344  0.011631896            4 
 4743000   0.49644681   -8.3184041    743.18652  0.013057603  0.011628172            5 
 4744000   0.50002748   -8.3138225    740.84902   0.01301379  0.011624449            4 
 4745000   0.50121907   -8.3293928    743.19663  0.013052277  0.011620726            3 
 4746000   0.48850551   -8.3227513    742.88981  0.013044139  0.011617003            3 
 4747000    0.4881155   -8.3055536    742.88034  0.013041225  0.011613282            4 
 4748000    0.4892406    -8.300856    742.14642  0.013025597  0.011609567            5 
 4749000   0.48411785   -8.3068242    742.42891  0.013027811  0.011605851            7 
 4750000   0.49072836    -8.321077    740.07158  0.012983712  0.011602135            3 
 4751000   0.49371273   -8.3047768    741.70925  0.013009704  0.011598422            5 
 4752000   0.48920455    -8.307386    743.05568  0.013030578  0.011594709            4 
 4753000   0.50346931   -8.3193715    742.97301  0.013026387  0.011590996            4 
 4754000   0.49582007   -8.3096064    741.61104  0.012999773  0.011587292            7 
 4755000   0.49006265   -8.3249327    742.22296  0.013007763  0.011583585            2 
 4756000   0.49571912   -8.3178198     742.3643  0.013007505  0.011579876            5 
 4757000   0.49227841   -8.3284588    742.90489   0.01301424  0.011576172            4 
 4758000   0.48255412   -8.3071506    741.84729  0.012992982  0.011572468            5 
 4759000   0.49603698   -8.3051015    742.12396  0.012995096  0.011568764            5 
 4760000   0.48896342   -8.3173884      742.365  0.012996586  0.011565064            3 
 4761000   0.48285477   -8.3257447    742.73755  0.013000377  0.011561365            3 
 4762000   0.48749315   -8.3120447    742.43206  0.012992301  0.011557661            7 
 4763000   0.49743669   -8.3256991    742.03801  0.012982679  0.011553961            4 
 4764000   0.48450977   -8.3064647    741.62185  0.012972674  0.011550259            4 
 4765000   0.49516609      -8.3177    741.54682   0.01296864  0.011546565            7 
 4766000   0.48480219   -8.3195436    742.44485  0.012981621  0.011542873            5 
 4767000   0.48843378   -8.3022826    741.56058  0.012963439  0.011539181            5 
 4768000   0.49423243    -8.310734    742.78722  0.012982159   0.01153549            3 
 4769000   0.47542002   -8.3255637    741.71593  0.012960717    0.0115318            8 
 4770000    0.4894936   -8.3250683    742.35407  0.012969149  0.011528111            7 
 4771000   0.48157511   -8.3260425    742.37778  0.012966845  0.011524425            6 
 4772000   0.48480512   -8.3197779    741.89005   0.01295561  0.011520741            6 
 4773000   0.48682142   -8.3223195    742.95777  0.012971537  0.011517057            4 
 4774000   0.48351232   -8.3164296    742.94785  0.012968647  0.011513374            5 
 4775000   0.47559638   -8.3212926     742.1212  0.012951504  0.011509693            5 
 4776000   0.47736419    -8.318513    742.12722  0.012948898  0.011506015            4 
 4777000   0.48958606    -8.329036    742.07181   0.01294522  0.011502336            5 
 4778000   0.48727439   -8.3188644    742.37707  0.012947835  0.011498659            4 
 4779000   0.48544604   -8.3392444    742.36132  0.012944851  0.011494984            3 
 4780000   0.48055419    -8.324993    742.37489   0.01294238  0.011491311            7 
 4781000   0.49013714   -8.3241249     741.3548  0.012921892  0.011487641            8 
 4782000   0.47593357   -8.3165171    740.56267  0.012905386  0.011483967            5 
 4783000   0.48485286   -8.3236769    741.86881  0.012925444  0.011480294            2 
 4784000   0.48895689   -8.3252302    742.89952  0.012940697  0.011476627            5 
 4785000   0.48893325   -8.3258022     742.2656  0.012926952  0.011472962            7 
 4786000   0.50226437   -8.3256813    742.89986  0.012935295  0.011469297            4 
 4787000   0.49706929   -8.3298509    741.59777  0.012909926  0.011465633            4 
 4788000   0.47196361   -8.3224481     741.9655   0.01291363  0.011461973            5 
 4789000   0.49397149   -8.3357582    742.58271  0.012921673   0.01145831            8 
 4790000   0.47942001   -8.3132744    742.31237  0.012914272  0.011454649            6 
 4791000   0.48032309   -8.3281283    743.37488  0.012930058  0.011450992            5 
 4792000   0.48913604    -8.322907    741.63544   0.01289711  0.011447335            4 
 4793000   0.49875334   -8.3263078    742.39765  0.012907672  0.011443679            7 
 4794000   0.48139027   -8.3122686    741.76993  0.012894068  0.011440025            8 
 4795000   0.48389822   -8.3234414    742.42726  0.012902803  0.011436371            7 
 4796000   0.48855797    -8.332639    741.99841  0.012892661  0.011432721            8 
 4797000   0.48294427   -8.3289671    741.62113  0.012883419  0.011429072            5 
 4798000   0.48703284   -8.3402173    742.18506  0.012890528  0.011425426            5 
 4799000   0.48778533    -8.328829    743.18155  0.012905146   0.01142178            9 
 4800000   0.47674596   -8.3425121    741.96221  0.012881288  0.011418133            5 
 4801000   0.47374263   -8.3381964    741.76696  0.012875216  0.011414486            8 
 4802000   0.49429222   -8.3549285    743.12062  0.012896026  0.011410841            3 
 4803000   0.48363199    -8.327762    741.32022  0.012862104  0.011407199            5 
 4804000   0.48422516   -8.3308005    741.79638  0.012867686  0.011403562            6 
 4805000   0.48552338   -8.3380741    742.06283  0.012869629  0.011399923            7 
 4806000   0.48288757     -8.32421     742.0845  0.012867327  0.011396289            3 
 4807000   0.48663593   -8.3388961    741.69752  0.012857942  0.011392656            3 
 4808000   0.49007589   -8.3395855     741.7848   0.01285678  0.011389023            6 
 4809000   0.48814369    -8.339853    741.82116  0.012854737  0.011385391            5 
 4810000   0.48012399   -8.3394848    741.54267   0.01284724  0.011381765            5 
 4811000   0.47856696   -8.3242739     741.4541  0.012843035  0.011378141            3 
 4812000   0.48403475   -8.3497118    741.27578  0.012837278  0.011374515            4 
 4813000   0.47954674   -8.3126215    742.17665  0.012850209  0.011370889            5 
 4814000   0.47546357     -8.35091     743.4346  0.012869315  0.011367268            4 
 4815000    0.4846144   -8.3293742    740.99491  0.012824419  0.011363646            5 
 4816000   0.48077051   -8.3295716    741.62228  0.012832611  0.011360023            4 
 4817000   0.47635949    -8.314364    742.05571  0.012837446  0.011356407            6 
 4818000   0.47090417   -8.3286551    742.68287  0.012845629  0.011352788            8 
 4819000   0.48752841   -8.3333681    742.16263  0.012833967  0.011349169            6 
 4820000   0.47600076   -8.3457164    740.82912  0.012808249  0.011345554            4 
 4821000   0.48275156   -8.3251914     742.3398  0.012831705  0.011341939            9 
 4822000   0.47917986   -8.3406871    742.22953  0.012827138  0.011338322            3 
 4823000   0.47810904   -8.3105075    741.45315  0.012811064  0.011334708            4 
 4824000   0.47654697   -8.3517144    742.95909  0.012834423  0.011331097            4 
 4825000   0.48390264    -8.321665    742.11238   0.01281714  0.011327484            4 
 4826000    0.4885664   -8.3319107    742.06199  0.012813614  0.011323872            4 
 4827000    0.4772738   -8.3403219    742.08683  0.012811388  0.011320261            3 
 4828000   0.48533626   -8.3306413    742.39219  0.012814005  0.011316653            5 
 4829000   0.48465017   -8.3299029    741.62387  0.012798093  0.011313043            4 
 4830000   0.47944919   -8.3418798     741.9614  0.012801266  0.011309439            3 
 4831000    0.4864303   -8.3300479    741.44926  0.012789782  0.011305834            8 
 4832000   0.47980735     -8.32294    740.88418   0.01277739  0.011302228            5 
 4833000   0.48365608   -8.3373654    740.64652  0.012770648  0.011298628            5 
 4834000    0.4689426   -8.3308716    741.86707  0.012789048  0.011295029            4 
 4835000   0.48926165   -8.3562836    742.26858  0.012793323   0.01129143            7 
 4836000   0.48416014   -8.3301687    742.38609  0.012792702   0.01128783            8 
 4837000    0.4787394   -8.3242434    740.38288  0.012755545  0.011284234            6 
 4838000   0.47171144   -8.3361344    741.69922  0.012775582  0.011280639            5 
 4839000   0.48284971   -8.3406496    741.72738  0.012773427  0.011277044            8 
 4840000   0.46977549   -8.3472014    740.11665  0.012743055   0.01127345            4 
 4841000   0.48139243   -8.3371353    741.66111  0.012767009  0.011269857            5 
 4842000   0.47558379   -8.3295723    741.76681  0.012766192  0.011266266            6 
 4843000   0.47534567    -8.336609    741.59891  0.012760667  0.011262676            5 
 4844000   0.47504648   -8.3281821     742.0772  0.012766261  0.011259093            7 
 4845000   0.47562665   -8.3176665    741.59342  0.012755305  0.011255506            6 
 4846000   0.49143592   -8.3265947    740.91842  0.012741065  0.011251921            5 
 4847000    0.4633238   -8.3558588    741.76043  0.012752913  0.011248338            5 
 4848000   0.48770627   -8.3339505    742.33386  0.012760139  0.011244755           12 
 4849000   0.47649193   -8.3397217    742.38952  0.012758464  0.011241174            4 
 4850000   0.47758809   -8.3408625    742.02903   0.01274964  0.011237595            4 
 4851000   0.46847888   -8.3360618    741.65064  0.012740511  0.011234019            5 
 4852000   0.48071743   -8.3430795    741.15759  0.012729417  0.011230445            6 
 4853000   0.48472292   -8.3392381    741.09274  0.012725681   0.01122687            5 
 4854000   0.47225738   -8.3424017    741.85482  0.012736142  0.011223296            4 
 4855000   0.47455248   -8.3227995    741.47585  0.012727014  0.011219727            6 
 4856000   0.47334528    -8.347702    741.92538  0.012732108  0.011216159            3 
 4857000   0.49004253   -8.3378174    742.16177  0.012733542  0.011212592            3 
 4858000   0.48528801   -8.3402409    742.22672  0.012732035  0.011209027            7 
 4859000    0.4772602     -8.34841    740.39152  0.012697941   0.01120546            5 
 4860000    0.4715634   -8.3378261    741.32506  0.012711335  0.011201896            8 
 4861000   0.47795342   -8.3346177    742.46103  0.012728194  0.011198332            9 
 4862000   0.47589015   -8.3447727      742.469  0.012725713  0.011194771            7 
 4863000   0.47033396    -8.325775    740.85373  0.012695417  0.011191212           10 
 4864000   0.47590532   -8.3242521    741.35601  0.012701412  0.011187655            6 
 4865000   0.46259009   -8.3577187    741.83837  0.012707064  0.011184099            5 
 4866000   0.46666105   -8.3407297    742.23315  0.012711213  0.011180542            6 
 4867000   0.48216836   -8.3407768    740.08283  0.012671783  0.011176987            7 
 4868000   0.45753983    -8.349825    741.01569  0.012685149   0.01117343            7 
 4869000   0.46481956   -8.3355613    740.77667  0.012678453  0.011169877            8 
 4870000    0.4694493   -8.3601589    740.87675  0.012677562  0.011166322            7 
 4871000   0.47382636   -8.3461042    740.87085  0.012674859  0.011162772            7 
 4872000   0.46651558    -8.336672    740.74908  0.012670175  0.011159224            4 
 4873000   0.46407457   -8.3446307     741.4244  0.012679123  0.011155677            8 
 4874000   0.47506589    -8.353403    740.74846  0.012664965   0.01115213            4 
 4875000   0.47494856   -8.3540317    740.78833  0.012663048  0.011148588            6 
 4876000    0.4789256   -8.3547177    742.23446  0.012685167  0.011145043            9 
 4877000   0.47719946   -8.3460308    741.99437  0.012678463  0.011141501            7 
 4878000   0.47062493   -8.3494448    739.89482  0.012639996  0.011137963           12 
 4879000    0.4703008    -8.348515     740.5652  0.012648856  0.011134425            3 
 4880000   0.47674601   -8.3504563    741.14257  0.012656123  0.011130889            5 
 4881000    0.4736106   -8.3513231     741.9471  0.012667266  0.011127355            3 
 4882000   0.47557755   -8.3398797    741.78234  0.012661859  0.011123818            9 
 4883000   0.47286697   -8.3543375    741.83462  0.012660158  0.011120284            5 
 4884000   0.47819893   -8.3571111    740.89117  0.012641468  0.011116752            4 
 4885000   0.47646634   -8.3259557    741.24662  0.012644944  0.011113222            4 
 4886000   0.47000032   -8.3477325    740.50066  0.012629633   0.01110969            8 
 4887000   0.47425703    -8.347249    740.96153  0.012634908  0.011106161            4 
 4888000   0.47431872   -8.3464268    740.53118  0.012624986  0.011102634            6 
 4889000   0.46594155   -8.3470701    740.13302  0.012615617  0.011099112            3 
 4890000   0.46668528   -8.3606207     741.4265   0.01263508  0.011095592            3 
 4891000   0.47557523   -8.3630645    740.41938  0.012615337  0.011092067            4 
 4892000   0.47410705   -8.3360345    742.01955  0.012640017  0.011088547            5 
 4893000   0.47084166    -8.350405     740.3155  0.012608412  0.011085027            5 
 4894000   0.47405711    -8.345547    740.14622  0.012602953  0.011081508            2 
 4895000   0.46493762   -8.3444747    740.97162   0.01261443  0.011077991            3 
 4896000   0.47020983   -8.3342817    741.20932  0.012615899  0.011074476            6 
 4897000   0.46321516   -8.3465445    741.54778  0.012619083  0.011070964            5 
 4898000   0.46852646    -8.335661    740.69056  0.012601922  0.011067454            6 
 4899000   0.47595858   -8.3669204    740.39544  0.012594329   0.01106394            3 
 4900000   0.45660944   -8.3483835    741.68483  0.012613688   0.01106043            5 
 4901000   0.46740295   -8.3480092    741.13533  0.012601771  0.011056921            5 
 4902000   0.46942757   -8.3557661    740.85304  0.012594401  0.011053413            6 
 4903000   0.47990921    -8.348423    740.68505  0.012588977  0.011049908            5 
 4904000   0.45586671   -8.3439143     740.8901  0.012589894  0.011046405            3 
 4905000   0.46467889   -8.3495559    740.36548  0.012578415  0.011042902            3 
 4906000    0.4597758   -8.3493494    740.64856  0.012580659  0.011039401            4 
 4907000   0.47359474     -8.37016     741.1149  0.012586015    0.0110359            5 
 4908000   0.46798281    -8.363584    741.13295  0.012583757  0.011032404            5 
 4909000   0.45769105   -8.3445344    740.86333  0.012576617  0.011028905            5 
 4910000   0.46437679   -8.3556023    740.22102  0.012563154   0.01102541            7 
 4911000   0.46437864   -8.3317374    740.69116  0.012568573  0.011021915            8 
 4912000   0.47032014   -8.3468778    741.47404  0.012579296  0.011018421            6 
 4913000   0.46419184   -8.3341829    741.42864  0.012575966   0.01101493            4 
 4914000   0.47065155   -8.3597554    740.87888  0.012564083  0.011011441            3 
 4915000   0.46076823   -8.3561063    741.60511   0.01257384  0.011007952            7 
 4916000   0.47293203    -8.354193    741.90369  0.012576344  0.011004464            4 
 4917000   0.47104945   -8.3685321     740.6548   0.01255262  0.011000978           10 
 4918000   0.45924045   -8.3530225    741.57327  0.012565631  0.010997493            5 
 4919000   0.47586004   -8.3607646    740.61197  0.012546791  0.010994011            8 
 4920000   0.46088773   -8.3516216    740.69394  0.012545629  0.010990528            4 
 4921000   0.46311561   -8.3658869    740.26883  0.012535881  0.010987046            6 
 4922000   0.45885558   -8.3474534    741.16164   0.01254845  0.010983565            6 
 4923000   0.46603276   -8.3525541    740.33107  0.012531842  0.010980088            5 
 4924000   0.46421945   -8.3776481    742.32879  0.012563106  0.010976612            5 
 4925000   0.45905637   -8.3466204    741.11761  0.012540061  0.010973134            6 
 4926000   0.46153826   -8.3703777    741.85156  0.012549932   0.01096966            6 
 4927000   0.45952527   -8.3594111    740.41235  0.012523042  0.010966187            5 
 4928000   0.46165821   -8.3473926    741.21942  0.012534149  0.010962718            7 
 4929000    0.4685663   -8.3697828    741.61321  0.012538263  0.010959248            5 
 4930000   0.46566896   -8.3771668    741.01563  0.012525619  0.010955779            6 
 4931000   0.46404342   -8.3729349    740.36822  0.012512138  0.010952309            6 
 4932000   0.46808184   -8.3585958    740.33007  0.012508956  0.010948846            5 
 4933000   0.46753488   -8.3718957    740.54159  0.012509994   0.01094538            5 
 4934000   0.45587154   -8.3763012    740.40704  0.012505186  0.010941916            5 
 4935000   0.45707327   -8.3521978    740.47914  0.012503869  0.010938452            5 
 4936000   0.46166672   -8.3542714    741.00594   0.01251023  0.010934991            6 
 4937000   0.46288629   -8.3476652    740.27362  0.012495335  0.010931532            8 
 4938000   0.45375382   -8.3541405    741.50756  0.012513628  0.010928075            8 
 4939000   0.45666042   -8.3467131    740.17882  0.012488675  0.010924618            7 
 4940000   0.45944652   -8.3693521    740.46514  0.012490977  0.010921165           10 
 4941000   0.45713906   -8.3731557    740.72825  0.012492887  0.010917712            6 
 4942000   0.46125859   -8.3504445    741.91474  0.012510366  0.010914261            6 
 4943000    0.4547905   -8.3717042    740.89599   0.01249066  0.010910813            8 
 4944000   0.44616043   -8.3633592    739.77675  0.012469268  0.010907363            4 
 4945000   0.45920682   -8.3541371    739.75885  0.012466445  0.010903915            4 
 4946000   0.46500584    -8.348346    741.63729  0.012495574  0.010900471            7 
 4947000   0.46213944   -8.3709908    741.52178  0.012491102  0.010897026            4 
 4948000   0.46488085   -8.3620654    740.79622  0.012476358  0.010893582            4 
 4949000    0.4575443   -8.3488289    740.32079  0.012465831  0.010890141            6 
 4950000   0.46872752    -8.366026    741.24655  0.012478898  0.010886699            6 
 4951000   0.45952184    -8.362532    740.82622  0.012469303  0.010883263            4 
 4952000   0.45985987   -8.3590282    740.82137  0.012466703  0.010879828            7 
 4953000   0.46074268   -8.3609204    740.05261  0.012451252  0.010876391           10 
 4954000   0.46129917   -8.3719169    741.53258  0.012473634  0.010872958            6 
 4955000   0.46116328   -8.3621536    741.88511  0.012477045  0.010869526            6 
 4956000   0.45432546    -8.351571    738.99778  0.012425978  0.010866095            9 
 4957000   0.46279617   -8.3647511    741.34339  0.012462904  0.010862666            5 
 4958000   0.45360351   -8.3778333    740.29483  0.012442766  0.010859235            6 
 4959000   0.45664398   -8.3698544     739.8758  0.012433216  0.010855803            7 
 4960000   0.45168786   -8.3557939    742.24923  0.012470585  0.010852377            8 
 4961000   0.45282813   -8.3593599    741.12477  0.012449183  0.010848949            7 
 4962000   0.45889416   -8.3728092    741.43424  0.012451872  0.010845522            4 
 4963000   0.46076159   -8.3713846    740.98353  0.012441795  0.010842098            6 
 4964000   0.44929865   -8.3645221    739.48689  0.012414164  0.010838673            6 
 4965000   0.45998811   -8.3547799    740.15742  0.012422918  0.010835249            5 
 4966000   0.45648576    -8.375131    740.65854  0.012428825   0.01083183            6 
 4967000    0.4600382   -8.3532988    740.10729  0.012417074  0.010828411            6 
 4968000   0.45358068   -8.3750664    740.65826  0.012423817  0.010824993            7 
 4969000   0.47107837   -8.3574653    739.62638  0.012404011  0.010821578           11 
 4970000   0.46466234   -8.3649849    741.10294  0.012426273  0.010818165            7 
 4971000   0.45340076   -8.3510271    740.64683  0.012416127   0.01081475            6 
 4972000   0.45190441   -8.3652898    740.50467  0.012411248  0.010811334            7 
 4973000   0.45192196   -8.3600775    739.61469  0.012393838  0.010807925            5 
 4974000   0.45719357   -8.3672188    739.71162   0.01239297  0.010804516            4 
 4975000   0.45989698   -8.3801124    740.45836  0.012402988  0.010801108            5 
 4976000   0.46632397   -8.3789871    742.23907  0.012430317  0.010797702            6 
 4977000   0.46465787   -8.3705413    741.36464  0.012413178  0.010794298            4 
 4978000   0.45394794   -8.3629486    740.39462  0.012394446  0.010790894            3 
 4979000   0.46051061   -8.3697862    740.29616  0.012390309   0.01078749            4 
 4980000   0.45989871   -8.3688937    739.53467  0.012375078  0.010784089            3 
 4981000   0.45107777   -8.3739821    740.58374  0.012390145  0.010780688            4 
 4982000   0.44570682   -8.3600451     740.5492   0.01238708  0.010777288            6 
 4983000    0.4619253   -8.3745115    740.15117  0.012377938  0.010773887            4 
 4984000   0.44460987   -8.3747168    739.97151   0.01237245  0.010770488            5 
 4985000   0.44881722   -8.3668183    739.36851  0.012359888  0.010767093            8 
 4986000   0.46096212   -8.3836562    741.64644  0.012395481  0.010763699            7 
 4987000   0.45425839   -8.3633304    741.36822  0.012388347  0.010760306            5 
 4988000   0.45456887   -8.3628705    740.98729  0.012379499  0.010756917            5 
 4989000    0.4619191    -8.386338    740.12358  0.012362591  0.010753528            3 
 4990000   0.44413317   -8.3859604    739.68673  0.012352818  0.010750136            7 
 4991000   0.45023299   -8.3681206    739.66333  0.012349952  0.010746748            7 
 4992000   0.45725939   -8.3683009    739.81039  0.012349933  0.010743362           12 
 4993000   0.44540348   -8.3750125    740.13554  0.012352886  0.010739975            4 
 4994000   0.45421907   -8.3774901    740.68053  0.012359507  0.010736591            3 
 4995000   0.46246294   -8.3858693    740.52964  0.012354515  0.010733209            9 
 4996000   0.44818849   -8.3808742    740.54438  0.012352288  0.010729827            8 
 4997000    0.4511122   -8.3893843    740.58794  0.012350543  0.010726446            7 
 4998000   0.45647345   -8.3724202    740.72453  0.012350349  0.010723069           12 
 4999000   0.45922606   -8.3726961    740.90252  0.012350845  0.010719692            8 
 5000000   0.44488655   -8.3719496    740.17944  0.012336324  0.010716317            5 
 5001000   0.46326191    -8.378694    739.91466  0.012329445  0.010712939            4 
 5002000   0.45488435   -8.3701825    740.22129  0.012332089  0.010709565            9 
 5003000   0.44947622    -8.369873    740.64631  0.012336703  0.010706195            9 
 5004000   0.45284543   -8.3784569    739.36824  0.012312954  0.010702822            5 
 5005000   0.44848579   -8.3917076    740.31042  0.012326181   0.01069945            7 
 5006000   0.44361765   -8.3819045    740.54832  0.012327679  0.010696081            8 
 5007000   0.45511172   -8.3764786    740.64352  0.012326801  0.010692716            7 
 5008000   0.45204257   -8.3703769    740.06519  0.012314716  0.010689348            8 
 5009000    0.4484455   -8.3772039    739.77659  0.012307456  0.010685986            4 
 5010000   0.44440097   -8.3742027    740.20467   0.01231212  0.010682624            6 
 5011000    0.4416683   -8.3641902    740.33452  0.012311823  0.010679262            8 
 5012000   0.44918991   -8.3810384    740.44875  0.012311265  0.010675903            6 
Loop time of 11533.6 on 48 procs for 5000000 steps with 4000 atoms

Performance: 74911.613 tau/day, 433.516 timesteps/s
99.4% CPU use with 48 MPI tasks x no OpenMP threads

MPI task timing breakdown:
Section |  min time  |  avg time  |  max time  |%varavg| %total
---------------------------------------------------------------
Pair    | 738.67     | 790.75     | 846.65     | 100.8 |  6.86
Neigh   | 75.647     | 78.685     | 81.464     |  16.5 |  0.68
Comm    | 723.51     | 778.1      | 841.04     | 109.7 |  6.75
Output  | 13.721     | 13.725     | 13.808     |   0.3 |  0.12
Modify  | 9751.2     | 9768.6     | 9792.8     |   8.6 | 84.70
Other   |            | 103.7      |            |       |  0.90

Nlocal:        83.3333 ave          93 max          77 min
Histogram: 3 7 3 11 7 9 6 1 0 1
Nghost:        1976.10 ave        1999 max        1960 min
Histogram: 3 5 8 10 8 6 2 3 0 3
Neighs:        12575.9 ave       13702 max       11363 min
Histogram: 3 4 5 3 7 4 8 6 5 3
FullNghs:      25150.4 ave       28327 max       22881 min
Histogram: 3 3 8 8 11 6 7 0 1 1

Total # of neighbors = 1207217
Ave neighs/atom = 301.80425
Neighbor list builds = 268473
Dangerous builds = 0

#clear
#
#next RN
#
#jump SELF
Total wall time: 3:12:16
