
units lj                  # Use reduced LJ style units
atom_style atomic         # Uncharged point particles
atom_modify map hash      # Needed for indexing of clusters etc
                          # Used to be able to find where atoms are in relation to each other.

lattice fcc 1.0 spacing 1 1 1
Lattice spacing in x,y,z = 1.5874011 1.5874011 1.5874011
region box block 0 10 0 10 0 10 units lattice
create_box 2 box
Created orthogonal box = (0.0000000 0.0000000 0.0000000) to (15.874011 15.874011 15.874011)
  3 by 4 by 4 MPI processor grid
create_atoms 1 box
Created 4000 atoms
  using lattice units in orthogonal box = (0.0000000 0.0000000 0.0000000) to (15.874011 15.874011 15.874011)
  create_atoms CPU = 0.004 seconds
set type 1 type/fraction 2 0.69 78393
Setting atom values ...
  2781 settings made for type/fraction
mass 1 1.0
mass 2 1.0
pair_style lj/cut  3.5
pair_modify tail  yes
pair_coeff 1  1  1.0  1.0   # Intearaction between 1 and 1 set with epsilon = 1 and sigma = 1
pair_coeff 1  2  1.5  0.8
pair_coeff 2  2  0.5  0.88

write_data data.0
System init for write_data ...
Neighbor list info ...
  update every 1 steps, delay 10 steps, check yes
  max neighbors/atom: 2000, page size: 100000
  master list distance cutoff = 3.8
  ghost atom cutoff = 3.8
  binsize = 1.9, bins = 9 9 9
  1 neighbor lists, perpetual/occasional/extra = 1 0 0
  (1) pair lj/cut, perpetual
      attributes: half, newton on
      pair build: half/bin/atomonly/newton
      stencil: half/bin/3d
      bin: standard
WARNING: Not all mixed pair coeffs generated from mixing. Use write_data with 'pair ij' option to store all pair coeffs. (../write_data.cpp:312)


#############################
#   M E L T   S Y S T E M   #
#############################

velocity all create 2.4 9622624 mom yes dist gaussian # Assign velocities
                                                    # Temperature 2.4, random number seed, zero linear momentum
                                                                                # Gaussian distribution

timestep 0.002   # simulation timestep
thermo 1000       # output thermodynamic data every 1000 steps bf 100

# Define a fix  in this case with index 1 applied to all
# particles in the simulation. This fix is for simulations
# in the anisotropic NPT ensemble. Note that we use the MTK
# correction.
fix 1 all npt temp 2.4 2.4 0.1 iso 5.68 5.68 0.5 mtk yes tchain 5 pchain 5 # Use NPT ensemble
                                                                         # Set temperature and pressure and damping
                                                                         # Numbers of thermostats in chain and in barostat
run 10000          # run for 10000 steps
Per MPI rank memory allocation (min/avg/max) = 3.642 | 3.644 | 3.648 Mbytes
Step Temp E_pair E_mol TotEng Press Volume 
       0          2.4    -4.227286            0  -0.62818599   -3.7882121         4000 
    1000    2.3777149   -3.9089674            0  -0.34328671    5.5626146    3637.4075 
    2000    2.4117544   -3.8200292            0  -0.20330206    5.9522754    3658.4569 
    3000    2.4118431   -3.8354668            0  -0.21860666    6.1021666    3624.9127 
    4000    2.4281081     -3.93457            0  -0.29331839    5.4905361    3621.5322 
    5000    2.3693058   -3.8479444            0  -0.29487414    5.6027294    3651.1883 
    6000    2.3866973   -3.8341003            0  -0.25494937    5.7601522    3667.8789 
    7000    2.3955922   -3.8930534            0  -0.30056351    5.6011325    3631.7802 
    8000     2.449089   -3.8245921            0  -0.15187699    5.5679826    3687.8265 
    9000    2.4509114   -3.8314831            0   -0.1560351    5.7387323    3665.7928 
   10000    2.3510908   -3.8892367            0  -0.36348227    5.6804575    3631.5209 
Loop time of 2.58901 on 48 procs for 10000 steps with 4000 atoms

Performance: 667436.875 tau/day, 3862.482 timesteps/s
99.6% CPU use with 48 MPI tasks x no OpenMP threads

MPI task timing breakdown:
Section |  min time  |  avg time  |  max time  |%varavg| %total
---------------------------------------------------------------
Pair    | 1.1983     | 1.2572     | 1.3186     |   2.3 | 48.56
Neigh   | 0.21385    | 0.22199    | 0.23988    |   0.9 |  8.57
Comm    | 0.76809    | 0.85939    | 0.9178     |   3.5 | 33.19
Output  | 0.00024109 | 0.00024808 | 0.00031242 |   0.0 |  0.01
Modify  | 0.21001    | 0.23473    | 0.2621     |   2.6 |  9.07
Other   |            | 0.01548    |            |       |  0.60

Nlocal:        83.3333 ave          99 max          75 min
Histogram: 6 3 12 7 8 7 1 3 0 1
Nghost:        1751.58 ave        1789 max        1702 min
Histogram: 1 2 6 3 5 11 3 7 5 5
Neighs:        10512.6 ave       13119 max        9014 min
Histogram: 4 5 12 7 10 4 3 2 0 1

Total # of neighbors = 504603
Ave neighs/atom = 126.15075
Neighbor list builds = 903
Dangerous builds = 182

# Equilibrate just above the melting temperature to avoid step fn in T

fix 1 all npt temp 1.25 1.25 0.1 iso 5.68 5.68 0.5 mtk yes tchain 5 pchain 5
run 2000
Per MPI rank memory allocation (min/avg/max) = 3.644 | 3.646 | 3.649 Mbytes
Step Temp E_pair E_mol TotEng Press Volume 
   10000    2.3510908   -3.8892367            0  -0.36348227    5.6804575    3631.5209 
   11000    1.2552553   -5.6839249            0   -3.8015126    5.7056265    2788.4043 
   12000    1.2310904   -5.7254249            0    -3.879251    5.8894293    2767.6721 
Loop time of 0.644589 on 48 procs for 2000 steps with 4000 atoms

Performance: 536155.967 tau/day, 3102.754 timesteps/s
99.7% CPU use with 48 MPI tasks x no OpenMP threads

MPI task timing breakdown:
Section |  min time  |  avg time  |  max time  |%varavg| %total
---------------------------------------------------------------
Pair    | 0.2882     | 0.32041    | 0.34233    |   2.0 | 49.71
Neigh   | 0.039811   | 0.042988   | 0.045436   |   0.5 |  6.67
Comm    | 0.20672    | 0.233      | 0.27032    |   2.7 | 36.15
Output  | 5.0761e-05 | 5.2481e-05 | 6.6773e-05 |   0.0 |  0.01
Modify  | 0.040048   | 0.043325   | 0.04594    |   0.9 |  6.72
Other   |            | 0.004811   |            |       |  0.75

Nlocal:        83.3333 ave          90 max          76 min
Histogram: 2 1 4 8 3 12 8 6 1 3
Nghost:        2107.06 ave        2128 max        2087 min
Histogram: 3 4 5 6 2 9 10 6 1 2
Neighs:        13796.1 ave       15213 max       12144 min
Histogram: 1 3 2 6 8 9 9 5 3 2

Total # of neighbors = 662213
Ave neighs/atom = 165.55325
Neighbor list builds = 142
Dangerous builds = 11

#############################
# L I N E A R  Q U E N C H  #
#############################

# Define solid atoms. This closely follows ten Wolde  Ruiz-Montero and Frenkel  Faraday Discuss  1996  104  93-110
# Compute components of the per-atom q6 vector
compute q6 all orientorder/atom degrees 1 6 components 6 nnn NULL cutoff 1.3 # compute the Q6 parameter.
                                                                             # Use all neighbours within 1.3 unit cell.

# get number of connections
compute coord_number all coord/atom orientorder q6 0.5

# An atom is solid if it has 8 or more connections (of a possible 14)
variable is_solid atom c_coord_number>=8
group solid dynamic all var is_solid    # Must be dynamic to update
dynamic group solid defined

# do clustering
compute cluster solid cluster/atom 1.3 # Create a cluster where all atoms within are solid and max 1.3 units from another member

# define chunks one chunk per cluster
compute clus_chunks solid chunk/atom c_cluster nchunk every compress yes  # Says which atoms are in which chunk

# count the size of each chunk
compute size_chunks solid property/chunk clus_chunks count


# Find the maximum entry in the vector of chunk sizes
variable max_n equal max(c_size_chunks)


# Thermo style which includes this variable
# thermo_style custom step temp pe vol v_max_n

thermo ${N}  # Print the thermo information every 100 steps
thermo 1000  

# Reset the npt fix at a lower temperature (below freezing)
fix 1  all npt temp  ${temp} ${temp}  0.1  iso  5.68  5.68  0.5  mtk yes tchain  5  pchain  5
fix 1  all npt temp  0.45 ${temp}  0.1  iso  5.68  5.68  0.5  mtk yes tchain  5  pchain  5
fix 1  all npt temp  0.45 0.45  0.1  iso  5.68  5.68  0.5  mtk yes tchain  5  pchain  5

dump dmp2 all dcd ${N} traj.dcd
dump dmp2 all dcd 1000 traj.dcd


compute msd all msd com yes
variable twopoint equal c_msd[4]/6/(step*dt+1.0e-6)
fix 9 all vector 10 c_msd[4]
variable fit equal slope(f_9)/6/(10*dt)
thermo_style custom step temp pe c_msd[4] v_twopoint v_fit v_max_n

fix 1 all npt temp 1.25 ${temp} 0.1 iso 5.68 5.68 0.5 mtk yes tchain 5 pchain 5
fix 1 all npt temp 1.25 0.45 0.1 iso 5.68 5.68 0.5 mtk yes tchain 5 pchain 5
run 500000 # 5000000  # Run for this many steps
Neighbor list info ...
  update every 1 steps, delay 10 steps, check yes
  max neighbors/atom: 2000, page size: 100000
  master list distance cutoff = 3.8
  ghost atom cutoff = 3.8
  binsize = 1.9, bins = 8 8 8
  4 neighbor lists, perpetual/occasional/extra = 1 3 0
  (1) pair lj/cut, perpetual
      attributes: half, newton on
      pair build: half/bin/atomonly/newton
      stencil: half/bin/3d
      bin: standard
  (2) compute orientorder/atom, occasional
      attributes: full, newton on
      pair build: full/bin/atomonly
      stencil: full/bin/3d
      bin: standard
  (3) compute coord/atom, occasional
      attributes: full, newton on
      pair build: full/bin/atomonly
      stencil: full/bin/3d
      bin: standard
  (4) compute cluster/atom, occasional
      attributes: full, newton on
      pair build: full/bin/atomonly
      stencil: full/bin/3d
      bin: standard
Per MPI rank memory allocation (min/avg/max) = 9.847 | 9.850 | 9.853 Mbytes
Step Temp PotEng c_msd[4] v_twopoint v_fit v_max_n 
   12000    1.2310904   -5.7254249 1.9721523e-34 1.3695501e-36 8.3333333e+20            3 
   13000    1.2434093   -5.6911255   0.60759076 0.0038948124  0.050608379            3 
   14000     1.239984   -5.7123939     1.173783 0.0069868033  0.048988044            6 
   15000    1.2582794   -5.7851867    1.7830895 0.0099060526  0.048943569            3 
   16000    1.2462868   -5.7193839     2.434588  0.012680146  0.049902931            2 
   17000    1.2659504   -5.7711792    3.0338994  0.014872055  0.050546395            2 
   18000    1.2439921   -5.7726404    3.6133758  0.016728591  0.050563581            2 
   19000    1.2443961   -5.7826082    4.2935758  0.018831472  0.050886808            2 
   20000    1.2073874   -5.7924968    4.9263987  0.020526661  0.051235948            4 
   21000    1.2112615   -5.8034266    5.4730671   0.02171852  0.051231892            4 
   22000    1.2305604   -5.8038258    6.0315262   0.02284669  0.051064374            1 
   23000    1.2242577   -5.7815204    6.5434803  0.023708261  0.050568453            3 
   24000    1.2279552   -5.7732978    7.1088093  0.024683365   0.04998404            2 
   25000    1.2212618   -5.7997491    7.7748397  0.025916132  0.049838455            2 
   26000    1.2277131   -5.7603555    8.3515496  0.026767787  0.049731443            3 
   27000    1.2029048   -5.8011335    8.9101349  0.027500416  0.049682432            3 
   28000    1.2258801   -5.8392114    9.3632902  0.027866935  0.049455434            4 
   29000    1.2221276   -5.7975097    9.9951641  0.028721735  0.049190358            1 
   30000    1.2424371   -5.8071325    10.582143  0.029394842   0.04897639            1 
   31000    1.2344121   -5.7982383    11.221088  0.030164215  0.048849881            3 
   32000    1.2125092   -5.8321331    11.704997  0.030481763  0.048779179            1 
   33000    1.1724555   -5.8349498    12.398526  0.031309409  0.048735864            2 
   34000    1.2162458   -5.8498091    12.980151  0.031814096  0.048687235            4 
   35000    1.1912298   -5.8206405    13.474216  0.032081467  0.048645926            2 
   36000    1.2078228   -5.8822288    13.997681  0.032402038  0.048563064            2 
   37000    1.1873666   -5.8558435    14.493734  0.032643545  0.048491897            2 
   38000    1.2238957   -5.8156126    15.057316   0.03302043  0.048367754            1 
   39000    1.2128586   -5.8282839    15.641351  0.033421689  0.048224286            2 
   40000    1.2038614    -5.869425    16.039902  0.033416462  0.048088793            2 
   41000    1.2215703    -5.900598     16.48461  0.033505305  0.047914433            2 
   42000    1.1807745   -5.8588753    16.887932  0.033507801  0.047687171            3 
   43000    1.2001773   -5.8487566    17.402977    0.0337267  0.047429741            2 
   44000     1.184734   -5.8936384    17.797443  0.033707278  0.047123369            4 
   45000    1.2073479   -5.8949649    18.334827  0.033953383  0.046864747            4 
   46000    1.2453368   -5.8822234     18.86167  0.034169691  0.046649294            1 
   47000     1.244101   -5.8405366    19.423646  0.034439089  0.046461331            3 
   48000    1.2168527   -5.8951319    19.861539  0.034481838  0.046285396            4 
   49000    1.2151958   -5.9008521    20.248206  0.034435725  0.046091089            2 
   50000    1.2099862   -5.8732493    20.713265  0.034522109  0.045873534            2 
   51000     1.185257   -5.8896284     21.09711  0.034472402  0.045626449            3 
   52000    1.1823244   -5.8995286    21.682707  0.034747928  0.045399521            3 
   53000    1.1940665   -5.8890015    22.143355  0.034816595  0.045201923            1 
   54000    1.2028018   -5.9011427    22.476819  0.034686449  0.045003756            5 
   55000    1.1690517   -5.8991985    22.809449  0.034559771    0.0447802            2 
   56000    1.1768847   -5.9204538    23.262118  0.034616247  0.044539258            3 
   57000    1.1828742   -5.8516509    23.784101  0.034772077  0.044326908            3 
   58000    1.1616878   -5.8705961     24.31934   0.03494158  0.044109497            3 
   59000     1.193721   -5.8986161    24.698495   0.03488488  0.043902996            4 
   60000    1.1587989   -5.8819076    25.183629  0.034977262  0.043707911            3 
   61000    1.1991285   -5.9214934    25.760558  0.035192018  0.043536586            5 
   62000    1.1665838   -5.9221176    25.895815  0.034806202  0.043362423            3 
   63000    1.1928274   -5.9074946    26.379889  0.034894033  0.043165357            3 
   64000    1.1740758   -5.9166789     26.79876  0.034894219  0.042972828            2 
   65000    1.1507346   -5.8997759    27.388959   0.03511405  0.042802974            2 
   66000    1.1482793    -5.967676    27.609858  0.034860931  0.042637374            2 
   67000    1.1446795   -5.9084591    28.273899  0.035166541  0.042486216            4 
   68000    1.1579527   -5.9347945    28.688101  0.035156986  0.042349121            3 
   69000    1.1479998   -5.9543577     29.02547  0.035054915  0.042208355            4 
   70000    1.1624075    -5.980574    29.611365  0.035251625  0.042075086            4 
   71000    1.1492865   -5.9890714    29.947932  0.035150155  0.041940391            3 
   72000    1.1541955   -5.9834452    30.369396  0.035149764  0.041802431            2 
   73000    1.1326043   -5.9664492     30.80638    0.0351671  0.041678851            3 
   74000    1.1571541   -5.9705225    31.441881  0.035407523  0.041573238            3 
   75000    1.1777303   -5.9910123    31.886364  0.035429294  0.041480771            6 
   76000    1.1386129   -5.9580574    32.522621  0.035660769  0.041394642            4 
   77000     1.149394   -6.0011505    32.929168  0.035637628  0.041318507            2 
   78000    1.1581311   -5.9838751    33.244447  0.035517572  0.041238147            8 
   79000    1.1491712   -5.9971656    33.586829  0.035429144  0.041143475            3 
   80000    1.1611829   -6.0112418    34.076148  0.035495987  0.041050084            4 
   81000    1.1440796   -5.9962205    34.450277  0.035442671  0.040955564            5 
   82000    1.1331778   -5.9772789    35.148599  0.035720121  0.040874645            4 
   83000    1.1320326   -6.0517517    35.449105  0.035591471  0.040803003            3 
   84000    1.1243633   -5.9967786    35.931021  0.035645854  0.040723793            2 
   85000    1.1410412   -6.0290384    36.393057  0.035679467  0.040649558            3 
   86000     1.113134   -5.9961544     36.73702  0.035597887  0.040580676            3 
   87000    1.1330881   -6.0276772     37.11502  0.035550785  0.040502097            3 
   88000    1.1349002   -6.0311959    37.590973  0.035597512  0.040428708            8 
   89000    1.1340826    -6.060869    37.925646  0.035510904  0.040354585            4 
   90000    1.1227969   -6.0454953    38.581148  0.035723285  0.040282038            1 
   91000    1.1430259   -6.0607634    38.928174  0.035648511   0.04021916            5 
   92000    1.1401084     -6.07599    39.290708   0.03558941  0.040150151            4 
   93000    1.1322868   -6.0651863    39.670062   0.03554665  0.040078853           15 
   94000     1.109851   -6.0401071    40.399096  0.035814801  0.040026213            3 
   95000    1.1259444   -6.0276992    40.947358  0.035918735  0.039974848            6 
   96000    1.1180371   -5.9856498    41.550643  0.036068266  0.039936147            2 
   97000    1.1162494   -6.0286155    41.777699  0.035891494  0.039896434            3 
   98000    1.1050292   -6.0751467    42.232541  0.035912024   0.03984693            3 
   99000     1.102999   -6.1225867     42.57786  0.035839949  0.039799622            5 
  100000     1.130763   -6.0614034    42.938877  0.035782398  0.039748568            5 
  101000    1.1305624   -6.0525374    43.332676  0.035753033  0.039687795            6 
  102000    1.0916475    -6.081263    43.512863  0.035549724  0.039624212            3 
  103000    1.1063192   -6.0774381    43.882514  0.035503652  0.039552902            3 
  104000    1.1003848   -6.1063768    44.112411  0.035346483  0.039477179            5 
  105000     1.082337   -6.0992184    44.412354    0.0352479  0.039392375            4 
  106000    1.0825447   -6.0584858    45.038971  0.035407996  0.039311119            4 
  107000    1.1075584   -6.0701841    45.349445  0.035318883  0.039235199            6 
  108000    1.0656688   -6.0804568    45.845196  0.035374379  0.039163766            4 
  109000    1.0729345   -6.0986767    46.193973  0.035316493  0.039092787            3 
  110000    1.1048216   -6.1112221    46.588826  0.035294565  0.039019158            2 
  111000    1.0843743   -6.1314749    47.181152  0.035421285  0.038958686            3 
  112000    1.0965436   -6.0770007    47.694313   0.03548684  0.038897128            7 
  113000    1.0679654   -6.0933303    47.779238  0.035235426  0.038831983            6 
  114000     1.111299   -6.1214508     48.34631  0.035340869  0.038762737            3 
  115000    1.0792249   -6.1296276    48.614921  0.035228203  0.038688301            3 
  116000    1.0752631    -6.120627    48.765451  0.035032651  0.038608723            1 
  117000    1.0663649   -6.1254702    49.069258  0.034949614  0.038528972            3 
  118000    1.0680581   -6.0858008    49.389785  0.034879792  0.038447684            4 
  119000    1.0630644   -6.1682928    49.522919  0.034679915  0.038362423            2 
  120000    1.0804736   -6.1685678    49.735888  0.034538811  0.038268478            3 
  121000    1.0621866   -6.1340243    50.235656  0.034597559  0.038173028            3 
  122000    1.0539539   -6.1539476     50.61438  0.034572664  0.038076591            2 
  123000    1.0660937   -6.1930323    50.834667  0.034440831   0.03798315            4 
  124000    1.0679996   -6.1359628    51.411769   0.03455092  0.037895278            7 
  125000    1.0456354   -6.1366318    51.962403  0.034641602  0.037815084            5 
  126000    1.0588332   -6.1516157    52.089043  0.034450425   0.03773433            4 
  127000    1.0843774   -6.1602403    52.403813  0.034385704  0.037652565            3 
  128000    1.0474492   -6.1816262    52.662452  0.034285451   0.03756983            3 
  129000    1.0794004   -6.1650532    52.994855  0.034234402  0.037482329            3 
  130000    1.0865359   -6.1711153    53.289326  0.034159824  0.037393389            4 
  131000    1.0702597   -6.1549125    53.554765  0.034067916  0.037301479            3 
  132000     1.081253   -6.1892706    53.729831  0.033920347  0.037207751            3 
  133000    1.0454962   -6.1865009    53.923009  0.033786346  0.037111767            3 
  134000    1.0524252   -6.2494117    54.265026  0.033746907  0.037015626            5 
  135000    1.0375526   -6.2207632    54.814094  0.033835861  0.036920813            2 
  136000    1.0484545   -6.1929674      55.0549   0.03373462  0.036827597            3 
  137000    1.0633244   -6.2096697    55.132835  0.033535787  0.036733208            2 
  138000    1.0444805   -6.2260632    55.398615   0.03345327  0.036637417            4 
  139000    1.0671672   -6.2043532    55.942352   0.03353858  0.036547298            2 
  140000    1.0362919   -6.2273034    56.196038  0.033450022  0.036455372            2 
  141000    1.0393947   -6.2600958     56.27257   0.03325802  0.036358559            5 
  142000    1.0101801   -6.1963238    56.864242  0.033371034  0.036261238           11 
  143000    1.0172083   -6.1751269    57.000148  0.033216869  0.036167776            5 
  144000    1.0411572   -6.2589993     57.17257  0.033085978  0.036070447            4 
  145000    1.0567328    -6.229203    57.524171  0.033059869  0.035972414            3 
  146000    1.0593041   -6.2169871    58.020781  0.033116884  0.035877963            2 
  147000     1.036052   -6.2501031    58.249704  0.033021374  0.035789846            2 
  148000    1.0156549   -6.2740467    58.474331  0.032924736  0.035699903            3 
  149000    1.0316122   -6.2736971    58.662827  0.032809187  0.035611214            4 
  150000    1.0294217   -6.2461962    59.342736  0.032968187  0.035523728            3 
  151000    1.0152286   -6.2486403    59.881936  0.033047426  0.035441056            2 
  152000    1.0088333   -6.2615094    60.087277  0.032942586  0.035360714            8 
  153000    1.0298181   -6.2892441    60.329903  0.032859424  0.035278297            3 
  154000    1.0101589   -6.2991929    60.724298  0.032859468  0.035197869            2 
  155000    1.0193965    -6.226186    61.204458  0.032905622  0.035118335            3 
  156000    1.0041767   -6.2889874    61.132763   0.03265639  0.035037884            6 
  157000    1.0370129    -6.278572    61.601117  0.032696984  0.034958003            6 
  158000    1.0073154   -6.3229463    61.761096  0.032574418   0.03487767            3 
  159000    1.0131737   -6.3233161     61.98225  0.032485456  0.034793899            5 
  160000    1.0238995   -6.2869089    62.382508  0.032490889  0.034711748            3 
  161000     1.013788   -6.2401576    62.712447  0.032459859  0.034630436            3 
  162000    1.0263208   -6.3126376    62.856698  0.032333692  0.034549477            7 
  163000   0.98231356   -6.2918059    63.270122  0.032346688  0.034468754            2 
  164000   0.99537561   -6.3643165    63.431966   0.03223169  0.034387361            3 
  165000   0.99365178    -6.290316    63.674705  0.032158942  0.034306156            3 
  166000    1.0072211   -6.3148561     63.72571  0.031990818  0.034222339            5 
  167000   0.99038688   -6.2810264    64.146479  0.032009221  0.034138017            2 
  168000     1.005132   -6.2933023    64.173433   0.03183206  0.034054553            4 
  169000   0.97541168   -6.3429909    64.326009  0.031718939  0.033968436            7 
  170000   0.99427414   -6.3655106     64.71054  0.031720853  0.033882337            4 
  171000   0.97474415   -6.3600281    64.924417  0.031639579  0.033795493            2 
  172000   0.99785715   -6.3439102    65.164213  0.031571809  0.033709033           13 
  173000    1.0211929   -6.3780018     65.47773  0.031540332  0.033624821            3 
  174000   0.99026291   -6.3285159    65.870468  0.031547159  0.033541944            3 
  175000   0.98657894   -6.3315829    66.230778  0.031538466  0.033461687            5 
  176000   0.97678889   -6.3451057    66.539525  0.031505457  0.033380611            1 
  177000   0.96402545    -6.353927    66.640077  0.031374801  0.033300212            8 
  178000   0.99162588   -6.3598978    66.872458   0.03130733  0.033219885            3 
  179000   0.97654019   -6.3690563    67.229864  0.031298819  0.033139866            5 
  180000   0.99187506   -6.3727337    67.508987   0.03125416   0.03306101           10 
  181000    0.9568849   -6.3412769    67.901576  0.031262236  0.032982663            5 
  182000   0.99387116   -6.3691364    67.874848  0.031078227  0.032904489            6 
  183000   0.99181767   -6.4316803    67.826585  0.030886423  0.032823799            3 
  184000   0.96888809   -6.4079068    67.999857  0.030797037   0.03274186            4 
  185000   0.98743956   -6.4100908      68.3947  0.030808423  0.032660515           11 
  186000   0.98633986   -6.3902052    68.627068  0.030746894  0.032579062            4 
  187000   0.97581714   -6.3858726    68.931038  0.030717931   0.03249437            3 
  188000   0.95402907   -6.4166616    68.877016  0.030530592   0.03241097            5 
  189000   0.95040178   -6.4086253    69.211568  0.030516564  0.032325743            4 
  190000   0.96839799   -6.4098455     69.47741  0.030472548  0.032241698            8 
  191000   0.95690004   -6.3982747    69.711112   0.03041497  0.032157364            6 
  192000     0.968287   -6.4069615    69.636277  0.030224078  0.032073744            9 
  193000   0.98039013   -6.4478931    69.647054   0.03007213  0.031988287            2 
  194000   0.95390931   -6.4730982    70.080575   0.03010334  0.031901746            7 
  195000   0.96918777   -6.4382086    70.461395  0.030111707  0.031818626            4 
  196000   0.97082841   -6.4186543    70.541026  0.029991933  0.031736013            3 
  197000   0.95732116   -6.4846984    70.830765  0.029962252  0.031651726            6 
  198000   0.97610352   -6.4152464    71.261787  0.029992334  0.031568194            3 
  199000   0.94561679   -6.4792601    71.143985  0.029792288  0.031485733            4 
  200000   0.96928163    -6.466247    71.277448  0.029698937  0.031402832            5 
  201000   0.92372463   -6.4562439    71.632454  0.029698364  0.031318995            3 
  202000   0.95949609   -6.4873233    71.713772   0.02958489  0.031235594            6 
  203000    0.9611199   -6.4770298    71.774604  0.029464123  0.031149708            7 
  204000    0.9379354   -6.4389399    72.157128  0.029475951  0.031063506            3 
  205000   0.93662511   -6.4633302    72.657511  0.029535573  0.030979458            6 
  206000   0.92948831   -6.4561759    72.660412   0.02939337  0.030899001            3 
  207000   0.94417455   -6.4940674      73.0382  0.029403462  0.030817924            3 
  208000   0.91285088    -6.489422    73.124269  0.029296582  0.030737956            7 
  209000   0.93764414   -6.5131977    73.366837  0.029253125  0.030656326            3 
  210000   0.95222516   -6.4793504    73.444449  0.029144623  0.030574935            3 
  211000   0.93398959   -6.5254085    73.561907  0.029052886  0.030492986            5 
  212000   0.92962269   -6.5305983    73.776653  0.029000257  0.030411236            5 
  213000   0.92480114   -6.5185245    73.902839  0.028913474  0.030329981            3 
  214000   0.92129277   -6.4848605    74.160743  0.028878794  0.030249307            9 
  215000   0.93796625   -6.5384799    74.117214  0.028727602  0.030168239            7 
  216000   0.91752921   -6.5438446    74.277781  0.028656551  0.030086749            5 
  217000   0.93024307    -6.518719    74.460903  0.028594817  0.030003732            8 
  218000   0.91985903   -6.5068694    74.543375  0.028495174   0.02992101            5 
  219000   0.92666557   -6.5479007    74.472584  0.028338122  0.029837415            3 
  220000   0.92096628   -6.5218525    74.741852  0.028311307   0.02975422            9 
  221000    0.9123985   -6.5504388    74.897241  0.028241795  0.029670386            4 
  222000   0.94908907    -6.534545    75.012358  0.028157792  0.029586298            3 
  223000   0.91030448   -6.5835841    75.144453  0.028080887  0.029502553            5 
  224000   0.90414603   -6.5512224    75.374806  0.028041222  0.029418934            2 
  225000    0.9042529   -6.5786596    75.494585  0.027960957  0.029335817            6 
  226000   0.92808314   -6.5597024    75.660153  0.027898287  0.029252783            3 
  227000   0.89105768    -6.536843    75.586987  0.027748527  0.029168222            7 
  228000   0.89257456   -6.6066366    75.630044   0.02764256  0.029083252            4 
  229000   0.90392084    -6.585109     75.98615  0.027651437  0.028998085            5 
  230000   0.90834918   -6.6412743    75.764424  0.027450878  0.028912679            7 
  231000   0.89401017   -6.5860469    75.902535  0.027381867  0.028826371            8 
  232000   0.90973048   -6.5779238    76.484239  0.027472787  0.028741087            4 
  233000    0.9125242   -6.5835261    76.381289  0.027318058  0.028656524            2 
  234000   0.89363657   -6.6018791    76.601409  0.027279704  0.028571597            4 
  235000   0.90957084   -6.6273571     76.73952  0.027212596  0.028486799            4 
  236000   0.89807945   -6.6141989    76.865036  0.027141609   0.02840284            6 
  237000   0.87312887   -6.6000067    76.982511  0.027068394  0.028319212            4 
  238000   0.89333537   -6.5885225    77.323619  0.027074096  0.028236924            5 
  239000   0.86380887   -6.6164344    77.791306  0.027123886  0.028157906            3 
  240000    0.8942909   -6.5751087     77.85497  0.027032976  0.028079023            6 
  241000     0.884643   -6.6306621    77.679535  0.026860143   0.02799914           14 
  242000   0.86272238   -6.6458015    77.667518  0.026745013  0.027917628            4 
  243000   0.87412391   -6.6216218    78.053934  0.026767467  0.027836656           14 
  244000   0.88211605   -6.6143744    78.059307  0.026659599   0.02775657           15 
  245000   0.88394629    -6.634873    78.300483  0.026632817  0.027676418           12 
  246000     0.886252   -6.6624922    78.339439   0.02653775  0.027595684            6 
  247000   0.87434018   -6.6987685    78.329599   0.02642699  0.027514502            5 
  248000   0.87697629   -6.6592516    78.388607  0.026340258  0.027434087            6 
  249000   0.87401289   -6.6781544    78.432965  0.026249319  0.027354042           16 
  250000   0.87037505   -6.6582925    78.705398  0.026235133  0.027273853           14 
  251000   0.87915067   -6.6876964    78.946652  0.026210708  0.027193366            6 
  252000   0.87660025   -6.6781625    78.981932  0.026118364  0.027113614           15 
  253000   0.88484064   -6.7001956    79.369652  0.026142837  0.027035259            5 
  254000   0.87534767   -6.6702196     79.34869  0.026033035  0.026957123            8 
  255000   0.83878945   -6.6849658     79.50505  0.025982042  0.026878476            8 
  256000   0.84416408   -6.6748144    79.682184  0.025938211  0.026799945            6 
  257000   0.87773097   -6.6919589    79.730188   0.02585285  0.026721412           13 
  258000   0.85945048   -6.6883745    79.924065  0.025815266  0.026643545            6 
  259000    0.8696346   -6.6511505    79.938679  0.025720296  0.026566256            6 
  260000    0.8678708   -6.7128303    80.061416   0.02566071  0.026489449            7 
  261000   0.83299224   -6.7391485    80.179534  0.025600107  0.026412652            6 
  262000    0.8604844   -6.7134143    80.705917  0.025669821  0.026336781            4 
  263000   0.84944975   -6.7221515    80.365771  0.025464439  0.026259998            9 
  264000   0.85144137   -6.7528036    80.645379  0.025456243  0.026183156            9 
  265000   0.83721056   -6.7616847      80.4984  0.025313962  0.026105513           11 
  266000   0.84240192   -6.7118115    80.727351  0.025290523   0.02602862            7 
  267000   0.85873778   -6.7493645    80.549783  0.025140382  0.025951655            5 
  268000   0.83049745   -6.7239692    80.916455  0.025160589  0.025874215            8 
  269000   0.83102771   -6.7414897    80.883664  0.025056897  0.025797723            9 
  270000   0.82597606   -6.7550482    80.841109   0.02495096  0.025721001            6 
  271000   0.84752085   -6.7639597    80.680788   0.02480959  0.025643989            8 
  272000   0.83859413   -6.7425513    81.218529  0.024883128  0.025566991           15 
  273000   0.79487905   -6.7583855    81.361919  0.024835751  0.025490451           11 
  274000   0.81383719   -6.7626383    81.117233  0.024670691  0.025413616            4 
  275000   0.82820882   -6.7697745    81.306794  0.024638422  0.025337131            4 
  276000    0.8002881   -6.7787748    81.572679  0.024629432  0.025260677            7 
  277000    0.8290978   -6.7847177    81.539227  0.024530453  0.025183808            7 
  278000   0.82808486   -6.7801083     81.52302  0.024437356  0.025107602            6 
  279000   0.81907469   -6.7725395    81.842503  0.024445192  0.025031515            9 
  280000   0.82553992   -6.7910643    81.640827  0.024297865  0.024954986           12 
  281000   0.81033225    -6.843553    81.503114  0.024170556  0.024878337            4 
  282000    0.8238633   -6.8227686     81.96189  0.024220417  0.024802688            7 
  283000   0.81951664    -6.818584    81.719257  0.024063385  0.024727177           17 
  284000   0.81607529   -6.8264252    81.816211  0.024007104  0.024651441           11 
  285000   0.80613737   -6.8270619    81.847567  0.023932037  0.024576003           16 
  286000   0.79315946   -6.8343807    82.005592  0.023894403  0.024501195           28 
  287000    0.7926417   -6.7895374    82.502703  0.023955489  0.024426589            8 
  288000   0.79862374   -6.8115174    82.478681  0.023865359  0.024353027            7 
  289000   0.81270916   -6.8262819    82.348011  0.023745101  0.024279311            4 
  290000   0.81614622   -6.8477911     82.45548  0.023694103  0.024205401            6 
  291000   0.79725274   -6.8430875    82.683507   0.02367798  0.024131878            8 
  292000   0.79642344   -6.8453572    82.648233  0.023586825  0.024057826           10 
  293000   0.79380467   -6.8557073     82.45919  0.023452557  0.023983651            8 
  294000   0.81861353   -6.8699289    82.780819  0.023463951  0.023910286            6 
  295000   0.79004766    -6.842756    82.750381  0.023375814  0.023836918           14 
  296000   0.81240611   -6.8688436    82.752439  0.023297421  0.023764169            7 
  297000   0.79076901   -6.8785188    82.905474  0.023261918  0.023691541           14 
  298000   0.79237168   -6.9021378    83.119693  0.023243762  0.023618599           12 
  299000   0.79544954   -6.8970233    82.999452  0.023132512   0.02354577            6 
  300000   0.79659836   -6.8780368    83.095091   0.02308197  0.023473062           12 
  301000   0.77641901   -6.9066346    83.277031  0.023055656  0.023400866           17 
  302000   0.79122668   -6.8977783    83.385755  0.023009314  0.023328912            8 
  303000   0.77728245   -6.8913346    83.451398  0.022951429  0.023257715           12 
  304000   0.78877827   -6.8880177    83.481701  0.022884238  0.023187026            8 
  305000   0.76590555   -6.8969343    83.559298  0.022830409  0.023115761            7 
  306000   0.76720475   -6.8873619     83.75201  0.022808282  0.023045671           21 
  307000   0.78207437   -6.9315145    83.527774   0.02267312  0.022975354           10 
  308000     0.765417   -6.9399945    83.575783  0.022612495  0.022904712           10 
  309000   0.77945201   -6.9262612    83.786622  0.022596176  0.022834013           10 
  310000   0.75928328   -6.9342309    83.672017  0.022492478  0.022763231           13 
  311000   0.78313898   -6.9379397      83.6432  0.022412433  0.022692354           13 
  312000   0.78093373   -6.9738259    83.606086  0.022330685  0.022621286           14 
  313000   0.78338588    -6.922742    83.854607  0.022325508  0.022550563            9 
  314000   0.77586365    -6.983816    83.561801  0.022176699  0.022479639            8 
  315000   0.77116559   -6.9786254    83.768939  0.022161095  0.022408525           15 
  316000   0.74886468   -6.9458994    83.932722  0.022134157  0.022337732            9 
  317000   0.76149689   -6.9484901    83.970878  0.022074363  0.022267724           21 
  318000   0.76287717   -6.9321811    84.026581  0.022019544  0.022197472           19 
  319000   0.75273018   -6.9943945    83.713694  0.021868781  0.022127032            8 
  320000   0.76569499   -7.0013923    83.823747  0.021829101  0.022056319           14 
  321000    0.7469431   -6.9657413    84.179394  0.021853425  0.021986806           21 
  322000    0.7494642   -6.9996352    83.997883  0.021738583  0.021917626           41 
  323000    0.7633616   -6.9923839    83.922749  0.021651896   0.02184843            6 
  324000   0.74562014   -7.0072977    84.149951  0.021643506  0.021779571           12 
  325000   0.74307208   -6.9975815    84.035996  0.021547691  0.021710344           15 
  326000   0.74934939   -6.9901961    84.179528  0.021518284  0.021641328           25 
  327000    0.7393462    -6.984502    84.370303  0.021501097  0.021572384           19 
  328000   0.74740042   -7.0213716    84.069862  0.021359213  0.021503501           13 
  329000   0.74473265    -6.987436    84.506857  0.021404979  0.021434813           12 
  330000   0.75677984   -7.0341019    84.233659  0.021271126  0.021366966           12 
  331000     0.750187   -7.0186444      84.4915  0.021271778  0.021298979            8 
  332000   0.73839973   -7.0361323     84.36758  0.021176601  0.021231565           16 
  333000   0.72330062   -7.0347726    84.209219  0.021073378  0.021163711           15 
  334000   0.72636888   -7.0248702    84.731418  0.021140573  0.021096199           26 
  335000   0.73107559   -7.0448992    84.533861  0.021028324  0.021029312           24 
  336000   0.71655488       -7.049    84.477508  0.020951763  0.020962102           11 
  337000   0.72815847    -7.054803    84.455657  0.020884188  0.020894585           22 
  338000   0.73751387   -7.0388355    84.068486  0.020726944  0.020827025           17 
  339000    0.7180714   -7.0658431    84.123062  0.020679219  0.020759447           21 
  340000    0.7308241    -7.063108    84.506188  0.020712301  0.020692132           43 
  341000   0.71608287   -7.0767918    84.399521  0.020625494  0.020624976           25 
  342000   0.71725308   -7.0814205     84.22584  0.020522865   0.02055788           10 
  343000   0.71615979   -7.0825979    84.474658  0.020523483  0.020490724           13 
  344000   0.72399221   -7.0872858    84.552076  0.020482577  0.020424316           12 
  345000   0.73105419   -7.0971685    84.617819  0.020439087   0.02035783           19 
  346000   0.72316371    -7.086789    84.468111  0.020343957  0.020291536           18 
  347000   0.70967141   -7.0982316     84.63895  0.020326357  0.020225262           16 
  348000   0.71201116   -7.0693271    84.670296  0.020275454  0.020159733           14 
  349000   0.69863381   -7.1139376    84.349942  0.020140865  0.020093995           29 
  350000   0.69381656   -7.1335907    84.587293  0.020139832  0.020028638           29 
  351000    0.7139551   -7.1450802    84.382173  0.020033754  0.019963098           29 
  352000   0.71288287    -7.151075    84.772665  0.020069286  0.019898119           27 
  353000        0.712   -7.1397774    84.539344  0.019957352  0.019833215           17 
  354000   0.70263037   -7.1681928     84.68572  0.019935433  0.019768423           16 
  355000   0.69898325   -7.1683768    84.496672    0.0198349  0.019703453           29 
  356000   0.69793537   -7.1616587    84.523589  0.019785484  0.019638679           23 
  357000    0.7056168   -7.1440049    84.700424  0.019771341  0.019574243           24 
  358000   0.70119298   -7.1465663    84.605269  0.019693964  0.019510024           39 
  359000   0.69530246   -7.1457978    84.451888  0.019603502  0.019446271           26 
  360000    0.7030993   -7.1646079    84.814652  0.019633021  0.019382722           19 
  361000   0.69791383   -7.1532468    84.846403  0.019585966  0.019319408           38 
  362000   0.68532646   -7.1652523    84.818615  0.019525464  0.019256162           32 
  363000   0.69177578   -7.1784123    84.837107   0.01947592  0.019192937           36 
  364000   0.69254058   -7.1688822    84.811359   0.01941652  0.019130204           40 
  365000   0.68456813   -7.1680107    84.765304  0.019352809   0.01906734           33 
  366000   0.67297067   -7.1675906    84.785602  0.019304554  0.019004796           23 
  367000   0.67424746   -7.2098632    84.625624  0.019215628  0.018941856           18 
  368000   0.66817612   -7.2211749    84.699082  0.019180046  0.018879401           16 
  369000   0.68040154   -7.1986695    84.939924  0.019182458  0.018817487           25 
  370000   0.67050186    -7.208549    84.811177  0.019101616  0.018756174           19 
  371000   0.66916737   -7.1912264    84.810867   0.01905006   0.01869494           29 
  372000   0.67698479   -7.2384358    84.828336  0.019002763  0.018633849           33 
  373000   0.66816371   -7.2032789    84.977319  0.018985102  0.018573176           18 
  374000    0.6794854   -7.2261036    85.096126  0.018960812  0.018512691           53 
  375000   0.66363999   -7.2337422    85.111636  0.018913697  0.018452251           31 
  376000   0.65943328   -7.2423687    84.976065  0.018833348  0.018391705           28 
  377000   0.66644901   -7.2192938     84.92118   0.01877126  0.018331335           30 
  378000   0.68401664   -7.2192091    84.881683  0.018712893  0.018270868           91 
  379000   0.65260804   -7.2588416    84.776614  0.018640416  0.018210577           63 
  380000   0.65427385   -7.2465587    84.826012  0.018602195  0.018150386           58 
  381000   0.65058353   -7.2783027    84.844573  0.018557431  0.018090195           41 
  382000   0.65245654   -7.2969015    84.701854  0.018477717   0.01803016           52 
  383000   0.64514828   -7.2858886    84.622966  0.018412308  0.017969891           61 
  384000   0.66001353   -7.2989513    84.832915  0.018409921   0.01790984           66 
  385000   0.64847281   -7.3005303    84.686515  0.018330414  0.017849927           38 
  386000   0.65554134   -7.3189276    84.603775  0.018265064  0.017790095           35 
  387000   0.63117468    -7.287141    84.809892  0.018262251  0.017730458           62 
  388000   0.64812165   -7.3067003    84.556808  0.018160826  0.017671306           45 
  389000   0.64490381   -7.2916319    84.788081  0.018163685  0.017612549           63 
  390000   0.63275541   -7.3261928    84.527636  0.018061461  0.017553932           91 
  391000   0.63386472   -7.2935912    84.989312  0.018113664  0.017495495           99 
  392000   0.64692688   -7.3253663    84.704979  0.018007011  0.017437232           53 
  393000   0.64059229   -7.3241687    84.578789  0.017934434   0.01737912          162 
  394000    0.6484516   -7.3320137    84.774362  0.017930279  0.017321237           79 
  395000   0.64240435   -7.3341797    84.598941  0.017847878  0.017263575           62 
  396000   0.63285239   -7.3295942    84.735365  0.017831516  0.017206058           73 
  397000   0.64643618   -7.3250669    84.737305  0.017787008   0.01714883           96 
  398000   0.62948263   -7.3227991    84.884145  0.017773062  0.017091958          154 
  399000   0.64279855   -7.3381488    84.610957  0.017671461  0.017035303           70 
  400000   0.62170548   -7.3379283    84.760289  0.017658393  0.016978683           77 
  401000   0.62930956   -7.3414159     84.59466  0.017579938  0.016922344          107 
  402000   0.63009991   -7.3512036    84.768154  0.017572171  0.016866167          143 
  403000   0.61831412   -7.3473643    84.780427  0.017531106   0.01681025          143 
  404000   0.62660019   -7.3570323    84.706759  0.017472516  0.016754076           65 
  405000   0.63428617    -7.358129    84.599566  0.017407318  0.016698216          144 
  406000   0.61616609   -7.3622905    84.659801  0.017376806  0.016642602          155 
  407000   0.61296967   -7.3812617    84.530295  0.017307595  0.016586982           96 
  408000   0.61136454   -7.3773633    84.708889  0.017301652  0.016531666           63 
  409000   0.60923041   -7.3957129    84.684907  0.017254463  0.016476535           64 
  410000   0.61332959   -7.3773783    84.535812  0.017182076  0.016421568           78 
  411000   0.61474067      -7.4111    84.670439  0.017167567  0.016366841          135 
  412000   0.60841414   -7.4026006    84.718204  0.017135559  0.016312349          107 
  413000   0.61069715   -7.3963341    84.510718  0.017052203  0.016257791          168 
  414000   0.60710453   -7.4220143    84.454676  0.016999733  0.016203478          270 
  415000    0.6012663   -7.4200409    84.498181  0.016967506  0.016149433          201 
  416000   0.61659271   -7.4022717    84.657114  0.016958557  0.016095759          207 
  417000   0.59973245    -7.418366    84.455817  0.016877661  0.016042126           94 
  418000   0.61158593   -7.3994697    84.707186  0.016887397  0.015988702          142 
  419000   0.60676945   -7.4194745    84.479816  0.016801873   0.01593535           91 
  420000   0.60854812   -7.4173116    84.398542  0.016745743  0.015882154           51 
  421000   0.59547599   -7.4223152    84.371091  0.016700533   0.01582911          165 
  422000   0.59520152   -7.4213492    84.688933  0.016723723  0.015776413          166 
  423000   0.59927147    -7.455662    84.539306   0.01665471  0.015723844          192 
  424000   0.58349036   -7.4446622    84.392235  0.016586524  0.015671506           58 
  425000    0.5785827   -7.4293966    84.453617  0.016559533  0.015619198           97 
  426000   0.58163718   -7.4328062    84.509444  0.016531581  0.015567149           53 
  427000   0.58638518   -7.4472103    84.541179  0.016499059  0.015515208           62 
  428000   0.58223033   -7.4478927    84.474143  0.016447458   0.01546367           97 
  429000   0.60405502   -7.4424666     84.74188  0.016461127  0.015412253          157 
  430000   0.58004879     -7.44418    84.427091  0.016361839  0.015361027          104 
  431000   0.58467464    -7.479574    84.318801  0.016302939  0.015309836           95 
  432000   0.58217009     -7.46782    84.266516  0.016255115  0.015258797          127 
  433000   0.56920022   -7.4802804    84.330185  0.016229828   0.01520782           74 
  434000   0.58715676   -7.4810196    84.365507  0.016199214  0.015157065           74 
  435000   0.56594331   -7.4862074    84.074348  0.016106197  0.015106436           84 
  436000   0.57497927   -7.4835188    84.320271   0.01611626  0.015055959          187 
  437000   0.57073571   -7.4942421    84.330564  0.016081343  0.015005646           95 
  438000   0.57246955    -7.501904    84.251952  0.016029671  0.014955593          120 
  439000   0.55887121   -7.4942242     84.20332  0.015983926  0.014905488          162 
  440000   0.56052038   -7.5102174    83.978844  0.015905084  0.014855645          167 
  441000   0.57100164   -7.5085733    84.175599  0.015906198  0.014805959          210 
  442000   0.56663017   -7.4809761    84.284324   0.01589071  0.014756367          153 
  443000   0.57022231   -7.4952169     84.18005  0.015835224  0.014707174          332 
  444000    0.5438176   -7.4909926    84.294921  0.015821119  0.014657977          124 
  445000   0.55150315   -7.4797194    84.141726  0.015756878  0.014609091           80 
  446000   0.55884627   -7.5088968     83.97716    0.0156908  0.014560301          190 
  447000   0.54845905   -7.5165802    84.044462  0.015668244  0.014511595          181 
  448000   0.55584793   -7.5334539    84.097937  0.015643217  0.014463061          218 
  449000   0.55981267   -7.5184348    84.089961  0.015606897  0.014414711           73 
  450000   0.54150241   -7.5065595    83.977915  0.015551466  0.014366509          195 
  451000   0.54439508   -7.5229563    84.084579  0.015536692  0.014318497          188 
  452000   0.55378029   -7.5382202    84.141065  0.015512733  0.014270753          138 
  453000   0.54456198   -7.5189571    83.916348   0.01543715  0.014223029           71 
  454000    0.5316783   -7.5513986    83.783441  0.015378752  0.014175398          112 
  455000   0.54373238   -7.5307953    83.998048  0.015384258  0.014127889          161 
  456000   0.52792696   -7.5551568    84.008304  0.015352395  0.014080654          204 
  457000     0.533611   -7.5406654    83.831546  0.015286569  0.014033628           65 
  458000   0.54162516    -7.533818    84.241269  0.015327742  0.013986829          213 
  459000   0.52707071    -7.546672    84.087858  0.015266496  0.013940236          204 
  460000    0.5215921   -7.5367084    84.097295  0.015235017  0.013893882          203 
  461000   0.53575692      -7.5514    83.862022   0.01515944  0.013847654          164 
  462000   0.52487233   -7.5654385    83.879385  0.015129759  0.013801621           90 
  463000    0.5297519   -7.5502284    83.991447  0.015117251  0.013755805          276 
  464000   0.52106634   -7.5732408       83.869   0.01506268    0.0137102          242 
  465000   0.52203896   -7.5499174    83.992173  0.015052361  0.013664714          128 
  466000   0.53285828   -7.5658727    83.852605  0.014995101   0.01361941          130 
  467000   0.51948514   -7.5684705    84.013305  0.014991668  0.013574301          208 
  468000   0.51988785   -7.5659696    84.007481  0.014958597  0.013529387          228 
  469000   0.52734401   -7.5480471    83.985172  0.014922738  0.013484784          228 
  470000   0.52853566   -7.5816173    83.947582  0.014884323  0.013440193          160 
  471000   0.50795252   -7.5772549    83.829647  0.014831856  0.013395801          176 
  472000    0.5164655   -7.5856839    83.836204   0.01480159  0.013351609          123 
  473000    0.4997249   -7.5961874    83.953184  0.014790906   0.01330751          142 
  474000   0.49557912   -7.5993366    83.729723  0.014720415  0.013263571          104 
  475000    0.5087927   -7.5954111    83.946455  0.014727448  0.013219758           46 
  476000   0.49938681   -7.5940439    83.751506  0.014662379  0.013176193          126 
  477000   0.49293589   -7.6019401    83.642529  0.014612601  0.013132689           86 
  478000   0.52227558   -7.6095334    83.640197  0.014581624  0.013089488          222 
  479000    0.5033283   -7.6095137    83.690263  0.014559893  0.013046348          183 
  480000   0.50026998    -7.622708    83.676619  0.014527191   0.01300344          191 
  481000   0.50765378   -7.6213416    83.710034  0.014502778  0.012960633          128 
  482000   0.50260831   -7.6130758    83.821392  0.014491942  0.012918069          174 
  483000   0.49943432   -7.6100729     83.76027  0.014451392  0.012875666          108 
  484000   0.49411486   -7.6054074     83.72198  0.014414942  0.012833381           76 
  485000    0.4933118   -7.6410002    83.609858  0.014365955  0.012791233           56 
  486000   0.48837729   -7.6258272    83.578079  0.014330946  0.012749269          100 
  487000   0.48436354    -7.632196    83.631598  0.014310677  0.012707426           72 
  488000   0.48640357   -7.6322173     83.50925  0.014260459  0.012665715           75 
  489000   0.49058976   -7.6321997    83.592087  0.014245414    0.0126242          128 
  490000   0.49015108   -7.6234984     83.54952  0.014209102  0.012582742           90 
  491000   0.48047627   -7.6352956    83.589242  0.014186905  0.012541474           67 
  492000   0.47752583   -7.6581207    83.606676  0.014161022  0.012500396          118 
  493000   0.47848621   -7.6492251    83.510963  0.014116119  0.012459519          123 
  494000   0.47963252   -7.6425097    83.388563  0.014066897  0.012418766          126 
  495000   0.47880745   -7.6550835     83.49797  0.014056897  0.012378255          100 
  496000   0.47661206   -7.6534855    83.418601  0.014015222  0.012337823          191 
  497000   0.47219185   -7.6498287    83.499137  0.014000526  0.012297545          100 
  498000   0.47027738   -7.6640497    83.723225   0.01400991  0.012257495          123 
  499000   0.46990873   -7.6628501     83.34853   0.01391926  0.012217502          120 
  500000   0.46372548   -7.6739608    83.423051  0.013903842  0.012177678           60 
  501000   0.47162773   -7.6765231    83.365335  0.013866489  0.012138018          108 
  502000   0.46901045   -7.6782981    83.446753  0.013852383   0.01209855          122 
  503000   0.47392743   -7.6560535    83.348016  0.013808485  0.012059318           91 
  504000   0.46319317    -7.679597    83.417712  0.013792611  0.012020182           88 
  505000    0.4528971   -7.6647056    83.362991  0.013756269  0.011981247          255 
  506000   0.45423161   -7.6741023    83.310789  0.013720486  0.011942397          125 
  507000   0.47000299   -7.6941827    83.420936  0.013711528  0.011903755          107 
  508000   0.45149471   -7.6573251    83.355856  0.013673861   0.01186529           95 
  509000   0.45646258   -7.6819551    83.425743  0.013658439  0.011826952          125 
  510000   0.46207255   -7.6735183    83.464034  0.013637914  0.011788775          112 
  511000   0.45219817   -7.6852318    83.209722  0.013569752  0.011750736          163 
  512000   0.44508337   -7.6932252    83.354479   0.01356681   0.01171281           81 
Loop time of 1302.61 on 48 procs for 500000 steps with 4000 atoms

Performance: 66328.371 tau/day, 383.845 timesteps/s
99.4% CPU use with 48 MPI tasks x no OpenMP threads

MPI task timing breakdown:
Section |  min time  |  avg time  |  max time  |%varavg| %total
---------------------------------------------------------------
Pair    | 92.853     | 101.29     | 112.15     |  42.9 |  7.78
Neigh   | 9.1196     | 9.4357     | 9.8456     |   5.8 |  0.72
Comm    | 85.836     | 95.396     | 103.73     |  41.3 |  7.32
Output  | 0.97896    | 0.98048    | 1.0315     |   0.8 |  0.08
Modify  | 1077.4     | 1082.4     | 1085.6     |   6.0 | 83.09
Other   |            | 13.13      |            |       |  1.01

Nlocal:        83.3333 ave          92 max          76 min
Histogram: 3 2 2 10 4 16 9 0 1 1
Nghost:        2418.40 ave        2434 max        2399 min
Histogram: 1 1 3 4 6 10 11 9 1 2
Neighs:        16736.3 ave       19537 max       14094 min
Histogram: 2 4 6 10 5 3 5 6 6 1
FullNghs:      33471.6 ave       36918 max       30364 min
Histogram: 2 2 4 9 5 15 7 2 1 1

Total # of neighbors = 1606637
Ave neighs/atom = 401.65925
Neighbor list builds = 26729
Dangerous builds = 0

#clear
#
#next RN
#
#jump SELF
Total wall time: 0:21:46
